disp_x,disp_y,id,stress_xx,stress_xy,stress_yy,x,y,z
0.055498346359369,-0.011213706901078,0,418530.81190621,2364192.0880547,10722167.841063,5.2,0,0
0.055422064351158,-0.011506527492236,0.44747474747475,418530.81190621,2364192.0880547,10722167.841063,5.6474747474747,0,0
0.055357856527616,-0.011763101325089,0.8949494949495,3206160.973426,4963232.3791106,12412171.703243,6.0949494949495,0,0
0.055299518919984,-0.012002052742586,1.3424242424242,3206160.973426,4963232.3791106,12412171.703243,6.5424242424242,0,0
0.055249850082759,-0.012213472551351,1.789898989899,3433940.901925,5894275.9033391,10269971.04104,6.989898989899,0,0
0.055199110780406,-0.012419209933453,2.2373737373737,3433940.901925,5894275.9033391,10269971.04104,7.4373737373737,0,0
0.055157854526659,-0.012608690958032,2.6848484848485,4277924.9394037,6444031.0713889,9424868.4530898,7.8848484848485,0,0
0.055116196634758,-0.012791782014111,3.1323232323232,4277924.9394037,6444031.0713889,9424868.4530898,8.3323232323232,0,0
0.055078514916407,-0.012966522094226,3.579797979798,4796035.9904601,6618392.417475,8940063.3555881,8.779797979798,0,0
0.055041439300538,-0.013135652778282,4.0272727272727,4588006.5813446,6345722.3245882,8652242.5548211,9.2272727272727,0,0
0.055003897684294,-0.0133012570256,4.4747474747475,5114336.0425991,6461059.586746,8606676.3411748,9.6747474747475,0,0
0.054971187742214,-0.013459834989977,4.9222222222222,5114336.0425991,6461059.586746,8606676.3411748,10.122222222222,0,0
0.054936156783843,-0.013616534928649,5.369696969697,4484904.1598528,6558254.9138181,8597164.1454922,10.569696969697,0,0
0.054903520587653,-0.013768824786407,5.8171717171717,5356574.2312492,6431457.8498349,8581045.0840198,11.017171717172,0,0
0.054871035539144,-0.013918991120752,6.2646464646465,4789753.8878322,6499689.2872376,8546215.2846121,11.464646464646,0,0
0.054837251749162,-0.014066853873612,6.7121212121212,5574270.2552766,6346642.9978082,8635369.6378109,11.912121212121,0,0
0.054806561837787,-0.014212532626121,7.159595959596,4971386.637665,6381841.7074514,8551734.112711,12.359595959596,0,0
0.054772846406002,-0.014356575645652,7.6070707070707,4971386.6376651,6381841.7074514,8551734.112711,12.807070707071,0,0
0.054741923007461,-0.014499421751335,8.0545454545455,5123174.8512064,6223304.3428914,8607424.0205745,13.254545454545,0,0
0.054709282361435,-0.01464073342376,8.5020202020202,5123174.8512064,6223304.3428914,8607424.0205745,13.70202020202,0,0
0.054676806620983,-0.014781510233772,8.949494949495,5277955.948646,6001262.2515012,9002737.2942376,14.149494949495,0,0
0.054644351607109,-0.014920576945999,9.3969696969697,5277955.948646,6001262.2515012,9002737.2942376,14.59696969697,0,0
0.054611135144922,-0.015059372237671,9.8444444444444,4778366.4573985,5997715.1652994,8898647.8452181,15.044444444444,0,0
0.054578340800338,-0.015197123519481,10.291919191919,5383463.8380199,5831074.1358289,9103119.7426638,15.491919191919,0,0
0.054545908998565,-0.015334766425929,10.739393939394,4888409.9782584,5801956.0363867,8972891.0359736,15.939393939394,0,0
0.054511565491142,-0.015471816024948,11.186868686869,5433407.4844105,5648138.4473555,9167318.387483,16.386868686869,0,0
0.054479545265459,-0.015608908119637,11.634343434343,4925175.6352582,5603948.2619099,9018413.8380591,16.834343434343,0,0
0.054444202056257,-0.015745604942447,12.081818181818,4925175.6352582,5603948.2619099,9018413.8380591,17.281818181818,0,0
0.054412150032917,-0.015882438287691,12.529292929293,5048426.5799358,5371770.4319072,9075426.0276199,17.729292929293,0,0
0.054377647830572,-0.016019329921413,12.976767676768,5048426.5799358,5371770.4319072,9075426.0276199,18.176767676768,0,0
0.054344089050744,-0.016156213978808,13.424242424242,5568786.0320734,5221999.139362,9245641.9030451,18.624242424242,0,0
0.054310132208235,-0.016293215022068,13.871717171717,5099221.5678059,5156035.3433741,9082233.5682751,19.071717171717,0,0
0.054275906684402,-0.016429911864646,14.319191919192,5213840.2589324,5127590.4307989,9495444.430732,19.519191919192,0,0
0.054241496298613,-0.016566929601517,14.766666666667,5281379.0566066,4885759.8903769,9487036.3147602,19.966666666667,0,0
0.054207766547246,-0.016704002306654,15.214141414141,5281379.0566066,4885759.8903769,9487036.3147602,20.414141414141,0,0
0.054172031293031,-0.01684157168318,15.661616161616,5340797.4095508,4638871.7968775,9461161.8051281,20.861616161616,0,0
0.054138850476923,-0.016979122425594,16.109090909091,5340797.4095508,4638871.7968775,9461161.8051281,21.309090909091,0,0
0.054102813141926,-0.017117423067853,16.556565656566,4827062.9801004,4532810.4413536,9246133.4976767,21.756565656566,0,0
0.05406968249128,-0.017255553167734,17.00404040404,5444880.9191948,4382256.7310749,9406960.9194202,22.20404040404,0,0
0.054034457568089,-0.017394244572537,17.451515151515,4866005.7444446,4270920.7245878,9173267.4630048,22.651515151515,0,0
0.053999872135017,-0.017532888759916,17.89898989899,5539554.5221544,4117985.5596303,9316023.1005487,23.09898989899,0,0
0.053966105444508,-0.017671910559672,18.346464646465,5001074.7723182,3991851.3254974,9074821.211244,23.546464646465,0,0
0.053931222860105,-0.017811332084415,18.793939393939,5001074.7723182,3991851.3254974,9074821.211244,23.993939393939,0,0
0.05389836681742,-0.017950478193101,19.241414141414,5156857.4042627,3747041.1259362,8952607.7737765,24.441414141414,0,0
0.053864974421332,-0.018089535495115,19.688888888889,5265993.0717502,3729091.5188991,9331931.6453001,24.888888888889,0,0
0.05383105760717,-0.01822874577237,20.136363636364,5356123.4310602,3455263.1799578,9098674.8255567,25.336363636364,0,0
0.053798975215296,-0.018367441499493,20.583838383838,5356123.4310602,3455263.1799578,9098674.8255567,25.783838383838,0,0
0.053764754438362,-0.018506872349989,21.031313131313,4766244.2951003,3319097.1702527,8836609.4423041,26.231313131313,0,0
0.053734070929464,-0.018645370011777,21.478787878788,5582251.1185413,3165149.625818,8921660.2285618,26.678787878788,0,0
0.053702193646997,-0.018784273761295,21.926262626263,4932410.3582782,3019688.088388,8637793.3493517,27.126262626263,0,0
0.053670206146192,-0.018923045149715,22.373737373737,5733396.1332491,2891749.4845867,8647394.1961738,27.573737373737,0,0
0.053640508630824,-0.019060665179335,22.821212121212,5072355.5085696,2756082.2637245,8371524.2523385,28.021212121212,0,0
0.053608092372247,-0.019198989240286,23.268686868687,5072355.5085696,2756082.2637245,8371524.2523385,28.468686868687,0,0
0.05358031773228,-0.019335039059268,23.716161616162,5318223.6045142,2493654.9631055,8084040.1450967,28.916161616162,0,0
0.053550658091316,-0.019471384504795,24.163636363636,5318223.6045142,2493654.9631055,8084040.1450966,29.363636363636,0,0
0.053522306783938,-0.019606572612551,24.611111111111,5515505.2892565,2259168.1426171,7724698.9881328,29.811111111111,0,0
0.053494898789311,-0.019739630406914,25.058585858586,5564658.1560166,2180557.2130033,7993953.5602096,30.258585858586,0,0
0.053466149474985,-0.019872783698496,25.506060606061,4790153.3356739,2062433.0664658,7713217.8327117,30.706060606061,0,0
0.053440823569726,-0.020002635929333,25.953535353535,5821848.3539572,1928494.0105511,7637745.080744,31.153535353535,0,0
0.053415336590449,-0.020132030430246,26.40101010101,4979472.4174831,1824534.9376663,7359193.8480525,31.60101010101,0,0
0.053388899288545,-0.020259337271962,26.848484848485,6160409.6957596,1683127.9983368,7240926.529024,32.048484848485,0,0
0.053367485515986,-0.020383604799053,27.29595959596,5209022.6373212,1583109.8783794,6944939.859885,32.49595959596,0,0
0.053340008114125,-0.020507474932257,27.743434343434,5209022.6373212,1583109.8783794,6944939.859885,32.943434343434,0,0
0.053322041510882,-0.020626028185762,28.190909090909,5544482.0951269,1373514.3791316,6534066.0879261,33.390909090909,0,0
0.053298375314224,-0.020742920069245,28.638383838384,5544482.095127,1373514.3791316,6534066.0879261,33.838383838384,0,0
0.053279643566155,-0.020857139901928,29.085858585859,6929198.7871163,1222438.1057067,6353818.1724461,34.285858585859,0,0
0.053259930482445,-0.020965590164781,29.533333333333,5888406.0944796,1186492.6012927,6106668.4700962,34.733333333333,0,0
0.053240188213405,-0.021074032357664,29.980808080808,5888406.0944796,1186492.6012927,6106668.4700962,35.180808080808,0,0
0.053224150727762,-0.02117263808101,30.428282828283,6269589.5990793,815171.75960808,5733258.2564948,35.628282828283,0,0
0.053208487795371,-0.021270519869317,30.875757575758,6269589.5990793,815171.75960808,5733258.2564948,36.075757575758,0,0
0.053190530398983,-0.021360910940388,31.323232323232,6720396.8610944,630077.70237991,5251762.8294422,36.523232323232,0,0
0.053179799147131,-0.021446259029873,31.770707070707,6720396.8610944,630077.70237991,5251762.8294422,36.970707070707,0,0
0.053160592565494,-0.02152560654864,32.218181818182,7177150.5045944,469009.68751449,4699747.9857548,37.418181818182,0,0
0.053155030603706,-0.021595604916525,32.665656565657,7177150.5045943,469009.68751449,4699747.9857548,37.865656565657,0,0
0.053138624787708,-0.021659614621828,33.113131313131,5341015.3180171,553746.2794802,4502911.360958,38.313131313131,0,0
0.053133259000333,-0.021713682950916,33.560606060606,7772974.4378009,300270.5779273,4151964.6360512,38.760606060606,0,0
0.053123660240764,-0.021757737959152,34.008080808081,5720048.1506618,467760.27079629,4009867.420057,39.208080808081,0,0
0.053113756671237,-0.021794965797511,34.455555555556,8587801.5725538,159127.57885524,3605145.4502988,39.655555555556,0,0
0.053112605670396,-0.021814375855979,34.90303030303,6281783.467828,478353.11927181,3507827.7818777,40.10303030303,0,0
0.05310302563034,-0.021827363369079,35.350505050505,6281783.467828,478353.11927181,3507827.7818777,40.550505050505,0,0
0.053105468806829,-0.021820253024126,35.79797979798,7162745.1747353,571194.72545679,3039803.6570879,40.99797979798,0,0
0.053103962804267,-0.02179923345268,36.245454545455,6825079.8165477,-40821.812019282,2822732.5285342,41.445454545455,0,0
0.053098093482726,-0.021764208628758,36.692929292929,7869063.4711234,-171475.2401509,2254945.0825311,41.892929292929,0,0
0.05310468794102,-0.021699969035142,37.140404040404,7869063.4711234,-171475.2401509,2254945.0825311,42.340404040404,0,0
0.053098165251128,-0.021625227667413,37.587878787879,2919275.695442,605321.67070498,2082451.4987324,42.787878787879,0,0
0.053105430508858,-0.021510662967183,38.035353535354,9480110.9063783,-279381.00985294,1714036.7004076,43.235353535354,0,0
0.053113057291811,-0.021378066442846,38.482828282828,3240188.9524048,858112.61260152,1663598.5408242,43.682828282828,0,0
0.053101510547678,-0.021205351638203,38.930303030303,11930075.877086,-296381.11229935,1131531.7799891,44.130303030303,0,0
0.05313103337932,-0.020994690014053,39.377777777778,4157172.3322319,1459388.0326727,1425340.2546635,44.577777777778,0,0
0.053109913261657,-0.020734805892089,39.825252525253,4157172.3322319,1459388.0326728,1425340.2546635,45.025252525253,0,0
0.053151045068519,-0.020425993088282,40.272727272727,6470162.6332938,2913116.8617299,1706082.5478774,45.472727272727,0,0
0.053147829933824,-0.02002387106534,40.720202020202,6470162.6332938,2913116.8617299,1706082.5478774,45.920202020202,0,0
0.053171594420527,-0.019592344086073,41.167676767677,12731153.791968,6935176.795761,3758976.8820402,46.367676767677,0,0
0.053207968373375,-0.018953993183016,41.615151515152,8478633.4622534,829154.83110335,-1267930.3780278,46.815151515152,0,0
0.053228954053668,-0.018319182286838,42.062626262626,8478633.4622534,829154.83110335,-1267930.3780278,47.262626262626,0,0
0.053228073780672,-0.017298867293673,42.510101010101,18255966.57748,36768.730986397,-4790576.607025,47.710101010101,0,0
0.053337410568128,-0.016224169834249,42.957575757576,18255966.57748,36768.730986397,-4790576.607025,48.157575757576,0,0
0.053007755122082,-0.014427592466427,43.405050505051,39743708.415626,6286878.4107772,-17782469.17236,48.605050505051,0,0
0.053325380427588,-0.012214219084052,43.852525252525,39743708.415626,6286878.4107772,-17782469.17236,49.052525252525,0,0
0.053323788174492,-0.0068977114922299,44.3,-41386.545909797,188596711.04346,14335718.09957,49.5,0,0
