disp_x,disp_y,id,stress_xx,stress_xy,stress_yy,x,y,z
-71.684359034813,-4.0850479716084,0,240705.49823018,-27221.641239492,5077213.9110488,5.2,0,0
-71.68435886252,-4.0824649998327,0.0044304430443045,240705.49823018,-27221.641239492,5077213.9110488,5.2044304430443,0,0
-71.684358690227,-4.0798820280569,0.008860886088609,240705.49823018,-27221.641239492,5077213.9110488,5.2088608860886,0,0
-71.684358517934,-4.0772990562811,0.013291329132914,240705.49823018,-27221.641239492,5077213.9110488,5.2132913291329,0,0
-71.68435834564,-4.0747160845054,0.017721772177218,240705.49823018,-27221.641239492,5077213.9110488,5.2177217721772,0,0
-71.68435817199,-4.0721330970072,0.022152215221523,223414.18955179,18808.136461507,4963754.889372,5.2221522152215,0,0
-71.684357997739,-4.0695501025389,0.026582658265826,223414.18955179,18808.136461507,4963754.889372,5.2265826582658,0,0
-71.684357823487,-4.0669671080707,0.031013101310131,223414.18955179,18808.136461507,4963754.889372,5.2310131013101,0,0
-71.684357649235,-4.0643841136024,0.035443544354435,223414.18955179,18808.136461507,4963754.889372,5.2354435443544,0,0
-71.684357474984,-4.0618011191342,0.03987398739874,223414.18955179,18808.136461507,4963754.889372,5.2398739873987,0,0
-71.684357300732,-4.0592181246659,0.044304430443044,223414.18955179,18808.136461507,4963754.889372,5.244304430443,0,0
-71.68435712648,-4.0566351301976,0.048734873487349,223414.18955179,18808.136461507,4963754.889372,5.2487348734873,0,0
-71.684356952228,-4.0540521357294,0.053165316531653,223414.18955179,18808.136461507,4963754.889372,5.2531653165317,0,0
-71.684356777977,-4.0514691412611,0.057595759575958,223414.18955179,18808.136461507,4963754.889372,5.257595759576,0,0
-71.684356603725,-4.0488861467929,0.062026202620262,223414.18955179,18808.136461507,4963754.889372,5.2620262026203,0,0
-71.684356429473,-4.0463031523246,0.066456645664567,223414.18955179,18808.136461507,4963754.889372,5.2664566456646,0,0
-71.684356255222,-4.0437201578563,0.070887088708871,223414.18955179,18808.136461507,4963754.889372,5.2708870887089,0,0
-71.68435608097,-4.0411371633881,0.075317531753175,223414.18955179,18808.136461507,4963754.889372,5.2753175317532,0,0
-71.684355906718,-4.0385541689198,0.079747974797479,223414.18955179,18808.136461507,4963754.889372,5.2797479747975,0,0
-71.684355732467,-4.0359711744516,0.084178417841784,223414.18955179,18808.136461507,4963754.889372,5.2841784178418,0,0
-71.684355558215,-4.0333881799833,0.088608860886088,223414.18955179,18808.136461507,4963754.889372,5.2886088608861,0,0
-71.684355381994,-4.0308051874765,0.093039303930393,340000.9240065,-9612.5893311658,4942190.4251569,5.2930393039304,0,0
-71.68435518547,-4.0282222151916,0.097469746974697,340000.9240065,-9612.5893311658,4942190.4251569,5.2974697469747,0,0
-71.684354988946,-4.0256392429067,0.101900190019,340000.9240065,-9612.5893311658,4942190.4251569,5.301900190019,0,0
-71.684354792422,-4.0230562706218,0.10633063306331,340000.9240065,-9612.5893311658,4942190.4251569,5.3063306330633,0,0
-71.684354595898,-4.0204732983369,0.11076107610761,340000.9240065,-9612.5893311658,4942190.4251569,5.3107610761076,0,0
-71.684354399374,-4.017890326052,0.11519151915192,340000.9240065,-9612.5893311658,4942190.4251569,5.3151915191519,0,0
-71.684354202851,-4.0153073537671,0.11962196219622,340000.9240065,-9612.5893311658,4942190.4251569,5.3196219621962,0,0
-71.684354006327,-4.0127243814822,0.12405240524052,340000.9240065,-9612.5893311658,4942190.4251569,5.3240524052405,0,0
-71.684353809803,-4.0101414091973,0.12848284828483,340000.9240065,-9612.5893311658,4942190.4251569,5.3284828482848,0,0
-71.684353613279,-4.0075584369124,0.13291329132913,340000.9240065,-9612.5893311658,4942190.4251569,5.3329132913291,0,0
-71.684353416755,-4.0049754646275,0.13734373437344,340000.9240065,-9612.5893311658,4942190.4251569,5.3373437343734,0,0
-71.684353220231,-4.0023924923426,0.14177417741774,340000.9240065,-9612.5893311658,4942190.4251569,5.3417741774177,0,0
-71.684353023707,-3.9998095200577,0.14620462046205,340000.9240065,-9612.5893311658,4942190.4251569,5.346204620462,0,0
-71.684352827183,-3.9972265477728,0.15063506350635,340000.9240065,-9612.5893311658,4942190.4251569,5.3506350635064,0,0
-71.684352630659,-3.9946435754879,0.15506550655066,340000.9240065,-9612.5893311658,4942190.4251569,5.3550655065507,0,0
-71.684352434135,-3.992060603203,0.15949594959496,340000.9240065,-9612.5893311658,4942190.4251569,5.359495949595,0,0
-71.684352237611,-3.9894776309181,0.16392639263926,340000.9240065,-9612.5893311658,4942190.4251569,5.3639263926393,0,0
-71.684352041087,-3.9868946586331,0.16835683568357,340000.9240065,-9612.5893311658,4942190.4251569,5.3683568356836,0,0
-71.684351844564,-3.9843116863482,0.17278727872787,340000.9240065,-9612.5893311658,4942190.4251569,5.3727872787279,0,0
-71.68435164804,-3.9817287140633,0.17721772177218,340000.9240065,-9612.5893311658,4942190.4251569,5.3772177217722,0,0
-71.684351451516,-3.9791457417784,0.18164816481648,340000.9240065,-9612.5893311658,4942190.4251569,5.3816481648165,0,0
-71.68435125245,-3.9765627597559,0.18607860786079,352825.37952681,38995.369542449,4835752.8321988,5.3860786078608,0,0
-71.684351048783,-3.9739797600995,0.19050905090509,352825.37952681,38995.369542449,4835752.8321988,5.3905090509051,0,0
-71.684350845115,-3.9713967604431,0.19493949394939,352825.37952681,38995.369542449,4835752.8321988,5.3949394939494,0,0
-71.684350641448,-3.9688137607867,0.1993699369937,352825.37952681,38995.369542449,4835752.8321988,5.3993699369937,0,0
-71.68435043778,-3.9662307611302,0.203800380038,352825.37952681,38995.369542449,4835752.8321988,5.403800380038,0,0
-71.684350234112,-3.9636477614738,0.20823082308231,352825.37952681,38995.369542449,4835752.8321987,5.4082308230823,0,0
-71.684350030445,-3.9610647618174,0.21266126612661,352825.37952681,38995.369542449,4835752.8321987,5.4126612661266,0,0
-71.684349826777,-3.958481762161,0.21709170917092,352825.37952681,38995.369542449,4835752.8321987,5.4170917091709,0,0
-71.684349623109,-3.9558987625046,0.22152215221522,352825.37952681,38995.369542449,4835752.8321987,5.4215221522152,0,0
-71.684349419442,-3.9533157628481,0.22595259525953,352825.37952681,38995.369542449,4835752.8321987,5.4259525952595,0,0
-71.684349215774,-3.9507327631917,0.23038303830383,352825.37952681,38995.369542449,4835752.8321987,5.4303830383038,0,0
-71.684349006029,-3.9481497699936,0.23481348134813,464992.44898268,7214.0347829496,4815309.0254415,5.4348134813481,0,0
-71.684348780947,-3.9455667930924,0.23924392439244,464992.44898268,7214.0347829496,4815309.0254415,5.4392439243924,0,0
-71.684348555865,-3.9429838161912,0.24367436743674,464992.44898268,7214.0347829496,4815309.0254415,5.4436743674367,0,0
-71.684348330783,-3.94040083929,0.24810481048105,464992.44898268,7214.0347829496,4815309.0254415,5.448104810481,0,0
-71.684348105702,-3.9378178623889,0.25253525352535,464992.44898268,7214.0347829496,4815309.0254415,5.4525352535254,0,0
-71.68434788062,-3.9352348854877,0.25696569656966,464992.44898268,7214.0347829496,4815309.0254415,5.4569656965697,0,0
-71.684347655538,-3.9326519085865,0.26139613961396,464992.44898268,7214.0347829496,4815309.0254415,5.461396139614,0,0
-71.684347430456,-3.9300689316854,0.26582658265827,464992.44898268,7214.0347829496,4815309.0254415,5.4658265826583,0,0
-71.684347205374,-3.9274859547842,0.27025702570257,464992.44898268,7214.0347829496,4815309.0254415,5.4702570257026,0,0
-71.684346980292,-3.924902977883,0.27468746874687,464992.44898268,7214.0347829496,4815309.0254415,5.4746874687469,0,0
-71.68434675521,-3.9223200009818,0.27911791179118,464992.44898268,7214.0347829496,4815309.0254415,5.4791179117912,0,0
-71.684346530129,-3.9197370240807,0.28354835483548,464992.44898268,7214.0347829496,4815309.0254415,5.4835483548355,0,0
-71.684346305047,-3.9171540471795,0.28797879787979,464992.44898268,7214.0347829496,4815309.0254415,5.4879787978798,0,0
-71.684346079965,-3.9145710702783,0.29240924092409,464992.44898268,7214.0347829496,4815309.0254415,5.4924092409241,0,0
-71.684345854883,-3.9119880933772,0.2968396839684,464992.44898268,7214.0347829496,4815309.0254415,5.4968396839684,0,0
-71.684345629801,-3.909405116476,0.3012701270127,464992.44898268,7214.0347829496,4815309.0254415,5.5012701270127,0,0
-71.684345404719,-3.9068221395748,0.30570057005701,464992.44898268,7214.0347829496,4815309.0254415,5.505700570057,0,0
-71.684345179637,-3.9042391626737,0.31013101310131,464992.44898268,7214.0347829496,4815309.0254415,5.5101310131013,0,0
-71.684344954556,-3.9016561857725,0.31456145614561,464992.44898268,7214.0347829496,4815309.0254415,5.5145614561456,0,0
-71.684344729474,-3.8990732088713,0.31899189918992,464992.44898268,7214.0347829496,4815309.0254415,5.5189918991899,0,0
-71.684344504392,-3.8964902319701,0.32342234223422,464992.44898268,7214.0347829496,4815309.0254415,5.5234223422342,0,0
-71.68434427931,-3.893907255069,0.32785278527853,464992.44898268,7214.0347829496,4815309.0254415,5.5278527852785,0,0
-71.684344054228,-3.8913242781678,0.33228322832283,464992.44898268,7214.0347829496,4815309.0254415,5.5322832283228,0,0
-71.684343829146,-3.8887413012666,0.33671367136714,464992.44898268,7214.0347829496,4815309.0254415,5.5367136713671,0,0
-71.684343604064,-3.8861583243655,0.34114411441144,464992.44898268,7214.0347829496,4815309.0254415,5.5411441144114,0,0
-71.684343378983,-3.8835753474643,0.34557455745575,464992.44898268,7214.0347829496,4815309.0254415,5.5455745574557,0,0
-71.684343153901,-3.8809923705631,0.35000500050005,464992.44898268,7214.0347829496,4815309.0254415,5.5500050005001,0,0
-71.684342925576,-3.8784093835961,0.35443544354435,485100.67061543,49278.052403745,4716012.8174167,5.5544354435444,0,0
-71.684342692341,-3.8758263813935,0.35886588658866,485100.67061543,49278.052403745,4716012.8174167,5.5588658865887,0,0
-71.684342459107,-3.8732433791909,0.36329632963296,485100.67061543,49278.052403745,4716012.8174167,5.563296329633,0,0
-71.684342225873,-3.8706603769884,0.36772677267727,485100.67061543,49278.052403745,4716012.8174167,5.5677267726773,0,0
-71.684341992639,-3.8680773747858,0.37215721572157,485100.67061543,49278.052403745,4716012.8174167,5.5721572157216,0,0
-71.684341759405,-3.8654943725832,0.37658765876588,485100.67061543,49278.052403745,4716012.8174167,5.5765876587659,0,0
-71.684341526171,-3.8629113703806,0.38101810181018,485100.67061543,49278.052403745,4716012.8174167,5.5810181018102,0,0
-71.684341289861,-3.8603283714271,0.38544854485449,589714.35399482,19711.575389479,4698039.3730336,5.5854485448545,0,0
-71.684341036704,-3.85774539027,0.38987898789879,589714.35399482,19711.575389479,4698039.3730336,5.5898789878988,0,0
-71.684340783547,-3.855162409113,0.39430943094309,589714.35399482,19711.575389479,4698039.3730336,5.5943094309431,0,0
-71.68434053039,-3.852579427956,0.3987398739874,589714.35399482,19711.575389479,4698039.3730336,5.5987398739874,0,0
-71.684340277233,-3.849996446799,0.4031703170317,589714.35399482,19711.575389479,4698039.3730336,5.6031703170317,0,0
-71.684340024076,-3.8474134656419,0.40760076007601,589714.35399482,19711.575389479,4698039.3730336,5.607600760076,0,0
-71.684339770919,-3.8448304844849,0.41203120312031,589714.35399482,19711.575389479,4698039.3730336,5.6120312031203,0,0
-71.684339517762,-3.8422475033279,0.41646164616462,589714.35399482,19711.575389479,4698039.3730336,5.6164616461646,0,0
-71.684339264605,-3.8396645221708,0.42089208920892,589714.35399483,19711.575389479,4698039.3730336,5.6208920892089,0,0
-71.684339011448,-3.8370815410138,0.42532253225323,589714.35399483,19711.575389479,4698039.3730336,5.6253225322532,0,0
-71.684338758291,-3.8344985598568,0.42975297529753,589714.35399483,19711.575389479,4698039.3730336,5.6297529752975,0,0
-71.684338505134,-3.8319155786997,0.43418341834183,589714.35399483,19711.575389479,4698039.3730336,5.6341834183418,0,0
-71.684338251977,-3.8293325975427,0.43861386138614,589714.35399483,19711.575389479,4698039.3730336,5.6386138613861,0,0
-71.68433799882,-3.8267496163857,0.44304430443044,589714.35399483,19711.575389479,4698039.3730336,5.6430443044304,0,0
-71.684337745663,-3.8241666352286,0.44747474747475,589714.35399483,19711.575389479,4698039.3730336,5.6474747474747,0,0
-71.684337492506,-3.8215836540716,0.45190519051905,589714.35399483,19711.575389479,4698039.3730336,5.6519051905191,0,0
-71.684337239349,-3.8190006729146,0.45633563356336,589714.35399483,19711.575389479,4698039.3730336,5.6563356335634,0,0
-71.684336986192,-3.8164176917575,0.46076607660766,589714.35399483,19711.575389479,4698039.3730336,5.6607660766077,0,0
-71.684336733035,-3.8138347106005,0.46519651965196,589714.35399483,19711.575389479,4698039.3730336,5.665196519652,0,0
-71.684336479878,-3.8112517294435,0.46962696269627,589714.35399483,19711.575389479,4698039.3730336,5.6696269626963,0,0
-71.684336226721,-3.8086687482864,0.47405740574057,589714.35399483,19711.575389479,4698039.3730336,5.6740574057406,0,0
-71.684335973564,-3.8060857671294,0.47848784878488,589714.35399483,19711.575389479,4698039.3730336,5.6784878487849,0,0
-71.684335720407,-3.8035027859724,0.48291829182918,589714.35399483,19711.575389479,4698039.3730336,5.6829182918292,0,0
-71.68433546725,-3.8009198048154,0.48734873487349,589714.35399483,19711.575389479,4698039.3730336,5.6873487348735,0,0
-71.684335214092,-3.7983368236583,0.49177917791779,589714.35399483,19711.575389479,4698039.3730336,5.6917791779178,0,0
-71.684334960935,-3.7957538425013,0.4962096209621,589714.35399483,19711.575389479,4698039.3730336,5.6962096209621,0,0
-71.684334707778,-3.7931708613443,0.5006400640064,589714.35399483,19711.575389479,4698039.3730336,5.7006400640064,0,0
-71.684334454621,-3.7905878801872,0.50507050705071,589714.35399483,19711.575389479,4698039.3730336,5.7050705070507,0,0
-71.684334201464,-3.7880048990302,0.50950095009501,589714.35399483,19711.575389479,4698039.3730336,5.709500950095,0,0
-71.684333948307,-3.7854219178732,0.51393139313931,589714.35399483,19711.575389479,4698039.3730336,5.7139313931393,0,0
-71.68433369515,-3.7828389367161,0.51836183618362,589714.35399483,19711.575389479,4698039.3730336,5.7183618361836,0,0
-71.684333441993,-3.7802559555591,0.52279227922792,589714.35399483,19711.575389479,4698039.3730336,5.7227922792279,0,0
-71.684333188836,-3.7776729744021,0.52722272227223,589714.35399483,19711.575389479,4698039.3730336,5.7272227222722,0,0
-71.684332935679,-3.775089993245,0.53165316531653,589714.35399483,19711.575389479,4698039.3730336,5.7316531653165,0,0
-71.684332677084,-3.7725069959656,0.53608360836084,608724.85118406,57537.598094654,4597826.6708523,5.7360836083608,0,0
-71.684332415934,-3.7699239911108,0.54051405140514,608724.85118406,57537.598094654,4597826.6708523,5.7405140514051,0,0
-71.684332140338,-3.7673410024138,0.54494449444945,700611.79737577,30464.341784959,4573582.4163365,5.7449444944494,0,0
-71.684331861308,-3.7647580175588,0.54937493749375,700611.79737577,30464.341784959,4573582.4163365,5.7493749374937,0,0
-71.684331582277,-3.7621750327037,0.55380538053805,700611.79737577,30464.341784959,4573582.4163365,5.7538053805381,0,0
-71.684331303246,-3.7595920478486,0.55823582358236,700611.79737577,30464.341784959,4573582.4163365,5.7582358235824,0,0
-71.684331024216,-3.7570090629936,0.56266626662666,700611.79737577,30464.341784959,4573582.4163365,5.7626662666267,0,0
-71.684330745185,-3.7544260781385,0.56709670967097,700611.79737577,30464.341784959,4573582.4163365,5.767096709671,0,0
-71.684330466154,-3.7518430932834,0.57152715271527,700611.79737577,30464.341784959,4573582.4163365,5.7715271527153,0,0
-71.684330187123,-3.7492601084284,0.57595759575958,700611.79737577,30464.341784959,4573582.4163365,5.7759575957596,0,0
-71.684329908093,-3.7466771235733,0.58038803880388,700611.79737577,30464.341784959,4573582.4163365,5.7803880388039,0,0
-71.684329629062,-3.7440941387182,0.58481848184818,700611.79737577,30464.341784959,4573582.4163365,5.7848184818482,0,0
-71.684329350031,-3.7415111538632,0.58924892489249,700611.79737577,30464.341784959,4573582.4163365,5.7892489248925,0,0
-71.684329071001,-3.7389281690081,0.59367936793679,700611.79737577,30464.341784959,4573582.4163365,5.7936793679368,0,0
-71.684328793455,-3.7363451849663,0.5981098109811,664132.8923834,-27514.036918076,4490162.5183294,5.7981098109811,0,0
-71.684328517326,-3.7337622017003,0.6025402540254,664132.8923834,-27514.036918076,4490162.5183294,5.8025402540254,0,0
-71.684328241197,-3.7311792184344,0.60697069706971,664132.8923834,-27514.036918076,4490162.5183294,5.8069706970697,0,0
-71.684327965068,-3.7285962351685,0.61140114011401,664132.8923834,-27514.036918076,4490162.5183294,5.811401140114,0,0
-71.68432768894,-3.7260132519025,0.61583158315832,664132.8923834,-27514.036918076,4490162.5183294,5.8158315831583,0,0
-71.684327412811,-3.7234302686366,0.62026202620262,664132.8923834,-27514.036918076,4490162.5183294,5.8202620262026,0,0
-71.684327136682,-3.7208472853707,0.62469246924692,664132.8923834,-27514.036918076,4490162.5183294,5.8246924692469,0,0
-71.684326860553,-3.7182643021047,0.62912291229123,664132.8923834,-27514.036918076,4490162.5183294,5.8291229122912,0,0
-71.684326584424,-3.7156813188388,0.63355335533553,664132.8923834,-27514.036918076,4490162.5183294,5.8335533553355,0,0
-71.684326308296,-3.7130983355729,0.63798379837984,664132.8923834,-27514.036918076,4490162.5183294,5.8379837983798,0,0
-71.684326032167,-3.710515352307,0.64241424142414,664132.8923834,-27514.036918076,4490162.5183294,5.8424142414241,0,0
-71.684325756038,-3.707932369041,0.64684468446845,664132.8923834,-27514.036918076,4490162.5183294,5.8468446844684,0,0
-71.684325479909,-3.7053493857751,0.65127512751275,664132.8923834,-27514.036918076,4490162.5183294,5.8512751275128,0,0
-71.68432520378,-3.7027664025092,0.65570557055706,664132.8923834,-27514.036918076,4490162.5183294,5.8557055705571,0,0
-71.684324927652,-3.7001834192432,0.66013601360136,664132.8923834,-27514.036918076,4490162.5183294,5.8601360136014,0,0
-71.684324651523,-3.6976004359773,0.66456645664566,664132.8923834,-27514.036918076,4490162.5183294,5.8645664566457,0,0
-71.684324375394,-3.6950174527114,0.66899689968997,664132.8923834,-27514.036918076,4490162.5183294,5.86899689969,0,0
-71.684324099265,-3.6924344694454,0.67342734273427,664132.8923834,-27514.036918076,4490162.5183294,5.8734273427343,0,0
-71.684323823136,-3.6898514861795,0.67785778577858,664132.8923834,-27514.036918076,4490162.5183294,5.8778577857786,0,0
-71.684323547007,-3.6872685029136,0.68228822882288,664132.8923834,-27514.036918076,4490162.5183294,5.8822882288229,0,0
-71.684323270879,-3.6846855196477,0.68671867186719,664132.8923834,-27514.036918076,4490162.5183294,5.8867186718672,0,0
-71.68432299475,-3.6821025363817,0.69114911491149,664132.8923834,-27514.036918076,4490162.5183294,5.8911491149115,0,0
-71.68432270781,-3.6795195582367,0.6955795579558,825958.43036574,-43948.430296877,4514569.0138698,5.8955795579558,0,0
-71.684322403218,-3.6769365884537,0.7000100010001,825958.43036574,-43948.430296877,4514569.0138698,5.9000100010001,0,0
-71.684322098626,-3.6743536186708,0.7044404440444,825958.43036574,-43948.430296877,4514569.0138698,5.9044404440444,0,0
-71.684321794033,-3.6717706488878,0.70887088708871,825958.43036574,-43948.430296877,4514569.0138698,5.9088708870887,0,0
-71.684321489441,-3.6691876791049,0.71330133013301,825958.43036574,-43948.430296877,4514569.0138698,5.913301330133,0,0
-71.684321184848,-3.6666047093219,0.71773177317732,825958.43036574,-43948.430296877,4514569.0138698,5.9177317731773,0,0
-71.684320884153,-3.664021735724,0.72216221622162,759965.60939603,5974.7523465859,4416422.8380587,5.9221622162216,0,0
-71.68432058719,-3.6614387584719,0.72659265926593,759965.60939603,5974.7523465859,4416422.8380587,5.9265926592659,0,0
-71.684320290227,-3.6588557812198,0.73102310231023,759965.60939603,5974.7523465859,4416422.8380587,5.9310231023102,0,0
-71.684319993265,-3.6562728039678,0.73545354535454,759965.60939603,5974.7523465859,4416422.8380587,5.9354535453545,0,0
-71.684319696302,-3.6536898267157,0.73988398839884,759965.60939603,5974.7523465859,4416422.8380587,5.9398839883988,0,0
-71.684319399339,-3.6511068494637,0.74431443144314,759965.60939603,5974.7523465859,4416422.8380587,5.9443144314431,0,0
-71.684319102376,-3.6485238722116,0.74874487448745,759965.60939603,5974.7523465859,4416422.8380587,5.9487448744874,0,0
-71.684318805414,-3.6459408949596,0.75317531753175,759965.60939603,5974.7523465859,4416422.8380587,5.9531753175318,0,0
-71.684318508451,-3.6433579177075,0.75760576057606,759965.60939603,5974.7523465859,4416422.8380587,5.9576057605761,0,0
-71.684318211488,-3.6407749404555,0.76203620362036,759965.60939603,5974.7523465859,4416422.8380587,5.9620362036204,0,0
-71.684317914525,-3.6381919632034,0.76646664666467,759965.60939603,5974.7523465859,4416422.8380587,5.9664666466647,0,0
-71.684317617563,-3.6356089859513,0.77089708970897,759965.60939603,5974.7523465859,4416422.8380587,5.970897089709,0,0
-71.6843173206,-3.6330260086993,0.77532753275328,759965.60939603,5974.7523465859,4416422.8380587,5.9753275327533,0,0
-71.684317023637,-3.6304430314472,0.77975797579758,759965.60939603,5974.7523465859,4416422.8380587,5.9797579757976,0,0
-71.684316726674,-3.6278600541952,0.78418841884188,759965.60939603,5974.7523465859,4416422.8380587,5.9841884188419,0,0
-71.684316429712,-3.6252770769431,0.78861886188619,759965.60939603,5974.7523465859,4416422.8380587,5.9886188618862,0,0
-71.684316132749,-3.6226940996911,0.79304930493049,759965.60939603,5974.7523465859,4416422.8380587,5.9930493049305,0,0
-71.684315835786,-3.620111122439,0.7974797479748,759965.60939603,5974.7523465859,4416422.8380587,5.9974797479748,0,0
-71.684315538824,-3.617528145187,0.8019101910191,759965.60939603,5974.7523465859,4416422.8380587,6.0019101910191,0,0
-71.684315241861,-3.6149451679349,0.80634063406341,759965.60939603,5974.7523465859,4416422.8380587,6.0063406340634,0,0
-71.684314944898,-3.6123621906829,0.81077107710771,759965.60939603,5974.7523465859,4416422.8380587,6.0107710771077,0,0
-71.684314647935,-3.6097792134308,0.81520152015201,759965.60939603,5974.7523465859,4416422.8380587,6.015201520152,0,0
-71.684314350973,-3.6071962361787,0.81963196319632,759965.60939603,5974.7523465859,4416422.8380587,6.0196319631963,0,0
-71.68431405401,-3.6046132589267,0.82406240624062,759965.60939603,5974.7523465859,4416422.8380587,6.0240624062406,0,0
-71.684313757047,-3.6020302816746,0.82849284928493,759965.60939603,5974.7523465859,4416422.8380587,6.0284928492849,0,0
-71.684313460084,-3.5994473044226,0.83292329232923,759965.60939603,5974.7523465859,4416422.8380587,6.0329232923292,0,0
-71.684313163122,-3.5968643271705,0.83735373537354,759965.60939603,5974.7523465859,4416422.8380587,6.0373537353735,0,0
-71.684312866159,-3.5942813499185,0.84178417841784,759965.60939603,5974.7523465859,4416422.8380587,6.0417841784178,0,0
-71.684312569196,-3.5916983726664,0.84621462146215,759965.60939603,5974.7523465859,4416422.8380587,6.0462146214621,0,0
-71.684312269571,-3.5891153926642,0.85064506450645,876360.86805235,36036.905878083,4391906.7717079,6.0506450645065,0,0
-71.684311950238,-3.5865323922996,0.85507550755076,876360.86805235,36036.905878083,4391906.7717079,6.0550755075508,0,0
-71.684311630905,-3.583949391935,0.85950595059506,876360.86805235,36036.905878083,4391906.7717079,6.0595059505951,0,0
-71.684311311572,-3.5813663915704,0.86393639363936,876360.86805235,36036.905878083,4391906.7717079,6.0639363936394,0,0
-71.684310992239,-3.5787833912058,0.86836683668367,876360.86805235,36036.905878083,4391906.7717079,6.0683668366837,0,0
-71.684310672906,-3.5762003908412,0.87279727972797,876360.86805235,36036.905878083,4391906.7717079,6.072797279728,0,0
-71.684310353573,-3.5736173904766,0.87722772277228,876360.86805235,36036.905878083,4391906.7717079,6.0772277227723,0,0
-71.684310034239,-3.571034390112,0.88165816581658,876360.86805235,36036.905878083,4391906.7717079,6.0816581658166,0,0
-71.684309714906,-3.5684513897474,0.88608860886089,876360.86805235,36036.905878083,4391906.7717079,6.0860886088609,0,0
-71.684309395573,-3.5658683893828,0.89051905190519,876360.86805235,36036.905878083,4391906.7717079,6.0905190519052,0,0
-71.68430907624,-3.5632853890183,0.8949494949495,876360.86805235,36036.905878083,4391906.7717079,6.0949494949495,0,0
-71.684308756907,-3.5607023886537,0.8993799379938,876360.86805235,36036.905878083,4391906.7717079,6.0993799379938,0,0
-71.684308437574,-3.5581193882891,0.9038103810381,876360.86805235,36036.905878083,4391906.7717079,6.1038103810381,0,0
-71.684308118241,-3.5555363879245,0.90824082408241,876360.86805235,36036.905878083,4391906.7717079,6.1082408240824,0,0
-71.684307798908,-3.5529533875599,0.91267126712671,876360.86805235,36036.905878083,4391906.7717079,6.1126712671267,0,0
-71.684307479574,-3.5503703871953,0.91710171017102,876360.86805235,36036.905878083,4391906.7717079,6.117101710171,0,0
-71.684307160241,-3.5477873868307,0.92153215321532,876360.86805235,36036.905878083,4391906.7717079,6.1215321532153,0,0
-71.684306840908,-3.5452043864661,0.92596259625963,876360.86805235,36036.905878083,4391906.7717079,6.1259625962596,0,0
-71.684306521575,-3.5426213861015,0.93039303930393,876360.86805235,36036.905878083,4391906.7717079,6.1303930393039,0,0
-71.684306202242,-3.5400383857369,0.93482348234823,876360.86805235,36036.905878083,4391906.7717079,6.1348234823482,0,0
-71.68430587992,-3.5374553908308,0.93925392539254,935131.11331286,-794.25191936732,4313698.2490538,6.1392539253925,0,0
-71.684305546323,-3.5348724165202,0.94368436843684,935131.11331286,-794.25191936732,4313698.2490538,6.1436843684368,0,0
-71.684305212725,-3.5322894422097,0.94811481148115,935131.11331286,-794.25191936732,4313698.2490538,6.1481148114811,0,0
-71.684304879128,-3.5297064678991,0.95254525452545,935131.11331286,-794.25191936732,4313698.2490538,6.1525452545255,0,0
-71.68430454553,-3.5271234935885,0.95697569756976,935131.11331286,-794.25191936732,4313698.2490538,6.1569756975698,0,0
-71.684304211932,-3.5245405192779,0.96140614061406,935131.11331286,-794.25191936732,4313698.2490538,6.1614061406141,0,0
-71.684303878335,-3.5219575449674,0.96583658365837,935131.11331286,-794.25191936732,4313698.2490538,6.1658365836584,0,0
-71.684303544737,-3.5193745706568,0.97026702670267,935131.11331286,-794.25191936732,4313698.2490538,6.1702670267027,0,0
-71.68430321114,-3.5167915963462,0.97469746974697,935131.11331286,-794.25191936732,4313698.2490538,6.174697469747,0,0
-71.684302877542,-3.5142086220357,0.97912791279128,935131.11331286,-794.25191936732,4313698.2490538,6.1791279127913,0,0
-71.684302543945,-3.5116256477251,0.98355835583558,935131.11331286,-794.25191936732,4313698.2490538,6.1835583558356,0,0
-71.684302210347,-3.5090426734145,0.98798879887989,935131.11331286,-794.25191936732,4313698.2490538,6.1879887988799,0,0
-71.684301876749,-3.506459699104,0.99241924192419,935131.11331286,-794.25191936732,4313698.2490538,6.1924192419242,0,0
-71.684301543152,-3.5038767247934,0.9968496849685,935131.11331286,-794.25191936732,4313698.2490538,6.1968496849685,0,0
-71.684301209554,-3.5012937504828,1.0012801280128,935131.11331286,-794.25191936732,4313698.2490538,6.2012801280128,0,0
-71.684300875957,-3.4987107761723,1.0057105710571,935131.11331286,-794.25191936732,4313698.2490538,6.2057105710571,0,0
-71.684300542359,-3.4961278018617,1.0101410141014,935131.11331286,-794.25191936732,4313698.2490538,6.2101410141014,0,0
-71.684300208762,-3.4935448275511,1.0145714571457,935131.11331286,-794.25191936732,4313698.2490538,6.2145714571457,0,0
-71.684299875164,-3.4909618532406,1.01900190019,935131.11331286,-794.25191936732,4313698.2490538,6.21900190019,0,0
-71.684299541567,-3.48837887893,1.0234323432343,935131.11331286,-794.25191936732,4313698.2490538,6.2234323432343,0,0
-71.684299207969,-3.4857959046194,1.0278627862786,935131.11331286,-794.25191936732,4313698.2490538,6.2278627862786,0,0
-71.684298874371,-3.4832129303089,1.0322932293229,935131.11331286,-794.25191936732,4313698.2490538,6.2322932293229,0,0
-71.684298540774,-3.4806299559983,1.0367236723672,935131.11331286,-794.25191936732,4313698.2490538,6.2367236723672,0,0
-71.684298207176,-3.4780469816877,1.0411541154115,935131.11331286,-794.25191936732,4313698.2490538,6.2411541154115,0,0
-71.684297873579,-3.4754640073772,1.0455845584558,935131.11331286,-794.25191936732,4313698.2490538,6.2455845584558,0,0
-71.684297539981,-3.4728810330666,1.0500150015002,935131.11331286,-794.25191936732,4313698.2490538,6.2500150015002,0,0
-71.684297206384,-3.470298058756,1.0544454445445,935131.11331286,-794.25191936732,4313698.2490538,6.2544454445445,0,0
-71.684296872786,-3.4677150844455,1.0588758875888,935131.11331286,-794.25191936732,4313698.2490538,6.2588758875888,0,0
-71.684296539188,-3.4651321101349,1.0633063306331,935131.11331286,-794.25191936732,4313698.2490538,6.2633063306331,0,0
-71.684296205591,-3.4625491358243,1.0677367736774,935131.11331286,-794.25191936732,4313698.2490538,6.2677367736774,0,0
-71.684295871993,-3.4599661615137,1.0721672167217,935131.11331286,-794.25191936732,4313698.2490538,6.2721672167217,0,0
-71.684295538396,-3.4573831872032,1.076597659766,935131.11331286,-794.25191936732,4313698.2490538,6.276597659766,0,0
-71.684295204798,-3.4548002128926,1.0810281028103,935131.11331286,-794.25191936732,4313698.2490538,6.2810281028103,0,0
-71.684294871201,-3.452217238582,1.0854585458546,935131.11331286,-794.25191936732,4313698.2490538,6.2854585458546,0,0
-71.684294537603,-3.4496342642715,1.0898889888989,935131.11331286,-794.25191936732,4313698.2490538,6.2898889888989,0,0
-71.684294204006,-3.4470512899609,1.0943194319432,935131.11331286,-794.25191936732,4313698.2490538,6.2943194319432,0,0
-71.684293870408,-3.4444683156503,1.0987498749875,935131.11331286,-794.25191936732,4313698.2490538,6.2987498749875,0,0
-71.68429353681,-3.4418853413398,1.1031803180318,935131.11331286,-794.25191936732,4313698.2490538,6.3031803180318,0,0
-71.684293191689,-3.4393023448987,1.1076107610761,985061.57688436,33673.982257809,4238368.7276804,6.3076107610761,0,0
-71.684292845572,-3.4367193465456,1.1120412041204,985061.57688436,33673.982257809,4238368.7276804,6.3120412041204,0,0
-71.684292499455,-3.4341363481925,1.1164716471647,985061.57688436,33673.982257809,4238368.7276804,6.3164716471647,0,0
-71.684292153337,-3.4315533498393,1.120902090209,985061.57688436,33673.982257809,4238368.7276804,6.320902090209,0,0
-71.68429180722,-3.4289703514862,1.1253325332533,985061.57688436,33673.982257809,4238368.7276804,6.3253325332533,0,0
-71.684291461103,-3.4263873531331,1.1297629762976,985061.57688436,33673.982257809,4238368.7276804,6.3297629762976,0,0
-71.684291114986,-3.4238043547799,1.1341934193419,985061.57688436,33673.982257809,4238368.7276804,6.3341934193419,0,0
-71.684290768869,-3.4212213564268,1.1386238623862,985061.57688436,33673.982257809,4238368.7276804,6.3386238623862,0,0
-71.684290422752,-3.4186383580737,1.1430543054305,985061.57688436,33673.982257809,4238368.7276804,6.3430543054305,0,0
-71.684290076634,-3.4160553597205,1.1474847484748,985061.57688436,33673.982257809,4238368.7276804,6.3474847484748,0,0
-71.684289730517,-3.4134723613674,1.1519151915192,985061.57688436,33673.982257809,4238368.7276804,6.3519151915192,0,0
-71.6842893844,-3.4108893630143,1.1563456345635,985061.57688436,33673.982257809,4238368.7276804,6.3563456345635,0,0
-71.684289038283,-3.4083063646611,1.1607760776078,985061.57688436,33673.982257809,4238368.7276804,6.3607760776078,0,0
-71.684288692166,-3.405723366308,1.1652065206521,985061.57688436,33673.982257809,4238368.7276804,6.3652065206521,0,0
-71.684288346049,-3.4031403679548,1.1696369636964,985061.57688436,33673.982257809,4238368.7276804,6.3696369636964,0,0
-71.684287999931,-3.4005573696017,1.1740674067407,985061.57688436,33673.982257809,4238368.7276804,6.3740674067407,0,0
-71.684287653814,-3.3979743712486,1.178497849785,985061.57688436,33673.982257809,4238368.7276804,6.378497849785,0,0
-71.684287307697,-3.3953913728954,1.1829282928293,985061.57688436,33673.982257809,4238368.7276804,6.3829282928293,0,0
-71.68428696158,-3.3928083745423,1.1873587358736,985061.57688436,33673.982257809,4238368.7276804,6.3873587358736,0,0
-71.684286611611,-3.3902253825505,1.1917891789179,1055302.8146623,-4519.5785532232,4186367.3375881,6.3917891789179,0,0
-71.684286250316,-3.3876424092678,1.1962196219622,1055302.8146623,-4519.5785532232,4186367.3375881,6.3962196219622,0,0
-71.684285889021,-3.3850594359851,1.2006500650065,1055302.8146623,-4519.5785532232,4186367.3375881,6.4006500650065,0,0
-71.684285527726,-3.3824764627025,1.2050805080508,1055302.8146623,-4519.5785532232,4186367.3375881,6.4050805080508,0,0
-71.684285166431,-3.3798934894198,1.2095109510951,1055302.8146623,-4519.5785532232,4186367.3375881,6.4095109510951,0,0
-71.684284805135,-3.3773105161371,1.2139413941394,1055302.8146623,-4519.5785532232,4186367.3375881,6.4139413941394,0,0
-71.68428444384,-3.3747275428544,1.2183718371837,1055302.8146623,-4519.5785532232,4186367.3375881,6.4183718371837,0,0
-71.684284082545,-3.3721445695717,1.222802280228,1055302.8146623,-4519.5785532232,4186367.3375881,6.422802280228,0,0
-71.68428372125,-3.369561596289,1.2272327232723,1055302.8146623,-4519.5785532232,4186367.3375881,6.4272327232723,0,0
-71.684283359954,-3.3669786230063,1.2316631663166,1055302.8146623,-4519.5785532232,4186367.3375881,6.4316631663166,0,0
-71.684282998659,-3.3643956497236,1.2360936093609,1055302.8146623,-4519.5785532232,4186367.3375881,6.4360936093609,0,0
-71.684282637364,-3.3618126764409,1.2405240524052,1055302.8146623,-4519.5785532232,4186367.3375881,6.4405240524052,0,0
-71.684282276069,-3.3592297031582,1.2449544954495,1055302.8146623,-4519.5785532232,4186367.3375881,6.4449544954495,0,0
-71.684281914773,-3.3566467298756,1.2493849384938,1055302.8146623,-4519.5785532232,4186367.3375881,6.4493849384938,0,0
-71.684281553478,-3.3540637565929,1.2538153815382,1055302.8146623,-4519.5785532232,4186367.3375881,6.4538153815382,0,0
-71.684281192183,-3.3514807833102,1.2582458245825,1055302.8146623,-4519.5785532232,4186367.3375881,6.4582458245825,0,0
-71.684280830888,-3.3488978100275,1.2626762676268,1055302.8146623,-4519.5785532232,4186367.3375881,6.4626762676268,0,0
-71.684280469593,-3.3463148367448,1.2671067106711,1055302.8146623,-4519.5785532232,4186367.3375881,6.4671067106711,0,0
-71.684280108297,-3.3437318634621,1.2715371537154,1055302.8146623,-4519.5785532232,4186367.3375881,6.4715371537154,0,0
-71.684279747002,-3.3411488901794,1.2759675967597,1055302.8146623,-4519.5785532232,4186367.3375881,6.4759675967597,0,0
-71.684279385707,-3.3385659168967,1.280398039804,1055302.8146623,-4519.5785532232,4186367.3375881,6.480398039804,0,0
-71.684279024412,-3.335982943614,1.2848284828483,1055302.8146623,-4519.5785532232,4186367.3375881,6.4848284828483,0,0
-71.684278663116,-3.3333999703313,1.2892589258926,1055302.8146623,-4519.5785532232,4186367.3375881,6.4892589258926,0,0
-71.684278301821,-3.3308169970487,1.2936893689369,1055302.8146623,-4519.5785532232,4186367.3375881,6.4936893689369,0,0
-71.684277940526,-3.328234023766,1.2981198119812,1055302.8146623,-4519.5785532232,4186367.3375881,6.4981198119812,0,0
-71.684277579231,-3.3256510504833,1.3025502550255,1055302.8146623,-4519.5785532232,4186367.3375881,6.5025502550255,0,0
-71.684277217936,-3.3230680772006,1.3069806980698,1055302.8146623,-4519.5785532232,4186367.3375881,6.5069806980698,0,0
-71.68427685664,-3.3204851039179,1.3114111411141,1055302.8146623,-4519.5785532232,4186367.3375881,6.5114111411141,0,0
-71.684276495345,-3.3179021306352,1.3158415841584,1055302.8146623,-4519.5785532232,4186367.3375881,6.5158415841584,0,0
-71.68427613405,-3.3153191573525,1.3202720272027,1055302.8146623,-4519.5785532232,4186367.3375881,6.5202720272027,0,0
-71.684275772755,-3.3127361840698,1.324702470247,1055302.8146623,-4519.5785532232,4186367.3375881,6.524702470247,0,0
-71.684275411459,-3.3101532107871,1.3291329132913,1055302.8146623,-4519.5785532232,4186367.3375881,6.5291329132913,0,0
-71.684275050164,-3.3075702375045,1.3335633563356,1055302.8146623,-4519.5785532232,4186367.3375881,6.5335633563356,0,0
-71.684274688869,-3.3049872642218,1.3379937993799,1055302.8146623,-4519.5785532232,4186367.3375881,6.5379937993799,0,0
-71.684274327574,-3.3024042909391,1.3424242424242,1055302.8146623,-4519.5785532232,4186367.3375881,6.5424242424242,0,0
-71.684273966051,-3.2998213172784,1.3468546854685,1122588.444538,31941.917413421,4130684.6901456,6.5468546854685,0,0
-71.684273589951,-3.297238319426,1.3512851285129,1122588.444538,31941.917413421,4130684.6901456,6.5512851285129,0,0
-71.684273213852,-3.2946553215736,1.3557155715572,1122588.444538,31941.917413421,4130684.6901456,6.5557155715572,0,0
-71.684272837753,-3.2920723237211,1.3601460146015,1122588.444538,31941.917413421,4130684.6901456,6.5601460146015,0,0
-71.684272461653,-3.2894893258687,1.3645764576458,1122588.444538,31941.917413421,4130684.6901456,6.5645764576458,0,0
-71.684272085554,-3.2869063280163,1.3690069006901,1122588.444538,31941.917413421,4130684.6901456,6.5690069006901,0,0
-71.684271709455,-3.2843233301639,1.3734373437344,1122588.444538,31941.917413421,4130684.6901456,6.5734373437344,0,0
-71.684271333355,-3.2817403323114,1.3778677867787,1122588.444538,31941.917413421,4130684.6901456,6.5778677867787,0,0
-71.684270957256,-3.279157334459,1.382298229823,1122588.444538,31941.917413421,4130684.6901456,6.582298229823,0,0
-71.684270581157,-3.2765743366066,1.3867286728673,1122588.444538,31941.917413421,4130684.6901456,6.5867286728673,0,0
-71.684270205057,-3.2739913387542,1.3911591159116,1122588.444538,31941.917413421,4130684.6901456,6.5911591159116,0,0
-71.684269828958,-3.2714083409018,1.3955895589559,1122588.444538,31941.917413421,4130684.6901456,6.5955895589559,0,0
-71.684269452858,-3.2688253430493,1.4000200020002,1122588.444538,31941.917413421,4130684.6901456,6.6000200020002,0,0
-71.684269076759,-3.2662423451969,1.4044504450445,1122588.444538,31941.917413421,4130684.6901456,6.6044504450445,0,0
-71.68426870066,-3.2636593473445,1.4088808880888,1122588.444538,31941.917413421,4130684.6901456,6.6088808880888,0,0
-71.68426832456,-3.2610763494921,1.4133113311331,1122588.444538,31941.917413421,4130684.6901456,6.6133113311331,0,0
-71.684267948461,-3.2584933516396,1.4177417741774,1122588.444538,31941.917413421,4130684.6901456,6.6177417741774,0,0
-71.684267572362,-3.2559103537872,1.4221722172217,1122588.444538,31941.917413421,4130684.6901456,6.6221722172217,0,0
-71.684267196262,-3.2533273559348,1.426602660266,1122588.444538,31941.917413421,4130684.6901456,6.626602660266,0,0
-71.684266820163,-3.2507443580824,1.4310331033103,1122588.444538,31941.917413421,4130684.6901456,6.6310331033103,0,0
-71.684266444064,-3.2481613602299,1.4354635463546,1122588.444538,31941.917413421,4130684.6901456,6.6354635463546,0,0
-71.684266067964,-3.2455783623775,1.4398939893989,1122588.444538,31941.917413421,4130684.6901456,6.6398939893989,0,0
-71.684265691865,-3.2429953645251,1.4443244324432,1122588.444538,31941.917413421,4130684.6901456,6.6443244324432,0,0
-71.684265313727,-3.2404123723339,1.4487548754875,1157157.0106134,-15231.612826076,4054823.84784,6.6487548754875,0,0
-71.684264927891,-3.2378294015249,1.4531853185319,1157157.0106134,-15231.612826076,4054823.84784,6.6531853185319,0,0
-71.684264542054,-3.2352464307159,1.4576157615762,1157157.0106134,-15231.612826076,4054823.84784,6.6576157615762,0,0
-71.684264156218,-3.2326634599069,1.4620462046205,1157157.0106134,-15231.612826076,4054823.84784,6.6620462046205,0,0
-71.684263770382,-3.2300804890979,1.4664766476648,1157157.0106134,-15231.612826076,4054823.84784,6.6664766476648,0,0
-71.684263384545,-3.2274975182889,1.4709070907091,1157157.0106134,-15231.612826076,4054823.84784,6.6709070907091,0,0
-71.684262998709,-3.2249145474799,1.4753375337534,1157157.0106134,-15231.612826076,4054823.84784,6.6753375337534,0,0
-71.684262612872,-3.2223315766709,1.4797679767977,1157157.0106134,-15231.612826076,4054823.84784,6.6797679767977,0,0
-71.684262227036,-3.2197486058619,1.484198419842,1157157.0106134,-15231.612826076,4054823.84784,6.684198419842,0,0
-71.6842618412,-3.2171656350529,1.4886288628863,1157157.0106134,-15231.612826076,4054823.84784,6.6886288628863,0,0
-71.684261455363,-3.2145826642439,1.4930593059306,1157157.0106134,-15231.612826076,4054823.84784,6.6930593059306,0,0
-71.684261069527,-3.2119996934349,1.4974897489749,1157157.0106134,-15231.612826076,4054823.84784,6.6974897489749,0,0
-71.68426068369,-3.209416722626,1.5019201920192,1157157.0106134,-15231.612826076,4054823.84784,6.7019201920192,0,0
-71.684260297854,-3.206833751817,1.5063506350635,1157157.0106134,-15231.612826076,4054823.84784,6.7063506350635,0,0
-71.684259912017,-3.204250781008,1.5107810781078,1157157.0106134,-15231.612826076,4054823.84784,6.7107810781078,0,0
-71.684259526181,-3.201667810199,1.5152115211521,1157157.0106134,-15231.612826076,4054823.84784,6.7152115211521,0,0
-71.684259140345,-3.19908483939,1.5196419641964,1157157.0106134,-15231.612826076,4054823.84784,6.7196419641964,0,0
-71.684258754508,-3.196501868581,1.5240724072407,1157157.0106134,-15231.612826076,4054823.84784,6.7240724072407,0,0
-71.684258368672,-3.193918897772,1.528502850285,1157157.0106134,-15231.612826076,4054823.84784,6.728502850285,0,0
-71.684257982835,-3.191335926963,1.5329332933293,1157157.0106134,-15231.612826076,4054823.84784,6.7329332933293,0,0
-71.684257596999,-3.188752956154,1.5373637363736,1157157.0106134,-15231.612826076,4054823.84784,6.7373637363736,0,0
-71.684257211163,-3.186169985345,1.5417941794179,1157157.0106134,-15231.612826076,4054823.84784,6.7417941794179,0,0
-71.684256825326,-3.183587014536,1.5462246224622,1157157.0106134,-15231.612826076,4054823.84784,6.7462246224622,0,0
-71.68425643949,-3.181004043727,1.5506550655066,1157157.0106134,-15231.612826076,4054823.84784,6.7506550655066,0,0
-71.684256053653,-3.178421072918,1.5550855085509,1157157.0106134,-15231.612826076,4054823.84784,6.7550855085509,0,0
-71.684255667817,-3.175838102109,1.5595159515952,1157157.0106134,-15231.612826076,4054823.84784,6.7595159515952,0,0
-71.684255281981,-3.1732551313,1.5639463946395,1157157.0106134,-15231.612826076,4054823.84784,6.7639463946395,0,0
-71.684254896144,-3.170672160491,1.5683768376838,1157157.0106134,-15231.612826076,4054823.84784,6.7683768376838,0,0
-71.684254510308,-3.168089189682,1.5728072807281,1157157.0106134,-15231.612826076,4054823.84784,6.7728072807281,0,0
-71.684254124471,-3.165506218873,1.5772377237724,1157157.0106134,-15231.612826076,4054823.84784,6.7772377237724,0,0
-71.684253738635,-3.162923248064,1.5816681668167,1157157.0106134,-15231.612826076,4054823.84784,6.7816681668167,0,0
-71.684253352798,-3.160340277255,1.586098609861,1157157.0106134,-15231.612826076,4054823.84784,6.786098609861,0,0
-71.684252966962,-3.157757306446,1.5905290529053,1157157.0106134,-15231.612826076,4054823.84784,6.7905290529053,0,0
-71.684252581126,-3.1551743356371,1.5949594959496,1157157.0106134,-15231.612826076,4054823.84784,6.7949594959496,0,0
-71.684252195289,-3.1525913648281,1.5993899389939,1157157.0106134,-15231.612826076,4054823.84784,6.7993899389939,0,0
-71.684251809453,-3.1500083940191,1.6038203820382,1157157.0106134,-15231.612826076,4054823.84784,6.8038203820382,0,0
-71.684251407417,-3.1474254036644,1.6082508250825,1253927.7213028,15554.936560686,4016805.0228193,6.8082508250825,0,0
-71.684251002186,-3.1448424094551,1.6126812681268,1253927.7213028,15554.936560686,4016805.0228193,6.8126812681268,0,0
-71.684250596956,-3.1422594152458,1.6171117111711,1253927.7213028,15554.936560686,4016805.0228193,6.8171117111711,0,0
-71.684250191725,-3.1396764210365,1.6215421542154,1253927.7213028,15554.936560686,4016805.0228193,6.8215421542154,0,0
-71.684249786495,-3.1370934268272,1.6259725972597,1253927.7213028,15554.936560686,4016805.0228193,6.8259725972597,0,0
-71.684249381264,-3.1345104326179,1.630403040304,1253927.7213028,15554.936560686,4016805.0228193,6.830403040304,0,0
-71.684248976034,-3.1319274384086,1.6348334833483,1253927.7213028,15554.936560686,4016805.0228193,6.8348334833483,0,0
-71.684248570803,-3.1293444441993,1.6392639263926,1253927.7213028,15554.936560686,4016805.0228193,6.8392639263926,0,0
-71.684248165573,-3.12676144999,1.6436943694369,1253927.7213028,15554.936560686,4016805.0228193,6.8436943694369,0,0
-71.684247760342,-3.1241784557807,1.6481248124812,1253927.7213028,15554.936560686,4016805.0228193,6.8481248124812,0,0
-71.684247355111,-3.1215954615714,1.6525552555256,1253927.7213028,15554.936560686,4016805.0228193,6.8525552555256,0,0
-71.684246949881,-3.1190124673621,1.6569856985699,1253927.7213028,15554.936560686,4016805.0228193,6.8569856985699,0,0
-71.68424654465,-3.1164294731528,1.6614161416142,1253927.7213028,15554.936560686,4016805.0228193,6.8614161416142,0,0
-71.68424613942,-3.1138464789435,1.6658465846585,1253927.7213028,15554.936560686,4016805.0228193,6.8658465846585,0,0
-71.684245734189,-3.1112634847342,1.6702770277028,1253927.7213028,15554.936560686,4016805.0228193,6.8702770277028,0,0
-71.684245328959,-3.1086804905249,1.6747074707471,1253927.7213028,15554.936560686,4016805.0228193,6.8747074707471,0,0
-71.684244923728,-3.1060974963156,1.6791379137914,1253927.7213028,15554.936560686,4016805.0228193,6.8791379137914,0,0
-71.684244518497,-3.1035145021063,1.6835683568357,1253927.7213028,15554.936560686,4016805.0228193,6.8835683568357,0,0
-71.684244113267,-3.100931507897,1.68799879988,1253927.7213028,15554.936560686,4016805.0228193,6.88799879988,0,0
-71.684243708036,-3.0983485136877,1.6924292429243,1253927.7213028,15554.936560686,4016805.0228193,6.8924292429243,0,0
-71.684243302806,-3.0957655194783,1.6968596859686,1253927.7213028,15554.936560686,4016805.0228193,6.8968596859686,0,0
-71.684242897575,-3.093182525269,1.7012901290129,1253927.7213028,15554.936560686,4016805.0228193,6.9012901290129,0,0
-71.684242492345,-3.0905995310597,1.7057205720572,1253927.7213028,15554.936560686,4016805.0228193,6.9057205720572,0,0
-71.684242087114,-3.0880165368504,1.7101510151015,1253927.7213028,15554.936560686,4016805.0228193,6.9101510151015,0,0
-71.684241681884,-3.0854335426411,1.7145814581458,1253927.7213028,15554.936560686,4016805.0228193,6.9145814581458,0,0
-71.684241276653,-3.0828505484318,1.7190119011901,1253927.7213028,15554.936560686,4016805.0228193,6.9190119011901,0,0
-71.684240871422,-3.0802675542225,1.7234423442344,1253927.7213028,15554.936560686,4016805.0228193,6.9234423442344,0,0
-71.684240466192,-3.0776845600132,1.7278727872787,1253927.7213028,15554.936560686,4016805.0228193,6.9278727872787,0,0
-71.684240060961,-3.0751015658039,1.732303230323,1253927.7213028,15554.936560686,4016805.0228193,6.932303230323,0,0
-71.684239655731,-3.0725185715946,1.7367336733673,1253927.7213028,15554.936560686,4016805.0228193,6.9367336733673,0,0
-71.6842392505,-3.0699355773853,1.7411641164116,1253927.7213028,15554.936560686,4016805.0228193,6.9411641164116,0,0
-71.68423884527,-3.067352583176,1.7455945594559,1253927.7213028,15554.936560686,4016805.0228193,6.9455945594559,0,0
-71.684238440039,-3.0647695889667,1.7500250025002,1253927.7213028,15554.936560686,4016805.0228193,6.9500250025002,0,0
-71.684238034809,-3.0621865947574,1.7544554455446,1253927.7213028,15554.936560686,4016805.0228193,6.9544554455446,0,0
-71.684237629578,-3.0596036005481,1.7588858885889,1253927.7213028,15554.936560686,4016805.0228193,6.9588858885889,0,0
-71.684237217181,-3.0570206263507,1.7633163316332,1286851.7248406,-31139.817014123,3934042.846054,6.9633163316332,0,0
-71.684236802203,-3.0544376593617,1.7677467746775,1286851.7248406,-31139.817014123,3934042.846054,6.9677467746775,0,0
-71.684236387224,-3.0518546923727,1.7721772177218,1286851.7248406,-31139.817014123,3934042.846054,6.9721772177218,0,0
-71.684235972246,-3.0492717253837,1.7766076607661,1286851.7248406,-31139.817014123,3934042.846054,6.9766076607661,0,0
-71.684235557267,-3.0466887583948,1.7810381038104,1286851.7248406,-31139.817014123,3934042.846054,6.9810381038104,0,0
-71.684235142289,-3.0441057914058,1.7854685468547,1286851.7248406,-31139.817014123,3934042.846054,6.9854685468547,0,0
-71.68423472731,-3.0415228244168,1.789898989899,1286851.7248406,-31139.817014123,3934042.846054,6.989898989899,0,0
-71.684234312332,-3.0389398574278,1.7943294329433,1286851.7248406,-31139.817014123,3934042.846054,6.9943294329433,0,0
-71.684233897353,-3.0363568904388,1.7987598759876,1286851.7248406,-31139.817014123,3934042.846054,6.9987598759876,0,0
-71.684233482375,-3.0337739234498,1.8031903190319,1286851.7248406,-31139.817014123,3934042.846054,7.0031903190319,0,0
-71.684233067397,-3.0311909564608,1.8076207620762,1286851.7248406,-31139.817014123,3934042.846054,7.0076207620762,0,0
-71.684232652418,-3.0286079894718,1.8120512051205,1286851.7248406,-31139.817014123,3934042.846054,7.0120512051205,0,0
-71.68423223744,-3.0260250224828,1.8164816481648,1286851.7248406,-31139.817014123,3934042.846054,7.0164816481648,0,0
-71.684231822461,-3.0234420554938,1.8209120912091,1286851.7248406,-31139.817014123,3934042.846054,7.0209120912091,0,0
-71.684231407483,-3.0208590885048,1.8253425342534,1286851.7248406,-31139.817014123,3934042.846054,7.0253425342534,0,0
-71.684230992504,-3.0182761215159,1.8297729772977,1286851.7248406,-31139.817014123,3934042.846054,7.0297729772977,0,0
-71.684230577526,-3.0156931545269,1.834203420342,1286851.7248406,-31139.817014123,3934042.846054,7.034203420342,0,0
-71.684230162548,-3.0131101875379,1.8386338633863,1286851.7248406,-31139.817014123,3934042.846054,7.0386338633863,0,0
-71.684229747569,-3.0105272205489,1.8430643064306,1286851.7248406,-31139.817014123,3934042.846054,7.0430643064306,0,0
-71.684229332591,-3.0079442535599,1.8474947494749,1286851.7248406,-31139.817014123,3934042.846054,7.0474947494749,0,0
-71.684228917612,-3.0053612865709,1.8519251925193,1286851.7248406,-31139.817014123,3934042.846054,7.0519251925193,0,0
-71.684228502634,-3.0027783195819,1.8563556355636,1286851.7248406,-31139.817014123,3934042.846054,7.0563556355636,0,0
-71.684228087655,-3.0001953525929,1.8607860786079,1286851.7248406,-31139.817014123,3934042.846054,7.0607860786079,0,0
-71.684227672677,-2.9976123856039,1.8652165216522,1286851.7248406,-31139.817014123,3934042.846054,7.0652165216522,0,0
-71.684227257698,-2.9950294186149,1.8696469646965,1286851.7248406,-31139.817014123,3934042.846054,7.0696469646965,0,0
-71.68422684272,-2.9924464516259,1.8740774077408,1286851.7248406,-31139.817014123,3934042.846054,7.0740774077408,0,0
-71.684226427742,-2.989863484637,1.8785078507851,1286851.7248406,-31139.817014123,3934042.846054,7.0785078507851,0,0
-71.684226012763,-2.987280517648,1.8829382938294,1286851.7248406,-31139.817014123,3934042.846054,7.0829382938294,0,0
-71.684225597785,-2.984697550659,1.8873687368737,1286851.7248406,-31139.817014123,3934042.846054,7.0873687368737,0,0
-71.684225182806,-2.98211458367,1.891799179918,1286851.7248406,-31139.817014123,3934042.846054,7.091799179918,0,0
-71.684224753148,-2.9795315914086,1.8962296229623,1355508.1926086,8869.2395820486,3879007.320425,7.0962296229623,0,0
-71.684224323144,-2.9769485985526,1.9006600660066,1355508.1926086,8869.2395820486,3879007.320425,7.1006600660066,0,0
-71.68422389314,-2.9743656056965,1.9050905090509,1355508.1926086,8869.2395820486,3879007.320425,7.1050905090509,0,0
-71.684223463136,-2.9717826128405,1.9095209520952,1355508.1926086,8869.2395820486,3879007.320425,7.1095209520952,0,0
-71.684223033133,-2.9691996199844,1.9139513951395,1355508.1926086,8869.2395820486,3879007.320425,7.1139513951395,0,0
-71.684222603129,-2.9666166271284,1.9183818381838,1355508.1926086,8869.2395820486,3879007.320425,7.1183818381838,0,0
-71.684222173125,-2.9640336342723,1.9228122812281,1355508.1926086,8869.2395820486,3879007.320425,7.1228122812281,0,0
-71.684221743121,-2.9614506414162,1.9272427242724,1355508.1926086,8869.2395820486,3879007.320425,7.1272427242724,0,0
-71.684221313117,-2.9588676485602,1.9316731673167,1355508.1926086,8869.2395820486,3879007.320425,7.1316731673167,0,0
-71.684220883113,-2.9562846557041,1.936103610361,1355508.1926086,8869.2395820486,3879007.320425,7.136103610361,0,0
-71.68422045311,-2.9537016628481,1.9405340534053,1355508.1926086,8869.2395820486,3879007.320425,7.1405340534053,0,0
-71.684220023106,-2.951118669992,1.9449644964496,1355508.1926086,8869.2395820486,3879007.320425,7.1449644964496,0,0
-71.684219593102,-2.948535677136,1.9493949394939,1355508.1926086,8869.2395820486,3879007.320425,7.1493949394939,0,0
-71.684219163098,-2.9459526842799,1.9538253825383,1355508.1926086,8869.2395820486,3879007.320425,7.1538253825383,0,0
-71.684218733094,-2.9433696914239,1.9582558255826,1355508.1926086,8869.2395820486,3879007.320425,7.1582558255826,0,0
-71.684218303091,-2.9407866985678,1.9626862686269,1355508.1926086,8869.2395820486,3879007.320425,7.1626862686269,0,0
-71.684217873087,-2.9382037057117,1.9671167116712,1355508.1926086,8869.2395820486,3879007.320425,7.1671167116712,0,0
-71.684217443083,-2.9356207128557,1.9715471547155,1355508.1926086,8869.2395820486,3879007.320425,7.1715471547155,0,0
-71.684217013079,-2.9330377199996,1.9759775977598,1355508.1926086,8869.2395820486,3879007.320425,7.1759775977598,0,0
-71.684216583075,-2.9304547271436,1.9804080408041,1355508.1926086,8869.2395820486,3879007.320425,7.1804080408041,0,0
-71.684216153071,-2.9278717342875,1.9848384838484,1355508.1926086,8869.2395820486,3879007.320425,7.1848384838484,0,0
-71.684215723068,-2.9252887414315,1.9892689268927,1355508.1926086,8869.2395820486,3879007.320425,7.1892689268927,0,0
-71.684215293064,-2.9227057485754,1.993699369937,1355508.1926086,8869.2395820486,3879007.320425,7.193699369937,0,0
-71.68421486306,-2.9201227557193,1.9981298129813,1355508.1926086,8869.2395820486,3879007.320425,7.1981298129813,0,0
-71.684214433056,-2.9175397628633,2.0025602560256,1355508.1926086,8869.2395820486,3879007.320425,7.2025602560256,0,0
-71.684214003052,-2.9149567700072,2.0069906990699,1355508.1926086,8869.2395820486,3879007.320425,7.2069906990699,0,0
-71.684213573049,-2.9123737771512,2.0114211421142,1355508.1926086,8869.2395820486,3879007.320425,7.2114211421142,0,0
-71.684213143045,-2.9097907842951,2.0158515851585,1355508.1926086,8869.2395820486,3879007.320425,7.2158515851585,0,0
-71.684212713041,-2.9072077914391,2.0202820282028,1355508.1926086,8869.2395820486,3879007.320425,7.2202820282028,0,0
-71.684212283037,-2.904624798583,2.0247124712471,1355508.1926086,8869.2395820486,3879007.320425,7.2247124712471,0,0
-71.684211853033,-2.9020418057269,2.0291429142914,1355508.1926086,8869.2395820486,3879007.320425,7.2291429142914,0,0
-71.684211423029,-2.8994588128709,2.0335733573357,1355508.1926086,8869.2395820486,3879007.320425,7.2335733573357,0,0
-71.684210993026,-2.8968758200148,2.03800380038,1355508.1926086,8869.2395820486,3879007.320425,7.23800380038,0,0
-71.684210563022,-2.8942928271588,2.0424342434243,1355508.1926086,8869.2395820486,3879007.320425,7.2424342434243,0,0
-71.684210133018,-2.8917098343027,2.0468646864686,1355508.1926086,8869.2395820486,3879007.320425,7.2468646864686,0,0
-71.684209703014,-2.8891268414467,2.051295129513,1355508.1926086,8869.2395820486,3879007.320425,7.251295129513,0,0
-71.68420927301,-2.8865438485906,2.0557255725573,1355508.1926086,8869.2395820486,3879007.320425,7.2557255725573,0,0
-71.684208843006,-2.8839608557345,2.0601560156016,1355508.1926086,8869.2395820486,3879007.320425,7.2601560156016,0,0
-71.684208413003,-2.8813778628785,2.0645864586459,1355508.1926086,8869.2395820486,3879007.320425,7.2645864586459,0,0
-71.684207982999,-2.8787948700224,2.0690169016902,1355508.1926086,8869.2395820486,3879007.320425,7.2690169016902,0,0
-71.684207552995,-2.8762118771664,2.0734473447345,1355508.1926086,8869.2395820486,3879007.320425,7.2734473447345,0,0
-71.684207122991,-2.8736288843103,2.0778777877788,1355508.1926086,8869.2395820486,3879007.320425,7.2778777877788,0,0
-71.684206692987,-2.8710458914543,2.0823082308231,1355508.1926086,8869.2395820486,3879007.320425,7.2823082308231,0,0
-71.684206262984,-2.8684628985982,2.0867386738674,1355508.1926086,8869.2395820486,3879007.320425,7.2867386738674,0,0
-71.68420583298,-2.8658799057421,2.0911691169117,1355508.1926086,8869.2395820486,3879007.320425,7.2911691169117,0,0
-71.684205402976,-2.8632969128861,2.095599559956,1355508.1926086,8869.2395820486,3879007.320425,7.295599559956,0,0
-71.684204972972,-2.86071392003,2.1000300030003,1355508.1926086,8869.2395820486,3879007.320425,7.3000300030003,0,0
-71.684204542968,-2.858130927174,2.1044604460446,1355508.1926086,8869.2395820486,3879007.320425,7.3044604460446,0,0
-71.68420410313,-2.8555479477144,2.1088908890889,1442121.2404924,-25546.62646757,3837643.2712164,7.3088908890889,0,0
-71.684203655436,-2.8529649789537,2.1133213321332,1442121.2404924,-25546.62646757,3837643.2712164,7.3133213321332,0,0
-71.684203207743,-2.8503820101931,2.1177517751775,1442121.2404924,-25546.62646757,3837643.2712164,7.3177517751775,0,0
-71.68420276005,-2.8477990414325,2.1221822182218,1442121.2404924,-25546.62646757,3837643.2712164,7.3221822182218,0,0
-71.684202312357,-2.8452160726719,2.1266126612661,1442121.2404924,-25546.62646757,3837643.2712164,7.3266126612661,0,0
-71.684201864664,-2.8426331039112,2.1310431043104,1442121.2404924,-25546.62646757,3837643.2712164,7.3310431043104,0,0
-71.684201416971,-2.8400501351506,2.1354735473547,1442121.2404924,-25546.62646757,3837643.2712164,7.3354735473547,0,0
-71.684200969278,-2.83746716639,2.139903990399,1442121.2404924,-25546.62646757,3837643.2712164,7.339903990399,0,0
-71.684200521585,-2.8348841976293,2.1443344334433,1442121.2404924,-25546.62646757,3837643.2712164,7.3443344334433,0,0
-71.684200073892,-2.8323012288687,2.1487648764876,1442121.2404924,-25546.62646757,3837643.2712164,7.3487648764876,0,0
-71.684199626198,-2.8297182601081,2.153195319532,1442121.2404924,-25546.62646757,3837643.2712164,7.353195319532,0,0
-71.684199178505,-2.8271352913474,2.1576257625763,1442121.2404924,-25546.62646757,3837643.2712164,7.3576257625763,0,0
-71.684198730812,-2.8245523225868,2.1620562056206,1442121.2404924,-25546.62646757,3837643.2712164,7.3620562056206,0,0
-71.684198283119,-2.8219693538262,2.1664866486649,1442121.2404924,-25546.62646757,3837643.2712164,7.3664866486649,0,0
-71.684197835426,-2.8193863850656,2.1709170917092,1442121.2404924,-25546.62646757,3837643.2712164,7.3709170917092,0,0
-71.684197387733,-2.8168034163049,2.1753475347535,1442121.2404924,-25546.62646757,3837643.2712164,7.3753475347535,0,0
-71.68419694004,-2.8142204475443,2.1797779777978,1442121.2404924,-25546.62646757,3837643.2712164,7.3797779777978,0,0
-71.684196492347,-2.8116374787837,2.1842084208421,1442121.2404924,-25546.62646757,3837643.2712164,7.3842084208421,0,0
-71.684196044654,-2.809054510023,2.1886388638864,1442121.2404924,-25546.62646757,3837643.2712164,7.3886388638864,0,0
-71.68419559696,-2.8064715412624,2.1930693069307,1442121.2404924,-25546.62646757,3837643.2712164,7.3930693069307,0,0
-71.684195149267,-2.8038885725018,2.197499749975,1442121.2404924,-25546.62646757,3837643.2712164,7.397499749975,0,0
-71.684194701574,-2.8013056037411,2.2019301930193,1442121.2404924,-25546.62646757,3837643.2712164,7.4019301930193,0,0
-71.684194253881,-2.7987226349805,2.2063606360636,1442121.2404924,-25546.62646757,3837643.2712164,7.4063606360636,0,0
-71.684193806188,-2.7961396662199,2.2107910791079,1442121.2404924,-25546.62646757,3837643.2712164,7.4107910791079,0,0
-71.684193358495,-2.7935566974592,2.2152215221522,1442121.2404924,-25546.62646757,3837643.2712164,7.4152215221522,0,0
-71.684192910802,-2.7909737286986,2.2196519651965,1442121.2404924,-25546.62646757,3837643.2712164,7.4196519651965,0,0
-71.684192463109,-2.788390759938,2.2240824082408,1442121.2404924,-25546.62646757,3837643.2712164,7.4240824082408,0,0
-71.684192015416,-2.7858077911774,2.2285128512851,1442121.2404924,-25546.62646757,3837643.2712164,7.4285128512851,0,0
-71.684191567722,-2.7832248224167,2.2329432943294,1442121.2404924,-25546.62646757,3837643.2712164,7.4329432943294,0,0
-71.684191120029,-2.7806418536561,2.2373737373737,1442121.2404924,-25546.62646757,3837643.2712164,7.4373737373737,0,0
-71.684190672336,-2.7780588848955,2.241804180418,1442121.2404924,-25546.62646757,3837643.2712164,7.441804180418,0,0
-71.684190224643,-2.7754759161348,2.2462346234623,1442121.2404924,-25546.62646757,3837643.2712164,7.4462346234623,0,0
-71.68418977695,-2.7728929473742,2.2506650665067,1442121.2404924,-25546.62646757,3837643.2712164,7.4506650665067,0,0
-71.684189329257,-2.7703099786136,2.255095509551,1442121.2404924,-25546.62646757,3837643.2712164,7.455095509551,0,0
-71.684188881564,-2.7677270098529,2.2595259525953,1442121.2404924,-25546.62646757,3837643.2712164,7.4595259525953,0,0
-71.684188433871,-2.7651440410923,2.2639563956396,1442121.2404924,-25546.62646757,3837643.2712164,7.4639563956396,0,0
-71.684187981891,-2.7625610597172,2.2683868386839,1465422.4512422,13663.450813955,3757098.664966,7.4683868386839,0,0
-71.684187526308,-2.7599780677358,2.2728172817282,1465422.4512422,13663.450813955,3757098.664966,7.4728172817282,0,0
-71.684187070725,-2.7573950757544,2.2772477247725,1465422.4512422,13663.450813955,3757098.664966,7.4772477247725,0,0
-71.684186615142,-2.754812083773,2.2816781678168,1465422.4512422,13663.450813955,3757098.664966,7.4816781678168,0,0
-71.68418615956,-2.7522290917916,2.2861086108611,1465422.4512422,13663.450813955,3757098.664966,7.4861086108611,0,0
-71.684185703977,-2.7496460998102,2.2905390539054,1465422.4512422,13663.450813955,3757098.664966,7.4905390539054,0,0
-71.684185248394,-2.7470631078289,2.2949694969497,1465422.4512422,13663.450813955,3757098.664966,7.4949694969497,0,0
-71.684184792811,-2.7444801158475,2.299399939994,1465422.4512422,13663.450813955,3757098.664966,7.499399939994,0,0
-71.684184337228,-2.7418971238661,2.3038303830383,1465422.4512422,13663.450813955,3757098.664966,7.5038303830383,0,0
-71.684183881645,-2.7393141318847,2.3082608260826,1465422.4512422,13663.450813955,3757098.664966,7.5082608260826,0,0
-71.684183426062,-2.7367311399033,2.3126912691269,1465422.4512422,13663.450813955,3757098.664966,7.5126912691269,0,0
-71.684182970479,-2.7341481479219,2.3171217121712,1465422.4512422,13663.450813955,3757098.664966,7.5171217121712,0,0
-71.684182514896,-2.7315651559406,2.3215521552155,1465422.4512422,13663.450813955,3757098.664966,7.5215521552155,0,0
-71.684182059313,-2.7289821639592,2.3259825982598,1465422.4512422,13663.450813955,3757098.664966,7.5259825982598,0,0
-71.68418160373,-2.7263991719778,2.3304130413041,1465422.4512422,13663.450813955,3757098.664966,7.5304130413041,0,0
-71.684181148147,-2.7238161799964,2.3348434843484,1465422.4512422,13663.450813955,3757098.664966,7.5348434843484,0,0
-71.684180692564,-2.721233188015,2.3392739273927,1465422.4512422,13663.450813955,3757098.664966,7.5392739273927,0,0
-71.684180236981,-2.7186501960336,2.343704370437,1465422.4512422,13663.450813955,3757098.664966,7.543704370437,0,0
-71.684179781398,-2.7160672040522,2.3481348134813,1465422.4512422,13663.450813955,3757098.664966,7.5481348134813,0,0
-71.684179325815,-2.7134842120709,2.3525652565257,1465422.4512422,13663.450813955,3757098.664966,7.5525652565257,0,0
-71.684178870232,-2.7109012200895,2.35699569957,1465422.4512422,13663.450813955,3757098.664966,7.55699569957,0,0
-71.684178414649,-2.7083182281081,2.3614261426143,1465422.4512422,13663.450813955,3757098.664966,7.5614261426143,0,0
-71.684177959066,-2.7057352361267,2.3658565856586,1465422.4512422,13663.450813955,3757098.664966,7.5658565856586,0,0
-71.684177503483,-2.7031522441453,2.3702870287029,1465422.4512422,13663.450813955,3757098.664966,7.5702870287029,0,0
-71.6841770479,-2.7005692521639,2.3747174717472,1465422.4512422,13663.450813955,3757098.664966,7.5747174717472,0,0
-71.684176592317,-2.6979862601826,2.3791479147915,1465422.4512422,13663.450813955,3757098.664966,7.5791479147915,0,0
-71.684176136734,-2.6954032682012,2.3835783578358,1465422.4512422,13663.450813955,3757098.664966,7.5835783578358,0,0
-71.684175681152,-2.6928202762198,2.3880088008801,1465422.4512422,13663.450813955,3757098.664966,7.5880088008801,0,0
-71.684175225569,-2.6902372842384,2.3924392439244,1465422.4512422,13663.450813955,3757098.664966,7.5924392439244,0,0
-71.684174769986,-2.687654292257,2.3968696869687,1465422.4512422,13663.450813955,3757098.664966,7.5968696869687,0,0
-71.684174314403,-2.6850713002756,2.401300130013,1465422.4512422,13663.450813955,3757098.664966,7.601300130013,0,0
-71.68417385882,-2.6824883082943,2.4057305730573,1465422.4512422,13663.450813955,3757098.664966,7.6057305730573,0,0
-71.684173403237,-2.6799053163129,2.4101610161016,1465422.4512422,13663.450813955,3757098.664966,7.6101610161016,0,0
-71.684172947654,-2.6773223243315,2.4145914591459,1465422.4512422,13663.450813955,3757098.664966,7.6145914591459,0,0
-71.684172492071,-2.6747393323501,2.4190219021902,1465422.4512422,13663.450813955,3757098.664966,7.6190219021902,0,0
-71.684172036488,-2.6721563403687,2.4234523452345,1465422.4512422,13663.450813955,3757098.664966,7.6234523452345,0,0
-71.684171580905,-2.6695733483873,2.4278827882788,1465422.4512422,13663.450813955,3757098.664966,7.6278827882788,0,0
-71.684171125322,-2.666990356406,2.4323132313231,1465422.4512422,13663.450813955,3757098.664966,7.6323132313231,0,0
-71.684170669739,-2.6644073644246,2.4367436743674,1465422.4512422,13663.450813955,3757098.664966,7.6367436743674,0,0
-71.684170214156,-2.6618243724432,2.4411741174117,1465422.4512422,13663.450813955,3757098.664966,7.6411741174117,0,0
-71.684169758573,-2.6592413804618,2.445604560456,1465422.4512422,13663.450813955,3757098.664966,7.645604560456,0,0
-71.68416930299,-2.6566583884804,2.4500350035003,1465422.4512422,13663.450813955,3757098.664966,7.6500350035004,0,0
-71.684168847407,-2.654075396499,2.4544654465447,1465422.4512422,13663.450813955,3757098.664966,7.6544654465447,0,0
-71.684168384864,-2.6514924196038,2.458895889589,1514379.2592696,-28185.455812515,3705251.170595,7.658895889589,0,0
-71.684167917999,-2.6489094520774,2.4633263326333,1514379.2592696,-28185.455812515,3705251.170595,7.6633263326333,0,0
-71.684167451133,-2.6463264845509,2.4677567756776,1514379.2592696,-28185.455812515,3705251.170595,7.6677567756776,0,0
-71.684166984267,-2.6437435170245,2.4721872187219,1514379.2592696,-28185.455812515,3705251.170595,7.6721872187219,0,0
-71.684166517402,-2.6411605494981,2.4766176617662,1514379.2592696,-28185.455812515,3705251.170595,7.6766176617662,0,0
-71.684166050536,-2.6385775819717,2.4810481048105,1514379.2592696,-28185.455812515,3705251.170595,7.6810481048105,0,0
-71.684165583671,-2.6359946144453,2.4854785478548,1514379.2592696,-28185.455812515,3705251.170595,7.6854785478548,0,0
-71.684165116805,-2.6334116469189,2.4899089908991,1514379.2592696,-28185.455812515,3705251.170595,7.6899089908991,0,0
-71.68416464994,-2.6308286793925,2.4943394339434,1514379.2592696,-28185.455812515,3705251.170595,7.6943394339434,0,0
-71.684164183074,-2.6282457118661,2.4987698769877,1514379.2592696,-28185.455812515,3705251.170595,7.6987698769877,0,0
-71.684163716209,-2.6256627443397,2.503200320032,1514379.2592696,-28185.455812515,3705251.170595,7.703200320032,0,0
-71.684163249343,-2.6230797768132,2.5076307630763,1514379.2592696,-28185.455812515,3705251.170595,7.7076307630763,0,0
-71.684162782477,-2.6204968092868,2.5120612061206,1514379.2592696,-28185.455812515,3705251.170595,7.7120612061206,0,0
-71.684162315612,-2.6179138417604,2.5164916491649,1514379.2592696,-28185.455812515,3705251.170595,7.7164916491649,0,0
-71.684161848746,-2.615330874234,2.5209220922092,1514379.2592696,-28185.455812515,3705251.170595,7.7209220922092,0,0
-71.684161381881,-2.6127479067076,2.5253525352535,1514379.2592696,-28185.455812515,3705251.170595,7.7253525352535,0,0
-71.684160915015,-2.6101649391812,2.5297829782978,1514379.2592696,-28185.455812515,3705251.170595,7.7297829782978,0,0
-71.68416044815,-2.6075819716548,2.5342134213421,1514379.2592696,-28185.455812515,3705251.170595,7.7342134213421,0,0
-71.684159981284,-2.6049990041284,2.5386438643864,1514379.2592696,-28185.455812515,3705251.170595,7.7386438643864,0,0
-71.684159514419,-2.6024160366019,2.5430743074307,1514379.2592696,-28185.455812515,3705251.170595,7.7430743074307,0,0
-71.684159047553,-2.5998330690755,2.547504750475,1514379.2592696,-28185.455812515,3705251.170595,7.747504750475,0,0
-71.684158580687,-2.5972501015491,2.5519351935194,1514379.2592696,-28185.455812515,3705251.170595,7.7519351935194,0,0
-71.684158113822,-2.5946671340227,2.5563656365637,1514379.2592696,-28185.455812515,3705251.170595,7.7563656365637,0,0
-71.684157646956,-2.5920841664963,2.560796079608,1514379.2592696,-28185.455812515,3705251.170595,7.760796079608,0,0
-71.684157180091,-2.5895011989699,2.5652265226523,1514379.2592696,-28185.455812515,3705251.170595,7.7652265226523,0,0
-71.684156713225,-2.5869182314435,2.5696569656966,1514379.2592696,-28185.455812515,3705251.170595,7.7696569656966,0,0
-71.68415624636,-2.5843352639171,2.5740874087409,1514379.2592696,-28185.455812515,3705251.170595,7.7740874087409,0,0
-71.684155779494,-2.5817522963906,2.5785178517852,1514379.2592696,-28185.455812515,3705251.170595,7.7785178517852,0,0
-71.684155312629,-2.5791693288642,2.5829482948295,1514379.2592696,-28185.455812515,3705251.170595,7.7829482948295,0,0
-71.684154845763,-2.5765863613378,2.5873787378738,1514379.2592696,-28185.455812515,3705251.170595,7.7873787378738,0,0
-71.684154378897,-2.5740033938114,2.5918091809181,1514379.2592696,-28185.455812515,3705251.170595,7.7918091809181,0,0
-71.684153912032,-2.571420426285,2.5962396239624,1514379.2592696,-28185.455812515,3705251.170595,7.7962396239624,0,0
-71.684153445166,-2.5688374587586,2.6006700670067,1514379.2592696,-28185.455812515,3705251.170595,7.8006700670067,0,0
-71.684152978301,-2.5662544912322,2.605100510051,1514379.2592696,-28185.455812515,3705251.170595,7.805100510051,0,0
-71.684152511435,-2.5636715237058,2.6095309530953,1514379.2592696,-28185.455812515,3705251.170595,7.8095309530953,0,0
-71.68415204457,-2.5610885561794,2.6139613961396,1514379.2592696,-28185.455812515,3705251.170595,7.8139613961396,0,0
-71.684151577704,-2.5585055886529,2.6183918391839,1514379.2592696,-28185.455812515,3705251.170595,7.8183918391839,0,0
-71.684151110839,-2.5559226211265,2.6228222822282,1514379.2592696,-28185.455812515,3705251.170595,7.8228222822282,0,0
-71.684150640008,-2.5533396467057,2.6272527252725,1580258.8369574,10506.48170417,3645620.2389326,7.8272527252725,0,0
-71.684150158417,-2.5507566535767,2.6316831683168,1580258.8369574,10506.48170417,3645620.2389326,7.8316831683168,0,0
-71.684149676826,-2.5481736604477,2.6361136113611,1580258.8369574,10506.48170417,3645620.2389326,7.8361136113611,0,0
-71.684149195235,-2.5455906673187,2.6405440544054,1580258.8369574,10506.48170417,3645620.2389326,7.8405440544054,0,0
-71.684148713644,-2.5430076741896,2.6449744974497,1580258.8369574,10506.48170417,3645620.2389326,7.8449744974497,0,0
-71.684148232053,-2.5404246810606,2.649404940494,1580258.8369574,10506.48170417,3645620.2389326,7.849404940494,0,0
-71.684147750462,-2.5378416879316,2.6538353835384,1580258.8369574,10506.48170417,3645620.2389326,7.8538353835384,0,0
-71.684147268871,-2.5352586948026,2.6582658265827,1580258.8369574,10506.48170417,3645620.2389326,7.8582658265827,0,0
-71.684146787281,-2.5326757016736,2.662696269627,1580258.8369574,10506.48170417,3645620.2389326,7.862696269627,0,0
-71.68414630569,-2.5300927085446,2.6671267126713,1580258.8369574,10506.48170417,3645620.2389326,7.8671267126713,0,0
-71.684145824099,-2.5275097154155,2.6715571557156,1580258.8369574,10506.48170417,3645620.2389326,7.8715571557156,0,0
-71.684145342508,-2.5249267222865,2.6759875987599,1580258.8369574,10506.48170417,3645620.2389326,7.8759875987599,0,0
-71.684144860917,-2.5223437291575,2.6804180418042,1580258.8369574,10506.48170417,3645620.2389326,7.8804180418042,0,0
-71.684144379326,-2.5197607360285,2.6848484848485,1580258.8369574,10506.48170417,3645620.2389326,7.8848484848485,0,0
-71.684143897735,-2.5171777428995,2.6892789278928,1580258.8369574,10506.48170417,3645620.2389326,7.8892789278928,0,0
-71.684143416144,-2.5145947497704,2.6937093709371,1580258.8369574,10506.48170417,3645620.2389326,7.8937093709371,0,0
-71.684142934554,-2.5120117566414,2.6981398139814,1580258.8369574,10506.48170417,3645620.2389326,7.8981398139814,0,0
-71.684142452963,-2.5094287635124,2.7025702570257,1580258.8369574,10506.48170417,3645620.2389326,7.9025702570257,0,0
-71.684141971372,-2.5068457703834,2.70700070007,1580258.8369574,10506.48170417,3645620.2389326,7.90700070007,0,0
-71.684141489781,-2.5042627772544,2.7114311431143,1580258.8369574,10506.48170417,3645620.2389326,7.9114311431143,0,0
-71.68414100819,-2.5016797841254,2.7158615861586,1580258.8369574,10506.48170417,3645620.2389326,7.9158615861586,0,0
-71.684140526599,-2.4990967909963,2.7202920292029,1580258.8369574,10506.48170417,3645620.2389326,7.9202920292029,0,0
-71.684140045008,-2.4965137978673,2.7247224722472,1580258.8369574,10506.48170417,3645620.2389326,7.9247224722472,0,0
-71.684139563417,-2.4939308047383,2.7291529152915,1580258.8369574,10506.48170417,3645620.2389326,7.9291529152915,0,0
-71.684139081826,-2.4913478116093,2.7335833583358,1580258.8369574,10506.48170417,3645620.2389326,7.9335833583358,0,0
-71.684138600236,-2.4887648184803,2.7380138013801,1580258.8369574,10506.48170417,3645620.2389326,7.9380138013801,0,0
-71.684138118645,-2.4861818253512,2.7424442444244,1580258.8369574,10506.48170417,3645620.2389326,7.9424442444244,0,0
-71.684137637054,-2.4835988322222,2.7468746874687,1580258.8369574,10506.48170417,3645620.2389326,7.9468746874687,0,0
-71.684137155463,-2.4810158390932,2.7513051305131,1580258.8369574,10506.48170417,3645620.2389326,7.9513051305131,0,0
-71.684136673872,-2.4784328459642,2.7557355735574,1580258.8369574,10506.48170417,3645620.2389326,7.9557355735574,0,0
-71.684136192281,-2.4758498528352,2.7601660166017,1580258.8369574,10506.48170417,3645620.2389326,7.9601660166017,0,0
-71.68413571069,-2.4732668597062,2.764596459646,1580258.8369574,10506.48170417,3645620.2389326,7.964596459646,0,0
-71.684135229099,-2.4706838665771,2.7690269026903,1580258.8369574,10506.48170417,3645620.2389326,7.9690269026903,0,0
-71.684134747508,-2.4681008734481,2.7734573457346,1580258.8369574,10506.48170417,3645620.2389326,7.9734573457346,0,0
-71.684134265918,-2.4655178803191,2.7778877887789,1580258.8369574,10506.48170417,3645620.2389326,7.9778877887789,0,0
-71.684133784327,-2.4629348871901,2.7823182318232,1580258.8369574,10506.48170417,3645620.2389326,7.9823182318232,0,0
-71.684133302736,-2.4603518940611,2.7867486748675,1580258.8369574,10506.48170417,3645620.2389326,7.9867486748675,0,0
-71.684132821145,-2.457768900932,2.7911791179118,1580258.8369574,10506.48170417,3645620.2389326,7.9911791179118,0,0
-71.684132339554,-2.455185907803,2.7956095609561,1580258.8369574,10506.48170417,3645620.2389326,7.9956095609561,0,0
-71.684131857963,-2.452602914674,2.8000400040004,1580258.8369574,10506.48170417,3645620.2389326,8.0000400040004,0,0
-71.684131376372,-2.450019921545,2.8044704470447,1580258.8369574,10506.48170417,3645620.2389326,8.0044704470447,0,0
-71.684130894781,-2.447436928416,2.808900890089,1580258.8369574,10506.48170417,3645620.2389326,8.008900890089,0,0
-71.68413041319,-2.4448539352869,2.8133313331333,1580258.8369574,10506.48170417,3645620.2389326,8.0133313331333,0,0
-71.6841299316,-2.4422709421579,2.8177617761776,1580258.8369574,10506.48170417,3645620.2389326,8.0177617761776,0,0
-71.684129450009,-2.4396879490289,2.8221922192219,1580258.8369574,10506.48170417,3645620.2389326,8.0221922192219,0,0
-71.684128968418,-2.4371049558999,2.8266226622662,1580258.8369574,10506.48170417,3645620.2389326,8.0266226622662,0,0
-71.684128486827,-2.4345219627709,2.8310531053105,1580258.8369574,10506.48170417,3645620.2389326,8.0310531053105,0,0
-71.684128005236,-2.4319389696419,2.8354835483548,1580258.8369574,10506.48170417,3645620.2389326,8.0354835483548,0,0
-71.684127523645,-2.4293559765128,2.8399139913991,1580258.8369574,10506.48170417,3645620.2389326,8.0399139913991,0,0
-71.684127042054,-2.4267729833838,2.8443444344434,1580258.8369574,10506.48170417,3645620.2389326,8.0443444344434,0,0
-71.684126560463,-2.4241899902548,2.8487748774877,1580258.8369574,10506.48170417,3645620.2389326,8.0487748774877,0,0
-71.684126078872,-2.4216069971258,2.8532053205321,1580258.8369574,10506.48170417,3645620.2389326,8.0532053205321,0,0
-71.684125597282,-2.4190240039968,2.8576357635764,1580258.8369574,10506.48170417,3645620.2389326,8.0576357635764,0,0
-71.684125115691,-2.4164410108677,2.8620662066207,1580258.8369574,10506.48170417,3645620.2389326,8.0620662066207,0,0
-71.6841246341,-2.4138580177387,2.866496649665,1580258.8369574,10506.48170417,3645620.2389326,8.066496649665,0,0
-71.684124152509,-2.4112750246097,2.8709270927093,1580258.8369574,10506.48170417,3645620.2389326,8.0709270927093,0,0
-71.6841236619,-2.4086920441481,2.8753575357536,1664316.4894544,-26354.783007515,3614442.1869736,8.0753575357536,0,0
-71.684123163546,-2.4061090745667,2.8797879787979,1664316.4894544,-26354.783007515,3614442.1869736,8.0797879787979,0,0
-71.684122665193,-2.4035261049852,2.8842184218422,1664316.4894544,-26354.783007515,3614442.1869736,8.0842184218422,0,0
-71.684122166839,-2.4009431354038,2.8886488648865,1664316.4894544,-26354.783007515,3614442.1869736,8.0886488648865,0,0
-71.684121668485,-2.3983601658224,2.8930793079308,1664316.4894544,-26354.783007515,3614442.1869736,8.0930793079308,0,0
-71.684121170131,-2.395777196241,2.8975097509751,1664316.4894544,-26354.783007515,3614442.1869736,8.0975097509751,0,0
-71.684120671777,-2.3931942266596,2.9019401940194,1664316.4894544,-26354.783007515,3614442.1869736,8.1019401940194,0,0
-71.684120173423,-2.3906112570782,2.9063706370637,1664316.4894544,-26354.783007515,3614442.1869736,8.1063706370637,0,0
-71.684119675069,-2.3880282874967,2.910801080108,1664316.4894544,-26354.783007515,3614442.1869736,8.110801080108,0,0
-71.684119176715,-2.3854453179153,2.9152315231523,1664316.4894544,-26354.783007515,3614442.1869736,8.1152315231523,0,0
-71.684118678361,-2.3828623483339,2.9196619661966,1664316.4894544,-26354.783007515,3614442.1869736,8.1196619661966,0,0
-71.684118180007,-2.3802793787525,2.9240924092409,1664316.4894544,-26354.783007515,3614442.1869736,8.1240924092409,0,0
-71.684117681654,-2.3776964091711,2.9285228522852,1664316.4894544,-26354.783007515,3614442.1869736,8.1285228522852,0,0
-71.6841171833,-2.3751134395896,2.9329532953295,1664316.4894544,-26354.783007515,3614442.1869736,8.1329532953295,0,0
-71.684116684946,-2.3725304700082,2.9373837383738,1664316.4894544,-26354.783007515,3614442.1869736,8.1373837383738,0,0
-71.684116186592,-2.3699475004268,2.9418141814181,1664316.4894544,-26354.783007515,3614442.1869736,8.1418141814181,0,0
-71.684115688238,-2.3673645308454,2.9462446244624,1664316.4894544,-26354.783007515,3614442.1869736,8.1462446244624,0,0
-71.684115189884,-2.364781561264,2.9506750675067,1664316.4894544,-26354.783007515,3614442.1869736,8.1506750675068,0,0
-71.68411469153,-2.3621985916825,2.9551055105511,1664316.4894544,-26354.783007515,3614442.1869736,8.1551055105511,0,0
-71.684114193176,-2.3596156221011,2.9595359535954,1664316.4894544,-26354.783007515,3614442.1869736,8.1595359535954,0,0
-71.684113694822,-2.3570326525197,2.9639663966397,1664316.4894544,-26354.783007515,3614442.1869736,8.1639663966397,0,0
-71.684113196469,-2.3544496829383,2.968396839684,1664316.4894544,-26354.783007515,3614442.1869736,8.168396839684,0,0
-71.684112698115,-2.3518667133569,2.9728272827283,1664316.4894544,-26354.783007515,3614442.1869736,8.1728272827283,0,0
-71.684112199761,-2.3492837437754,2.9772577257726,1664316.4894544,-26354.783007515,3614442.1869736,8.1772577257726,0,0
-71.684111701407,-2.346700774194,2.9816881688169,1664316.4894544,-26354.783007515,3614442.1869736,8.1816881688169,0,0
-71.684111203053,-2.3441178046126,2.9861186118612,1664316.4894544,-26354.783007515,3614442.1869736,8.1861186118612,0,0
-71.684110704699,-2.3415348350312,2.9905490549055,1664316.4894544,-26354.783007515,3614442.1869736,8.1905490549055,0,0
-71.684110206345,-2.3389518654498,2.9949794979498,1664316.4894544,-26354.783007515,3614442.1869736,8.1949794979498,0,0
-71.684109707991,-2.3363688958683,2.9994099409941,1664316.4894544,-26354.783007515,3614442.1869736,8.1994099409941,0,0
-71.684109209637,-2.3337859262869,3.0038403840384,1664316.4894544,-26354.783007515,3614442.1869736,8.2038403840384,0,0
-71.684108711283,-2.3312029567055,3.0082708270827,1664316.4894544,-26354.783007515,3614442.1869736,8.2082708270827,0,0
-71.68410821293,-2.3286199871241,3.012701270127,1664316.4894544,-26354.783007515,3614442.1869736,8.212701270127,0,0
-71.684107714576,-2.3260370175427,3.0171317131713,1664316.4894544,-26354.783007515,3614442.1869736,8.2171317131713,0,0
-71.684107216222,-2.3234540479612,3.0215621562156,1664316.4894544,-26354.783007515,3614442.1869736,8.2215621562156,0,0
-71.684106717868,-2.3208710783798,3.0259925992599,1664316.4894544,-26354.783007515,3614442.1869736,8.2259925992599,0,0
-71.684106219514,-2.3182881087984,3.0304230423042,1664316.4894544,-26354.783007515,3614442.1869736,8.2304230423042,0,0
-71.68410572116,-2.315705139217,3.0348534853485,1664316.4894544,-26354.783007515,3614442.1869736,8.2348534853485,0,0
-71.684105222806,-2.3131221696356,3.0392839283928,1664316.4894544,-26354.783007515,3614442.1869736,8.2392839283928,0,0
-71.684104724452,-2.3105392000542,3.0437143714371,1664316.4894544,-26354.783007515,3614442.1869736,8.2437143714371,0,0
-71.684104226098,-2.3079562304727,3.0481448144814,1664316.4894544,-26354.783007515,3614442.1869736,8.2481448144814,0,0
-71.684103727744,-2.3053732608913,3.0525752575258,1664316.4894544,-26354.783007515,3614442.1869736,8.2525752575258,0,0
-71.684103229391,-2.3027902913099,3.0570057005701,1664316.4894544,-26354.783007515,3614442.1869736,8.2570057005701,0,0
-71.684102731037,-2.3002073217285,3.0614361436144,1664316.4894544,-26354.783007515,3614442.1869736,8.2614361436144,0,0
-71.684102232683,-2.2976243521471,3.0658665866587,1664316.4894544,-26354.783007515,3614442.1869736,8.2658665866587,0,0
-71.684101734329,-2.2950413825656,3.070297029703,1664316.4894544,-26354.783007515,3614442.1869736,8.270297029703,0,0
-71.684101235975,-2.2924584129842,3.0747274727473,1664316.4894544,-26354.783007515,3614442.1869736,8.2747274727473,0,0
-71.684100737621,-2.2898754434028,3.0791579157916,1664316.4894544,-26354.783007515,3614442.1869736,8.2791579157916,0,0
-71.684100239267,-2.2872924738214,3.0835883588359,1664316.4894544,-26354.783007515,3614442.1869736,8.2835883588359,0,0
-71.684099738941,-2.2847094957819,3.0880188018802,1667898.5353292,10450.243097378,3521668.7131938,8.2880188018802,0,0
-71.684099235749,-2.2821265054435,3.0924492449245,1667898.5353292,10450.243097378,3521668.7131938,8.2924492449245,0,0
-71.684098732556,-2.2795435151051,3.0968796879688,1667898.5353292,10450.243097378,3521668.7131938,8.2968796879688,0,0
-71.684098229363,-2.2769605247667,3.1013101310131,1667898.5353292,10450.243097378,3521668.7131938,8.3013101310131,0,0
-71.68409772617,-2.2743775344284,3.1057405740574,1667898.5353292,10450.243097378,3521668.7131938,8.3057405740574,0,0
-71.684097222978,-2.27179454409,3.1101710171017,1667898.5353292,10450.243097378,3521668.7131938,8.3101710171017,0,0
-71.684096719785,-2.2692115537516,3.114601460146,1667898.5353292,10450.243097378,3521668.7131938,8.314601460146,0,0
-71.684096216592,-2.2666285634132,3.1190319031903,1667898.5353292,10450.243097378,3521668.7131938,8.3190319031903,0,0
-71.684095713399,-2.2640455730748,3.1234623462346,1667898.5353292,10450.243097378,3521668.7131938,8.3234623462346,0,0
-71.684095210207,-2.2614625827364,3.1278927892789,1667898.5353292,10450.243097378,3521668.7131938,8.3278927892789,0,0
-71.684094707014,-2.258879592398,3.1323232323232,1667898.5353292,10450.243097378,3521668.7131938,8.3323232323232,0,0
-71.684094203821,-2.2562966020596,3.1367536753675,1667898.5353292,10450.243097378,3521668.7131938,8.3367536753675,0,0
-71.684093700628,-2.2537136117212,3.1411841184118,1667898.5353292,10450.243097378,3521668.7131938,8.3411841184118,0,0
-71.684093197436,-2.2511306213828,3.1456145614561,1667898.5353292,10450.243097378,3521668.7131938,8.3456145614561,0,0
-71.684092694243,-2.2485476310444,3.1500450045004,1667898.5353292,10450.243097378,3521668.7131938,8.3500450045004,0,0
-71.68409219105,-2.245964640706,3.1544754475448,1667898.5353292,10450.243097378,3521668.7131938,8.3544754475448,0,0
-71.684091687857,-2.2433816503676,3.1589058905891,1667898.5353292,10450.243097378,3521668.7131938,8.3589058905891,0,0
-71.684091184665,-2.2407986600292,3.1633363336334,1667898.5353292,10450.243097378,3521668.7131938,8.3633363336334,0,0
-71.684090681472,-2.2382156696908,3.1677667766777,1667898.5353292,10450.243097378,3521668.7131938,8.3677667766777,0,0
-71.684090178279,-2.2356326793524,3.172197219722,1667898.5353292,10450.243097378,3521668.7131938,8.372197219722,0,0
-71.684089675086,-2.233049689014,3.1766276627663,1667898.5353292,10450.243097378,3521668.7131938,8.3766276627663,0,0
-71.684089171894,-2.2304666986757,3.1810581058106,1667898.5353292,10450.243097378,3521668.7131938,8.3810581058106,0,0
-71.684088668701,-2.2278837083373,3.1854885488549,1667898.5353292,10450.243097378,3521668.7131938,8.3854885488549,0,0
-71.684088165508,-2.2253007179989,3.1899189918992,1667898.5353292,10450.243097378,3521668.7131938,8.3899189918992,0,0
-71.684087662315,-2.2227177276605,3.1943494349435,1667898.5353292,10450.243097378,3521668.7131938,8.3943494349435,0,0
-71.684087159123,-2.2201347373221,3.1987798779878,1667898.5353292,10450.243097378,3521668.7131938,8.3987798779878,0,0
-71.68408665593,-2.2175517469837,3.2032103210321,1667898.5353292,10450.243097378,3521668.7131938,8.4032103210321,0,0
-71.684086152737,-2.2149687566453,3.2076407640764,1667898.5353292,10450.243097378,3521668.7131938,8.4076407640764,0,0
-71.684085649544,-2.2123857663069,3.2120712071207,1667898.5353292,10450.243097378,3521668.7131938,8.4120712071207,0,0
-71.684085146352,-2.2098027759685,3.216501650165,1667898.5353292,10450.243097378,3521668.7131938,8.416501650165,0,0
-71.684084643159,-2.2072197856301,3.2209320932093,1667898.5353292,10450.243097378,3521668.7131938,8.4209320932093,0,0
-71.684084139966,-2.2046367952917,3.2253625362536,1667898.5353292,10450.243097378,3521668.7131938,8.4253625362536,0,0
-71.684083636773,-2.2020538049533,3.2297929792979,1667898.5353292,10450.243097378,3521668.7131938,8.4297929792979,0,0
-71.684083133581,-2.1994708146149,3.2342234223422,1667898.5353292,10450.243097378,3521668.7131938,8.4342234223422,0,0
-71.684082630388,-2.1968878242765,3.2386538653865,1667898.5353292,10450.243097378,3521668.7131938,8.4386538653865,0,0
-71.684082127195,-2.1943048339381,3.2430843084308,1667898.5353292,10450.243097378,3521668.7131938,8.4430843084308,0,0
-71.684081624002,-2.1917218435997,3.2475147514751,1667898.5353292,10450.243097378,3521668.7131938,8.4475147514751,0,0
-71.68408112081,-2.1891388532614,3.2519451945195,1667898.5353292,10450.243097378,3521668.7131938,8.4519451945195,0,0
-71.684080617617,-2.186555862923,3.2563756375638,1667898.5353292,10450.243097378,3521668.7131938,8.4563756375638,0,0
-71.684080114424,-2.1839728725846,3.2608060806081,1667898.5353292,10450.243097378,3521668.7131938,8.4608060806081,0,0
-71.684079611231,-2.1813898822462,3.2652365236524,1667898.5353292,10450.243097378,3521668.7131938,8.4652365236524,0,0
-71.684079108039,-2.1788068919078,3.2696669666967,1667898.5353292,10450.243097378,3521668.7131938,8.4696669666967,0,0
-71.684078604846,-2.1762239015694,3.274097409741,1667898.5353292,10450.243097378,3521668.7131938,8.474097409741,0,0
-71.684078101653,-2.173640911231,3.2785278527853,1667898.5353292,10450.243097378,3521668.7131938,8.4785278527853,0,0
-71.684077589034,-2.1710579222759,3.2829582958296,1768045.5852989,7793.4862058909,3545334.7922331,8.4829582958296,0,0
-71.684077068612,-2.1684749344657,3.2873887388739,1768045.5852989,7793.4862058909,3545334.7922331,8.4873887388739,0,0
-71.684076548191,-2.1658919466555,3.2918191819182,1768045.5852989,7793.4862058909,3545334.7922331,8.4918191819182,0,0
-71.684076027769,-2.1633089588454,3.2962496249625,1768045.5852989,7793.4862058909,3545334.7922331,8.4962496249625,0,0
-71.684075507348,-2.1607259710352,3.3006800680068,1768045.5852989,7793.4862058909,3545334.7922331,8.5006800680068,0,0
-71.684074986926,-2.158142983225,3.3051105110511,1768045.5852989,7793.4862058909,3545334.7922331,8.5051105110511,0,0
-71.684074466505,-2.1555599954148,3.3095409540954,1768045.5852989,7793.4862058909,3545334.7922331,8.5095409540954,0,0
-71.684073946083,-2.1529770076047,3.3139713971397,1768045.5852989,7793.4862058909,3545334.7922331,8.5139713971397,0,0
-71.684073425662,-2.1503940197945,3.318401840184,1768045.5852989,7793.4862058909,3545334.7922331,8.518401840184,0,0
-71.68407290524,-2.1478110319843,3.3228322832283,1768045.5852989,7793.4862058909,3545334.7922331,8.5228322832283,0,0
-71.684072384819,-2.1452280441741,3.3272627262726,1768045.5852989,7793.4862058909,3545334.7922331,8.5272627262726,0,0
-71.684071864397,-2.142645056364,3.3316931693169,1768045.5852989,7793.4862058909,3545334.7922331,8.5316931693169,0,0
-71.684071343976,-2.1400620685538,3.3361236123612,1768045.5852989,7793.4862058909,3545334.7922331,8.5361236123612,0,0
-71.684070823554,-2.1374790807436,3.3405540554055,1768045.5852989,7793.4862058909,3545334.7922331,8.5405540554055,0,0
-71.684070303133,-2.1348960929334,3.3449844984498,1768045.5852989,7793.4862058909,3545334.7922331,8.5449844984498,0,0
-71.684069782711,-2.1323131051233,3.3494149414941,1768045.5852989,7793.4862058909,3545334.7922331,8.5494149414941,0,0
-71.68406926229,-2.1297301173131,3.3538453845385,1768045.5852989,7793.4862058909,3545334.7922331,8.5538453845385,0,0
-71.684068741868,-2.1271471295029,3.3582758275828,1768045.5852989,7793.4862058909,3545334.7922331,8.5582758275828,0,0
-71.684068221447,-2.1245641416927,3.3627062706271,1768045.5852989,7793.4862058909,3545334.7922331,8.5627062706271,0,0
-71.684067701025,-2.1219811538826,3.3671367136714,1768045.5852989,7793.4862058909,3545334.7922331,8.5671367136714,0,0
-71.684067180604,-2.1193981660724,3.3715671567157,1768045.5852989,7793.4862058909,3545334.7922331,8.5715671567157,0,0
-71.684066660182,-2.1168151782622,3.37599759976,1768045.5852989,7793.4862058909,3545334.7922331,8.57599759976,0,0
-71.684066139761,-2.114232190452,3.3804280428043,1768045.5852989,7793.4862058909,3545334.7922331,8.5804280428043,0,0
-71.684065619339,-2.1116492026418,3.3848584858486,1768045.5852989,7793.4862058909,3545334.7922331,8.5848584858486,0,0
-71.684065098918,-2.1090662148317,3.3892889288929,1768045.5852989,7793.4862058909,3545334.7922331,8.5892889288929,0,0
-71.684064578496,-2.1064832270215,3.3937193719372,1768045.5852989,7793.4862058909,3545334.7922331,8.5937193719372,0,0
-71.684064058074,-2.1039002392113,3.3981498149815,1768045.5852989,7793.4862058909,3545334.7922331,8.5981498149815,0,0
-71.684063537653,-2.1013172514011,3.4025802580258,1768045.5852989,7793.4862058909,3545334.7922331,8.6025802580258,0,0
-71.684063017231,-2.098734263591,3.4070107010701,1768045.5852989,7793.4862058909,3545334.7922331,8.6070107010701,0,0
-71.68406249681,-2.0961512757808,3.4114411441144,1768045.5852989,7793.4862058909,3545334.7922331,8.6114411441144,0,0
-71.684061976388,-2.0935682879706,3.4158715871587,1768045.5852989,7793.4862058909,3545334.7922331,8.6158715871587,0,0
-71.684061455967,-2.0909853001604,3.420302030203,1768045.5852989,7793.4862058909,3545334.7922331,8.620302030203,0,0
-71.684060935545,-2.0884023123503,3.4247324732473,1768045.5852989,7793.4862058909,3545334.7922331,8.6247324732473,0,0
-71.684060415124,-2.0858193245401,3.4291629162916,1768045.5852989,7793.4862058909,3545334.7922331,8.6291629162916,0,0
-71.684059894702,-2.0832363367299,3.4335933593359,1768045.5852989,7793.4862058909,3545334.7922331,8.6335933593359,0,0
-71.684059374281,-2.0806533489197,3.4380238023802,1768045.5852989,7793.4862058909,3545334.7922331,8.6380238023802,0,0
-71.684058853859,-2.0780703611096,3.4424542454245,1768045.5852989,7793.4862058909,3545334.7922331,8.6424542454245,0,0
-71.684058333438,-2.0754873732994,3.4468846884688,1768045.5852989,7793.4862058909,3545334.7922331,8.6468846884688,0,0
-71.684057813016,-2.0729043854892,3.4513151315132,1768045.5852989,7793.4862058909,3545334.7922331,8.6513151315132,0,0
-71.684057292595,-2.070321397679,3.4557455745575,1768045.5852989,7793.4862058909,3545334.7922331,8.6557455745575,0,0
-71.684056772173,-2.0677384098689,3.4601760176018,1768045.5852989,7793.4862058909,3545334.7922331,8.6601760176018,0,0
-71.684056251752,-2.0651554220587,3.4646064606461,1768045.5852989,7793.4862058909,3545334.7922331,8.6646064606461,0,0
-71.68405573133,-2.0625724342485,3.4690369036904,1768045.5852989,7793.4862058909,3545334.7922331,8.6690369036904,0,0
-71.684055210909,-2.0599894464383,3.4734673467347,1768045.5852989,7793.4862058909,3545334.7922331,8.6734673467347,0,0
-71.684054690487,-2.0574064586281,3.477897789779,1768045.5852989,7793.4862058909,3545334.7922331,8.677897789779,0,0
-71.684054170066,-2.054823470818,3.4823282328233,1768045.5852989,7793.4862058909,3545334.7922331,8.6823282328233,0,0
-71.684053649644,-2.0522404830078,3.4867586758676,1768045.5852989,7793.4862058909,3545334.7922331,8.6867586758676,0,0
-71.684053129223,-2.0496574951976,3.4911891189119,1768045.5852989,7793.4862058909,3545334.7922331,8.6911891189119,0,0
-71.684052608801,-2.0470745073874,3.4956195619562,1768045.5852989,7793.4862058909,3545334.7922331,8.6956195619562,0,0
-71.684052088373,-2.0444915230009,3.5000500050005,1743596.784992,-26611.993510207,3445603.6023752,8.7000500050005,0,0
-71.68405156792,-2.0419085509001,3.5044804480448,1743596.784992,-26611.993510207,3445603.6023752,8.7044804480448,0,0
-71.684051047467,-2.0393255787993,3.5089108910891,1743596.784992,-26611.993510207,3445603.6023752,8.7089108910891,0,0
-71.684050527014,-2.0367426066985,3.5133413341334,1743596.784992,-26611.993510207,3445603.6023752,8.7133413341334,0,0
-71.68405000656,-2.0341596345977,3.5177717771777,1743596.784992,-26611.993510207,3445603.6023752,8.7177717771777,0,0
-71.684049486107,-2.031576662497,3.522202220222,1743596.784992,-26611.993510207,3445603.6023752,8.722202220222,0,0
-71.684048965654,-2.0289936903962,3.5266326632663,1743596.784992,-26611.993510207,3445603.6023752,8.7266326632663,0,0
-71.684048445201,-2.0264107182954,3.5310631063106,1743596.784992,-26611.993510207,3445603.6023752,8.7310631063106,0,0
-71.684047924748,-2.0238277461946,3.5354935493549,1743596.784992,-26611.993510207,3445603.6023752,8.7354935493549,0,0
-71.684047404295,-2.0212447740938,3.5399239923992,1743596.784992,-26611.993510207,3445603.6023752,8.7399239923992,0,0
-71.684046883842,-2.018661801993,3.5443544354435,1743596.784992,-26611.993510207,3445603.6023752,8.7443544354435,0,0
-71.684046363388,-2.0160788298923,3.5487848784878,1743596.784992,-26611.993510207,3445603.6023752,8.7487848784878,0,0
-71.684045842935,-2.0134958577915,3.5532153215322,1743596.784992,-26611.993510207,3445603.6023752,8.7532153215322,0,0
-71.684045322482,-2.0109128856907,3.5576457645765,1743596.784992,-26611.993510207,3445603.6023752,8.7576457645765,0,0
-71.684044802029,-2.0083299135899,3.5620762076208,1743596.784992,-26611.993510207,3445603.6023752,8.7620762076208,0,0
-71.684044281576,-2.0057469414891,3.5665066506651,1743596.784992,-26611.993510207,3445603.6023752,8.7665066506651,0,0
-71.684043761123,-2.0031639693883,3.5709370937094,1743596.784992,-26611.993510207,3445603.6023752,8.7709370937094,0,0
-71.68404324067,-2.0005809972876,3.5753675367537,1743596.784992,-26611.993510207,3445603.6023752,8.7753675367537,0,0
-71.684042720216,-1.9979980251868,3.579797979798,1743596.784992,-26611.993510207,3445603.6023752,8.779797979798,0,0
-71.684042199763,-1.995415053086,3.5842284228423,1743596.784992,-26611.993510207,3445603.6023752,8.7842284228423,0,0
-71.68404167931,-1.9928320809852,3.5886588658866,1743596.784992,-26611.993510207,3445603.6023752,8.7886588658866,0,0
-71.684041158857,-1.9902491088844,3.5930893089309,1743596.784992,-26611.993510207,3445603.6023752,8.7930893089309,0,0
-71.684040638404,-1.9876661367836,3.5975197519752,1743596.784992,-26611.993510207,3445603.6023752,8.7975197519752,0,0
-71.684040117951,-1.9850831646829,3.6019501950195,1743596.784992,-26611.993510207,3445603.6023752,8.8019501950195,0,0
-71.684039597498,-1.9825001925821,3.6063806380638,1743596.784992,-26611.993510207,3445603.6023752,8.8063806380638,0,0
-71.684039077045,-1.9799172204813,3.6108110811081,1743596.784992,-26611.993510207,3445603.6023752,8.8108110811081,0,0
-71.684038556591,-1.9773342483805,3.6152415241524,1743596.784992,-26611.993510207,3445603.6023752,8.8152415241524,0,0
-71.684038036138,-1.9747512762797,3.6196719671967,1743596.784992,-26611.993510207,3445603.6023752,8.8196719671967,0,0
-71.684037515685,-1.972168304179,3.624102410241,1743596.784992,-26611.993510207,3445603.6023752,8.824102410241,0,0
-71.684036995232,-1.9695853320782,3.6285328532853,1743596.784992,-26611.993510207,3445603.6023752,8.8285328532853,0,0
-71.684036474779,-1.9670023599774,3.6329632963296,1743596.784992,-26611.993510207,3445603.6023752,8.8329632963296,0,0
-71.684035954326,-1.9644193878766,3.6373937393739,1743596.784992,-26611.993510207,3445603.6023752,8.8373937393739,0,0
-71.684035433873,-1.9618364157758,3.6418241824182,1743596.784992,-26611.993510207,3445603.6023752,8.8418241824182,0,0
-71.684034913419,-1.959253443675,3.6462546254625,1743596.784992,-26611.993510207,3445603.6023752,8.8462546254625,0,0
-71.684034392966,-1.9566704715743,3.6506850685069,1743596.784992,-26611.993510207,3445603.6023752,8.8506850685069,0,0
-71.684033872513,-1.9540874994735,3.6551155115512,1743596.784992,-26611.993510207,3445603.6023752,8.8551155115512,0,0
-71.68403335206,-1.9515045273727,3.6595459545955,1743596.784992,-26611.993510207,3445603.6023752,8.8595459545955,0,0
-71.684032831607,-1.9489215552719,3.6639763976398,1743596.784992,-26611.993510207,3445603.6023752,8.8639763976398,0,0
-71.684032311154,-1.9463385831711,3.6684068406841,1743596.784992,-26611.993510207,3445603.6023752,8.8684068406841,0,0
-71.684031790701,-1.9437556110703,3.6728372837284,1743596.784992,-26611.993510207,3445603.6023752,8.8728372837284,0,0
-71.684031270247,-1.9411726389696,3.6772677267727,1743596.784992,-26611.993510207,3445603.6023752,8.8772677267727,0,0
-71.684030749794,-1.9385896668688,3.681698169817,1743596.784992,-26611.993510207,3445603.6023752,8.881698169817,0,0
-71.684030229341,-1.936006694768,3.6861286128613,1743596.784992,-26611.993510207,3445603.6023752,8.8861286128613,0,0
-71.684029708888,-1.9334237226672,3.6905590559056,1743596.784992,-26611.993510207,3445603.6023752,8.8905590559056,0,0
-71.684029176485,-1.9308407393116,3.6949894989499,1836628.1151697,-711.2070927593,3447241.6716118,8.8949894989499,0,0
-71.684028639109,-1.9282577512731,3.6994199419942,1836628.1151697,-711.2070927593,3447241.6716118,8.8994199419942,0,0
-71.684028101734,-1.9256747632345,3.7038503850385,1836628.1151697,-711.2070927593,3447241.6716118,8.9038503850385,0,0
-71.684027564359,-1.923091775196,3.7082808280828,1836628.1151697,-711.2070927593,3447241.6716118,8.9082808280828,0,0
-71.684027026983,-1.9205087871574,3.7127112711271,1836628.1151697,-711.2070927593,3447241.6716118,8.9127112711271,0,0
-71.684026489608,-1.9179257991189,3.7171417141714,1836628.1151697,-711.2070927593,3447241.6716118,8.9171417141714,0,0
-71.684025952232,-1.9153428110803,3.7215721572157,1836628.1151697,-711.2070927593,3447241.6716118,8.9215721572157,0,0
-71.684025414857,-1.9127598230418,3.72600260026,1836628.1151697,-711.2070927593,3447241.6716118,8.92600260026,0,0
-71.684024877481,-1.9101768350032,3.7304330433043,1836628.1151697,-711.2070927593,3447241.6716118,8.9304330433043,0,0
-71.684024340106,-1.9075938469647,3.7348634863486,1836628.1151697,-711.2070927593,3447241.6716118,8.9348634863486,0,0
-71.68402380273,-1.9050108589261,3.7392939293929,1836628.1151697,-711.2070927593,3447241.6716118,8.9392939293929,0,0
-71.684023265355,-1.9024278708876,3.7437243724372,1836628.1151697,-711.2070927593,3447241.6716118,8.9437243724372,0,0
-71.68402272798,-1.899844882849,3.7481548154815,1836628.1151697,-711.2070927593,3447241.6716118,8.9481548154815,0,0
-71.684022190604,-1.8972618948105,3.7525852585259,1836628.1151697,-711.2070927593,3447241.6716118,8.9525852585259,0,0
-71.684021653229,-1.8946789067719,3.7570157015702,1836628.1151697,-711.2070927593,3447241.6716118,8.9570157015702,0,0
-71.684021115853,-1.8920959187333,3.7614461446145,1836628.1151697,-711.2070927593,3447241.6716118,8.9614461446145,0,0
-71.684020578478,-1.8895129306948,3.7658765876588,1836628.1151697,-711.2070927593,3447241.6716118,8.9658765876588,0,0
-71.684020041102,-1.8869299426562,3.7703070307031,1836628.1151697,-711.2070927593,3447241.6716118,8.9703070307031,0,0
-71.684019503727,-1.8843469546177,3.7747374737474,1836628.1151697,-711.2070927593,3447241.6716118,8.9747374737474,0,0
-71.684018966351,-1.8817639665791,3.7791679167917,1836628.1151697,-711.2070927593,3447241.6716118,8.9791679167917,0,0
-71.684018428976,-1.8791809785406,3.783598359836,1836628.1151697,-711.2070927593,3447241.6716118,8.983598359836,0,0
-71.684017891601,-1.876597990502,3.7880288028803,1836628.1151697,-711.2070927593,3447241.6716118,8.9880288028803,0,0
-71.684017354225,-1.8740150024635,3.7924592459246,1836628.1151697,-711.2070927593,3447241.6716118,8.9924592459246,0,0
-71.68401681685,-1.8714320144249,3.7968896889689,1836628.1151697,-711.2070927593,3447241.6716118,8.9968896889689,0,0
-71.684016279474,-1.8688490263864,3.8013201320132,1836628.1151697,-711.2070927593,3447241.6716118,9.0013201320132,0,0
-71.684015742099,-1.8662660383478,3.8057505750575,1836628.1151697,-711.2070927593,3447241.6716118,9.0057505750575,0,0
-71.684015204723,-1.8636830503093,3.8101810181018,1836628.1151697,-711.2070927593,3447241.6716118,9.0101810181018,0,0
-71.684014667348,-1.8611000622707,3.8146114611461,1836628.1151697,-711.2070927593,3447241.6716118,9.0146114611461,0,0
-71.684014129972,-1.8585170742322,3.8190419041904,1836628.1151697,-711.2070927593,3447241.6716118,9.0190419041904,0,0
-71.684013592597,-1.8559340861936,3.8234723472347,1836628.1151697,-711.2070927593,3447241.6716118,9.0234723472347,0,0
-71.684013055222,-1.8533510981551,3.827902790279,1836628.1151697,-711.2070927593,3447241.6716118,9.027902790279,0,0
-71.684012517846,-1.8507681101165,3.8323332333233,1836628.1151697,-711.2070927593,3447241.6716118,9.0323332333233,0,0
-71.684011980471,-1.848185122078,3.8367636763676,1836628.1151697,-711.2070927593,3447241.6716118,9.0367636763676,0,0
-71.684011443095,-1.8456021340394,3.8411941194119,1836628.1151697,-711.2070927593,3447241.6716118,9.0411941194119,0,0
-71.68401090572,-1.8430191460009,3.8456245624562,1836628.1151697,-711.2070927593,3447241.6716118,9.0456245624562,0,0
-71.684010368344,-1.8404361579623,3.8500550055005,1836628.1151697,-711.2070927593,3447241.6716118,9.0500550055005,0,0
-71.684009830969,-1.8378531699238,3.8544854485449,1836628.1151697,-711.2070927593,3447241.6716118,9.0544854485449,0,0
-71.684009293593,-1.8352701818852,3.8589158915892,1836628.1151697,-711.2070927593,3447241.6716118,9.0589158915892,0,0
-71.684008756218,-1.8326871938467,3.8633463346335,1836628.1151697,-711.2070927593,3447241.6716118,9.0633463346335,0,0
-71.684008218843,-1.8301042058081,3.8677767776778,1836628.1151697,-711.2070927593,3447241.6716118,9.0677767776778,0,0
-71.684007681467,-1.8275212177696,3.8722072207221,1836628.1151697,-711.2070927593,3447241.6716118,9.0722072207221,0,0
-71.684007144092,-1.824938229731,3.8766376637664,1836628.1151697,-711.20709275929,3447241.6716118,9.0766376637664,0,0
-71.684006606716,-1.8223552416925,3.8810681068107,1836628.1151697,-711.20709275929,3447241.6716118,9.0810681068107,0,0
-71.684006069341,-1.8197722536539,3.885498549855,1836628.1151697,-711.20709275929,3447241.6716118,9.085498549855,0,0
-71.684005531965,-1.8171892656153,3.8899289928993,1836628.1151697,-711.20709275929,3447241.6716118,9.0899289928993,0,0
-71.68400499459,-1.8146062775768,3.8943594359436,1836628.1151697,-711.20709275929,3447241.6716118,9.0943594359436,0,0
-71.684004457214,-1.8120232895382,3.8987898789879,1836628.1151697,-711.20709275929,3447241.6716118,9.0987898789879,0,0
-71.684003919839,-1.8094403014997,3.9032203220322,1836628.1151697,-711.20709275929,3447241.6716118,9.1032203220322,0,0
-71.684003382464,-1.8068573134611,3.9076507650765,1836628.1151697,-711.20709275929,3447241.6716118,9.1076507650765,0,0
-71.684002845088,-1.8042743254226,3.9120812081208,1836628.1151697,-711.20709275929,3447241.6716118,9.1120812081208,0,0
-71.684002307713,-1.801691337384,3.9165116511651,1836628.1151697,-711.20709275929,3447241.6716118,9.1165116511651,0,0
-71.684001770337,-1.7991083493455,3.9209420942094,1836628.1151697,-711.20709275929,3447241.6716118,9.1209420942094,0,0
-71.684001232962,-1.7965253613069,3.9253725372537,1836628.1151697,-711.20709275929,3447241.6716118,9.1253725372537,0,0
-71.684000695586,-1.7939423732684,3.929802980298,1836628.1151697,-711.20709275929,3447241.6716118,9.129802980298,0,0
-71.684000158211,-1.7913593852298,3.9342334233423,1836628.1151697,-711.20709275929,3447241.6716118,9.1342334233423,0,0
-71.683999620835,-1.7887763971913,3.9386638663866,1836628.1151697,-711.20709275929,3447241.6716118,9.1386638663866,0,0
-71.68399908346,-1.7861934091527,3.9430943094309,1836628.1151697,-711.20709275929,3447241.6716118,9.1430943094309,0,0
-71.683998546085,-1.7836104211142,3.9475247524752,1836628.1151697,-711.20709275929,3447241.6716118,9.1475247524752,0,0
-71.683998008709,-1.7810274330756,3.9519551955196,1836628.1151697,-711.20709275929,3447241.6716118,9.1519551955196,0,0
-71.683997471334,-1.7784444450371,3.9563856385639,1836628.1151697,-711.20709275929,3447241.6716118,9.1563856385639,0,0
-71.683996933958,-1.7758614569985,3.9608160816082,1836628.1151697,-711.20709275929,3447241.6716118,9.1608160816082,0,0
-71.683996396583,-1.77327846896,3.9652465246525,1836628.1151697,-711.20709275929,3447241.6716118,9.1652465246525,0,0
-71.683995859207,-1.7706954809214,3.9696769676968,1836628.1151697,-711.20709275929,3447241.6716118,9.1696769676968,0,0
-71.683995321832,-1.7681124928829,3.9741074107411,1836628.1151697,-711.20709275929,3447241.6716118,9.1741074107411,0,0
-71.683994784456,-1.7655295048443,3.9785378537854,1836628.1151697,-711.20709275929,3447241.6716118,9.1785378537854,0,0
-71.683994247081,-1.7629465168058,3.9829682968297,1836628.1151697,-711.20709275929,3447241.6716118,9.1829682968297,0,0
-71.683993709706,-1.7603635287672,3.987398739874,1836628.1151697,-711.20709275929,3447241.6716118,9.187398739874,0,0
-71.68399317233,-1.7577805407287,3.9918291829183,1836628.1151697,-711.20709275929,3447241.6716118,9.1918291829183,0,0
-71.683992634955,-1.7551975526901,3.9962596259626,1836628.1151697,-711.20709275929,3447241.6716118,9.1962596259626,0,0
-71.683992097579,-1.7526145646516,4.0006900690069,1836628.1151697,-711.20709275929,3447241.6716118,9.2006900690069,0,0
-71.683991560204,-1.750031576613,4.0051205120512,1836628.1151697,-711.20709275929,3447241.6716118,9.2051205120512,0,0
-71.683991020916,-1.7474485956713,4.0095509550955,1845015.4003107,-32155.238172706,3373218.451925,9.2095509550955,0,0
-71.683990478669,-1.7448656257053,4.0139813981398,1845015.4003107,-32155.238172706,3373218.451925,9.2139813981398,0,0
-71.683989936423,-1.7422826557394,4.0184118411841,1845015.4003107,-32155.238172706,3373218.451925,9.2184118411841,0,0
-71.683989394176,-1.7396996857735,4.0228422842284,1845015.4003107,-32155.238172706,3373218.451925,9.2228422842284,0,0
-71.68398885193,-1.7371167158075,4.0272727272727,1845015.4003107,-32155.238172706,3373218.451925,9.2272727272727,0,0
-71.683988309683,-1.7345337458416,4.031703170317,1845015.4003107,-32155.238172706,3373218.451925,9.231703170317,0,0
-71.683987767437,-1.7319507758756,4.0361336133613,1845015.4003107,-32155.238172706,3373218.451925,9.2361336133613,0,0
-71.68398722519,-1.7293678059097,4.0405640564056,1845015.4003107,-32155.238172706,3373218.451925,9.2405640564056,0,0
-71.683986682944,-1.7267848359438,4.0449944994499,1845015.4003107,-32155.238172706,3373218.451925,9.2449944994499,0,0
-71.683986140697,-1.7242018659778,4.0494249424942,1845015.4003107,-32155.238172706,3373218.451925,9.2494249424942,0,0
-71.683985598451,-1.7216188960119,4.0538553855386,1845015.4003107,-32155.238172706,3373218.451925,9.2538553855386,0,0
-71.683985056204,-1.7190359260459,4.0582858285829,1845015.4003107,-32155.238172706,3373218.451925,9.2582858285829,0,0
-71.683984513958,-1.71645295608,4.0627162716272,1845015.4003107,-32155.238172706,3373218.451925,9.2627162716272,0,0
-71.683983971711,-1.7138699861141,4.0671467146715,1845015.4003107,-32155.238172706,3373218.451925,9.2671467146715,0,0
-71.683983429465,-1.7112870161481,4.0715771577158,1845015.4003107,-32155.238172706,3373218.451925,9.2715771577158,0,0
-71.683982887218,-1.7087040461822,4.0760076007601,1845015.4003107,-32155.238172706,3373218.451925,9.2760076007601,0,0
-71.683982344972,-1.7061210762162,4.0804380438044,1845015.4003107,-32155.238172706,3373218.451925,9.2804380438044,0,0
-71.683981802725,-1.7035381062503,4.0848684868487,1845015.4003107,-32155.238172706,3373218.451925,9.2848684868487,0,0
-71.683981260479,-1.7009551362844,4.089298929893,1845015.4003107,-32155.238172706,3373218.451925,9.289298929893,0,0
-71.683980718233,-1.6983721663184,4.0937293729373,1845015.4003107,-32155.238172706,3373218.451925,9.2937293729373,0,0
-71.683980175986,-1.6957891963525,4.0981598159816,1845015.4003107,-32155.238172706,3373218.451925,9.2981598159816,0,0
-71.68397963374,-1.6932062263866,4.1025902590259,1845015.4003107,-32155.238172706,3373218.451925,9.3025902590259,0,0
-71.683979091493,-1.6906232564206,4.1070207020702,1845015.4003107,-32155.238172706,3373218.451925,9.3070207020702,0,0
-71.683978549247,-1.6880402864547,4.1114511451145,1845015.4003107,-32155.238172706,3373218.451925,9.3114511451145,0,0
-71.683978007,-1.6854573164887,4.1158815881588,1845015.4003107,-32155.238172706,3373218.451925,9.3158815881588,0,0
-71.683977464754,-1.6828743465228,4.1203120312031,1845015.4003107,-32155.238172706,3373218.451925,9.3203120312031,0,0
-71.683976922507,-1.6802913765569,4.1247424742474,1845015.4003107,-32155.238172706,3373218.451925,9.3247424742474,0,0
-71.683976380261,-1.6777084065909,4.1291729172917,1845015.4003107,-32155.238172706,3373218.451925,9.3291729172917,0,0
-71.683975838014,-1.675125436625,4.133603360336,1845015.4003107,-32155.238172706,3373218.451925,9.333603360336,0,0
-71.683975295768,-1.672542466659,4.1380338033803,1845015.4003107,-32155.238172706,3373218.451925,9.3380338033803,0,0
-71.683974753521,-1.6699594966931,4.1424642464246,1845015.4003107,-32155.238172706,3373218.451925,9.3424642464246,0,0
-71.683974203352,-1.6673765163738,4.1468946894689,1910523.1267329,-5949.1115987693,3355418.9836428,9.3468946894689,0,0
-71.683973648335,-1.6647935297192,4.1513251325133,1910523.1267329,-5949.1115987693,3355418.9836428,9.3513251325133,0,0
-71.683973093318,-1.6622105430645,4.1557555755576,1910523.1267329,-5949.1115987693,3355418.9836428,9.3557555755576,0,0
-71.683972538301,-1.6596275564099,4.1601860186019,1910523.1267329,-5949.1115987693,3355418.9836428,9.3601860186019,0,0
-71.683971983284,-1.6570445697552,4.1646164616462,1910523.1267329,-5949.1115987693,3355418.9836428,9.3646164616462,0,0
-71.683971428267,-1.6544615831005,4.1690469046905,1910523.1267329,-5949.1115987693,3355418.9836428,9.3690469046905,0,0
-71.683970873249,-1.6518785964459,4.1734773477348,1910523.1267329,-5949.1115987693,3355418.9836428,9.3734773477348,0,0
-71.683970318232,-1.6492956097912,4.1779077907791,1910523.1267329,-5949.1115987693,3355418.9836428,9.3779077907791,0,0
-71.683969763215,-1.6467126231366,4.1823382338234,1910523.1267329,-5949.1115987693,3355418.9836428,9.3823382338234,0,0
-71.683969208198,-1.6441296364819,4.1867686768677,1910523.1267329,-5949.1115987693,3355418.9836428,9.3867686768677,0,0
-71.683968653181,-1.6415466498272,4.191199119912,1910523.1267329,-5949.1115987693,3355418.9836428,9.391199119912,0,0
-71.683968098164,-1.6389636631726,4.1956295629563,1910523.1267329,-5949.1115987693,3355418.9836428,9.3956295629563,0,0
-71.683967543147,-1.6363806765179,4.2000600060006,1910523.1267329,-5949.1115987693,3355418.9836428,9.4000600060006,0,0
-71.68396698813,-1.6337976898633,4.2044904490449,1910523.1267329,-5949.1115987693,3355418.9836428,9.4044904490449,0,0
-71.683966433113,-1.6312147032086,4.2089208920892,1910523.1267329,-5949.1115987693,3355418.9836428,9.4089208920892,0,0
-71.683965878095,-1.6286317165539,4.2133513351335,1910523.1267329,-5949.1115987693,3355418.9836428,9.4133513351335,0,0
-71.683965323078,-1.6260487298993,4.2177817781778,1910523.1267329,-5949.1115987693,3355418.9836428,9.4177817781778,0,0
-71.683964768061,-1.6234657432446,4.2222122212221,1910523.1267329,-5949.1115987693,3355418.9836428,9.4222122212221,0,0
-71.683964213044,-1.62088275659,4.2266426642664,1910523.1267329,-5949.1115987693,3355418.9836428,9.4266426642664,0,0
-71.683963658027,-1.6182997699353,4.2310731073107,1910523.1267329,-5949.1115987693,3355418.9836428,9.4310731073107,0,0
-71.68396310301,-1.6157167832806,4.235503550355,1910523.1267329,-5949.1115987693,3355418.9836428,9.435503550355,0,0
-71.683962547993,-1.613133796626,4.2399339933993,1910523.1267329,-5949.1115987693,3355418.9836428,9.4399339933993,0,0
-71.683961992976,-1.6105508099713,4.2443644364436,1910523.1267329,-5949.1115987693,3355418.9836428,9.4443644364436,0,0
-71.683961437959,-1.6079678233166,4.2487948794879,1910523.1267329,-5949.1115987693,3355418.9836428,9.4487948794879,0,0
-71.683960882941,-1.605384836662,4.2532253225323,1910523.1267329,-5949.1115987693,3355418.9836428,9.4532253225323,0,0
-71.683960327924,-1.6028018500073,4.2576557655766,1910523.1267329,-5949.1115987693,3355418.9836428,9.4576557655766,0,0
-71.683959772907,-1.6002188633527,4.2620862086209,1910523.1267329,-5949.1115987693,3355418.9836428,9.4620862086209,0,0
-71.68395921789,-1.597635876698,4.2665166516652,1910523.1267329,-5949.1115987693,3355418.9836428,9.4665166516652,0,0
-71.683958662873,-1.5950528900433,4.2709470947095,1910523.1267329,-5949.1115987693,3355418.9836428,9.4709470947095,0,0
-71.683958107856,-1.5924699033887,4.2753775377538,1910523.1267329,-5949.1115987693,3355418.9836428,9.4753775377538,0,0
-71.683957552839,-1.589886916734,4.2798079807981,1910523.1267329,-5949.1115987693,3355418.9836428,9.4798079807981,0,0
-71.683956997822,-1.5873039300794,4.2842384238424,1910523.1267329,-5949.1115987693,3355418.9836428,9.4842384238424,0,0
-71.683956442804,-1.5847209434247,4.2886688668867,1910523.1267329,-5949.1115987693,3355418.9836428,9.4886688668867,0,0
-71.683955887787,-1.58213795677,4.293099309931,1910523.1267329,-5949.1115987693,3355418.9836428,9.493099309931,0,0
-71.68395533277,-1.5795549701154,4.2975297529753,1910523.1267329,-5949.1115987693,3355418.9836428,9.4975297529753,0,0
-71.683954777753,-1.5769719834607,4.3019601960196,1910523.1267329,-5949.1115987693,3355418.9836428,9.5019601960196,0,0
-71.683954222736,-1.5743889968061,4.3063906390639,1910523.1267329,-5949.1115987693,3355418.9836428,9.5063906390639,0,0
-71.683953667719,-1.5718060101514,4.3108210821082,1910523.1267329,-5949.1115987693,3355418.9836428,9.5108210821082,0,0
-71.683953112702,-1.5692230234967,4.3152515251525,1910523.1267329,-5949.1115987693,3355418.9836428,9.5152515251525,0,0
-71.683952557685,-1.5666400368421,4.3196819681968,1910523.1267329,-5949.1115987693,3355418.9836428,9.5196819681968,0,0
-71.683952002668,-1.5640570501874,4.3241124112411,1910523.1267329,-5949.1115987693,3355418.9836428,9.5241124112411,0,0
-71.68395144765,-1.5614740635328,4.3285428542854,1910523.1267329,-5949.1115987693,3355418.9836428,9.5285428542854,0,0
-71.683950892633,-1.5588910768781,4.3329732973297,1910523.1267329,-5949.1115987693,3355418.9836428,9.5329732973297,0,0
-71.683950337616,-1.5563080902234,4.337403740374,1910523.1267329,-5949.1115987693,3355418.9836428,9.537403740374,0,0
-71.683949782599,-1.5537251035688,4.3418341834183,1910523.1267329,-5949.1115987693,3355418.9836428,9.5418341834183,0,0
-71.683949227582,-1.5511421169141,4.3462646264626,1910523.1267329,-5949.1115987693,3355418.9836428,9.5462646264626,0,0
-71.683948672565,-1.5485591302594,4.350695069507,1910523.1267329,-5949.1115987693,3355418.9836428,9.550695069507,0,0
-71.683948117548,-1.5459761436048,4.3551255125513,1910523.1267329,-5949.1115987693,3355418.9836428,9.5551255125513,0,0
-71.683947562531,-1.5433931569501,4.3595559555956,1910523.1267329,-5949.1115987693,3355418.9836428,9.5595559555956,0,0
-71.683947007514,-1.5408101702955,4.3639863986399,1910523.1267329,-5949.1115987693,3355418.9836428,9.5639863986399,0,0
-71.683946452496,-1.5382271836408,4.3684168416842,1910523.1267329,-5949.1115987693,3355418.9836428,9.5684168416842,0,0
-71.683945897479,-1.5356441969861,4.3728472847285,1910523.1267329,-5949.1115987693,3355418.9836428,9.5728472847285,0,0
-71.683945342462,-1.5330612103315,4.3772777277728,1910523.1267329,-5949.1115987693,3355418.9836428,9.5772777277728,0,0
-71.683944787445,-1.5304782236768,4.3817081708171,1910523.1267329,-5949.1115987693,3355418.9836428,9.5817081708171,0,0
-71.683944232428,-1.5278952370222,4.3861386138614,1910523.1267329,-5949.1115987693,3355418.9836428,9.5861386138614,0,0
-71.683943677411,-1.5253122503675,4.3905690569057,1910523.1267329,-5949.1115987693,3355418.9836428,9.5905690569057,0,0
-71.683943122394,-1.5227292637128,4.39499949995,1910523.1267329,-5949.1115987693,3355418.9836428,9.59499949995,0,0
-71.683942567377,-1.5201462770582,4.3994299429943,1910523.1267329,-5949.1115987693,3355418.9836428,9.5994299429943,0,0
-71.683942012359,-1.5175632904035,4.4038603860386,1910523.1267329,-5949.1115987693,3355418.9836428,9.6038603860386,0,0
-71.683941457342,-1.5149803037489,4.4082908290829,1910523.1267329,-5949.1115987693,3355418.9836428,9.6082908290829,0,0
-71.683940902325,-1.5123973170942,4.4127212721272,1910523.1267329,-5949.1115987693,3355418.9836428,9.6127212721272,0,0
-71.683940347308,-1.5098143304395,4.4171517151715,1910523.1267329,-5949.1115987693,3355418.9836428,9.6171517151715,0,0
-71.683939792291,-1.5072313437849,4.4215821582158,1910523.1267329,-5949.1115987693,3355418.9836428,9.6215821582158,0,0
-71.683939237274,-1.5046483571302,4.4260126012601,1910523.1267329,-5949.1115987693,3355418.9836428,9.6260126012601,0,0
-71.683938682257,-1.5020653704756,4.4304430443044,1910523.1267329,-5949.1115987693,3355418.9836428,9.6304430443044,0,0
-71.68393812724,-1.4994823838209,4.4348734873487,1910523.1267329,-5949.1115987693,3355418.9836428,9.6348734873487,0,0
-71.683937572223,-1.4968993971662,4.439303930393,1910523.1267329,-5949.1115987693,3355418.9836428,9.639303930393,0,0
-71.683937017205,-1.4943164105116,4.4437343734373,1910523.1267329,-5949.1115987693,3355418.9836428,9.6437343734373,0,0
-71.683936462188,-1.4917334238569,4.4481648164816,1910523.1267329,-5949.1115987693,3355418.9836428,9.6481648164816,0,0
-71.683935907171,-1.4891504372022,4.452595259526,1910523.1267329,-5949.1115987693,3355418.9836428,9.652595259526,0,0
-71.683935352154,-1.4865674505476,4.4570257025703,1910523.1267329,-5949.1115987693,3355418.9836428,9.6570257025703,0,0
-71.683934797137,-1.4839844638929,4.4614561456146,1910523.1267329,-5949.1115987693,3355418.9836428,9.6614561456146,0,0
-71.68393424212,-1.4814014772383,4.4658865886589,1910523.1267329,-5949.1115987693,3355418.9836428,9.6658865886589,0,0
-71.683933687103,-1.4788184905836,4.4703170317032,1910523.1267329,-5949.1115987693,3355418.9836428,9.6703170317032,0,0
-71.683933132086,-1.4762355039289,4.4747474747475,1910523.1267329,-5949.1115987693,3355418.9836428,9.6747474747475,0,0
-71.683932577069,-1.4736525172743,4.4791779177918,1910523.1267329,-5949.1115987693,3355418.9836428,9.6791779177918,0,0
-71.683932022051,-1.4710695306196,4.4836083608361,1910523.1267329,-5949.1115987693,3355418.9836428,9.6836083608361,0,0
-71.683931467034,-1.468486543965,4.4880388038804,1910523.1267329,-5949.1115987693,3355418.9836428,9.6880388038804,0,0
-71.683930912017,-1.4659035573103,4.4924692469247,1910523.1267329,-5949.1115987693,3355418.9836428,9.6924692469247,0,0
-71.683930357,-1.4633205706556,4.496899689969,1910523.1267329,-5949.1115987693,3355418.9836428,9.696899689969,0,0
-71.683929801983,-1.460737584001,4.5013301330133,1910523.1267329,-5949.1115987693,3355418.9836428,9.7013301330133,0,0
-71.683929246966,-1.4581545973463,4.5057605760576,1910523.1267329,-5949.1115987693,3355418.9836428,9.7057605760576,0,0
-71.683928691949,-1.4555716106917,4.5101910191019,1910523.1267329,-5949.1115987693,3355418.9836428,9.7101910191019,0,0
-71.683928136932,-1.452988624037,4.5146214621462,1910523.1267329,-5949.1115987693,3355418.9836428,9.7146214621462,0,0
-71.683927581914,-1.4504056373823,4.5190519051905,1910523.1267329,-5949.1115987693,3355418.9836428,9.7190519051905,0,0
-71.683927026897,-1.4478226507277,4.5234823482348,1910523.1267329,-5949.1115987693,3355418.9836428,9.7234823482348,0,0
-71.68392647188,-1.445239664073,4.5279127912791,1910523.1267329,-5949.1115987693,3355418.9836428,9.7279127912791,0,0
-71.683925916863,-1.4426566774184,4.5323432343234,1910523.1267329,-5949.1115987693,3355418.9836428,9.7323432343234,0,0
-71.683925361846,-1.4400736907637,4.5367736773677,1910523.1267329,-5949.1115987693,3355418.9836428,9.7367736773677,0,0
-71.683924806829,-1.437490704109,4.541204120412,1910523.1267329,-5949.1115987693,3355418.9836428,9.741204120412,0,0
-71.683924251812,-1.4349077174544,4.5456345634563,1910523.1267329,-5949.1115987693,3355418.9836428,9.7456345634563,0,0
-71.683923696795,-1.4323247307997,4.5500650065006,1910523.1267329,-5949.1115987693,3355418.9836428,9.7500650065007,0,0
-71.683923141778,-1.4297417441451,4.554495449545,1910523.1267329,-5949.1115987693,3355418.9836428,9.754495449545,0,0
-71.683922581091,-1.4271587700594,4.5589258925893,1934817.2589251,-28730.546704416,3296661.7422887,9.7589258925893,0,0
-71.683922018985,-1.4245757991201,4.5633563356336,1934817.2589251,-28730.546704416,3296661.7422887,9.7633563356336,0,0
-71.68392145688,-1.4219928281807,4.5677867786779,1934817.2589251,-28730.546704416,3296661.7422887,9.7677867786779,0,0
-71.683920894774,-1.4194098572413,4.5722172217222,1934817.2589251,-28730.546704416,3296661.7422887,9.7722172217222,0,0
-71.683920332668,-1.4168268863019,4.5766476647665,1934817.2589251,-28730.546704416,3296661.7422887,9.7766476647665,0,0
-71.683919770563,-1.4142439153625,4.5810781078108,1934817.2589251,-28730.546704416,3296661.7422887,9.7810781078108,0,0
-71.683919208457,-1.4116609444231,4.5855085508551,1934817.2589251,-28730.546704416,3296661.7422887,9.7855085508551,0,0
-71.683918646351,-1.4090779734838,4.5899389938994,1934817.2589251,-28730.546704416,3296661.7422887,9.7899389938994,0,0
-71.683918084246,-1.4064950025444,4.5943694369437,1934817.2589251,-28730.546704416,3296661.7422887,9.7943694369437,0,0
-71.68391752214,-1.403912031605,4.598799879988,1934817.2589251,-28730.546704416,3296661.7422887,9.798799879988,0,0
-71.683916960034,-1.4013290606656,4.6032303230323,1934817.2589251,-28730.546704416,3296661.7422887,9.8032303230323,0,0
-71.683916397929,-1.3987460897262,4.6076607660766,1934817.2589251,-28730.546704416,3296661.7422887,9.8076607660766,0,0
-71.683915835823,-1.3961631187868,4.6120912091209,1934817.2589251,-28730.546704416,3296661.7422887,9.8120912091209,0,0
-71.683915273717,-1.3935801478475,4.6165216521652,1934817.2589251,-28730.546704416,3296661.7422887,9.8165216521652,0,0
-71.683914711612,-1.3909971769081,4.6209520952095,1934817.2589251,-28730.546704416,3296661.7422887,9.8209520952095,0,0
-71.683914149506,-1.3884142059687,4.6253825382538,1934817.2589251,-28730.546704416,3296661.7422887,9.8253825382538,0,0
-71.6839135874,-1.3858312350293,4.6298129812981,1934817.2589251,-28730.546704416,3296661.7422887,9.8298129812981,0,0
-71.683913025295,-1.3832482640899,4.6342434243424,1934817.2589251,-28730.546704416,3296661.7422887,9.8342434243424,0,0
-71.683912463189,-1.3806652931505,4.6386738673867,1934817.2589251,-28730.546704416,3296661.7422887,9.8386738673867,0,0
-71.683911901083,-1.3780823222112,4.643104310431,1934817.2589251,-28730.546704416,3296661.7422887,9.843104310431,0,0
-71.683911338978,-1.3754993512718,4.6475347534753,1934817.2589251,-28730.546704416,3296661.7422887,9.8475347534753,0,0
-71.683910776872,-1.3729163803324,4.6519651965197,1934817.2589251,-28730.546704416,3296661.7422887,9.8519651965197,0,0
-71.683910214766,-1.370333409393,4.656395639564,1934817.2589251,-28730.546704416,3296661.7422887,9.856395639564,0,0
-71.683909648814,-1.3677504295346,4.6608260826083,1964133.7130799,-688.39497538149,3260670.2744628,9.8608260826083,0,0
-71.683909079729,-1.3651674424131,4.6652565256526,1964133.7130799,-688.39497538149,3260670.2744628,9.8652565256526,0,0
-71.683908510644,-1.3625844552916,4.6696869686969,1964133.7130799,-688.39497538149,3260670.2744628,9.8696869686969,0,0
-71.683907941559,-1.3600014681702,4.6741174117412,1964133.7130799,-688.39497538149,3260670.2744628,9.8741174117412,0,0
-71.683907372474,-1.3574184810487,4.6785478547855,1964133.7130799,-688.39497538149,3260670.2744628,9.8785478547855,0,0
-71.683906803389,-1.3548354939272,4.6829782978298,1964133.7130799,-688.39497538149,3260670.2744628,9.8829782978298,0,0
-71.683906234304,-1.3522525068058,4.6874087408741,1964133.7130799,-688.39497538149,3260670.2744628,9.8874087408741,0,0
-71.683905665219,-1.3496695196843,4.6918391839184,1964133.7130799,-688.39497538149,3260670.2744628,9.8918391839184,0,0
-71.683905096134,-1.3470865325629,4.6962696269627,1964133.7130799,-688.39497538149,3260670.2744628,9.8962696269627,0,0
-71.68390452705,-1.3445035454414,4.700700070007,1964133.7130799,-688.39497538149,3260670.2744628,9.900700070007,0,0
-71.683903957965,-1.3419205583199,4.7051305130513,1964133.7130799,-688.39497538149,3260670.2744628,9.9051305130513,0,0
-71.68390338888,-1.3393375711985,4.7095609560956,1964133.7130799,-688.39497538149,3260670.2744628,9.9095609560956,0,0
-71.683902819795,-1.336754584077,4.7139913991399,1964133.7130799,-688.39497538149,3260670.2744628,9.9139913991399,0,0
-71.68390225071,-1.3341715969556,4.7184218421842,1964133.7130799,-688.39497538149,3260670.2744628,9.9184218421842,0,0
-71.683901681625,-1.3315886098341,4.7228522852285,1964133.7130799,-688.39497538149,3260670.2744628,9.9228522852285,0,0
-71.68390111254,-1.3290056227126,4.7272827282728,1964133.7130799,-688.39497538149,3260670.2744628,9.9272827282728,0,0
-71.683900543455,-1.3264226355912,4.7317131713171,1964133.7130799,-688.39497538149,3260670.2744628,9.9317131713171,0,0
-71.68389997437,-1.3238396484697,4.7361436143614,1964133.7130799,-688.39497538149,3260670.2744628,9.9361436143614,0,0
-71.683899405285,-1.3212566613482,4.7405740574057,1964133.7130799,-688.39497538149,3260670.2744628,9.9405740574057,0,0
-71.6838988362,-1.3186736742268,4.74500450045,1964133.7130799,-688.39497538149,3260670.2744628,9.94500450045,0,0
-71.683898267115,-1.3160906871053,4.7494349434943,1964133.7130799,-688.39497538149,3260670.2744628,9.9494349434943,0,0
-71.68389769803,-1.3135076999839,4.7538653865387,1964133.7130799,-688.39497538149,3260670.2744628,9.9538653865387,0,0
-71.683897128945,-1.3109247128624,4.758295829583,1964133.7130799,-688.39497538149,3260670.2744628,9.958295829583,0,0
-71.68389655986,-1.3083417257409,4.7627262726273,1964133.7130799,-688.39497538149,3260670.2744628,9.9627262726273,0,0
-71.683895990776,-1.3057587386195,4.7671567156716,1964133.7130799,-688.39497538149,3260670.2744628,9.9671567156716,0,0
-71.683895421691,-1.303175751498,4.7715871587159,1964133.7130799,-688.39497538149,3260670.2744628,9.9715871587159,0,0
-71.683894852606,-1.3005927643766,4.7760176017602,1964133.7130799,-688.39497538149,3260670.2744628,9.9760176017602,0,0
-71.683894283521,-1.2980097772551,4.7804480448045,1964133.7130799,-688.39497538149,3260670.2744628,9.9804480448045,0,0
-71.683893714436,-1.2954267901336,4.7848784878488,1964133.7130799,-688.39497538149,3260670.2744628,9.9848784878488,0,0
-71.683893145351,-1.2928438030122,4.7893089308931,1964133.7130799,-688.39497538149,3260670.2744628,9.9893089308931,0,0
-71.683892576266,-1.2902608158907,4.7937393739374,1964133.7130799,-688.39497538149,3260670.2744628,9.9937393739374,0,0
-71.683892007181,-1.2876778287692,4.7981698169817,1964133.7130799,-688.39497538149,3260670.2744628,9.9981698169817,0,0
-71.683891438096,-1.2850948416478,4.802600260026,1964133.7130799,-688.39497538149,3260670.2744628,10.002600260026,0,0
-71.683890869011,-1.2825118545263,4.8070307030703,1964133.7130799,-688.39497538149,3260670.2744628,10.00703070307,0,0
-71.683890299926,-1.2799288674049,4.8114611461146,1964133.7130799,-688.39497538149,3260670.2744628,10.011461146115,0,0
-71.683889730841,-1.2773458802834,4.8158915891589,1964133.7130799,-688.39497538149,3260670.2744628,10.015891589159,0,0
-71.683889161756,-1.2747628931619,4.8203220322032,1964133.7130799,-688.39497538149,3260670.2744628,10.020322032203,0,0
-71.683888592671,-1.2721799060405,4.8247524752475,1964133.7130799,-688.39497538149,3260670.2744628,10.024752475248,0,0
-71.683888023586,-1.269596918919,4.8291829182918,1964133.7130799,-688.39497538149,3260670.2744628,10.029182918292,0,0
-71.683887454502,-1.2670139317976,4.8336133613361,1964133.7130799,-688.39497538149,3260670.2744628,10.033613361336,0,0
-71.683886885417,-1.2644309446761,4.8380438043804,1964133.7130799,-688.39497538149,3260670.2744628,10.03804380438,0,0
-71.683886316332,-1.2618479575546,4.8424742474247,1964133.7130799,-688.39497538149,3260670.2744628,10.042474247425,0,0
-71.683885747247,-1.2592649704332,4.846904690469,1964133.7130799,-688.39497538149,3260670.2744628,10.046904690469,0,0
-71.683885178162,-1.2566819833117,4.8513351335134,1964133.7130799,-688.39497538149,3260670.2744628,10.051335133513,0,0
-71.683884609077,-1.2540989961902,4.8557655765577,1964133.7130799,-688.39497538149,3260670.2744628,10.055765576558,0,0
-71.683884039992,-1.2515160090688,4.860196019602,1964133.7130799,-688.39497538149,3260670.2744628,10.060196019602,0,0
-71.683883470907,-1.2489330219473,4.8646264626463,1964133.7130799,-688.39497538149,3260670.2744628,10.064626462646,0,0
-71.683882901822,-1.2463500348259,4.8690569056906,1964133.7130799,-688.39497538149,3260670.2744628,10.069056905691,0,0
-71.683882332737,-1.2437670477044,4.8734873487349,1964133.7130799,-688.39497538149,3260670.2744628,10.073487348735,0,0
-71.683881763652,-1.2411840605829,4.8779177917792,1964133.7130799,-688.39497538149,3260670.2744628,10.077917791779,0,0
-71.683881194567,-1.2386010734615,4.8823482348235,1964133.7130799,-688.39497538149,3260670.2744628,10.082348234823,0,0
-71.683880625482,-1.23601808634,4.8867786778678,1964133.7130799,-688.39497538149,3260670.2744628,10.086778677868,0,0
-71.683880056397,-1.2334350992186,4.8912091209121,1964133.7130799,-688.39497538149,3260670.2744628,10.091209120912,0,0
-71.683879487312,-1.2308521120971,4.8956395639564,1964133.7130799,-688.39497538149,3260670.2744628,10.095639563956,0,0
-71.683878918228,-1.2282691249756,4.9000700070007,1964133.7130799,-688.39497538149,3260670.2744628,10.100070007001,0,0
-71.683878349143,-1.2256861378542,4.904500450045,1964133.7130799,-688.39497538149,3260670.2744628,10.104500450045,0,0
-71.683877780058,-1.2231031507327,4.9089308930893,1964133.7130799,-688.39497538149,3260670.2744628,10.108930893089,0,0
-71.683877210973,-1.2205201636112,4.9133613361336,1964133.7130799,-688.39497538149,3260670.2744628,10.113361336134,0,0
-71.683876641888,-1.2179371764898,4.9177917791779,1964133.7130799,-688.39497538149,3260670.2744628,10.117791779178,0,0
-71.683876072803,-1.2153541893683,4.9222222222222,1964133.7130799,-688.39497538149,3260670.2744628,10.122222222222,0,0
-71.683875503718,-1.2127712022469,4.9266526652665,1964133.7130799,-688.39497538149,3260670.2744628,10.126652665267,0,0
-71.683874934633,-1.2101882151254,4.9310831083108,1964133.7130799,-688.39497538149,3260670.2744628,10.131083108311,0,0
-71.683874365548,-1.2076052280039,4.9355135513551,1964133.7130799,-688.39497538149,3260670.2744628,10.135513551355,0,0
-71.683873796463,-1.2050222408825,4.9399439943994,1964133.7130799,-688.39497538149,3260670.2744628,10.139943994399,0,0
-71.683873227378,-1.202439253761,4.9443744374437,1964133.7130799,-688.39497538149,3260670.2744628,10.144374437444,0,0
-71.683872658293,-1.1998562666396,4.948804880488,1964133.7130799,-688.39497538149,3260670.2744628,10.148804880488,0,0
-71.683872089208,-1.1972732795181,4.9532353235324,1964133.7130799,-688.39497538149,3260670.2744628,10.153235323532,0,0
-71.683871520123,-1.1946902923966,4.9576657665767,1964133.7130799,-688.39497538149,3260670.2744628,10.157665766577,0,0
-71.683870951038,-1.1921073052752,4.962096209621,1964133.7130799,-688.39497538149,3260670.2744628,10.162096209621,0,0
-71.683870381954,-1.1895243181537,4.9665266526653,1964133.7130799,-688.39497538149,3260670.2744628,10.166526652665,0,0
-71.683869812869,-1.1869413310322,4.9709570957096,1964133.7130799,-688.39497538149,3260670.2744628,10.17095709571,0,0
-71.683869243784,-1.1843583439108,4.9753875387539,1964133.7130799,-688.39497538149,3260670.2744628,10.175387538754,0,0
-71.683868674699,-1.1817753567893,4.9798179817982,1964133.7130799,-688.39497538149,3260670.2744628,10.179817981798,0,0
-71.683868105614,-1.1791923696679,4.9842484248425,1964133.7130799,-688.39497538149,3260670.2744628,10.184248424842,0,0
-71.683867536529,-1.1766093825464,4.9886788678868,1964133.7130799,-688.39497538149,3260670.2744628,10.188678867887,0,0
-71.683866967444,-1.1740263954249,4.9931093109311,1964133.7130799,-688.39497538149,3260670.2744628,10.193109310931,0,0
-71.683866385703,-1.1714434185543,4.9975397539754,2035040.0857599,-11098.611058572,3251144.6028213,10.197539753975,0,0
-71.683865803234,-1.1688604422729,5.0019701970197,2035040.0857599,-11098.611058572,3251144.6028213,10.20197019702,0,0
-71.683865220765,-1.1662774659915,5.006400640064,2035040.0857599,-11098.611058572,3251144.6028213,10.206400640064,0,0
-71.683864638297,-1.1636944897101,5.0108310831083,2035040.0857599,-11098.611058572,3251144.6028213,10.210831083108,0,0
-71.683864055828,-1.1611115134288,5.0152615261526,2035040.0857599,-11098.611058572,3251144.6028213,10.215261526153,0,0
-71.683863473359,-1.1585285371474,5.0196919691969,2035040.0857599,-11098.611058572,3251144.6028213,10.219691969197,0,0
-71.683862890891,-1.155945560866,5.0241224122412,2035040.0857599,-11098.611058572,3251144.6028213,10.224122412241,0,0
-71.683862308422,-1.1533625845846,5.0285528552855,2035040.0857599,-11098.611058572,3251144.6028213,10.228552855286,0,0
-71.683861725953,-1.1507796083032,5.0329832983298,2035040.0857599,-11098.611058572,3251144.6028213,10.23298329833,0,0
-71.683861143485,-1.1481966320219,5.0374137413741,2035040.0857599,-11098.611058572,3251144.6028213,10.237413741374,0,0
-71.683860561016,-1.1456136557405,5.0418441844184,2035040.0857599,-11098.611058572,3251144.6028213,10.241844184418,0,0
-71.683859978547,-1.1430306794591,5.0462746274627,2035040.0857599,-11098.611058572,3251144.6028213,10.246274627463,0,0
-71.683859396078,-1.1404477031777,5.050705070507,2035040.0857599,-11098.611058572,3251144.6028213,10.250705070507,0,0
-71.68385881361,-1.1378647268963,5.0551355135514,2035040.0857599,-11098.611058572,3251144.6028213,10.255135513551,0,0
-71.683858231141,-1.1352817506149,5.0595659565957,2035040.0857599,-11098.611058572,3251144.6028213,10.259565956596,0,0
-71.683857648672,-1.1326987743336,5.06399639964,2035040.0857599,-11098.611058572,3251144.6028213,10.26399639964,0,0
-71.683857066204,-1.1301157980522,5.0684268426843,2035040.0857599,-11098.611058572,3251144.6028213,10.268426842684,0,0
-71.683856483735,-1.1275328217708,5.0728572857286,2035040.0857599,-11098.611058572,3251144.6028213,10.272857285729,0,0
-71.683855901266,-1.1249498454894,5.0772877287729,2035040.0857599,-11098.611058572,3251144.6028213,10.277287728773,0,0
-71.683855318798,-1.122366869208,5.0817181718172,2035040.0857599,-11098.611058572,3251144.6028213,10.281718171817,0,0
-71.683854736329,-1.1197838929267,5.0861486148615,2035040.0857599,-11098.611058572,3251144.6028213,10.286148614861,0,0
-71.68385415386,-1.1172009166453,5.0905790579058,2035040.0857599,-11098.611058572,3251144.6028213,10.290579057906,0,0
-71.683853571392,-1.1146179403639,5.0950095009501,2035040.0857599,-11098.611058572,3251144.6028213,10.29500950095,0,0
-71.683852988923,-1.1120349640825,5.0994399439944,2035040.0857599,-11098.611058572,3251144.6028213,10.299439943994,0,0
-71.683852406454,-1.1094519878011,5.1038703870387,2035040.0857599,-11098.611058572,3251144.6028213,10.303870387039,0,0
-71.683851823985,-1.1068690115198,5.108300830083,2035040.0857599,-11098.611058572,3251144.6028213,10.308300830083,0,0
-71.683851241517,-1.1042860352384,5.1127312731273,2035040.0857599,-11098.611058572,3251144.6028213,10.312731273127,0,0
-71.683850659048,-1.101703058957,5.1171617161716,2035040.0857599,-11098.611058572,3251144.6028213,10.317161716172,0,0
-71.683850076579,-1.0991200826756,5.1215921592159,2035040.0857599,-11098.611058572,3251144.6028213,10.321592159216,0,0
-71.683849494111,-1.0965371063942,5.1260226022602,2035040.0857599,-11098.611058572,3251144.6028213,10.32602260226,0,0
-71.683848911642,-1.0939541301128,5.1304530453045,2035040.0857599,-11098.611058572,3251144.6028213,10.330453045305,0,0
-71.683848329173,-1.0913711538315,5.1348834883488,2035040.0857599,-11098.611058572,3251144.6028213,10.334883488349,0,0
-71.683847746705,-1.0887881775501,5.1393139313931,2035040.0857599,-11098.611058572,3251144.6028213,10.339313931393,0,0
-71.683847164236,-1.0862052012687,5.1437443744374,2035040.0857599,-11098.611058572,3251144.6028213,10.343744374437,0,0
-71.683846581767,-1.0836222249873,5.1481748174817,2035040.0857599,-11098.611058572,3251144.6028213,10.348174817482,0,0
-71.683845999299,-1.0810392487059,5.1526052605261,2035040.0857599,-11098.611058572,3251144.6028213,10.352605260526,0,0
-71.68384541683,-1.0784562724246,5.1570357035704,2035040.0857599,-11098.611058572,3251144.6028213,10.35703570357,0,0
-71.683844834361,-1.0758732961432,5.1614661466147,2035040.0857599,-11098.611058572,3251144.6028213,10.361466146615,0,0
-71.683844251892,-1.0732903198618,5.165896589659,2035040.0857599,-11098.611058572,3251144.6028213,10.365896589659,0,0
-71.683843669424,-1.0707073435804,5.1703270327033,2035040.0857599,-11098.611058572,3251144.6028213,10.370327032703,0,0
-71.683843086955,-1.068124367299,5.1747574757476,2035040.0857599,-11098.611058572,3251144.6028213,10.374757475748,0,0
-71.683842504486,-1.0655413910177,5.1791879187919,2035040.0857599,-11098.611058572,3251144.6028213,10.379187918792,0,0
-71.683841922018,-1.0629584147363,5.1836183618362,2035040.0857599,-11098.611058572,3251144.6028213,10.383618361836,0,0
-71.683841339549,-1.0603754384549,5.1880488048805,2035040.0857599,-11098.611058572,3251144.6028213,10.38804880488,0,0
-71.68384075708,-1.0577924621735,5.1924792479248,2035040.0857599,-11098.611058572,3251144.6028213,10.392479247925,0,0
-71.683840174612,-1.0552094858921,5.1969096909691,2035040.0857599,-11098.611058572,3251144.6028213,10.396909690969,0,0
-71.683839592143,-1.0526265096108,5.2013401340134,2035040.0857599,-11098.611058572,3251144.6028213,10.401340134013,0,0
-71.683839009674,-1.0500435333294,5.2057705770577,2035040.0857599,-11098.611058572,3251144.6028213,10.405770577058,0,0
-71.683838427206,-1.047460557048,5.210201020102,2035040.0857599,-11098.611058572,3251144.6028213,10.410201020102,0,0
-71.683837844737,-1.0448775807666,5.2146314631463,2035040.0857599,-11098.611058572,3251144.6028213,10.414631463146,0,0
-71.683837262268,-1.0422946044852,5.2190619061906,2035040.0857599,-11098.611058572,3251144.6028213,10.419061906191,0,0
-71.683836679799,-1.0397116282038,5.2234923492349,2035040.0857599,-11098.611058572,3251144.6028213,10.423492349235,0,0
-71.683836097331,-1.0371286519225,5.2279227922792,2035040.0857599,-11098.611058572,3251144.6028213,10.427922792279,0,0
-71.683835514862,-1.0345456756411,5.2323532353235,2035040.0857599,-11098.611058572,3251144.6028213,10.432353235324,0,0
-71.683834932393,-1.0319626993597,5.2367836783678,2035040.0857599,-11098.611058572,3251144.6028213,10.436783678368,0,0
-71.683834351307,-1.0293797186331,5.2412141214121,2005341.3339918,13445.493871047,3184838.3542213,10.441214121412,0,0
-71.683833771273,-1.0267967345192,5.2456445644564,2005341.3339918,13445.493871047,3184838.3542213,10.445644564456,0,0
-71.68383319124,-1.0242137504054,5.2500750075008,2005341.3339918,13445.493871047,3184838.3542213,10.450075007501,0,0
-71.683832611206,-1.0216307662915,5.2545054505451,2005341.3339918,13445.493871047,3184838.3542213,10.454505450545,0,0
-71.683832031172,-1.0190477821776,5.2589358935894,2005341.3339918,13445.493871047,3184838.3542213,10.458935893589,0,0
-71.683831451139,-1.0164647980637,5.2633663366337,2005341.3339918,13445.493871047,3184838.3542213,10.463366336634,0,0
-71.683830871105,-1.0138818139499,5.267796779678,2005341.3339918,13445.493871047,3184838.3542213,10.467796779678,0,0
-71.683830291072,-1.011298829836,5.2722272227223,2005341.3339918,13445.493871047,3184838.3542213,10.472227222722,0,0
-71.683829711038,-1.0087158457221,5.2766576657666,2005341.3339918,13445.493871047,3184838.3542213,10.476657665767,0,0
-71.683829131004,-1.0061328616082,5.2810881088109,2005341.3339918,13445.493871047,3184838.3542213,10.481088108811,0,0
-71.683828550971,-1.0035498774944,5.2855185518552,2005341.3339918,13445.493871047,3184838.3542213,10.485518551855,0,0
-71.683827970937,-1.0009668933805,5.2899489948995,2005341.3339918,13445.493871047,3184838.3542213,10.489948994899,0,0
-71.683827390904,-0.99838390926661,5.2943794379438,2005341.3339918,13445.493871047,3184838.3542213,10.494379437944,0,0
-71.68382681087,-0.99580092515273,5.2988098809881,2005341.3339918,13445.493871047,3184838.3542213,10.498809880988,0,0
-71.683826230836,-0.99321794103886,5.3032403240324,2005341.3339918,13445.493871047,3184838.3542213,10.503240324032,0,0
-71.683825650803,-0.99063495692499,5.3076707670767,2005341.3339918,13445.493871047,3184838.3542213,10.507670767077,0,0
-71.683825070769,-0.98805197281111,5.312101210121,2005341.3339918,13445.493871047,3184838.3542213,10.512101210121,0,0
-71.683824490736,-0.98546898869724,5.3165316531653,2005341.3339918,13445.493871047,3184838.3542213,10.516531653165,0,0
-71.683823910702,-0.98288600458336,5.3209620962096,2005341.3339918,13445.493871047,3184838.3542213,10.52096209621,0,0
-71.683823330668,-0.98030302046949,5.3253925392539,2005341.3339918,13445.493871047,3184838.3542213,10.525392539254,0,0
-71.683822750635,-0.97772003635561,5.3298229822982,2005341.3339918,13445.493871047,3184838.3542213,10.529822982298,0,0
-71.683822170601,-0.97513705224174,5.3342534253425,2005341.3339918,13445.493871047,3184838.3542213,10.534253425343,0,0
-71.683821590568,-0.97255406812786,5.3386838683868,2005341.3339918,13445.493871047,3184838.3542213,10.538683868387,0,0
-71.683821010534,-0.96997108401399,5.3431143114311,2005341.3339918,13445.493871047,3184838.3542213,10.543114311431,0,0
-71.6838204305,-0.96738809990011,5.3475447544754,2005341.3339918,13445.493871047,3184838.3542213,10.547544754475,0,0
-71.683819850467,-0.96480511578624,5.3519751975198,2005341.3339918,13445.493871047,3184838.3542213,10.55197519752,0,0
-71.683819270433,-0.96222213167237,5.3564056405641,2005341.3339918,13445.493871047,3184838.3542213,10.556405640564,0,0
-71.6838186904,-0.95963914755849,5.3608360836084,2005341.3339918,13445.493871047,3184838.3542213,10.560836083608,0,0
-71.683818110366,-0.95705616344462,5.3652665266527,2005341.3339918,13445.493871047,3184838.3542213,10.565266526653,0,0
-71.683817530332,-0.95447317933074,5.369696969697,2005341.3339918,13445.493871047,3184838.3542213,10.569696969697,0,0
-71.683816950299,-0.95189019521687,5.3741274127413,2005341.3339918,13445.493871047,3184838.3542213,10.574127412741,0,0
-71.683816370265,-0.94930721110299,5.3785578557856,2005341.3339918,13445.493871047,3184838.3542213,10.578557855786,0,0
-71.683815790232,-0.94672422698912,5.3829882988299,2005341.3339918,13445.493871047,3184838.3542213,10.58298829883,0,0
-71.683815210198,-0.94414124287524,5.3874187418742,2005341.3339918,13445.493871047,3184838.3542213,10.587418741874,0,0
-71.683814630164,-0.94155825876137,5.3918491849185,2005341.3339918,13445.493871047,3184838.3542213,10.591849184918,0,0
-71.683814050131,-0.93897527464749,5.3962796279628,2005341.3339918,13445.493871047,3184838.3542213,10.596279627963,0,0
-71.683813470097,-0.93639229053362,5.4007100710071,2005341.3339918,13445.493871047,3184838.3542213,10.600710071007,0,0
-71.683812890064,-0.93380930641975,5.4051405140514,2005341.3339918,13445.493871047,3184838.3542213,10.605140514051,0,0
-71.68381231003,-0.93122632230587,5.4095709570957,2005341.3339918,13445.493871047,3184838.3542213,10.609570957096,0,0
-71.683811729996,-0.928643338192,5.41400140014,2005341.3339918,13445.493871047,3184838.3542213,10.61400140014,0,0
-71.683811149963,-0.92606035407812,5.4184318431843,2005341.3339918,13445.493871047,3184838.3542213,10.618431843184,0,0
-71.683810569929,-0.92347736996425,5.4228622862286,2005341.3339918,13445.493871047,3184838.3542213,10.622862286229,0,0
-71.683809989896,-0.92089438585037,5.4272927292729,2005341.3339918,13445.493871047,3184838.3542213,10.627292729273,0,0
-71.683809409862,-0.9183114017365,5.4317231723172,2005341.3339918,13445.493871047,3184838.3542213,10.631723172317,0,0
-71.683808829829,-0.91572841762262,5.4361536153615,2005341.3339918,13445.493871047,3184838.3542213,10.636153615362,0,0
-71.683808249795,-0.91314543350875,5.4405840584058,2005341.3339918,13445.493871047,3184838.3542213,10.640584058406,0,0
-71.683807669761,-0.91056244939487,5.4450145014501,2005341.3339918,13445.493871047,3184838.3542213,10.64501450145,0,0
-71.683807089728,-0.907979465281,5.4494449444944,2005341.3339918,13445.493871047,3184838.3542213,10.649444944494,0,0
-71.683806509694,-0.90539648116713,5.4538753875388,2005341.3339918,13445.493871047,3184838.3542213,10.653875387539,0,0
-71.683805929661,-0.90281349705325,5.4583058305831,2005341.3339918,13445.493871047,3184838.3542213,10.658305830583,0,0
-71.683805349627,-0.90023051293938,5.4627362736274,2005341.3339918,13445.493871047,3184838.3542213,10.662736273627,0,0
-71.683804769593,-0.8976475288255,5.4671667166717,2005341.3339918,13445.493871047,3184838.3542213,10.667166716672,0,0
-71.683804180171,-0.89506454019145,5.471597159716,2085896.779118,24412.353933566,3200093.8186612,10.671597159716,0,0
-71.683803586109,-0.89248154932336,5.4760276027603,2085896.779118,24412.353933566,3200093.8186612,10.67602760276,0,0
-71.683802992046,-0.88989855845526,5.4804580458046,2085896.779118,24412.353933566,3200093.8186612,10.680458045805,0,0
-71.683802397984,-0.88731556758717,5.4848884888489,2085896.779118,24412.353933566,3200093.8186612,10.684888488849,0,0
-71.683801803921,-0.88473257671908,5.4893189318932,2085896.779118,24412.353933566,3200093.8186612,10.689318931893,0,0
-71.683801209859,-0.88214958585098,5.4937493749375,2085896.779118,24412.353933566,3200093.8186612,10.693749374937,0,0
-71.683800615796,-0.87956659498289,5.4981798179818,2085896.779118,24412.353933566,3200093.8186612,10.698179817982,0,0
-71.683800021734,-0.8769836041148,5.5026102610261,2085896.779118,24412.353933566,3200093.8186612,10.702610261026,0,0
-71.683799427672,-0.8744006132467,5.5070407040704,2085896.779118,24412.353933566,3200093.8186612,10.70704070407,0,0
-71.683798833609,-0.87181762237861,5.5114711471147,2085896.779118,24412.353933566,3200093.8186612,10.711471147115,0,0
-71.683798239547,-0.86923463151052,5.515901590159,2085896.779118,24412.353933566,3200093.8186612,10.715901590159,0,0
-71.683797645484,-0.86665164064242,5.5203320332033,2085896.779118,24412.353933566,3200093.8186612,10.720332033203,0,0
-71.683797051422,-0.86406864977433,5.5247624762476,2085896.779118,24412.353933566,3200093.8186612,10.724762476248,0,0
-71.683796457359,-0.86148565890624,5.5291929192919,2085896.779118,24412.353933566,3200093.8186612,10.729192919292,0,0
-71.683795863297,-0.85890266803814,5.5336233623362,2085896.779118,24412.353933566,3200093.8186612,10.733623362336,0,0
-71.683795269234,-0.85631967717005,5.5380538053805,2085896.779118,24412.353933566,3200093.8186612,10.738053805381,0,0
-71.683794675172,-0.85373668630196,5.5424842484248,2085896.779118,24412.353933566,3200093.8186612,10.742484248425,0,0
-71.683794081109,-0.85115369543386,5.5469146914691,2085896.779118,24412.353933566,3200093.8186612,10.746914691469,0,0
-71.683793487047,-0.84857070456577,5.5513451345134,2085896.779118,24412.353933566,3200093.8186612,10.751345134513,0,0
-71.683792892985,-0.84598771369768,5.5557755775578,2085896.779118,24412.353933566,3200093.8186612,10.755775577558,0,0
-71.683792298922,-0.84340472282958,5.5602060206021,2085896.779118,24412.353933566,3200093.8186612,10.760206020602,0,0
-71.68379170486,-0.84082173196149,5.5646364636464,2085896.779118,24412.353933566,3200093.8186612,10.764636463646,0,0
-71.683791110797,-0.8382387410934,5.5690669066907,2085896.779118,24412.353933566,3200093.8186612,10.769066906691,0,0
-71.683790516735,-0.8356557502253,5.573497349735,2085896.779118,24412.353933566,3200093.8186612,10.773497349735,0,0
-71.683789922672,-0.83307275935721,5.5779277927793,2085896.779118,24412.353933566,3200093.8186612,10.777927792779,0,0
-71.68378932861,-0.83048976848912,5.5823582358236,2085896.779118,24412.353933566,3200093.8186612,10.782358235824,0,0
-71.683788734547,-0.82790677762102,5.5867886788679,2085896.779118,24412.353933566,3200093.8186612,10.786788678868,0,0
-71.683788140485,-0.82532378675293,5.5912191219122,2085896.779118,24412.353933566,3200093.8186612,10.791219121912,0,0
-71.683787546423,-0.82274079588484,5.5956495649565,2085896.779118,24412.353933566,3200093.8186612,10.795649564956,0,0
-71.68378695236,-0.82015780501674,5.6000800080008,2085896.779118,24412.353933566,3200093.8186612,10.800080008001,0,0
-71.683786358298,-0.81757481414865,5.6045104510451,2085896.779118,24412.353933566,3200093.8186612,10.804510451045,0,0
-71.683785764235,-0.81499182328056,5.6089408940894,2085896.779118,24412.353933566,3200093.8186612,10.808940894089,0,0
-71.683785170173,-0.81240883241246,5.6133713371337,2085896.779118,24412.353933566,3200093.8186612,10.813371337134,0,0
-71.68378457611,-0.80982584154437,5.617801780178,2085896.779118,24412.353933566,3200093.8186612,10.817801780178,0,0
-71.683783982048,-0.80724285067628,5.6222322232223,2085896.779118,24412.353933566,3200093.8186612,10.822232223222,0,0
-71.683783387985,-0.80465985980818,5.6266626662666,2085896.779118,24412.353933566,3200093.8186612,10.826662666267,0,0
-71.683782793923,-0.80207686894009,5.6310931093109,2085896.779118,24412.353933566,3200093.8186612,10.831093109311,0,0
-71.68378219986,-0.799493878072,5.6355235523552,2085896.779118,24412.353933566,3200093.8186612,10.835523552355,0,0
-71.683781605798,-0.7969108872039,5.6399539953995,2085896.779118,24412.353933566,3200093.8186612,10.8399539954,0,0
-71.683781011877,-0.79432790152907,5.6443844384438,2068282.93522,-5081.5991216677,3136692.2343346,10.844384438444,0,0
-71.683780418173,-0.79174492380415,5.6488148814881,2068282.93522,-5081.5991216677,3136692.2343346,10.848814881488,0,0
-71.683779824469,-0.78916194607924,5.6532453245325,2068282.93522,-5081.5991216677,3136692.2343346,10.853245324532,0,0
-71.683779230765,-0.78657896835432,5.6576757675768,2068282.93522,-5081.5991216677,3136692.2343346,10.857675767577,0,0
-71.68377863706,-0.78399599062941,5.6621062106211,2068282.93522,-5081.5991216677,3136692.2343346,10.862106210621,0,0
-71.683778043356,-0.78141301290449,5.6665366536654,2068282.93522,-5081.5991216677,3136692.2343346,10.866536653665,0,0
-71.683777449652,-0.77883003517957,5.6709670967097,2068282.93522,-5081.5991216677,3136692.2343346,10.87096709671,0,0
-71.683776855948,-0.77624705745466,5.675397539754,2068282.93522,-5081.5991216677,3136692.2343346,10.875397539754,0,0
-71.683776262244,-0.77366407972974,5.6798279827983,2068282.93522,-5081.5991216677,3136692.2343346,10.879827982798,0,0
-71.68377566854,-0.77108110200483,5.6842584258426,2068282.93522,-5081.5991216677,3136692.2343346,10.884258425843,0,0
-71.683775074835,-0.76849812427991,5.6886888688869,2068282.93522,-5081.5991216677,3136692.2343346,10.888688868887,0,0
-71.683774481131,-0.765915146555,5.6931193119312,2068282.93522,-5081.5991216677,3136692.2343346,10.893119311931,0,0
-71.683773887427,-0.76333216883008,5.6975497549755,2068282.93522,-5081.5991216677,3136692.2343346,10.897549754975,0,0
-71.683773293723,-0.76074919110517,5.7019801980198,2068282.93522,-5081.5991216677,3136692.2343346,10.90198019802,0,0
-71.683772700019,-0.75816621338025,5.7064106410641,2068282.93522,-5081.5991216677,3136692.2343346,10.906410641064,0,0
-71.683772106315,-0.75558323565534,5.7108410841084,2068282.93522,-5081.5991216677,3136692.2343346,10.910841084108,0,0
-71.68377151261,-0.75300025793042,5.7152715271527,2068282.93522,-5081.5991216677,3136692.2343346,10.915271527153,0,0
-71.683770918906,-0.75041728020551,5.719701970197,2068282.93522,-5081.5991216677,3136692.2343346,10.919701970197,0,0
-71.683770325202,-0.74783430248059,5.7241324132413,2068282.93522,-5081.5991216677,3136692.2343346,10.924132413241,0,0
-71.683769731498,-0.74525132475568,5.7285628562856,2068282.93522,-5081.5991216677,3136692.2343346,10.928562856286,0,0
-71.683769137794,-0.74266834703076,5.7329932993299,2068282.93522,-5081.5991216677,3136692.2343346,10.93299329933,0,0
-71.68376854409,-0.74008536930585,5.7374237423742,2068282.93522,-5081.5991216677,3136692.2343346,10.937423742374,0,0
-71.683767950385,-0.73750239158093,5.7418541854185,2068282.93522,-5081.5991216677,3136692.2343346,10.941854185419,0,0
-71.683767356681,-0.73491941385602,5.7462846284628,2068282.93522,-5081.5991216677,3136692.2343346,10.946284628463,0,0
-71.683766762977,-0.7323364361311,5.7507150715072,2068282.93522,-5081.5991216677,3136692.2343346,10.950715071507,0,0
-71.683766169273,-0.72975345840619,5.7551455145515,2068282.93522,-5081.5991216677,3136692.2343346,10.955145514551,0,0
-71.683765575569,-0.72717048068127,5.7595759575958,2068282.93522,-5081.5991216677,3136692.2343346,10.959575957596,0,0
-71.683764981864,-0.72458750295636,5.7640064006401,2068282.93522,-5081.5991216677,3136692.2343346,10.96400640064,0,0
-71.68376438816,-0.72200452523144,5.7684368436844,2068282.93522,-5081.5991216677,3136692.2343346,10.968436843684,0,0
-71.683763794456,-0.71942154750653,5.7728672867287,2068282.93522,-5081.5991216677,3136692.2343346,10.972867286729,0,0
-71.683763200752,-0.71683856978161,5.777297729773,2068282.93522,-5081.5991216677,3136692.2343346,10.977297729773,0,0
-71.683762607048,-0.71425559205669,5.7817281728173,2068282.93522,-5081.5991216677,3136692.2343346,10.981728172817,0,0
-71.683762013344,-0.71167261433178,5.7861586158616,2068282.93522,-5081.5991216677,3136692.2343346,10.986158615862,0,0
-71.683761419639,-0.70908963660686,5.7905890589059,2068282.93522,-5081.5991216677,3136692.2343346,10.990589058906,0,0
-71.683760825935,-0.70650665888195,5.7950195019502,2068282.93522,-5081.5991216677,3136692.2343346,10.99501950195,0,0
-71.683760232231,-0.70392368115703,5.7994499449945,2068282.93522,-5081.5991216677,3136692.2343346,10.999449944994,0,0
-71.683759638527,-0.70134070343212,5.8038803880388,2068282.93522,-5081.5991216677,3136692.2343346,11.003880388039,0,0
-71.683759044823,-0.6987577257072,5.8083108310831,2068282.93522,-5081.5991216677,3136692.2343346,11.008310831083,0,0
-71.683758451119,-0.69617474798229,5.8127412741274,2068282.93522,-5081.5991216677,3136692.2343346,11.012741274127,0,0
-71.683757857414,-0.69359177025737,5.8171717171717,2068282.93522,-5081.5991216677,3136692.2343346,11.017171717172,0,0
-71.68375726371,-0.69100879253246,5.821602160216,2068282.93522,-5081.5991216677,3136692.2343346,11.021602160216,0,0
-71.683756670006,-0.68842581480754,5.8260326032603,2068282.93522,-5081.5991216677,3136692.2343346,11.02603260326,0,0
-71.683756076302,-0.68584283708263,5.8304630463046,2068282.93522,-5081.5991216677,3136692.2343346,11.030463046305,0,0
-71.683755482598,-0.68325985935771,5.8348934893489,2068282.93522,-5081.5991216677,3136692.2343346,11.034893489349,0,0
-71.683754888894,-0.6806768816328,5.8393239323932,2068282.93522,-5081.5991216677,3136692.2343346,11.039323932393,0,0
-71.683754295189,-0.67809390390788,5.8437543754375,2068282.93522,-5081.5991216677,3136692.2343346,11.043754375438,0,0
-71.683753701485,-0.67551092618297,5.8481848184818,2068282.93522,-5081.5991216677,3136692.2343346,11.048184818482,0,0
-71.683753107781,-0.67292794845805,5.8526152615262,2068282.93522,-5081.5991216677,3136692.2343346,11.052615261526,0,0
-71.683752514077,-0.67034497073314,5.8570457045705,2068282.93522,-5081.5991216677,3136692.2343346,11.05704570457,0,0
-71.683751920373,-0.66776199300822,5.8614761476148,2068282.93522,-5081.5991216677,3136692.2343346,11.061476147615,0,0
-71.683751326668,-0.66517901528331,5.8659065906591,2068282.93522,-5081.5991216677,3136692.2343346,11.065906590659,0,0
-71.683750732964,-0.66259603755839,5.8703370337034,2068282.93522,-5081.5991216677,3136692.2343346,11.070337033703,0,0
-71.68375013926,-0.66001305983348,5.8747674767477,2068282.93522,-5081.5991216677,3136692.2343346,11.074767476748,0,0
-71.683749545556,-0.65743008210856,5.879197919792,2068282.93522,-5081.5991216677,3136692.2343346,11.079197919792,0,0
-71.683748951852,-0.65484710438365,5.8836283628363,2068282.93522,-5081.5991216677,3136692.2343346,11.083628362836,0,0
-71.683748358148,-0.65226412665873,5.8880588058806,2068282.93522,-5081.5991216677,3136692.2343346,11.088058805881,0,0
-71.683747764443,-0.64968114893382,5.8924892489249,2068282.93522,-5081.5991216677,3136692.2343346,11.092489248925,0,0
-71.683747170739,-0.6470981712089,5.8969196919692,2068282.93522,-5081.5991216677,3136692.2343346,11.096919691969,0,0
-71.683746577035,-0.64451519348398,5.9013501350135,2068282.93522,-5081.5991216677,3136692.2343346,11.101350135014,0,0
-71.683745983331,-0.64193221575907,5.9057805780578,2068282.93522,-5081.5991216677,3136692.2343346,11.105780578058,0,0
-71.683745389627,-0.63934923803415,5.9102110211021,2068282.93522,-5081.5991216677,3136692.2343346,11.110211021102,0,0
-71.683744795923,-0.63676626030924,5.9146414641464,2068282.93522,-5081.5991216677,3136692.2343346,11.114641464146,0,0
-71.683744202218,-0.63418328258432,5.9190719071907,2068282.93522,-5081.5991216677,3136692.2343346,11.119071907191,0,0
-71.683743608514,-0.63160030485941,5.923502350235,2068282.93522,-5081.5991216677,3136692.2343346,11.123502350235,0,0
-71.68374301481,-0.62901732713449,5.9279327932793,2068282.93522,-5081.5991216677,3136692.2343346,11.127932793279,0,0
-71.683742421106,-0.62643434940958,5.9323632363236,2068282.93522,-5081.5991216677,3136692.2343346,11.132363236324,0,0
-71.683741827402,-0.62385137168466,5.9367936793679,2068282.93522,-5081.5991216677,3136692.2343346,11.136793679368,0,0
-71.683741233698,-0.62126839395975,5.9412241224122,2068282.93522,-5081.5991216677,3136692.2343346,11.141224122412,0,0
-71.683740639993,-0.61868541623483,5.9456545654565,2068282.93522,-5081.5991216677,3136692.2343346,11.145654565457,0,0
-71.683740046289,-0.61610243850992,5.9500850085008,2068282.93522,-5081.5991216677,3136692.2343346,11.150085008501,0,0
-71.683739452585,-0.613519460785,5.9545154515452,2068282.93522,-5081.5991216677,3136692.2343346,11.154515451545,0,0
-71.683738858881,-0.61093648306009,5.9589458945895,2068282.93522,-5081.5991216677,3136692.2343346,11.158945894589,0,0
-71.683738265177,-0.60835350533517,5.9633763376338,2068282.93522,-5081.5991216677,3136692.2343346,11.163376337634,0,0
-71.683737671473,-0.60577052761026,5.9678067806781,2068282.93522,-5081.5991216677,3136692.2343346,11.167806780678,0,0
-71.683737077768,-0.60318754988534,5.9722372237224,2068282.93522,-5081.5991216677,3136692.2343346,11.172237223722,0,0
-71.683736484064,-0.60060457216043,5.9766676667667,2068282.93522,-5081.5991216677,3136692.2343346,11.176667666767,0,0
-71.68373589036,-0.59802159443551,5.981098109811,2068282.93522,-5081.5991216677,3136692.2343346,11.181098109811,0,0
-71.683735296656,-0.5954386167106,5.9855285528553,2068282.93522,-5081.5991216677,3136692.2343346,11.185528552855,0,0
-71.683734702952,-0.59285563898568,5.9899589958996,2068282.93522,-5081.5991216677,3136692.2343346,11.1899589959,0,0
-71.683734109247,-0.59027266126076,5.9943894389439,2068282.93522,-5081.5991216677,3136692.2343346,11.194389438944,0,0
-71.683733515543,-0.58768968353585,5.9988198819882,2068282.93522,-5081.5991216677,3136692.2343346,11.198819881988,0,0
-71.683732921839,-0.58510670581093,6.0032503250325,2068282.93522,-5081.5991216677,3136692.2343346,11.203250325033,0,0
-71.683732328135,-0.58252372808602,6.0076807680768,2068282.93522,-5081.5991216677,3136692.2343346,11.207680768077,0,0
-71.683731734431,-0.5799407503611,6.0121112111211,2068282.93522,-5081.5991216677,3136692.2343346,11.212111211121,0,0
-71.683731140727,-0.57735777263619,6.0165416541654,2068282.93522,-5081.5991216677,3136692.2343346,11.216541654165,0,0
-71.683730547022,-0.57477479491127,6.0209720972097,2068282.93522,-5081.5991216677,3136692.2343346,11.22097209721,0,0
-71.683729953318,-0.57219181718636,6.025402540254,2068282.93522,-5081.5991216677,3136692.2343346,11.225402540254,0,0
-71.683729359614,-0.56960883946144,6.0298329832983,2068282.93522,-5081.5991216677,3136692.2343346,11.229832983298,0,0
-71.68372876591,-0.56702586173653,6.0342634263426,2068282.93522,-5081.5991216677,3136692.2343346,11.234263426343,0,0
-71.683728172206,-0.56444288401161,6.0386938693869,2068282.93522,-5081.5991216677,3136692.2343346,11.238693869387,0,0
-71.683727578502,-0.5618599062867,6.0431243124312,2068282.93522,-5081.5991216677,3136692.2343346,11.243124312431,0,0
-71.683726984797,-0.55927692856178,6.0475547554755,2068282.93522,-5081.5991216677,3136692.2343346,11.247554755476,0,0
-71.683726391093,-0.55669395083687,6.0519851985199,2068282.93522,-5081.5991216677,3136692.2343346,11.25198519852,0,0
-71.683725797389,-0.55411097311195,6.0564156415642,2068282.93522,-5081.5991216677,3136692.2343346,11.256415641564,0,0
-71.683725203685,-0.55152799538704,6.0608460846085,2068282.93522,-5081.5991216677,3136692.2343346,11.260846084608,0,0
-71.683724605994,-0.54894501470243,6.0652765276528,2141102.4986243,7571.269279534,3138165.0087267,11.265276527653,0,0
-71.683723999052,-0.54636202715097,6.0697069706971,2141102.4986243,7571.269279534,3138165.0087267,11.269706970697,0,0
-71.683723392111,-0.54377903959952,6.0741374137414,2141102.4986243,7571.269279534,3138165.0087267,11.274137413741,0,0
-71.68372278517,-0.54119605204806,6.0785678567857,2141102.4986243,7571.269279534,3138165.0087267,11.278567856786,0,0
-71.683722178228,-0.5386130644966,6.08299829983,2141102.4986243,7571.269279534,3138165.0087267,11.28299829983,0,0
-71.683721571287,-0.53603007694514,6.0874287428743,2141102.4986243,7571.269279534,3138165.0087267,11.287428742874,0,0
-71.683720964345,-0.53344708939368,6.0918591859186,2141102.4986243,7571.269279534,3138165.0087267,11.291859185919,0,0
-71.683720357404,-0.53086410184222,6.0962896289629,2141102.4986243,7571.269279534,3138165.0087267,11.296289628963,0,0
-71.683719750463,-0.52828111429076,6.1007200720072,2141102.4986243,7571.269279534,3138165.0087267,11.300720072007,0,0
-71.683719143521,-0.5256981267393,6.1051505150515,2141102.4986243,7571.269279534,3138165.0087267,11.305150515052,0,0
-71.68371853658,-0.52311513918784,6.1095809580958,2141102.4986243,7571.269279534,3138165.0087267,11.309580958096,0,0
-71.683717929639,-0.52053215163638,6.1140114011401,2141102.4986243,7571.269279534,3138165.0087267,11.31401140114,0,0
-71.683717322697,-0.51794916408492,6.1184418441844,2141102.4986243,7571.269279534,3138165.0087267,11.318441844184,0,0
-71.683716715756,-0.51536617653347,6.1228722872287,2141102.4986243,7571.269279534,3138165.0087267,11.322872287229,0,0
-71.683716108814,-0.51278318898201,6.127302730273,2141102.4986243,7571.269279534,3138165.0087267,11.327302730273,0,0
-71.683715501873,-0.51020020143055,6.1317331733173,2141102.4986243,7571.269279534,3138165.0087267,11.331733173317,0,0
-71.683714894932,-0.50761721387909,6.1361636163616,2141102.4986243,7571.269279534,3138165.0087267,11.336163616362,0,0
-71.68371428799,-0.50503422632763,6.1405940594059,2141102.4986243,7571.269279534,3138165.0087267,11.340594059406,0,0
-71.683713681049,-0.50245123877617,6.1450245024502,2141102.4986243,7571.269279534,3138165.0087267,11.34502450245,0,0
-71.683713074107,-0.49986825122471,6.1494549454945,2141102.4986243,7571.269279534,3138165.0087267,11.349454945495,0,0
-71.683712467166,-0.49728526367325,6.1538853885389,2141102.4986243,7571.269279534,3138165.0087267,11.353885388539,0,0
-71.683711860225,-0.49470227612179,6.1583158315832,2141102.4986243,7571.269279534,3138165.0087267,11.358315831583,0,0
-71.683711253283,-0.49211928857034,6.1627462746275,2141102.4986243,7571.269279534,3138165.0087267,11.362746274627,0,0
-71.683710646342,-0.48953630101888,6.1671767176718,2141102.4986243,7571.269279534,3138165.0087267,11.367176717672,0,0
-71.683710039401,-0.48695331346742,6.1716071607161,2141102.4986243,7571.269279534,3138165.0087267,11.371607160716,0,0
-71.683709432459,-0.48437032591596,6.1760376037604,2141102.4986243,7571.269279534,3138165.0087267,11.37603760376,0,0
-71.683708825518,-0.4817873383645,6.1804680468047,2141102.4986243,7571.269279534,3138165.0087267,11.380468046805,0,0
-71.683708218576,-0.47920435081304,6.184898489849,2141102.4986243,7571.269279534,3138165.0087267,11.384898489849,0,0
-71.683707611635,-0.47662136326158,6.1893289328933,2141102.4986243,7571.269279534,3138165.0087267,11.389328932893,0,0
-71.683707004694,-0.47403837571012,6.1937593759376,2141102.4986243,7571.269279534,3138165.0087267,11.393759375938,0,0
-71.683706397752,-0.47145538815866,6.1981898189819,2141102.4986243,7571.269279534,3138165.0087267,11.398189818982,0,0
-71.683705790811,-0.4688724006072,6.2026202620262,2141102.4986243,7571.269279534,3138165.0087267,11.402620262026,0,0
-71.683705183869,-0.46628941305575,6.2070507050705,2141102.4986243,7571.269279534,3138165.0087267,11.407050705071,0,0
-71.683704576928,-0.46370642550429,6.2114811481148,2141102.4986243,7571.269279534,3138165.0087267,11.411481148115,0,0
-71.683703969987,-0.46112343795283,6.2159115911591,2141102.4986243,7571.269279534,3138165.0087267,11.415911591159,0,0
-71.683703363045,-0.45854045040137,6.2203420342034,2141102.4986243,7571.269279534,3138165.0087267,11.420342034203,0,0
-71.683702756104,-0.45595746284991,6.2247724772477,2141102.4986243,7571.269279534,3138165.0087267,11.424772477248,0,0
-71.683702149163,-0.45337447529845,6.229202920292,2141102.4986243,7571.269279534,3138165.0087267,11.429202920292,0,0
-71.683701542221,-0.45079148774699,6.2336333633363,2141102.4986243,7571.269279534,3138165.0087267,11.433633363336,0,0
-71.68370093528,-0.44820850019553,6.2380638063806,2141102.4986243,7571.269279534,3138165.0087267,11.438063806381,0,0
-71.683700328338,-0.44562551264407,6.2424942494249,2141102.4986243,7571.269279534,3138165.0087267,11.442494249425,0,0
-71.683699721397,-0.44304252509262,6.2469246924692,2141102.4986243,7571.269279534,3138165.0087267,11.446924692469,0,0
-71.683699114456,-0.44045953754116,6.2513551355136,2141102.4986243,7571.269279534,3138165.0087267,11.451355135514,0,0
-71.683698507514,-0.4378765499897,6.2557855785579,2141102.4986243,7571.269279534,3138165.0087267,11.455785578558,0,0
-71.683697900573,-0.43529356243824,6.2602160216022,2141102.4986243,7571.269279534,3138165.0087267,11.460216021602,0,0
-71.683697293631,-0.43271057488678,6.2646464646465,2141102.4986243,7571.269279534,3138165.0087267,11.464646464646,0,0
-71.68369668669,-0.43012758733532,6.2690769076908,2141102.4986243,7571.269279534,3138165.0087267,11.469076907691,0,0
-71.683696079749,-0.42754459978386,6.2735073507351,2141102.4986243,7571.269279534,3138165.0087267,11.473507350735,0,0
-71.683695472807,-0.4249616122324,6.2779377937794,2141102.4986243,7571.269279534,3138165.0087267,11.477937793779,0,0
-71.683694865866,-0.42237862468094,6.2823682368237,2141102.4986243,7571.269279534,3138165.0087267,11.482368236824,0,0
-71.683694258925,-0.41979563712949,6.286798679868,2141102.4986243,7571.269279534,3138165.0087267,11.486798679868,0,0
-71.683693651983,-0.41721264957803,6.2912291229123,2141102.4986243,7571.269279534,3138165.0087267,11.491229122912,0,0
-71.683693045042,-0.41462966202657,6.2956595659566,2141102.4986243,7571.269279534,3138165.0087267,11.495659565957,0,0
-71.6836924381,-0.41204667447511,6.3000900090009,2141102.4986243,7571.269279534,3138165.0087267,11.500090009001,0,0
-71.683691831159,-0.40946368692365,6.3045204520452,2141102.4986243,7571.269279534,3138165.0087267,11.504520452045,0,0
-71.683691224218,-0.40688069937219,6.3089508950895,2141102.4986243,7571.269279534,3138165.0087267,11.50895089509,0,0
-71.683690617276,-0.40429771182073,6.3133813381338,2141102.4986243,7571.269279534,3138165.0087267,11.513381338134,0,0
-71.683690010335,-0.40171472426927,6.3178117811781,2141102.4986243,7571.269279534,3138165.0087267,11.517811781178,0,0
-71.683689403393,-0.39913173671781,6.3222422242224,2141102.4986243,7571.269279534,3138165.0087267,11.522242224222,0,0
-71.683688796452,-0.39654874916635,6.3266726672667,2141102.4986243,7571.269279534,3138165.0087267,11.526672667267,0,0
-71.683688189511,-0.3939657616149,6.331103110311,2141102.4986243,7571.269279534,3138165.0087267,11.531103110311,0,0
-71.683687582569,-0.39138277406344,6.3355335533553,2141102.4986243,7571.269279534,3138165.0087267,11.535533553355,0,0
-71.683686975628,-0.38879978651198,6.3399639963996,2141102.4986243,7571.269279534,3138165.0087267,11.5399639964,0,0
-71.683686368686,-0.38621679896052,6.3443944394439,2141102.4986243,7571.269279534,3138165.0087267,11.544394439444,0,0
-71.683685761745,-0.38363381140906,6.3488248824882,2141102.4986243,7571.269279534,3138165.0087267,11.548824882488,0,0
-71.683685154804,-0.3810508238576,6.3532553255326,2141102.4986243,7571.269279534,3138165.0087267,11.553255325533,0,0
-71.683684547862,-0.37846783630614,6.3576857685769,2141102.4986243,7571.269279534,3138165.0087267,11.557685768577,0,0
-71.683683940921,-0.37588484875468,6.3621162116212,2141102.4986243,7571.269279534,3138165.0087267,11.562116211621,0,0
-71.68368333398,-0.37330186120322,6.3665466546655,2141102.4986243,7571.269279534,3138165.0087267,11.566546654665,0,0
-71.683682727038,-0.37071887365176,6.3709770977098,2141102.4986243,7571.269279534,3138165.0087267,11.57097709771,0,0
-71.683682120097,-0.36813588610031,6.3754075407541,2141102.4986243,7571.269279534,3138165.0087267,11.575407540754,0,0
-71.683681513155,-0.36555289854885,6.3798379837984,2141102.4986243,7571.269279534,3138165.0087267,11.579837983798,0,0
-71.683680906214,-0.36296991099739,6.3842684268427,2141102.4986243,7571.269279534,3138165.0087267,11.584268426843,0,0
-71.683680299273,-0.36038692344593,6.388698869887,2141102.4986243,7571.269279534,3138165.0087267,11.588698869887,0,0
-71.683679692331,-0.35780393589447,6.3931293129313,2141102.4986243,7571.269279534,3138165.0087267,11.593129312931,0,0
-71.68367908539,-0.35522094834301,6.3975597559756,2141102.4986243,7571.269279534,3138165.0087267,11.597559755976,0,0
-71.683678478448,-0.35263796079155,6.4019901990199,2141102.4986243,7571.269279534,3138165.0087267,11.60199019902,0,0
-71.683677871507,-0.35005497324009,6.4064206420642,2141102.4986243,7571.269279534,3138165.0087267,11.606420642064,0,0
-71.683677264566,-0.34747198568863,6.4108510851085,2141102.4986243,7571.269279534,3138165.0087267,11.610851085109,0,0
-71.683676657624,-0.34488899813718,6.4152815281528,2141102.4986243,7571.269279534,3138165.0087267,11.615281528153,0,0
-71.683676050683,-0.34230601058572,6.4197119711971,2141102.4986243,7571.269279534,3138165.0087267,11.619711971197,0,0
-71.683675443742,-0.33972302303426,6.4241424142414,2141102.4986243,7571.269279534,3138165.0087267,11.624142414241,0,0
-71.6836748368,-0.3371400354828,6.4285728572857,2141102.4986243,7571.269279534,3138165.0087267,11.628572857286,0,0
-71.683674229859,-0.33455704793134,6.43300330033,2141102.4986243,7571.269279534,3138165.0087267,11.63300330033,0,0
-71.683673622917,-0.33197406037988,6.4374337433743,2141102.4986243,7571.269279534,3138165.0087267,11.637433743374,0,0
-71.683673015976,-0.32939107282842,6.4418641864186,2141102.4986243,7571.269279534,3138165.0087267,11.641864186419,0,0
-71.683672409035,-0.32680808527696,6.4462946294629,2141102.4986243,7571.269279534,3138165.0087267,11.646294629463,0,0
-71.683671802093,-0.3242250977255,6.4507250725072,2141102.4986243,7571.269279534,3138165.0087267,11.650725072507,0,0
-71.683671195152,-0.32164211017404,6.4551555155516,2141102.4986243,7571.269279534,3138165.0087267,11.655155515552,0,0
-71.68367058821,-0.31905912262259,6.4595859585959,2141102.4986243,7571.269279534,3138165.0087267,11.659585958596,0,0
-71.683669980313,-0.31647614146097,6.4640164016402,2136496.3536575,-17035.868677954,3076864.4300843,11.66401640164,0,0
-71.683669371448,-0.31389316676488,6.4684468446845,2136496.3536575,-17035.868677954,3076864.4300843,11.668446844684,0,0
-71.683668762584,-0.31131019206879,6.4728772877288,2136496.3536575,-17035.868677954,3076864.4300843,11.672877287729,0,0
-71.683668153719,-0.3087272173727,6.4773077307731,2136496.3536575,-17035.868677954,3076864.4300843,11.677307730773,0,0
-71.683667544854,-0.30614424267662,6.4817381738174,2136496.3536575,-17035.868677954,3076864.4300843,11.681738173817,0,0
-71.683666935989,-0.30356126798053,6.4861686168617,2136496.3536575,-17035.868677954,3076864.4300843,11.686168616862,0,0
-71.683666327124,-0.30097829328444,6.490599059906,2136496.3536575,-17035.868677954,3076864.4300843,11.690599059906,0,0
-71.68366571826,-0.29839531858835,6.4950295029503,2136496.3536575,-17035.868677954,3076864.4300843,11.69502950295,0,0
-71.683665109395,-0.29581234389226,6.4994599459946,2136496.3536575,-17035.868677954,3076864.4300843,11.699459945995,0,0
-71.68366450053,-0.29322936919617,6.5038903890389,2136496.3536575,-17035.868677954,3076864.4300843,11.703890389039,0,0
-71.683663891665,-0.29064639450008,6.5083208320832,2136496.3536575,-17035.868677954,3076864.4300843,11.708320832083,0,0
-71.683663282801,-0.28806341980399,6.5127512751275,2136496.3536575,-17035.868677954,3076864.4300843,11.712751275128,0,0
-71.683662673936,-0.2854804451079,6.5171817181718,2136496.3536575,-17035.868677954,3076864.4300843,11.717181718172,0,0
-71.683662065071,-0.28289747041181,6.5216121612161,2136496.3536575,-17035.868677954,3076864.4300843,11.721612161216,0,0
-71.683661456206,-0.28031449571573,6.5260426042604,2136496.3536575,-17035.868677954,3076864.4300843,11.72604260426,0,0
-71.683660847342,-0.27773152101964,6.5304730473047,2136496.3536575,-17035.868677954,3076864.4300843,11.730473047305,0,0
-71.683660238477,-0.27514854632355,6.534903490349,2136496.3536575,-17035.868677954,3076864.4300843,11.734903490349,0,0
-71.683659629612,-0.27256557162746,6.5393339333933,2136496.3536575,-17035.868677954,3076864.4300843,11.739333933393,0,0
-71.683659020747,-0.26998259693137,6.5437643764376,2136496.3536575,-17035.868677954,3076864.4300843,11.743764376438,0,0
-71.683658411883,-0.26739962223528,6.5481948194819,2136496.3536575,-17035.868677954,3076864.4300843,11.748194819482,0,0
-71.683657803018,-0.26481664753919,6.5526252625263,2136496.3536575,-17035.868677954,3076864.4300843,11.752625262526,0,0
-71.683657194153,-0.2622336728431,6.5570557055706,2136496.3536575,-17035.868677954,3076864.4300843,11.757055705571,0,0
-71.683656585288,-0.25965069814701,6.5614861486149,2136496.3536575,-17035.868677954,3076864.4300843,11.761486148615,0,0
-71.683655976423,-0.25706772345093,6.5659165916592,2136496.3536575,-17035.868677954,3076864.4300843,11.765916591659,0,0
-71.683655367559,-0.25448474875484,6.5703470347035,2136496.3536575,-17035.868677954,3076864.4300843,11.770347034703,0,0
-71.683654758694,-0.25190177405875,6.5747774777478,2136496.3536575,-17035.868677954,3076864.4300843,11.774777477748,0,0
-71.683654149829,-0.24931879936266,6.5792079207921,2136496.3536575,-17035.868677954,3076864.4300843,11.779207920792,0,0
-71.683653540964,-0.24673582466657,6.5836383638364,2136496.3536575,-17035.868677954,3076864.4300843,11.783638363836,0,0
-71.6836529321,-0.24415284997048,6.5880688068807,2136496.3536575,-17035.868677954,3076864.4300843,11.788068806881,0,0
-71.683652323235,-0.24156987527439,6.592499249925,2136496.3536575,-17035.868677954,3076864.4300843,11.792499249925,0,0
-71.68365171437,-0.2389869005783,6.5969296929693,2136496.3536575,-17035.868677954,3076864.4300843,11.796929692969,0,0
-71.683651105505,-0.23640392588221,6.6013601360136,2136496.3536575,-17035.868677954,3076864.4300843,11.801360136014,0,0
-71.683650496641,-0.23382095118612,6.6057905790579,2136496.3536575,-17035.868677954,3076864.4300843,11.805790579058,0,0
-71.683649887776,-0.23123797649004,6.6102210221022,2136496.3536575,-17035.868677954,3076864.4300843,11.810221022102,0,0
-71.683649278911,-0.22865500179395,6.6146514651465,2136496.3536575,-17035.868677954,3076864.4300843,11.814651465147,0,0
-71.683648670046,-0.22607202709786,6.6190819081908,2136496.3536575,-17035.868677954,3076864.4300843,11.819081908191,0,0
-71.683648061182,-0.22348905240177,6.6235123512351,2136496.3536575,-17035.868677954,3076864.4300843,11.823512351235,0,0
-71.683647452317,-0.22090607770568,6.6279427942794,2136496.3536575,-17035.868677954,3076864.4300843,11.827942794279,0,0
-71.683646843452,-0.21832310300959,6.6323732373237,2136496.3536575,-17035.868677954,3076864.4300843,11.832373237324,0,0
-71.683646234587,-0.2157401283135,6.636803680368,2136496.3536575,-17035.868677954,3076864.4300843,11.836803680368,0,0
-71.683645625723,-0.21315715361741,6.6412341234123,2136496.3536575,-17035.868677954,3076864.4300843,11.841234123412,0,0
-71.683645016858,-0.21057417892132,6.6456645664566,2136496.3536575,-17035.868677954,3076864.4300843,11.845664566457,0,0
-71.683644407993,-0.20799120422523,6.650095009501,2136496.3536575,-17035.868677954,3076864.4300843,11.850095009501,0,0
-71.683643799128,-0.20540822952914,6.6545254525453,2136496.3536575,-17035.868677954,3076864.4300843,11.854525452545,0,0
-71.683643190263,-0.20282525483306,6.6589558955896,2136496.3536575,-17035.868677954,3076864.4300843,11.85895589559,0,0
-71.683642581399,-0.20024228013697,6.6633863386339,2136496.3536575,-17035.868677954,3076864.4300843,11.863386338634,0,0
-71.683641972534,-0.19765930544088,6.6678167816782,2136496.3536575,-17035.868677954,3076864.4300843,11.867816781678,0,0
-71.683641363669,-0.19507633074479,6.6722472247225,2136496.3536575,-17035.868677954,3076864.4300843,11.872247224722,0,0
-71.683640754804,-0.1924933560487,6.6766776677668,2136496.3536575,-17035.868677954,3076864.4300843,11.876677667767,0,0
-71.68364014594,-0.18991038135261,6.6811081108111,2136496.3536575,-17035.868677954,3076864.4300843,11.881108110811,0,0
-71.683639537075,-0.18732740665652,6.6855385538554,2136496.3536575,-17035.868677954,3076864.4300843,11.885538553855,0,0
-71.68363892821,-0.18474443196043,6.6899689968997,2136496.3536575,-17035.868677954,3076864.4300843,11.8899689969,0,0
-71.683638319345,-0.18216145726434,6.694399439944,2136496.3536575,-17035.868677954,3076864.4300843,11.894399439944,0,0
-71.683637710481,-0.17957848256826,6.6988298829883,2136496.3536575,-17035.868677954,3076864.4300843,11.898829882988,0,0
-71.683637101616,-0.17699550787217,6.7032603260326,2136496.3536575,-17035.868677954,3076864.4300843,11.903260326033,0,0
-71.683636492751,-0.17441253317608,6.7076907690769,2136496.3536575,-17035.868677954,3076864.4300843,11.907690769077,0,0
-71.683635883886,-0.17182955847999,6.7121212121212,2136496.3536575,-17035.868677954,3076864.4300843,11.912121212121,0,0
-71.683635275022,-0.1692465837839,6.7165516551655,2136496.3536575,-17035.868677954,3076864.4300843,11.916551655166,0,0
-71.683634666157,-0.16666360908781,6.7209820982098,2136496.3536575,-17035.868677954,3076864.4300843,11.92098209821,0,0
-71.683634057292,-0.16408063439172,6.7254125412541,2136496.3536575,-17035.868677954,3076864.4300843,11.925412541254,0,0
-71.683633448427,-0.16149765969563,6.7298429842984,2136496.3536575,-17035.868677954,3076864.4300843,11.929842984298,0,0
-71.683632834712,-0.15891468086314,6.7342734273427,2196736.4158941,-5581.8333484459,3071279.8839485,11.934273427343,0,0
-71.68363221459,-0.15633169656642,6.738703870387,2196736.4158941,-5581.8333484459,3071279.8839485,11.938703870387,0,0
-71.683631594468,-0.15374871226971,6.7431343134313,2196736.4158941,-5581.8333484459,3071279.8839485,11.943134313431,0,0
-71.683630974346,-0.15116572797299,6.7475647564756,2196736.4158941,-5581.8333484459,3071279.8839485,11.947564756476,0,0
-71.683630354224,-0.14858274367628,6.75199519952,2196736.4158941,-5581.8333484459,3071279.8839485,11.95199519952,0,0
-71.683629734102,-0.14599975937956,6.7564256425643,2196736.4158941,-5581.8333484459,3071279.8839485,11.956425642564,0,0
-71.68362911398,-0.14341677508285,6.7608560856086,2196736.4158941,-5581.8333484459,3071279.8839485,11.960856085609,0,0
-71.683628493858,-0.14083379078613,6.7652865286529,2196736.4158941,-5581.8333484459,3071279.8839485,11.965286528653,0,0
-71.683627873736,-0.13825080648942,6.7697169716972,2196736.4158941,-5581.8333484459,3071279.8839485,11.969716971697,0,0
-71.683627253613,-0.1356678221927,6.7741474147415,2196736.4158941,-5581.8333484459,3071279.8839485,11.974147414741,0,0
-71.683626633491,-0.13308483789599,6.7785778577858,2196736.4158941,-5581.8333484459,3071279.8839485,11.978577857786,0,0
-71.683626013369,-0.13050185359927,6.7830083008301,2196736.4158941,-5581.8333484459,3071279.8839485,11.98300830083,0,0
-71.683625393247,-0.12791886930256,6.7874387438744,2196736.4158941,-5581.8333484459,3071279.8839485,11.987438743874,0,0
-71.683624773125,-0.12533588500584,6.7918691869187,2196736.4158941,-5581.8333484459,3071279.8839485,11.991869186919,0,0
-71.683624153003,-0.12275290070912,6.796299629963,2196736.4158941,-5581.8333484459,3071279.8839485,11.996299629963,0,0
-71.683623532881,-0.12016991641241,6.8007300730073,2196736.4158941,-5581.8333484459,3071279.8839485,12.000730073007,0,0
-71.683622912759,-0.1175869321157,6.8051605160516,2196736.4158941,-5581.8333484459,3071279.8839485,12.005160516052,0,0
-71.683622292637,-0.11500394781898,6.8095909590959,2196736.4158941,-5581.8333484459,3071279.8839485,12.009590959096,0,0
-71.683621672515,-0.11242096352226,6.8140214021402,2196736.4158941,-5581.8333484459,3071279.8839485,12.01402140214,0,0
-71.683621052392,-0.10983797922555,6.8184518451845,2196736.4158941,-5581.8333484459,3071279.8839485,12.018451845185,0,0
-71.68362043227,-0.10725499492883,6.8228822882288,2196736.4158941,-5581.8333484459,3071279.8839485,12.022882288229,0,0
-71.683619812148,-0.10467201063212,6.8273127312731,2196736.4158941,-5581.8333484459,3071279.8839485,12.027312731273,0,0
-71.683619192026,-0.1020890263354,6.8317431743174,2196736.4158941,-5581.8333484459,3071279.8839485,12.031743174317,0,0
-71.683618571904,-0.099506042038687,6.8361736173617,2196736.4158941,-5581.8333484459,3071279.8839485,12.036173617362,0,0
-71.683617951782,-0.096923057741972,6.840604060406,2196736.4158941,-5581.8333484459,3071279.8839485,12.040604060406,0,0
-71.68361733166,-0.094340073445256,6.8450345034503,2196736.4158941,-5581.8333484459,3071279.8839485,12.04503450345,0,0
-71.683616711538,-0.091757089148541,6.8494649464946,2196736.4158941,-5581.8333484459,3071279.8839485,12.049464946495,0,0
-71.683616091416,-0.089174104851825,6.853895389539,2196736.4158941,-5581.8333484459,3071279.8839485,12.053895389539,0,0
-71.683615471294,-0.086591120555111,6.8583258325833,2196736.4158941,-5581.8333484459,3071279.8839485,12.058325832583,0,0
-71.683614851171,-0.084008136258395,6.8627562756276,2196736.4158941,-5581.8333484459,3071279.8839485,12.062756275628,0,0
-71.683614231049,-0.081425151961681,6.8671867186719,2196736.4158941,-5581.8333484459,3071279.8839485,12.067186718672,0,0
-71.683613610927,-0.078842167664964,6.8716171617162,2196736.4158941,-5581.8333484459,3071279.8839485,12.071617161716,0,0
-71.683612990805,-0.076259183368249,6.8760476047605,2196736.4158941,-5581.8333484459,3071279.8839485,12.07604760476,0,0
-71.683612370683,-0.073676199071534,6.8804780478048,2196736.4158941,-5581.8333484459,3071279.8839485,12.080478047805,0,0
-71.683611750561,-0.071093214774818,6.8849084908491,2196736.4158941,-5581.8333484459,3071279.8839485,12.084908490849,0,0
-71.683611130439,-0.068510230478103,6.8893389338934,2196736.4158941,-5581.8333484459,3071279.8839485,12.089338933893,0,0
-71.683610510317,-0.065927246181388,6.8937693769377,2196736.4158941,-5581.8333484459,3071279.8839485,12.093769376938,0,0
-71.683609890195,-0.063344261884673,6.898199819982,2196736.4158941,-5581.8333484459,3071279.8839485,12.098199819982,0,0
-71.683609270073,-0.060761277587957,6.9026302630263,2196736.4158941,-5581.8333484459,3071279.8839485,12.102630263026,0,0
-71.68360864995,-0.058178293291242,6.9070607060706,2196736.4158941,-5581.8333484459,3071279.8839485,12.107060706071,0,0
-71.683608029828,-0.055595308994526,6.9114911491149,2196736.4158941,-5581.8333484459,3071279.8839485,12.111491149115,0,0
-71.683607409706,-0.053012324697812,6.9159215921592,2196736.4158941,-5581.8333484459,3071279.8839485,12.115921592159,0,0
-71.683606789584,-0.050429340401095,6.9203520352035,2196736.4158941,-5581.8333484459,3071279.8839485,12.120352035204,0,0
-71.683606169462,-0.047846356104381,6.9247824782478,2196736.4158941,-5581.8333484459,3071279.8839485,12.124782478248,0,0
-71.68360554934,-0.045263371807664,6.9292129212921,2196736.4158941,-5581.8333484459,3071279.8839485,12.129212921292,0,0
-71.683604929218,-0.04268038751095,6.9336433643364,2196736.4158941,-5581.8333484459,3071279.8839485,12.133643364336,0,0
-71.683604309096,-0.040097403214233,6.9380738073807,2196736.4158941,-5581.8333484459,3071279.8839485,12.138073807381,0,0
-71.683603688974,-0.037514418917519,6.942504250425,2196736.4158941,-5581.8333484459,3071279.8839485,12.142504250425,0,0
-71.683603068852,-0.034931434620802,6.9469346934693,2196736.4158941,-5581.8333484459,3071279.8839485,12.146934693469,0,0
-71.683602448729,-0.032348450324089,6.9513651365137,2196736.4158941,-5581.8333484459,3071279.8839485,12.151365136514,0,0
-71.683601828607,-0.029765466027373,6.955795579558,2196736.4158941,-5581.8333484459,3071279.8839485,12.155795579558,0,0
-71.683601208485,-0.027182481730658,6.9602260226023,2196736.4158941,-5581.8333484459,3071279.8839485,12.160226022602,0,0
-71.683600588363,-0.024599497433941,6.9646564656466,2196736.4158941,-5581.8333484459,3071279.8839485,12.164656465647,0,0
-71.683599968241,-0.022016513137227,6.9690869086909,2196736.4158941,-5581.8333484459,3071279.8839485,12.169086908691,0,0
-71.683599348119,-0.019433528840512,6.9735173517352,2196736.4158941,-5581.8333484459,3071279.8839485,12.173517351735,0,0
-71.683598727997,-0.016850544543796,6.9779477947795,2196736.4158941,-5581.8333484459,3071279.8839485,12.177947794779,0,0
-71.683598107875,-0.014267560247082,6.9823782378238,2196736.4158941,-5581.8333484459,3071279.8839485,12.182378237824,0,0
-71.683597487753,-0.011684575950365,6.9868086808681,2196736.4158941,-5581.8333484459,3071279.8839485,12.186808680868,0,0
-71.683596867631,-0.0091015916536511,6.9912391239124,2196736.4158941,-5581.8333484459,3071279.8839485,12.191239123912,0,0
-71.683596247508,-0.0065186073569347,6.9956695669567,2196736.4158941,-5581.8333484459,3071279.8839485,12.195669566957,0,0
-71.683595627386,-0.0039356230602204,7.000100010001,2196736.4158941,-5581.8333484459,3071279.8839485,12.200100010001,0,0
-71.683595007264,-0.0013526387635039,7.0045304530453,2196736.4158941,-5581.8333484459,3071279.8839485,12.204530453045,0,0
-71.683594387142,0.0012303455332104,7.0089608960896,2196736.4158941,-5581.8333484459,3071279.8839485,12.20896089609,0,0
-71.68359376702,0.0038133298299268,7.0133913391339,2196736.4158941,-5581.8333484459,3071279.8839485,12.213391339134,0,0
-71.683593146898,0.0063963141266412,7.0178217821782,2196736.4158941,-5581.8333484459,3071279.8839485,12.217821782178,0,0
-71.683592526776,0.0089792984233576,7.0222522252225,2196736.4158941,-5581.8333484459,3071279.8839485,12.222252225223,0,0
-71.683591906654,0.011562282720072,7.0266826682668,2196736.4158941,-5581.8333484459,3071279.8839485,12.226682668267,0,0
-71.683591286532,0.014145267016788,7.0311131113111,2196736.4158941,-5581.8333484459,3071279.8839485,12.231113111311,0,0
-71.68359066641,0.016728251313503,7.0355435543554,2196736.4158941,-5581.8333484459,3071279.8839485,12.235543554355,0,0
-71.683590046287,0.019311235610219,7.0399739973997,2196736.4158941,-5581.8333484459,3071279.8839485,12.2399739974,0,0
-71.683589426165,0.021894219906933,7.044404440444,2196736.4158941,-5581.8333484459,3071279.8839485,12.244404440444,0,0
-71.683588806043,0.02447720420365,7.0488348834883,2196736.4158941,-5581.8333484459,3071279.8839485,12.248834883488,0,0
-71.683588185921,0.027060188500364,7.0532653265327,2196736.4158941,-5581.8333484459,3071279.8839485,12.253265326533,0,0
-71.683587565799,0.02964317279708,7.057695769577,2196736.4158941,-5581.8333484459,3071279.8839485,12.257695769577,0,0
-71.683586945677,0.032226157093795,7.0621262126213,2196736.4158941,-5581.8333484459,3071279.8839485,12.262126212621,0,0
-71.683586325555,0.034809141390509,7.0665566556656,2196736.4158941,-5581.8333484459,3071279.8839485,12.266556655666,0,0
-71.683585705433,0.037392125687226,7.0709870987099,2196736.4158941,-5581.8333484459,3071279.8839485,12.27098709871,0,0
-71.683585085311,0.039975109983941,7.0754175417542,2196736.4158941,-5581.8333484459,3071279.8839485,12.275417541754,0,0
-71.683584465189,0.042558094280657,7.0798479847985,2196736.4158941,-5581.8333484459,3071279.8839485,12.279847984798,0,0
-71.683583845066,0.045141078577372,7.0842784278428,2196736.4158941,-5581.8333484459,3071279.8839485,12.284278427843,0,0
-71.683583224944,0.047724062874087,7.0887088708871,2196736.4158941,-5581.8333484459,3071279.8839485,12.288708870887,0,0
-71.683582604822,0.050307047170804,7.0931393139314,2196736.4158941,-5581.8333484459,3071279.8839485,12.293139313931,0,0
-71.6835819847,0.052890031467518,7.0975697569757,2196736.4158941,-5581.8333484459,3071279.8839485,12.297569756976,0,0
-71.683581364578,0.055473015764232,7.10200020002,2196736.4158941,-5581.8333484459,3071279.8839485,12.30200020002,0,0
-71.683580744456,0.058056000060949,7.1064306430643,2196736.4158941,-5581.8333484459,3071279.8839485,12.306430643064,0,0
-71.683580124334,0.060638984357663,7.1108610861086,2196736.4158941,-5581.8333484459,3071279.8839485,12.310861086109,0,0
-71.683579504212,0.06322196865438,7.1152915291529,2196736.4158941,-5581.8333484459,3071279.8839485,12.315291529153,0,0
-71.68357888409,0.065804952951094,7.1197219721972,2196736.4158941,-5581.8333484459,3071279.8839485,12.319721972197,0,0
-71.683578263968,0.06838793724781,7.1241524152415,2196736.4158941,-5581.8333484459,3071279.8839485,12.324152415242,0,0
-71.683577643845,0.070970921544525,7.1285828582858,2196736.4158941,-5581.8333484459,3071279.8839485,12.328582858286,0,0
-71.683577023723,0.073553905841241,7.1330133013301,2196736.4158941,-5581.8333484459,3071279.8839485,12.33301330133,0,0
-71.683576403601,0.076136890137956,7.1374437443744,2196736.4158941,-5581.8333484459,3071279.8839485,12.337443744374,0,0
-71.683575783479,0.078719874434672,7.1418741874187,2196736.4158941,-5581.8333484459,3071279.8839485,12.341874187419,0,0
-71.683575163357,0.081302858731386,7.146304630463,2196736.4158941,-5581.8333484459,3071279.8839485,12.346304630463,0,0
-71.683574543235,0.083885843028103,7.1507350735073,2196736.4158941,-5581.8333484459,3071279.8839485,12.350735073507,0,0
-71.683573923113,0.086468827324817,7.1551655165517,2196736.4158941,-5581.8333484459,3071279.8839485,12.355165516552,0,0
-71.683573302991,0.089051811621532,7.159595959596,2196736.4158941,-5581.8333484459,3071279.8839485,12.359595959596,0,0
-71.683572682869,0.091634795918248,7.1640264026403,2196736.4158941,-5581.8333484459,3071279.8839485,12.36402640264,0,0
-71.683572062747,0.094217780214963,7.1684568456846,2196736.4158941,-5581.8333484459,3071279.8839485,12.368456845685,0,0
-71.683571442625,0.096800764511679,7.1728872887289,2196736.4158941,-5581.8333484459,3071279.8839485,12.372887288729,0,0
-71.683570822502,0.099383748808395,7.1773177317732,2196736.4158941,-5581.8333484459,3071279.8839485,12.377317731773,0,0
-71.68357020238,0.10196673310511,7.1817481748175,2196736.4158941,-5581.8333484459,3071279.8839485,12.381748174817,0,0
-71.683569582258,0.10454971740182,7.1861786178618,2196736.4158941,-5581.8333484459,3071279.8839485,12.386178617862,0,0
-71.683568962136,0.10713270169854,7.1906090609061,2196736.4158941,-5581.8333484459,3071279.8839485,12.390609060906,0,0
-71.683568342014,0.10971568599526,7.1950395039504,2196736.4158941,-5581.8333484459,3071279.8839485,12.39503950395,0,0
-71.683567721892,0.11229867029197,7.1994699469947,2196736.4158941,-5581.8333484459,3071279.8839485,12.399469946995,0,0
-71.68356710177,0.11488165458869,7.203900390039,2196736.4158941,-5581.8333484459,3071279.8839485,12.403900390039,0,0
-71.683566481648,0.1174646388854,7.2083308330833,2196736.4158941,-5581.8333484459,3071279.8839485,12.408330833083,0,0
-71.683565861526,0.12004762318212,7.2127612761276,2196736.4158941,-5581.8333484459,3071279.8839485,12.412761276128,0,0
-71.683565241404,0.12263060747883,7.2171917191719,2196736.4158941,-5581.8333484459,3071279.8839485,12.417191719172,0,0
-71.683564621281,0.12521359177555,7.2216221622162,2196736.4158941,-5581.8333484459,3071279.8839485,12.421622162216,0,0
-71.683564001159,0.12779657607226,7.2260526052605,2196736.4158941,-5581.8333484459,3071279.8839485,12.426052605261,0,0
-71.683563381037,0.13037956036898,7.2304830483048,2196736.4158941,-5581.8333484459,3071279.8839485,12.430483048305,0,0
-71.683562760915,0.13296254466569,7.2349134913491,2196736.4158941,-5581.8333484459,3071279.8839485,12.434913491349,0,0
-71.683562140793,0.13554552896241,7.2393439343934,2196736.4158941,-5581.8333484459,3071279.8839485,12.439343934393,0,0
-71.683561520671,0.13812851325912,7.2437743774377,2196736.4158941,-5581.8333484459,3071279.8839485,12.443774377438,0,0
-71.683560900549,0.14071149755584,7.248204820482,2196736.4158941,-5581.8333484459,3071279.8839485,12.448204820482,0,0
-71.683560280427,0.14329448185255,7.2526352635264,2196736.4158941,-5581.8333484459,3071279.8839485,12.452635263526,0,0
-71.683559660305,0.14587746614927,7.2570657065707,2196736.4158941,-5581.8333484459,3071279.8839485,12.457065706571,0,0
-71.683559040183,0.14846045044598,7.261496149615,2196736.4158941,-5581.8333484459,3071279.8839485,12.461496149615,0,0
-71.68355842006,0.1510434347427,7.2659265926593,2196736.4158941,-5581.8333484459,3071279.8839485,12.465926592659,0,0
-71.683557799938,0.15362641903941,7.2703570357036,2196736.4158941,-5581.8333484459,3071279.8839485,12.470357035704,0,0
-71.683557179816,0.15620940333613,7.2747874787479,2196736.4158941,-5581.8333484459,3071279.8839485,12.474787478748,0,0
-71.683556559694,0.15879238763285,7.2792179217922,2196736.4158941,-5581.8333484459,3071279.8839485,12.479217921792,0,0
-71.683555939572,0.16137537192956,7.2836483648365,2196736.4158941,-5581.8333484459,3071279.8839485,12.483648364836,0,0
-71.68355531945,0.16395835622628,7.2880788078808,2196736.4158941,-5581.8333484459,3071279.8839485,12.488078807881,0,0
-71.683554699328,0.16654134052299,7.2925092509251,2196736.4158941,-5581.8333484459,3071279.8839485,12.492509250925,0,0
-71.683554079206,0.16912432481971,7.2969396939694,2196736.4158941,-5581.8333484459,3071279.8839485,12.496939693969,0,0
-71.683553459084,0.17170730911642,7.3013701370137,2196736.4158941,-5581.8333484459,3071279.8839485,12.501370137014,0,0
-71.683552838962,0.17429029341314,7.305800580058,2196736.4158941,-5581.8333484459,3071279.8839485,12.505800580058,0,0
-71.683552218839,0.17687327770985,7.3102310231023,2196736.4158941,-5581.8333484459,3071279.8839485,12.510231023102,0,0
-71.683551598717,0.17945626200657,7.3146614661466,2196736.4158941,-5581.8333484459,3071279.8839485,12.514661466147,0,0
-71.683550978595,0.18203924630329,7.3190919091909,2196736.4158941,-5581.8333484459,3071279.8839485,12.519091909191,0,0
-71.683550358473,0.1846222306,7.3235223522352,2196736.4158941,-5581.8333484459,3071279.8839485,12.523522352235,0,0
-71.683549738351,0.18720521489672,7.3279527952795,2196736.4158941,-5581.8333484459,3071279.8839485,12.52795279528,0,0
-71.683549118229,0.18978819919343,7.3323832383238,2196736.4158941,-5581.8333484459,3071279.8839485,12.532383238324,0,0
-71.683548498107,0.19237118349015,7.3368136813681,2196736.4158941,-5581.8333484459,3071279.8839485,12.536813681368,0,0
-71.683547877985,0.19495416778686,7.3412441244124,2196736.4158941,-5581.8333484459,3071279.8839485,12.541244124412,0,0
-71.683547257863,0.19753715208358,7.3456745674567,2196736.4158941,-5581.8333484459,3071279.8839485,12.545674567457,0,0
-71.683546637741,0.20012013638029,7.350105010501,2196736.4158941,-5581.8333484459,3071279.8839485,12.550105010501,0,0
-71.683546017618,0.20270312067701,7.3545354535454,2196736.4158941,-5581.8333484459,3071279.8839485,12.554535453545,0,0
-71.683545397496,0.20528610497372,7.3589658965897,2196736.4158941,-5581.8333484459,3071279.8839485,12.55896589659,0,0
-71.683544777374,0.20786908927044,7.363396339634,2196736.4158941,-5581.8333484459,3071279.8839485,12.563396339634,0,0
-71.683544157252,0.21045207356715,7.3678267826783,2196736.4158941,-5581.8333484459,3071279.8839485,12.567826782678,0,0
-71.68354353713,0.21303505786387,7.3722572257226,2196736.4158941,-5581.8333484459,3071279.8839485,12.572257225723,0,0
-71.683542917008,0.21561804216058,7.3766876687669,2196736.4158941,-5581.8333484459,3071279.8839485,12.576687668767,0,0
-71.683542296886,0.2182010264573,7.3811181118112,2196736.4158941,-5581.8333484459,3071279.8839485,12.581118111811,0,0
-71.683541676764,0.22078401075402,7.3855485548555,2196736.4158941,-5581.8333484459,3071279.8839485,12.585548554855,0,0
-71.683541056642,0.22336699505073,7.3899789978998,2196736.4158941,-5581.8333484459,3071279.8839485,12.5899789979,0,0
-71.68354043652,0.22594997934745,7.3944094409441,2196736.4158941,-5581.8333484459,3071279.8839485,12.594409440944,0,0
-71.683539814062,0.22853295520052,7.3988398839884,2201017.7155809,-23901.597364047,3021747.9046008,12.598839883988,0,0
-71.683539190923,0.23111592859408,7.4032703270327,2201017.7155809,-23901.597364047,3021747.9046008,12.603270327033,0,0
-71.683538567785,0.23369890198765,7.407700770077,2201017.7155809,-23901.597364047,3021747.9046008,12.607700770077,0,0
-71.683537944647,0.23628187538121,7.4121312131213,2201017.7155809,-23901.597364047,3021747.9046008,12.612131213121,0,0
-71.683537321508,0.23886484877477,7.4165616561656,2201017.7155809,-23901.597364047,3021747.9046008,12.616561656166,0,0
-71.68353669837,0.24144782216834,7.4209920992099,2201017.7155809,-23901.597364047,3021747.9046008,12.62099209921,0,0
-71.683536075232,0.2440307955619,7.4254225422542,2201017.7155809,-23901.597364047,3021747.9046008,12.625422542254,0,0
-71.683535452093,0.24661376895546,7.4298529852985,2201017.7155809,-23901.597364047,3021747.9046008,12.629852985299,0,0
-71.683534828955,0.24919674234903,7.4342834283428,2201017.7155809,-23901.597364047,3021747.9046008,12.634283428343,0,0
-71.683534205817,0.25177971574259,7.4387138713871,2201017.7155809,-23901.597364047,3021747.9046008,12.638713871387,0,0
-71.683533582678,0.25436268913615,7.4431443144314,2201017.7155809,-23901.597364047,3021747.9046008,12.643144314431,0,0
-71.68353295954,0.25694566252972,7.4475747574757,2201017.7155809,-23901.597364047,3021747.9046008,12.647574757476,0,0
-71.683532336401,0.25952863592328,7.4520052005201,2201017.7155809,-23901.597364047,3021747.9046008,12.65200520052,0,0
-71.683531713263,0.26211160931684,7.4564356435644,2201017.7155809,-23901.597364047,3021747.9046008,12.656435643564,0,0
-71.683531090125,0.26469458271041,7.4608660866087,2201017.7155809,-23901.597364047,3021747.9046008,12.660866086609,0,0
-71.683530466986,0.26727755610397,7.465296529653,2201017.7155809,-23901.597364047,3021747.9046008,12.665296529653,0,0
-71.683529843848,0.26986052949753,7.4697269726973,2201017.7155809,-23901.597364047,3021747.9046008,12.669726972697,0,0
-71.68352922071,0.2724435028911,7.4741574157416,2201017.7155809,-23901.597364047,3021747.9046008,12.674157415742,0,0
-71.683528597571,0.27502647628466,7.4785878587859,2201017.7155809,-23901.597364047,3021747.9046008,12.678587858786,0,0
-71.683527974433,0.27760944967822,7.4830183018302,2201017.7155809,-23901.597364047,3021747.9046008,12.68301830183,0,0
-71.683527351295,0.28019242307179,7.4874487448745,2201017.7155809,-23901.597364047,3021747.9046008,12.687448744874,0,0
-71.683526728156,0.28277539646535,7.4918791879188,2201017.7155809,-23901.597364047,3021747.9046008,12.691879187919,0,0
-71.683526105018,0.28535836985891,7.4963096309631,2201017.7155809,-23901.597364047,3021747.9046008,12.696309630963,0,0
-71.68352548188,0.28794134325247,7.5007400740074,2201017.7155809,-23901.597364047,3021747.9046008,12.700740074007,0,0
-71.683524856031,0.29052431961987,7.5051705170517,2245993.2267365,-12119.988541056,3006380.6544221,12.705170517052,0,0
-71.683524223983,0.29310730278889,7.509600960096,2245993.2267365,-12119.988541056,3006380.6544221,12.709600960096,0,0
-71.683523591935,0.29569028595791,7.5140314031403,2245993.2267365,-12119.988541056,3006380.6544221,12.71403140314,0,0
-71.683522959886,0.29827326912693,7.5184618461846,2245993.2267365,-12119.988541056,3006380.6544221,12.718461846185,0,0
-71.683522327838,0.30085625229596,7.5228922892289,2245993.2267365,-12119.988541056,3006380.6544221,12.722892289229,0,0
-71.68352169579,0.30343923546498,7.5273227322732,2245993.2267365,-12119.988541056,3006380.6544221,12.727322732273,0,0
-71.683521063742,0.306022218634,7.5317531753175,2245993.2267365,-12119.988541056,3006380.6544221,12.731753175318,0,0
-71.683520431694,0.30860520180302,7.5361836183618,2245993.2267365,-12119.988541056,3006380.6544221,12.736183618362,0,0
-71.683519799645,0.31118818497204,7.5406140614061,2245993.2267365,-12119.988541056,3006380.6544221,12.740614061406,0,0
-71.683519167597,0.31377116814106,7.5450445044504,2245993.2267365,-12119.988541056,3006380.6544221,12.74504450445,0,0
-71.683518535549,0.31635415131008,7.5494749474947,2245993.2267365,-12119.988541056,3006380.6544221,12.749474947495,0,0
-71.683517903501,0.3189371344791,7.5539053905391,2245993.2267365,-12119.988541056,3006380.6544221,12.753905390539,0,0
-71.683517271453,0.32152011764812,7.5583358335834,2245993.2267365,-12119.988541056,3006380.6544221,12.758335833583,0,0
-71.683516639404,0.32410310081715,7.5627662766277,2245993.2267365,-12119.988541056,3006380.6544221,12.762766276628,0,0
-71.683516007356,0.32668608398617,7.567196719672,2245993.2267365,-12119.988541056,3006380.6544221,12.767196719672,0,0
-71.683515375308,0.32926906715519,7.5716271627163,2245993.2267365,-12119.988541056,3006380.6544221,12.771627162716,0,0
-71.68351474326,0.33185205032421,7.5760576057606,2245993.2267365,-12119.988541056,3006380.6544221,12.776057605761,0,0
-71.683514111212,0.33443503349323,7.5804880488049,2245993.2267365,-12119.988541056,3006380.6544221,12.780488048805,0,0
-71.683513479164,0.33701801666225,7.5849184918492,2245993.2267365,-12119.988541056,3006380.6544221,12.784918491849,0,0
-71.683512847115,0.33960099983127,7.5893489348935,2245993.2267365,-12119.988541056,3006380.6544221,12.789348934893,0,0
-71.683512215067,0.34218398300029,7.5937793779378,2245993.2267365,-12119.988541056,3006380.6544221,12.793779377938,0,0
-71.683511583019,0.34476696616931,7.5982098209821,2245993.2267365,-12119.988541056,3006380.6544221,12.798209820982,0,0
-71.683510950971,0.34734994933833,7.6026402640264,2245993.2267365,-12119.988541056,3006380.6544221,12.802640264026,0,0
-71.683510318923,0.34993293250736,7.6070707070707,2245993.2267365,-12119.988541056,3006380.6544221,12.807070707071,0,0
-71.683509686874,0.35251591567638,7.611501150115,2245993.2267365,-12119.988541056,3006380.6544221,12.811501150115,0,0
-71.683509054826,0.3550988988454,7.6159315931593,2245993.2267365,-12119.988541056,3006380.6544221,12.815931593159,0,0
-71.683508422778,0.35768188201442,7.6203620362036,2245993.2267365,-12119.988541056,3006380.6544221,12.820362036204,0,0
-71.68350779073,0.36026486518344,7.6247924792479,2245993.2267365,-12119.988541056,3006380.6544221,12.824792479248,0,0
-71.683507158682,0.36284784835246,7.6292229222922,2245993.2267365,-12119.988541056,3006380.6544221,12.829222922292,0,0
-71.683506526633,0.36543083152148,7.6336533653365,2245993.2267365,-12119.988541056,3006380.6544221,12.833653365337,0,0
-71.683505894585,0.3680138146905,7.6380838083808,2245993.2267365,-12119.988541056,3006380.6544221,12.838083808381,0,0
-71.683505262537,0.37059679785952,7.6425142514251,2245993.2267365,-12119.988541056,3006380.6544221,12.842514251425,0,0
-71.683504630489,0.37317978102855,7.6469446944694,2245993.2267365,-12119.988541056,3006380.6544221,12.846944694469,0,0
-71.683503998441,0.37576276419757,7.6513751375138,2245993.2267365,-12119.988541056,3006380.6544221,12.851375137514,0,0
-71.683503366393,0.37834574736659,7.6558055805581,2245993.2267365,-12119.988541056,3006380.6544221,12.855805580558,0,0
-71.683502734344,0.38092873053561,7.6602360236024,2245993.2267365,-12119.988541056,3006380.6544221,12.860236023602,0,0
-71.683502102296,0.38351171370463,7.6646664666467,2245993.2267365,-12119.988541056,3006380.6544221,12.864666466647,0,0
-71.683501470248,0.38609469687365,7.669096909691,2245993.2267365,-12119.988541056,3006380.6544221,12.869096909691,0,0
-71.6835008382,0.38867768004267,7.6735273527353,2245993.2267365,-12119.988541056,3006380.6544221,12.873527352735,0,0
-71.683500206152,0.39126066321169,7.6779577957796,2245993.2267365,-12119.988541056,3006380.6544221,12.87795779578,0,0
-71.683499574103,0.39384364638071,7.6823882388239,2245993.2267365,-12119.988541056,3006380.6544221,12.882388238824,0,0
-71.683498942055,0.39642662954973,7.6868186818682,2245993.2267365,-12119.988541056,3006380.6544221,12.886818681868,0,0
-71.683498310007,0.39900961271876,7.6912491249125,2245993.2267365,-12119.988541056,3006380.6544221,12.891249124912,0,0
-71.683497677959,0.40159259588778,7.6956795679568,2245993.2267365,-12119.988541056,3006380.6544221,12.895679567957,0,0
-71.683497045911,0.4041755790568,7.7001100110011,2245993.2267365,-12119.988541056,3006380.6544221,12.900110011001,0,0
-71.683496413862,0.40675856222582,7.7045404540454,2245993.2267365,-12119.988541056,3006380.6544221,12.904540454045,0,0
-71.683495781814,0.40934154539484,7.7089708970897,2245993.2267365,-12119.988541056,3006380.6544221,12.90897089709,0,0
-71.683495149766,0.41192452856386,7.713401340134,2245993.2267365,-12119.988541056,3006380.6544221,12.913401340134,0,0
-71.683494517718,0.41450751173288,7.7178317831783,2245993.2267365,-12119.988541056,3006380.6544221,12.917831783178,0,0
-71.68349388567,0.4170904949019,7.7222622262226,2245993.2267365,-12119.988541056,3006380.6544221,12.922262226223,0,0
-71.683493253622,0.41967347807093,7.7266926692669,2245993.2267365,-12119.988541056,3006380.6544221,12.926692669267,0,0
-71.683492621573,0.42225646123995,7.7311231123112,2245993.2267365,-12119.988541056,3006380.6544221,12.931123112311,0,0
-71.683491989525,0.42483944440897,7.7355535553555,2245993.2267365,-12119.988541056,3006380.6544221,12.935553555356,0,0
-71.683491357477,0.42742242757799,7.7399839983998,2245993.2267365,-12119.988541056,3006380.6544221,12.9399839984,0,0
-71.683490725429,0.43000541074701,7.7444144414441,2245993.2267365,-12119.988541056,3006380.6544221,12.944414441444,0,0
-71.683490093381,0.43258839391603,7.7488448844884,2245993.2267365,-12119.988541056,3006380.6544221,12.948844884488,0,0
-71.683489461332,0.43517137708505,7.7532753275328,2245993.2267365,-12119.988541056,3006380.6544221,12.953275327533,0,0
-71.683488829284,0.43775436025407,7.7577057705771,2245993.2267365,-12119.988541056,3006380.6544221,12.957705770577,0,0
-71.683488197236,0.44033734342309,7.7621362136214,2245993.2267365,-12119.988541056,3006380.6544221,12.962136213621,0,0
-71.683487565188,0.44292032659211,7.7665666566657,2245993.2267365,-12119.988541056,3006380.6544221,12.966566656666,0,0
-71.68348693314,0.44550330976114,7.77099709971,2245993.2267365,-12119.988541056,3006380.6544221,12.97099709971,0,0
-71.683486301091,0.44808629293016,7.7754275427543,2245993.2267365,-12119.988541056,3006380.6544221,12.975427542754,0,0
-71.683485669043,0.45066927609918,7.7798579857986,2245993.2267365,-12119.988541056,3006380.6544221,12.979857985799,0,0
-71.683485036995,0.4532522592682,7.7842884288429,2245993.2267365,-12119.988541056,3006380.6544221,12.984288428843,0,0
-71.683484404947,0.45583524243722,7.7887188718872,2245993.2267365,-12119.988541056,3006380.6544221,12.988718871887,0,0
-71.683483772899,0.45841822560624,7.7931493149315,2245993.2267365,-12119.988541056,3006380.6544221,12.993149314931,0,0
-71.683483140851,0.46100120877526,7.7975797579758,2245993.2267365,-12119.988541056,3006380.6544221,12.997579757976,0,0
-71.683482508802,0.46358419194428,7.8020102010201,2245993.2267365,-12119.988541056,3006380.6544221,13.00201020102,0,0
-71.683481876754,0.4661671751133,7.8064406440644,2245993.2267365,-12119.988541056,3006380.6544221,13.006440644064,0,0
-71.683481244706,0.46875015828233,7.8108710871087,2245993.2267365,-12119.988541056,3006380.6544221,13.010871087109,0,0
-71.683480612658,0.47133314145135,7.815301530153,2245993.2267365,-12119.988541056,3006380.6544221,13.015301530153,0,0
-71.68347998061,0.47391612462037,7.8197319731973,2245993.2267365,-12119.988541056,3006380.6544221,13.019731973197,0,0
-71.683479348561,0.47649910778939,7.8241624162416,2245993.2267365,-12119.988541056,3006380.6544221,13.024162416242,0,0
-71.683478716513,0.47908209095841,7.8285928592859,2245993.2267365,-12119.988541056,3006380.6544221,13.028592859286,0,0
-71.683478084465,0.48166507412743,7.8330233023302,2245993.2267365,-12119.988541056,3006380.6544221,13.03302330233,0,0
-71.683477452417,0.48424805729645,7.8374537453745,2245993.2267365,-12119.988541056,3006380.6544221,13.037453745375,0,0
-71.683476820369,0.48683104046547,7.8418841884188,2245993.2267365,-12119.988541056,3006380.6544221,13.041884188419,0,0
-71.683476188321,0.48941402363449,7.8463146314631,2245993.2267365,-12119.988541056,3006380.6544221,13.046314631463,0,0
-71.683475556272,0.49199700680351,7.8507450745074,2245993.2267365,-12119.988541056,3006380.6544221,13.050745074507,0,0
-71.683474924224,0.49457998997253,7.8551755175518,2245993.2267365,-12119.988541056,3006380.6544221,13.055175517552,0,0
-71.683474292176,0.49716297314156,7.8596059605961,2245993.2267365,-12119.988541056,3006380.6544221,13.059605960596,0,0
-71.683473660128,0.49974595631058,7.8640364036404,2245993.2267365,-12119.988541056,3006380.6544221,13.06403640364,0,0
-71.68347302808,0.5023289394796,7.8684668466847,2245993.2267365,-12119.988541056,3006380.6544221,13.068466846685,0,0
-71.683472396031,0.50491192264862,7.872897289729,2245993.2267365,-12119.988541056,3006380.6544221,13.072897289729,0,0
-71.683471763983,0.50749490581764,7.8773277327733,2245993.2267365,-12119.988541056,3006380.6544221,13.077327732773,0,0
-71.683471131935,0.51007788898666,7.8817581758176,2245993.2267365,-12119.988541056,3006380.6544221,13.081758175818,0,0
-71.683470499887,0.51266087215568,7.8861886188619,2245993.2267365,-12119.988541056,3006380.6544221,13.086188618862,0,0
-71.683469867839,0.5152438553247,7.8906190619062,2245993.2267365,-12119.988541056,3006380.6544221,13.090619061906,0,0
-71.68346923579,0.51782683849373,7.8950495049505,2245993.2267365,-12119.988541056,3006380.6544221,13.09504950495,0,0
-71.683468603742,0.52040982166275,7.8994799479948,2245993.2267365,-12119.988541056,3006380.6544221,13.099479947995,0,0
-71.683467971694,0.52299280483177,7.9039103910391,2245993.2267365,-12119.988541056,3006380.6544221,13.103910391039,0,0
-71.683467339646,0.52557578800079,7.9083408340834,2245993.2267365,-12119.988541056,3006380.6544221,13.108340834083,0,0
-71.683466707598,0.52815877116981,7.9127712771277,2245993.2267365,-12119.988541056,3006380.6544221,13.112771277128,0,0
-71.68346607555,0.53074175433883,7.917201720172,2245993.2267365,-12119.988541056,3006380.6544221,13.117201720172,0,0
-71.683465443501,0.53332473750785,7.9216321632163,2245993.2267365,-12119.988541056,3006380.6544221,13.121632163216,0,0
-71.683464811453,0.53590772067687,7.9260626062606,2245993.2267365,-12119.988541056,3006380.6544221,13.126062606261,0,0
-71.683464179405,0.53849070384589,7.9304930493049,2245993.2267365,-12119.988541056,3006380.6544221,13.130493049305,0,0
-71.683463547357,0.54107368701492,7.9349234923492,2245993.2267365,-12119.988541056,3006380.6544221,13.134923492349,0,0
-71.683462915309,0.54365667018394,7.9393539353935,2245993.2267365,-12119.988541056,3006380.6544221,13.139353935394,0,0
-71.68346228326,0.54623965335296,7.9437843784378,2245993.2267365,-12119.988541056,3006380.6544221,13.143784378438,0,0
-71.683461651212,0.54882263652198,7.9482148214821,2245993.2267365,-12119.988541056,3006380.6544221,13.148214821482,0,0
-71.683461019164,0.551405619691,7.9526452645265,2245993.2267365,-12119.988541056,3006380.6544221,13.152645264526,0,0
-71.683460387116,0.55398860286002,7.9570757075708,2245993.2267365,-12119.988541056,3006380.6544221,13.157075707571,0,0
-71.683459755068,0.55657158602904,7.9615061506151,2245993.2267365,-12119.988541056,3006380.6544221,13.161506150615,0,0
-71.683459123019,0.55915456919806,7.9659365936594,2245993.2267365,-12119.988541056,3006380.6544221,13.165936593659,0,0
-71.683458490971,0.56173755236708,7.9703670367037,2245993.2267365,-12119.988541056,3006380.6544221,13.170367036704,0,0
-71.683457858923,0.56432053553611,7.974797479748,2245993.2267365,-12119.988541056,3006380.6544221,13.174797479748,0,0
-71.683457226875,0.56690351870513,7.9792279227923,2245993.2267365,-12119.988541056,3006380.6544221,13.179227922792,0,0
-71.683456594827,0.56948650187415,7.9836583658366,2245993.2267365,-12119.988541056,3006380.6544221,13.183658365837,0,0
-71.683455962779,0.57206948504317,7.9880888088809,2245993.2267365,-12119.988541056,3006380.6544221,13.188088808881,0,0
-71.68345533073,0.57465246821219,7.9925192519252,2245993.2267365,-12119.988541056,3006380.6544221,13.192519251925,0,0
-71.683454698682,0.57723545138121,7.9969496949695,2245993.2267365,-12119.988541056,3006380.6544221,13.196949694969,0,0
-71.683454066634,0.57981843455023,8.0013801380138,2245993.2267365,-12119.988541056,3006380.6544221,13.201380138014,0,0
-71.683453434586,0.58240141771925,8.0058105810581,2245993.2267365,-12119.988541056,3006380.6544221,13.205810581058,0,0
-71.683452802538,0.58498440088827,8.0102410241024,2245993.2267365,-12119.988541056,3006380.6544221,13.210241024102,0,0
-71.683452170489,0.5875673840573,8.0146714671467,2245993.2267365,-12119.988541056,3006380.6544221,13.214671467147,0,0
-71.683451538441,0.59015036722632,8.019101910191,2245993.2267365,-12119.988541056,3006380.6544221,13.219101910191,0,0
-71.683450906393,0.59273335039534,8.0235323532353,2245993.2267365,-12119.988541056,3006380.6544221,13.223532353235,0,0
-71.683450274345,0.59531633356436,8.0279627962796,2245993.2267365,-12119.988541056,3006380.6544221,13.22796279628,0,0
-71.683449642297,0.59789931673338,8.0323932393239,2245993.2267365,-12119.988541056,3006380.6544221,13.232393239324,0,0
-71.683449010248,0.6004822999024,8.0368236823682,2245993.2267365,-12119.988541056,3006380.6544221,13.236823682368,0,0
-71.6834483782,0.60306528307142,8.0412541254125,2245993.2267365,-12119.988541056,3006380.6544221,13.241254125413,0,0
-71.683447746152,0.60564826624044,8.0456845684568,2245993.2267365,-12119.988541056,3006380.6544221,13.245684568457,0,0
-71.683447114104,0.60823124940946,8.0501150115011,2245993.2267365,-12119.988541056,3006380.6544221,13.250115011501,0,0
-71.683446482056,0.61081423257848,8.0545454545455,2245993.2267365,-12119.988541056,3006380.6544221,13.254545454545,0,0
-71.683445850008,0.6133972157475,8.0589758975898,2245993.2267365,-12119.988541056,3006380.6544221,13.25897589759,0,0
-71.683445217959,0.61598019891653,8.0634063406341,2245993.2267365,-12119.988541056,3006380.6544221,13.263406340634,0,0
-71.683444585911,0.61856318208555,8.0678367836784,2245993.2267365,-12119.988541056,3006380.6544221,13.267836783678,0,0
-71.683443953863,0.62114616525457,8.0722672267227,2245993.2267365,-12119.988541056,3006380.6544221,13.272267226723,0,0
-71.683443321815,0.62372914842359,8.076697669767,2245993.2267365,-12119.988541056,3006380.6544221,13.276697669767,0,0
-71.683442689767,0.62631213159261,8.0811281128113,2245993.2267365,-12119.988541056,3006380.6544221,13.281128112811,0,0
-71.683442057718,0.62889511476163,8.0855585558556,2245993.2267365,-12119.988541056,3006380.6544221,13.285558555856,0,0
-71.68344142567,0.63147809793065,8.0899889988999,2245993.2267365,-12119.988541056,3006380.6544221,13.2899889989,0,0
-71.683440793622,0.63406108109967,8.0944194419442,2245993.2267365,-12119.988541056,3006380.6544221,13.294419441944,0,0
-71.683440161574,0.6366440642687,8.0988498849885,2245993.2267365,-12119.988541056,3006380.6544221,13.298849884988,0,0
-71.683439529526,0.63922704743772,8.1032803280328,2245993.2267365,-12119.988541056,3006380.6544221,13.303280328033,0,0
-71.683438897478,0.64181003060674,8.1077107710771,2245993.2267365,-12119.988541056,3006380.6544221,13.307710771077,0,0
-71.683438265429,0.64439301377576,8.1121412141214,2245993.2267365,-12119.988541056,3006380.6544221,13.312141214121,0,0
-71.683437633381,0.64697599694478,8.1165716571657,2245993.2267365,-12119.988541056,3006380.6544221,13.316571657166,0,0
-71.683437001333,0.6495589801138,8.12100210021,2245993.2267365,-12119.988541056,3006380.6544221,13.32100210021,0,0
-71.683436369285,0.65214196328282,8.1254325432543,2245993.2267365,-12119.988541056,3006380.6544221,13.325432543254,0,0
-71.683435737237,0.65472494645184,8.1298629862986,2245993.2267365,-12119.988541056,3006380.6544221,13.329862986299,0,0
-71.683435105188,0.65730792962087,8.1342934293429,2245993.2267365,-12119.988541056,3006380.6544221,13.334293429343,0,0
-71.68343447314,0.65989091278988,8.1387238723872,2245993.2267365,-12119.988541056,3006380.6544221,13.338723872387,0,0
-71.683433841092,0.66247389595891,8.1431543154315,2245993.2267365,-12119.988541056,3006380.6544221,13.343154315432,0,0
-71.683433209044,0.66505687912793,8.1475847584758,2245993.2267365,-12119.988541056,3006380.6544221,13.347584758476,0,0
-71.683432576996,0.66763986229695,8.1520152015202,2245993.2267365,-12119.988541056,3006380.6544221,13.35201520152,0,0
-71.683431944947,0.67022284546597,8.1564456445645,2245993.2267365,-12119.988541056,3006380.6544221,13.356445644564,0,0
-71.683431312899,0.67280582863499,8.1608760876088,2245993.2267365,-12119.988541056,3006380.6544221,13.360876087609,0,0
-71.683430680851,0.67538881180401,8.1653065306531,2245993.2267365,-12119.988541056,3006380.6544221,13.365306530653,0,0
-71.683430048803,0.67797179497303,8.1697369736974,2245993.2267365,-12119.988541056,3006380.6544221,13.369736973697,0,0
-71.683429416755,0.68055477814205,8.1741674167417,2245993.2267365,-12119.988541056,3006380.6544221,13.374167416742,0,0
-71.683428784707,0.68313776131107,8.178597859786,2245993.2267365,-12119.988541056,3006380.6544221,13.378597859786,0,0
-71.683428152658,0.6857207444801,8.1830283028303,2245993.2267365,-12119.988541056,3006380.6544221,13.38302830283,0,0
-71.68342752061,0.68830372764912,8.1874587458746,2245993.2267365,-12119.988541056,3006380.6544221,13.387458745875,0,0
-71.683426888562,0.69088671081814,8.1918891889189,2245993.2267365,-12119.988541056,3006380.6544221,13.391889188919,0,0
-71.683426256514,0.69346969398716,8.1963196319632,2245993.2267365,-12119.988541056,3006380.6544221,13.396319631963,0,0
-71.683425624466,0.69605267715618,8.2007500750075,2245993.2267365,-12119.988541056,3006380.6544221,13.400750075008,0,0
-71.683424992417,0.6986356603252,8.2051805180518,2245993.2267365,-12119.988541056,3006380.6544221,13.405180518052,0,0
-71.683424360369,0.70121864349422,8.2096109610961,2245993.2267365,-12119.988541056,3006380.6544221,13.409610961096,0,0
-71.683423728321,0.70380162666324,8.2140414041404,2245993.2267365,-12119.988541056,3006380.6544221,13.41404140414,0,0
-71.683423096273,0.70638460983226,8.2184718471847,2245993.2267365,-12119.988541056,3006380.6544221,13.418471847185,0,0
-71.683422464225,0.70896759300128,8.222902290229,2245993.2267365,-12119.988541056,3006380.6544221,13.422902290229,0,0
-71.683421832176,0.71155057617031,8.2273327332733,2245993.2267365,-12119.988541056,3006380.6544221,13.427332733273,0,0
-71.683421200128,0.71413355933933,8.2317631763176,2245993.2267365,-12119.988541056,3006380.6544221,13.431763176318,0,0
-71.68342056808,0.71671654250835,8.2361936193619,2245993.2267365,-12119.988541056,3006380.6544221,13.436193619362,0,0
-71.683419936032,0.71929952567737,8.2406240624062,2245993.2267365,-12119.988541056,3006380.6544221,13.440624062406,0,0
-71.683419303984,0.72188250884639,8.2450545054505,2245993.2267365,-12119.988541056,3006380.6544221,13.445054505451,0,0
-71.683418671936,0.72446549201541,8.2494849484948,2245993.2267365,-12119.988541056,3006380.6544221,13.449484948495,0,0
-71.683418039887,0.72704847518443,8.2539153915392,2245993.2267365,-12119.988541056,3006380.6544221,13.453915391539,0,0
-71.683417407839,0.72963145835345,8.2583458345835,2245993.2267365,-12119.988541056,3006380.6544221,13.458345834583,0,0
-71.683416775791,0.73221444152247,8.2627762776278,2245993.2267365,-12119.988541056,3006380.6544221,13.462776277628,0,0
-71.683416143743,0.7347974246915,8.2672067206721,2245993.2267365,-12119.988541056,3006380.6544221,13.467206720672,0,0
-71.683415511695,0.73738040786052,8.2716371637164,2245993.2267365,-12119.988541056,3006380.6544221,13.471637163716,0,0
-71.683414879646,0.73996339102954,8.2760676067607,2245993.2267365,-12119.988541056,3006380.6544221,13.476067606761,0,0
-71.683414247598,0.74254637419856,8.280498049805,2245993.2267365,-12119.988541056,3006380.6544221,13.480498049805,0,0
-71.68341361555,0.74512935736758,8.2849284928493,2245993.2267365,-12119.988541056,3006380.6544221,13.484928492849,0,0
-71.683412983502,0.7477123405366,8.2893589358936,2245993.2267365,-12119.988541056,3006380.6544221,13.489358935894,0,0
-71.683412351454,0.75029532370562,8.2937893789379,2245993.2267365,-12119.988541056,3006380.6544221,13.493789378938,0,0
-71.683411719405,0.75287830687464,8.2982198219822,2245993.2267365,-12119.988541056,3006380.6544221,13.498219821982,0,0
-71.683411087357,0.75546129004366,8.3026502650265,2245993.2267365,-12119.988541056,3006380.6544221,13.502650265027,0,0
-71.683410455309,0.75804427321269,8.3070807080708,2245993.2267365,-12119.988541056,3006380.6544221,13.507080708071,0,0
-71.683409823261,0.76062725638171,8.3115111511151,2245993.2267365,-12119.988541056,3006380.6544221,13.511511151115,0,0
-71.683409191213,0.76321023955073,8.3159415941594,2245993.2267365,-12119.988541056,3006380.6544221,13.515941594159,0,0
-71.683408559165,0.76579322271975,8.3203720372037,2245993.2267365,-12119.988541056,3006380.6544221,13.520372037204,0,0
-71.683407927116,0.76837620588877,8.324802480248,2245993.2267365,-12119.988541056,3006380.6544221,13.524802480248,0,0
-71.683407295068,0.77095918905779,8.3292329232923,2245993.2267365,-12119.988541056,3006380.6544221,13.529232923292,0,0
-71.68340666302,0.77354217222681,8.3336633663366,2245993.2267365,-12119.988541056,3006380.6544221,13.533663366337,0,0
-71.683406030972,0.77612515539583,8.3380938093809,2245993.2267365,-12119.988541056,3006380.6544221,13.538093809381,0,0
-71.683405396037,0.77870813252468,8.3425242524252,2263875.5445631,-26777.234335696,2974165.0571819,13.542524252425,0,0
-71.683404759269,0.78129110581761,8.3469546954695,2263875.5445631,-26777.234335696,2974165.0571819,13.54695469547,0,0
-71.683404121546,0.78387408050579,8.3513851385139,2292770.8490571,-13990.599189813,2957243.9909514,13.551385138514,0,0
-71.683403478736,0.78645706263072,8.3558155815582,2292770.8490571,-13990.599189813,2957243.9909514,13.555815581558,0,0
-71.683402835925,0.78904004475566,8.3602460246025,2292770.8490571,-13990.599189813,2957243.9909514,13.560246024602,0,0
-71.683402193115,0.79162302688059,8.3646764676468,2292770.8490571,-13990.599189813,2957243.9909514,13.564676467647,0,0
-71.683401550304,0.79420600900553,8.3691069106911,2292770.8490571,-13990.599189813,2957243.9909514,13.569106910691,0,0
-71.683400907494,0.79678899113046,8.3735373537354,2292770.8490571,-13990.599189813,2957243.9909514,13.573537353735,0,0
-71.683400264684,0.79937197325539,8.3779677967797,2292770.8490571,-13990.599189813,2957243.9909514,13.57796779678,0,0
-71.683399621873,0.80195495538033,8.382398239824,2292770.8490571,-13990.599189813,2957243.9909514,13.582398239824,0,0
-71.683398979063,0.80453793750526,8.3868286828683,2292770.8490571,-13990.599189813,2957243.9909514,13.586828682868,0,0
-71.683398336252,0.80712091963019,8.3912591259126,2292770.8490571,-13990.599189813,2957243.9909514,13.591259125913,0,0
-71.683397693442,0.80970390175513,8.3956895689569,2292770.8490571,-13990.599189813,2957243.9909514,13.595689568957,0,0
-71.683397050632,0.81228688388006,8.4001200120012,2292770.8490571,-13990.599189813,2957243.9909514,13.600120012001,0,0
-71.683396407821,0.814869866005,8.4045504550455,2292770.8490571,-13990.599189813,2957243.9909514,13.604550455046,0,0
-71.683395765011,0.81745284812993,8.4089808980898,2292770.8490571,-13990.599189813,2957243.9909514,13.60898089809,0,0
-71.6833951222,0.82003583025487,8.4134113411341,2292770.8490571,-13990.599189813,2957243.9909514,13.613411341134,0,0
-71.68339447939,0.8226188123798,8.4178417841784,2292770.8490571,-13990.599189813,2957243.9909514,13.617841784178,0,0
-71.68339383658,0.82520179450473,8.4222722272227,2292770.8490571,-13990.599189813,2957243.9909514,13.622272227223,0,0
-71.683393193769,0.82778477662967,8.426702670267,2292770.8490571,-13990.599189813,2957243.9909514,13.626702670267,0,0
-71.683392550959,0.8303677587546,8.4311331133113,2292770.8490571,-13990.599189813,2957243.9909514,13.631133113311,0,0
-71.683391908148,0.83295074087953,8.4355635563556,2292770.8490571,-13990.599189813,2957243.9909514,13.635563556356,0,0
-71.683391265338,0.83553372300447,8.4399939993999,2292770.8490571,-13990.599189813,2957243.9909514,13.6399939994,0,0
-71.683390622528,0.8381167051294,8.4444244424442,2292770.8490571,-13990.599189813,2957243.9909514,13.644424442444,0,0
-71.683389979717,0.84069968725433,8.4488548854885,2292770.8490571,-13990.599189813,2957243.9909514,13.648854885489,0,0
-71.683389336907,0.84328266937927,8.4532853285329,2292770.8490571,-13990.599189813,2957243.9909514,13.653285328533,0,0
-71.683388694097,0.8458656515042,8.4577157715772,2292770.8490571,-13990.599189813,2957243.9909514,13.657715771577,0,0
-71.683388051286,0.84844863362914,8.4621462146215,2292770.8490571,-13990.599189813,2957243.9909514,13.662146214621,0,0
-71.683387408476,0.85103161575407,8.4665766576658,2292770.8490571,-13990.599189813,2957243.9909514,13.666576657666,0,0
-71.683386765665,0.853614597879,8.4710071007101,2292770.8490571,-13990.599189813,2957243.9909514,13.67100710071,0,0
-71.683386122855,0.85619758000394,8.4754375437544,2292770.8490571,-13990.599189813,2957243.9909514,13.675437543754,0,0
-71.683385480045,0.85878056212887,8.4798679867987,2292770.8490571,-13990.599189813,2957243.9909514,13.679867986799,0,0
-71.683384837234,0.86136354425381,8.484298429843,2292770.8490571,-13990.599189813,2957243.9909514,13.684298429843,0,0
-71.683384194424,0.86394652637874,8.4887288728873,2292770.8490571,-13990.599189813,2957243.9909514,13.688728872887,0,0
-71.683383551726,0.866529508519,8.4931593159316,2286186.031608,11880.292893617,2946943.305649,13.693159315932,0,0
-71.683382909654,0.86911249074407,8.4975897589759,2286186.031608,11880.292893617,2946943.305649,13.697589758976,0,0
-71.683382267582,0.87169547296915,8.5020202020202,2286186.031608,11880.292893617,2946943.305649,13.70202020202,0,0
-71.68338162551,0.87427845519422,8.5064506450645,2286186.031608,11880.292893617,2946943.305649,13.706450645065,0,0
-71.683380983438,0.87686143741929,8.5108810881088,2286186.031608,11880.292893617,2946943.305649,13.710881088109,0,0
-71.683380341366,0.87944441964436,8.5153115311531,2286186.031608,11880.292893617,2946943.305649,13.715311531153,0,0
-71.683379699294,0.88202740186943,8.5197419741974,2286186.031608,11880.292893617,2946943.305649,13.719741974197,0,0
-71.683379057222,0.88461038409451,8.5241724172417,2286186.031608,11880.292893617,2946943.305649,13.724172417242,0,0
-71.683378415151,0.88719336631958,8.528602860286,2286186.031608,11880.292893617,2946943.305649,13.728602860286,0,0
-71.683377773079,0.88977634854465,8.5330333033303,2286186.031608,11880.292893617,2946943.305649,13.73303330333,0,0
-71.683377131007,0.89235933076972,8.5374637463746,2286186.031608,11880.292893617,2946943.305649,13.737463746375,0,0
-71.683376488935,0.89494231299479,8.5418941894189,2286186.031608,11880.292893617,2946943.305649,13.741894189419,0,0
-71.683375846863,0.89752529521987,8.5463246324632,2286186.031608,11880.292893617,2946943.305649,13.746324632463,0,0
-71.683375204791,0.90010827744494,8.5507550755075,2286186.031608,11880.292893617,2946943.305649,13.750755075508,0,0
-71.683374562719,0.90269125967001,8.5551855185519,2286186.031608,11880.292893617,2946943.305649,13.755185518552,0,0
-71.683373920647,0.90527424189508,8.5596159615962,2286186.031608,11880.292893617,2946943.305649,13.759615961596,0,0
-71.683373278575,0.90785722412016,8.5640464046405,2286186.031608,11880.292893617,2946943.305649,13.76404640464,0,0
-71.683372636503,0.91044020634523,8.5684768476848,2286186.031608,11880.292893617,2946943.305649,13.768476847685,0,0
-71.683371994431,0.9130231885703,8.5729072907291,2286186.031608,11880.292893617,2946943.305649,13.772907290729,0,0
-71.683371352359,0.91560617079537,8.5773377337734,2286186.031608,11880.292893617,2946943.305649,13.777337733773,0,0
-71.683370710287,0.91818915302045,8.5817681768177,2286186.031608,11880.292893617,2946943.305649,13.781768176818,0,0
-71.683370068215,0.92077213524552,8.586198619862,2286186.031608,11880.292893617,2946943.305649,13.786198619862,0,0
-71.683369426143,0.92335511747059,8.5906290629063,2286186.031608,11880.292893617,2946943.305649,13.790629062906,0,0
-71.683368784071,0.92593809969566,8.5950595059506,2286186.031608,11880.292893617,2946943.305649,13.795059505951,0,0
-71.683368141999,0.92852108192074,8.5994899489949,2286186.031608,11880.292893617,2946943.305649,13.799489948995,0,0
-71.683367499927,0.93110406414581,8.6039203920392,2286186.031608,11880.292893617,2946943.305649,13.803920392039,0,0
-71.683366857855,0.93368704637088,8.6083508350835,2286186.031608,11880.292893617,2946943.305649,13.808350835084,0,0
-71.683366215783,0.93627002859595,8.6127812781278,2286186.031608,11880.292893617,2946943.305649,13.812781278128,0,0
-71.683365573711,0.93885301082103,8.6172117211721,2286186.031608,11880.292893617,2946943.305649,13.817211721172,0,0
-71.683364931639,0.9414359930461,8.6216421642164,2286186.031608,11880.292893617,2946943.305649,13.821642164216,0,0
-71.683364289567,0.94401897527117,8.6260726072607,2286186.031608,11880.292893617,2946943.305649,13.826072607261,0,0
-71.683363647495,0.94660195749624,8.630503050305,2286186.031608,11880.292893617,2946943.305649,13.830503050305,0,0
-71.683363005423,0.94918493972131,8.6349334933493,2286186.031608,11880.292893617,2946943.305649,13.834933493349,0,0
-71.683362363351,0.95176792194639,8.6393639363936,2286186.031608,11880.292893617,2946943.305649,13.839363936394,0,0
-71.683361721279,0.95435090417146,8.6437943794379,2286186.031608,11880.292893617,2946943.305649,13.843794379438,0,0
-71.683361079207,0.95693388639653,8.6482248224822,2286186.031608,11880.292893617,2946943.305649,13.848224822482,0,0
-71.683360437135,0.9595168686216,8.6526552655266,2286186.031608,11880.292893617,2946943.305649,13.852655265527,0,0
-71.683359795063,0.96209985084667,8.6570857085709,2286186.031608,11880.292893617,2946943.305649,13.857085708571,0,0
-71.683359152991,0.96468283307175,8.6615161516152,2286186.031608,11880.292893617,2946943.305649,13.861516151615,0,0
-71.683358510919,0.96726581529682,8.6659465946595,2286186.031608,11880.292893617,2946943.305649,13.865946594659,0,0
-71.683357868847,0.96984879752189,8.6703770377038,2286186.031608,11880.292893617,2946943.305649,13.870377037704,0,0
-71.683357226775,0.97243177974696,8.6748074807481,2286186.031608,11880.292893617,2946943.305649,13.874807480748,0,0
-71.683356584703,0.97501476197204,8.6792379237924,2286186.031608,11880.292893617,2946943.305649,13.879237923792,0,0
-71.683355942631,0.97759774419711,8.6836683668367,2286186.031608,11880.292893617,2946943.305649,13.883668366837,0,0
-71.683355300559,0.98018072642218,8.688098809881,2286186.031608,11880.292893617,2946943.305649,13.888098809881,0,0
-71.683354658487,0.98276370864725,8.6925292529253,2286186.031608,11880.292893617,2946943.305649,13.892529252925,0,0
-71.683354016415,0.98534669087232,8.6969596959696,2286186.031608,11880.292893617,2946943.305649,13.89695969597,0,0
-71.683353374343,0.9879296730974,8.7013901390139,2286186.031608,11880.292893617,2946943.305649,13.901390139014,0,0
-71.683352732271,0.99051265532247,8.7058205820582,2286186.031608,11880.292893617,2946943.305649,13.905820582058,0,0
-71.683352090199,0.99309563754754,8.7102510251025,2286186.031608,11880.292893617,2946943.305649,13.910251025103,0,0
-71.683351448127,0.99567861977261,8.7146814681468,2286186.031608,11880.292893617,2946943.305649,13.914681468147,0,0
-71.683350806055,0.99826160199769,8.7191119111911,2286186.031608,11880.292893617,2946943.305649,13.919111911191,0,0
-71.683350163983,1.0008445842228,8.7235423542354,2286186.031608,11880.292893617,2946943.305649,13.923542354235,0,0
-71.683349521911,1.0034275664478,8.7279727972797,2286186.031608,11880.292893617,2946943.305649,13.92797279728,0,0
-71.683348879839,1.0060105486729,8.732403240324,2286186.031608,11880.292893617,2946943.305649,13.932403240324,0,0
-71.683348237767,1.008593530898,8.7368336833683,2286186.031608,11880.292893617,2946943.305649,13.936833683368,0,0
-71.683347595695,1.011176513123,8.7412641264126,2286186.031608,11880.292893617,2946943.305649,13.941264126413,0,0
-71.683346953623,1.0137594953481,8.7456945694569,2286186.031608,11880.292893617,2946943.305649,13.945694569457,0,0
-71.683346311551,1.0163424775732,8.7501250125013,2286186.031608,11880.292893617,2946943.305649,13.950125012501,0,0
-71.683345669479,1.0189254597983,8.7545554555456,2286186.031608,11880.292893617,2946943.305649,13.954555455546,0,0
-71.683345027407,1.0215084420233,8.7589858985899,2286186.031608,11880.292893617,2946943.305649,13.95898589859,0,0
-71.683344385335,1.0240914242484,8.7634163416342,2286186.031608,11880.292893617,2946943.305649,13.963416341634,0,0
-71.683343743263,1.0266744064735,8.7678467846785,2286186.031608,11880.292893617,2946943.305649,13.967846784678,0,0
-71.683343101191,1.0292573886986,8.7722772277228,2286186.031608,11880.292893617,2946943.305649,13.972277227723,0,0
-71.683342459119,1.0318403709236,8.7767076707671,2286186.031608,11880.292893617,2946943.305649,13.976707670767,0,0
-71.683341817047,1.0344233531487,8.7811381138114,2286186.031608,11880.292893617,2946943.305649,13.981138113811,0,0
-71.683341174975,1.0370063353738,8.7855685568557,2286186.031608,11880.292893617,2946943.305649,13.985568556856,0,0
-71.683340532903,1.0395893175988,8.7899989999,2286186.031608,11880.292893617,2946943.305649,13.9899989999,0,0
-71.683339890831,1.0421722998239,8.7944294429443,2286186.031608,11880.292893617,2946943.305649,13.994429442944,0,0
-71.683339248759,1.044755282049,8.7988598859886,2286186.031608,11880.292893617,2946943.305649,13.998859885989,0,0
-71.683338606687,1.0473382642741,8.8032903290329,2286186.031608,11880.292893617,2946943.305649,14.003290329033,0,0
-71.683337964615,1.0499212464991,8.8077207720772,2286186.031608,11880.292893617,2946943.305649,14.007720772077,0,0
-71.683337322543,1.0525042287242,8.8121512151215,2286186.031608,11880.292893617,2946943.305649,14.012151215122,0,0
-71.683336680471,1.0550872109493,8.8165816581658,2286186.031608,11880.292893617,2946943.305649,14.016581658166,0,0
-71.683336038399,1.0576701931743,8.8210121012101,2286186.031608,11880.292893617,2946943.305649,14.02101210121,0,0
-71.683335396327,1.0602531753994,8.8254425442544,2286186.031608,11880.292893617,2946943.305649,14.025442544254,0,0
-71.683334754255,1.0628361576245,8.8298729872987,2286186.031608,11880.292893617,2946943.305649,14.029872987299,0,0
-71.683334112183,1.0654191398496,8.834303430343,2286186.031608,11880.292893617,2946943.305649,14.034303430343,0,0
-71.683333470111,1.0680021220746,8.8387338733873,2286186.031608,11880.292893617,2946943.305649,14.038733873387,0,0
-71.683332828039,1.0705851042997,8.8431643164316,2286186.031608,11880.292893617,2946943.305649,14.043164316432,0,0
-71.683332185967,1.0731680865248,8.8475947594759,2286186.031608,11880.292893617,2946943.305649,14.047594759476,0,0
-71.683331543895,1.0757510687499,8.8520252025203,2286186.031608,11880.292893617,2946943.305649,14.05202520252,0,0
-71.683330901823,1.0783340509749,8.8564556455646,2286186.031608,11880.292893617,2946943.305649,14.056455645565,0,0
-71.683330259751,1.0809170332,8.8608860886089,2286186.031608,11880.292893617,2946943.305649,14.060886088609,0,0
-71.683329617679,1.0835000154251,8.8653165316532,2286186.031608,11880.292893617,2946943.305649,14.065316531653,0,0
-71.683328975607,1.0860829976501,8.8697469746975,2286186.031608,11880.292893617,2946943.305649,14.069746974697,0,0
-71.683328333535,1.0886659798752,8.8741774177418,2286186.031608,11880.292893617,2946943.305649,14.074177417742,0,0
-71.683327691463,1.0912489621003,8.8786078607861,2286186.031608,11880.292893617,2946943.305649,14.078607860786,0,0
-71.683327049391,1.0938319443254,8.8830383038304,2286186.031608,11880.292893617,2946943.305649,14.08303830383,0,0
-71.683326407319,1.0964149265504,8.8874687468747,2286186.031608,11880.292893617,2946943.305649,14.087468746875,0,0
-71.683325765247,1.0989979087755,8.891899189919,2286186.031608,11880.292893617,2946943.305649,14.091899189919,0,0
-71.683325123175,1.1015808910006,8.8963296329633,2286186.031608,11880.292893617,2946943.305649,14.096329632963,0,0
-71.683324481103,1.1041638732256,8.9007600760076,2286186.031608,11880.292893617,2946943.305649,14.100760076008,0,0
-71.683323839031,1.1067468554507,8.9051905190519,2286186.031608,11880.292893617,2946943.305649,14.105190519052,0,0
-71.683323196959,1.1093298376758,8.9096209620962,2286186.031608,11880.292893617,2946943.305649,14.109620962096,0,0
-71.683322554887,1.1119128199009,8.9140514051405,2286186.031608,11880.292893617,2946943.305649,14.114051405141,0,0
-71.683321912815,1.1144958021259,8.9184818481848,2286186.031608,11880.292893617,2946943.305649,14.118481848185,0,0
-71.683321270743,1.117078784351,8.9229122912291,2286186.031608,11880.292893617,2946943.305649,14.122912291229,0,0
-71.683320628671,1.1196617665761,8.9273427342734,2286186.031608,11880.292893617,2946943.305649,14.127342734273,0,0
-71.683319986599,1.1222447488012,8.9317731773177,2286186.031608,11880.292893617,2946943.305649,14.131773177318,0,0
-71.683319344527,1.1248277310262,8.936203620362,2286186.031608,11880.292893617,2946943.305649,14.136203620362,0,0
-71.683318702455,1.1274107132513,8.9406340634063,2286186.031608,11880.292893617,2946943.305649,14.140634063406,0,0
-71.683318060383,1.1299936954764,8.9450645064506,2286186.031608,11880.292893617,2946943.305649,14.145064506451,0,0
-71.683317418311,1.1325766777014,8.9494949494949,2286186.031608,11880.292893617,2946943.305649,14.149494949495,0,0
-71.683316776239,1.1351596599265,8.9539253925393,2286186.031608,11880.292893617,2946943.305649,14.153925392539,0,0
-71.683316134167,1.1377426421516,8.9583558355836,2286186.031608,11880.292893617,2946943.305649,14.158355835584,0,0
-71.683315492095,1.1403256243767,8.9627862786279,2286186.031608,11880.292893617,2946943.305649,14.162786278628,0,0
-71.683314850023,1.1429086066017,8.9672167216722,2286186.031608,11880.292893617,2946943.305649,14.167216721672,0,0
-71.683314207951,1.1454915888268,8.9716471647165,2286186.031608,11880.292893617,2946943.305649,14.171647164716,0,0
-71.683313565879,1.1480745710519,8.9760776077608,2286186.031608,11880.292893617,2946943.305649,14.176077607761,0,0
-71.683312923807,1.1506575532769,8.9805080508051,2286186.031608,11880.292893617,2946943.305649,14.180508050805,0,0
-71.683312281735,1.153240535502,8.9849384938494,2286186.031608,11880.292893617,2946943.305649,14.184938493849,0,0
-71.683311639664,1.1558235177271,8.9893689368937,2286186.031608,11880.292893617,2946943.305649,14.189368936894,0,0
-71.683310997592,1.1584064999522,8.993799379938,2286186.031608,11880.292893617,2946943.305649,14.193799379938,0,0
-71.68331035552,1.1609894821772,8.9982298229823,2286186.031608,11880.292893617,2946943.305649,14.198229822982,0,0
-71.683309713448,1.1635724644023,9.0026602660266,2286186.031608,11880.292893617,2946943.305649,14.202660266027,0,0
-71.683309071376,1.1661554466274,9.0070907090709,2286186.031608,11880.292893617,2946943.305649,14.207090709071,0,0
-71.683308429304,1.1687384288525,9.0115211521152,2286186.031608,11880.292893617,2946943.305649,14.211521152115,0,0
-71.683307787232,1.1713214110775,9.0159515951595,2286186.031608,11880.292893617,2946943.305649,14.21595159516,0,0
-71.68330714516,1.1739043933026,9.0203820382038,2286186.031608,11880.292893617,2946943.305649,14.220382038204,0,0
-71.683306503088,1.1764873755277,9.0248124812481,2286186.031608,11880.292893617,2946943.305649,14.224812481248,0,0
-71.683305861016,1.1790703577527,9.0292429242924,2286186.031608,11880.292893617,2946943.305649,14.229242924292,0,0
-71.683305218944,1.1816533399778,9.0336733673367,2286186.031608,11880.292893617,2946943.305649,14.233673367337,0,0
-71.683304576872,1.1842363222029,9.038103810381,2286186.031608,11880.292893617,2946943.305649,14.238103810381,0,0
-71.6833039348,1.186819304428,9.0425342534253,2286186.031608,11880.292893617,2946943.305649,14.242534253425,0,0
-71.683303292728,1.189402286653,9.0469646964696,2286186.031608,11880.292893617,2946943.305649,14.24696469647,0,0
-71.683302650656,1.1919852688781,9.051395139514,2286186.031608,11880.292893617,2946943.305649,14.251395139514,0,0
-71.683302008584,1.1945682511032,9.0558255825583,2286186.031608,11880.292893617,2946943.305649,14.255825582558,0,0
-71.683301366512,1.1971512333282,9.0602560256026,2286186.031608,11880.292893617,2946943.305649,14.260256025603,0,0
-71.68330072444,1.1997342155533,9.0646864686469,2286186.031608,11880.292893617,2946943.305649,14.264686468647,0,0
-71.683300082368,1.2023171977784,9.0691169116912,2286186.031608,11880.292893617,2946943.305649,14.269116911691,0,0
-71.683299440296,1.2049001800035,9.0735473547355,2286186.031608,11880.292893617,2946943.305649,14.273547354735,0,0
-71.683298798224,1.2074831622285,9.0779777977798,2286186.031608,11880.292893617,2946943.305649,14.27797779778,0,0
-71.683298156152,1.2100661444536,9.0824082408241,2286186.031608,11880.292893617,2946943.305649,14.282408240824,0,0
-71.68329751408,1.2126491266787,9.0868386838684,2286186.031608,11880.292893617,2946943.305649,14.286838683868,0,0
-71.683296872008,1.2152321089038,9.0912691269127,2286186.031608,11880.292893617,2946943.305649,14.291269126913,0,0
-71.683296229936,1.2178150911288,9.095699569957,2286186.031608,11880.292893617,2946943.305649,14.295699569957,0,0
-71.683295587864,1.2203980733539,9.1001300130013,2286186.031608,11880.292893617,2946943.305649,14.300130013001,0,0
-71.683294945792,1.222981055579,9.1045604560456,2286186.031608,11880.292893617,2946943.305649,14.304560456046,0,0
-71.68329430372,1.225564037804,9.1089908990899,2286186.031608,11880.292893617,2946943.305649,14.30899089909,0,0
-71.683293661648,1.2281470200291,9.1134213421342,2286186.031608,11880.292893617,2946943.305649,14.313421342134,0,0
-71.683293019576,1.2307300022542,9.1178517851785,2286186.031608,11880.292893617,2946943.305649,14.317851785179,0,0
-71.683292377504,1.2333129844793,9.1222822282228,2286186.031608,11880.292893617,2946943.305649,14.322282228223,0,0
-71.683291735432,1.2358959667043,9.1267126712671,2286186.031608,11880.292893617,2946943.305649,14.326712671267,0,0
-71.68329109336,1.2384789489294,9.1311431143114,2286186.031608,11880.292893617,2946943.305649,14.331143114311,0,0
-71.683290451288,1.2410619311545,9.1355735573557,2286186.031608,11880.292893617,2946943.305649,14.335573557356,0,0
-71.683289809216,1.2436449133795,9.1400040004,2286186.031608,11880.292893617,2946943.305649,14.3400040004,0,0
-71.683289167144,1.2462278956046,9.1444344434443,2286186.031608,11880.292893617,2946943.305649,14.344434443444,0,0
-71.683288525072,1.2488108778297,9.1488648864886,2286186.031608,11880.292893617,2946943.305649,14.348864886489,0,0
-71.683287883,1.2513938600548,9.153295329533,2286186.031608,11880.292893617,2946943.305649,14.353295329533,0,0
-71.683287240928,1.2539768422798,9.1577257725773,2286186.031608,11880.292893617,2946943.305649,14.357725772577,0,0
-71.683286598856,1.2565598245049,9.1621562156216,2286186.031608,11880.292893617,2946943.305649,14.362156215622,0,0
-71.683285956784,1.25914280673,9.1665866586659,2286186.031608,11880.292893617,2946943.305649,14.366586658666,0,0
-71.683285314712,1.2617257889551,9.1710171017102,2286186.031608,11880.292893617,2946943.305649,14.37101710171,0,0
-71.68328467264,1.2643087711801,9.1754475447545,2286186.031608,11880.292893617,2946943.305649,14.375447544754,0,0
-71.683284030568,1.2668917534052,9.1798779877988,2286186.031608,11880.292893617,2946943.305649,14.379877987799,0,0
-71.683283388496,1.2694747356303,9.1843084308431,2286186.031608,11880.292893617,2946943.305649,14.384308430843,0,0
-71.683282746424,1.2720577178553,9.1887388738874,2286186.031608,11880.292893617,2946943.305649,14.388738873887,0,0
-71.683282104352,1.2746407000804,9.1931693169317,2286186.031608,11880.292893617,2946943.305649,14.393169316932,0,0
-71.68328146228,1.2772236823055,9.197599759976,2286186.031608,11880.292893617,2946943.305649,14.397599759976,0,0
-71.683280820208,1.2798066645306,9.2020302030203,2286186.031608,11880.292893617,2946943.305649,14.40203020302,0,0
-71.683280178136,1.2823896467556,9.2064606460646,2286186.031608,11880.292893617,2946943.305649,14.406460646065,0,0
-71.683279536064,1.2849726289807,9.2108910891089,2286186.031608,11880.292893617,2946943.305649,14.410891089109,0,0
-71.683278893992,1.2875556112058,9.2153215321532,2286186.031608,11880.292893617,2946943.305649,14.415321532153,0,0
-71.68327825192,1.2901385934309,9.2197519751975,2286186.031608,11880.292893617,2946943.305649,14.419751975198,0,0
-71.683277609848,1.2927215756559,9.2241824182418,2286186.031608,11880.292893617,2946943.305649,14.424182418242,0,0
-71.683276967776,1.295304557881,9.2286128612861,2286186.031608,11880.292893617,2946943.305649,14.428612861286,0,0
-71.683276325704,1.2978875401061,9.2330433043304,2286186.031608,11880.292893617,2946943.305649,14.43304330433,0,0
-71.683275683632,1.3004705223311,9.2374737473747,2286186.031608,11880.292893617,2946943.305649,14.437473747375,0,0
-71.68327504156,1.3030535045562,9.241904190419,2286186.031608,11880.292893617,2946943.305649,14.441904190419,0,0
-71.683274399488,1.3056364867813,9.2463346334633,2286186.031608,11880.292893617,2946943.305649,14.446334633463,0,0
-71.683273757416,1.3082194690064,9.2507650765077,2286186.031608,11880.292893617,2946943.305649,14.450765076508,0,0
-71.683273115344,1.3108024512314,9.255195519552,2286186.031608,11880.292893617,2946943.305649,14.455195519552,0,0
-71.683272473272,1.3133854334565,9.2596259625963,2286186.031608,11880.292893617,2946943.305649,14.459625962596,0,0
-71.683271826191,1.3159684208429,9.2640564056406,2322035.3118453,19960.975573253,2935490.686541,14.464056405641,0,0
-71.683271177053,1.3185514103492,9.2684868486849,2322035.3118453,19960.975573253,2935490.686541,14.468486848685,0,0
-71.683270527915,1.3211343998554,9.2729172917292,2322035.3118453,19960.975573253,2935490.686541,14.472917291729,0,0
-71.683269878777,1.3237173893616,9.2773477347735,2322035.3118453,19960.975573253,2935490.686541,14.477347734773,0,0
-71.683269229639,1.3263003788678,9.2817781778178,2322035.3118453,19960.975573253,2935490.686541,14.481778177818,0,0
-71.683268580501,1.328883368374,9.2862086208621,2322035.3118453,19960.975573253,2935490.686541,14.486208620862,0,0
-71.683267931363,1.3314663578803,9.2906390639064,2322035.3118453,19960.975573253,2935490.686541,14.490639063906,0,0
-71.683267282225,1.3340493473865,9.2950695069507,2322035.3118453,19960.975573253,2935490.686541,14.495069506951,0,0
-71.683266633088,1.3366323368927,9.299499949995,2322035.3118453,19960.975573253,2935490.686541,14.499499949995,0,0
-71.68326598395,1.3392153263989,9.3039303930393,2322035.3118453,19960.975573253,2935490.686541,14.503930393039,0,0
-71.683265334812,1.3417983159052,9.3083608360836,2322035.3118453,19960.975573253,2935490.686541,14.508360836084,0,0
-71.683264685674,1.3443813054114,9.3127912791279,2322035.3118453,19960.975573253,2935490.686541,14.512791279128,0,0
-71.683264036536,1.3469642949176,9.3172217221722,2322035.3118453,19960.975573253,2935490.686541,14.517221722172,0,0
-71.683263387398,1.3495472844238,9.3216521652165,2322035.3118453,19960.975573253,2935490.686541,14.521652165217,0,0
-71.683262737231,1.3521302705885,9.3260826082608,2327440.7912274,7194.4454736153,2905749.7059271,14.526082608261,0,0
-71.683262085764,1.3547132525304,9.3305130513051,2327440.7912274,7194.4454736153,2905749.7059271,14.530513051305,0,0
-71.683261434297,1.3572962344723,9.3349434943494,2327440.7912274,7194.4454736153,2905749.7059271,14.534943494349,0,0
-71.68326078283,1.3598792164142,9.3393739373937,2327440.7912274,7194.4454736153,2905749.7059271,14.539373937394,0,0
-71.683260131363,1.3624621983561,9.343804380438,2327440.7912274,7194.4454736153,2905749.7059271,14.543804380438,0,0
-71.683259479896,1.365045180298,9.3482348234823,2327440.7912274,7194.4454736153,2905749.7059271,14.548234823482,0,0
-71.683258828429,1.3676281622399,9.3526652665267,2327440.7912274,7194.4454736153,2905749.7059271,14.552665266527,0,0
-71.683258176962,1.3702111441817,9.357095709571,2327440.7912274,7194.4454736153,2905749.7059271,14.557095709571,0,0
-71.683257525495,1.3727941261236,9.3615261526153,2327440.7912274,7194.4454736153,2905749.7059271,14.561526152615,0,0
-71.683256874028,1.3753771080655,9.3659565956596,2327440.7912274,7194.4454736153,2905749.7059271,14.56595659566,0,0
-71.683256222561,1.3779600900074,9.3703870387039,2327440.7912274,7194.4454736153,2905749.7059271,14.570387038704,0,0
-71.683255571095,1.3805430719493,9.3748174817482,2327440.7912274,7194.4454736153,2905749.7059271,14.574817481748,0,0
-71.683254919628,1.3831260538912,9.3792479247925,2327440.7912274,7194.4454736153,2905749.7059271,14.579247924792,0,0
-71.683254268161,1.3857090358331,9.3836783678368,2327440.7912274,7194.4454736153,2905749.7059271,14.583678367837,0,0
-71.683253616694,1.388292017775,9.3881088108811,2327440.7912274,7194.4454736153,2905749.7059271,14.588108810881,0,0
-71.683252965227,1.3908749997169,9.3925392539254,2327440.7912274,7194.4454736153,2905749.7059271,14.592539253925,0,0
-71.68325231376,1.3934579816588,9.3969696969697,2327440.7912274,7194.4454736153,2905749.7059271,14.59696969697,0,0
-71.683251662293,1.3960409636007,9.401400140014,2327440.7912274,7194.4454736153,2905749.7059271,14.601400140014,0,0
-71.683251010826,1.3986239455426,9.4058305830583,2327440.7912274,7194.4454736153,2905749.7059271,14.605830583058,0,0
-71.683250359359,1.4012069274845,9.4102610261026,2327440.7912274,7194.4454736153,2905749.7059271,14.610261026103,0,0
-71.683249707892,1.4037899094263,9.4146914691469,2327440.7912274,7194.4454736153,2905749.7059271,14.614691469147,0,0
-71.683249056425,1.4063728913682,9.4191219121912,2327440.7912274,7194.4454736153,2905749.7059271,14.619121912191,0,0
-71.683248404958,1.4089558733101,9.4235523552355,2327440.7912274,7194.4454736153,2905749.7059271,14.623552355236,0,0
-71.683247753491,1.411538855252,9.4279827982798,2327440.7912274,7194.4454736153,2905749.7059271,14.62798279828,0,0
-71.683247102024,1.4141218371939,9.4324132413241,2327440.7912274,7194.4454736153,2905749.7059271,14.632413241324,0,0
-71.683246450557,1.4167048191358,9.4368436843684,2327440.7912274,7194.4454736153,2905749.7059271,14.636843684368,0,0
-71.68324579909,1.4192878010777,9.4412741274127,2327440.7912274,7194.4454736153,2905749.7059271,14.641274127413,0,0
-71.683245147623,1.4218707830196,9.445704570457,2327440.7912274,7194.4454736153,2905749.7059271,14.645704570457,0,0
-71.683244496156,1.4244537649615,9.4501350135013,2327440.7912274,7194.4454736153,2905749.7059271,14.650135013501,0,0
-71.68324384469,1.4270367469034,9.4545654565457,2327440.7912274,7194.4454736153,2905749.7059271,14.654565456546,0,0
-71.683243193223,1.4296197288453,9.45899589959,2327440.7912274,7194.4454736153,2905749.7059271,14.65899589959,0,0
-71.683242541756,1.4322027107872,9.4634263426343,2327440.7912274,7194.4454736153,2905749.7059271,14.663426342634,0,0
-71.683241890289,1.4347856927291,9.4678567856786,2327440.7912274,7194.4454736153,2905749.7059271,14.667856785679,0,0
-71.683241238822,1.4373686746709,9.4722872287229,2327440.7912274,7194.4454736153,2905749.7059271,14.672287228723,0,0
-71.683240587355,1.4399516566128,9.4767176717672,2327440.7912274,7194.4454736153,2905749.7059271,14.676717671767,0,0
-71.683239935888,1.4425346385547,9.4811481148115,2327440.7912274,7194.4454736153,2905749.7059271,14.681148114811,0,0
-71.683239284421,1.4451176204966,9.4855785578558,2327440.7912274,7194.4454736153,2905749.7059271,14.685578557856,0,0
-71.683238632954,1.4477006024385,9.4900090009001,2327440.7912274,7194.4454736153,2905749.7059271,14.6900090009,0,0
-71.683237981487,1.4502835843804,9.4944394439444,2327440.7912274,7194.4454736153,2905749.7059271,14.694439443944,0,0
-71.68323733002,1.4528665663223,9.4988698869887,2327440.7912274,7194.4454736153,2905749.7059271,14.698869886989,0,0
-71.683236678553,1.4554495482642,9.503300330033,2327440.7912274,7194.4454736153,2905749.7059271,14.703300330033,0,0
-71.683236027086,1.4580325302061,9.5077307730773,2327440.7912274,7194.4454736153,2905749.7059271,14.707730773077,0,0
-71.683235375619,1.460615512148,9.5121612161216,2327440.7912274,7194.4454736153,2905749.7059271,14.712161216122,0,0
-71.683234724152,1.4631984940899,9.5165916591659,2327440.7912274,7194.4454736153,2905749.7059271,14.716591659166,0,0
-71.683234072685,1.4657814760318,9.5210221022102,2327440.7912274,7194.4454736153,2905749.7059271,14.72102210221,0,0
-71.683233421218,1.4683644579737,9.5254525452545,2327440.7912274,7194.4454736153,2905749.7059271,14.725452545255,0,0
-71.683232769751,1.4709474399155,9.5298829882988,2327440.7912274,7194.4454736153,2905749.7059271,14.729882988299,0,0
-71.683232118285,1.4735304218574,9.5343134313431,2327440.7912274,7194.4454736153,2905749.7059271,14.734313431343,0,0
-71.683231466818,1.4761134037993,9.5387438743874,2327440.7912274,7194.4454736153,2905749.7059271,14.738743874387,0,0
-71.683230815351,1.4786963857412,9.5431743174317,2327440.7912274,7194.4454736153,2905749.7059271,14.743174317432,0,0
-71.683230163884,1.4812793676831,9.547604760476,2327440.7912274,7194.4454736153,2905749.7059271,14.747604760476,0,0
-71.683229512417,1.483862349625,9.5520352035204,2327440.7912274,7194.4454736153,2905749.7059271,14.75203520352,0,0
-71.68322886095,1.4864453315669,9.5564656465647,2327440.7912274,7194.4454736153,2905749.7059271,14.756465646565,0,0
-71.683228209483,1.4890283135088,9.560896089609,2327440.7912274,7194.4454736153,2905749.7059271,14.760896089609,0,0
-71.683227558016,1.4916112954507,9.5653265326533,2327440.7912274,7194.4454736153,2905749.7059271,14.765326532653,0,0
-71.683226906549,1.4941942773926,9.5697569756976,2327440.7912274,7194.4454736153,2905749.7059271,14.769756975698,0,0
-71.683226255082,1.4967772593345,9.5741874187419,2327440.7912274,7194.4454736153,2905749.7059271,14.774187418742,0,0
-71.683225603615,1.4993602412764,9.5786178617862,2327440.7912274,7194.4454736153,2905749.7059271,14.778617861786,0,0
-71.683224952148,1.5019432232183,9.5830483048305,2327440.7912274,7194.4454736153,2905749.7059271,14.78304830483,0,0
-71.683224300681,1.5045262051601,9.5874787478748,2327440.7912274,7194.4454736153,2905749.7059271,14.787478747875,0,0
-71.683223649214,1.507109187102,9.5919091909191,2327440.7912274,7194.4454736153,2905749.7059271,14.791909190919,0,0
-71.683222997747,1.5096921690439,9.5963396339634,2327440.7912274,7194.4454736153,2905749.7059271,14.796339633963,0,0
-71.68322234628,1.5122751509858,9.6007700770077,2327440.7912274,7194.4454736153,2905749.7059271,14.800770077008,0,0
-71.683221694813,1.5148581329277,9.605200520052,2327440.7912274,7194.4454736153,2905749.7059271,14.805200520052,0,0
-71.683221043346,1.5174411148696,9.6096309630963,2327440.7912274,7194.4454736153,2905749.7059271,14.809630963096,0,0
-71.68322039188,1.5200240968115,9.6140614061406,2327440.7912274,7194.4454736153,2905749.7059271,14.814061406141,0,0
-71.683219740413,1.5226070787534,9.6184918491849,2327440.7912274,7194.4454736153,2905749.7059271,14.818491849185,0,0
-71.683219088946,1.5251900606953,9.6229222922292,2327440.7912274,7194.4454736153,2905749.7059271,14.822922292229,0,0
-71.683218437479,1.5277730426372,9.6273527352735,2327440.7912274,7194.4454736153,2905749.7059271,14.827352735274,0,0
-71.683217786012,1.5303560245791,9.6317831783178,2327440.7912274,7194.4454736153,2905749.7059271,14.831783178318,0,0
-71.683217134545,1.532939006521,9.6362136213621,2327440.7912274,7194.4454736153,2905749.7059271,14.836213621362,0,0
-71.683216483078,1.5355219884629,9.6406440644064,2327440.7912274,7194.4454736153,2905749.7059271,14.840644064406,0,0
-71.683215831611,1.5381049704047,9.6450745074507,2327440.7912274,7194.4454736153,2905749.7059271,14.845074507451,0,0
-71.683215180144,1.5406879523466,9.6495049504951,2327440.7912274,7194.4454736153,2905749.7059271,14.849504950495,0,0
-71.683214528677,1.5432709342885,9.6539353935394,2327440.7912274,7194.4454736153,2905749.7059271,14.853935393539,0,0
-71.68321387721,1.5458539162304,9.6583658365837,2327440.7912274,7194.4454736153,2905749.7059271,14.858365836584,0,0
-71.683213225743,1.5484368981723,9.662796279628,2327440.7912274,7194.4454736153,2905749.7059271,14.862796279628,0,0
-71.683212574276,1.5510198801142,9.6672267226723,2327440.7912274,7194.4454736153,2905749.7059271,14.867226722672,0,0
-71.683211922809,1.5536028620561,9.6716571657166,2327440.7912274,7194.4454736153,2905749.7059271,14.871657165717,0,0
-71.683211271342,1.556185843998,9.6760876087609,2327440.7912274,7194.4454736153,2905749.7059271,14.876087608761,0,0
-71.683210619875,1.5587688259399,9.6805180518052,2327440.7912274,7194.4454736153,2905749.7059271,14.880518051805,0,0
-71.683209968408,1.5613518078818,9.6849484948495,2327440.7912274,7194.4454736153,2905749.7059271,14.884948494849,0,0
-71.683209316942,1.5639347898237,9.6893789378938,2327440.7912274,7194.4454736153,2905749.7059271,14.889378937894,0,0
-71.683208665475,1.5665177717656,9.6938093809381,2327440.7912274,7194.4454736153,2905749.7059271,14.893809380938,0,0
-71.683208014008,1.5691007537075,9.6982398239824,2327440.7912274,7194.4454736153,2905749.7059271,14.898239823982,0,0
-71.683207362541,1.5716837356493,9.7026702670267,2327440.7912274,7194.4454736153,2905749.7059271,14.902670267027,0,0
-71.683206711074,1.5742667175912,9.707100710071,2327440.7912274,7194.4454736153,2905749.7059271,14.907100710071,0,0
-71.683206059607,1.5768496995331,9.7115311531153,2327440.7912274,7194.4454736153,2905749.7059271,14.911531153115,0,0
-71.68320540814,1.579432681475,9.7159615961596,2327440.7912274,7194.4454736153,2905749.7059271,14.91596159616,0,0
-71.683204756673,1.5820156634169,9.7203920392039,2327440.7912274,7194.4454736153,2905749.7059271,14.920392039204,0,0
-71.683204105206,1.5845986453588,9.7248224822482,2327440.7912274,7194.4454736153,2905749.7059271,14.924822482248,0,0
-71.683203453739,1.5871816273007,9.7292529252925,2327440.7912274,7194.4454736153,2905749.7059271,14.929252925293,0,0
-71.683202802272,1.5897646092426,9.7336833683368,2327440.7912274,7194.4454736153,2905749.7059271,14.933683368337,0,0
-71.683202150805,1.5923475911845,9.7381138113811,2327440.7912274,7194.4454736153,2905749.7059271,14.938113811381,0,0
-71.683201499338,1.5949305731264,9.7425442544254,2327440.7912274,7194.4454736153,2905749.7059271,14.942544254425,0,0
-71.683200847871,1.5975135550683,9.7469746974697,2327440.7912274,7194.4454736153,2905749.7059271,14.94697469747,0,0
-71.683200196404,1.6000965370102,9.7514051405141,2327440.7912274,7194.4454736153,2905749.7059271,14.951405140514,0,0
-71.683199544937,1.6026795189521,9.7558355835584,2327440.7912274,7194.4454736153,2905749.7059271,14.955835583558,0,0
-71.68319889347,1.6052625008939,9.7602660266027,2327440.7912274,7194.4454736153,2905749.7059271,14.960266026603,0,0
-71.683198242003,1.6078454828358,9.764696469647,2327440.7912274,7194.4454736153,2905749.7059271,14.964696469647,0,0
-71.683197590537,1.6104284647777,9.7691269126913,2327440.7912274,7194.4454736153,2905749.7059271,14.969126912691,0,0
-71.68319693907,1.6130114467196,9.7735573557356,2327440.7912274,7194.4454736153,2905749.7059271,14.973557355736,0,0
-71.683196287603,1.6155944286615,9.7779877987799,2327440.7912274,7194.4454736153,2905749.7059271,14.97798779878,0,0
-71.683195636136,1.6181774106034,9.7824182418242,2327440.7912274,7194.4454736153,2905749.7059271,14.982418241824,0,0
-71.683194984669,1.6207603925453,9.7868486848685,2327440.7912274,7194.4454736153,2905749.7059271,14.986848684868,0,0
-71.683194333202,1.6233433744872,9.7912791279128,2327440.7912274,7194.4454736153,2905749.7059271,14.991279127913,0,0
-71.683193681735,1.6259263564291,9.7957095709571,2327440.7912274,7194.4454736153,2905749.7059271,14.995709570957,0,0
-71.683193030268,1.628509338371,9.8001400140014,2327440.7912274,7194.4454736153,2905749.7059271,15.000140014001,0,0
-71.683192378801,1.6310923203129,9.8045704570457,2327440.7912274,7194.4454736153,2905749.7059271,15.004570457046,0,0
-71.683191727334,1.6336753022548,9.80900090009,2327440.7912274,7194.4454736153,2905749.7059271,15.00900090009,0,0
-71.683191075867,1.6362582841967,9.8134313431343,2327440.7912274,7194.4454736153,2905749.7059271,15.013431343134,0,0
-71.6831904244,1.6388412661385,9.8178617861786,2327440.7912274,7194.4454736153,2905749.7059271,15.017861786179,0,0
-71.683189772933,1.6414242480804,9.8222922292229,2327440.7912274,7194.4454736153,2905749.7059271,15.022292229223,0,0
-71.683189121466,1.6440072300223,9.8267226722672,2327440.7912274,7194.4454736153,2905749.7059271,15.026722672267,0,0
-71.683188469999,1.6465902119642,9.8311531153115,2327440.7912274,7194.4454736153,2905749.7059271,15.031153115312,0,0
-71.683187818532,1.6491731939061,9.8355835583558,2327440.7912274,7194.4454736153,2905749.7059271,15.035583558356,0,0
-71.683187167065,1.651756175848,9.8400140014001,2327440.7912274,7194.4454736153,2905749.7059271,15.0400140014,0,0
-71.683186515599,1.6543391577899,9.8444444444444,2327440.7912274,7194.4454736153,2905749.7059271,15.044444444444,0,0
-71.683185864132,1.6569221397318,9.8488748874887,2327440.7912274,7194.4454736153,2905749.7059271,15.048874887489,0,0
-71.683185212665,1.6595051216737,9.8533053305331,2327440.7912274,7194.4454736153,2905749.7059271,15.053305330533,0,0
-71.683184561198,1.6620881036156,9.8577357735774,2327440.7912274,7194.4454736153,2905749.7059271,15.057735773577,0,0
-71.683183909731,1.6646710855575,9.8621662166217,2327440.7912274,7194.4454736153,2905749.7059271,15.062166216622,0,0
-71.683183258264,1.6672540674994,9.866596659666,2327440.7912274,7194.4454736153,2905749.7059271,15.066596659666,0,0
-71.683182606797,1.6698370494413,9.8710271027103,2327440.7912274,7194.4454736153,2905749.7059271,15.07102710271,0,0
-71.68318195533,1.6724200313831,9.8754575457546,2327440.7912274,7194.4454736153,2905749.7059271,15.075457545755,0,0
-71.683181303863,1.675003013325,9.8798879887989,2327440.7912274,7194.4454736153,2905749.7059271,15.079887988799,0,0
-71.683180652396,1.6775859952669,9.8843184318432,2327440.7912274,7194.4454736153,2905749.7059271,15.084318431843,0,0
-71.683180000929,1.6801689772088,9.8887488748875,2327440.7912274,7194.4454736153,2905749.7059271,15.088748874887,0,0
-71.683179349462,1.6827519591507,9.8931793179318,2327440.7912274,7194.4454736153,2905749.7059271,15.093179317932,0,0
-71.683178697995,1.6853349410926,9.8976097609761,2327440.7912274,7194.4454736153,2905749.7059271,15.097609760976,0,0
-71.683178046528,1.6879179230345,9.9020402040204,2327440.7912274,7194.4454736153,2905749.7059271,15.10204020402,0,0
-71.683177395061,1.6905009049764,9.9064706470647,2327440.7912274,7194.4454736153,2905749.7059271,15.106470647065,0,0
-71.683176743594,1.6930838869183,9.910901090109,2327440.7912274,7194.4454736153,2905749.7059271,15.110901090109,0,0
-71.683176092127,1.6956668688602,9.9153315331533,2327440.7912274,7194.4454736153,2905749.7059271,15.115331533153,0,0
-71.68317544066,1.6982498508021,9.9197619761976,2327440.7912274,7194.4454736153,2905749.7059271,15.119761976198,0,0
-71.683174789194,1.700832832744,9.9241924192419,2327440.7912274,7194.4454736153,2905749.7059271,15.124192419242,0,0
-71.683174137727,1.7034158146859,9.9286228622862,2327440.7912274,7194.4454736153,2905749.7059271,15.128622862286,0,0
-71.68317348626,1.7059987966277,9.9330533053305,2327440.7912274,7194.4454736153,2905749.7059271,15.133053305331,0,0
-71.683172834793,1.7085817785696,9.9374837483748,2327440.7912274,7194.4454736153,2905749.7059271,15.137483748375,0,0
-71.683172183326,1.7111647605115,9.9419141914191,2327440.7912274,7194.4454736153,2905749.7059271,15.141914191419,0,0
-71.683171531859,1.7137477424534,9.9463446344634,2327440.7912274,7194.4454736153,2905749.7059271,15.146344634463,0,0
-71.683170880392,1.7163307243953,9.9507750775077,2327440.7912274,7194.4454736153,2905749.7059271,15.150775077508,0,0
-71.683170228925,1.7189137063372,9.9552055205521,2327440.7912274,7194.4454736153,2905749.7059271,15.155205520552,0,0
-71.683169577458,1.7214966882791,9.9596359635964,2327440.7912274,7194.4454736153,2905749.7059271,15.159635963596,0,0
-71.683168925991,1.724079670221,9.9640664066407,2327440.7912274,7194.4454736153,2905749.7059271,15.164066406641,0,0
-71.683168274524,1.7266626521629,9.968496849685,2327440.7912274,7194.4454736153,2905749.7059271,15.168496849685,0,0
-71.683167623057,1.7292456341048,9.9729272927293,2327440.7912274,7194.4454736153,2905749.7059271,15.172927292729,0,0
-71.68316697159,1.7318286160467,9.9773577357736,2327440.7912274,7194.4454736153,2905749.7059271,15.177357735774,0,0
-71.683166320123,1.7344115979886,9.9817881788179,2327440.7912274,7194.4454736153,2905749.7059271,15.181788178818,0,0
-71.683165668656,1.7369945799305,9.9862186218622,2327440.7912274,7194.4454736153,2905749.7059271,15.186218621862,0,0
-71.683165017189,1.7395775618723,9.9906490649065,2327440.7912274,7194.4454736153,2905749.7059271,15.190649064906,0,0
-71.683164365722,1.7421605438142,9.9950795079508,2327440.7912274,7194.4454736153,2905749.7059271,15.195079507951,0,0
-71.683163714255,1.7447435257561,9.9995099509951,2327440.7912274,7194.4454736153,2905749.7059271,15.199509950995,0,0
-71.683163062789,1.747326507698,10.003940394039,2327440.7912274,7194.4454736153,2905749.7059271,15.203940394039,0,0
-71.683162411322,1.7499094896399,10.008370837084,2327440.7912274,7194.4454736153,2905749.7059271,15.208370837084,0,0
-71.683161759855,1.7524924715818,10.012801280128,2327440.7912274,7194.4454736153,2905749.7059271,15.212801280128,0,0
-71.683161108388,1.7550754535237,10.017231723172,2327440.7912274,7194.4454736153,2905749.7059271,15.217231723172,0,0
-71.683160456921,1.7576584354656,10.021662166217,2327440.7912274,7194.4454736153,2905749.7059271,15.221662166217,0,0
-71.683159805454,1.7602414174075,10.026092609261,2327440.7912274,7194.4454736153,2905749.7059271,15.226092609261,0,0
-71.683159153987,1.7628243993494,10.030523052305,2327440.7912274,7194.4454736153,2905749.7059271,15.230523052305,0,0
-71.68315850252,1.7654073812913,10.03495349535,2327440.7912274,7194.4454736153,2905749.7059271,15.23495349535,0,0
-71.683157851053,1.7679903632332,10.039383938394,2327440.7912274,7194.4454736153,2905749.7059271,15.239383938394,0,0
-71.683157199586,1.7705733451751,10.043814381438,2327440.7912274,7194.4454736153,2905749.7059271,15.243814381438,0,0
-71.683156548119,1.7731563271169,10.048244824482,2327440.7912274,7194.4454736153,2905749.7059271,15.248244824482,0,0
-71.683155896652,1.7757393090588,10.052675267527,2327440.7912274,7194.4454736153,2905749.7059271,15.252675267527,0,0
-71.683155245185,1.7783222910007,10.057105710571,2327440.7912274,7194.4454736153,2905749.7059271,15.257105710571,0,0
-71.683154593718,1.7809052729426,10.061536153615,2327440.7912274,7194.4454736153,2905749.7059271,15.261536153615,0,0
-71.683153942251,1.7834882548845,10.06596659666,2327440.7912274,7194.4454736153,2905749.7059271,15.26596659666,0,0
-71.683153290784,1.7860712368264,10.070397039704,2327440.7912274,7194.4454736153,2905749.7059271,15.270397039704,0,0
-71.683152639317,1.7886542187683,10.074827482748,2327440.7912274,7194.4454736153,2905749.7059271,15.274827482748,0,0
-71.683151987851,1.7912372007102,10.079257925793,2327440.7912274,7194.4454736153,2905749.7059271,15.279257925793,0,0
-71.683151336384,1.7938201826521,10.083688368837,2327440.7912274,7194.4454736153,2905749.7059271,15.283688368837,0,0
-71.683150684917,1.796403164594,10.088118811881,2327440.7912274,7194.4454736153,2905749.7059271,15.288118811881,0,0
-71.68315003345,1.7989861465359,10.092549254925,2327440.7912274,7194.4454736153,2905749.7059271,15.292549254925,0,0
-71.683149381983,1.8015691284778,10.09697969797,2327440.7912274,7194.4454736153,2905749.7059271,15.29697969797,0,0
-71.683148730516,1.8041521104197,10.101410141014,2327440.7912274,7194.4454736153,2905749.7059271,15.301410141014,0,0
-71.683148079049,1.8067350923616,10.105840584058,2327440.7912274,7194.4454736153,2905749.7059271,15.305840584058,0,0
-71.683147427582,1.8093180743034,10.110271027103,2327440.7912274,7194.4454736153,2905749.7059271,15.310271027103,0,0
-71.683146776115,1.8119010562453,10.114701470147,2327440.7912274,7194.4454736153,2905749.7059271,15.314701470147,0,0
-71.683146124648,1.8144840381872,10.119131913191,2327440.7912274,7194.4454736153,2905749.7059271,15.319131913191,0,0
-71.683145473181,1.8170670201291,10.123562356236,2327440.7912274,7194.4454736153,2905749.7059271,15.323562356236,0,0
-71.683144821714,1.819650002071,10.12799279928,2327440.7912274,7194.4454736153,2905749.7059271,15.32799279928,0,0
-71.683144170247,1.8222329840129,10.132423242324,2327440.7912274,7194.4454736153,2905749.7059271,15.332423242324,0,0
-71.68314351878,1.8248159659548,10.136853685369,2327440.7912274,7194.4454736153,2905749.7059271,15.336853685369,0,0
-71.683142867313,1.8273989478967,10.141284128413,2327440.7912274,7194.4454736153,2905749.7059271,15.341284128413,0,0
-71.683142215846,1.8299819298386,10.145714571457,2327440.7912274,7194.4454736153,2905749.7059271,15.345714571457,0,0
-71.683141564379,1.8325649117805,10.150145014501,2327440.7912274,7194.4454736153,2905749.7059271,15.350145014501,0,0
-71.683140912912,1.8351478937224,10.154575457546,2327440.7912274,7194.4454736153,2905749.7059271,15.354575457546,0,0
-71.683140261446,1.8377308756643,10.15900590059,2327440.7912274,7194.4454736153,2905749.7059271,15.35900590059,0,0
-71.683139609979,1.8403138576061,10.163436343634,2327440.7912274,7194.4454736153,2905749.7059271,15.363436343634,0,0
-71.683138958512,1.842896839548,10.167866786679,2327440.7912274,7194.4454736153,2905749.7059271,15.367866786679,0,0
-71.683138307045,1.8454798214899,10.172297229723,2327440.7912274,7194.4454736153,2905749.7059271,15.372297229723,0,0
-71.683137655578,1.8480628034318,10.176727672767,2327440.7912274,7194.4454736153,2905749.7059271,15.376727672767,0,0
-71.683137004111,1.8506457853737,10.181158115812,2327440.7912274,7194.4454736153,2905749.7059271,15.381158115812,0,0
-71.683136352644,1.8532287673156,10.185588558856,2327440.7912274,7194.4454736153,2905749.7059271,15.385588558856,0,0
-71.683135701177,1.8558117492575,10.1900190019,2327440.7912274,7194.4454736153,2905749.7059271,15.3900190019,0,0
-71.68313504971,1.8583947311994,10.194449444944,2327440.7912274,7194.4454736153,2905749.7059271,15.394449444944,0,0
-71.683134398243,1.8609777131413,10.198879887989,2327440.7912274,7194.4454736153,2905749.7059271,15.398879887989,0,0
-71.683133746776,1.8635606950832,10.203310331033,2327440.7912274,7194.4454736153,2905749.7059271,15.403310331033,0,0
-71.683133095309,1.8661436770251,10.207740774077,2327440.7912274,7194.4454736153,2905749.7059271,15.407740774077,0,0
-71.683132443842,1.868726658967,10.212171217122,2327440.7912274,7194.4454736153,2905749.7059271,15.412171217122,0,0
-71.683131789388,1.8713096441273,10.216601660166,2354823.1181996,13667.835139648,2895056.7940351,15.416601660166,0,0
-71.683131132436,1.8738926319782,10.22103210321,2354823.1181996,13667.835139648,2895056.7940351,15.42103210321,0,0
-71.683130475484,1.876475619829,10.225462546255,2354823.1181996,13667.835139648,2895056.7940351,15.425462546255,0,0
-71.683129818532,1.8790586076798,10.229892989299,2354823.1181996,13667.835139648,2895056.7940351,15.429892989299,0,0
-71.683129161581,1.8816415955307,10.234323432343,2354823.1181996,13667.835139648,2895056.7940351,15.434323432343,0,0
-71.683128504629,1.8842245833815,10.238753875388,2354823.1181996,13667.835139648,2895056.7940351,15.438753875388,0,0
-71.683127847677,1.8868075712324,10.243184318432,2354823.1181996,13667.835139648,2895056.7940351,15.443184318432,0,0
-71.683127190725,1.8893905590832,10.247614761476,2354823.1181996,13667.835139648,2895056.7940351,15.447614761476,0,0
-71.683126533773,1.8919735469341,10.25204520452,2354823.1181996,13667.835139648,2895056.7940351,15.45204520452,0,0
-71.683125876822,1.8945565347849,10.256475647565,2354823.1181996,13667.835139648,2895056.7940351,15.456475647565,0,0
-71.68312521987,1.8971395226358,10.260906090609,2354823.1181996,13667.835139648,2895056.7940351,15.460906090609,0,0
-71.683124562918,1.8997225104866,10.265336533653,2354823.1181996,13667.835139648,2895056.7940351,15.465336533653,0,0
-71.683123905966,1.9023054983375,10.269766976698,2354823.1181996,13667.835139648,2895056.7940351,15.469766976698,0,0
-71.683123249014,1.9048884861883,10.274197419742,2354823.1181996,13667.835139648,2895056.7940351,15.474197419742,0,0
-71.683122592063,1.9074714740392,10.278627862786,2354823.1181996,13667.835139648,2895056.7940351,15.478627862786,0,0
-71.683121935111,1.91005446189,10.283058305831,2354823.1181996,13667.835139648,2895056.7940351,15.483058305831,0,0
-71.683121278159,1.9126374497409,10.287488748875,2354823.1181996,13667.835139648,2895056.7940351,15.487488748875,0,0
-71.683120621207,1.9152204375917,10.291919191919,2354823.1181996,13667.835139648,2895056.7940351,15.491919191919,0,0
-71.683119964255,1.9178034254426,10.296349634963,2354823.1181996,13667.835139648,2895056.7940351,15.496349634963,0,0
-71.683119307304,1.9203864132934,10.300780078008,2354823.1181996,13667.835139648,2895056.7940351,15.500780078008,0,0
-71.683118650352,1.9229694011443,10.305210521052,2354823.1181996,13667.835139648,2895056.7940351,15.505210521052,0,0
-71.6831179934,1.9255523889951,10.309640964096,2354823.1181996,13667.835139648,2895056.7940351,15.509640964096,0,0
-71.683117336448,1.928135376846,10.314071407141,2354823.1181996,13667.835139648,2895056.7940351,15.514071407141,0,0
-71.683116679496,1.9307183646968,10.318501850185,2354823.1181996,13667.835139648,2895056.7940351,15.518501850185,0,0
-71.683116022545,1.9333013525477,10.322932293229,2354823.1181996,13667.835139648,2895056.7940351,15.522932293229,0,0
-71.683115365593,1.9358843403985,10.327362736274,2354823.1181996,13667.835139648,2895056.7940351,15.527362736274,0,0
-71.683114708641,1.9384673282494,10.331793179318,2354823.1181996,13667.835139648,2895056.7940351,15.531793179318,0,0
-71.683114051689,1.9410503161002,10.336223622362,2354823.1181996,13667.835139648,2895056.7940351,15.536223622362,0,0
-71.683113394737,1.9436333039511,10.340654065407,2354823.1181996,13667.835139648,2895056.7940351,15.540654065407,0,0
-71.683112737786,1.9462162918019,10.345084508451,2354823.1181996,13667.835139648,2895056.7940351,15.545084508451,0,0
-71.683112080834,1.9487992796528,10.349514951495,2354823.1181996,13667.835139648,2895056.7940351,15.549514951495,0,0
-71.683111423882,1.9513822675036,10.353945394539,2354823.1181996,13667.835139648,2895056.7940351,15.553945394539,0,0
-71.68311076693,1.9539652553545,10.358375837584,2354823.1181996,13667.835139648,2895056.7940351,15.558375837584,0,0
-71.683110109978,1.9565482432053,10.362806280628,2354823.1181996,13667.835139648,2895056.7940351,15.562806280628,0,0
-71.683109453027,1.9591312310562,10.367236723672,2354823.1181996,13667.835139648,2895056.7940351,15.567236723672,0,0
-71.683108796075,1.961714218907,10.371667166717,2354823.1181996,13667.835139648,2895056.7940351,15.571667166717,0,0
-71.683108139123,1.9642972067579,10.376097609761,2354823.1181996,13667.835139648,2895056.7940351,15.576097609761,0,0
-71.683107482171,1.9668801946087,10.380528052805,2354823.1181996,13667.835139648,2895056.7940351,15.580528052805,0,0
-71.683106825219,1.9694631824596,10.38495849585,2354823.1181996,13667.835139648,2895056.7940351,15.58495849585,0,0
-71.683106168268,1.9720461703104,10.389388938894,2354823.1181996,13667.835139648,2895056.7940351,15.589388938894,0,0
-71.683105511316,1.9746291581613,10.393819381938,2354823.1181996,13667.835139648,2895056.7940351,15.593819381938,0,0
-71.6831048531,1.9772121428877,10.398249824982,2363867.6171065,2998.3748654721,2869982.2577099,15.598249824982,0,0
-71.683104193365,1.9797951238592,10.402680268027,2363867.6171065,2998.3748654721,2869982.2577099,15.602680268027,0,0
-71.68310353363,1.9823781048307,10.407110711071,2363867.6171065,2998.3748654721,2869982.2577099,15.607110711071,0,0
-71.683102873895,1.9849610858021,10.411541154115,2363867.6171065,2998.3748654721,2869982.2577099,15.611541154115,0,0
-71.683102214159,1.9875440667736,10.41597159716,2363867.6171065,2998.3748654721,2869982.2577099,15.61597159716,0,0
-71.683101554424,1.990127047745,10.420402040204,2363867.6171065,2998.3748654721,2869982.2577099,15.620402040204,0,0
-71.683100894689,1.9927100287165,10.424832483248,2363867.6171065,2998.3748654721,2869982.2577099,15.624832483248,0,0
-71.683100234954,1.9952930096879,10.429262926293,2363867.6171065,2998.3748654721,2869982.2577099,15.629262926293,0,0
-71.683099575219,1.9978759906594,10.433693369337,2363867.6171065,2998.3748654721,2869982.2577099,15.633693369337,0,0
-71.683098915484,2.0004589716309,10.438123812381,2363867.6171065,2998.3748654721,2869982.2577099,15.638123812381,0,0
-71.683098255749,2.0030419526023,10.442554255426,2363867.6171065,2998.3748654721,2869982.2577099,15.642554255426,0,0
-71.683097596014,2.0056249335738,10.44698469847,2363867.6171065,2998.3748654721,2869982.2577099,15.64698469847,0,0
-71.683096936278,2.0082079145452,10.451415141514,2363867.6171065,2998.3748654721,2869982.2577099,15.651415141514,0,0
-71.683096276543,2.0107908955167,10.455845584558,2363867.6171065,2998.3748654721,2869982.2577099,15.655845584558,0,0
-71.683095616808,2.0133738764881,10.460276027603,2363867.6171065,2998.3748654721,2869982.2577099,15.660276027603,0,0
-71.683094957073,2.0159568574596,10.464706470647,2363867.6171065,2998.3748654721,2869982.2577099,15.664706470647,0,0
-71.683094297338,2.018539838431,10.469136913691,2363867.6171065,2998.3748654721,2869982.2577099,15.669136913691,0,0
-71.683093637603,2.0211228194025,10.473567356736,2363867.6171065,2998.3748654721,2869982.2577099,15.673567356736,0,0
-71.683092977868,2.023705800374,10.47799779978,2363867.6171065,2998.3748654721,2869982.2577099,15.67799779978,0,0
-71.683092318133,2.0262887813454,10.482428242824,2363867.6171065,2998.3748654721,2869982.2577099,15.682428242824,0,0
-71.683091658397,2.0288717623169,10.486858685869,2363867.6171065,2998.3748654721,2869982.2577099,15.686858685869,0,0
-71.683090998662,2.0314547432883,10.491289128913,2363867.6171065,2998.3748654721,2869982.2577099,15.691289128913,0,0
-71.683090338927,2.0340377242598,10.495719571957,2363867.6171065,2998.3748654721,2869982.2577099,15.695719571957,0,0
-71.683089679192,2.0366207052312,10.500150015001,2363867.6171065,2998.3748654721,2869982.2577099,15.700150015001,0,0
-71.683089019457,2.0392036862027,10.504580458046,2363867.6171065,2998.3748654721,2869982.2577099,15.704580458046,0,0
-71.683088359722,2.0417866671742,10.50901090109,2363867.6171065,2998.3748654721,2869982.2577099,15.70901090109,0,0
-71.683087699987,2.0443696481456,10.513441344134,2363867.6171065,2998.3748654721,2869982.2577099,15.713441344134,0,0
-71.683087040252,2.0469526291171,10.517871787179,2363867.6171065,2998.3748654721,2869982.2577099,15.717871787179,0,0
-71.683086380516,2.0495356100885,10.522302230223,2363867.6171065,2998.3748654721,2869982.2577099,15.722302230223,0,0
-71.683085720781,2.05211859106,10.526732673267,2363867.6171065,2998.3748654721,2869982.2577099,15.726732673267,0,0
-71.683085061046,2.0547015720314,10.531163116312,2363867.6171065,2998.3748654721,2869982.2577099,15.731163116312,0,0
-71.683084401311,2.0572845530029,10.535593559356,2363867.6171065,2998.3748654721,2869982.2577099,15.735593559356,0,0
-71.683083741576,2.0598675339744,10.5400240024,2363867.6171065,2998.3748654721,2869982.2577099,15.7400240024,0,0
-71.683083081841,2.0624505149458,10.544454445445,2363867.6171065,2998.3748654721,2869982.2577099,15.744454445445,0,0
-71.683082422106,2.0650334959173,10.548884888489,2363867.6171065,2998.3748654721,2869982.2577099,15.748884888489,0,0
-71.683081762371,2.0676164768887,10.553315331533,2363867.6171065,2998.3748654721,2869982.2577099,15.753315331533,0,0
-71.683081102635,2.0701994578602,10.557745774577,2363867.6171065,2998.3748654721,2869982.2577099,15.757745774577,0,0
-71.6830804429,2.0727824388316,10.562176217622,2363867.6171065,2998.3748654721,2869982.2577099,15.762176217622,0,0
-71.683079783165,2.0753654198031,10.566606660666,2363867.6171065,2998.3748654721,2869982.2577099,15.766606660666,0,0
-71.68307912343,2.0779484007746,10.57103710371,2363867.6171065,2998.3748654721,2869982.2577099,15.77103710371,0,0
-71.683078463695,2.080531381746,10.575467546755,2363867.6171065,2998.3748654721,2869982.2577099,15.775467546755,0,0
-71.68307780396,2.0831143627175,10.579897989799,2363867.6171065,2998.3748654721,2869982.2577099,15.779897989799,0,0
-71.683077144225,2.0856973436889,10.584328432843,2363867.6171065,2998.3748654721,2869982.2577099,15.784328432843,0,0
-71.68307648449,2.0882803246604,10.588758875888,2363867.6171065,2998.3748654721,2869982.2577099,15.788758875888,0,0
-71.683075824754,2.0908633056318,10.593189318932,2363867.6171065,2998.3748654721,2869982.2577099,15.793189318932,0,0
-71.683075165019,2.0934462866033,10.597619761976,2363867.6171065,2998.3748654721,2869982.2577099,15.797619761976,0,0
-71.683074505284,2.0960292675748,10.602050205021,2363867.6171065,2998.3748654721,2869982.2577099,15.80205020502,0,0
-71.683073845549,2.0986122485462,10.606480648065,2363867.6171065,2998.3748654721,2869982.2577099,15.806480648065,0,0
-71.683073185814,2.1011952295177,10.610911091109,2363867.6171065,2998.3748654721,2869982.2577099,15.810911091109,0,0
-71.683072526079,2.1037782104891,10.615341534153,2363867.6171065,2998.3748654721,2869982.2577099,15.815341534153,0,0
-71.683071866344,2.1063611914606,10.619771977198,2363867.6171065,2998.3748654721,2869982.2577099,15.819771977198,0,0
-71.683071206609,2.108944172432,10.624202420242,2363867.6171065,2998.3748654721,2869982.2577099,15.824202420242,0,0
-71.683070546873,2.1115271534035,10.628632863286,2363867.6171065,2998.3748654721,2869982.2577099,15.828632863286,0,0
-71.683069887138,2.1141101343749,10.633063306331,2363867.6171065,2998.3748654721,2869982.2577099,15.833063306331,0,0
-71.683069227403,2.1166931153464,10.637493749375,2363867.6171065,2998.3748654721,2869982.2577099,15.837493749375,0,0
-71.683068567668,2.1192760963179,10.641924192419,2363867.6171065,2998.3748654721,2869982.2577099,15.841924192419,0,0
-71.683067907933,2.1218590772893,10.646354635464,2363867.6171065,2998.3748654721,2869982.2577099,15.846354635464,0,0
-71.683067248198,2.1244420582608,10.650785078508,2363867.6171065,2998.3748654721,2869982.2577099,15.850785078508,0,0
-71.683066588463,2.1270250392322,10.655215521552,2363867.6171065,2998.3748654721,2869982.2577099,15.855215521552,0,0
-71.683065928728,2.1296080202037,10.659645964596,2363867.6171065,2998.3748654721,2869982.2577099,15.859645964596,0,0
-71.683065268992,2.1321910011751,10.664076407641,2363867.6171065,2998.3748654721,2869982.2577099,15.864076407641,0,0
-71.683064609257,2.1347739821466,10.668506850685,2363867.6171065,2998.3748654721,2869982.2577099,15.868506850685,0,0
-71.683063949522,2.1373569631181,10.672937293729,2363867.6171065,2998.3748654721,2869982.2577099,15.872937293729,0,0
-71.683063289787,2.1399399440895,10.677367736774,2363867.6171065,2998.3748654721,2869982.2577099,15.877367736774,0,0
-71.683062630052,2.142522925061,10.681798179818,2363867.6171065,2998.3748654721,2869982.2577099,15.881798179818,0,0
-71.683061970317,2.1451059060324,10.686228622862,2363867.6171065,2998.3748654721,2869982.2577099,15.886228622862,0,0
-71.683061310582,2.1476888870039,10.690659065907,2363867.6171065,2998.3748654721,2869982.2577099,15.890659065907,0,0
-71.683060650846,2.1502718679753,10.695089508951,2363867.6171065,2998.3748654721,2869982.2577099,15.895089508951,0,0
-71.683059991111,2.1528548489468,10.699519951995,2363867.6171065,2998.3748654721,2869982.2577099,15.899519951995,0,0
-71.683059331376,2.1554378299183,10.70395039504,2363867.6171065,2998.3748654721,2869982.2577099,15.90395039504,0,0
-71.683058671641,2.1580208108897,10.708380838084,2363867.6171065,2998.3748654721,2869982.2577099,15.908380838084,0,0
-71.683058011906,2.1606037918612,10.712811281128,2363867.6171065,2998.3748654721,2869982.2577099,15.912811281128,0,0
-71.683057352171,2.1631867728326,10.717241724172,2363867.6171065,2998.3748654721,2869982.2577099,15.917241724172,0,0
-71.683056692436,2.1657697538041,10.721672167217,2363867.6171065,2998.3748654721,2869982.2577099,15.921672167217,0,0
-71.683056032701,2.1683527347755,10.726102610261,2363867.6171065,2998.3748654721,2869982.2577099,15.926102610261,0,0
-71.683055372965,2.170935715747,10.730533053305,2363867.6171065,2998.3748654721,2869982.2577099,15.930533053305,0,0
-71.68305471323,2.1735186967185,10.73496349635,2363867.6171065,2998.3748654721,2869982.2577099,15.93496349635,0,0
-71.683054053495,2.1761016776899,10.739393939394,2363867.6171065,2998.3748654721,2869982.2577099,15.939393939394,0,0
-71.68305339376,2.1786846586614,10.743824382438,2363867.6171065,2998.3748654721,2869982.2577099,15.943824382438,0,0
-71.683052734025,2.1812676396328,10.748254825483,2363867.6171065,2998.3748654721,2869982.2577099,15.948254825483,0,0
-71.68305207429,2.1838506206043,10.752685268527,2363867.6171065,2998.3748654721,2869982.2577099,15.952685268527,0,0
-71.683051414555,2.1864336015757,10.757115711571,2363867.6171065,2998.3748654721,2869982.2577099,15.957115711571,0,0
-71.68305075482,2.1890165825472,10.761546154615,2363867.6171065,2998.3748654721,2869982.2577099,15.961546154615,0,0
-71.683050095084,2.1915995635187,10.76597659766,2363867.6171065,2998.3748654721,2869982.2577099,15.96597659766,0,0
-71.683049435349,2.1941825444901,10.770407040704,2363867.6171065,2998.3748654721,2869982.2577099,15.970407040704,0,0
-71.683048775614,2.1967655254616,10.774837483748,2363867.6171065,2998.3748654721,2869982.2577099,15.974837483748,0,0
-71.683048115879,2.199348506433,10.779267926793,2363867.6171065,2998.3748654721,2869982.2577099,15.979267926793,0,0
-71.683047456144,2.2019314874045,10.783698369837,2363867.6171065,2998.3748654721,2869982.2577099,15.983698369837,0,0
-71.683046796409,2.2045144683759,10.788128812881,2363867.6171065,2998.3748654721,2869982.2577099,15.988128812881,0,0
-71.683046136674,2.2070974493474,10.792559255926,2363867.6171065,2998.3748654721,2869982.2577099,15.992559255926,0,0
-71.683045476939,2.2096804303188,10.79698969897,2363867.6171065,2998.3748654721,2869982.2577099,15.99698969897,0,0
-71.683044817203,2.2122634112903,10.801420142014,2363867.6171065,2998.3748654721,2869982.2577099,16.001420142014,0,0
-71.683044157468,2.2148463922618,10.805850585059,2363867.6171065,2998.3748654721,2869982.2577099,16.005850585059,0,0
-71.683043497733,2.2174293732332,10.810281028103,2363867.6171065,2998.3748654721,2869982.2577099,16.010281028103,0,0
-71.683042837998,2.2200123542047,10.814711471147,2363867.6171065,2998.3748654721,2869982.2577099,16.014711471147,0,0
-71.683042178263,2.2225953351761,10.819141914191,2363867.6171065,2998.3748654721,2869982.2577099,16.019141914191,0,0
-71.683041518528,2.2251783161476,10.823572357236,2363867.6171065,2998.3748654721,2869982.2577099,16.023572357236,0,0
-71.683040858793,2.227761297119,10.82800280028,2363867.6171065,2998.3748654721,2869982.2577099,16.02800280028,0,0
-71.683040199058,2.2303442780905,10.832433243324,2363867.6171065,2998.3748654721,2869982.2577099,16.032433243324,0,0
-71.683039539322,2.232927259062,10.836863686369,2363867.6171065,2998.3748654721,2869982.2577099,16.036863686369,0,0
-71.683038879587,2.2355102400334,10.841294129413,2363867.6171065,2998.3748654721,2869982.2577099,16.041294129413,0,0
-71.683038219852,2.2380932210049,10.845724572457,2363867.6171065,2998.3748654721,2869982.2577099,16.045724572457,0,0
-71.683037560117,2.2406762019763,10.850155015502,2363867.6171065,2998.3748654721,2869982.2577099,16.050155015502,0,0
-71.683036900382,2.2432591829478,10.854585458546,2363867.6171065,2998.3748654721,2869982.2577099,16.054585458546,0,0
-71.683036240647,2.2458421639192,10.85901590159,2363867.6171065,2998.3748654721,2869982.2577099,16.05901590159,0,0
-71.683035580912,2.2484251448907,10.863446344634,2363867.6171065,2998.3748654721,2869982.2577099,16.063446344634,0,0
-71.683034921177,2.2510081258622,10.867876787679,2363867.6171065,2998.3748654721,2869982.2577099,16.067876787679,0,0
-71.683034261441,2.2535911068336,10.872307230723,2363867.6171065,2998.3748654721,2869982.2577099,16.072307230723,0,0
-71.683033601706,2.2561740878051,10.876737673767,2363867.6171065,2998.3748654721,2869982.2577099,16.076737673767,0,0
-71.683032941971,2.2587570687765,10.881168116812,2363867.6171065,2998.3748654721,2869982.2577099,16.081168116812,0,0
-71.683032282236,2.261340049748,10.885598559856,2363867.6171065,2998.3748654721,2869982.2577099,16.085598559856,0,0
-71.683031622501,2.2639230307194,10.8900290029,2363867.6171065,2998.3748654721,2869982.2577099,16.0900290029,0,0
-71.683030962766,2.2665060116909,10.894459445945,2363867.6171065,2998.3748654721,2869982.2577099,16.094459445945,0,0
-71.683030303031,2.2690889926624,10.898889888989,2363867.6171065,2998.3748654721,2869982.2577099,16.098889888989,0,0
-71.683029643296,2.2716719736338,10.903320332033,2363867.6171065,2998.3748654721,2869982.2577099,16.103320332033,0,0
-71.68302898356,2.2742549546053,10.907750775078,2363867.6171065,2998.3748654721,2869982.2577099,16.107750775078,0,0
-71.683028323825,2.2768379355767,10.912181218122,2363867.6171065,2998.3748654721,2869982.2577099,16.112181218122,0,0
-71.68302766409,2.2794209165482,10.916611661166,2363867.6171065,2998.3748654721,2869982.2577099,16.116611661166,0,0
-71.683027004355,2.2820038975196,10.92104210421,2363867.6171065,2998.3748654721,2869982.2577099,16.12104210421,0,0
-71.68302634462,2.2845868784911,10.925472547255,2363867.6171065,2998.3748654721,2869982.2577099,16.125472547255,0,0
-71.683025684885,2.2871698594626,10.929902990299,2363867.6171065,2998.3748654721,2869982.2577099,16.129902990299,0,0
-71.68302502515,2.289752840434,10.934333433343,2363867.6171065,2998.3748654721,2869982.2577099,16.134333433343,0,0
-71.683024365415,2.2923358214055,10.938763876388,2363867.6171065,2998.3748654721,2869982.2577099,16.138763876388,0,0
-71.683023705679,2.2949188023769,10.943194319432,2363867.6171065,2998.3748654721,2869982.2577099,16.143194319432,0,0
-71.683023045944,2.2975017833484,10.947624762476,2363867.6171065,2998.3748654721,2869982.2577099,16.147624762476,0,0
-71.683022386209,2.3000847643198,10.952055205521,2363867.6171065,2998.3748654721,2869982.2577099,16.152055205521,0,0
-71.683021726474,2.3026677452913,10.956485648565,2363867.6171065,2998.3748654721,2869982.2577099,16.156485648565,0,0
-71.683021066739,2.3052507262628,10.960916091609,2363867.6171065,2998.3748654721,2869982.2577099,16.160916091609,0,0
-71.683020407004,2.3078337072342,10.965346534653,2363867.6171065,2998.3748654721,2869982.2577099,16.165346534653,0,0
-71.683019747269,2.3104166882057,10.969776977698,2363867.6171065,2998.3748654721,2869982.2577099,16.169776977698,0,0
-71.683019087534,2.3129996691771,10.974207420742,2363867.6171065,2998.3748654721,2869982.2577099,16.174207420742,0,0
-71.683018427798,2.3155826501486,10.978637863786,2363867.6171065,2998.3748654721,2869982.2577099,16.178637863786,0,0
-71.683017768063,2.31816563112,10.983068306831,2363867.6171065,2998.3748654721,2869982.2577099,16.183068306831,0,0
-71.683017108328,2.3207486120915,10.987498749875,2363867.6171065,2998.3748654721,2869982.2577099,16.187498749875,0,0
-71.683016448593,2.3233315930629,10.991929192919,2363867.6171065,2998.3748654721,2869982.2577099,16.191929192919,0,0
-71.683015788858,2.3259145740344,10.996359635964,2363867.6171065,2998.3748654721,2869982.2577099,16.196359635964,0,0
-71.683015129123,2.3284975550059,11.000790079008,2363867.6171065,2998.3748654721,2869982.2577099,16.200790079008,0,0
-71.683014469388,2.3310805359773,11.005220522052,2363867.6171065,2998.3748654721,2869982.2577099,16.205220522052,0,0
-71.683013809653,2.3336635169488,11.009650965097,2363867.6171065,2998.3748654721,2869982.2577099,16.209650965097,0,0
-71.683013149917,2.3362464979202,11.014081408141,2363867.6171065,2998.3748654721,2869982.2577099,16.214081408141,0,0
-71.683012490182,2.3388294788917,11.018511851185,2363867.6171065,2998.3748654721,2869982.2577099,16.218511851185,0,0
-71.683011830447,2.3414124598631,11.022942294229,2363867.6171065,2998.3748654721,2869982.2577099,16.222942294229,0,0
-71.683011170712,2.3439954408346,11.027372737274,2363867.6171065,2998.3748654721,2869982.2577099,16.227372737274,0,0
-71.683010510977,2.3465784218061,11.031803180318,2363867.6171065,2998.3748654721,2869982.2577099,16.231803180318,0,0
-71.683009851242,2.3491614027775,11.036233623362,2363867.6171065,2998.3748654721,2869982.2577099,16.236233623362,0,0
-71.683009191507,2.351744383749,11.040664066407,2363867.6171065,2998.3748654721,2869982.2577099,16.240664066407,0,0
-71.683008531772,2.3543273647204,11.045094509451,2363867.6171065,2998.3748654721,2869982.2577099,16.245094509451,0,0
-71.683007872036,2.3569103456919,11.049524952495,2363867.6171065,2998.3748654721,2869982.2577099,16.249524952495,0,0
-71.683007212301,2.3594933266633,11.05395539554,2363867.6171065,2998.3748654721,2869982.2577099,16.25395539554,0,0
-71.683006552566,2.3620763076348,11.058385838584,2363867.6171065,2998.3748654721,2869982.2577099,16.258385838584,0,0
-71.683005892831,2.3646592886063,11.062816281628,2363867.6171065,2998.3748654721,2869982.2577099,16.262816281628,0,0
-71.683005233096,2.3672422695777,11.067246724672,2363867.6171065,2998.3748654721,2869982.2577099,16.267246724672,0,0
-71.683004573361,2.3698252505492,11.071677167717,2363867.6171065,2998.3748654721,2869982.2577099,16.271677167717,0,0
-71.683003913626,2.3724082315206,11.076107610761,2363867.6171065,2998.3748654721,2869982.2577099,16.276107610761,0,0
-71.683003253891,2.3749912124921,11.080538053805,2363867.6171065,2998.3748654721,2869982.2577099,16.280538053805,0,0
-71.683002594155,2.3775741934635,11.08496849685,2363867.6171065,2998.3748654721,2869982.2577099,16.28496849685,0,0
-71.68300193442,2.380157174435,11.089398939894,2363867.6171065,2998.3748654721,2869982.2577099,16.289398939894,0,0
-71.683001274685,2.3827401554065,11.093829382938,2363867.6171065,2998.3748654721,2869982.2577099,16.293829382938,0,0
-71.68300061495,2.3853231363779,11.098259825983,2363867.6171065,2998.3748654721,2869982.2577099,16.298259825983,0,0
-71.682999955215,2.3879061173494,11.102690269027,2363867.6171065,2998.3748654721,2869982.2577099,16.302690269027,0,0
-71.68299929548,2.3904890983208,11.107120712071,2363867.6171065,2998.3748654721,2869982.2577099,16.307120712071,0,0
-71.682998635745,2.3930720792923,11.111551155116,2363867.6171065,2998.3748654721,2869982.2577099,16.311551155116,0,0
-71.68299797601,2.3956550602637,11.11598159816,2363867.6171065,2998.3748654721,2869982.2577099,16.31598159816,0,0
-71.682997316274,2.3982380412352,11.120412041204,2363867.6171065,2998.3748654721,2869982.2577099,16.320412041204,0,0
-71.682996656539,2.4008210222067,11.124842484248,2363867.6171065,2998.3748654721,2869982.2577099,16.324842484248,0,0
-71.682995996804,2.4034040031781,11.129272927293,2363867.6171065,2998.3748654721,2869982.2577099,16.329272927293,0,0
-71.682995337069,2.4059869841496,11.133703370337,2363867.6171065,2998.3748654721,2869982.2577099,16.333703370337,0,0
-71.682994677334,2.408569965121,11.138133813381,2363867.6171065,2998.3748654721,2869982.2577099,16.338133813381,0,0
-71.682994017599,2.4111529460925,11.142564256426,2363867.6171065,2998.3748654721,2869982.2577099,16.342564256426,0,0
-71.682993357864,2.4137359270639,11.14699469947,2363867.6171065,2998.3748654721,2869982.2577099,16.34699469947,0,0
-71.682992698129,2.4163189080354,11.151425142514,2363867.6171065,2998.3748654721,2869982.2577099,16.351425142514,0,0
-71.682992038393,2.4189018890068,11.155855585559,2363867.6171065,2998.3748654721,2869982.2577099,16.355855585559,0,0
-71.682991378658,2.4214848699783,11.160286028603,2363867.6171065,2998.3748654721,2869982.2577099,16.360286028603,0,0
-71.682990718923,2.4240678509498,11.164716471647,2363867.6171065,2998.3748654721,2869982.2577099,16.364716471647,0,0
-71.682990059188,2.4266508319212,11.169146914691,2363867.6171065,2998.3748654721,2869982.2577099,16.369146914691,0,0
-71.682989399453,2.4292338128927,11.173577357736,2363867.6171065,2998.3748654721,2869982.2577099,16.373577357736,0,0
-71.682988739718,2.4318167938641,11.17800780078,2363867.6171065,2998.3748654721,2869982.2577099,16.37800780078,0,0
-71.682988079983,2.4343997748356,11.182438243824,2363867.6171065,2998.3748654721,2869982.2577099,16.382438243824,0,0
-71.682987420248,2.436982755807,11.186868686869,2363867.6171065,2998.3748654721,2869982.2577099,16.386868686869,0,0
-71.682986760512,2.4395657367785,11.191299129913,2363867.6171065,2998.3748654721,2869982.2577099,16.391299129913,0,0
-71.682986100777,2.44214871775,11.195729572957,2363867.6171065,2998.3748654721,2869982.2577099,16.395729572957,0,0
-71.682985441042,2.4447316987214,11.200160016002,2363867.6171065,2998.3748654721,2869982.2577099,16.400160016002,0,0
-71.682984781307,2.4473146796929,11.204590459046,2363867.6171065,2998.3748654721,2869982.2577099,16.404590459046,0,0
-71.682984121572,2.4498976606643,11.20902090209,2363867.6171065,2998.3748654721,2869982.2577099,16.40902090209,0,0
-71.682983461837,2.4524806416358,11.213451345135,2363867.6171065,2998.3748654721,2869982.2577099,16.413451345135,0,0
-71.682982802102,2.4550636226072,11.217881788179,2363867.6171065,2998.3748654721,2869982.2577099,16.417881788179,0,0
-71.682982142367,2.4576466035787,11.222312231223,2363867.6171065,2998.3748654721,2869982.2577099,16.422312231223,0,0
-71.682981481227,2.4602295862223,11.226742674267,2386987.345322,9825.5942897546,2859516.453605,16.426742674267,0,0
-71.682980816796,2.4628125727856,11.231173117312,2386987.345322,9825.5942897546,2859516.453605,16.431173117312,0,0
-71.682980152365,2.4653955593488,11.235603560356,2386987.345322,9825.5942897546,2859516.453605,16.435603560356,0,0
-71.682979487934,2.4679785459121,11.2400340034,2386987.345322,9825.5942897546,2859516.453605,16.4400340034,0,0
-71.682978823503,2.4705615324754,11.244464446445,2386987.345322,9825.5942897546,2859516.453605,16.444464446445,0,0
-71.682978159072,2.4731445190387,11.248894889489,2386987.345322,9825.5942897546,2859516.453605,16.448894889489,0,0
-71.682977494641,2.475727505602,11.253325332533,2386987.345322,9825.5942897546,2859516.453605,16.453325332533,0,0
-71.68297683021,2.4783104921652,11.257755775578,2386987.345322,9825.5942897546,2859516.453605,16.457755775578,0,0
-71.682976165779,2.4808934787285,11.262186218622,2386987.345322,9825.5942897546,2859516.453605,16.462186218622,0,0
-71.682975501348,2.4834764652918,11.266616661666,2386987.345322,9825.5942897546,2859516.453605,16.466616661666,0,0
-71.682974836917,2.4860594518551,11.27104710471,2386987.345322,9825.5942897546,2859516.453605,16.47104710471,0,0
-71.682974172486,2.4886424384183,11.275477547755,2386987.345322,9825.5942897546,2859516.453605,16.475477547755,0,0
-71.682973508055,2.4912254249816,11.279907990799,2386987.345322,9825.5942897546,2859516.453605,16.479907990799,0,0
-71.682972843624,2.4938084115449,11.284338433843,2386987.345322,9825.5942897546,2859516.453605,16.484338433843,0,0
-71.682972179193,2.4963913981082,11.288768876888,2386987.345322,9825.5942897546,2859516.453605,16.488768876888,0,0
-71.682971514762,2.4989743846715,11.293199319932,2386987.345322,9825.5942897546,2859516.453605,16.493199319932,0,0
-71.682970850331,2.5015573712347,11.297629762976,2386987.345322,9825.5942897546,2859516.453605,16.497629762976,0,0
-71.6829701859,2.504140357798,11.302060206021,2386987.345322,9825.5942897546,2859516.453605,16.502060206021,0,0
-71.682969521469,2.5067233443613,11.306490649065,2386987.345322,9825.5942897546,2859516.453605,16.506490649065,0,0
-71.682968857038,2.5093063309246,11.310921092109,2386987.345322,9825.5942897546,2859516.453605,16.510921092109,0,0
-71.682968192607,2.5118893174878,11.315351535154,2386987.345322,9825.5942897546,2859516.453605,16.515351535154,0,0
-71.682967528176,2.5144723040511,11.319781978198,2386987.345322,9825.5942897546,2859516.453605,16.519781978198,0,0
-71.682966863745,2.5170552906144,11.324212421242,2386987.345322,9825.5942897546,2859516.453605,16.524212421242,0,0
-71.682966199314,2.5196382771777,11.328642864286,2386987.345322,9825.5942897546,2859516.453605,16.528642864286,0,0
-71.682965534883,2.522221263741,11.333073307331,2386987.345322,9825.5942897546,2859516.453605,16.533073307331,0,0
-71.682964870452,2.5248042503042,11.337503750375,2386987.345322,9825.5942897546,2859516.453605,16.537503750375,0,0
-71.682964206021,2.5273872368675,11.341934193419,2386987.345322,9825.5942897546,2859516.453605,16.541934193419,0,0
-71.68296354159,2.5299702234308,11.346364636464,2386987.345322,9825.5942897546,2859516.453605,16.546364636464,0,0
-71.682962877159,2.5325532099941,11.350795079508,2386987.345322,9825.5942897546,2859516.453605,16.550795079508,0,0
-71.682962212728,2.5351361965573,11.355225522552,2386987.345322,9825.5942897546,2859516.453605,16.555225522552,0,0
-71.682961548297,2.5377191831206,11.359655965597,2386987.345322,9825.5942897546,2859516.453605,16.559655965597,0,0
-71.682960883866,2.5403021696839,11.364086408641,2386987.345322,9825.5942897546,2859516.453605,16.564086408641,0,0
-71.682960219435,2.5428851562472,11.368516851685,2386987.345322,9825.5942897546,2859516.453605,16.568516851685,0,0
-71.682959555004,2.5454681428104,11.372947294729,2386987.345322,9825.5942897546,2859516.453605,16.572947294729,0,0
-71.682958890574,2.5480511293737,11.377377737774,2386987.345322,9825.5942897546,2859516.453605,16.577377737774,0,0
-71.682958226143,2.550634115937,11.381808180818,2386987.345322,9825.5942897546,2859516.453605,16.581808180818,0,0
-71.682957561712,2.5532171025003,11.386238623862,2386987.345322,9825.5942897546,2859516.453605,16.586238623862,0,0
-71.682956897281,2.5558000890636,11.390669066907,2386987.345322,9825.5942897546,2859516.453605,16.590669066907,0,0
-71.68295623285,2.5583830756268,11.395099509951,2386987.345322,9825.5942897546,2859516.453605,16.595099509951,0,0
-71.682955568419,2.5609660621901,11.399529952995,2386987.345322,9825.5942897546,2859516.453605,16.599529952995,0,0
-71.682954903988,2.5635490487534,11.40396039604,2386987.345322,9825.5942897546,2859516.453605,16.60396039604,0,0
-71.682954239557,2.5661320353167,11.408390839084,2386987.345322,9825.5942897546,2859516.453605,16.608390839084,0,0
-71.682953575126,2.5687150218799,11.412821282128,2386987.345322,9825.5942897546,2859516.453605,16.612821282128,0,0
-71.682952910695,2.5712980084432,11.417251725173,2386987.345322,9825.5942897546,2859516.453605,16.617251725173,0,0
-71.682952246264,2.5738809950065,11.421682168217,2386987.345322,9825.5942897546,2859516.453605,16.621682168217,0,0
-71.682951581833,2.5764639815698,11.426112611261,2386987.345322,9825.5942897546,2859516.453605,16.626112611261,0,0
-71.682950917402,2.5790469681331,11.430543054305,2386987.345322,9825.5942897546,2859516.453605,16.630543054305,0,0
-71.682950252971,2.5816299546963,11.43497349735,2386987.345322,9825.5942897546,2859516.453605,16.63497349735,0,0
-71.68294958854,2.5842129412596,11.439403940394,2386987.345322,9825.5942897546,2859516.453605,16.639403940394,0,0
-71.682948924109,2.5867959278229,11.443834383438,2386987.345322,9825.5942897546,2859516.453605,16.643834383438,0,0
-71.682948259678,2.5893789143862,11.448264826483,2386987.345322,9825.5942897546,2859516.453605,16.648264826483,0,0
-71.682947595247,2.5919619009494,11.452695269527,2386987.345322,9825.5942897546,2859516.453605,16.652695269527,0,0
-71.682946930816,2.5945448875127,11.457125712571,2386987.345322,9825.5942897546,2859516.453605,16.657125712571,0,0
-71.682946266385,2.597127874076,11.461556155616,2386987.345322,9825.5942897546,2859516.453605,16.661556155616,0,0
-71.682945601954,2.5997108606393,11.46598659866,2386987.345322,9825.5942897546,2859516.453605,16.66598659866,0,0
-71.682944937523,2.6022938472026,11.470417041704,2386987.345322,9825.5942897546,2859516.453605,16.670417041704,0,0
-71.682944273092,2.6048768337658,11.474847484748,2386987.345322,9825.5942897546,2859516.453605,16.674847484748,0,0
-71.682943608661,2.6074598203291,11.479277927793,2386987.345322,9825.5942897546,2859516.453605,16.679277927793,0,0
-71.68294294423,2.6100428068924,11.483708370837,2386987.345322,9825.5942897546,2859516.453605,16.683708370837,0,0
-71.682942279799,2.6126257934557,11.488138813881,2386987.345322,9825.5942897546,2859516.453605,16.688138813881,0,0
-71.682941615368,2.6152087800189,11.492569256926,2386987.345322,9825.5942897546,2859516.453605,16.692569256926,0,0
-71.682940950937,2.6177917665822,11.49699969997,2386987.345322,9825.5942897546,2859516.453605,16.69699969997,0,0
-71.682940286506,2.6203747531455,11.501430143014,2386987.345322,9825.5942897546,2859516.453605,16.701430143014,0,0
-71.682939622075,2.6229577397088,11.505860586059,2386987.345322,9825.5942897546,2859516.453605,16.705860586059,0,0
-71.682938957644,2.625540726272,11.510291029103,2386987.345322,9825.5942897546,2859516.453605,16.710291029103,0,0
-71.682938293213,2.6281237128353,11.514721472147,2386987.345322,9825.5942897546,2859516.453605,16.714721472147,0,0
-71.682937628782,2.6307066993986,11.519151915192,2386987.345322,9825.5942897546,2859516.453605,16.719151915192,0,0
-71.682936964351,2.6332896859619,11.523582358236,2386987.345322,9825.5942897546,2859516.453605,16.723582358236,0,0
-71.68293629992,2.6358726725252,11.52801280128,2386987.345322,9825.5942897546,2859516.453605,16.72801280128,0,0
-71.682935635229,2.6384556585038,11.532443244324,2397361.7477706,43.115583997703,2839549.5128343,16.732443244324,0,0
-71.682934968002,2.6410386387799,11.536873687369,2397361.7477706,43.115583997703,2839549.5128343,16.736873687369,0,0
-71.682934300775,2.6436216190561,11.541304130413,2397361.7477706,43.115583997703,2839549.5128343,16.741304130413,0,0
-71.682933633548,2.6462045993322,11.545734573457,2397361.7477706,43.115583997703,2839549.5128343,16.745734573457,0,0
-71.682932966321,2.6487875796084,11.550165016502,2397361.7477706,43.115583997703,2839549.5128343,16.750165016502,0,0
-71.682932299094,2.6513705598845,11.554595459546,2397361.7477706,43.115583997703,2839549.5128343,16.754595459546,0,0
-71.682931631867,2.6539535401607,11.55902590259,2397361.7477706,43.115583997703,2839549.5128343,16.75902590259,0,0
-71.68293096464,2.6565365204368,11.563456345635,2397361.7477706,43.115583997703,2839549.5128343,16.763456345635,0,0
-71.682930297414,2.6591195007129,11.567886788679,2397361.7477706,43.115583997703,2839549.5128343,16.767886788679,0,0
-71.682929630187,2.6617024809891,11.572317231723,2397361.7477706,43.115583997703,2839549.5128343,16.772317231723,0,0
-71.68292896296,2.6642854612652,11.576747674767,2397361.7477706,43.115583997703,2839549.5128343,16.776747674767,0,0
-71.682928295733,2.6668684415414,11.581178117812,2397361.7477706,43.115583997703,2839549.5128343,16.781178117812,0,0
-71.682927628506,2.6694514218175,11.585608560856,2397361.7477706,43.115583997703,2839549.5128343,16.785608560856,0,0
-71.682926961279,2.6720344020937,11.5900390039,2397361.7477706,43.115583997703,2839549.5128343,16.7900390039,0,0
-71.682926294052,2.6746173823698,11.594469446945,2397361.7477706,43.115583997703,2839549.5128343,16.794469446945,0,0
-71.682925626825,2.677200362646,11.598899889989,2397361.7477706,43.115583997703,2839549.5128343,16.798899889989,0,0
-71.682924959598,2.6797833429221,11.603330333033,2397361.7477706,43.115583997703,2839549.5128343,16.803330333033,0,0
-71.682924292371,2.6823663231983,11.607760776078,2397361.7477706,43.115583997703,2839549.5128343,16.807760776078,0,0
-71.682923625144,2.6849493034744,11.612191219122,2397361.7477706,43.115583997703,2839549.5128343,16.812191219122,0,0
-71.682922957918,2.6875322837505,11.616621662166,2397361.7477706,43.115583997703,2839549.5128343,16.816621662166,0,0
-71.682922290691,2.6901152640267,11.621052105211,2397361.7477706,43.115583997703,2839549.5128343,16.821052105211,0,0
-71.682921623464,2.6926982443028,11.625482548255,2397361.7477706,43.115583997703,2839549.5128343,16.825482548255,0,0
-71.682920956237,2.695281224579,11.629912991299,2397361.7477706,43.115583997703,2839549.5128343,16.829912991299,0,0
-71.68292028901,2.6978642048551,11.634343434343,2397361.7477706,43.115583997703,2839549.5128343,16.834343434343,0,0
-71.682919621783,2.7004471851313,11.638773877388,2397361.7477706,43.115583997703,2839549.5128343,16.838773877388,0,0
-71.682918954556,2.7030301654074,11.643204320432,2397361.7477706,43.115583997703,2839549.5128343,16.843204320432,0,0
-71.682918287329,2.7056131456836,11.647634763476,2397361.7477706,43.115583997703,2839549.5128343,16.847634763476,0,0
-71.682917620102,2.7081961259597,11.652065206521,2397361.7477706,43.115583997703,2839549.5128343,16.852065206521,0,0
-71.682916952875,2.7107791062358,11.656495649565,2397361.7477706,43.115583997703,2839549.5128343,16.856495649565,0,0
-71.682916285648,2.713362086512,11.660926092609,2397361.7477706,43.115583997703,2839549.5128343,16.860926092609,0,0
-71.682915618422,2.7159450667881,11.665356535654,2397361.7477706,43.115583997703,2839549.5128343,16.865356535654,0,0
-71.682914951195,2.7185280470643,11.669786978698,2397361.7477706,43.115583997703,2839549.5128343,16.869786978698,0,0
-71.682914283968,2.7211110273404,11.674217421742,2397361.7477706,43.115583997703,2839549.5128343,16.874217421742,0,0
-71.682913616741,2.7236940076166,11.678647864786,2397361.7477706,43.115583997703,2839549.5128343,16.878647864786,0,0
-71.682912949514,2.7262769878927,11.683078307831,2397361.7477706,43.115583997703,2839549.5128343,16.883078307831,0,0
-71.682912282287,2.7288599681689,11.687508750875,2397361.7477706,43.115583997703,2839549.5128343,16.887508750875,0,0
-71.68291161506,2.731442948445,11.691939193919,2397361.7477706,43.115583997703,2839549.5128343,16.891939193919,0,0
-71.682910947833,2.7340259287211,11.696369636964,2397361.7477706,43.115583997703,2839549.5128343,16.896369636964,0,0
-71.682910280606,2.7366089089973,11.700800080008,2397361.7477706,43.115583997703,2839549.5128343,16.900800080008,0,0
-71.682909613379,2.7391918892734,11.705230523052,2397361.7477706,43.115583997703,2839549.5128343,16.905230523052,0,0
-71.682908946152,2.7417748695496,11.709660966097,2397361.7477706,43.115583997703,2839549.5128343,16.909660966097,0,0
-71.682908278926,2.7443578498257,11.714091409141,2397361.7477706,43.115583997703,2839549.5128343,16.914091409141,0,0
-71.682907611699,2.7469408301019,11.718521852185,2397361.7477706,43.115583997703,2839549.5128343,16.918521852185,0,0
-71.682906944472,2.749523810378,11.72295229523,2397361.7477706,43.115583997703,2839549.5128343,16.92295229523,0,0
-71.682906277245,2.7521067906542,11.727382738274,2397361.7477706,43.115583997703,2839549.5128343,16.927382738274,0,0
-71.682905610018,2.7546897709303,11.731813181318,2397361.7477706,43.115583997703,2839549.5128343,16.931813181318,0,0
-71.682904942791,2.7572727512065,11.736243624362,2397361.7477706,43.115583997703,2839549.5128343,16.936243624362,0,0
-71.682904275564,2.7598557314826,11.740674067407,2397361.7477706,43.115583997703,2839549.5128343,16.940674067407,0,0
-71.682903608337,2.7624387117587,11.745104510451,2397361.7477706,43.115583997703,2839549.5128343,16.945104510451,0,0
-71.68290294111,2.7650216920349,11.749534953495,2397361.7477706,43.115583997703,2839549.5128343,16.949534953495,0,0
-71.682902273883,2.767604672311,11.75396539654,2397361.7477706,43.115583997703,2839549.5128343,16.95396539654,0,0
-71.682901606656,2.7701876525872,11.758395839584,2397361.7477706,43.115583997703,2839549.5128343,16.958395839584,0,0
-71.68290093943,2.7727706328633,11.762826282628,2397361.7477706,43.115583997703,2839549.5128343,16.962826282628,0,0
-71.682900272203,2.7753536131395,11.767256725673,2397361.7477706,43.115583997703,2839549.5128343,16.967256725673,0,0
-71.682899604976,2.7779365934156,11.771687168717,2397361.7477706,43.115583997703,2839549.5128343,16.971687168717,0,0
-71.682898937749,2.7805195736918,11.776117611761,2397361.7477706,43.115583997703,2839549.5128343,16.976117611761,0,0
-71.682898270522,2.7831025539679,11.780548054805,2397361.7477706,43.115583997703,2839549.5128343,16.980548054805,0,0
-71.682897603295,2.785685534244,11.78497849785,2397361.7477706,43.115583997703,2839549.5128343,16.98497849785,0,0
-71.682896936068,2.7882685145202,11.789408940894,2397361.7477706,43.115583997703,2839549.5128343,16.989408940894,0,0
-71.682896268841,2.7908514947963,11.793839383938,2397361.7477706,43.115583997703,2839549.5128343,16.993839383938,0,0
-71.682895601614,2.7934344750725,11.798269826983,2397361.7477706,43.115583997703,2839549.5128343,16.998269826983,0,0
-71.682894934387,2.7960174553486,11.802700270027,2397361.7477706,43.115583997703,2839549.5128343,17.002700270027,0,0
-71.68289426716,2.7986004356248,11.807130713071,2397361.7477706,43.115583997703,2839549.5128343,17.007130713071,0,0
-71.682893599934,2.8011834159009,11.811561156116,2397361.7477706,43.115583997703,2839549.5128343,17.011561156116,0,0
-71.682892932707,2.8037663961771,11.81599159916,2397361.7477706,43.115583997703,2839549.5128343,17.01599159916,0,0
-71.68289226548,2.8063493764532,11.820422042204,2397361.7477706,43.115583997703,2839549.5128343,17.020422042204,0,0
-71.682891598253,2.8089323567293,11.824852485249,2397361.7477706,43.115583997703,2839549.5128343,17.024852485249,0,0
-71.682890931026,2.8115153370055,11.829282928293,2397361.7477706,43.115583997703,2839549.5128343,17.029282928293,0,0
-71.682890263799,2.8140983172816,11.833713371337,2397361.7477706,43.115583997703,2839549.5128343,17.033713371337,0,0
-71.682889596572,2.8166812975578,11.838143814381,2397361.7477706,43.115583997703,2839549.5128343,17.038143814381,0,0
-71.682888929345,2.8192642778339,11.842574257426,2397361.7477706,43.115583997703,2839549.5128343,17.042574257426,0,0
-71.682888262118,2.8218472581101,11.84700470047,2397361.7477706,43.115583997703,2839549.5128343,17.04700470047,0,0
-71.682887594891,2.8244302383862,11.851435143514,2397361.7477706,43.115583997703,2839549.5128343,17.051435143514,0,0
-71.682886927664,2.8270132186624,11.855865586559,2397361.7477706,43.115583997703,2839549.5128343,17.055865586559,0,0
-71.682886260438,2.8295961989385,11.860296029603,2397361.7477706,43.115583997703,2839549.5128343,17.060296029603,0,0
-71.682885593211,2.8321791792146,11.864726472647,2397361.7477706,43.115583997703,2839549.5128343,17.064726472647,0,0
-71.682884925984,2.8347621594908,11.869156915692,2397361.7477706,43.115583997703,2839549.5128343,17.069156915692,0,0
-71.682884258757,2.8373451397669,11.873587358736,2397361.7477706,43.115583997703,2839549.5128343,17.073587358736,0,0
-71.68288359153,2.8399281200431,11.87801780178,2397361.7477706,43.115583997703,2839549.5128343,17.07801780178,0,0
-71.682882924303,2.8425111003192,11.882448244824,2397361.7477706,43.115583997703,2839549.5128343,17.082448244824,0,0
-71.682882257076,2.8450940805954,11.886878687869,2397361.7477706,43.115583997703,2839549.5128343,17.086878687869,0,0
-71.682881589849,2.8476770608715,11.891309130913,2397361.7477706,43.115583997703,2839549.5128343,17.091309130913,0,0
-71.682880922622,2.8502600411477,11.895739573957,2397361.7477706,43.115583997703,2839549.5128343,17.095739573957,0,0
-71.682880255395,2.8528430214238,11.900170017002,2397361.7477706,43.115583997703,2839549.5128343,17.100170017002,0,0
-71.682879588168,2.8554260016999,11.904600460046,2397361.7477706,43.115583997703,2839549.5128343,17.104600460046,0,0
-71.682878920942,2.8580089819761,11.90903090309,2397361.7477706,43.115583997703,2839549.5128343,17.10903090309,0,0
-71.682878253715,2.8605919622522,11.913461346135,2397361.7477706,43.115583997703,2839549.5128343,17.113461346135,0,0
-71.682877586488,2.8631749425284,11.917891789179,2397361.7477706,43.115583997703,2839549.5128343,17.117891789179,0,0
-71.682876919261,2.8657579228045,11.922322232223,2397361.7477706,43.115583997703,2839549.5128343,17.122322232223,0,0
-71.682876252034,2.8683409030807,11.926752675268,2397361.7477706,43.115583997703,2839549.5128343,17.126752675268,0,0
-71.682875584807,2.8709238833568,11.931183118312,2397361.7477706,43.115583997703,2839549.5128343,17.131183118312,0,0
-71.68287491758,2.873506863633,11.935613561356,2397361.7477706,43.115583997703,2839549.5128343,17.135613561356,0,0
-71.682874250353,2.8760898439091,11.9400440044,2397361.7477706,43.115583997703,2839549.5128342,17.1400440044,0,0
-71.682873583126,2.8786728241853,11.944474447445,2397361.7477706,43.115583997703,2839549.5128342,17.144474447445,0,0
-71.682872915899,2.8812558044614,11.948904890489,2397361.7477706,43.115583997703,2839549.5128342,17.148904890489,0,0
-71.682872248672,2.8838387847375,11.953335333533,2397361.7477706,43.115583997703,2839549.5128342,17.153335333533,0,0
-71.682871581446,2.8864217650137,11.957765776578,2397361.7477706,43.115583997703,2839549.5128342,17.157765776578,0,0
-71.682870914219,2.8890047452898,11.962196219622,2397361.7477706,43.115583997703,2839549.5128342,17.162196219622,0,0
-71.682870246992,2.891587725566,11.966626662666,2397361.7477706,43.115583997703,2839549.5128342,17.166626662666,0,0
-71.682869579765,2.8941707058421,11.971057105711,2397361.7477706,43.115583997703,2839549.5128342,17.171057105711,0,0
-71.682868912538,2.8967536861183,11.975487548755,2397361.7477706,43.115583997703,2839549.5128342,17.175487548755,0,0
-71.682868245311,2.8993366663944,11.979917991799,2397361.7477706,43.115583997703,2839549.5128342,17.179917991799,0,0
-71.682867578084,2.9019196466706,11.984348434843,2397361.7477706,43.115583997703,2839549.5128342,17.184348434843,0,0
-71.682866910857,2.9045026269467,11.988778877888,2397361.7477706,43.115583997703,2839549.5128342,17.188778877888,0,0
-71.68286624363,2.9070856072228,11.993209320932,2397361.7477706,43.115583997703,2839549.5128342,17.193209320932,0,0
-71.682865576403,2.909668587499,11.997639763976,2397361.7477706,43.115583997703,2839549.5128342,17.197639763976,0,0
-71.682864909176,2.9122515677751,12.002070207021,2397361.7477706,43.115583997703,2839549.5128342,17.202070207021,0,0
-71.68286424195,2.9148345480513,12.006500650065,2397361.7477706,43.115583997703,2839549.5128342,17.206500650065,0,0
-71.682863574723,2.9174175283274,12.010931093109,2397361.7477706,43.115583997703,2839549.5128343,17.210931093109,0,0
-71.682862907496,2.9200005086036,12.015361536154,2397361.7477706,43.115583997703,2839549.5128343,17.215361536154,0,0
-71.682862240269,2.9225834888797,12.019791979198,2397361.7477706,43.115583997703,2839549.5128343,17.219791979198,0,0
-71.682861573042,2.9251664691559,12.024222422242,2397361.7477706,43.115583997703,2839549.5128343,17.224222422242,0,0
-71.682860905815,2.927749449432,12.028652865287,2397361.7477706,43.115583997703,2839549.5128343,17.228652865287,0,0
-71.682860238588,2.9303324297081,12.033083308331,2397361.7477706,43.115583997703,2839549.5128343,17.233083308331,0,0
-71.682859571361,2.9329154099843,12.037513751375,2397361.7477706,43.115583997703,2839549.5128343,17.237513751375,0,0
-71.682858904134,2.9354983902604,12.041944194419,2397361.7477706,43.115583997703,2839549.5128343,17.241944194419,0,0
-71.682858236907,2.9380813705366,12.046374637464,2397361.7477706,43.115583997703,2839549.5128343,17.246374637464,0,0
-71.68285756968,2.9406643508127,12.050805080508,2397361.7477706,43.115583997703,2839549.5128343,17.250805080508,0,0
-71.682856902454,2.9432473310889,12.055235523552,2397361.7477706,43.115583997703,2839549.5128342,17.255235523552,0,0
-71.682856235227,2.945830311365,12.059665966597,2397361.7477706,43.115583997703,2839549.5128342,17.259665966597,0,0
-71.682855568,2.9484132916412,12.064096409641,2397361.7477706,43.115583997703,2839549.5128342,17.264096409641,0,0
-71.682854900773,2.9509962719173,12.068526852685,2397361.7477706,43.115583997703,2839549.5128342,17.268526852685,0,0
-71.682854233546,2.9535792521934,12.07295729573,2397361.7477706,43.115583997703,2839549.5128342,17.27295729573,0,0
-71.682853566319,2.9561622324696,12.077387738774,2397361.7477706,43.115583997703,2839549.5128342,17.277387738774,0,0
-71.682852899092,2.9587452127457,12.081818181818,2397361.7477706,43.115583997703,2839549.5128342,17.281818181818,0,0
-71.682852231865,2.9613281930219,12.086248624862,2397361.7477706,43.115583997703,2839549.5128342,17.286248624862,0,0
-71.682851564638,2.963911173298,12.090679067907,2397361.7477706,43.115583997703,2839549.5128342,17.290679067907,0,0
-71.682850897411,2.9664941535742,12.095109510951,2397361.7477706,43.115583997703,2839549.5128342,17.295109510951,0,0
-71.682850230184,2.9690771338503,12.099539953995,2397361.7477706,43.115583997703,2839549.5128342,17.299539953995,0,0
-71.682849562958,2.9716601141265,12.10397039704,2397361.7477706,43.115583997703,2839549.5128342,17.30397039704,0,0
-71.682848895731,2.9742430944026,12.108400840084,2397361.7477706,43.115583997703,2839549.5128342,17.308400840084,0,0
-71.682848228504,2.9768260746788,12.112831283128,2397361.7477706,43.115583997703,2839549.5128342,17.312831283128,0,0
-71.682847561277,2.9794090549549,12.117261726173,2397361.7477706,43.115583997703,2839549.5128342,17.317261726173,0,0
-71.68284689405,2.981992035231,12.121692169217,2397361.7477706,43.115583997703,2839549.5128342,17.321692169217,0,0
-71.682846226823,2.9845750155072,12.126122612261,2397361.7477706,43.115583997703,2839549.5128342,17.326122612261,0,0
-71.682845559596,2.9871579957833,12.130553055306,2397361.7477706,43.115583997703,2839549.5128342,17.330553055306,0,0
-71.682844892369,2.9897409760595,12.13498349835,2397361.7477706,43.115583997703,2839549.5128342,17.33498349835,0,0
-71.682844225142,2.9923239563356,12.139413941394,2397361.7477706,43.115583997703,2839549.5128342,17.339413941394,0,0
-71.682843557915,2.9949069366118,12.143844384438,2397361.7477706,43.115583997703,2839549.5128342,17.343844384438,0,0
-71.682842890688,2.9974899168879,12.148274827483,2397361.7477706,43.115583997703,2839549.5128342,17.348274827483,0,0
-71.682842223462,3.0000728971641,12.152705270527,2397361.7477706,43.115583997703,2839549.5128342,17.352705270527,0,0
-71.682841556235,3.0026558774402,12.157135713571,2397361.7477706,43.115583997703,2839549.5128342,17.357135713571,0,0
-71.682840889008,3.0052388577163,12.161566156616,2397361.7477706,43.115583997703,2839549.5128342,17.361566156616,0,0
-71.682840221781,3.0078218379925,12.16599659966,2397361.7477706,43.115583997703,2839549.5128342,17.36599659966,0,0
-71.682839554554,3.0104048182686,12.170427042704,2397361.7477706,43.115583997703,2839549.5128342,17.370427042704,0,0
-71.682838887327,3.0129877985448,12.174857485749,2397361.7477706,43.115583997703,2839549.5128342,17.374857485749,0,0
-71.6828382201,3.0155707788209,12.179287928793,2397361.7477706,43.115583997703,2839549.5128342,17.379287928793,0,0
-71.682837552873,3.0181537590971,12.183718371837,2397361.7477706,43.115583997703,2839549.5128342,17.383718371837,0,0
-71.682836885646,3.0207367393732,12.188148814881,2397361.7477706,43.115583997703,2839549.5128342,17.388148814881,0,0
-71.682836218419,3.0233197196494,12.192579257926,2397361.7477706,43.115583997703,2839549.5128342,17.392579257926,0,0
-71.682835551192,3.0259026999255,12.19700970097,2397361.7477706,43.115583997703,2839549.5128342,17.39700970097,0,0
-71.682834883966,3.0284856802016,12.201440144014,2397361.7477706,43.115583997703,2839549.5128342,17.401440144014,0,0
-71.682834216739,3.0310686604778,12.205870587059,2397361.7477706,43.115583997703,2839549.5128342,17.405870587059,0,0
-71.682833549512,3.0336516407539,12.210301030103,2397361.7477706,43.115583997703,2839549.5128342,17.410301030103,0,0
-71.682832882285,3.0362346210301,12.214731473147,2397361.7477706,43.115583997703,2839549.5128342,17.414731473147,0,0
-71.682832215058,3.0388176013062,12.219161916192,2397361.7477706,43.115583997703,2839549.5128342,17.419161916192,0,0
-71.682831547831,3.0414005815824,12.223592359236,2397361.7477706,43.115583997703,2839549.5128342,17.423592359236,0,0
-71.682830880604,3.0439835618585,12.22802280228,2397361.7477706,43.115583997703,2839549.5128342,17.42802280228,0,0
-71.682830213377,3.0465665421347,12.232453245325,2397361.7477706,43.115583997703,2839549.5128342,17.432453245325,0,0
-71.68282954615,3.0491495224108,12.236883688369,2397361.7477706,43.115583997703,2839549.5128342,17.436883688369,0,0
-71.682828878923,3.0517325026869,12.241314131413,2397361.7477706,43.115583997703,2839549.5128342,17.441314131413,0,0
-71.682828211696,3.0543154829631,12.245744574457,2397361.7477706,43.115583997703,2839549.5128342,17.445744574457,0,0
-71.68282754447,3.0568984632392,12.250175017502,2397361.7477706,43.115583997703,2839549.5128342,17.450175017502,0,0
-71.682826877243,3.0594814435154,12.254605460546,2397361.7477706,43.115583997703,2839549.5128342,17.454605460546,0,0
-71.682826210016,3.0620644237915,12.25903590359,2397361.7477706,43.115583997703,2839549.5128342,17.45903590359,0,0
-71.682825542789,3.0646474040677,12.263466346635,2397361.7477706,43.115583997703,2839549.5128342,17.463466346635,0,0
-71.682824875562,3.0672303843438,12.267896789679,2397361.7477706,43.115583997703,2839549.5128342,17.467896789679,0,0
-71.682824208335,3.06981336462,12.272327232723,2397361.7477706,43.115583997703,2839549.5128342,17.472327232723,0,0
-71.682823541108,3.0723963448961,12.276757675768,2397361.7477706,43.115583997703,2839549.5128342,17.476757675768,0,0
-71.682822873881,3.0749793251723,12.281188118812,2397361.7477706,43.115583997703,2839549.5128342,17.481188118812,0,0
-71.682822206654,3.0775623054484,12.285618561856,2397361.7477706,43.115583997703,2839549.5128342,17.485618561856,0,0
-71.682821539427,3.0801452857245,12.2900490049,2397361.7477706,43.115583997703,2839549.5128342,17.4900490049,0,0
-71.6828208722,3.0827282660007,12.294479447945,2397361.7477706,43.115583997703,2839549.5128342,17.494479447945,0,0
-71.682820204974,3.0853112462768,12.298909890989,2397361.7477706,43.115583997703,2839549.5128342,17.498909890989,0,0
-71.682819537747,3.087894226553,12.303340334033,2397361.7477706,43.115583997703,2839549.5128342,17.503340334033,0,0
-71.68281887052,3.0904772068291,12.307770777078,2397361.7477706,43.115583997703,2839549.5128342,17.507770777078,0,0
-71.682818203293,3.0930601871053,12.312201220122,2397361.7477706,43.115583997703,2839549.5128342,17.512201220122,0,0
-71.682817536066,3.0956431673814,12.316631663166,2397361.7477706,43.115583997703,2839549.5128342,17.516631663166,0,0
-71.682816867546,3.0982261493424,12.321062106211,2418918.4882919,7932.2048024707,2829859.6381204,17.521062106211,0,0
-71.682816195943,3.1008091353181,12.325492549255,2418918.4882919,7932.2048024707,2829859.6381204,17.525492549255,0,0
-71.682815524341,3.1033921212939,12.329922992299,2418918.4882919,7932.2048024707,2829859.6381204,17.529922992299,0,0
-71.682814852739,3.1059751072696,12.334353435344,2418918.4882919,7932.2048024707,2829859.6381204,17.534353435344,0,0
-71.682814181137,3.1085580932453,12.338783878388,2418918.4882919,7932.2048024707,2829859.6381204,17.538783878388,0,0
-71.682813509534,3.111141079221,12.343214321432,2418918.4882919,7932.2048024707,2829859.6381204,17.543214321432,0,0
-71.682812837932,3.1137240651967,12.347644764476,2418918.4882919,7932.2048024707,2829859.6381204,17.547644764476,0,0
-71.68281216633,3.1163070511725,12.352075207521,2418918.4882919,7932.2048024707,2829859.6381204,17.552075207521,0,0
-71.682811494728,3.1188900371482,12.356505650565,2418918.4882919,7932.2048024707,2829859.6381204,17.556505650565,0,0
-71.682810823126,3.1214730231239,12.360936093609,2418918.4882919,7932.2048024707,2829859.6381204,17.560936093609,0,0
-71.682810151523,3.1240560090996,12.365366536654,2418918.4882919,7932.2048024707,2829859.6381204,17.565366536654,0,0
-71.682809479921,3.1266389950753,12.369796979698,2418918.4882919,7932.2048024707,2829859.6381204,17.569796979698,0,0
-71.682808808319,3.129221981051,12.374227422742,2418918.4882919,7932.2048024707,2829859.6381204,17.574227422742,0,0
-71.682808136717,3.1318049670268,12.378657865787,2418918.4882919,7932.2048024707,2829859.6381204,17.578657865787,0,0
-71.682807465114,3.1343879530025,12.383088308831,2418918.4882919,7932.2048024707,2829859.6381204,17.583088308831,0,0
-71.682806793512,3.1369709389782,12.387518751875,2418918.4882919,7932.2048024707,2829859.6381204,17.587518751875,0,0
-71.68280612191,3.1395539249539,12.391949194919,2418918.4882919,7932.2048024707,2829859.6381204,17.591949194919,0,0
-71.682805450308,3.1421369109296,12.396379637964,2418918.4882919,7932.2048024707,2829859.6381204,17.596379637964,0,0
-71.682804778705,3.1447198969054,12.400810081008,2418918.4882919,7932.2048024707,2829859.6381204,17.600810081008,0,0
-71.682804107103,3.1473028828811,12.405240524052,2418918.4882919,7932.2048024707,2829859.6381204,17.605240524052,0,0
-71.682803435501,3.1498858688568,12.409670967097,2418918.4882919,7932.2048024707,2829859.6381204,17.609670967097,0,0
-71.682802763899,3.1524688548325,12.414101410141,2418918.4882919,7932.2048024707,2829859.6381204,17.614101410141,0,0
-71.682802092297,3.1550518408082,12.418531853185,2418918.4882919,7932.2048024707,2829859.6381204,17.618531853185,0,0
-71.682801420694,3.1576348267839,12.42296229623,2418918.4882919,7932.2048024707,2829859.6381204,17.62296229623,0,0
-71.682800749092,3.1602178127597,12.427392739274,2418918.4882919,7932.2048024707,2829859.6381204,17.627392739274,0,0
-71.68280007749,3.1628007987354,12.431823182318,2418918.4882919,7932.2048024707,2829859.6381204,17.631823182318,0,0
-71.682799405888,3.1653837847111,12.436253625363,2418918.4882919,7932.2048024707,2829859.6381204,17.636253625363,0,0
-71.682798734285,3.1679667706868,12.440684068407,2418918.4882919,7932.2048024707,2829859.6381204,17.640684068407,0,0
-71.682798062683,3.1705497566625,12.445114511451,2418918.4882919,7932.2048024707,2829859.6381204,17.645114511451,0,0
-71.682797391081,3.1731327426383,12.449544954495,2418918.4882919,7932.2048024707,2829859.6381204,17.649544954495,0,0
-71.682796719479,3.175715728614,12.45397539754,2418918.4882919,7932.2048024707,2829859.6381204,17.65397539754,0,0
-71.682796047876,3.1782987145897,12.458405840584,2418918.4882919,7932.2048024707,2829859.6381204,17.658405840584,0,0
-71.682795376274,3.1808817005654,12.462836283628,2418918.4882919,7932.2048024707,2829859.6381204,17.662836283628,0,0
-71.682794704672,3.1834646865411,12.467266726673,2418918.4882919,7932.2048024707,2829859.6381204,17.667266726673,0,0
-71.68279403307,3.1860476725168,12.471697169717,2418918.4882919,7932.2048024707,2829859.6381204,17.671697169717,0,0
-71.682793361468,3.1886306584926,12.476127612761,2418918.4882919,7932.2048024707,2829859.6381204,17.676127612761,0,0
-71.682792689865,3.1912136444683,12.480558055806,2418918.4882919,7932.2048024707,2829859.6381204,17.680558055806,0,0
-71.682792018263,3.193796630444,12.48498849885,2418918.4882919,7932.2048024707,2829859.6381204,17.68498849885,0,0
-71.682791346661,3.1963796164197,12.489418941894,2418918.4882919,7932.2048024707,2829859.6381204,17.689418941894,0,0
-71.682790675059,3.1989626023954,12.493849384938,2418918.4882919,7932.2048024707,2829859.6381204,17.693849384938,0,0
-71.682790003456,3.2015455883712,12.498279827983,2418918.4882919,7932.2048024707,2829859.6381204,17.698279827983,0,0
-71.682789331854,3.2041285743469,12.502710271027,2418918.4882919,7932.2048024707,2829859.6381204,17.702710271027,0,0
-71.682788660252,3.2067115603226,12.507140714071,2418918.4882919,7932.2048024707,2829859.6381204,17.707140714071,0,0
-71.68278798865,3.2092945462983,12.511571157116,2418918.4882919,7932.2048024707,2829859.6381204,17.711571157116,0,0
-71.682787317048,3.211877532274,12.51600160016,2418918.4882919,7932.2048024707,2829859.6381204,17.71600160016,0,0
-71.682786645445,3.2144605182497,12.520432043204,2418918.4882919,7932.2048024707,2829859.6381204,17.720432043204,0,0
-71.682785973843,3.2170435042255,12.524862486249,2418918.4882919,7932.2048024707,2829859.6381204,17.724862486249,0,0
-71.682785302241,3.2196264902012,12.529292929293,2418918.4882919,7932.2048024707,2829859.6381204,17.729292929293,0,0
-71.682784630639,3.2222094761769,12.533723372337,2418918.4882919,7932.2048024707,2829859.6381204,17.733723372337,0,0
-71.682783959036,3.2247924621526,12.538153815382,2418918.4882919,7932.2048024707,2829859.6381204,17.738153815382,0,0
-71.682783287434,3.2273754481283,12.542584258426,2418918.4882919,7932.2048024707,2829859.6381204,17.742584258426,0,0
-71.682782615832,3.2299584341041,12.54701470147,2418918.4882919,7932.2048024707,2829859.6381204,17.74701470147,0,0
-71.68278194423,3.2325414200798,12.551445144514,2418918.4882919,7932.2048024707,2829859.6381204,17.751445144514,0,0
-71.682781272627,3.2351244060555,12.555875587559,2418918.4882919,7932.2048024707,2829859.6381204,17.755875587559,0,0
-71.682780601025,3.2377073920312,12.560306030603,2418918.4882919,7932.2048024707,2829859.6381204,17.760306030603,0,0
-71.682779929423,3.2402903780069,12.564736473647,2418918.4882919,7932.2048024707,2829859.6381204,17.764736473647,0,0
-71.682779257821,3.2428733639826,12.569166916692,2418918.4882919,7932.2048024707,2829859.6381204,17.769166916692,0,0
-71.682778586219,3.2454563499584,12.573597359736,2418918.4882919,7932.2048024707,2829859.6381204,17.773597359736,0,0
-71.682777914616,3.2480393359341,12.57802780278,2418918.4882919,7932.2048024707,2829859.6381204,17.77802780278,0,0
-71.682777243014,3.2506223219098,12.582458245825,2418918.4882919,7932.2048024707,2829859.6381204,17.782458245825,0,0
-71.682776571412,3.2532053078855,12.586888688869,2418918.4882919,7932.2048024707,2829859.6381204,17.786888688869,0,0
-71.68277589981,3.2557882938612,12.591319131913,2418918.4882919,7932.2048024707,2829859.6381204,17.791319131913,0,0
-71.682775228207,3.258371279837,12.595749574957,2418918.4882919,7932.2048024707,2829859.6381204,17.795749574957,0,0
-71.682774556605,3.2609542658127,12.600180018002,2418918.4882919,7932.2048024707,2829859.6381204,17.800180018002,0,0
-71.682773885003,3.2635372517884,12.604610461046,2418918.4882919,7932.2048024707,2829859.6381204,17.804610461046,0,0
-71.682773213401,3.2661202377641,12.60904090409,2418918.4882919,7932.2048024707,2829859.6381204,17.80904090409,0,0
-71.682772541798,3.2687032237398,12.613471347135,2418918.4882919,7932.2048024707,2829859.6381204,17.813471347135,0,0
-71.682771870196,3.2712862097155,12.617901790179,2418918.4882919,7932.2048024707,2829859.6381204,17.817901790179,0,0
-71.682771198594,3.2738691956913,12.622332233223,2418918.4882919,7932.2048024707,2829859.6381204,17.822332233223,0,0
-71.682770526992,3.276452181667,12.626762676268,2418918.4882919,7932.2048024707,2829859.6381204,17.826762676268,0,0
-71.68276985539,3.2790351676427,12.631193119312,2418918.4882919,7932.2048024707,2829859.6381204,17.831193119312,0,0
-71.682769183787,3.2816181536184,12.635623562356,2418918.4882919,7932.2048024707,2829859.6381204,17.835623562356,0,0
-71.682768512185,3.2842011395941,12.640054005401,2418918.4882919,7932.2048024707,2829859.6381204,17.840054005401,0,0
-71.682767840583,3.2867841255698,12.644484448445,2418918.4882919,7932.2048024707,2829859.6381204,17.844484448445,0,0
-71.682767168981,3.2893671115456,12.648914891489,2418918.4882919,7932.2048024707,2829859.6381204,17.848914891489,0,0
-71.682766497378,3.2919500975213,12.653345334533,2418918.4882919,7932.2048024707,2829859.6381204,17.853345334533,0,0
-71.682765825776,3.294533083497,12.657775777578,2418918.4882919,7932.2048024707,2829859.6381204,17.857775777578,0,0
-71.682765154174,3.2971160694727,12.662206220622,2418918.4882919,7932.2048024707,2829859.6381204,17.862206220622,0,0
-71.682764482572,3.2996990554484,12.666636663666,2418918.4882919,7932.2048024707,2829859.6381204,17.866636663666,0,0
-71.682763810969,3.3022820414242,12.671067106711,2418918.4882919,7932.2048024707,2829859.6381204,17.871067106711,0,0
-71.682763139367,3.3048650273999,12.675497549755,2418918.4882919,7932.2048024707,2829859.6381204,17.875497549755,0,0
-71.682762467765,3.3074480133756,12.679927992799,2418918.4882919,7932.2048024707,2829859.6381204,17.879927992799,0,0
-71.682761796163,3.3100309993513,12.684358435844,2418918.4882919,7932.2048024707,2829859.6381204,17.884358435844,0,0
-71.682761124561,3.312613985327,12.688788878888,2418918.4882919,7932.2048024707,2829859.6381204,17.888788878888,0,0
-71.682760452958,3.3151969713028,12.693219321932,2418918.4882919,7932.2048024707,2829859.6381204,17.893219321932,0,0
-71.682759781356,3.3177799572785,12.697649764976,2418918.4882919,7932.2048024707,2829859.6381204,17.897649764976,0,0
-71.682759109754,3.3203629432542,12.702080208021,2418918.4882919,7932.2048024707,2829859.6381204,17.902080208021,0,0
-71.682758438152,3.3229459292299,12.706510651065,2418918.4882919,7932.2048024707,2829859.6381204,17.906510651065,0,0
-71.682757766549,3.3255289152056,12.710941094109,2418918.4882919,7932.2048024707,2829859.6381204,17.910941094109,0,0
-71.682757094947,3.3281119011813,12.715371537154,2418918.4882919,7932.2048024707,2829859.6381204,17.915371537154,0,0
-71.682756423345,3.3306948871571,12.719801980198,2418918.4882919,7932.2048024707,2829859.6381204,17.919801980198,0,0
-71.682755751743,3.3332778731328,12.724232423242,2418918.4882919,7932.2048024707,2829859.6381204,17.924232423242,0,0
-71.68275508014,3.3358608591085,12.728662866287,2418918.4882919,7932.2048024707,2829859.6381204,17.928662866287,0,0
-71.682754408538,3.3384438450842,12.733093309331,2418918.4882919,7932.2048024707,2829859.6381204,17.933093309331,0,0
-71.682753736936,3.3410268310599,12.737523752375,2418918.4882919,7932.2048024707,2829859.6381204,17.937523752375,0,0
-71.682753064484,3.3436098147686,12.74195419542,2425738.044226,-1195.498472583,2811517.2340916,17.94195419542,0,0
-71.682752390808,3.3461927952142,12.746384638464,2425738.044226,-1195.498472583,2811517.2340916,17.946384638464,0,0
-71.682751717133,3.3487757756598,12.750815081508,2425738.044226,-1195.498472583,2811517.2340916,17.950815081508,0,0
-71.682751043458,3.3513587561054,12.755245524552,2425738.044226,-1195.498472583,2811517.2340916,17.955245524552,0,0
-71.682750369782,3.353941736551,12.759675967597,2425738.044226,-1195.498472583,2811517.2340916,17.959675967597,0,0
-71.682749696107,3.3565247169966,12.764106410641,2425738.044226,-1195.498472583,2811517.2340916,17.964106410641,0,0
-71.682749022431,3.3591076974422,12.768536853685,2425738.044226,-1195.498472583,2811517.2340916,17.968536853685,0,0
-71.682748348756,3.3616906778878,12.77296729673,2425738.044226,-1195.498472583,2811517.2340916,17.97296729673,0,0
-71.68274767508,3.3642736583334,12.777397739774,2425738.044226,-1195.498472583,2811517.2340916,17.977397739774,0,0
-71.682747001405,3.366856638779,12.781828182818,2425738.044226,-1195.498472583,2811517.2340916,17.981828182818,0,0
-71.68274632773,3.3694396192246,12.786258625863,2425738.044226,-1195.498472583,2811517.2340916,17.986258625863,0,0
-71.682745654054,3.3720225996702,12.790689068907,2425738.044226,-1195.498472583,2811517.2340916,17.990689068907,0,0
-71.682744980379,3.3746055801158,12.795119511951,2425738.044226,-1195.498472583,2811517.2340916,17.995119511951,0,0
-71.682744306703,3.3771885605614,12.799549954995,2425738.044226,-1195.498472583,2811517.2340916,17.999549954995,0,0
-71.682743633028,3.379771541007,12.80398039804,2425738.044226,-1195.498472583,2811517.2340916,18.00398039804,0,0
-71.682742959352,3.3823545214526,12.808410841084,2425738.044226,-1195.498472583,2811517.2340916,18.008410841084,0,0
-71.682742285677,3.3849375018982,12.812841284128,2425738.044226,-1195.498472583,2811517.2340916,18.012841284128,0,0
-71.682741612002,3.3875204823438,12.817271727173,2425738.044226,-1195.498472583,2811517.2340916,18.017271727173,0,0
-71.682740938326,3.3901034627894,12.821702170217,2425738.044226,-1195.498472583,2811517.2340916,18.021702170217,0,0
-71.682740264651,3.392686443235,12.826132613261,2425738.044226,-1195.498472583,2811517.2340916,18.026132613261,0,0
-71.682739590975,3.3952694236806,12.830563056306,2425738.044226,-1195.498472583,2811517.2340916,18.030563056306,0,0
-71.6827389173,3.3978524041262,12.83499349935,2425738.044226,-1195.498472583,2811517.2340916,18.03499349935,0,0
-71.682738243624,3.4004353845718,12.839423942394,2425738.044226,-1195.498472583,2811517.2340916,18.039423942394,0,0
-71.682737569949,3.4030183650174,12.843854385439,2425738.044226,-1195.498472583,2811517.2340916,18.043854385439,0,0
-71.682736896274,3.405601345463,12.848284828483,2425738.044226,-1195.498472583,2811517.2340916,18.048284828483,0,0
-71.682736222598,3.4081843259086,12.852715271527,2425738.044226,-1195.498472583,2811517.2340916,18.052715271527,0,0
-71.682735548923,3.4107673063542,12.857145714571,2425738.044226,-1195.498472583,2811517.2340916,18.057145714571,0,0
-71.682734875247,3.4133502867998,12.861576157616,2425738.044226,-1195.498472583,2811517.2340916,18.061576157616,0,0
-71.682734201572,3.4159332672454,12.86600660066,2425738.044226,-1195.498472583,2811517.2340916,18.06600660066,0,0
-71.682733527896,3.418516247691,12.870437043704,2425738.044226,-1195.498472583,2811517.2340916,18.070437043704,0,0
-71.682732854221,3.4210992281366,12.874867486749,2425738.044226,-1195.498472583,2811517.2340916,18.074867486749,0,0
-71.682732180546,3.4236822085822,12.879297929793,2425738.044226,-1195.498472583,2811517.2340916,18.079297929793,0,0
-71.68273150687,3.4262651890278,12.883728372837,2425738.044226,-1195.498472583,2811517.2340916,18.083728372837,0,0
-71.682730833195,3.4288481694734,12.888158815882,2425738.044226,-1195.498472583,2811517.2340916,18.088158815882,0,0
-71.682730159519,3.431431149919,12.892589258926,2425738.044226,-1195.498472583,2811517.2340916,18.092589258926,0,0
-71.682729485844,3.4340141303646,12.89701970197,2425738.044226,-1195.498472583,2811517.2340916,18.09701970197,0,0
-71.682728812168,3.4365971108102,12.901450145015,2425738.044226,-1195.498472583,2811517.2340916,18.101450145014,0,0
-71.682728138493,3.4391800912558,12.905880588059,2425738.044226,-1195.498472583,2811517.2340916,18.105880588059,0,0
-71.682727464818,3.4417630717014,12.910311031103,2425738.044226,-1195.498472583,2811517.2340916,18.110311031103,0,0
-71.682726791142,3.444346052147,12.914741474147,2425738.044226,-1195.498472583,2811517.2340916,18.114741474147,0,0
-71.682726117467,3.4469290325927,12.919171917192,2425738.044226,-1195.498472583,2811517.2340916,18.119171917192,0,0
-71.682725443791,3.4495120130383,12.923602360236,2425738.044226,-1195.498472583,2811517.2340916,18.123602360236,0,0
-71.682724770116,3.4520949934839,12.92803280328,2425738.044226,-1195.498472583,2811517.2340916,18.12803280328,0,0
-71.68272409644,3.4546779739295,12.932463246325,2425738.044226,-1195.498472583,2811517.2340916,18.132463246325,0,0
-71.682723422765,3.4572609543751,12.936893689369,2425738.044226,-1195.498472583,2811517.2340916,18.136893689369,0,0
-71.68272274909,3.4598439348207,12.941324132413,2425738.044226,-1195.498472583,2811517.2340916,18.141324132413,0,0
-71.682722075414,3.4624269152663,12.945754575458,2425738.044226,-1195.498472583,2811517.2340916,18.145754575458,0,0
-71.682721401739,3.4650098957119,12.950185018502,2425738.044226,-1195.498472583,2811517.2340916,18.150185018502,0,0
-71.682720728063,3.4675928761575,12.954615461546,2425738.044226,-1195.498472583,2811517.2340916,18.154615461546,0,0
-71.682720054388,3.4701758566031,12.95904590459,2425738.044226,-1195.498472583,2811517.2340916,18.15904590459,0,0
-71.682719380712,3.4727588370487,12.963476347635,2425738.044226,-1195.498472583,2811517.2340916,18.163476347635,0,0
-71.682718707037,3.4753418174943,12.967906790679,2425738.044226,-1195.498472583,2811517.2340916,18.167906790679,0,0
-71.682718033362,3.4779247979399,12.972337233723,2425738.044226,-1195.498472583,2811517.2340916,18.172337233723,0,0
-71.682717359686,3.4805077783855,12.976767676768,2425738.044226,-1195.498472583,2811517.2340916,18.176767676768,0,0
-71.682716686011,3.4830907588311,12.981198119812,2425738.044226,-1195.498472583,2811517.2340916,18.181198119812,0,0
-71.682716012335,3.4856737392767,12.985628562856,2425738.044226,-1195.498472583,2811517.2340916,18.185628562856,0,0
-71.68271533866,3.4882567197223,12.990059005901,2425738.044226,-1195.498472583,2811517.2340916,18.190059005901,0,0
-71.682714664984,3.4908397001679,12.994489448945,2425738.044226,-1195.498472583,2811517.2340916,18.194489448945,0,0
-71.682713991309,3.4934226806135,12.998919891989,2425738.044226,-1195.498472583,2811517.2340916,18.198919891989,0,0
-71.682713317634,3.4960056610591,13.003350335034,2425738.044226,-1195.498472583,2811517.2340916,18.203350335034,0,0
-71.682712643958,3.4985886415047,13.007780778078,2425738.044226,-1195.498472583,2811517.2340916,18.207780778078,0,0
-71.682711970283,3.5011716219503,13.012211221122,2425738.044226,-1195.498472583,2811517.2340916,18.212211221122,0,0
-71.682711296607,3.5037546023959,13.016641664166,2425738.044226,-1195.498472583,2811517.2340916,18.216641664166,0,0
-71.682710622932,3.5063375828415,13.021072107211,2425738.044226,-1195.498472583,2811517.2340916,18.221072107211,0,0
-71.682709949256,3.5089205632871,13.025502550255,2425738.044226,-1195.498472583,2811517.2340916,18.225502550255,0,0
-71.682709275581,3.5115035437327,13.029932993299,2425738.044226,-1195.498472583,2811517.2340916,18.229932993299,0,0
-71.682708601906,3.5140865241783,13.034363436344,2425738.044226,-1195.498472583,2811517.2340916,18.234363436344,0,0
-71.68270792823,3.5166695046239,13.038793879388,2425738.044226,-1195.498472583,2811517.2340916,18.238793879388,0,0
-71.682707254555,3.5192524850695,13.043224322432,2425738.044226,-1195.498472583,2811517.2340916,18.243224322432,0,0
-71.682706580879,3.5218354655151,13.047654765477,2425738.044226,-1195.498472583,2811517.2340916,18.247654765477,0,0
-71.682705907204,3.5244184459607,13.052085208521,2425738.044226,-1195.498472583,2811517.2340916,18.252085208521,0,0
-71.682705233528,3.5270014264063,13.056515651565,2425738.044226,-1195.498472583,2811517.2340916,18.256515651565,0,0
-71.682704559853,3.5295844068519,13.060946094609,2425738.044226,-1195.498472583,2811517.2340916,18.260946094609,0,0
-71.682703886178,3.5321673872975,13.065376537654,2425738.044226,-1195.498472583,2811517.2340916,18.265376537654,0,0
-71.682703212502,3.5347503677431,13.069806980698,2425738.044226,-1195.498472583,2811517.2340916,18.269806980698,0,0
-71.682702538827,3.5373333481887,13.074237423742,2425738.044226,-1195.498472583,2811517.2340916,18.274237423742,0,0
-71.682701865151,3.5399163286343,13.078667866787,2425738.044226,-1195.498472583,2811517.2340916,18.278667866787,0,0
-71.682701191476,3.5424993090799,13.083098309831,2425738.044226,-1195.498472583,2811517.2340916,18.283098309831,0,0
-71.6827005178,3.5450822895255,13.087528752875,2425738.044226,-1195.498472583,2811517.2340916,18.287528752875,0,0
-71.682699844125,3.5476652699711,13.09195919592,2425738.044226,-1195.498472583,2811517.2340916,18.29195919592,0,0
-71.68269917045,3.5502482504167,13.096389638964,2425738.044226,-1195.498472583,2811517.2340916,18.296389638964,0,0
-71.682698496774,3.5528312308623,13.100820082008,2425738.044226,-1195.498472583,2811517.2340916,18.300820082008,0,0
-71.682697823099,3.5554142113079,13.105250525053,2425738.044226,-1195.498472583,2811517.2340916,18.305250525053,0,0
-71.682697149423,3.5579971917535,13.109680968097,2425738.044226,-1195.498472583,2811517.2340916,18.309680968097,0,0
-71.682696475748,3.5605801721991,13.114111411141,2425738.044226,-1195.498472583,2811517.2340916,18.314111411141,0,0
-71.682695802072,3.5631631526447,13.118541854185,2425738.044226,-1195.498472583,2811517.2340916,18.318541854185,0,0
-71.682695128397,3.5657461330903,13.12297229723,2425738.044226,-1195.498472583,2811517.2340916,18.32297229723,0,0
-71.682694454722,3.5683291135359,13.127402740274,2425738.044226,-1195.498472583,2811517.2340916,18.327402740274,0,0
-71.682693781046,3.5709120939815,13.131833183318,2425738.044226,-1195.498472583,2811517.2340916,18.331833183318,0,0
-71.682693107371,3.5734950744271,13.136263626363,2425738.044226,-1195.498472583,2811517.2340916,18.336263626363,0,0
-71.682692433695,3.5760780548727,13.140694069407,2425738.044226,-1195.498472583,2811517.2340916,18.340694069407,0,0
-71.68269176002,3.5786610353183,13.145124512451,2425738.044226,-1195.498472583,2811517.2340916,18.345124512451,0,0
-71.682691086344,3.5812440157639,13.149554955496,2425738.044226,-1195.498472583,2811517.2340916,18.349554955496,0,0
-71.682690412669,3.5838269962095,13.15398539854,2425738.044226,-1195.498472583,2811517.2340916,18.35398539854,0,0
-71.682689738994,3.5864099766551,13.158415841584,2425738.044226,-1195.498472583,2811517.2340916,18.358415841584,0,0
-71.682689065318,3.5889929571007,13.162846284628,2425738.044226,-1195.498472583,2811517.2340916,18.362846284628,0,0
-71.682688391643,3.5915759375463,13.167276727673,2425738.044226,-1195.498472583,2811517.2340916,18.367276727673,0,0
-71.682687717967,3.5941589179919,13.171707170717,2425738.044226,-1195.498472583,2811517.2340916,18.371707170717,0,0
-71.682687044292,3.5967418984375,13.176137613761,2425738.044226,-1195.498472583,2811517.2340916,18.376137613761,0,0
-71.682686370616,3.5993248788831,13.180568056806,2425738.044226,-1195.498472583,2811517.2340916,18.380568056806,0,0
-71.682685696941,3.6019078593287,13.18499849985,2425738.044226,-1195.498472583,2811517.2340916,18.38499849985,0,0
-71.682685023266,3.6044908397743,13.189428942894,2425738.044226,-1195.498472583,2811517.2340916,18.389428942894,0,0
-71.68268434959,3.6070738202199,13.193859385939,2425738.044226,-1195.498472583,2811517.2340916,18.393859385939,0,0
-71.682683675915,3.6096568006655,13.198289828983,2425738.044226,-1195.498472583,2811517.2340916,18.398289828983,0,0
-71.682683002239,3.6122397811111,13.202720272027,2425738.044226,-1195.498472583,2811517.2340916,18.402720272027,0,0
-71.682682328564,3.6148227615567,13.207150715072,2425738.044226,-1195.498472583,2811517.2340916,18.407150715072,0,0
-71.682681654888,3.6174057420023,13.211581158116,2425738.044226,-1195.498472583,2811517.2340916,18.411581158116,0,0
-71.682680981213,3.6199887224479,13.21601160116,2425738.044226,-1195.498472583,2811517.2340916,18.41601160116,0,0
-71.682680307538,3.6225717028935,13.220442044204,2425738.044226,-1195.498472583,2811517.2340916,18.420442044204,0,0
-71.682679633862,3.6251546833391,13.224872487249,2425738.044226,-1195.498472583,2811517.2340916,18.424872487249,0,0
-71.682678960187,3.6277376637847,13.229302930293,2425738.044226,-1195.498472583,2811517.2340916,18.429302930293,0,0
-71.682678286511,3.6303206442303,13.233733373337,2425738.044226,-1195.498472583,2811517.2340916,18.433733373337,0,0
-71.682677612836,3.6329036246759,13.238163816382,2425738.044226,-1195.498472583,2811517.2340916,18.438163816382,0,0
-71.68267693916,3.6354866051216,13.242594259426,2425738.044226,-1195.498472583,2811517.2340916,18.442594259426,0,0
-71.682676265485,3.6380695855672,13.24702470247,2425738.044226,-1195.498472583,2811517.2340916,18.44702470247,0,0
-71.68267559181,3.6406525660128,13.251455145515,2425738.044226,-1195.498472583,2811517.2340916,18.451455145515,0,0
-71.682674918134,3.6432355464584,13.255885588559,2425738.044226,-1195.498472583,2811517.2340916,18.455885588559,0,0
-71.682674244459,3.645818526904,13.260316031603,2425738.044226,-1195.498472583,2811517.2340916,18.460316031603,0,0
-71.682673570783,3.6484015073496,13.264746474647,2425738.044226,-1195.498472583,2811517.2340916,18.464746474647,0,0
-71.682672897108,3.6509844877952,13.269176917692,2425738.044226,-1195.498472583,2811517.2340916,18.469176917692,0,0
-71.682672223432,3.6535674682408,13.273607360736,2425738.044226,-1195.498472583,2811517.2340916,18.473607360736,0,0
-71.682671549757,3.6561504486864,13.27803780378,2425738.044226,-1195.498472583,2811517.2340916,18.47803780378,0,0
-71.682670876082,3.658733429132,13.282468246825,2425738.044226,-1195.498472583,2811517.2340916,18.482468246825,0,0
-71.682670202406,3.6613164095776,13.286898689869,2425738.044226,-1195.498472583,2811517.2340916,18.486898689869,0,0
-71.682669528731,3.6638993900232,13.291329132913,2425738.044226,-1195.498472583,2811517.2340916,18.491329132913,0,0
-71.682668855055,3.6664823704688,13.295759575958,2425738.044226,-1195.498472583,2811517.2340916,18.495759575958,0,0
-71.68266818138,3.6690653509144,13.300190019002,2425738.044226,-1195.498472583,2811517.2340916,18.500190019002,0,0
-71.682667507704,3.67164833136,13.304620462046,2425738.044226,-1195.498472583,2811517.2340916,18.504620462046,0,0
-71.682666834029,3.6742313118056,13.309050905091,2425738.044226,-1195.498472583,2811517.2340916,18.509050905091,0,0
-71.682666160354,3.6768142922512,13.313481348135,2425738.044226,-1195.498472583,2811517.2340916,18.513481348135,0,0
-71.682665486678,3.6793972726968,13.317911791179,2425738.044226,-1195.498472583,2811517.2340916,18.517911791179,0,0
-71.682664813003,3.6819802531424,13.322342234223,2425738.044226,-1195.498472583,2811517.2340916,18.522342234223,0,0
-71.682664139327,3.684563233588,13.326772677268,2425738.044226,-1195.498472583,2811517.2340916,18.526772677268,0,0
-71.682663465652,3.6871462140336,13.331203120312,2425738.044226,-1195.498472583,2811517.2340916,18.531203120312,0,0
-71.682662791976,3.6897291944792,13.335633563356,2425738.044226,-1195.498472583,2811517.2340916,18.535633563356,0,0
-71.682662118301,3.6923121749248,13.340064006401,2425738.044226,-1195.498472583,2811517.2340916,18.540064006401,0,0
-71.682661444626,3.6948951553704,13.344494449445,2425738.044226,-1195.498472583,2811517.2340916,18.544494449445,0,0
-71.68266077095,3.697478135816,13.348924892489,2425738.044226,-1195.498472583,2811517.2340916,18.548924892489,0,0
-71.682660097275,3.7000611162616,13.353355335534,2425738.044226,-1195.498472583,2811517.2340916,18.553355335534,0,0
-71.682659423599,3.7026440967072,13.357785778578,2425738.044226,-1195.498472583,2811517.2340916,18.557785778578,0,0
-71.682658749924,3.7052270771528,13.362216221622,2425738.044226,-1195.498472583,2811517.2340916,18.562216221622,0,0
-71.682658076248,3.7078100575984,13.366646664666,2425738.044226,-1195.498472583,2811517.2340916,18.566646664666,0,0
-71.682657402573,3.710393038044,13.371077107711,2425738.044226,-1195.498472583,2811517.2340916,18.571077107711,0,0
-71.682656728898,3.7129760184896,13.375507550755,2425738.044226,-1195.498472583,2811517.2340916,18.575507550755,0,0
-71.682656055222,3.7155589989352,13.379937993799,2425738.044226,-1195.498472583,2811517.2340916,18.579937993799,0,0
-71.682655381547,3.7181419793808,13.384368436844,2425738.044226,-1195.498472583,2811517.2340916,18.584368436844,0,0
-71.682654707871,3.7207249598264,13.388798879888,2425738.044226,-1195.498472583,2811517.2340916,18.588798879888,0,0
-71.682654034196,3.723307940272,13.393229322932,2425738.044226,-1195.498472583,2811517.2340916,18.593229322932,0,0
-71.68265336052,3.7258909207176,13.397659765977,2425738.044226,-1195.498472583,2811517.2340916,18.597659765977,0,0
-71.682652686845,3.7284739011632,13.402090209021,2425738.044226,-1195.498472583,2811517.2340916,18.602090209021,0,0
-71.68265201317,3.7310568816088,13.406520652065,2425738.044226,-1195.498472583,2811517.2340916,18.606520652065,0,0
-71.682651339494,3.7336398620544,13.41095109511,2425738.044226,-1195.498472583,2811517.2340916,18.61095109511,0,0
-71.682650665819,3.7362228425,13.415381538154,2425738.044226,-1195.498472583,2811517.2340916,18.615381538154,0,0
-71.682649992143,3.7388058229456,13.419811981198,2425738.044226,-1195.498472583,2811517.2340916,18.619811981198,0,0
-71.682649318468,3.7413888033912,13.424242424242,2425738.044226,-1195.498472583,2811517.2340916,18.624242424242,0,0
-71.682648644792,3.7439717838368,13.428672867287,2425738.044226,-1195.498472583,2811517.2340916,18.628672867287,0,0
-71.682647971117,3.7465547642824,13.433103310331,2425738.044226,-1195.498472583,2811517.2340916,18.633103310331,0,0
-71.682647297442,3.749137744728,13.437533753375,2425738.044226,-1195.498472583,2811517.2340916,18.637533753375,0,0
-71.682646623766,3.7517207251736,13.44196419642,2425738.044226,-1195.498472583,2811517.2340916,18.64196419642,0,0
-71.682645950091,3.7543037056192,13.446394639464,2425738.044226,-1195.498472583,2811517.2340916,18.646394639464,0,0
-71.682645276415,3.7568866860648,13.450825082508,2425738.044226,-1195.498472583,2811517.2340916,18.650825082508,0,0
-71.68264460274,3.7594696665104,13.455255525553,2425738.044226,-1195.498472583,2811517.2340916,18.655255525553,0,0
-71.682643929064,3.762052646956,13.459685968597,2425738.044226,-1195.498472583,2811517.2340916,18.659685968597,0,0
-71.682643255389,3.7646356274016,13.464116411641,2425738.044226,-1195.498472583,2811517.2340916,18.664116411641,0,0
-71.682642581714,3.7672186078472,13.468546854685,2425738.044226,-1195.498472583,2811517.2340916,18.668546854685,0,0
-71.682641908038,3.7698015882928,13.47297729773,2425738.044226,-1195.498472583,2811517.2340916,18.67297729773,0,0
-71.682641234363,3.7723845687384,13.477407740774,2425738.044226,-1195.498472583,2811517.2340916,18.677407740774,0,0
-71.682640558342,3.7749675520587,13.481838183818,2444267.5867172,4851.1418622659,2803921.9876467,18.681838183818,0,0
-71.682639880939,3.7775505370732,13.486268626863,2444267.5867172,4851.1418622659,2803921.9876467,18.686268626863,0,0
-71.682639203535,3.7801335220876,13.490699069907,2444267.5867172,4851.1418622659,2803921.9876467,18.690699069907,0,0
-71.682638526132,3.7827165071021,13.495129512951,2444267.5867172,4851.1418622659,2803921.9876467,18.695129512951,0,0
-71.682637848729,3.7852994921166,13.499559955996,2444267.5867172,4851.1418622659,2803921.9876467,18.699559955996,0,0
-71.682637171326,3.7878824771311,13.50399039904,2444267.5867172,4851.1418622659,2803921.9876467,18.70399039904,0,0
-71.682636493923,3.7904654621455,13.508420842084,2444267.5867172,4851.1418622659,2803921.9876467,18.708420842084,0,0
-71.682635816519,3.79304844716,13.512851285129,2444267.5867172,4851.1418622659,2803921.9876467,18.712851285129,0,0
-71.682635139116,3.7956314321745,13.517281728173,2444267.5867172,4851.1418622659,2803921.9876467,18.717281728173,0,0
-71.682634461713,3.798214417189,13.521712171217,2444267.5867172,4851.1418622659,2803921.9876467,18.721712171217,0,0
-71.68263378431,3.8007974022034,13.526142614261,2444267.5867172,4851.1418622659,2803921.9876467,18.726142614261,0,0
-71.682633106906,3.8033803872179,13.530573057306,2444267.5867172,4851.1418622659,2803921.9876467,18.730573057306,0,0
-71.682632429503,3.8059633722324,13.53500350035,2444267.5867172,4851.1418622659,2803921.9876467,18.73500350035,0,0
-71.6826317521,3.8085463572469,13.539433943394,2444267.5867172,4851.1418622659,2803921.9876467,18.739433943394,0,0
-71.682631074697,3.8111293422613,13.543864386439,2444267.5867172,4851.1418622659,2803921.9876467,18.743864386439,0,0
-71.682630397293,3.8137123272758,13.548294829483,2444267.5867172,4851.1418622659,2803921.9876467,18.748294829483,0,0
-71.68262971989,3.8162953122903,13.552725272527,2444267.5867172,4851.1418622659,2803921.9876467,18.752725272527,0,0
-71.682629042487,3.8188782973048,13.557155715572,2444267.5867172,4851.1418622659,2803921.9876467,18.757155715572,0,0
-71.682628365084,3.8214612823192,13.561586158616,2444267.5867172,4851.1418622659,2803921.9876467,18.761586158616,0,0
-71.682627687681,3.8240442673337,13.56601660166,2444267.5867172,4851.1418622659,2803921.9876467,18.76601660166,0,0
-71.682627010277,3.8266272523482,13.570447044704,2444267.5867172,4851.1418622659,2803921.9876467,18.770447044704,0,0
-71.682626332874,3.8292102373627,13.574877487749,2444267.5867172,4851.1418622659,2803921.9876467,18.774877487749,0,0
-71.682625655471,3.8317932223771,13.579307930793,2444267.5867172,4851.1418622659,2803921.9876467,18.779307930793,0,0
-71.682624978068,3.8343762073916,13.583738373837,2444267.5867172,4851.1418622659,2803921.9876467,18.783738373837,0,0
-71.682624300664,3.8369591924061,13.588168816882,2444267.5867172,4851.1418622659,2803921.9876467,18.788168816882,0,0
-71.682623623261,3.8395421774206,13.592599259926,2444267.5867172,4851.1418622659,2803921.9876467,18.792599259926,0,0
-71.682622945858,3.842125162435,13.59702970297,2444267.5867172,4851.1418622659,2803921.9876467,18.79702970297,0,0
-71.682622268455,3.8447081474495,13.601460146015,2444267.5867172,4851.1418622659,2803921.9876467,18.801460146015,0,0
-71.682621591052,3.847291132464,13.605890589059,2444267.5867172,4851.1418622659,2803921.9876467,18.805890589059,0,0
-71.682620913648,3.8498741174785,13.610321032103,2444267.5867172,4851.1418622659,2803921.9876467,18.810321032103,0,0
-71.682620236245,3.8524571024929,13.614751475148,2444267.5867172,4851.1418622659,2803921.9876467,18.814751475148,0,0
-71.682619558842,3.8550400875074,13.619181918192,2444267.5867172,4851.1418622659,2803921.9876467,18.819181918192,0,0
-71.682618881439,3.8576230725219,13.623612361236,2444267.5867172,4851.1418622659,2803921.9876467,18.823612361236,0,0
-71.682618204035,3.8602060575363,13.62804280428,2444267.5867172,4851.1418622659,2803921.9876467,18.82804280428,0,0
-71.682617526632,3.8627890425508,13.632473247325,2444267.5867172,4851.1418622659,2803921.9876467,18.832473247325,0,0
-71.682616849229,3.8653720275653,13.636903690369,2444267.5867172,4851.1418622659,2803921.9876467,18.836903690369,0,0
-71.682616171826,3.8679550125798,13.641334133413,2444267.5867172,4851.1418622659,2803921.9876467,18.841334133413,0,0
-71.682615494423,3.8705379975942,13.645764576458,2444267.5867172,4851.1418622659,2803921.9876467,18.845764576458,0,0
-71.682614817019,3.8731209826087,13.650195019502,2444267.5867172,4851.1418622659,2803921.9876467,18.850195019502,0,0
-71.682614139616,3.8757039676232,13.654625462546,2444267.5867172,4851.1418622659,2803921.9876467,18.854625462546,0,0
-71.682613462213,3.8782869526377,13.659055905591,2444267.5867172,4851.1418622659,2803921.9876467,18.859055905591,0,0
-71.68261278481,3.8808699376521,13.663486348635,2444267.5867172,4851.1418622659,2803921.9876467,18.863486348635,0,0
-71.682612107406,3.8834529226666,13.667916791679,2444267.5867172,4851.1418622659,2803921.9876467,18.867916791679,0,0
-71.682611430003,3.8860359076811,13.672347234723,2444267.5867172,4851.1418622659,2803921.9876467,18.872347234723,0,0
-71.6826107526,3.8886188926956,13.676777677768,2444267.5867172,4851.1418622659,2803921.9876467,18.876777677768,0,0
-71.682610075197,3.89120187771,13.681208120812,2444267.5867172,4851.1418622659,2803921.9876467,18.881208120812,0,0
-71.682609397794,3.8937848627245,13.685638563856,2444267.5867172,4851.1418622659,2803921.9876467,18.885638563856,0,0
-71.68260872039,3.896367847739,13.690069006901,2444267.5867172,4851.1418622659,2803921.9876467,18.890069006901,0,0
-71.682608042987,3.8989508327535,13.694499449945,2444267.5867172,4851.1418622659,2803921.9876467,18.894499449945,0,0
-71.682607365584,3.9015338177679,13.698929892989,2444267.5867172,4851.1418622659,2803921.9876467,18.898929892989,0,0
-71.682606688181,3.9041168027824,13.703360336034,2444267.5867172,4851.1418622659,2803921.9876467,18.903360336034,0,0
-71.682606010777,3.9066997877969,13.707790779078,2444267.5867172,4851.1418622659,2803921.9876467,18.907790779078,0,0
-71.682605333374,3.9092827728114,13.712221222122,2444267.5867172,4851.1418622659,2803921.9876467,18.912221222122,0,0
-71.682604655971,3.9118657578258,13.716651665167,2444267.5867172,4851.1418622659,2803921.9876467,18.916651665167,0,0
-71.682603978568,3.9144487428403,13.721082108211,2444267.5867172,4851.1418622659,2803921.9876467,18.921082108211,0,0
-71.682603301165,3.9170317278548,13.725512551255,2444267.5867172,4851.1418622659,2803921.9876467,18.925512551255,0,0
-71.682602623761,3.9196147128693,13.729942994299,2444267.5867172,4851.1418622659,2803921.9876467,18.929942994299,0,0
-71.682601946358,3.9221976978837,13.734373437344,2444267.5867172,4851.1418622659,2803921.9876467,18.934373437344,0,0
-71.682601268955,3.9247806828982,13.738803880388,2444267.5867172,4851.1418622659,2803921.9876467,18.938803880388,0,0
-71.682600591552,3.9273636679127,13.743234323432,2444267.5867172,4851.1418622659,2803921.9876467,18.943234323432,0,0
-71.682599914148,3.9299466529272,13.747664766477,2444267.5867172,4851.1418622659,2803921.9876467,18.947664766477,0,0
-71.682599236745,3.9325296379416,13.752095209521,2444267.5867172,4851.1418622659,2803921.9876467,18.952095209521,0,0
-71.682598559342,3.9351126229561,13.756525652565,2444267.5867172,4851.1418622659,2803921.9876467,18.956525652565,0,0
-71.682597881939,3.9376956079706,13.76095609561,2444267.5867172,4851.1418622659,2803921.9876467,18.96095609561,0,0
-71.682597204535,3.9402785929851,13.765386538654,2444267.5867172,4851.1418622659,2803921.9876467,18.965386538654,0,0
-71.682596527132,3.9428615779995,13.769816981698,2444267.5867172,4851.1418622659,2803921.9876467,18.969816981698,0,0
-71.682595849729,3.945444563014,13.774247424742,2444267.5867172,4851.1418622659,2803921.9876467,18.974247424742,0,0
-71.682595172326,3.9480275480285,13.778677867787,2444267.5867172,4851.1418622659,2803921.9876467,18.978677867787,0,0
-71.682594494923,3.950610533043,13.783108310831,2444267.5867172,4851.1418622659,2803921.9876467,18.983108310831,0,0
-71.682593817519,3.9531935180574,13.787538753875,2444267.5867172,4851.1418622659,2803921.9876467,18.987538753875,0,0
-71.682593140116,3.9557765030719,13.79196919692,2444267.5867172,4851.1418622659,2803921.9876467,18.99196919692,0,0
-71.682592462713,3.9583594880864,13.796399639964,2444267.5867172,4851.1418622659,2803921.9876467,18.996399639964,0,0
-71.68259178531,3.9609424731008,13.800830083008,2444267.5867172,4851.1418622659,2803921.9876467,19.000830083008,0,0
-71.682591107906,3.9635254581153,13.805260526053,2444267.5867172,4851.1418622659,2803921.9876467,19.005260526053,0,0
-71.682590430503,3.9661084431298,13.809690969097,2444267.5867172,4851.1418622659,2803921.9876467,19.009690969097,0,0
-71.6825897531,3.9686914281443,13.814121412141,2444267.5867172,4851.1418622659,2803921.9876467,19.014121412141,0,0
-71.682589075697,3.9712744131587,13.818551855186,2444267.5867172,4851.1418622659,2803921.9876467,19.018551855186,0,0
-71.682588398294,3.9738573981732,13.82298229823,2444267.5867172,4851.1418622659,2803921.9876467,19.02298229823,0,0
-71.68258772089,3.9764403831877,13.827412741274,2444267.5867172,4851.1418622659,2803921.9876467,19.027412741274,0,0
-71.682587043487,3.9790233682022,13.831843184318,2444267.5867172,4851.1418622659,2803921.9876467,19.031843184318,0,0
-71.682586366084,3.9816063532166,13.836273627363,2444267.5867172,4851.1418622659,2803921.9876467,19.036273627363,0,0
-71.682585688681,3.9841893382311,13.840704070407,2444267.5867172,4851.1418622659,2803921.9876467,19.040704070407,0,0
-71.682585011277,3.9867723232456,13.845134513451,2444267.5867172,4851.1418622659,2803921.9876467,19.045134513451,0,0
-71.682584333874,3.9893553082601,13.849564956496,2444267.5867172,4851.1418622659,2803921.9876467,19.049564956496,0,0
-71.682583656471,3.9919382932745,13.85399539954,2444267.5867172,4851.1418622659,2803921.9876467,19.05399539954,0,0
-71.682582979068,3.994521278289,13.858425842584,2444267.5867172,4851.1418622659,2803921.9876467,19.058425842584,0,0
-71.682582301665,3.9971042633035,13.862856285629,2444267.5867172,4851.1418622659,2803921.9876467,19.062856285629,0,0
-71.682581624261,3.999687248318,13.867286728673,2444267.5867172,4851.1418622659,2803921.9876467,19.067286728673,0,0
-71.682580946858,4.0022702333324,13.871717171717,2444267.5867172,4851.1418622659,2803921.9876467,19.071717171717,0,0
-71.682580269455,4.0048532183469,13.876147614761,2444267.5867172,4851.1418622659,2803921.9876467,19.076147614761,0,0
-71.682579592052,4.0074362033614,13.880578057806,2444267.5867172,4851.1418622659,2803921.9876467,19.080578057806,0,0
-71.682578914648,4.0100191883759,13.88500850085,2444267.5867172,4851.1418622659,2803921.9876467,19.08500850085,0,0
-71.682578237245,4.0126021733903,13.889438943894,2444267.5867172,4851.1418622659,2803921.9876467,19.089438943894,0,0
-71.682577559842,4.0151851584048,13.893869386939,2444267.5867172,4851.1418622659,2803921.9876467,19.093869386939,0,0
-71.682576882439,4.0177681434193,13.898299829983,2444267.5867172,4851.1418622659,2803921.9876467,19.098299829983,0,0
-71.682576205036,4.0203511284338,13.902730273027,2444267.5867172,4851.1418622659,2803921.9876467,19.102730273027,0,0
-71.682575527632,4.0229341134482,13.907160716072,2444267.5867172,4851.1418622659,2803921.9876467,19.107160716072,0,0
-71.682574850229,4.0255170984627,13.911591159116,2444267.5867172,4851.1418622659,2803921.9876467,19.111591159116,0,0
-71.682574172826,4.0281000834772,13.91602160216,2444267.5867172,4851.1418622659,2803921.9876467,19.11602160216,0,0
-71.682573495423,4.0306830684917,13.920452045205,2444267.5867172,4851.1418622659,2803921.9876467,19.120452045205,0,0
-71.682572818019,4.0332660535061,13.924882488249,2444267.5867172,4851.1418622659,2803921.9876467,19.124882488249,0,0
-71.682572140616,4.0358490385206,13.929312931293,2444267.5867172,4851.1418622659,2803921.9876467,19.129312931293,0,0
-71.682571463213,4.0384320235351,13.933743374337,2444267.5867172,4851.1418622659,2803921.9876467,19.133743374337,0,0
-71.68257078581,4.0410150085496,13.938173817382,2444267.5867172,4851.1418622659,2803921.9876467,19.138173817382,0,0
-71.682570108406,4.043597993564,13.942604260426,2444267.5867172,4851.1418622659,2803921.9876467,19.142604260426,0,0
-71.682569431003,4.0461809785785,13.94703470347,2444267.5867172,4851.1418622659,2803921.9876467,19.14703470347,0,0
-71.6825687536,4.048763963593,13.951465146515,2444267.5867172,4851.1418622659,2803921.9876467,19.151465146515,0,0
-71.682568076197,4.0513469486074,13.955895589559,2444267.5867172,4851.1418622659,2803921.9876467,19.155895589559,0,0
-71.682567398794,4.0539299336219,13.960326032603,2444267.5867172,4851.1418622659,2803921.9876467,19.160326032603,0,0
-71.68256672139,4.0565129186364,13.964756475648,2444267.5867172,4851.1418622659,2803921.9876467,19.164756475648,0,0
-71.682566043987,4.0590959036509,13.969186918692,2444267.5867172,4851.1418622659,2803921.9876467,19.169186918692,0,0
-71.682565366584,4.0616788886653,13.973617361736,2444267.5867172,4851.1418622659,2803921.9876467,19.173617361736,0,0
-71.682564689181,4.0642618736798,13.97804780478,2444267.5867172,4851.1418622659,2803921.9876467,19.17804780478,0,0
-71.682564011777,4.0668448586943,13.982478247825,2444267.5867172,4851.1418622659,2803921.9876467,19.182478247825,0,0
-71.682563334374,4.0694278437088,13.986908690869,2444267.5867172,4851.1418622659,2803921.9876467,19.186908690869,0,0
-71.682562656971,4.0720108287232,13.991339133913,2444267.5867172,4851.1418622659,2803921.9876467,19.191339133913,0,0
-71.682561979568,4.0745938137377,13.995769576958,2444267.5867172,4851.1418622659,2803921.9876467,19.195769576958,0,0
-71.682561302165,4.0771767987522,14.000200020002,2444267.5867172,4851.1418622659,2803921.9876467,19.200200020002,0,0
-71.682560624761,4.0797597837667,14.004630463046,2444267.5867172,4851.1418622659,2803921.9876467,19.204630463046,0,0
-71.682559947358,4.0823427687811,14.009060906091,2444267.5867172,4851.1418622659,2803921.9876467,19.209060906091,0,0
-71.682559269955,4.0849257537956,14.013491349135,2444267.5867172,4851.1418622659,2803921.9876467,19.213491349135,0,0
-71.68255859244,4.0875087385309,14.017921792179,2450384.8885162,-2438.5456082021,2788127.7228874,19.217921792179,0,0
-71.682557913207,4.090091718962,14.022352235224,2450384.8885162,-2438.5456082021,2788127.7228874,19.222352235224,0,0
-71.682557233974,4.0926746993931,14.026782678268,2450384.8885162,-2438.5456082021,2788127.7228874,19.226782678268,0,0
-71.682556554741,4.0952576798242,14.031213121312,2450384.8885162,-2438.5456082021,2788127.7228874,19.231213121312,0,0
-71.682555875507,4.0978406602553,14.035643564356,2450384.8885162,-2438.5456082021,2788127.7228874,19.235643564356,0,0
-71.682555196274,4.1004236406864,14.040074007401,2450384.8885162,-2438.5456082021,2788127.7228874,19.240074007401,0,0
-71.682554517041,4.1030066211175,14.044504450445,2450384.8885162,-2438.5456082021,2788127.7228874,19.244504450445,0,0
-71.682553837808,4.1055896015486,14.048934893489,2450384.8885162,-2438.5456082021,2788127.7228874,19.248934893489,0,0
-71.682553158575,4.1081725819797,14.053365336534,2450384.8885162,-2438.5456082021,2788127.7228874,19.253365336534,0,0
-71.682552479341,4.1107555624108,14.057795779578,2450384.8885162,-2438.5456082021,2788127.7228874,19.257795779578,0,0
-71.682551800108,4.1133385428419,14.062226222622,2450384.8885162,-2438.5456082021,2788127.7228874,19.262226222622,0,0
-71.682551120875,4.115921523273,14.066656665667,2450384.8885162,-2438.5456082021,2788127.7228874,19.266656665667,0,0
-71.682550441642,4.1185045037041,14.071087108711,2450384.8885162,-2438.5456082021,2788127.7228874,19.271087108711,0,0
-71.682549762409,4.1210874841352,14.075517551755,2450384.8885162,-2438.5456082021,2788127.7228874,19.275517551755,0,0
-71.682549083175,4.1236704645663,14.079947994799,2450384.8885162,-2438.5456082021,2788127.7228874,19.279947994799,0,0
-71.682548403942,4.1262534449974,14.084378437844,2450384.8885162,-2438.5456082021,2788127.7228874,19.284378437844,0,0
-71.682547724709,4.1288364254285,14.088808880888,2450384.8885162,-2438.5456082021,2788127.7228874,19.288808880888,0,0
-71.682547045476,4.1314194058596,14.093239323932,2450384.8885162,-2438.5456082021,2788127.7228874,19.293239323932,0,0
-71.682546366243,4.1340023862907,14.097669766977,2450384.8885162,-2438.5456082021,2788127.7228874,19.297669766977,0,0
-71.682545687009,4.1365853667218,14.102100210021,2450384.8885162,-2438.5456082021,2788127.7228874,19.302100210021,0,0
-71.682545007776,4.1391683471529,14.106530653065,2450384.8885162,-2438.5456082021,2788127.7228874,19.306530653065,0,0
-71.682544328543,4.141751327584,14.11096109611,2450384.8885162,-2438.5456082021,2788127.7228874,19.31096109611,0,0
-71.68254364931,4.1443343080151,14.115391539154,2450384.8885162,-2438.5456082021,2788127.7228874,19.315391539154,0,0
-71.682542970077,4.1469172884462,14.119821982198,2450384.8885162,-2438.5456082021,2788127.7228874,19.319821982198,0,0
-71.682542290843,4.1495002688773,14.124252425243,2450384.8885162,-2438.5456082021,2788127.7228874,19.324252425243,0,0
-71.68254161161,4.1520832493084,14.128682868287,2450384.8885162,-2438.5456082021,2788127.7228874,19.328682868287,0,0
-71.682540932377,4.1546662297395,14.133113311331,2450384.8885162,-2438.5456082021,2788127.7228874,19.333113311331,0,0
-71.682540253144,4.1572492101706,14.137543754375,2450384.8885162,-2438.5456082021,2788127.7228874,19.337543754375,0,0
-71.682539573911,4.1598321906017,14.14197419742,2450384.8885162,-2438.5456082021,2788127.7228874,19.34197419742,0,0
-71.682538894678,4.1624151710328,14.146404640464,2450384.8885162,-2438.5456082021,2788127.7228874,19.346404640464,0,0
-71.682538215444,4.1649981514639,14.150835083508,2450384.8885162,-2438.5456082021,2788127.7228874,19.350835083508,0,0
-71.682537536211,4.167581131895,14.155265526553,2450384.8885162,-2438.5456082021,2788127.7228874,19.355265526553,0,0
-71.682536856978,4.1701641123261,14.159695969597,2450384.8885162,-2438.5456082021,2788127.7228874,19.359695969597,0,0
-71.682536177745,4.1727470927572,14.164126412641,2450384.8885162,-2438.5456082021,2788127.7228874,19.364126412641,0,0
-71.682535498512,4.1753300731883,14.168556855686,2450384.8885162,-2438.5456082021,2788127.7228874,19.368556855686,0,0
-71.682534819278,4.1779130536194,14.17298729873,2450384.8885162,-2438.5456082021,2788127.7228874,19.37298729873,0,0
-71.682534140045,4.1804960340505,14.177417741774,2450384.8885162,-2438.5456082021,2788127.7228874,19.377417741774,0,0
-71.682533460812,4.1830790144816,14.181848184818,2450384.8885162,-2438.5456082021,2788127.7228874,19.381848184818,0,0
-71.682532781579,4.1856619949127,14.186278627863,2450384.8885162,-2438.5456082021,2788127.7228874,19.386278627863,0,0
-71.682532102346,4.1882449753437,14.190709070907,2450384.8885162,-2438.5456082021,2788127.7228874,19.390709070907,0,0
-71.682531423112,4.1908279557749,14.195139513951,2450384.8885162,-2438.5456082021,2788127.7228874,19.395139513951,0,0
-71.682530743879,4.1934109362059,14.199569956996,2450384.8885162,-2438.5456082021,2788127.7228874,19.399569956996,0,0
-71.682530064646,4.195993916637,14.20400040004,2450384.8885162,-2438.5456082021,2788127.7228874,19.40400040004,0,0
-71.682529385413,4.1985768970681,14.208430843084,2450384.8885162,-2438.5456082021,2788127.7228874,19.408430843084,0,0
-71.68252870618,4.2011598774992,14.212861286129,2450384.8885162,-2438.5456082021,2788127.7228874,19.412861286129,0,0
-71.682528026946,4.2037428579303,14.217291729173,2450384.8885162,-2438.5456082021,2788127.7228874,19.417291729173,0,0
-71.682527347713,4.2063258383614,14.221722172217,2450384.8885162,-2438.5456082021,2788127.7228874,19.421722172217,0,0
-71.68252666848,4.2089088187925,14.226152615262,2450384.8885162,-2438.5456082021,2788127.7228874,19.426152615262,0,0
-71.682525989247,4.2114917992236,14.230583058306,2450384.8885162,-2438.5456082021,2788127.7228874,19.430583058306,0,0
-71.682525310014,4.2140747796547,14.23501350135,2450384.8885162,-2438.5456082021,2788127.7228874,19.43501350135,0,0
-71.68252463078,4.2166577600858,14.239443944394,2450384.8885162,-2438.5456082021,2788127.7228874,19.439443944394,0,0
-71.682523951547,4.2192407405169,14.243874387439,2450384.8885162,-2438.5456082021,2788127.7228874,19.443874387439,0,0
-71.682523272314,4.221823720948,14.248304830483,2450384.8885162,-2438.5456082021,2788127.7228874,19.448304830483,0,0
-71.682522593081,4.2244067013791,14.252735273527,2450384.8885162,-2438.5456082021,2788127.7228874,19.452735273527,0,0
-71.682521913848,4.2269896818102,14.257165716572,2450384.8885162,-2438.5456082021,2788127.7228874,19.457165716572,0,0
-71.682521234614,4.2295726622413,14.261596159616,2450384.8885162,-2438.5456082021,2788127.7228874,19.461596159616,0,0
-71.682520555381,4.2321556426724,14.26602660266,2450384.8885162,-2438.5456082021,2788127.7228874,19.46602660266,0,0
-71.682519876148,4.2347386231035,14.270457045705,2450384.8885162,-2438.5456082021,2788127.7228874,19.470457045705,0,0
-71.682519196915,4.2373216035346,14.274887488749,2450384.8885162,-2438.5456082021,2788127.7228874,19.474887488749,0,0
-71.682518517682,4.2399045839657,14.279317931793,2450384.8885162,-2438.5456082021,2788127.7228874,19.479317931793,0,0
-71.682517838448,4.2424875643968,14.283748374837,2450384.8885162,-2438.5456082021,2788127.7228874,19.483748374837,0,0
-71.682517159215,4.2450705448279,14.288178817882,2450384.8885162,-2438.5456082021,2788127.7228874,19.488178817882,0,0
-71.682516479982,4.247653525259,14.292609260926,2450384.8885162,-2438.5456082021,2788127.7228874,19.492609260926,0,0
-71.682515800749,4.2502365056901,14.29703970397,2450384.8885162,-2438.5456082021,2788127.7228874,19.49703970397,0,0
-71.682515121516,4.2528194861212,14.301470147015,2450384.8885162,-2438.5456082021,2788127.7228874,19.501470147015,0,0
-71.682514442282,4.2554024665523,14.305900590059,2450384.8885162,-2438.5456082021,2788127.7228874,19.505900590059,0,0
-71.682513763049,4.2579854469834,14.310331033103,2450384.8885162,-2438.5456082021,2788127.7228874,19.510331033103,0,0
-71.682513083816,4.2605684274145,14.314761476148,2450384.8885162,-2438.5456082021,2788127.7228874,19.514761476148,0,0
-71.682512404583,4.2631514078456,14.319191919192,2450384.8885162,-2438.5456082021,2788127.7228874,19.519191919192,0,0
-71.68251172535,4.2657343882767,14.323622362236,2450384.8885162,-2438.5456082021,2788127.7228874,19.523622362236,0,0
-71.682511046116,4.2683173687078,14.328052805281,2450384.8885162,-2438.5456082021,2788127.7228874,19.528052805281,0,0
-71.682510366883,4.2709003491389,14.332483248325,2450384.8885162,-2438.5456082021,2788127.7228874,19.532483248325,0,0
-71.68250968765,4.27348332957,14.336913691369,2450384.8885162,-2438.5456082021,2788127.7228874,19.536913691369,0,0
-71.682509008417,4.2760663100011,14.341344134413,2450384.8885162,-2438.5456082021,2788127.7228874,19.541344134413,0,0
-71.682508329184,4.2786492904322,14.345774577458,2450384.8885162,-2438.5456082021,2788127.7228874,19.545774577458,0,0
-71.68250764995,4.2812322708633,14.350205020502,2450384.8885162,-2438.5456082021,2788127.7228874,19.550205020502,0,0
-71.682506970717,4.2838152512944,14.354635463546,2450384.8885162,-2438.5456082021,2788127.7228874,19.554635463546,0,0
-71.682506291484,4.2863982317255,14.359065906591,2450384.8885162,-2438.5456082021,2788127.7228874,19.559065906591,0,0
-71.682505612251,4.2889812121566,14.363496349635,2450384.8885162,-2438.5456082021,2788127.7228874,19.563496349635,0,0
-71.682504933018,4.2915641925877,14.367926792679,2450384.8885162,-2438.5456082021,2788127.7228874,19.567926792679,0,0
-71.682504253785,4.2941471730188,14.372357235724,2450384.8885162,-2438.5456082021,2788127.7228874,19.572357235724,0,0
-71.682503574551,4.2967301534499,14.376787678768,2450384.8885162,-2438.5456082021,2788127.7228874,19.576787678768,0,0
-71.682502895318,4.299313133881,14.381218121812,2450384.8885162,-2438.5456082021,2788127.7228874,19.581218121812,0,0
-71.682502216085,4.3018961143121,14.385648564856,2450384.8885162,-2438.5456082021,2788127.7228874,19.585648564856,0,0
-71.682501536852,4.3044790947432,14.390079007901,2450384.8885162,-2438.5456082021,2788127.7228874,19.590079007901,0,0
-71.682500857619,4.3070620751743,14.394509450945,2450384.8885162,-2438.5456082021,2788127.7228874,19.594509450945,0,0
-71.682500178385,4.3096450556054,14.398939893989,2450384.8885162,-2438.5456082021,2788127.7228874,19.598939893989,0,0
-71.682499499152,4.3122280360365,14.403370337034,2450384.8885162,-2438.5456082021,2788127.7228874,19.603370337034,0,0
-71.682498819919,4.3148110164676,14.407800780078,2450384.8885162,-2438.5456082021,2788127.7228874,19.607800780078,0,0
-71.682498140686,4.3173939968987,14.412231223122,2450384.8885162,-2438.5456082021,2788127.7228874,19.612231223122,0,0
-71.682497461453,4.3199769773298,14.416661666167,2450384.8885162,-2438.5456082021,2788127.7228874,19.616661666167,0,0
-71.682496782219,4.3225599577609,14.421092109211,2450384.8885162,-2438.5456082021,2788127.7228874,19.621092109211,0,0
-71.682496102986,4.325142938192,14.425522552255,2450384.8885162,-2438.5456082021,2788127.7228874,19.625522552255,0,0
-71.682495423753,4.3277259186231,14.4299529953,2450384.8885162,-2438.5456082021,2788127.7228874,19.6299529953,0,0
-71.68249474452,4.3303088990542,14.434383438344,2450384.8885162,-2438.5456082021,2788127.7228874,19.634383438344,0,0
-71.682494065287,4.3328918794853,14.438813881388,2450384.8885162,-2438.5456082021,2788127.7228874,19.638813881388,0,0
-71.682493386053,4.3354748599164,14.443244324432,2450384.8885162,-2438.5456082021,2788127.7228874,19.643244324432,0,0
-71.68249270682,4.3380578403475,14.447674767477,2450384.8885162,-2438.5456082021,2788127.7228874,19.647674767477,0,0
-71.682492027587,4.3406408207786,14.452105210521,2450384.8885162,-2438.5456082021,2788127.7228874,19.652105210521,0,0
-71.682491348354,4.3432238012097,14.456535653565,2450384.8885162,-2438.5456082021,2788127.7228874,19.656535653565,0,0
-71.682490669121,4.3458067816408,14.46096609661,2450384.8885162,-2438.5456082021,2788127.7228874,19.66096609661,0,0
-71.682489989887,4.3483897620719,14.465396539654,2450384.8885162,-2438.5456082021,2788127.7228874,19.665396539654,0,0
-71.682489310654,4.350972742503,14.469826982698,2450384.8885162,-2438.5456082021,2788127.7228874,19.669826982698,0,0
-71.682488631421,4.3535557229341,14.474257425743,2450384.8885162,-2438.5456082021,2788127.7228874,19.674257425743,0,0
-71.682487952188,4.3561387033652,14.478687868787,2450384.8885162,-2438.5456082021,2788127.7228874,19.678687868787,0,0
-71.682487272955,4.3587216837963,14.483118311831,2450384.8885162,-2438.5456082021,2788127.7228874,19.683118311831,0,0
-71.682486593721,4.3613046642274,14.487548754875,2450384.8885162,-2438.5456082021,2788127.7228874,19.687548754875,0,0
-71.682485914488,4.3638876446585,14.49197919792,2450384.8885162,-2438.5456082021,2788127.7228874,19.69197919792,0,0
-71.682485235255,4.3664706250896,14.496409640964,2450384.8885162,-2438.5456082021,2788127.7228874,19.696409640964,0,0
-71.682484556022,4.3690536055207,14.500840084008,2450384.8885162,-2438.5456082021,2788127.7228874,19.700840084008,0,0
-71.682483876789,4.3716365859518,14.505270527053,2450384.8885162,-2438.5456082021,2788127.7228874,19.705270527053,0,0
-71.682483197555,4.3742195663829,14.509700970097,2450384.8885162,-2438.5456082021,2788127.7228874,19.709700970097,0,0
-71.682482518322,4.376802546814,14.514131413141,2450384.8885162,-2438.5456082021,2788127.7228874,19.714131413141,0,0
-71.682481839089,4.3793855272451,14.518561856186,2450384.8885162,-2438.5456082021,2788127.7228874,19.718561856186,0,0
-71.682481159856,4.3819685076762,14.52299229923,2450384.8885162,-2438.5456082021,2788127.7228874,19.72299229923,0,0
-71.682480480623,4.3845514881073,14.527422742274,2450384.8885162,-2438.5456082021,2788127.7228874,19.727422742274,0,0
-71.682479801389,4.3871344685384,14.531853185319,2450384.8885162,-2438.5456082021,2788127.7228874,19.731853185319,0,0
-71.682479122156,4.3897174489695,14.536283628363,2450384.8885162,-2438.5456082021,2788127.7228874,19.736283628363,0,0
-71.682478442923,4.3923004294006,14.540714071407,2450384.8885162,-2438.5456082021,2788127.7228874,19.740714071407,0,0
-71.68247776369,4.3948834098317,14.545144514451,2450384.8885162,-2438.5456082021,2788127.7228874,19.745144514451,0,0
-71.682477084457,4.3974663902628,14.549574957496,2450384.8885162,-2438.5456082021,2788127.7228874,19.749574957496,0,0
-71.682476405223,4.4000493706939,14.55400540054,2450384.8885162,-2438.5456082021,2788127.7228874,19.75400540054,0,0
-71.68247572599,4.402632351125,14.558435843584,2450384.8885162,-2438.5456082021,2788127.7228874,19.758435843584,0,0
-71.682475046757,4.4052153315561,14.562866286629,2450384.8885162,-2438.5456082021,2788127.7228874,19.762866286629,0,0
-71.682474367524,4.4077983119872,14.567296729673,2450384.8885162,-2438.5456082021,2788127.7228874,19.767296729673,0,0
-71.682473688291,4.4103812924183,14.571727172717,2450384.8885162,-2438.5456082021,2788127.7228874,19.771727172717,0,0
-71.682473009058,4.4129642728494,14.576157615762,2450384.8885162,-2438.5456082021,2788127.7228874,19.776157615762,0,0
-71.682472329824,4.4155472532805,14.580588058806,2450384.8885162,-2438.5456082021,2788127.7228874,19.780588058806,0,0
-71.682471650591,4.4181302337116,14.58501850185,2450384.8885162,-2438.5456082021,2788127.7228874,19.78501850185,0,0
-71.682470971358,4.4207132141427,14.589448944894,2450384.8885162,-2438.5456082021,2788127.7228874,19.789448944894,0,0
-71.682470292125,4.4232961945738,14.593879387939,2450384.8885162,-2438.5456082021,2788127.7228874,19.793879387939,0,0
-71.682469612892,4.4258791750049,14.598309830983,2450384.8885162,-2438.5456082021,2788127.7228874,19.798309830983,0,0
-71.682468933658,4.428462155436,14.602740274027,2450384.8885162,-2438.5456082021,2788127.7228874,19.802740274027,0,0
-71.682468254425,4.4310451358671,14.607170717072,2450384.8885162,-2438.5456082021,2788127.7228874,19.807170717072,0,0
-71.682467575192,4.4336281162982,14.611601160116,2450384.8885162,-2438.5456082021,2788127.7228874,19.811601160116,0,0
-71.682466895959,4.4362110967293,14.61603160316,2450384.8885162,-2438.5456082021,2788127.7228874,19.81603160316,0,0
-71.682466216726,4.4387940771604,14.620462046205,2450384.8885162,-2438.5456082021,2788127.7228874,19.820462046205,0,0
-71.682465537492,4.4413770575915,14.624892489249,2450384.8885162,-2438.5456082021,2788127.7228874,19.824892489249,0,0
-71.682464858259,4.4439600380226,14.629322932293,2450384.8885162,-2438.5456082021,2788127.7228874,19.829322932293,0,0
-71.682464179026,4.4465430184537,14.633753375338,2450384.8885162,-2438.5456082021,2788127.7228874,19.833753375338,0,0
-71.682463499793,4.4491259988848,14.638183818382,2450384.8885162,-2438.5456082021,2788127.7228874,19.838183818382,0,0
-71.68246282056,4.4517089793159,14.642614261426,2450384.8885162,-2438.5456082021,2788127.7228874,19.842614261426,0,0
-71.682462141326,4.454291959747,14.64704470447,2450384.8885162,-2438.5456082021,2788127.7228874,19.84704470447,0,0
-71.682461462093,4.4568749401781,14.651475147515,2450384.8885162,-2438.5456082021,2788127.7228874,19.851475147515,0,0
-71.68246078286,4.4594579206092,14.655905590559,2450384.8885162,-2438.5456082021,2788127.7228874,19.855905590559,0,0
-71.682460103627,4.4620409010403,14.660336033603,2450384.8885162,-2438.5456082021,2788127.7228874,19.860336033603,0,0
-71.682459424394,4.4646238814714,14.664766476648,2450384.8885162,-2438.5456082021,2788127.7228874,19.864766476648,0,0
-71.68245874516,4.4672068619025,14.669196919692,2450384.8885162,-2438.5456082021,2788127.7228874,19.869196919692,0,0
-71.682458065927,4.4697898423336,14.673627362736,2450384.8885162,-2438.5456082021,2788127.7228874,19.873627362736,0,0
-71.682457386694,4.4723728227647,14.678057805781,2450384.8885162,-2438.5456082021,2788127.7228874,19.878057805781,0,0
-71.682456707461,4.4749558031958,14.682488248825,2450384.8885162,-2438.5456082021,2788127.7228874,19.882488248825,0,0
-71.682456028228,4.4775387836269,14.686918691869,2450384.8885162,-2438.5456082021,2788127.7228874,19.886918691869,0,0
-71.682455345974,4.4801217677636,14.691349134913,2465781.1526412,2452.5892505502,2781105.4488544,19.891349134913,0,0
-71.682454663612,4.4827047520346,14.695779577958,2465781.1526412,2452.5892505502,2781105.4488544,19.895779577958,0,0
-71.682453981249,4.4852877363056,14.700210021002,2465781.1526412,2452.5892505502,2781105.4488544,19.900210021002,0,0
-71.682453298886,4.4878707205766,14.704640464046,2465781.1526412,2452.5892505502,2781105.4488544,19.904640464046,0,0
-71.682452616523,4.4904537048476,14.709070907091,2465781.1526412,2452.5892505502,2781105.4488544,19.909070907091,0,0
-71.682451934161,4.4930366891186,14.713501350135,2465781.1526412,2452.5892505502,2781105.4488544,19.913501350135,0,0
-71.682451251798,4.4956196733896,14.717931793179,2465781.1526412,2452.5892505502,2781105.4488544,19.917931793179,0,0
-71.682450569435,4.4982026576606,14.722362236224,2465781.1526412,2452.5892505502,2781105.4488544,19.922362236224,0,0
-71.682449887073,4.5007856419317,14.726792679268,2465781.1526412,2452.5892505502,2781105.4488544,19.926792679268,0,0
-71.68244920471,4.5033686262027,14.731223122312,2465781.1526412,2452.5892505502,2781105.4488544,19.931223122312,0,0
-71.682448522347,4.5059516104737,14.735653565357,2465781.1526412,2452.5892505502,2781105.4488544,19.935653565357,0,0
-71.682447839984,4.5085345947447,14.740084008401,2465781.1526412,2452.5892505502,2781105.4488544,19.940084008401,0,0
-71.682447157622,4.5111175790157,14.744514451445,2465781.1526412,2452.5892505502,2781105.4488544,19.944514451445,0,0
-71.682446475259,4.5137005632867,14.748944894489,2465781.1526412,2452.5892505502,2781105.4488544,19.948944894489,0,0
-71.682445792896,4.5162835475577,14.753375337534,2465781.1526412,2452.5892505502,2781105.4488544,19.953375337534,0,0
-71.682445110534,4.5188665318287,14.757805780578,2465781.1526412,2452.5892505502,2781105.4488544,19.957805780578,0,0
-71.682444428171,4.5214495160997,14.762236223622,2465781.1526412,2452.5892505502,2781105.4488544,19.962236223622,0,0
-71.682443745808,4.5240325003708,14.766666666667,2465781.1526412,2452.5892505502,2781105.4488544,19.966666666667,0,0
-71.682443063445,4.5266154846418,14.771097109711,2465781.1526412,2452.5892505502,2781105.4488544,19.971097109711,0,0
-71.682442381083,4.5291984689128,14.775527552755,2465781.1526412,2452.5892505502,2781105.4488544,19.975527552755,0,0
-71.68244169872,4.5317814531838,14.7799579958,2465781.1526412,2452.5892505502,2781105.4488544,19.9799579958,0,0
-71.682441016357,4.5343644374548,14.784388438844,2465781.1526412,2452.5892505502,2781105.4488544,19.984388438844,0,0
-71.682440333994,4.5369474217258,14.788818881888,2465781.1526412,2452.5892505502,2781105.4488544,19.988818881888,0,0
-71.682439651632,4.5395304059968,14.793249324932,2465781.1526412,2452.5892505502,2781105.4488544,19.993249324932,0,0
-71.682438969269,4.5421133902678,14.797679767977,2465781.1526412,2452.5892505502,2781105.4488544,19.997679767977,0,0
-71.682438286906,4.5446963745388,14.802110211021,2465781.1526412,2452.5892505502,2781105.4488544,20.002110211021,0,0
-71.682437604544,4.5472793588099,14.806540654065,2465781.1526412,2452.5892505502,2781105.4488544,20.006540654065,0,0
-71.682436922181,4.5498623430809,14.81097109711,2465781.1526412,2452.5892505502,2781105.4488544,20.01097109711,0,0
-71.682436239818,4.5524453273519,14.815401540154,2465781.1526412,2452.5892505502,2781105.4488544,20.015401540154,0,0
-71.682435557455,4.5550283116229,14.819831983198,2465781.1526412,2452.5892505502,2781105.4488544,20.019831983198,0,0
-71.682434875093,4.5576112958939,14.824262426243,2465781.1526412,2452.5892505502,2781105.4488544,20.024262426243,0,0
-71.68243419273,4.5601942801649,14.828692869287,2465781.1526412,2452.5892505502,2781105.4488544,20.028692869287,0,0
-71.682433510367,4.5627772644359,14.833123312331,2465781.1526412,2452.5892505502,2781105.4488544,20.033123312331,0,0
-71.682432828005,4.5653602487069,14.837553755376,2465781.1526412,2452.5892505502,2781105.4488544,20.037553755376,0,0
-71.682432145642,4.5679432329779,14.84198419842,2465781.1526412,2452.5892505502,2781105.4488544,20.04198419842,0,0
-71.682431463279,4.570526217249,14.846414641464,2465781.1526412,2452.5892505502,2781105.4488544,20.046414641464,0,0
-71.682430780916,4.57310920152,14.850845084508,2465781.1526412,2452.5892505502,2781105.4488544,20.050845084508,0,0
-71.682430098554,4.575692185791,14.855275527553,2465781.1526412,2452.5892505502,2781105.4488544,20.055275527553,0,0
-71.682429416191,4.578275170062,14.859705970597,2465781.1526412,2452.5892505502,2781105.4488544,20.059705970597,0,0
-71.682428733828,4.580858154333,14.864136413641,2465781.1526412,2452.5892505502,2781105.4488544,20.064136413641,0,0
-71.682428051466,4.583441138604,14.868566856686,2465781.1526412,2452.5892505502,2781105.4488544,20.068566856686,0,0
-71.682427369103,4.586024122875,14.87299729973,2465781.1526412,2452.5892505502,2781105.4488544,20.07299729973,0,0
-71.68242668674,4.588607107146,14.877427742774,2465781.1526412,2452.5892505502,2781105.4488544,20.077427742774,0,0
-71.682426004377,4.591190091417,14.881858185819,2465781.1526412,2452.5892505502,2781105.4488544,20.081858185819,0,0
-71.682425322015,4.5937730756881,14.886288628863,2465781.1526412,2452.5892505502,2781105.4488544,20.086288628863,0,0
-71.682424639652,4.5963560599591,14.890719071907,2465781.1526412,2452.5892505502,2781105.4488544,20.090719071907,0,0
-71.682423957289,4.5989390442301,14.895149514951,2465781.1526412,2452.5892505502,2781105.4488544,20.095149514951,0,0
-71.682423274926,4.6015220285011,14.899579957996,2465781.1526412,2452.5892505502,2781105.4488544,20.099579957996,0,0
-71.682422592564,4.6041050127721,14.90401040104,2465781.1526412,2452.5892505502,2781105.4488544,20.10401040104,0,0
-71.682421910201,4.6066879970431,14.908440844084,2465781.1526412,2452.5892505502,2781105.4488544,20.108440844084,0,0
-71.682421227838,4.6092709813141,14.912871287129,2465781.1526412,2452.5892505502,2781105.4488544,20.112871287129,0,0
-71.682420545476,4.6118539655851,14.917301730173,2465781.1526412,2452.5892505502,2781105.4488544,20.117301730173,0,0
-71.682419863113,4.6144369498561,14.921732173217,2465781.1526412,2452.5892505502,2781105.4488544,20.121732173217,0,0
-71.68241918075,4.6170199341272,14.926162616262,2465781.1526412,2452.5892505502,2781105.4488544,20.126162616262,0,0
-71.682418498387,4.6196029183982,14.930593059306,2465781.1526412,2452.5892505502,2781105.4488544,20.130593059306,0,0
-71.682417816025,4.6221859026692,14.93502350235,2465781.1526412,2452.5892505502,2781105.4488544,20.13502350235,0,0
-71.682417133662,4.6247688869402,14.939453945395,2465781.1526412,2452.5892505502,2781105.4488544,20.139453945395,0,0
-71.682416451299,4.6273518712112,14.943884388439,2465781.1526412,2452.5892505502,2781105.4488544,20.143884388439,0,0
-71.682415768937,4.6299348554822,14.948314831483,2465781.1526412,2452.5892505502,2781105.4488544,20.148314831483,0,0
-71.682415086574,4.6325178397532,14.952745274527,2465781.1526412,2452.5892505502,2781105.4488544,20.152745274527,0,0
-71.682414404211,4.6351008240242,14.957175717572,2465781.1526412,2452.5892505502,2781105.4488544,20.157175717572,0,0
-71.682413721848,4.6376838082952,14.961606160616,2465781.1526412,2452.5892505502,2781105.4488544,20.161606160616,0,0
-71.682413039486,4.6402667925663,14.96603660366,2465781.1526412,2452.5892505502,2781105.4488544,20.16603660366,0,0
-71.682412357123,4.6428497768373,14.970467046705,2465781.1526412,2452.5892505502,2781105.4488544,20.170467046705,0,0
-71.68241167476,4.6454327611083,14.974897489749,2465781.1526412,2452.5892505502,2781105.4488544,20.174897489749,0,0
-71.682410992398,4.6480157453793,14.979327932793,2465781.1526412,2452.5892505502,2781105.4488544,20.179327932793,0,0
-71.682410310035,4.6505987296503,14.983758375838,2465781.1526412,2452.5892505502,2781105.4488544,20.183758375838,0,0
-71.682409627672,4.6531817139213,14.988188818882,2465781.1526412,2452.5892505502,2781105.4488544,20.188188818882,0,0
-71.682408945309,4.6557646981923,14.992619261926,2465781.1526412,2452.5892505502,2781105.4488544,20.192619261926,0,0
-71.682408262947,4.6583476824633,14.99704970497,2465781.1526412,2452.5892505502,2781105.4488544,20.19704970497,0,0
-71.682407580584,4.6609306667343,15.001480148015,2465781.1526412,2452.5892505502,2781105.4488544,20.201480148015,0,0
-71.682406898221,4.6635136510054,15.005910591059,2465781.1526412,2452.5892505502,2781105.4488544,20.205910591059,0,0
-71.682406215858,4.6660966352764,15.010341034103,2465781.1526412,2452.5892505502,2781105.4488544,20.210341034103,0,0
-71.682405533496,4.6686796195474,15.014771477148,2465781.1526412,2452.5892505502,2781105.4488544,20.214771477148,0,0
-71.682404851133,4.6712626038184,15.019201920192,2465781.1526412,2452.5892505502,2781105.4488544,20.219201920192,0,0
-71.68240416877,4.6738455880894,15.023632363236,2465781.1526412,2452.5892505502,2781105.4488544,20.223632363236,0,0
-71.682403486408,4.6764285723604,15.028062806281,2465781.1526412,2452.5892505502,2781105.4488544,20.228062806281,0,0
-71.682402804045,4.6790115566314,15.032493249325,2465781.1526412,2452.5892505502,2781105.4488544,20.232493249325,0,0
-71.682402121682,4.6815945409024,15.036923692369,2465781.1526412,2452.5892505502,2781105.4488544,20.236923692369,0,0
-71.682401439319,4.6841775251734,15.041354135414,2465781.1526412,2452.5892505502,2781105.4488544,20.241354135414,0,0
-71.682400756957,4.6867605094445,15.045784578458,2465781.1526412,2452.5892505502,2781105.4488544,20.245784578458,0,0
-71.682400074594,4.6893434937155,15.050215021502,2465781.1526412,2452.5892505502,2781105.4488544,20.250215021502,0,0
-71.682399392231,4.6919264779865,15.054645464546,2465781.1526412,2452.5892505502,2781105.4488544,20.254645464546,0,0
-71.682398709869,4.6945094622575,15.059075907591,2465781.1526412,2452.5892505502,2781105.4488544,20.259075907591,0,0
-71.682398027506,4.6970924465285,15.063506350635,2465781.1526412,2452.5892505502,2781105.4488544,20.263506350635,0,0
-71.682397345143,4.6996754307995,15.067936793679,2465781.1526412,2452.5892505502,2781105.4488544,20.267936793679,0,0
-71.68239666278,4.7022584150705,15.072367236724,2465781.1526412,2452.5892505502,2781105.4488544,20.272367236724,0,0
-71.682395980418,4.7048413993415,15.076797679768,2465781.1526412,2452.5892505502,2781105.4488544,20.276797679768,0,0
-71.682395298055,4.7074243836125,15.081228122812,2465781.1526412,2452.5892505502,2781105.4488544,20.281228122812,0,0
-71.682394615692,4.7100073678836,15.085658565857,2465781.1526412,2452.5892505502,2781105.4488544,20.285658565857,0,0
-71.68239393333,4.7125903521546,15.090089008901,2465781.1526412,2452.5892505502,2781105.4488544,20.290089008901,0,0
-71.682393250967,4.7151733364256,15.094519451945,2465781.1526412,2452.5892505502,2781105.4488544,20.294519451945,0,0
-71.682392568604,4.7177563206966,15.098949894989,2465781.1526412,2452.5892505502,2781105.4488544,20.298949894989,0,0
-71.682391886241,4.7203393049676,15.103380338034,2465781.1526412,2452.5892505502,2781105.4488544,20.303380338034,0,0
-71.682391203879,4.7229222892386,15.107810781078,2465781.1526412,2452.5892505502,2781105.4488544,20.307810781078,0,0
-71.682390521516,4.7255052735096,15.112241224122,2465781.1526412,2452.5892505502,2781105.4488544,20.312241224122,0,0
-71.682389839153,4.7280882577806,15.116671667167,2465781.1526412,2452.5892505502,2781105.4488544,20.316671667167,0,0
-71.68238915679,4.7306712420516,15.121102110211,2465781.1526412,2452.5892505502,2781105.4488544,20.321102110211,0,0
-71.682388474428,4.7332542263227,15.125532553255,2465781.1526412,2452.5892505502,2781105.4488544,20.325532553255,0,0
-71.682387792065,4.7358372105937,15.1299629963,2465781.1526412,2452.5892505502,2781105.4488544,20.3299629963,0,0
-71.682387109702,4.7384201948647,15.134393439344,2465781.1526412,2452.5892505502,2781105.4488544,20.334393439344,0,0
-71.68238642734,4.7410031791357,15.138823882388,2465781.1526412,2452.5892505502,2781105.4488544,20.338823882388,0,0
-71.682385744977,4.7435861634067,15.143254325433,2465781.1526412,2452.5892505502,2781105.4488544,20.343254325433,0,0
-71.682385062614,4.7461691476777,15.147684768477,2465781.1526412,2452.5892505502,2781105.4488544,20.347684768477,0,0
-71.682384380251,4.7487521319487,15.152115211521,2465781.1526412,2452.5892505502,2781105.4488544,20.352115211521,0,0
-71.682383697889,4.7513351162197,15.156545654565,2465781.1526412,2452.5892505502,2781105.4488544,20.356545654565,0,0
-71.682383015526,4.7539181004907,15.16097609761,2465781.1526412,2452.5892505502,2781105.4488544,20.36097609761,0,0
-71.682382333163,4.7565010847618,15.165406540654,2465781.1526412,2452.5892505502,2781105.4488544,20.365406540654,0,0
-71.682381650801,4.7590840690328,15.169836983698,2465781.1526412,2452.5892505502,2781105.4488544,20.369836983698,0,0
-71.682380968438,4.7616670533038,15.174267426743,2465781.1526412,2452.5892505502,2781105.4488544,20.374267426743,0,0
-71.682380286075,4.7642500375748,15.178697869787,2465781.1526412,2452.5892505502,2781105.4488544,20.378697869787,0,0
-71.682379603712,4.7668330218458,15.183128312831,2465781.1526412,2452.5892505502,2781105.4488544,20.383128312831,0,0
-71.68237892135,4.7694160061168,15.187558755876,2465781.1526412,2452.5892505502,2781105.4488544,20.387558755876,0,0
-71.682378238987,4.7719989903878,15.19198919892,2465781.1526412,2452.5892505502,2781105.4488544,20.39198919892,0,0
-71.682377556624,4.7745819746588,15.196419641964,2465781.1526412,2452.5892505502,2781105.4488544,20.396419641964,0,0
-71.682376874262,4.7771649589298,15.200850085009,2465781.1526412,2452.5892505502,2781105.4488544,20.400850085008,0,0
-71.682376191899,4.7797479432009,15.205280528053,2465781.1526412,2452.5892505502,2781105.4488544,20.405280528053,0,0
-71.682375509536,4.7823309274719,15.209710971097,2465781.1526412,2452.5892505502,2781105.4488544,20.409710971097,0,0
-71.682374827173,4.7849139117429,15.214141414141,2465781.1526412,2452.5892505502,2781105.4488544,20.414141414141,0,0
-71.682374144811,4.7874968960139,15.218571857186,2465781.1526412,2452.5892505502,2781105.4488544,20.418571857186,0,0
-71.682373462448,4.7900798802849,15.22300230023,2465781.1526412,2452.5892505502,2781105.4488544,20.42300230023,0,0
-71.682372780085,4.7926628645559,15.227432743274,2465781.1526412,2452.5892505502,2781105.4488544,20.427432743274,0,0
-71.682372097722,4.7952458488269,15.231863186319,2465781.1526412,2452.5892505502,2781105.4488544,20.431863186319,0,0
-71.68237141536,4.7978288330979,15.236293629363,2465781.1526412,2452.5892505502,2781105.4488544,20.436293629363,0,0
-71.682370732997,4.8004118173689,15.240724072407,2465781.1526412,2452.5892505502,2781105.4488544,20.440724072407,0,0
-71.682370050634,4.80299480164,15.245154515452,2465781.1526412,2452.5892505502,2781105.4488544,20.445154515452,0,0
-71.682369368272,4.805577785911,15.249584958496,2465781.1526412,2452.5892505502,2781105.4488544,20.449584958496,0,0
-71.682368685909,4.808160770182,15.25401540154,2465781.1526412,2452.5892505502,2781105.4488544,20.45401540154,0,0
-71.682368003546,4.810743754453,15.258445844584,2465781.1526412,2452.5892505502,2781105.4488544,20.458445844584,0,0
-71.682367321183,4.813326738724,15.262876287629,2465781.1526412,2452.5892505502,2781105.4488544,20.462876287629,0,0
-71.682366638821,4.815909722995,15.267306730673,2465781.1526412,2452.5892505502,2781105.4488544,20.467306730673,0,0
-71.682365956458,4.818492707266,15.271737173717,2465781.1526412,2452.5892505502,2781105.4488544,20.471737173717,0,0
-71.682365274095,4.821075691537,15.276167616762,2465781.1526412,2452.5892505502,2781105.4488544,20.476167616762,0,0
-71.682364591733,4.823658675808,15.280598059806,2465781.1526412,2452.5892505502,2781105.4488544,20.480598059806,0,0
-71.68236390937,4.8262416600791,15.28502850285,2465781.1526412,2452.5892505502,2781105.4488544,20.48502850285,0,0
-71.682363227007,4.8288246443501,15.289458945895,2465781.1526412,2452.5892505502,2781105.4488544,20.489458945895,0,0
-71.682362544644,4.8314076286211,15.293889388939,2465781.1526412,2452.5892505502,2781105.4488544,20.493889388939,0,0
-71.682361862282,4.8339906128921,15.298319831983,2465781.1526412,2452.5892505502,2781105.4488544,20.498319831983,0,0
-71.682361179919,4.8365735971631,15.302750275028,2465781.1526412,2452.5892505502,2781105.4488544,20.502750275028,0,0
-71.682360497556,4.8391565814341,15.307180718072,2465781.1526412,2452.5892505502,2781105.4488544,20.507180718072,0,0
-71.682359815193,4.8417395657051,15.311611161116,2465781.1526412,2452.5892505502,2781105.4488544,20.511611161116,0,0
-71.682359132831,4.8443225499761,15.31604160416,2465781.1526412,2452.5892505502,2781105.4488544,20.51604160416,0,0
-71.682358450468,4.8469055342471,15.320472047205,2465781.1526412,2452.5892505502,2781105.4488544,20.520472047205,0,0
-71.682357768105,4.8494885185182,15.324902490249,2465781.1526412,2452.5892505502,2781105.4488544,20.524902490249,0,0
-71.682357085743,4.8520715027892,15.329332933293,2465781.1526412,2452.5892505502,2781105.4488544,20.529332933293,0,0
-71.68235640338,4.8546544870602,15.333763376338,2465781.1526412,2452.5892505502,2781105.4488544,20.533763376338,0,0
-71.682355721017,4.8572374713312,15.338193819382,2465781.1526412,2452.5892505502,2781105.4488544,20.538193819382,0,0
-71.682355038654,4.8598204556022,15.342624262426,2465781.1526412,2452.5892505502,2781105.4488544,20.542624262426,0,0
-71.682354356292,4.8624034398732,15.347054705471,2465781.1526412,2452.5892505502,2781105.4488544,20.547054705471,0,0
-71.682353673929,4.8649864241442,15.351485148515,2465781.1526412,2452.5892505502,2781105.4488544,20.551485148515,0,0
-71.682352990429,4.8675694058384,15.355915591559,2471683.1463193,-3279.5686159397,2767901.1240987,20.555915591559,0,0
-71.682352306393,4.8701523863159,15.360346034603,2471683.1463193,-3279.5686159397,2767901.1240987,20.560346034603,0,0
-71.682351622356,4.8727353667935,15.364776477648,2471683.1463193,-3279.5686159397,2767901.1240987,20.564776477648,0,0
-71.68235093832,4.8753183472711,15.369206920692,2471683.1463193,-3279.5686159397,2767901.1240987,20.569206920692,0,0
-71.682350254283,4.8779013277487,15.373637363736,2471683.1463193,-3279.5686159397,2767901.1240987,20.573637363736,0,0
-71.682349570247,4.8804843082263,15.378067806781,2471683.1463193,-3279.5686159397,2767901.1240987,20.578067806781,0,0
-71.68234888621,4.8830672887039,15.382498249825,2471683.1463193,-3279.5686159397,2767901.1240987,20.582498249825,0,0
-71.682348202173,4.8856502691815,15.386928692869,2471683.1463193,-3279.5686159397,2767901.1240987,20.586928692869,0,0
-71.682347518137,4.888233249659,15.391359135914,2471683.1463193,-3279.5686159397,2767901.1240987,20.591359135914,0,0
-71.6823468341,4.8908162301366,15.395789578958,2471683.1463193,-3279.5686159397,2767901.1240987,20.595789578958,0,0
-71.682346150064,4.8933992106142,15.400220022002,2471683.1463193,-3279.5686159397,2767901.1240987,20.600220022002,0,0
-71.682345466027,4.8959821910918,15.404650465047,2471683.1463193,-3279.5686159397,2767901.1240987,20.604650465047,0,0
-71.682344781991,4.8985651715694,15.409080908091,2471683.1463193,-3279.5686159397,2767901.1240987,20.609080908091,0,0
-71.682344097954,4.901148152047,15.413511351135,2471683.1463193,-3279.5686159397,2767901.1240987,20.613511351135,0,0
-71.682343413918,4.9037311325246,15.417941794179,2471683.1463193,-3279.5686159397,2767901.1240987,20.617941794179,0,0
-71.682342729881,4.9063141130022,15.422372237224,2471683.1463193,-3279.5686159397,2767901.1240987,20.622372237224,0,0
-71.682342045845,4.9088970934797,15.426802680268,2471683.1463193,-3279.5686159397,2767901.1240987,20.626802680268,0,0
-71.682341361808,4.9114800739573,15.431233123312,2471683.1463193,-3279.5686159397,2767901.1240987,20.631233123312,0,0
-71.682340677772,4.9140630544349,15.435663566357,2471683.1463193,-3279.5686159397,2767901.1240987,20.635663566357,0,0
-71.682339993735,4.9166460349125,15.440094009401,2471683.1463193,-3279.5686159397,2767901.1240987,20.640094009401,0,0
-71.682339309698,4.9192290153901,15.444524452445,2471683.1463193,-3279.5686159397,2767901.1240987,20.644524452445,0,0
-71.682338625662,4.9218119958677,15.44895489549,2471683.1463193,-3279.5686159397,2767901.1240987,20.64895489549,0,0
-71.682337941625,4.9243949763453,15.453385338534,2471683.1463193,-3279.5686159397,2767901.1240987,20.653385338534,0,0
-71.682337257589,4.9269779568229,15.457815781578,2471683.1463193,-3279.5686159397,2767901.1240987,20.657815781578,0,0
-71.682336573552,4.9295609373004,15.462246224622,2471683.1463193,-3279.5686159397,2767901.1240987,20.662246224622,0,0
-71.682335889516,4.932143917778,15.466676667667,2471683.1463193,-3279.5686159397,2767901.1240987,20.666676667667,0,0
-71.682335205479,4.9347268982556,15.471107110711,2471683.1463193,-3279.5686159397,2767901.1240987,20.671107110711,0,0
-71.682334521443,4.9373098787332,15.475537553755,2471683.1463193,-3279.5686159397,2767901.1240987,20.675537553755,0,0
-71.682333837406,4.9398928592108,15.4799679968,2471683.1463193,-3279.5686159397,2767901.1240987,20.6799679968,0,0
-71.68233315337,4.9424758396884,15.484398439844,2471683.1463193,-3279.5686159397,2767901.1240987,20.684398439844,0,0
-71.682332469333,4.945058820166,15.488828882888,2471683.1463193,-3279.5686159397,2767901.1240987,20.688828882888,0,0
-71.682331785297,4.9476418006436,15.493259325933,2471683.1463193,-3279.5686159397,2767901.1240987,20.693259325933,0,0
-71.68233110126,4.9502247811211,15.497689768977,2471683.1463193,-3279.5686159397,2767901.1240987,20.697689768977,0,0
-71.682330417223,4.9528077615987,15.502120212021,2471683.1463193,-3279.5686159397,2767901.1240987,20.702120212021,0,0
-71.682329733187,4.9553907420763,15.506550655066,2471683.1463193,-3279.5686159397,2767901.1240987,20.706550655066,0,0
-71.68232904915,4.9579737225539,15.51098109811,2471683.1463193,-3279.5686159397,2767901.1240987,20.71098109811,0,0
-71.682328365114,4.9605567030315,15.515411541154,2471683.1463193,-3279.5686159397,2767901.1240987,20.715411541154,0,0
-71.682327681077,4.9631396835091,15.519841984198,2471683.1463193,-3279.5686159397,2767901.1240987,20.719841984198,0,0
-71.682326997041,4.9657226639867,15.524272427243,2471683.1463193,-3279.5686159397,2767901.1240987,20.724272427243,0,0
-71.682326313004,4.9683056444643,15.528702870287,2471683.1463193,-3279.5686159397,2767901.1240987,20.728702870287,0,0
-71.682325628968,4.9708886249418,15.533133313331,2471683.1463193,-3279.5686159397,2767901.1240987,20.733133313331,0,0
-71.682324944931,4.9734716054194,15.537563756376,2471683.1463193,-3279.5686159397,2767901.1240987,20.737563756376,0,0
-71.682324260895,4.976054585897,15.54199419942,2471683.1463193,-3279.5686159397,2767901.1240987,20.74199419942,0,0
-71.682323576858,4.9786375663746,15.546424642464,2471683.1463193,-3279.5686159397,2767901.1240987,20.746424642464,0,0
-71.682322892822,4.9812205468522,15.550855085509,2471683.1463193,-3279.5686159397,2767901.1240987,20.750855085509,0,0
-71.682322208785,4.9838035273298,15.555285528553,2471683.1463193,-3279.5686159397,2767901.1240987,20.755285528553,0,0
-71.682321524748,4.9863865078074,15.559715971597,2471683.1463193,-3279.5686159397,2767901.1240987,20.759715971597,0,0
-71.682320840712,4.988969488285,15.564146414641,2471683.1463193,-3279.5686159397,2767901.1240987,20.764146414641,0,0
-71.682320156675,4.9915524687625,15.568576857686,2471683.1463193,-3279.5686159397,2767901.1240987,20.768576857686,0,0
-71.682319472639,4.9941354492401,15.57300730073,2471683.1463193,-3279.5686159397,2767901.1240987,20.77300730073,0,0
-71.682318788602,4.9967184297177,15.577437743774,2471683.1463193,-3279.5686159397,2767901.1240987,20.777437743774,0,0
-71.682318104566,4.9993014101953,15.581868186819,2471683.1463193,-3279.5686159397,2767901.1240987,20.781868186819,0,0
-71.682317420529,5.0018843906729,15.586298629863,2471683.1463193,-3279.5686159397,2767901.1240987,20.786298629863,0,0
-71.682316736493,5.0044673711505,15.590729072907,2471683.1463193,-3279.5686159397,2767901.1240987,20.790729072907,0,0
-71.682316052456,5.0070503516281,15.595159515952,2471683.1463193,-3279.5686159397,2767901.1240987,20.795159515952,0,0
-71.68231536842,5.0096333321056,15.599589958996,2471683.1463193,-3279.5686159397,2767901.1240987,20.799589958996,0,0
-71.682314684383,5.0122163125832,15.60402040204,2471683.1463193,-3279.5686159397,2767901.1240987,20.80402040204,0,0
-71.682314000346,5.0147992930608,15.608450845085,2471683.1463193,-3279.5686159397,2767901.1240987,20.808450845085,0,0
-71.68231331631,5.0173822735384,15.612881288129,2471683.1463193,-3279.5686159397,2767901.1240987,20.812881288129,0,0
-71.682312632273,5.019965254016,15.617311731173,2471683.1463193,-3279.5686159397,2767901.1240987,20.817311731173,0,0
-71.682311948237,5.0225482344936,15.621742174217,2471683.1463193,-3279.5686159397,2767901.1240987,20.821742174217,0,0
-71.6823112642,5.0251312149712,15.626172617262,2471683.1463193,-3279.5686159397,2767901.1240987,20.826172617262,0,0
-71.682310580164,5.0277141954488,15.630603060306,2471683.1463193,-3279.5686159397,2767901.1240987,20.830603060306,0,0
-71.682309896127,5.0302971759263,15.63503350335,2471683.1463193,-3279.5686159397,2767901.1240987,20.83503350335,0,0
-71.682309212091,5.0328801564039,15.639463946395,2471683.1463193,-3279.5686159397,2767901.1240987,20.839463946395,0,0
-71.682308528054,5.0354631368815,15.643894389439,2471683.1463193,-3279.5686159397,2767901.1240987,20.843894389439,0,0
-71.682307844018,5.0380461173591,15.648324832483,2471683.1463193,-3279.5686159397,2767901.1240987,20.848324832483,0,0
-71.682307159981,5.0406290978367,15.652755275528,2471683.1463193,-3279.5686159397,2767901.1240987,20.852755275528,0,0
-71.682306475945,5.0432120783143,15.657185718572,2471683.1463193,-3279.5686159397,2767901.1240987,20.857185718572,0,0
-71.682305791908,5.0457950587919,15.661616161616,2471683.1463193,-3279.5686159397,2767901.1240987,20.861616161616,0,0
-71.682305107871,5.0483780392695,15.66604660466,2471683.1463193,-3279.5686159397,2767901.1240987,20.86604660466,0,0
-71.682304423835,5.050961019747,15.670477047705,2471683.1463193,-3279.5686159397,2767901.1240987,20.870477047705,0,0
-71.682303739798,5.0535440002246,15.674907490749,2471683.1463193,-3279.5686159397,2767901.1240987,20.874907490749,0,0
-71.682303055762,5.0561269807022,15.679337933793,2471683.1463193,-3279.5686159397,2767901.1240987,20.879337933793,0,0
-71.682302371725,5.0587099611798,15.683768376838,2471683.1463193,-3279.5686159397,2767901.1240987,20.883768376838,0,0
-71.682301687689,5.0612929416574,15.688198819882,2471683.1463193,-3279.5686159397,2767901.1240987,20.888198819882,0,0
-71.682301003652,5.063875922135,15.692629262926,2471683.1463193,-3279.5686159397,2767901.1240987,20.892629262926,0,0
-71.682300319616,5.0664589026126,15.697059705971,2471683.1463193,-3279.5686159397,2767901.1240987,20.897059705971,0,0
-71.682299635579,5.0690418830902,15.701490149015,2471683.1463193,-3279.5686159397,2767901.1240987,20.901490149015,0,0
-71.682298951543,5.0716248635677,15.705920592059,2471683.1463193,-3279.5686159397,2767901.1240987,20.905920592059,0,0
-71.682298267506,5.0742078440453,15.710351035104,2471683.1463193,-3279.5686159397,2767901.1240987,20.910351035104,0,0
-71.68229758347,5.0767908245229,15.714781478148,2471683.1463193,-3279.5686159397,2767901.1240987,20.914781478148,0,0
-71.682296899433,5.0793738050005,15.719211921192,2471683.1463193,-3279.5686159397,2767901.1240987,20.919211921192,0,0
-71.682296215396,5.0819567854781,15.723642364236,2471683.1463193,-3279.5686159397,2767901.1240987,20.923642364236,0,0
-71.68229553136,5.0845397659557,15.728072807281,2471683.1463193,-3279.5686159397,2767901.1240987,20.928072807281,0,0
-71.682294847323,5.0871227464333,15.732503250325,2471683.1463193,-3279.5686159397,2767901.1240987,20.932503250325,0,0
-71.682294163287,5.0897057269109,15.736933693369,2471683.1463193,-3279.5686159397,2767901.1240987,20.936933693369,0,0
-71.68229347925,5.0922887073884,15.741364136414,2471683.1463193,-3279.5686159397,2767901.1240987,20.941364136414,0,0
-71.682292795214,5.094871687866,15.745794579458,2471683.1463193,-3279.5686159397,2767901.1240987,20.945794579458,0,0
-71.682292111177,5.0974546683436,15.750225022502,2471683.1463193,-3279.5686159397,2767901.1240987,20.950225022502,0,0
-71.682291427141,5.1000376488212,15.754655465547,2471683.1463193,-3279.5686159397,2767901.1240987,20.954655465547,0,0
-71.682290743104,5.1026206292988,15.759085908591,2471683.1463193,-3279.5686159397,2767901.1240987,20.959085908591,0,0
-71.682290059068,5.1052036097764,15.763516351635,2471683.1463193,-3279.5686159397,2767901.1240987,20.963516351635,0,0
-71.682289375031,5.107786590254,15.767946794679,2471683.1463193,-3279.5686159397,2767901.1240987,20.967946794679,0,0
-71.682288690995,5.1103695707315,15.772377237724,2471683.1463193,-3279.5686159397,2767901.1240987,20.972377237724,0,0
-71.682288006958,5.1129525512091,15.776807680768,2471683.1463193,-3279.5686159397,2767901.1240987,20.976807680768,0,0
-71.682287322921,5.1155355316867,15.781238123812,2471683.1463193,-3279.5686159397,2767901.1240987,20.981238123812,0,0
-71.682286638885,5.1181185121643,15.785668566857,2471683.1463193,-3279.5686159397,2767901.1240987,20.985668566857,0,0
-71.682285954848,5.1207014926419,15.790099009901,2471683.1463193,-3279.5686159397,2767901.1240987,20.990099009901,0,0
-71.682285270812,5.1232844731195,15.794529452945,2471683.1463193,-3279.5686159397,2767901.1240987,20.994529452945,0,0
-71.682284586775,5.1258674535971,15.79895989599,2471683.1463193,-3279.5686159397,2767901.1240987,20.99895989599,0,0
-71.682283902739,5.1284504340747,15.803390339034,2471683.1463193,-3279.5686159397,2767901.1240987,21.003390339034,0,0
-71.682283218702,5.1310334145522,15.807820782078,2471683.1463193,-3279.5686159397,2767901.1240987,21.007820782078,0,0
-71.682282534666,5.1336163950298,15.812251225123,2471683.1463193,-3279.5686159397,2767901.1240987,21.012251225123,0,0
-71.682281850629,5.1361993755074,15.816681668167,2471683.1463193,-3279.5686159397,2767901.1240987,21.016681668167,0,0
-71.682281166593,5.138782355985,15.821112111211,2471683.1463193,-3279.5686159397,2767901.1240987,21.021112111211,0,0
-71.682280482556,5.1413653364626,15.825542554255,2471683.1463193,-3279.5686159397,2767901.1240987,21.025542554255,0,0
-71.68227979852,5.1439483169402,15.8299729973,2471683.1463193,-3279.5686159397,2767901.1240987,21.0299729973,0,0
-71.682279114483,5.1465312974178,15.834403440344,2471683.1463193,-3279.5686159397,2767901.1240987,21.034403440344,0,0
-71.682278430446,5.1491142778954,15.838833883388,2471683.1463193,-3279.5686159397,2767901.1240987,21.038833883388,0,0
-71.68227774641,5.1516972583729,15.843264326433,2471683.1463193,-3279.5686159397,2767901.1240987,21.043264326433,0,0
-71.682277062373,5.1542802388505,15.847694769477,2471683.1463193,-3279.5686159397,2767901.1240987,21.047694769477,0,0
-71.682276378337,5.1568632193281,15.852125212521,2471683.1463193,-3279.5686159397,2767901.1240987,21.052125212521,0,0
-71.6822756943,5.1594461998057,15.856555655566,2471683.1463193,-3279.5686159397,2767901.1240987,21.056555655566,0,0
-71.682275010264,5.1620291802833,15.86098609861,2471683.1463193,-3279.5686159397,2767901.1240987,21.06098609861,0,0
-71.682274326227,5.1646121607609,15.865416541654,2471683.1463193,-3279.5686159397,2767901.1240987,21.065416541654,0,0
-71.682273642191,5.1671951412385,15.869846984698,2471683.1463193,-3279.5686159397,2767901.1240987,21.069846984698,0,0
-71.682272958154,5.1697781217161,15.874277427743,2471683.1463193,-3279.5686159397,2767901.1240987,21.074277427743,0,0
-71.682272274118,5.1723611021936,15.878707870787,2471683.1463193,-3279.5686159397,2767901.1240987,21.078707870787,0,0
-71.682271590081,5.1749440826712,15.883138313831,2471683.1463193,-3279.5686159397,2767901.1240987,21.083138313831,0,0
-71.682270906044,5.1775270631488,15.887568756876,2471683.1463193,-3279.5686159397,2767901.1240987,21.087568756876,0,0
-71.682270222008,5.1801100436264,15.89199919992,2471683.1463193,-3279.5686159397,2767901.1240987,21.09199919992,0,0
-71.682269537971,5.182693024104,15.896429642964,2471683.1463193,-3279.5686159397,2767901.1240987,21.096429642964,0,0
-71.682268853935,5.1852760045816,15.900860086009,2471683.1463193,-3279.5686159397,2767901.1240987,21.100860086009,0,0
-71.682268169898,5.1878589850592,15.905290529053,2471683.1463193,-3279.5686159397,2767901.1240987,21.105290529053,0,0
-71.682267485862,5.1904419655368,15.909720972097,2471683.1463193,-3279.5686159397,2767901.1240987,21.109720972097,0,0
-71.682266801825,5.1930249460143,15.914151415142,2471683.1463193,-3279.5686159397,2767901.1240987,21.114151415142,0,0
-71.682266117789,5.1956079264919,15.918581858186,2471683.1463193,-3279.5686159397,2767901.1240987,21.118581858186,0,0
-71.682265433752,5.1981909069695,15.92301230123,2471683.1463193,-3279.5686159397,2767901.1240987,21.12301230123,0,0
-71.682264749716,5.2007738874471,15.927442744274,2471683.1463193,-3279.5686159397,2767901.1240987,21.127442744274,0,0
-71.682264065679,5.2033568679247,15.931873187319,2471683.1463193,-3279.5686159397,2767901.1240987,21.131873187319,0,0
-71.68226337953,5.2059398507796,15.936303630363,2485377.3870461,201.17546616237,2761800.9523309,21.136303630363,0,0
-71.682262692716,5.2085228343822,15.940734073407,2485377.3870461,201.17546616237,2761800.9523309,21.140734073407,0,0
-71.682262005903,5.2111058179849,15.945164516452,2485377.3870461,201.17546616237,2761800.9523309,21.145164516452,0,0
-71.682261319089,5.2136888015875,15.949594959496,2485377.3870461,201.17546616237,2761800.9523309,21.149594959496,0,0
-71.682260632276,5.2162717851901,15.95402540254,2485377.3870461,201.17546616237,2761800.9523309,21.15402540254,0,0
-71.682259945462,5.2188547687927,15.958455845585,2485377.3870461,201.17546616237,2761800.9523309,21.158455845585,0,0
-71.682259258649,5.2214377523953,15.962886288629,2485377.3870461,201.17546616237,2761800.9523309,21.162886288629,0,0
-71.682258571835,5.2240207359979,15.967316731673,2485377.3870461,201.17546616237,2761800.9523309,21.167316731673,0,0
-71.682257885022,5.2266037196005,15.971747174717,2485377.3870461,201.17546616237,2761800.9523309,21.171747174717,0,0
-71.682257198208,5.2291867032031,15.976177617762,2485377.3870461,201.17546616237,2761800.9523309,21.176177617762,0,0
-71.682256511395,5.2317696868057,15.980608060806,2485377.3870461,201.17546616237,2761800.9523309,21.180608060806,0,0
-71.682255824581,5.2343526704083,15.98503850385,2485377.3870461,201.17546616237,2761800.9523309,21.18503850385,0,0
-71.682255137768,5.2369356540109,15.989468946895,2485377.3870461,201.17546616237,2761800.9523309,21.189468946895,0,0
-71.682254450954,5.2395186376135,15.993899389939,2485377.3870461,201.17546616237,2761800.9523309,21.193899389939,0,0
-71.682253764141,5.2421016212162,15.998329832983,2485377.3870461,201.17546616237,2761800.9523309,21.198329832983,0,0
-71.682253077327,5.2446846048188,16.002760276028,2485377.3870461,201.17546616237,2761800.9523309,21.202760276028,0,0
-71.682252390514,5.2472675884214,16.007190719072,2485377.3870461,201.17546616237,2761800.9523309,21.207190719072,0,0
-71.6822517037,5.249850572024,16.011621162116,2485377.3870461,201.17546616237,2761800.9523309,21.211621162116,0,0
-71.682251016886,5.2524335556266,16.016051605161,2485377.3870461,201.17546616237,2761800.9523309,21.216051605161,0,0
-71.682250330073,5.2550165392292,16.020482048205,2485377.3870461,201.17546616237,2761800.9523309,21.220482048205,0,0
-71.682249643259,5.2575995228318,16.024912491249,2485377.3870461,201.17546616237,2761800.9523309,21.224912491249,0,0
-71.682248956446,5.2601825064344,16.029342934293,2485377.3870461,201.17546616237,2761800.9523309,21.229342934293,0,0
-71.682248269632,5.262765490037,16.033773377338,2485377.3870461,201.17546616237,2761800.9523309,21.233773377338,0,0
-71.682247582819,5.2653484736396,16.038203820382,2485377.3870461,201.17546616237,2761800.9523309,21.238203820382,0,0
-71.682246896005,5.2679314572422,16.042634263426,2485377.3870461,201.17546616237,2761800.9523309,21.242634263426,0,0
-71.682246209192,5.2705144408449,16.047064706471,2485377.3870461,201.17546616237,2761800.9523309,21.247064706471,0,0
-71.682245522378,5.2730974244475,16.051495149515,2485377.3870461,201.17546616237,2761800.9523309,21.251495149515,0,0
-71.682244835565,5.2756804080501,16.055925592559,2485377.3870461,201.17546616237,2761800.9523309,21.255925592559,0,0
-71.682244148751,5.2782633916527,16.060356035604,2485377.3870461,201.17546616237,2761800.9523309,21.260356035604,0,0
-71.682243461938,5.2808463752553,16.064786478648,2485377.3870461,201.17546616237,2761800.9523309,21.264786478648,0,0
-71.682242775124,5.2834293588579,16.069216921692,2485377.3870461,201.17546616237,2761800.9523309,21.269216921692,0,0
-71.682242088311,5.2860123424605,16.073647364736,2485377.3870461,201.17546616237,2761800.9523309,21.273647364736,0,0
-71.682241401497,5.2885953260631,16.078077807781,2485377.3870461,201.17546616237,2761800.9523309,21.278077807781,0,0
-71.682240714684,5.2911783096657,16.082508250825,2485377.3870461,201.17546616237,2761800.9523309,21.282508250825,0,0
-71.68224002787,5.2937612932683,16.086938693869,2485377.3870461,201.17546616237,2761800.9523309,21.286938693869,0,0
-71.682239341057,5.2963442768709,16.091369136914,2485377.3870461,201.17546616237,2761800.9523309,21.291369136914,0,0
-71.682238654243,5.2989272604735,16.095799579958,2485377.3870461,201.17546616237,2761800.9523309,21.295799579958,0,0
-71.68223796743,5.3015102440762,16.100230023002,2485377.3870461,201.17546616237,2761800.9523309,21.300230023002,0,0
-71.682237280616,5.3040932276788,16.104660466047,2485377.3870461,201.17546616237,2761800.9523309,21.304660466047,0,0
-71.682236593802,5.3066762112814,16.109090909091,2485377.3870461,201.17546616237,2761800.9523309,21.309090909091,0,0
-71.682235906989,5.309259194884,16.113521352135,2485377.3870461,201.17546616237,2761800.9523309,21.313521352135,0,0
-71.682235220175,5.3118421784866,16.11795179518,2485377.3870461,201.17546616237,2761800.9523309,21.31795179518,0,0
-71.682234533362,5.3144251620892,16.122382238224,2485377.3870461,201.17546616237,2761800.9523309,21.322382238224,0,0
-71.682233846548,5.3170081456918,16.126812681268,2485377.3870461,201.17546616237,2761800.9523309,21.326812681268,0,0
-71.682233159735,5.3195911292944,16.131243124312,2485377.3870461,201.17546616237,2761800.9523309,21.331243124312,0,0
-71.682232472921,5.322174112897,16.135673567357,2485377.3870461,201.17546616237,2761800.9523309,21.335673567357,0,0
-71.682231786108,5.3247570964996,16.140104010401,2485377.3870461,201.17546616237,2761800.9523309,21.340104010401,0,0
-71.682231099294,5.3273400801022,16.144534453445,2485377.3870461,201.17546616237,2761800.9523309,21.344534453445,0,0
-71.682230412481,5.3299230637048,16.14896489649,2485377.3870461,201.17546616237,2761800.9523309,21.34896489649,0,0
-71.682229725667,5.3325060473075,16.153395339534,2485377.3870461,201.17546616237,2761800.9523309,21.353395339534,0,0
-71.682229038854,5.3350890309101,16.157825782578,2485377.3870461,201.17546616237,2761800.9523309,21.357825782578,0,0
-71.68222835204,5.3376720145127,16.162256225623,2485377.3870461,201.17546616237,2761800.9523309,21.362256225623,0,0
-71.682227665227,5.3402549981153,16.166686668667,2485377.3870461,201.17546616237,2761800.9523309,21.366686668667,0,0
-71.682226978413,5.3428379817179,16.171117111711,2485377.3870461,201.17546616237,2761800.9523309,21.371117111711,0,0
-71.6822262916,5.3454209653205,16.175547554755,2485377.3870461,201.17546616237,2761800.9523309,21.375547554755,0,0
-71.682225604786,5.3480039489231,16.1799779978,2485377.3870461,201.17546616237,2761800.9523309,21.3799779978,0,0
-71.682224917973,5.3505869325257,16.184408440844,2485377.3870461,201.17546616237,2761800.9523309,21.384408440844,0,0
-71.682224231159,5.3531699161283,16.188838883888,2485377.3870461,201.17546616237,2761800.9523309,21.388838883888,0,0
-71.682223544345,5.3557528997309,16.193269326933,2485377.3870461,201.17546616237,2761800.9523309,21.393269326933,0,0
-71.682222857532,5.3583358833335,16.197699769977,2485377.3870461,201.17546616237,2761800.9523309,21.397699769977,0,0
-71.682222170718,5.3609188669362,16.202130213021,2485377.3870461,201.17546616237,2761800.9523309,21.402130213021,0,0
-71.682221483905,5.3635018505388,16.206560656066,2485377.3870461,201.17546616237,2761800.9523309,21.406560656066,0,0
-71.682220797091,5.3660848341414,16.21099109911,2485377.3870461,201.17546616237,2761800.9523309,21.41099109911,0,0
-71.682220110278,5.368667817744,16.215421542154,2485377.3870461,201.17546616237,2761800.9523309,21.415421542154,0,0
-71.682219423464,5.3712508013466,16.219851985199,2485377.3870461,201.17546616237,2761800.9523309,21.419851985199,0,0
-71.682218736651,5.3738337849492,16.224282428243,2485377.3870461,201.17546616237,2761800.9523309,21.424282428243,0,0
-71.682218049837,5.3764167685518,16.228712871287,2485377.3870461,201.17546616237,2761800.9523309,21.428712871287,0,0
-71.682217363024,5.3789997521544,16.233143314331,2485377.3870461,201.17546616237,2761800.9523309,21.433143314331,0,0
-71.68221667621,5.381582735757,16.237573757376,2485377.3870461,201.17546616237,2761800.9523309,21.437573757376,0,0
-71.682215989397,5.3841657193596,16.24200420042,2485377.3870461,201.17546616237,2761800.9523309,21.44200420042,0,0
-71.682215302583,5.3867487029622,16.246434643464,2485377.3870461,201.17546616237,2761800.9523309,21.446434643464,0,0
-71.68221461577,5.3893316865648,16.250865086509,2485377.3870461,201.17546616237,2761800.9523309,21.450865086509,0,0
-71.682213928956,5.3919146701675,16.255295529553,2485377.3870461,201.17546616237,2761800.9523309,21.455295529553,0,0
-71.682213242143,5.3944976537701,16.259725972597,2485377.3870461,201.17546616237,2761800.9523309,21.459725972597,0,0
-71.682212555329,5.3970806373727,16.264156415642,2485377.3870461,201.17546616237,2761800.9523309,21.464156415642,0,0
-71.682211868516,5.3996636209753,16.268586858686,2485377.3870461,201.17546616237,2761800.9523309,21.468586858686,0,0
-71.682211181702,5.4022466045779,16.27301730173,2485377.3870461,201.17546616237,2761800.9523309,21.47301730173,0,0
-71.682210494888,5.4048295881805,16.277447744774,2485377.3870461,201.17546616237,2761800.9523309,21.477447744774,0,0
-71.682209808075,5.4074125717831,16.281878187819,2485377.3870461,201.17546616237,2761800.9523309,21.481878187819,0,0
-71.682209121261,5.4099955553857,16.286308630863,2485377.3870461,201.17546616237,2761800.9523309,21.486308630863,0,0
-71.682208434448,5.4125785389883,16.290739073907,2485377.3870461,201.17546616237,2761800.9523309,21.490739073907,0,0
-71.682207747634,5.4151615225909,16.295169516952,2485377.3870461,201.17546616237,2761800.9523309,21.495169516952,0,0
-71.682207060821,5.4177445061935,16.299599959996,2485377.3870461,201.17546616237,2761800.9523309,21.499599959996,0,0
-71.682206374007,5.4203274897961,16.30403040304,2485377.3870461,201.17546616237,2761800.9523309,21.50403040304,0,0
-71.682205687194,5.4229104733988,16.308460846085,2485377.3870461,201.17546616237,2761800.9523309,21.508460846085,0,0
-71.68220500038,5.4254934570014,16.312891289129,2485377.3870461,201.17546616237,2761800.9523309,21.512891289129,0,0
-71.682204313567,5.428076440604,16.317321732173,2485377.3870461,201.17546616237,2761800.9523309,21.517321732173,0,0
-71.682203626753,5.4306594242066,16.321752175218,2485377.3870461,201.17546616237,2761800.9523309,21.521752175218,0,0
-71.68220293994,5.4332424078092,16.326182618262,2485377.3870461,201.17546616237,2761800.9523309,21.526182618262,0,0
-71.682202253126,5.4358253914118,16.330613061306,2485377.3870461,201.17546616237,2761800.9523309,21.530613061306,0,0
-71.682201566313,5.4384083750144,16.33504350435,2485377.3870461,201.17546616237,2761800.9523309,21.53504350435,0,0
-71.682200879499,5.440991358617,16.339473947395,2485377.3870461,201.17546616237,2761800.9523309,21.539473947395,0,0
-71.682200192686,5.4435743422196,16.343904390439,2485377.3870461,201.17546616237,2761800.9523309,21.543904390439,0,0
-71.682199505872,5.4461573258222,16.348334833483,2485377.3870461,201.17546616237,2761800.9523309,21.548334833483,0,0
-71.682198819059,5.4487403094248,16.352765276528,2485377.3870461,201.17546616237,2761800.9523309,21.552765276528,0,0
-71.682198132245,5.4513232930274,16.357195719572,2485377.3870461,201.17546616237,2761800.9523309,21.557195719572,0,0
-71.682197445431,5.4539062766301,16.361626162616,2485377.3870461,201.17546616237,2761800.9523309,21.561626162616,0,0
-71.682196758618,5.4564892602327,16.366056605661,2485377.3870461,201.17546616237,2761800.9523309,21.566056605661,0,0
-71.682196071804,5.4590722438353,16.370487048705,2485377.3870461,201.17546616237,2761800.9523309,21.570487048705,0,0
-71.682195384991,5.4616552274379,16.374917491749,2485377.3870461,201.17546616237,2761800.9523309,21.574917491749,0,0
-71.682194698177,5.4642382110405,16.379347934793,2485377.3870461,201.17546616237,2761800.9523309,21.579347934793,0,0
-71.682194011364,5.4668211946431,16.383778377838,2485377.3870461,201.17546616237,2761800.9523309,21.583778377838,0,0
-71.68219332455,5.4694041782457,16.388208820882,2485377.3870461,201.17546616237,2761800.9523309,21.588208820882,0,0
-71.682192637737,5.4719871618483,16.392639263926,2485377.3870461,201.17546616237,2761800.9523309,21.592639263926,0,0
-71.682191950923,5.4745701454509,16.397069706971,2485377.3870461,201.17546616237,2761800.9523309,21.597069706971,0,0
-71.68219126411,5.4771531290535,16.401500150015,2485377.3870461,201.17546616237,2761800.9523309,21.601500150015,0,0
-71.682190577296,5.4797361126561,16.405930593059,2485377.3870461,201.17546616237,2761800.9523309,21.605930593059,0,0
-71.682189890483,5.4823190962588,16.410361036104,2485377.3870461,201.17546616237,2761800.9523309,21.610361036104,0,0
-71.682189203669,5.4849020798614,16.414791479148,2485377.3870461,201.17546616237,2761800.9523309,21.614791479148,0,0
-71.682188516856,5.487485063464,16.419221922192,2485377.3870461,201.17546616237,2761800.9523309,21.619221922192,0,0
-71.682187830042,5.4900680470666,16.423652365237,2485377.3870461,201.17546616237,2761800.9523309,21.623652365237,0,0
-71.682187143229,5.4926510306692,16.428082808281,2485377.3870461,201.17546616237,2761800.9523309,21.628082808281,0,0
-71.682186456415,5.4952340142718,16.432513251325,2485377.3870461,201.17546616237,2761800.9523309,21.632513251325,0,0
-71.682185769602,5.4978169978744,16.436943694369,2485377.3870461,201.17546616237,2761800.9523309,21.636943694369,0,0
-71.682185082788,5.500399981477,16.441374137414,2485377.3870461,201.17546616237,2761800.9523309,21.641374137414,0,0
-71.682184395975,5.5029829650796,16.445804580458,2485377.3870461,201.17546616237,2761800.9523309,21.645804580458,0,0
-71.682183709161,5.5055659486822,16.450235023502,2485377.3870461,201.17546616237,2761800.9523309,21.650235023502,0,0
-71.682183022347,5.5081489322848,16.454665466547,2485377.3870461,201.17546616237,2761800.9523309,21.654665466547,0,0
-71.682182335534,5.5107319158874,16.459095909591,2485377.3870461,201.17546616237,2761800.9523309,21.659095909591,0,0
-71.68218164872,5.5133148994901,16.463526352635,2485377.3870461,201.17546616237,2761800.9523309,21.663526352635,0,0
-71.682180961907,5.5158978830927,16.46795679568,2485377.3870461,201.17546616237,2761800.9523309,21.66795679568,0,0
-71.682180275093,5.5184808666953,16.472387238724,2485377.3870461,201.17546616237,2761800.9523309,21.672387238724,0,0
-71.68217958828,5.5210638502979,16.476817681768,2485377.3870461,201.17546616237,2761800.9523309,21.676817681768,0,0
-71.682178901466,5.5236468339005,16.481248124812,2485377.3870461,201.17546616237,2761800.9523309,21.681248124812,0,0
-71.682178214653,5.5262298175031,16.485678567857,2485377.3870461,201.17546616237,2761800.9523309,21.685678567857,0,0
-71.682177527839,5.5288128011057,16.490109010901,2485377.3870461,201.17546616237,2761800.9523309,21.690109010901,0,0
-71.682176841026,5.5313957847083,16.494539453945,2485377.3870461,201.17546616237,2761800.9523309,21.694539453945,0,0
-71.682176154212,5.5339787683109,16.49896989699,2485377.3870461,201.17546616237,2761800.9523309,21.69896989699,0,0
-71.682175467399,5.5365617519135,16.503400340034,2485377.3870461,201.17546616237,2761800.9523309,21.703400340034,0,0
-71.682174780585,5.5391447355161,16.507830783078,2485377.3870461,201.17546616237,2761800.9523309,21.707830783078,0,0
-71.682174093772,5.5417277191187,16.512261226123,2485377.3870461,201.17546616237,2761800.9523309,21.712261226123,0,0
-71.682173406958,5.5443107027214,16.516691669167,2485377.3870461,201.17546616237,2761800.9523309,21.716691669167,0,0
-71.682172720145,5.546893686324,16.521122112211,2485377.3870461,201.17546616237,2761800.9523309,21.721122112211,0,0
-71.682172033331,5.5494766699266,16.525552555256,2485377.3870461,201.17546616237,2761800.9523309,21.725552555256,0,0
-71.682171346517,5.5520596535292,16.5299829983,2485377.3870461,201.17546616237,2761800.9523309,21.7299829983,0,0
-71.682170659704,5.5546426371318,16.534413441344,2485377.3870461,201.17546616237,2761800.9523309,21.734413441344,0,0
-71.68216997289,5.5572256207344,16.538843884388,2485377.3870461,201.17546616237,2761800.9523309,21.738843884388,0,0
-71.682169286077,5.559808604337,16.543274327433,2485377.3870461,201.17546616237,2761800.9523309,21.743274327433,0,0
-71.682168599263,5.5623915879396,16.547704770477,2485377.3870461,201.17546616237,2761800.9523309,21.747704770477,0,0
-71.68216791245,5.5649745715422,16.552135213521,2485377.3870461,201.17546616237,2761800.9523309,21.752135213521,0,0
-71.682167225636,5.5675575551448,16.556565656566,2485377.3870461,201.17546616237,2761800.9523309,21.756565656566,0,0
-71.682166538823,5.5701405387474,16.56099609961,2485377.3870461,201.17546616237,2761800.9523309,21.76099609961,0,0
-71.682165852009,5.57272352235,16.565426542654,2485377.3870461,201.17546616237,2761800.9523309,21.765426542654,0,0
-71.682165165196,5.5753065059527,16.569856985699,2485377.3870461,201.17546616237,2761800.9523309,21.769856985699,0,0
-71.682164478382,5.5778894895553,16.574287428743,2485377.3870461,201.17546616237,2761800.9523309,21.774287428743,0,0
-71.682163791569,5.5804724731579,16.578717871787,2485377.3870461,201.17546616237,2761800.9523309,21.778717871787,0,0
-71.682163104755,5.5830554567605,16.583148314831,2485377.3870461,201.17546616237,2761800.9523309,21.783148314831,0,0
-71.682162417942,5.5856384403631,16.587578757876,2485377.3870461,201.17546616237,2761800.9523309,21.787578757876,0,0
-71.682161731128,5.5882214239657,16.59200920092,2485377.3870461,201.17546616237,2761800.9523309,21.79200920092,0,0
-71.682161044315,5.5908044075683,16.596439643964,2485377.3870461,201.17546616237,2761800.9523309,21.796439643964,0,0
-71.682160357501,5.5933873911709,16.600870087009,2485377.3870461,201.17546616237,2761800.9523309,21.800870087009,0,0
-71.682159670688,5.5959703747735,16.605300530053,2485377.3870461,201.17546616237,2761800.9523309,21.805300530053,0,0
-71.682158983874,5.5985533583761,16.609730973097,2485377.3870461,201.17546616237,2761800.9523309,21.809730973097,0,0
-71.682158297061,5.6011363419787,16.614161416142,2485377.3870461,201.17546616237,2761800.9523309,21.814161416142,0,0
-71.682157610247,5.6037193255813,16.618591859186,2485377.3870461,201.17546616237,2761800.9523309,21.818591859186,0,0
-71.682156923433,5.606302309184,16.62302230223,2485377.3870461,201.17546616237,2761800.9523309,21.82302230223,0,0
-71.68215623662,5.6088852927866,16.627452745275,2485377.3870461,201.17546616237,2761800.9523309,21.827452745275,0,0
-71.682155549806,5.6114682763892,16.631883188319,2485377.3870461,201.17546616237,2761800.9523309,21.831883188319,0,0
-71.682154862993,5.6140512599918,16.636313631363,2485377.3870461,201.17546616237,2761800.9523309,21.836313631363,0,0
-71.682154176179,5.6166342435944,16.640744074407,2485377.3870461,201.17546616237,2761800.9523309,21.840744074407,0,0
-71.682153489366,5.619217227197,16.645174517452,2485377.3870461,201.17546616237,2761800.9523309,21.845174517452,0,0
-71.682152802552,5.6218002107996,16.649604960496,2485377.3870461,201.17546616237,2761800.9523309,21.849604960496,0,0
-71.682152115739,5.6243831944022,16.65403540354,2485377.3870461,201.17546616237,2761800.9523309,21.85403540354,0,0
-71.682151428925,5.6269661780048,16.658465846585,2485377.3870461,201.17546616237,2761800.9523309,21.858465846585,0,0
-71.682150742112,5.6295491616074,16.662896289629,2485377.3870461,201.17546616237,2761800.9523309,21.862896289629,0,0
-71.682150055298,5.63213214521,16.667326732673,2485377.3870461,201.17546616237,2761800.9523309,21.867326732673,0,0
-71.682149368485,5.6347151288127,16.671757175718,2485377.3870461,201.17546616237,2761800.9523309,21.871757175718,0,0
-71.682148681671,5.6372981124153,16.676187618762,2485377.3870461,201.17546616237,2761800.9523309,21.876187618762,0,0
-71.682147994858,5.6398810960179,16.680618061806,2485377.3870461,201.17546616237,2761800.9523309,21.880618061806,0,0
-71.682147308044,5.6424640796205,16.68504850485,2485377.3870461,201.17546616237,2761800.9523309,21.88504850485,0,0
-71.682146621231,5.6450470632231,16.689478947895,2485377.3870461,201.17546616237,2761800.9523309,21.889478947895,0,0
-71.682145934417,5.6476300468257,16.693909390939,2485377.3870461,201.17546616237,2761800.9523309,21.893909390939,0,0
-71.682145247604,5.6502130304283,16.698339833983,2485377.3870461,201.17546616237,2761800.9523309,21.898339833983,0,0
-71.68214456079,5.6527960140309,16.702770277028,2485377.3870461,201.17546616237,2761800.9523309,21.902770277028,0,0
-71.682143873976,5.6553789976335,16.707200720072,2485377.3870461,201.17546616237,2761800.9523309,21.907200720072,0,0
-71.682143187163,5.6579619812361,16.711631163116,2485377.3870461,201.17546616237,2761800.9523309,21.911631163116,0,0
-71.682142500349,5.6605449648387,16.716061606161,2485377.3870461,201.17546616237,2761800.9523309,21.916061606161,0,0
-71.682141813536,5.6631279484413,16.720492049205,2485377.3870461,201.17546616237,2761800.9523309,21.920492049205,0,0
-71.682141126722,5.665710932044,16.724922492249,2485377.3870461,201.17546616237,2761800.9523309,21.924922492249,0,0
-71.682140439909,5.6682939156466,16.729352935294,2485377.3870461,201.17546616237,2761800.9523309,21.929352935294,0,0
-71.682139753095,5.6708768992492,16.733783378338,2485377.3870461,201.17546616237,2761800.9523309,21.933783378338,0,0
-71.682139066282,5.6734598828518,16.738213821382,2485377.3870461,201.17546616237,2761800.9523309,21.938213821382,0,0
-71.682138379468,5.6760428664544,16.742644264426,2485377.3870461,201.17546616237,2761800.9523309,21.942644264426,0,0
-71.682137692655,5.678625850057,16.747074707471,2485377.3870461,201.17546616237,2761800.9523309,21.947074707471,0,0
-71.682137005841,5.6812088336596,16.751505150515,2485377.3870461,201.17546616237,2761800.9523309,21.951505150515,0,0
-71.682136319028,5.6837918172622,16.755935593559,2485377.3870461,201.17546616237,2761800.9523309,21.955935593559,0,0
-71.682135632214,5.6863748008648,16.760366036604,2485377.3870461,201.17546616237,2761800.9523309,21.960366036604,0,0
-71.682134945401,5.6889577844674,16.764796479648,2485377.3870461,201.17546616237,2761800.9523309,21.964796479648,0,0
-71.682134258587,5.69154076807,16.769226922692,2485377.3870461,201.17546616237,2761800.9523309,21.969226922692,0,0
-71.682133571774,5.6941237516726,16.773657365737,2485377.3870461,201.17546616237,2761800.9523309,21.973657365737,0,0
-71.68213288496,5.6967067352753,16.778087808781,2485377.3870461,201.17546616237,2761800.9523309,21.978087808781,0,0
-71.682132198147,5.6992897188779,16.782518251825,2485377.3870461,201.17546616237,2761800.9523309,21.982518251825,0,0
-71.682131510786,5.7018727013006,16.786948694869,2489753.4944431,-3702.0353084906,2750407.0253506,21.986948694869,0,0
-71.682130822659,5.7044556820689,16.791379137914,2489753.4944431,-3702.0353084906,2750407.0253506,21.991379137914,0,0
-71.682130134532,5.7070386628372,16.795809580958,2489753.4944431,-3702.0353084906,2750407.0253506,21.995809580958,0,0
-71.682129446406,5.7096216436055,16.800240024002,2489753.4944431,-3702.0353084906,2750407.0253506,22.000240024002,0,0
-71.682128758279,5.7122046243737,16.804670467047,2489753.4944431,-3702.0353084906,2750407.0253506,22.004670467047,0,0
-71.682128070152,5.714787605142,16.809100910091,2489753.4944431,-3702.0353084906,2750407.0253506,22.009100910091,0,0
-71.682127382025,5.7173705859103,16.813531353135,2489753.4944431,-3702.0353084906,2750407.0253506,22.013531353135,0,0
-71.682126693898,5.7199535666786,16.81796179618,2489753.4944431,-3702.0353084906,2750407.0253506,22.01796179618,0,0
-71.682126005771,5.7225365474469,16.822392239224,2489753.4944431,-3702.0353084906,2750407.0253506,22.022392239224,0,0
-71.682125317644,5.7251195282151,16.826822682268,2489753.4944431,-3702.0353084906,2750407.0253506,22.026822682268,0,0
-71.682124629517,5.7277025089834,16.831253125313,2489753.4944431,-3702.0353084906,2750407.0253506,22.031253125313,0,0
-71.68212394139,5.7302854897517,16.835683568357,2489753.4944431,-3702.0353084906,2750407.0253506,22.035683568357,0,0
-71.682123253263,5.73286847052,16.840114011401,2489753.4944431,-3702.0353084906,2750407.0253506,22.040114011401,0,0
-71.682122565136,5.7354514512883,16.844544454445,2489753.4944431,-3702.0353084906,2750407.0253506,22.044544454445,0,0
-71.682121877009,5.7380344320565,16.84897489749,2489753.4944431,-3702.0353084906,2750407.0253506,22.04897489749,0,0
-71.682121188882,5.7406174128248,16.853405340534,2489753.4944431,-3702.0353084906,2750407.0253506,22.053405340534,0,0
-71.682120500756,5.7432003935931,16.857835783578,2489753.4944431,-3702.0353084906,2750407.0253506,22.057835783578,0,0
-71.682119812629,5.7457833743614,16.862266226623,2489753.4944431,-3702.0353084906,2750407.0253506,22.062266226623,0,0
-71.682119124502,5.7483663551297,16.866696669667,2489753.4944431,-3702.0353084906,2750407.0253506,22.066696669667,0,0
-71.682118436375,5.7509493358979,16.871127112711,2489753.4944431,-3702.0353084906,2750407.0253506,22.071127112711,0,0
-71.682117748248,5.7535323166662,16.875557555756,2489753.4944431,-3702.0353084906,2750407.0253506,22.075557555756,0,0
-71.682117060121,5.7561152974345,16.8799879988,2489753.4944431,-3702.0353084906,2750407.0253506,22.0799879988,0,0
-71.682116371994,5.7586982782028,16.884418441844,2489753.4944431,-3702.0353084906,2750407.0253506,22.084418441844,0,0
-71.682115683867,5.7612812589711,16.888848884888,2489753.4944431,-3702.0353084906,2750407.0253506,22.088848884888,0,0
-71.68211499574,5.7638642397393,16.893279327933,2489753.4944431,-3702.0353084906,2750407.0253506,22.093279327933,0,0
-71.682114307613,5.7664472205076,16.897709770977,2489753.4944431,-3702.0353084906,2750407.0253506,22.097709770977,0,0
-71.682113619486,5.7690302012759,16.902140214021,2489753.4944431,-3702.0353084906,2750407.0253506,22.102140214021,0,0
-71.682112931359,5.7716131820442,16.906570657066,2489753.4944431,-3702.0353084906,2750407.0253506,22.106570657066,0,0
-71.682112243232,5.7741961628125,16.91100110011,2489753.4944431,-3702.0353084906,2750407.0253506,22.11100110011,0,0
-71.682111555106,5.7767791435807,16.915431543154,2489753.4944431,-3702.0353084906,2750407.0253506,22.115431543154,0,0
-71.682110866979,5.779362124349,16.919861986199,2489753.4944431,-3702.0353084906,2750407.0253506,22.119861986199,0,0
-71.682110178852,5.7819451051173,16.924292429243,2489753.4944431,-3702.0353084906,2750407.0253506,22.124292429243,0,0
-71.682109490725,5.7845280858856,16.928722872287,2489753.4944431,-3702.0353084906,2750407.0253506,22.128722872287,0,0
-71.682108802598,5.7871110666539,16.933153315332,2489753.4944431,-3702.0353084906,2750407.0253506,22.133153315332,0,0
-71.682108114471,5.7896940474221,16.937583758376,2489753.4944431,-3702.0353084906,2750407.0253506,22.137583758376,0,0
-71.682107426344,5.7922770281904,16.94201420142,2489753.4944431,-3702.0353084906,2750407.0253506,22.14201420142,0,0
-71.682106738217,5.7948600089587,16.946444644464,2489753.4944431,-3702.0353084906,2750407.0253506,22.146444644464,0,0
-71.68210605009,5.797442989727,16.950875087509,2489753.4944431,-3702.0353084906,2750407.0253506,22.150875087509,0,0
-71.682105361963,5.8000259704953,16.955305530553,2489753.4944431,-3702.0353084906,2750407.0253506,22.155305530553,0,0
-71.682104673836,5.8026089512635,16.959735973597,2489753.4944431,-3702.0353084906,2750407.0253506,22.159735973597,0,0
-71.682103985709,5.8051919320318,16.964166416642,2489753.4944431,-3702.0353084906,2750407.0253506,22.164166416642,0,0
-71.682103297583,5.8077749128001,16.968596859686,2489753.4944431,-3702.0353084906,2750407.0253506,22.168596859686,0,0
-71.682102609456,5.8103578935684,16.97302730273,2489753.4944431,-3702.0353084906,2750407.0253506,22.17302730273,0,0
-71.682101921329,5.8129408743367,16.977457745775,2489753.4944431,-3702.0353084906,2750407.0253506,22.177457745775,0,0
-71.682101233202,5.8155238551049,16.981888188819,2489753.4944431,-3702.0353084906,2750407.0253506,22.181888188819,0,0
-71.682100545075,5.8181068358732,16.986318631863,2489753.4944431,-3702.0353084906,2750407.0253506,22.186318631863,0,0
-71.682099856948,5.8206898166415,16.990749074907,2489753.4944431,-3702.0353084906,2750407.0253506,22.190749074907,0,0
-71.682099168821,5.8232727974098,16.995179517952,2489753.4944431,-3702.0353084906,2750407.0253506,22.195179517952,0,0
-71.682098480694,5.8258557781781,16.999609960996,2489753.4944431,-3702.0353084906,2750407.0253506,22.199609960996,0,0
-71.682097792567,5.8284387589463,17.00404040404,2489753.4944431,-3702.0353084906,2750407.0253506,22.20404040404,0,0
-71.68209710444,5.8310217397146,17.008470847085,2489753.4944431,-3702.0353084906,2750407.0253506,22.208470847085,0,0
-71.682096416313,5.8336047204829,17.012901290129,2489753.4944431,-3702.0353084906,2750407.0253506,22.212901290129,0,0
-71.682095728186,5.8361877012512,17.017331733173,2489753.4944431,-3702.0353084906,2750407.0253506,22.217331733173,0,0
-71.68209504006,5.8387706820195,17.021762176218,2489753.4944431,-3702.0353084906,2750407.0253506,22.221762176218,0,0
-71.682094351933,5.8413536627877,17.026192619262,2489753.4944431,-3702.0353084906,2750407.0253506,22.226192619262,0,0
-71.682093663806,5.843936643556,17.030623062306,2489753.4944431,-3702.0353084906,2750407.0253506,22.230623062306,0,0
-71.682092975679,5.8465196243243,17.035053505351,2489753.4944431,-3702.0353084906,2750407.0253506,22.235053505351,0,0
-71.682092287552,5.8491026050926,17.039483948395,2489753.4944431,-3702.0353084906,2750407.0253506,22.239483948395,0,0
-71.682091599425,5.8516855858609,17.043914391439,2489753.4944431,-3702.0353084906,2750407.0253506,22.243914391439,0,0
-71.682090911298,5.8542685666291,17.048344834483,2489753.4944431,-3702.0353084906,2750407.0253506,22.248344834483,0,0
-71.682090223171,5.8568515473974,17.052775277528,2489753.4944431,-3702.0353084906,2750407.0253506,22.252775277528,0,0
-71.682089535044,5.8594345281657,17.057205720572,2489753.4944431,-3702.0353084906,2750407.0253506,22.257205720572,0,0
-71.682088846917,5.862017508934,17.061636163616,2489753.4944431,-3702.0353084906,2750407.0253506,22.261636163616,0,0
-71.68208815879,5.8646004897023,17.066066606661,2489753.4944431,-3702.0353084906,2750407.0253506,22.266066606661,0,0
-71.682087470663,5.8671834704705,17.070497049705,2489753.4944431,-3702.0353084906,2750407.0253506,22.270497049705,0,0
-71.682086782536,5.8697664512388,17.074927492749,2489753.4944431,-3702.0353084906,2750407.0253506,22.274927492749,0,0
-71.68208609441,5.8723494320071,17.079357935794,2489753.4944431,-3702.0353084906,2750407.0253506,22.279357935794,0,0
-71.682085406283,5.8749324127754,17.083788378838,2489753.4944431,-3702.0353084906,2750407.0253506,22.283788378838,0,0
-71.682084718156,5.8775153935437,17.088218821882,2489753.4944431,-3702.0353084906,2750407.0253506,22.288218821882,0,0
-71.682084030029,5.8800983743119,17.092649264926,2489753.4944431,-3702.0353084906,2750407.0253506,22.292649264926,0,0
-71.682083341902,5.8826813550802,17.097079707971,2489753.4944431,-3702.0353084906,2750407.0253506,22.297079707971,0,0
-71.682082653775,5.8852643358485,17.101510151015,2489753.4944431,-3702.0353084906,2750407.0253506,22.301510151015,0,0
-71.682081965648,5.8878473166168,17.105940594059,2489753.4944431,-3702.0353084906,2750407.0253506,22.305940594059,0,0
-71.682081277521,5.8904302973851,17.110371037104,2489753.4944431,-3702.0353084906,2750407.0253506,22.310371037104,0,0
-71.682080589394,5.8930132781533,17.114801480148,2489753.4944431,-3702.0353084906,2750407.0253506,22.314801480148,0,0
-71.682079901267,5.8955962589216,17.119231923192,2489753.4944431,-3702.0353084906,2750407.0253506,22.319231923192,0,0
-71.68207921314,5.8981792396899,17.123662366237,2489753.4944431,-3702.0353084906,2750407.0253506,22.323662366237,0,0
-71.682078525013,5.9007622204582,17.128092809281,2489753.4944431,-3702.0353084906,2750407.0253506,22.328092809281,0,0
-71.682077836886,5.9033452012265,17.132523252325,2489753.4944431,-3702.0353084906,2750407.0253506,22.332523252325,0,0
-71.68207714876,5.9059281819947,17.13695369537,2489753.4944431,-3702.0353084906,2750407.0253506,22.33695369537,0,0
-71.682076460633,5.908511162763,17.141384138414,2489753.4944431,-3702.0353084906,2750407.0253506,22.341384138414,0,0
-71.682075772506,5.9110941435313,17.145814581458,2489753.4944431,-3702.0353084906,2750407.0253506,22.345814581458,0,0
-71.682075084379,5.9136771242996,17.150245024502,2489753.4944431,-3702.0353084906,2750407.0253506,22.350245024502,0,0
-71.682074396252,5.9162601050679,17.154675467547,2489753.4944431,-3702.0353084906,2750407.0253506,22.354675467547,0,0
-71.682073708125,5.9188430858361,17.159105910591,2489753.4944431,-3702.0353084906,2750407.0253506,22.359105910591,0,0
-71.682073019998,5.9214260666044,17.163536353635,2489753.4944431,-3702.0353084906,2750407.0253506,22.363536353635,0,0
-71.682072331871,5.9240090473727,17.16796679668,2489753.4944431,-3702.0353084906,2750407.0253506,22.36796679668,0,0
-71.682071643744,5.926592028141,17.172397239724,2489753.4944431,-3702.0353084906,2750407.0253506,22.372397239724,0,0
-71.682070955617,5.9291750089093,17.176827682768,2489753.4944431,-3702.0353084906,2750407.0253506,22.376827682768,0,0
-71.68207026749,5.9317579896775,17.181258125813,2489753.4944431,-3702.0353084906,2750407.0253506,22.381258125813,0,0
-71.682069579363,5.9343409704458,17.185688568857,2489753.4944431,-3702.0353084906,2750407.0253506,22.385688568857,0,0
-71.682068888973,5.9369239530824,17.190119011901,2502864.119251,-2465.5771728302,2746617.8431243,22.390119011901,0,0
-71.68206819828,5.939506935969,17.194549454945,2502864.119251,-2465.5771728302,2746617.8431243,22.394549454945,0,0
-71.682067507587,5.9420899188556,17.19897989799,2502864.119251,-2465.5771728302,2746617.8431243,22.39897989799,0,0
-71.682066816894,5.9446729017421,17.203410341034,2502864.119251,-2465.5771728302,2746617.8431243,22.403410341034,0,0
-71.682066126201,5.9472558846287,17.207840784078,2502864.119251,-2465.5771728302,2746617.8431243,22.407840784078,0,0
-71.682065435508,5.9498388675153,17.212271227123,2502864.119251,-2465.5771728302,2746617.8431243,22.412271227123,0,0
-71.682064744815,5.9524218504018,17.216701670167,2502864.119251,-2465.5771728302,2746617.8431243,22.416701670167,0,0
-71.682064054122,5.9550048332884,17.221132113211,2502864.119251,-2465.5771728302,2746617.8431243,22.421132113211,0,0
-71.682063363429,5.957587816175,17.225562556256,2502864.119251,-2465.5771728302,2746617.8431243,22.425562556256,0,0
-71.682062672736,5.9601707990615,17.2299929993,2502864.119251,-2465.5771728302,2746617.8431243,22.4299929993,0,0
-71.682061982043,5.9627537819481,17.234423442344,2502864.119251,-2465.5771728302,2746617.8431243,22.434423442344,0,0
-71.68206129135,5.9653367648347,17.238853885389,2502864.119251,-2465.5771728302,2746617.8431243,22.438853885389,0,0
-71.682060600657,5.9679197477213,17.243284328433,2502864.119251,-2465.5771728302,2746617.8431243,22.443284328433,0,0
-71.682059909964,5.9705027306078,17.247714771477,2502864.119251,-2465.5771728302,2746617.8431243,22.447714771477,0,0
-71.682059219271,5.9730857134944,17.252145214521,2502864.119251,-2465.5771728302,2746617.8431243,22.452145214521,0,0
-71.682058528577,5.975668696381,17.256575657566,2502864.119251,-2465.5771728302,2746617.8431243,22.456575657566,0,0
-71.682057837884,5.9782516792675,17.26100610061,2502864.119251,-2465.5771728302,2746617.8431243,22.46100610061,0,0
-71.682057147191,5.9808346621541,17.265436543654,2502864.119251,-2465.5771728302,2746617.8431243,22.465436543654,0,0
-71.682056456498,5.9834176450407,17.269866986699,2502864.119251,-2465.5771728302,2746617.8431243,22.469866986699,0,0
-71.682055765805,5.9860006279273,17.274297429743,2502864.119251,-2465.5771728302,2746617.8431243,22.474297429743,0,0
-71.682055075112,5.9885836108138,17.278727872787,2502864.119251,-2465.5771728302,2746617.8431243,22.478727872787,0,0
-71.682054384419,5.9911665937004,17.283158315832,2502864.119251,-2465.5771728302,2746617.8431243,22.483158315832,0,0
-71.682053693726,5.993749576587,17.287588758876,2502864.119251,-2465.5771728302,2746617.8431243,22.487588758876,0,0
-71.682053003033,5.9963325594735,17.29201920192,2502864.119251,-2465.5771728302,2746617.8431243,22.49201920192,0,0
-71.68205231234,5.9989155423601,17.296449644964,2502864.119251,-2465.5771728302,2746617.8431243,22.496449644964,0,0
-71.682051621647,6.0014985252467,17.300880088009,2502864.119251,-2465.5771728302,2746617.8431243,22.500880088009,0,0
-71.682050930954,6.0040815081333,17.305310531053,2502864.119251,-2465.5771728302,2746617.8431243,22.505310531053,0,0
-71.682050240261,6.0066644910198,17.309740974097,2502864.119251,-2465.5771728302,2746617.8431243,22.509740974097,0,0
-71.682049549568,6.0092474739064,17.314171417142,2502864.119251,-2465.5771728302,2746617.8431243,22.514171417142,0,0
-71.682048858875,6.011830456793,17.318601860186,2502864.119251,-2465.5771728302,2746617.8431243,22.518601860186,0,0
-71.682048168182,6.0144134396795,17.32303230323,2502864.119251,-2465.5771728302,2746617.8431243,22.52303230323,0,0
-71.682047477489,6.0169964225661,17.327462746275,2502864.119251,-2465.5771728302,2746617.8431243,22.527462746275,0,0
-71.682046786796,6.0195794054527,17.331893189319,2502864.119251,-2465.5771728302,2746617.8431243,22.531893189319,0,0
-71.682046096103,6.0221623883393,17.336323632363,2502864.119251,-2465.5771728302,2746617.8431243,22.536323632363,0,0
-71.68204540541,6.0247453712258,17.340754075408,2502864.119251,-2465.5771728302,2746617.8431243,22.540754075408,0,0
-71.682044714716,6.0273283541124,17.345184518452,2502864.119251,-2465.5771728302,2746617.8431243,22.545184518452,0,0
-71.682044024023,6.029911336999,17.349614961496,2502864.119251,-2465.5771728302,2746617.8431243,22.549614961496,0,0
-71.68204333333,6.0324943198855,17.35404540454,2502864.119251,-2465.5771728302,2746617.8431243,22.55404540454,0,0
-71.682042642637,6.0350773027721,17.358475847585,2502864.119251,-2465.5771728302,2746617.8431243,22.558475847585,0,0
-71.682041951944,6.0376602856587,17.362906290629,2502864.119251,-2465.5771728302,2746617.8431243,22.562906290629,0,0
-71.682041261251,6.0402432685452,17.367336733673,2502864.119251,-2465.5771728302,2746617.8431243,22.567336733673,0,0
-71.682040570558,6.0428262514318,17.371767176718,2502864.119251,-2465.5771728302,2746617.8431243,22.571767176718,0,0
-71.682039879865,6.0454092343184,17.376197619762,2502864.119251,-2465.5771728302,2746617.8431243,22.576197619762,0,0
-71.682039189172,6.047992217205,17.380628062806,2502864.119251,-2465.5771728302,2746617.8431243,22.580628062806,0,0
-71.682038498479,6.0505752000915,17.385058505851,2502864.119251,-2465.5771728302,2746617.8431243,22.585058505851,0,0
-71.682037807786,6.0531581829781,17.389488948895,2502864.119251,-2465.5771728302,2746617.8431243,22.589488948895,0,0
-71.682037117093,6.0557411658647,17.393919391939,2502864.119251,-2465.5771728302,2746617.8431243,22.593919391939,0,0
-71.6820364264,6.0583241487512,17.398349834983,2502864.119251,-2465.5771728302,2746617.8431243,22.598349834983,0,0
-71.682035735707,6.0609071316378,17.402780278028,2502864.119251,-2465.5771728302,2746617.8431243,22.602780278028,0,0
-71.682035045014,6.0634901145244,17.407210721072,2502864.119251,-2465.5771728302,2746617.8431243,22.607210721072,0,0
-71.682034354321,6.066073097411,17.411641164116,2502864.119251,-2465.5771728302,2746617.8431243,22.611641164116,0,0
-71.682033663628,6.0686560802975,17.416071607161,2502864.119251,-2465.5771728302,2746617.8431243,22.616071607161,0,0
-71.682032972935,6.0712390631841,17.420502050205,2502864.119251,-2465.5771728302,2746617.8431243,22.620502050205,0,0
-71.682032282242,6.0738220460707,17.424932493249,2502864.119251,-2465.5771728302,2746617.8431243,22.624932493249,0,0
-71.682031591549,6.0764050289572,17.429362936294,2502864.119251,-2465.5771728302,2746617.8431243,22.629362936294,0,0
-71.682030900856,6.0789880118438,17.433793379338,2502864.119251,-2465.5771728302,2746617.8431243,22.633793379338,0,0
-71.682030210162,6.0815709947304,17.438223822382,2502864.119251,-2465.5771728302,2746617.8431243,22.638223822382,0,0
-71.682029519469,6.084153977617,17.442654265427,2502864.119251,-2465.5771728302,2746617.8431243,22.642654265427,0,0
-71.682028828776,6.0867369605035,17.447084708471,2502864.119251,-2465.5771728302,2746617.8431243,22.647084708471,0,0
-71.682028138083,6.0893199433901,17.451515151515,2502864.119251,-2465.5771728302,2746617.8431243,22.651515151515,0,0
-71.68202744739,6.0919029262767,17.455945594559,2502864.119251,-2465.5771728302,2746617.8431243,22.655945594559,0,0
-71.682026756697,6.0944859091632,17.460376037604,2502864.119251,-2465.5771728302,2746617.8431243,22.660376037604,0,0
-71.682026066004,6.0970688920498,17.464806480648,2502864.119251,-2465.5771728302,2746617.8431243,22.664806480648,0,0
-71.682025375311,6.0996518749364,17.469236923692,2502864.119251,-2465.5771728302,2746617.8431243,22.669236923692,0,0
-71.682024684618,6.102234857823,17.473667366737,2502864.119251,-2465.5771728302,2746617.8431243,22.673667366737,0,0
-71.682023993925,6.1048178407095,17.478097809781,2502864.119251,-2465.5771728302,2746617.8431243,22.678097809781,0,0
-71.682023303232,6.1074008235961,17.482528252825,2502864.119251,-2465.5771728302,2746617.8431243,22.682528252825,0,0
-71.682022612539,6.1099838064827,17.48695869587,2502864.119251,-2465.5771728302,2746617.8431243,22.68695869587,0,0
-71.682021921846,6.1125667893692,17.491389138914,2502864.119251,-2465.5771728302,2746617.8431243,22.691389138914,0,0
-71.682021231153,6.1151497722558,17.495819581958,2502864.119251,-2465.5771728302,2746617.8431243,22.695819581958,0,0
-71.68202054046,6.1177327551424,17.500250025002,2502864.119251,-2465.5771728302,2746617.8431243,22.700250025002,0,0
-71.682019849767,6.120315738029,17.504680468047,2502864.119251,-2465.5771728302,2746617.8431243,22.704680468047,0,0
-71.682019159074,6.1228987209155,17.509110911091,2502864.119251,-2465.5771728302,2746617.8431243,22.709110911091,0,0
-71.682018468381,6.1254817038021,17.513541354135,2502864.119251,-2465.5771728302,2746617.8431243,22.713541354135,0,0
-71.682017777688,6.1280646866887,17.51797179718,2502864.119251,-2465.5771728302,2746617.8431243,22.71797179718,0,0
-71.682017086995,6.1306476695752,17.522402240224,2502864.119251,-2465.5771728302,2746617.8431243,22.722402240224,0,0
-71.682016396301,6.1332306524618,17.526832683268,2502864.119251,-2465.5771728302,2746617.8431243,22.726832683268,0,0
-71.682015705608,6.1358136353484,17.531263126313,2502864.119251,-2465.5771728302,2746617.8431243,22.731263126313,0,0
-71.682015014915,6.1383966182349,17.535693569357,2502864.119251,-2465.5771728302,2746617.8431243,22.735693569357,0,0
-71.682014324222,6.1409796011215,17.540124012401,2502864.119251,-2465.5771728302,2746617.8431243,22.740124012401,0,0
-71.682013633529,6.1435625840081,17.544554455446,2502864.119251,-2465.5771728302,2746617.8431243,22.744554455446,0,0
-71.682012942836,6.1461455668947,17.54898489849,2502864.119251,-2465.5771728302,2746617.8431243,22.74898489849,0,0
-71.682012252143,6.1487285497812,17.553415341534,2502864.119251,-2465.5771728302,2746617.8431243,22.753415341534,0,0
-71.68201156145,6.1513115326678,17.557845784578,2502864.119251,-2465.5771728302,2746617.8431243,22.757845784578,0,0
-71.682010870757,6.1538945155544,17.562276227623,2502864.119251,-2465.5771728302,2746617.8431243,22.762276227623,0,0
-71.682010180064,6.1564774984409,17.566706670667,2502864.119251,-2465.5771728302,2746617.8431243,22.766706670667,0,0
-71.682009489371,6.1590604813275,17.571137113711,2502864.119251,-2465.5771728302,2746617.8431243,22.771137113711,0,0
-71.682008798678,6.1616434642141,17.575567556756,2502864.119251,-2465.5771728302,2746617.8431243,22.775567556756,0,0
-71.682008107985,6.1642264471007,17.5799979998,2502864.119251,-2465.5771728302,2746617.8431243,22.7799979998,0,0
-71.682007417292,6.1668094299872,17.584428442844,2502864.119251,-2465.5771728302,2746617.8431243,22.784428442844,0,0
-71.682006726599,6.1693924128738,17.588858885889,2502864.119251,-2465.5771728302,2746617.8431243,22.788858885889,0,0
-71.682006035906,6.1719753957604,17.593289328933,2502864.119251,-2465.5771728302,2746617.8431243,22.793289328933,0,0
-71.682005345213,6.1745583786469,17.597719771977,2502864.119251,-2465.5771728302,2746617.8431243,22.797719771977,0,0
-71.68200465452,6.1771413615335,17.602150215021,2502864.119251,-2465.5771728302,2746617.8431243,22.802150215021,0,0
-71.682003963827,6.1797243444201,17.606580658066,2502864.119251,-2465.5771728302,2746617.8431243,22.806580658066,0,0
-71.682003273134,6.1823073273067,17.61101110111,2502864.119251,-2465.5771728302,2746617.8431243,22.81101110111,0,0
-71.68200258244,6.1848903101932,17.615441544154,2502864.119251,-2465.5771728302,2746617.8431243,22.815441544154,0,0
-71.682001891747,6.1874732930798,17.619871987199,2502864.119251,-2465.5771728302,2746617.8431243,22.819871987199,0,0
-71.682001201054,6.1900562759664,17.624302430243,2502864.119251,-2465.5771728302,2746617.8431243,22.824302430243,0,0
-71.682000510361,6.1926392588529,17.628732873287,2502864.119251,-2465.5771728302,2746617.8431243,22.828732873287,0,0
-71.681999819668,6.1952222417395,17.633163316332,2502864.119251,-2465.5771728302,2746617.8431243,22.833163316332,0,0
-71.681999128975,6.1978052246261,17.637593759376,2502864.119251,-2465.5771728302,2746617.8431243,22.837593759376,0,0
-71.681998438282,6.2003882075127,17.64202420242,2502864.119251,-2465.5771728302,2746617.8431243,22.84202420242,0,0
-71.681997747589,6.2029711903992,17.646454645465,2502864.119251,-2465.5771728302,2746617.8431243,22.846454645465,0,0
-71.681997056896,6.2055541732858,17.650885088509,2502864.119251,-2465.5771728302,2746617.8431243,22.850885088509,0,0
-71.681996366203,6.2081371561724,17.655315531553,2502864.119251,-2465.5771728302,2746617.8431243,22.855315531553,0,0
-71.68199567551,6.2107201390589,17.659745974597,2502864.119251,-2465.5771728302,2746617.8431243,22.859745974597,0,0
-71.681994984817,6.2133031219455,17.664176417642,2502864.119251,-2465.5771728302,2746617.8431243,22.864176417642,0,0
-71.681994294124,6.2158861048321,17.668606860686,2502864.119251,-2465.5771728302,2746617.8431243,22.868606860686,0,0
-71.681993603431,6.2184690877186,17.67303730373,2502864.119251,-2465.5771728302,2746617.8431243,22.87303730373,0,0
-71.681992912738,6.2210520706052,17.677467746775,2502864.119251,-2465.5771728302,2746617.8431243,22.877467746775,0,0
-71.681992222045,6.2236350534918,17.681898189819,2502864.119251,-2465.5771728302,2746617.8431243,22.881898189819,0,0
-71.681991531352,6.2262180363784,17.686328632863,2502864.119251,-2465.5771728302,2746617.8431243,22.886328632863,0,0
-71.681990840659,6.2288010192649,17.690759075908,2502864.119251,-2465.5771728302,2746617.8431243,22.890759075908,0,0
-71.681990149966,6.2313840021515,17.695189518952,2502864.119251,-2465.5771728302,2746617.8431243,22.895189518952,0,0
-71.681989459273,6.2339669850381,17.699619961996,2502864.119251,-2465.5771728302,2746617.8431243,22.899619961996,0,0
-71.68198876858,6.2365499679246,17.704050405041,2502864.119251,-2465.5771728302,2746617.8431243,22.904050405041,0,0
-71.681988077886,6.2391329508112,17.708480848085,2502864.119251,-2465.5771728302,2746617.8431243,22.908480848085,0,0
-71.681987387193,6.2417159336978,17.712911291129,2502864.119251,-2465.5771728302,2746617.8431243,22.912911291129,0,0
-71.6819866965,6.2442989165844,17.717341734173,2502864.119251,-2465.5771728302,2746617.8431243,22.917341734173,0,0
-71.681986005807,6.2468818994709,17.721772177218,2502864.119251,-2465.5771728302,2746617.8431243,22.921772177218,0,0
-71.681985315114,6.2494648823575,17.726202620262,2502864.119251,-2465.5771728302,2746617.8431243,22.926202620262,0,0
-71.681984624421,6.2520478652441,17.730633063306,2502864.119251,-2465.5771728302,2746617.8431243,22.930633063306,0,0
-71.681983933728,6.2546308481306,17.735063506351,2502864.119251,-2465.5771728302,2746617.8431243,22.935063506351,0,0
-71.681983243035,6.2572138310172,17.739493949395,2502864.119251,-2465.5771728302,2746617.8431243,22.939493949395,0,0
-71.681982552342,6.2597968139038,17.743924392439,2502864.119251,-2465.5771728302,2746617.8431243,22.943924392439,0,0
-71.681981861649,6.2623797967904,17.748354835484,2502864.119251,-2465.5771728302,2746617.8431243,22.948354835484,0,0
-71.681981170956,6.2649627796769,17.752785278528,2502864.119251,-2465.5771728302,2746617.8431243,22.952785278528,0,0
-71.681980480263,6.2675457625635,17.757215721572,2502864.119251,-2465.5771728302,2746617.8431243,22.957215721572,0,0
-71.68197978957,6.2701287454501,17.761646164616,2502864.119251,-2465.5771728302,2746617.8431243,22.961646164616,0,0
-71.681979098877,6.2727117283366,17.766076607661,2502864.119251,-2465.5771728302,2746617.8431243,22.966076607661,0,0
-71.681978408184,6.2752947112232,17.770507050705,2502864.119251,-2465.5771728302,2746617.8431243,22.970507050705,0,0
-71.681977717491,6.2778776941098,17.774937493749,2502864.119251,-2465.5771728302,2746617.8431243,22.974937493749,0,0
-71.681977026798,6.2804606769964,17.779367936794,2502864.119251,-2465.5771728302,2746617.8431243,22.979367936794,0,0
-71.681976336105,6.2830436598829,17.783798379838,2502864.119251,-2465.5771728302,2746617.8431243,22.983798379838,0,0
-71.681975645412,6.2856266427695,17.788228822882,2502864.119251,-2465.5771728302,2746617.8431243,22.988228822882,0,0
-71.681974954719,6.2882096256561,17.792659265927,2502864.119251,-2465.5771728302,2746617.8431243,22.992659265927,0,0
-71.681974264025,6.2907926085426,17.797089708971,2502864.119251,-2465.5771728302,2746617.8431243,22.997089708971,0,0
-71.681973573332,6.2933755914292,17.801520152015,2502864.119251,-2465.5771728302,2746617.8431243,23.001520152015,0,0
-71.681972882639,6.2959585743158,17.80595059506,2502864.119251,-2465.5771728302,2746617.8431243,23.00595059506,0,0
-71.681972191946,6.2985415572024,17.810381038104,2502864.119251,-2465.5771728302,2746617.8431243,23.010381038104,0,0
-71.681971501253,6.3011245400889,17.814811481148,2502864.119251,-2465.5771728302,2746617.8431243,23.014811481148,0,0
-71.68197081056,6.3037075229755,17.819241924192,2502864.119251,-2465.5771728302,2746617.8431243,23.019241924192,0,0
-71.681970119867,6.3062905058621,17.823672367237,2502864.119251,-2465.5771728302,2746617.8431243,23.023672367237,0,0
-71.681969429174,6.3088734887486,17.828102810281,2502864.119251,-2465.5771728302,2746617.8431243,23.028102810281,0,0
-71.681968738481,6.3114564716352,17.832533253325,2502864.119251,-2465.5771728302,2746617.8431243,23.032533253325,0,0
-71.681968047788,6.3140394545218,17.83696369637,2502864.119251,-2465.5771728302,2746617.8431243,23.03696369637,0,0
-71.681967357095,6.3166224374083,17.841394139414,2502864.119251,-2465.5771728302,2746617.8431243,23.041394139414,0,0
-71.681966666402,6.3192054202949,17.845824582458,2502864.119251,-2465.5771728302,2746617.8431243,23.045824582458,0,0
-71.681965975709,6.3217884031815,17.850255025503,2502864.119251,-2465.5771728302,2746617.8431243,23.050255025503,0,0
-71.681965285016,6.3243713860681,17.854685468547,2502864.119251,-2465.5771728302,2746617.8431243,23.054685468547,0,0
-71.681964594323,6.3269543689546,17.859115911591,2502864.119251,-2465.5771728302,2746617.8431243,23.059115911591,0,0
-71.68196390363,6.3295373518412,17.863546354635,2502864.119251,-2465.5771728302,2746617.8431243,23.063546354635,0,0
-71.681963212937,6.3321203347278,17.86797679768,2502864.119251,-2465.5771728302,2746617.8431243,23.06797679768,0,0
-71.681962522244,6.3347033176143,17.872407240724,2502864.119251,-2465.5771728302,2746617.8431243,23.072407240724,0,0
-71.681961831551,6.3372863005009,17.876837683768,2502864.119251,-2465.5771728302,2746617.8431243,23.076837683768,0,0
-71.681961140858,6.3398692833875,17.881268126813,2502864.119251,-2465.5771728302,2746617.8431243,23.081268126813,0,0
-71.681960450164,6.3424522662741,17.885698569857,2502864.119251,-2465.5771728302,2746617.8431243,23.085698569857,0,0
-71.681959759471,6.3450352491606,17.890129012901,2502864.119251,-2465.5771728302,2746617.8431243,23.090129012901,0,0
-71.681959068778,6.3476182320472,17.894559455946,2502864.119251,-2465.5771728302,2746617.8431243,23.094559455946,0,0
-71.681958378085,6.3502012149338,17.89898989899,2502864.119251,-2465.5771728302,2746617.8431243,23.09898989899,0,0
-71.681957687392,6.3527841978203,17.903420342034,2502864.119251,-2465.5771728302,2746617.8431243,23.103420342034,0,0
-71.681956996699,6.3553671807069,17.907850785079,2502864.119251,-2465.5771728302,2746617.8431243,23.107850785079,0,0
-71.681956306006,6.3579501635935,17.912281228123,2502864.119251,-2465.5771728302,2746617.8431243,23.112281228123,0,0
-71.681955615313,6.3605331464801,17.916711671167,2502864.119251,-2465.5771728302,2746617.8431243,23.116711671167,0,0
-71.68195492462,6.3631161293666,17.921142114211,2502864.119251,-2465.5771728302,2746617.8431243,23.121142114211,0,0
-71.681954233927,6.3656991122532,17.925572557256,2502864.119251,-2465.5771728302,2746617.8431243,23.125572557256,0,0
-71.681953543234,6.3682820951398,17.9300030003,2502864.119251,-2465.5771728302,2746617.8431243,23.1300030003,0,0
-71.681952852541,6.3708650780263,17.934433443344,2502864.119251,-2465.5771728302,2746617.8431243,23.134433443344,0,0
-71.681952161848,6.3734480609129,17.938863886389,2502864.119251,-2465.5771728302,2746617.8431243,23.138863886389,0,0
-71.681951471155,6.3760310437995,17.943294329433,2502864.119251,-2465.5771728302,2746617.8431243,23.143294329433,0,0
-71.681950780462,6.3786140266861,17.947724772477,2502864.119251,-2465.5771728302,2746617.8431243,23.147724772477,0,0
-71.681950089769,6.3811970095726,17.952155215522,2502864.119251,-2465.5771728302,2746617.8431243,23.152155215522,0,0
-71.681949399076,6.3837799924592,17.956585658566,2502864.119251,-2465.5771728302,2746617.8431243,23.156585658566,0,0
-71.681948708383,6.3863629753458,17.96101610161,2502864.119251,-2465.5771728302,2746617.8431243,23.16101610161,0,0
-71.68194801769,6.3889459582323,17.965446544654,2502864.119251,-2465.5771728302,2746617.8431243,23.165446544654,0,0
-71.681947326997,6.3915289411189,17.969876987699,2502864.119251,-2465.5771728302,2746617.8431243,23.169876987699,0,0
-71.681946636304,6.3941119240055,17.974307430743,2502864.119251,-2465.5771728302,2746617.8431243,23.174307430743,0,0
-71.68194594561,6.396694906892,17.978737873787,2502864.119251,-2465.5771728302,2746617.8431243,23.178737873787,0,0
-71.681945254917,6.3992778897786,17.983168316832,2502864.119251,-2465.5771728302,2746617.8431243,23.183168316832,0,0
-71.681944564224,6.4018608726652,17.987598759876,2502864.119251,-2465.5771728302,2746617.8431243,23.187598759876,0,0
-71.681943873531,6.4044438555518,17.99202920292,2502864.119251,-2465.5771728302,2746617.8431243,23.19202920292,0,0
-71.681943182838,6.4070268384383,17.996459645965,2502864.119251,-2465.5771728302,2746617.8431243,23.196459645965,0,0
-71.681942492145,6.4096098213249,18.000890089009,2502864.119251,-2465.5771728302,2746617.8431243,23.200890089009,0,0
-71.681941801452,6.4121928042115,18.005320532053,2502864.119251,-2465.5771728302,2746617.8431243,23.205320532053,0,0
-71.681941110759,6.414775787098,18.009750975098,2502864.119251,-2465.5771728302,2746617.8431243,23.209750975098,0,0
-71.681940420066,6.4173587699846,18.014181418142,2502864.119251,-2465.5771728302,2746617.8431243,23.214181418142,0,0
-71.681939729373,6.4199417528712,18.018611861186,2502864.119251,-2465.5771728302,2746617.8431243,23.218611861186,0,0
-71.68193903868,6.4225247357578,18.02304230423,2502864.119251,-2465.5771728302,2746617.8431243,23.22304230423,0,0
-71.681938347987,6.4251077186443,18.027472747275,2502864.119251,-2465.5771728302,2746617.8431243,23.227472747275,0,0
-71.681937657294,6.4276907015309,18.031903190319,2502864.119251,-2465.5771728302,2746617.8431243,23.231903190319,0,0
-71.681936966601,6.4302736844175,18.036333633363,2502864.119251,-2465.5771728302,2746617.8431243,23.236333633363,0,0
-71.681936275908,6.432856667304,18.040764076408,2502864.119251,-2465.5771728302,2746617.8431243,23.240764076408,0,0
-71.681935585215,6.4354396501906,18.045194519452,2502864.119251,-2465.5771728302,2746617.8431243,23.245194519452,0,0
-71.681934894522,6.4380226330772,18.049624962496,2502864.119251,-2465.5771728302,2746617.8431243,23.249624962496,0,0
-71.681934203829,6.4406056159638,18.054055405541,2502864.119251,-2465.5771728302,2746617.8431243,23.254055405541,0,0
-71.681933513136,6.4431885988503,18.058485848585,2502864.119251,-2465.5771728302,2746617.8431243,23.258485848585,0,0
-71.681932822443,6.4457715817369,18.062916291629,2502864.119251,-2465.5771728302,2746617.8431243,23.262916291629,0,0
-71.681932131749,6.4483545646235,18.067346734673,2502864.119251,-2465.5771728302,2746617.8431243,23.267346734673,0,0
-71.681931441056,6.45093754751,18.071777177718,2502864.119251,-2465.5771728302,2746617.8431243,23.271777177718,0,0
-71.681930750363,6.4535205303966,18.076207620762,2502864.119251,-2465.5771728302,2746617.8431243,23.276207620762,0,0
-71.68193005967,6.4561035132832,18.080638063806,2502864.119251,-2465.5771728302,2746617.8431243,23.280638063806,0,0
-71.681929368977,6.4586864961698,18.085068506851,2502864.119251,-2465.5771728302,2746617.8431243,23.285068506851,0,0
-71.681928678284,6.4612694790563,18.089498949895,2502864.119251,-2465.5771728302,2746617.8431243,23.289498949895,0,0
-71.681927987591,6.4638524619429,18.093929392939,2502864.119251,-2465.5771728302,2746617.8431243,23.293929392939,0,0
-71.681927296898,6.4664354448295,18.098359835984,2502864.119251,-2465.5771728302,2746617.8431243,23.298359835984,0,0
-71.681926606205,6.469018427716,18.102790279028,2502864.119251,-2465.5771728302,2746617.8431243,23.302790279028,0,0
-71.681925915512,6.4716014106026,18.107220722072,2502864.119251,-2465.5771728302,2746617.8431243,23.307220722072,0,0
-71.681925224819,6.4741843934892,18.111651165117,2502864.119251,-2465.5771728302,2746617.8431243,23.311651165117,0,0
-71.681924534126,6.4767673763758,18.116081608161,2502864.119251,-2465.5771728302,2746617.8431243,23.316081608161,0,0
-71.681923843433,6.4793503592623,18.120512051205,2502864.119251,-2465.5771728302,2746617.8431243,23.320512051205,0,0
-71.68192315274,6.4819333421489,18.124942494249,2502864.119251,-2465.5771728302,2746617.8431243,23.324942494249,0,0
-71.681922462047,6.4845163250355,18.129372937294,2502864.119251,-2465.5771728302,2746617.8431243,23.329372937294,0,0
-71.681921771354,6.487099307922,18.133803380338,2502864.119251,-2465.5771728302,2746617.8431243,23.333803380338,0,0
-71.681921080661,6.4896822908086,18.138233823382,2502864.119251,-2465.5771728302,2746617.8431243,23.338233823382,0,0
-71.681920389968,6.4922652736952,18.142664266427,2502864.119251,-2465.5771728302,2746617.8431243,23.342664266427,0,0
-71.681919699275,6.4948482565817,18.147094709471,2502864.119251,-2465.5771728302,2746617.8431243,23.347094709471,0,0
-71.681919008582,6.4974312394683,18.151525152515,2502864.119251,-2465.5771728302,2746617.8431243,23.351525152515,0,0
-71.681918317888,6.5000142223549,18.15595559556,2502864.119251,-2465.5771728302,2746617.8431243,23.35595559556,0,0
-71.681917627195,6.5025972052415,18.160386038604,2502864.119251,-2465.5771728302,2746617.8431243,23.360386038604,0,0
-71.681916936502,6.505180188128,18.164816481648,2502864.119251,-2465.5771728302,2746617.8431243,23.364816481648,0,0
-71.681916245809,6.5077631710146,18.169246924692,2502864.119251,-2465.5771728302,2746617.8431243,23.369246924692,0,0
-71.681915555116,6.5103461539012,18.173677367737,2502864.119251,-2465.5771728302,2746617.8431243,23.373677367737,0,0
-71.681914864423,6.5129291367877,18.178107810781,2502864.119251,-2465.5771728302,2746617.8431243,23.378107810781,0,0
-71.68191417373,6.5155121196743,18.182538253825,2502864.119251,-2465.5771728302,2746617.8431243,23.382538253825,0,0
-71.681913483037,6.5180951025609,18.18696869687,2502864.119251,-2465.5771728302,2746617.8431243,23.38696869687,0,0
-71.681912792344,6.5206780854475,18.191399139914,2502864.119251,-2465.5771728302,2746617.8431243,23.391399139914,0,0
-71.681912101651,6.523261068334,18.195829582958,2502864.119251,-2465.5771728302,2746617.8431243,23.395829582958,0,0
-71.681911410958,6.5258440512206,18.200260026003,2502864.119251,-2465.5771728302,2746617.8431243,23.400260026003,0,0
-71.681910720265,6.5284270341072,18.204690469047,2502864.119251,-2465.5771728302,2746617.8431243,23.404690469047,0,0
-71.681910029572,6.5310100169937,18.209120912091,2502864.119251,-2465.5771728302,2746617.8431243,23.409120912091,0,0
-71.681909338879,6.5335929998803,18.213551355136,2502864.119251,-2465.5771728302,2746617.8431243,23.413551355136,0,0
-71.681908648186,6.5361759827669,18.21798179818,2502864.119251,-2465.5771728302,2746617.8431243,23.41798179818,0,0
-71.681907957493,6.5387589656535,18.222412241224,2502864.119251,-2465.5771728302,2746617.8431243,23.422412241224,0,0
-71.6819072668,6.54134194854,18.226842684268,2502864.119251,-2465.5771728302,2746617.8431243,23.426842684268,0,0
-71.681906576107,6.5439249314266,18.231273127313,2502864.119251,-2465.5771728302,2746617.8431243,23.431273127313,0,0
-71.681905885414,6.5465079143132,18.235703570357,2502864.119251,-2465.5771728302,2746617.8431243,23.435703570357,0,0
-71.681905194721,6.5490908971997,18.240134013401,2502864.119251,-2465.5771728302,2746617.8431243,23.440134013401,0,0
-71.681904504028,6.5516738800863,18.244564456446,2502864.119251,-2465.5771728302,2746617.8431243,23.444564456446,0,0
-71.681903813334,6.5542568629729,18.24899489949,2502864.119251,-2465.5771728302,2746617.8431243,23.44899489949,0,0
-71.681903122641,6.5568398458595,18.253425342534,2502864.119251,-2465.5771728302,2746617.8431243,23.453425342534,0,0
-71.681902431948,6.559422828746,18.257855785579,2502864.119251,-2465.5771728302,2746617.8431243,23.457855785579,0,0
-71.681901741255,6.5620058116326,18.262286228623,2502864.119251,-2465.5771728302,2746617.8431243,23.462286228623,0,0
-71.681901050562,6.5645887945192,18.266716671667,2502864.119251,-2465.5771728302,2746617.8431243,23.466716671667,0,0
-71.681900359869,6.5671717774057,18.271147114711,2502864.119251,-2465.5771728302,2746617.8431243,23.471147114711,0,0
-71.681899669176,6.5697547602923,18.275577557756,2502864.119251,-2465.5771728302,2746617.8431243,23.475577557756,0,0
-71.681898978483,6.5723377431789,18.2800080008,2502864.119251,-2465.5771728302,2746617.8431243,23.4800080008,0,0
-71.68189828779,6.5749207260655,18.284438443844,2502864.119251,-2465.5771728302,2746617.8431243,23.484438443844,0,0
-71.681897597097,6.577503708952,18.288868886889,2502864.119251,-2465.5771728302,2746617.8431243,23.488868886889,0,0
-71.681896906404,6.5800866918386,18.293299329933,2502864.119251,-2465.5771728302,2746617.8431243,23.493299329933,0,0
-71.681896215711,6.5826696747252,18.297729772977,2502864.119251,-2465.5771728302,2746617.8431243,23.497729772977,0,0
-71.681895525018,6.5852526576117,18.302160216022,2502864.119251,-2465.5771728302,2746617.8431243,23.502160216022,0,0
-71.681894834325,6.5878356404983,18.306590659066,2502864.119251,-2465.5771728302,2746617.8431243,23.506590659066,0,0
-71.681894143632,6.5904186233849,18.31102110211,2502864.119251,-2465.5771728302,2746617.8431243,23.51102110211,0,0
-71.681893452939,6.5930016062714,18.315451545155,2502864.119251,-2465.5771728302,2746617.8431243,23.515451545155,0,0
-71.681892762246,6.595584589158,18.319881988199,2502864.119251,-2465.5771728302,2746617.8431243,23.519881988199,0,0
-71.681892071553,6.5981675720446,18.324312431243,2502864.119251,-2465.5771728302,2746617.8431243,23.524312431243,0,0
-71.681891380837,6.6007505542955,18.328742874287,2499675.5534859,-7448.0227844988,2731827.1491852,23.528742874287,0,0
-71.681890690059,6.6033335348204,18.333173317332,2499675.5534859,-7448.0227844988,2731827.1491852,23.533173317332,0,0
-71.681889999282,6.6059165153454,18.337603760376,2499675.5534859,-7448.0227844988,2731827.1491852,23.537603760376,0,0
-71.681889308504,6.6084994958704,18.34203420342,2499675.5534859,-7448.0227844988,2731827.1491852,23.54203420342,0,0
-71.681888617726,6.6110824763953,18.346464646465,2499675.5534859,-7448.0227844988,2731827.1491852,23.546464646465,0,0
-71.681887926949,6.6136654569203,18.350895089509,2499675.5534859,-7448.0227844988,2731827.1491852,23.550895089509,0,0
-71.681887236171,6.6162484374453,18.355325532553,2499675.5534859,-7448.0227844988,2731827.1491852,23.555325532553,0,0
-71.681886545393,6.6188314179702,18.359755975598,2499675.5534859,-7448.0227844988,2731827.1491852,23.559755975598,0,0
-71.681885854616,6.6214143984952,18.364186418642,2499675.5534859,-7448.0227844988,2731827.1491852,23.564186418642,0,0
-71.681885163838,6.6239973790202,18.368616861686,2499675.5534859,-7448.0227844988,2731827.1491852,23.568616861686,0,0
-71.68188447306,6.6265803595451,18.37304730473,2499675.5534859,-7448.0227844988,2731827.1491852,23.57304730473,0,0
-71.681883782283,6.6291633400701,18.377477747775,2499675.5534859,-7448.0227844988,2731827.1491852,23.577477747775,0,0
-71.681883091505,6.6317463205951,18.381908190819,2499675.5534859,-7448.0227844988,2731827.1491852,23.581908190819,0,0
-71.681882400728,6.63432930112,18.386338633863,2499675.5534859,-7448.0227844988,2731827.1491852,23.586338633863,0,0
-71.68188170995,6.636912281645,18.390769076908,2499675.5534859,-7448.0227844988,2731827.1491852,23.590769076908,0,0
-71.681881019172,6.63949526217,18.395199519952,2499675.5534859,-7448.0227844988,2731827.1491852,23.595199519952,0,0
-71.681880328395,6.6420782426949,18.399629962996,2499675.5534859,-7448.0227844988,2731827.1491852,23.599629962996,0,0
-71.681879637617,6.6446612232199,18.404060406041,2499675.5534859,-7448.0227844988,2731827.1491852,23.604060406041,0,0
-71.681878946839,6.6472442037448,18.408490849085,2499675.5534859,-7448.0227844988,2731827.1491852,23.608490849085,0,0
-71.681878256062,6.6498271842698,18.412921292129,2499675.5534859,-7448.0227844988,2731827.1491852,23.612921292129,0,0
-71.681877565284,6.6524101647948,18.417351735174,2499675.5534859,-7448.0227844988,2731827.1491852,23.617351735174,0,0
-71.681876874506,6.6549931453197,18.421782178218,2499675.5534859,-7448.0227844988,2731827.1491852,23.621782178218,0,0
-71.681876183729,6.6575761258447,18.426212621262,2499675.5534859,-7448.0227844988,2731827.1491852,23.626212621262,0,0
-71.681875492951,6.6601591063697,18.430643064306,2499675.5534859,-7448.0227844988,2731827.1491852,23.630643064306,0,0
-71.681874802174,6.6627420868946,18.435073507351,2499675.5534859,-7448.0227844988,2731827.1491852,23.635073507351,0,0
-71.681874111396,6.6653250674196,18.439503950395,2499675.5534859,-7448.0227844988,2731827.1491852,23.639503950395,0,0
-71.681873420618,6.6679080479446,18.443934393439,2499675.5534859,-7448.0227844988,2731827.1491852,23.643934393439,0,0
-71.681872727014,6.6704910296487,18.448364836484,2516506.8649727,-5170.2411738895,2735584.2444479,23.648364836484,0,0
-71.681872033331,6.6730740113859,18.452795279528,2516506.8649727,-5170.2411738895,2735584.2444479,23.652795279528,0,0
-71.681871339648,6.675656993123,18.457225722572,2516506.8649727,-5170.2411738895,2735584.2444479,23.657225722572,0,0
-71.681870645965,6.6782399748601,18.461656165617,2516506.8649727,-5170.2411738895,2735584.2444479,23.661656165617,0,0
-71.681869952281,6.6808229565972,18.466086608661,2516506.8649727,-5170.2411738895,2735584.2444479,23.666086608661,0,0
-71.681869258598,6.6834059383343,18.470517051705,2516506.8649727,-5170.2411738895,2735584.2444479,23.670517051705,0,0
-71.681868564915,6.6859889200714,18.474947494749,2516506.8649727,-5170.2411738895,2735584.2444479,23.674947494749,0,0
-71.681867871232,6.6885719018085,18.479377937794,2516506.8649727,-5170.2411738895,2735584.2444479,23.679377937794,0,0
-71.681867177549,6.6911548835457,18.483808380838,2516506.8649727,-5170.2411738895,2735584.2444479,23.683808380838,0,0
-71.681866483866,6.6937378652828,18.488238823882,2516506.8649727,-5170.2411738895,2735584.2444479,23.688238823882,0,0
-71.681865790183,6.6963208470199,18.492669266927,2516506.8649727,-5170.2411738895,2735584.2444479,23.692669266927,0,0
-71.681865096499,6.698903828757,18.497099709971,2516506.8649727,-5170.2411738895,2735584.2444479,23.697099709971,0,0
-71.681864402816,6.7014868104941,18.501530153015,2516506.8649727,-5170.2411738895,2735584.2444479,23.701530153015,0,0
-71.681863709133,6.7040697922312,18.50596059606,2516506.8649727,-5170.2411738895,2735584.2444479,23.70596059606,0,0
-71.68186301545,6.7066527739683,18.510391039104,2516506.8649727,-5170.2411738895,2735584.2444479,23.710391039104,0,0
-71.681862321767,6.7092357557055,18.514821482148,2516506.8649727,-5170.2411738895,2735584.2444479,23.714821482148,0,0
-71.681861628084,6.7118187374426,18.519251925193,2516506.8649727,-5170.2411738895,2735584.2444479,23.719251925193,0,0
-71.681860934401,6.7144017191797,18.523682368237,2516506.8649727,-5170.2411738895,2735584.2444479,23.723682368237,0,0
-71.681860240717,6.7169847009168,18.528112811281,2516506.8649727,-5170.2411738895,2735584.2444479,23.728112811281,0,0
-71.681859547034,6.7195676826539,18.532543254325,2516506.8649727,-5170.2411738895,2735584.2444479,23.732543254325,0,0
-71.681858853351,6.722150664391,18.53697369737,2516506.8649727,-5170.2411738895,2735584.2444479,23.73697369737,0,0
-71.681858159668,6.7247336461281,18.541404140414,2516506.8649727,-5170.2411738895,2735584.2444479,23.741404140414,0,0
-71.681857465985,6.7273166278653,18.545834583458,2516506.8649727,-5170.2411738895,2735584.2444479,23.745834583458,0,0
-71.681856772302,6.7298996096024,18.550265026503,2516506.8649727,-5170.2411738895,2735584.2444479,23.750265026503,0,0
-71.681856078619,6.7324825913395,18.554695469547,2516506.8649727,-5170.2411738895,2735584.2444479,23.754695469547,0,0
-71.681855384935,6.7350655730766,18.559125912591,2516506.8649727,-5170.2411738895,2735584.2444479,23.759125912591,0,0
-71.681854691252,6.7376485548137,18.563556355636,2516506.8649727,-5170.2411738895,2735584.2444479,23.763556355636,0,0
-71.681853997569,6.7402315365508,18.56798679868,2516506.8649727,-5170.2411738895,2735584.2444479,23.76798679868,0,0
-71.681853303886,6.7428145182879,18.572417241724,2516506.8649727,-5170.2411738895,2735584.2444479,23.772417241724,0,0
-71.681852610203,6.7453975000251,18.576847684768,2516506.8649727,-5170.2411738895,2735584.2444479,23.776847684768,0,0
-71.68185191652,6.7479804817622,18.581278127813,2516506.8649727,-5170.2411738895,2735584.2444479,23.781278127813,0,0
-71.681851222837,6.7505634634993,18.585708570857,2516506.8649727,-5170.2411738895,2735584.2444479,23.785708570857,0,0
-71.681850529153,6.7531464452364,18.590139013901,2516506.8649727,-5170.2411738895,2735584.2444479,23.790139013901,0,0
-71.68184983547,6.7557294269735,18.594569456946,2516506.8649727,-5170.2411738895,2735584.2444479,23.794569456946,0,0
-71.681849141787,6.7583124087106,18.59899989999,2516506.8649727,-5170.2411738895,2735584.2444479,23.79899989999,0,0
-71.681848448104,6.7608953904477,18.603430343034,2516506.8649727,-5170.2411738895,2735584.2444479,23.803430343034,0,0
-71.681847754421,6.7634783721849,18.607860786079,2516506.8649727,-5170.2411738895,2735584.2444479,23.807860786079,0,0
-71.681847060738,6.766061353922,18.612291229123,2516506.8649727,-5170.2411738895,2735584.2444479,23.812291229123,0,0
-71.681846367055,6.7686443356591,18.616721672167,2516506.8649727,-5170.2411738895,2735584.2444479,23.816721672167,0,0
-71.681845673371,6.7712273173962,18.621152115212,2516506.8649727,-5170.2411738895,2735584.2444479,23.821152115212,0,0
-71.681844979688,6.7738102991333,18.625582558256,2516506.8649727,-5170.2411738895,2735584.2444479,23.825582558256,0,0
-71.681844286005,6.7763932808704,18.6300130013,2516506.8649727,-5170.2411738895,2735584.2444479,23.8300130013,0,0
-71.681843592322,6.7789762626075,18.634443444344,2516506.8649727,-5170.2411738895,2735584.2444479,23.834443444344,0,0
-71.681842898639,6.7815592443447,18.638873887389,2516506.8649727,-5170.2411738895,2735584.2444479,23.838873887389,0,0
-71.681842204956,6.7841422260818,18.643304330433,2516506.8649727,-5170.2411738895,2735584.2444479,23.843304330433,0,0
-71.681841511273,6.7867252078189,18.647734773477,2516506.8649727,-5170.2411738895,2735584.2444479,23.847734773477,0,0
-71.681840817589,6.789308189556,18.652165216522,2516506.8649727,-5170.2411738895,2735584.2444479,23.852165216522,0,0
-71.681840123906,6.7918911712931,18.656595659566,2516506.8649727,-5170.2411738895,2735584.2444479,23.856595659566,0,0
-71.681839430223,6.7944741530302,18.66102610261,2516506.8649727,-5170.2411738895,2735584.244448,23.86102610261,0,0
-71.68183873654,6.7970571347673,18.665456545655,2516506.8649727,-5170.2411738895,2735584.244448,23.865456545655,0,0
-71.681838042857,6.7996401165045,18.669886988699,2516506.8649727,-5170.2411738895,2735584.244448,23.869886988699,0,0
-71.681837349174,6.8022230982416,18.674317431743,2516506.8649727,-5170.2411738895,2735584.2444479,23.874317431743,0,0
-71.681836655491,6.8048060799787,18.678747874787,2516506.8649727,-5170.2411738895,2735584.2444479,23.878747874787,0,0
-71.681835961807,6.8073890617158,18.683178317832,2516506.8649727,-5170.2411738895,2735584.2444479,23.883178317832,0,0
-71.681835268124,6.8099720434529,18.687608760876,2516506.8649727,-5170.2411738895,2735584.2444479,23.887608760876,0,0
-71.681834574441,6.81255502519,18.69203920392,2516506.8649727,-5170.2411738895,2735584.2444479,23.89203920392,0,0
-71.681833880758,6.8151380069271,18.696469646965,2516506.8649727,-5170.2411738895,2735584.2444479,23.896469646965,0,0
-71.681833187075,6.8177209886643,18.700900090009,2516506.8649727,-5170.2411738895,2735584.2444479,23.900900090009,0,0
-71.681832493392,6.8203039704014,18.705330533053,2516506.8649727,-5170.2411738895,2735584.2444479,23.905330533053,0,0
-71.681831799709,6.8228869521385,18.709760976098,2516506.8649727,-5170.2411738895,2735584.2444479,23.909760976098,0,0
-71.681831106025,6.8254699338756,18.714191419142,2516506.8649727,-5170.2411738895,2735584.2444479,23.914191419142,0,0
-71.681830412342,6.8280529156127,18.718621862186,2516506.8649727,-5170.2411738895,2735584.244448,23.918621862186,0,0
-71.681829718659,6.8306358973498,18.723052305231,2516506.8649727,-5170.2411738895,2735584.244448,23.923052305231,0,0
-71.681829024976,6.8332188790869,18.727482748275,2516506.8649727,-5170.2411738895,2735584.244448,23.927482748275,0,0
-71.681828331293,6.8358018608241,18.731913191319,2516506.8649727,-5170.2411738895,2735584.244448,23.931913191319,0,0
-71.68182763761,6.8383848425612,18.736343634363,2516506.8649727,-5170.2411738895,2735584.244448,23.936343634363,0,0
-71.681826943927,6.8409678242983,18.740774077408,2516506.8649727,-5170.2411738895,2735584.244448,23.940774077408,0,0
-71.681826250243,6.8435508060354,18.745204520452,2516506.8649727,-5170.2411738895,2735584.244448,23.945204520452,0,0
-71.68182555656,6.8461337877725,18.749634963496,2516506.8649727,-5170.2411738895,2735584.244448,23.949634963496,0,0
-71.681824862877,6.8487167695096,18.754065406541,2516506.8649727,-5170.2411738895,2735584.2444479,23.954065406541,0,0
-71.681824169194,6.8512997512467,18.758495849585,2516506.8649727,-5170.2411738895,2735584.2444479,23.958495849585,0,0
-71.681823475511,6.8538827329838,18.762926292629,2516506.8649727,-5170.2411738895,2735584.2444479,23.962926292629,0,0
-71.681822781828,6.856465714721,18.767356735674,2516506.8649727,-5170.2411738895,2735584.2444479,23.967356735674,0,0
-71.681822088425,6.8590486965778,18.771787178718,2509010.4520834,2579.4062051876,2726427.3967878,23.971787178718,0,0
-71.681821395698,6.8616316787239,18.776217621762,2509010.4520834,2579.4062051876,2726427.3967878,23.976217621762,0,0
-71.681820702971,6.86421466087,18.780648064806,2509010.4520834,2579.4062051876,2726427.3967878,23.980648064806,0,0
-71.681820010245,6.8667976430161,18.785078507851,2509010.4520834,2579.4062051876,2726427.3967878,23.985078507851,0,0
-71.681819317518,6.8693806251622,18.789508950895,2509010.4520834,2579.4062051876,2726427.3967878,23.989508950895,0,0
-71.681818624791,6.8719636073083,18.793939393939,2509010.4520834,2579.4062051876,2726427.3967878,23.993939393939,0,0
-71.681817932065,6.8745465894545,18.798369836984,2509010.4520834,2579.4062051876,2726427.3967878,23.998369836984,0,0
-71.681817239338,6.8771295716006,18.802800280028,2509010.4520834,2579.4062051876,2726427.3967878,24.002800280028,0,0
-71.681816546612,6.8797125537467,18.807230723072,2509010.4520834,2579.4062051876,2726427.3967878,24.007230723072,0,0
-71.681815853885,6.8822955358928,18.811661166117,2509010.4520834,2579.4062051876,2726427.3967878,24.011661166117,0,0
-71.681815161158,6.8848785180389,18.816091609161,2509010.4520834,2579.4062051876,2726427.3967878,24.016091609161,0,0
-71.681814468432,6.887461500185,18.820522052205,2509010.4520834,2579.4062051876,2726427.3967878,24.020522052205,0,0
-71.681813775705,6.8900444823311,18.82495249525,2509010.4520834,2579.4062051876,2726427.3967878,24.02495249525,0,0
-71.681813082979,6.8926274644772,18.829382938294,2509010.4520834,2579.4062051876,2726427.3967878,24.029382938294,0,0
-71.681812390252,6.8952104466233,18.833813381338,2509010.4520834,2579.4062051876,2726427.3967878,24.033813381338,0,0
-71.681811697525,6.8977934287694,18.838243824382,2509010.4520834,2579.4062051876,2726427.3967878,24.038243824382,0,0
-71.681811004799,6.9003764109156,18.842674267427,2509010.4520834,2579.4062051876,2726427.3967878,24.042674267427,0,0
-71.681810312072,6.9029593930617,18.847104710471,2509010.4520834,2579.4062051876,2726427.3967878,24.047104710471,0,0
-71.681809619346,6.9055423752078,18.851535153515,2509010.4520834,2579.4062051876,2726427.3967878,24.051535153515,0,0
-71.681808926619,6.9081253573539,18.85596559656,2509010.4520834,2579.4062051876,2726427.3967878,24.05596559656,0,0
-71.681808233892,6.9107083395,18.860396039604,2509010.4520834,2579.4062051876,2726427.3967878,24.060396039604,0,0
-71.681807541166,6.9132913216461,18.864826482648,2509010.4520834,2579.4062051876,2726427.3967878,24.064826482648,0,0
-71.681806848439,6.9158743037922,18.869256925693,2509010.4520834,2579.4062051876,2726427.3967878,24.069256925693,0,0
-71.681806155713,6.9184572859383,18.873687368737,2509010.4520834,2579.4062051876,2726427.3967878,24.073687368737,0,0
-71.681805462986,6.9210402680844,18.878117811781,2509010.4520834,2579.4062051876,2726427.3967878,24.078117811781,0,0
-71.681804770259,6.9236232502305,18.882548254825,2509010.4520834,2579.4062051876,2726427.3967878,24.082548254825,0,0
-71.681804077533,6.9262062323767,18.88697869787,2509010.4520834,2579.4062051876,2726427.3967878,24.08697869787,0,0
-71.681803384806,6.9287892145228,18.891409140914,2509010.4520834,2579.4062051876,2726427.3967878,24.091409140914,0,0
-71.681802692079,6.9313721966689,18.895839583958,2509010.4520834,2579.4062051876,2726427.3967878,24.095839583958,0,0
-71.681801999353,6.933955178815,18.900270027003,2509010.4520834,2579.4062051876,2726427.3967878,24.100270027003,0,0
-71.681801306626,6.9365381609611,18.904700470047,2509010.4520834,2579.4062051876,2726427.3967878,24.104700470047,0,0
-71.6818006139,6.9391211431072,18.909130913091,2509010.4520834,2579.4062051876,2726427.3967878,24.109130913091,0,0
-71.681799921173,6.9417041252533,18.913561356136,2509010.4520834,2579.4062051876,2726427.3967878,24.113561356136,0,0
-71.681799228446,6.9442871073994,18.91799179918,2509010.4520834,2579.4062051876,2726427.3967878,24.11799179918,0,0
-71.68179853572,6.9468700895455,18.922422242224,2509010.4520834,2579.4062051876,2726427.3967878,24.122422242224,0,0
-71.681797842993,6.9494530716916,18.926852685269,2509010.4520834,2579.4062051876,2726427.3967878,24.126852685269,0,0
-71.681797150267,6.9520360538377,18.931283128313,2509010.4520834,2579.4062051876,2726427.3967878,24.131283128313,0,0
-71.68179645754,6.9546190359839,18.935713571357,2509010.4520834,2579.4062051876,2726427.3967878,24.135713571357,0,0
-71.681795764813,6.95720201813,18.940144014401,2509010.4520834,2579.4062051876,2726427.3967878,24.140144014401,0,0
-71.681795072087,6.9597850002761,18.944574457446,2509010.4520834,2579.4062051876,2726427.3967878,24.144574457446,0,0
-71.68179437936,6.9623679824222,18.94900490049,2509010.4520834,2579.4062051876,2726427.3967878,24.14900490049,0,0
-71.681793686634,6.9649509645683,18.953435343534,2509010.4520834,2579.4062051876,2726427.3967878,24.153435343534,0,0
-71.681792993907,6.9675339467144,18.957865786579,2509010.4520834,2579.4062051876,2726427.3967878,24.157865786579,0,0
-71.68179230118,6.9701169288605,18.962296229623,2509010.4520834,2579.4062051876,2726427.3967878,24.162296229623,0,0
-71.681791608454,6.9726999110066,18.966726672667,2509010.4520834,2579.4062051876,2726427.3967878,24.166726672667,0,0
-71.681790915727,6.9752828931527,18.971157115712,2509010.4520834,2579.4062051876,2726427.3967878,24.171157115712,0,0
-71.681790223001,6.9778658752988,18.975587558756,2509010.4520834,2579.4062051876,2726427.3967878,24.175587558756,0,0
-71.681789530274,6.980448857445,18.9800180018,2509010.4520834,2579.4062051876,2726427.3967878,24.1800180018,0,0
-71.681788837547,6.9830318395911,18.984448444844,2509010.4520834,2579.4062051876,2726427.3967878,24.184448444844,0,0
-71.681788144821,6.9856148217372,18.988878887889,2509010.4520834,2579.4062051876,2726427.3967878,24.188878887889,0,0
-71.681787452094,6.9881978038833,18.993309330933,2509010.4520834,2579.4062051876,2726427.3967878,24.193309330933,0,0
-71.681786759367,6.9907807860294,18.997739773977,2509010.4520834,2579.4062051876,2726427.3967878,24.197739773977,0,0
-71.681786066641,6.9933637681755,19.002170217022,2509010.4520834,2579.4062051876,2726427.3967878,24.202170217022,0,0
-71.681785373914,6.9959467503216,19.006600660066,2509010.4520834,2579.4062051876,2726427.3967878,24.206600660066,0,0
-71.681784681188,6.9985297324677,19.01103110311,2509010.4520834,2579.4062051876,2726427.3967878,24.21103110311,0,0
-71.681783988461,7.0011127146138,19.015461546155,2509010.4520834,2579.4062051876,2726427.3967878,24.215461546155,0,0
-71.681783295734,7.0036956967599,19.019891989199,2509010.4520834,2579.4062051876,2726427.3967878,24.219891989199,0,0
-71.681782603008,7.0062786789061,19.024322432243,2509010.4520834,2579.4062051876,2726427.3967878,24.224322432243,0,0
-71.681781910281,7.0088616610522,19.028752875288,2509010.4520834,2579.4062051876,2726427.3967878,24.228752875288,0,0
-71.681781217555,7.0114446431983,19.033183318332,2509010.4520834,2579.4062051876,2726427.3967878,24.233183318332,0,0
-71.681780524828,7.0140276253444,19.037613761376,2509010.4520834,2579.4062051876,2726427.3967878,24.237613761376,0,0
-71.681779832101,7.0166106074905,19.04204420442,2509010.4520834,2579.4062051876,2726427.3967878,24.24204420442,0,0
-71.681779139375,7.0191935896366,19.046474647465,2509010.4520834,2579.4062051876,2726427.3967878,24.246474647465,0,0
-71.681778446648,7.0217765717827,19.050905090509,2509010.4520834,2579.4062051876,2726427.3967878,24.250905090509,0,0
-71.681777753922,7.0243595539288,19.055335533553,2509010.4520834,2579.4062051876,2726427.3967878,24.255335533553,0,0
-71.681777061195,7.0269425360749,19.059765976598,2509010.4520834,2579.4062051876,2726427.3967878,24.259765976598,0,0
-71.681776368468,7.029525518221,19.064196419642,2509010.4520834,2579.4062051876,2726427.3967878,24.264196419642,0,0
-71.681775675742,7.0321085003672,19.068626862686,2509010.4520834,2579.4062051876,2726427.3967878,24.268626862686,0,0
-71.681774983015,7.0346914825133,19.073057305731,2509010.4520834,2579.4062051876,2726427.3967878,24.273057305731,0,0
-71.681774290289,7.0372744646594,19.077487748775,2509010.4520834,2579.4062051876,2726427.3967878,24.277487748775,0,0
-71.681773597562,7.0398574468055,19.081918191819,2509010.4520834,2579.4062051876,2726427.3967878,24.281918191819,0,0
-71.681772904835,7.0424404289516,19.086348634863,2509010.4520834,2579.4062051876,2726427.3967878,24.286348634863,0,0
-71.681772212109,7.0450234110977,19.090779077908,2509010.4520834,2579.4062051876,2726427.3967878,24.290779077908,0,0
-71.681771519382,7.0476063932438,19.095209520952,2509010.4520834,2579.4062051876,2726427.3967878,24.295209520952,0,0
-71.681770826655,7.0501893753899,19.099639963996,2509010.4520834,2579.4062051876,2726427.3967878,24.299639963996,0,0
-71.681770133929,7.052772357536,19.104070407041,2509010.4520834,2579.4062051876,2726427.3967878,24.304070407041,0,0
-71.681769441202,7.0553553396821,19.108500850085,2509010.4520834,2579.4062051876,2726427.3967878,24.308500850085,0,0
-71.681768748476,7.0579383218283,19.112931293129,2509010.4520834,2579.4062051876,2726427.3967878,24.312931293129,0,0
-71.681768055749,7.0605213039744,19.117361736174,2509010.4520834,2579.4062051876,2726427.3967878,24.317361736174,0,0
-71.681767363022,7.0631042861205,19.121792179218,2509010.4520834,2579.4062051876,2726427.3967878,24.321792179218,0,0
-71.681766670296,7.0656872682666,19.126222622262,2509010.4520834,2579.4062051876,2726427.3967878,24.326222622262,0,0
-71.681765977569,7.0682702504127,19.130653065307,2509010.4520834,2579.4062051876,2726427.3967878,24.330653065307,0,0
-71.681765284843,7.0708532325588,19.135083508351,2509010.4520834,2579.4062051876,2726427.3967878,24.335083508351,0,0
-71.681764592116,7.0734362147049,19.139513951395,2509010.4520834,2579.4062051876,2726427.3967878,24.339513951395,0,0
-71.681763899389,7.076019196851,19.143944394439,2509010.4520834,2579.4062051876,2726427.3967878,24.343944394439,0,0
-71.681763206663,7.0786021789971,19.148374837484,2509010.4520834,2579.4062051876,2726427.3967878,24.348374837484,0,0
-71.681762513936,7.0811851611432,19.152805280528,2509010.4520834,2579.4062051876,2726427.3967878,24.352805280528,0,0
-71.68176182121,7.0837681432894,19.157235723572,2509010.4520834,2579.4062051876,2726427.3967878,24.357235723572,0,0
-71.681761128483,7.0863511254355,19.161666166617,2509010.4520834,2579.4062051876,2726427.3967878,24.361666166617,0,0
-71.681760435756,7.0889341075816,19.166096609661,2509010.4520834,2579.4062051876,2726427.3967878,24.366096609661,0,0
-71.68175974303,7.0915170897277,19.170527052705,2509010.4520834,2579.4062051876,2726427.3967878,24.370527052705,0,0
-71.681759050303,7.0941000718738,19.17495749575,2509010.4520834,2579.4062051876,2726427.3967878,24.37495749575,0,0
-71.681758357577,7.0966830540199,19.179387938794,2509010.4520834,2579.4062051876,2726427.3967878,24.379387938794,0,0
-71.68175766485,7.099266036166,19.183818381838,2509010.4520834,2579.4062051876,2726427.3967878,24.383818381838,0,0
-71.681756972123,7.1018490183121,19.188248824882,2509010.4520834,2579.4062051876,2726427.3967878,24.388248824882,0,0
-71.681756279397,7.1044320004582,19.192679267927,2509010.4520834,2579.4062051876,2726427.3967878,24.392679267927,0,0
-71.68175558667,7.1070149826043,19.197109710971,2509010.4520834,2579.4062051876,2726427.3967878,24.397109710971,0,0
-71.681754893943,7.1095979647505,19.201540154015,2509010.4520834,2579.4062051876,2726427.3967878,24.401540154015,0,0
-71.681754201217,7.1121809468966,19.20597059706,2509010.4520834,2579.4062051876,2726427.3967878,24.40597059706,0,0
-71.68175350849,7.1147639290427,19.210401040104,2509010.4520834,2579.4062051876,2726427.3967878,24.410401040104,0,0
-71.681752815764,7.1173469111888,19.214831483148,2509010.4520834,2579.4062051876,2726427.3967878,24.414831483148,0,0
-71.681752123037,7.1199298933349,19.219261926193,2509010.4520834,2579.4062051876,2726427.3967878,24.419261926193,0,0
-71.68175143031,7.122512875481,19.223692369237,2509010.4520834,2579.4062051876,2726427.3967878,24.423692369237,0,0
-71.681750737584,7.1250958576271,19.228122812281,2509010.4520834,2579.4062051876,2726427.3967878,24.428122812281,0,0
-71.681750044857,7.1276788397732,19.232553255326,2509010.4520834,2579.4062051876,2726427.3967878,24.432553255326,0,0
-71.681749352131,7.1302618219193,19.23698369837,2509010.4520834,2579.4062051876,2726427.3967878,24.43698369837,0,0
-71.681748659404,7.1328448040654,19.241414141414,2509010.4520834,2579.4062051876,2726427.3967878,24.441414141414,0,0
-71.681747966677,7.1354277862116,19.245844584458,2509010.4520834,2579.4062051876,2726427.3967878,24.445844584458,0,0
-71.681747273951,7.1380107683577,19.250275027503,2509010.4520834,2579.4062051876,2726427.3967878,24.450275027503,0,0
-71.681746581224,7.1405937505038,19.254705470547,2509010.4520834,2579.4062051876,2726427.3967878,24.454705470547,0,0
-71.681745888498,7.1431767326499,19.259135913591,2509010.4520834,2579.4062051876,2726427.3967878,24.459135913591,0,0
-71.681745195771,7.145759714796,19.263566356636,2509010.4520834,2579.4062051876,2726427.3967878,24.463566356636,0,0
-71.681744503044,7.1483426969421,19.26799679968,2509010.4520834,2579.4062051876,2726427.3967878,24.46799679968,0,0
-71.681743810318,7.1509256790882,19.272427242724,2509010.4520834,2579.4062051876,2726427.3967878,24.472427242724,0,0
-71.681743117591,7.1535086612343,19.276857685769,2509010.4520834,2579.4062051876,2726427.3967878,24.476857685769,0,0
-71.681742424865,7.1560916433804,19.281288128813,2509010.4520834,2579.4062051876,2726427.3967878,24.481288128813,0,0
-71.681741732138,7.1586746255265,19.285718571857,2509010.4520834,2579.4062051876,2726427.3967878,24.485718571857,0,0
-71.681741039411,7.1612576076727,19.290149014901,2509010.4520834,2579.4062051876,2726427.3967878,24.490149014901,0,0
-71.681740346685,7.1638405898188,19.294579457946,2509010.4520834,2579.4062051876,2726427.3967878,24.494579457946,0,0
-71.681739653958,7.1664235719649,19.29900990099,2509010.4520834,2579.4062051876,2726427.3967878,24.49900990099,0,0
-71.681738961231,7.169006554111,19.303440344034,2509010.4520834,2579.4062051876,2726427.3967878,24.503440344034,0,0
-71.681738268505,7.1715895362571,19.307870787079,2509010.4520834,2579.4062051876,2726427.3967878,24.507870787079,0,0
-71.681737575778,7.1741725184032,19.312301230123,2509010.4520834,2579.4062051876,2726427.3967878,24.512301230123,0,0
-71.681736883052,7.1767555005493,19.316731673167,2509010.4520834,2579.4062051876,2726427.3967878,24.516731673167,0,0
-71.681736190325,7.1793384826954,19.321162116212,2509010.4520834,2579.4062051876,2726427.3967878,24.521162116212,0,0
-71.681735497598,7.1819214648415,19.325592559256,2509010.4520834,2579.4062051876,2726427.3967878,24.525592559256,0,0
-71.681734804872,7.1845044469876,19.3300230023,2509010.4520834,2579.4062051876,2726427.3967878,24.5300230023,0,0
-71.681734112145,7.1870874291337,19.334453445345,2509010.4520834,2579.4062051876,2726427.3967878,24.534453445345,0,0
-71.681733419419,7.1896704112799,19.338883888389,2509010.4520834,2579.4062051876,2726427.3967878,24.538883888389,0,0
-71.681732726692,7.192253393426,19.343314331433,2509010.4520834,2579.4062051876,2726427.3967878,24.543314331433,0,0
-71.681732033965,7.1948363755721,19.347744774477,2509010.4520834,2579.4062051876,2726427.3967878,24.547744774477,0,0
-71.681731341239,7.1974193577182,19.352175217522,2509010.4520834,2579.4062051876,2726427.3967878,24.552175217522,0,0
-71.681730648512,7.2000023398643,19.356605660566,2509010.4520834,2579.4062051876,2726427.3967878,24.556605660566,0,0
-71.681729955786,7.2025853220104,19.36103610361,2509010.4520834,2579.4062051876,2726427.3967878,24.56103610361,0,0
-71.681729263059,7.2051683041565,19.365466546655,2509010.4520834,2579.4062051876,2726427.3967878,24.565466546655,0,0
-71.681728570332,7.2077512863026,19.369896989699,2509010.4520834,2579.4062051876,2726427.3967878,24.569896989699,0,0
-71.681727877606,7.2103342684487,19.374327432743,2509010.4520834,2579.4062051876,2726427.3967878,24.574327432743,0,0
-71.681727184879,7.2129172505948,19.378757875788,2509010.4520834,2579.4062051876,2726427.3967878,24.578757875788,0,0
-71.681726492153,7.215500232741,19.383188318832,2509010.4520834,2579.4062051876,2726427.3967878,24.583188318832,0,0
-71.681725799426,7.2180832148871,19.387618761876,2509010.4520834,2579.4062051876,2726427.3967878,24.587618761876,0,0
-71.681725106699,7.2206661970332,19.39204920492,2509010.4520834,2579.4062051876,2726427.3967878,24.59204920492,0,0
-71.681724413973,7.2232491791793,19.396479647965,2509010.4520834,2579.4062051876,2726427.3967878,24.596479647965,0,0
-71.681723721246,7.2258321613254,19.400910091009,2509010.4520834,2579.4062051876,2726427.3967878,24.600910091009,0,0
-71.681723028519,7.2284151434715,19.405340534053,2509010.4520834,2579.4062051876,2726427.3967878,24.605340534053,0,0
-71.681722335793,7.2309981256176,19.409770977098,2509010.4520834,2579.4062051876,2726427.3967878,24.609770977098,0,0
-71.681721643066,7.2335811077637,19.414201420142,2509010.4520834,2579.4062051876,2726427.3967878,24.614201420142,0,0
-71.68172095034,7.2361640899098,19.418631863186,2509010.4520834,2579.4062051876,2726427.3967878,24.618631863186,0,0
-71.681720257613,7.2387470720559,19.423062306231,2509010.4520834,2579.4062051876,2726427.3967878,24.623062306231,0,0
-71.681719564886,7.2413300542021,19.427492749275,2509010.4520834,2579.4062051876,2726427.3967878,24.627492749275,0,0
-71.68171887216,7.2439130363482,19.431923192319,2509010.4520834,2579.4062051876,2726427.3967878,24.631923192319,0,0
-71.681718179433,7.2464960184943,19.436353635364,2509010.4520834,2579.4062051876,2726427.3967878,24.636353635364,0,0
-71.681717486707,7.2490790006404,19.440784078408,2509010.4520834,2579.4062051876,2726427.3967878,24.640784078408,0,0
-71.68171679398,7.2516619827865,19.445214521452,2509010.4520834,2579.4062051876,2726427.3967878,24.645214521452,0,0
-71.681716101253,7.2542449649326,19.449644964496,2509010.4520834,2579.4062051876,2726427.3967878,24.649644964496,0,0
-71.681715408527,7.2568279470787,19.454075407541,2509010.4520834,2579.4062051876,2726427.3967878,24.654075407541,0,0
-71.6817147158,7.2594109292248,19.458505850585,2509010.4520834,2579.4062051876,2726427.3967878,24.658505850585,0,0
-71.681714023074,7.2619939113709,19.462936293629,2509010.4520834,2579.4062051876,2726427.3967878,24.662936293629,0,0
-71.681713330347,7.264576893517,19.467366736674,2509010.4520834,2579.4062051876,2726427.3967878,24.667366736674,0,0
-71.68171263762,7.2671598756632,19.471797179718,2509010.4520834,2579.4062051876,2726427.3967878,24.671797179718,0,0
-71.681711944894,7.2697428578093,19.476227622762,2509010.4520834,2579.4062051876,2726427.3967878,24.676227622762,0,0
-71.681711252167,7.2723258399554,19.480658065807,2509010.4520834,2579.4062051876,2726427.3967878,24.680658065807,0,0
-71.681710559441,7.2749088221015,19.485088508851,2509010.4520834,2579.4062051876,2726427.3967878,24.685088508851,0,0
-71.681709866714,7.2774918042476,19.489518951895,2509010.4520834,2579.4062051876,2726427.3967878,24.689518951895,0,0
-71.681709173987,7.2800747863937,19.493949394939,2509010.4520834,2579.4062051876,2726427.3967878,24.693949394939,0,0
-71.681708481261,7.2826577685398,19.498379837984,2509010.4520834,2579.4062051876,2726427.3967878,24.698379837984,0,0
-71.681707788534,7.2852407506859,19.502810281028,2509010.4520834,2579.4062051876,2726427.3967878,24.702810281028,0,0
-71.681707095807,7.287823732832,19.507240724072,2509010.4520834,2579.4062051876,2726427.3967878,24.707240724072,0,0
-71.681706403081,7.2904067149781,19.511671167117,2509010.4520834,2579.4062051876,2726427.3967878,24.711671167117,0,0
-71.681705710354,7.2929896971243,19.516101610161,2509010.4520834,2579.4062051876,2726427.3967878,24.716101610161,0,0
-71.681705017628,7.2955726792704,19.520532053205,2509010.4520834,2579.4062051876,2726427.3967878,24.720532053205,0,0
-71.681704324901,7.2981556614165,19.52496249625,2509010.4520834,2579.4062051876,2726427.3967878,24.72496249625,0,0
-71.681703632174,7.3007386435626,19.529392939294,2509010.4520834,2579.4062051876,2726427.3967878,24.729392939294,0,0
-71.681702939448,7.3033216257087,19.533823382338,2509010.4520834,2579.4062051876,2726427.3967878,24.733823382338,0,0
-71.681702246721,7.3059046078548,19.538253825383,2509010.4520834,2579.4062051876,2726427.3967878,24.738253825383,0,0
-71.681701553995,7.3084875900009,19.542684268427,2509010.4520834,2579.4062051876,2726427.3967878,24.742684268427,0,0
-71.681700861268,7.311070572147,19.547114711471,2509010.4520834,2579.4062051876,2726427.3967878,24.747114711471,0,0
-71.681700168541,7.3136535542931,19.551545154515,2509010.4520834,2579.4062051876,2726427.3967878,24.751545154515,0,0
-71.681699475815,7.3162365364392,19.55597559756,2509010.4520834,2579.4062051876,2726427.3967878,24.75597559756,0,0
-71.681698783088,7.3188195185854,19.560406040604,2509010.4520834,2579.4062051876,2726427.3967878,24.760406040604,0,0
-71.681698090362,7.3214025007315,19.564836483648,2509010.4520834,2579.4062051876,2726427.3967878,24.764836483648,0,0
-71.681697397635,7.3239854828776,19.569266926693,2509010.4520834,2579.4062051876,2726427.3967878,24.769266926693,0,0
-71.681696702697,7.3265684673717,19.573697369737,2522164.3377713,6601.2962587147,2725133.5006244,24.773697369737,0,0
-71.681696007509,7.3291514521315,19.578127812781,2522164.3377713,6601.2962587147,2725133.5006244,24.778127812781,0,0
-71.681695312321,7.3317344368913,19.582558255826,2522164.3377713,6601.2962587147,2725133.5006244,24.782558255826,0,0
-71.681694617133,7.3343174216511,19.58698869887,2522164.3377713,6601.2962587147,2725133.5006244,24.78698869887,0,0
-71.681693921945,7.336900406411,19.591419141914,2522164.3377713,6601.2962587147,2725133.5006244,24.791419141914,0,0
-71.681693226757,7.3394833911708,19.595849584958,2522164.3377713,6601.2962587147,2725133.5006244,24.795849584958,0,0
-71.681692531569,7.3420663759306,19.600280028003,2522164.3377713,6601.2962587147,2725133.5006244,24.800280028003,0,0
-71.68169183638,7.3446493606904,19.604710471047,2522164.3377713,6601.2962587147,2725133.5006244,24.804710471047,0,0
-71.681691141192,7.3472323454502,19.609140914091,2522164.3377713,6601.2962587147,2725133.5006244,24.809140914091,0,0
-71.681690446004,7.34981533021,19.613571357136,2522164.3377713,6601.2962587147,2725133.5006244,24.813571357136,0,0
-71.681689750816,7.3523983149699,19.61800180018,2522164.3377713,6601.2962587147,2725133.5006244,24.81800180018,0,0
-71.681689055628,7.3549812997297,19.622432243224,2522164.3377713,6601.2962587147,2725133.5006244,24.822432243224,0,0
-71.68168836044,7.3575642844895,19.626862686269,2522164.3377713,6601.2962587147,2725133.5006244,24.826862686269,0,0
-71.681687665252,7.3601472692493,19.631293129313,2522164.3377713,6601.2962587147,2725133.5006244,24.831293129313,0,0
-71.681686970064,7.3627302540091,19.635723572357,2522164.3377713,6601.2962587147,2725133.5006244,24.835723572357,0,0
-71.681686274876,7.3653132387689,19.640154015402,2522164.3377713,6601.2962587147,2725133.5006244,24.840154015402,0,0
-71.681685579688,7.3678962235288,19.644584458446,2522164.3377713,6601.2962587147,2725133.5006244,24.844584458446,0,0
-71.6816848845,7.3704792082886,19.64901490149,2522164.3377713,6601.2962587147,2725133.5006244,24.84901490149,0,0
-71.681684189311,7.3730621930484,19.653445344534,2522164.3377713,6601.2962587147,2725133.5006244,24.853445344534,0,0
-71.681683494123,7.3756451778082,19.657875787579,2522164.3377713,6601.2962587147,2725133.5006244,24.857875787579,0,0
-71.681682798935,7.378228162568,19.662306230623,2522164.3377713,6601.2962587147,2725133.5006244,24.862306230623,0,0
-71.681682103747,7.3808111473278,19.666736673667,2522164.3377713,6601.2962587147,2725133.5006244,24.866736673667,0,0
-71.681681408559,7.3833941320876,19.671167116712,2522164.3377713,6601.2962587147,2725133.5006244,24.871167116712,0,0
-71.681680713371,7.3859771168475,19.675597559756,2522164.3377713,6601.2962587147,2725133.5006244,24.875597559756,0,0
-71.681680018183,7.3885601016073,19.6800280028,2522164.3377713,6601.2962587147,2725133.5006244,24.8800280028,0,0
-71.681679322995,7.3911430863671,19.684458445845,2522164.3377713,6601.2962587147,2725133.5006244,24.884458445845,0,0
-71.681678627807,7.3937260711269,19.688888888889,2522164.3377713,6601.2962587147,2725133.5006244,24.888888888889,0,0
-71.681677932619,7.3963090558867,19.693319331933,2522164.3377713,6601.2962587147,2725133.5006244,24.893319331933,0,0
-71.68167723743,7.3988920406465,19.697749774977,2522164.3377713,6601.2962587147,2725133.5006244,24.897749774977,0,0
-71.681676542242,7.4014750254064,19.702180218022,2522164.3377713,6601.2962587147,2725133.5006244,24.902180218022,0,0
-71.681675847054,7.4040580101662,19.706610661066,2522164.3377713,6601.2962587147,2725133.5006244,24.906610661066,0,0
-71.681675151866,7.406640994926,19.71104110411,2522164.3377713,6601.2962587147,2725133.5006244,24.91104110411,0,0
-71.681674456678,7.4092239796858,19.715471547155,2522164.3377713,6601.2962587147,2725133.5006244,24.915471547155,0,0
-71.68167376149,7.4118069644456,19.719901990199,2522164.3377713,6601.2962587147,2725133.5006244,24.919901990199,0,0
-71.681673066302,7.4143899492054,19.724332433243,2522164.3377713,6601.2962587147,2725133.5006244,24.924332433243,0,0
-71.681672371114,7.4169729339653,19.728762876288,2522164.3377713,6601.2962587147,2725133.5006244,24.928762876288,0,0
-71.681671675926,7.4195559187251,19.733193319332,2522164.3377713,6601.2962587147,2725133.5006244,24.933193319332,0,0
-71.681670980738,7.4221389034849,19.737623762376,2522164.3377713,6601.2962587147,2725133.5006244,24.937623762376,0,0
-71.68167028555,7.4247218882447,19.742054205421,2522164.3377713,6601.2962587147,2725133.5006244,24.942054205421,0,0
-71.681669590361,7.4273048730045,19.746484648465,2522164.3377713,6601.2962587147,2725133.5006244,24.946484648465,0,0
-71.681668895173,7.4298878577643,19.750915091509,2522164.3377713,6601.2962587147,2725133.5006244,24.950915091509,0,0
-71.681668199985,7.4324708425241,19.755345534553,2522164.3377713,6601.2962587147,2725133.5006244,24.955345534553,0,0
-71.681667504797,7.435053827284,19.759775977598,2522164.3377713,6601.2962587147,2725133.5006244,24.959775977598,0,0
-71.681666809609,7.4376368120438,19.764206420642,2522164.3377713,6601.2962587147,2725133.5006244,24.964206420642,0,0
-71.681666114421,7.4402197968036,19.768636863686,2522164.3377713,6601.2962587147,2725133.5006244,24.968636863686,0,0
-71.681665419233,7.4428027815634,19.773067306731,2522164.3377713,6601.2962587147,2725133.5006244,24.973067306731,0,0
-71.681664724045,7.4453857663232,19.777497749775,2522164.3377713,6601.2962587147,2725133.5006244,24.977497749775,0,0
-71.681664028857,7.447968751083,19.781928192819,2522164.3377713,6601.2962587147,2725133.5006244,24.981928192819,0,0
-71.681663333669,7.4505517358429,19.786358635864,2522164.3377713,6601.2962587147,2725133.5006244,24.986358635864,0,0
-71.681662638481,7.4531347206027,19.790789078908,2522164.3377713,6601.2962587147,2725133.5006244,24.990789078908,0,0
-71.681661943292,7.4557177053625,19.795219521952,2522164.3377713,6601.2962587147,2725133.5006244,24.995219521952,0,0
-71.681661248104,7.4583006901223,19.799649964996,2522164.3377713,6601.2962587147,2725133.5006244,24.999649964996,0,0
-71.681660552916,7.4608836748821,19.804080408041,2522164.3377713,6601.2962587147,2725133.5006244,25.004080408041,0,0
-71.681659857728,7.4634666596419,19.808510851085,2522164.3377713,6601.2962587147,2725133.5006244,25.008510851085,0,0
-71.68165916254,7.4660496444017,19.812941294129,2522164.3377713,6601.2962587147,2725133.5006244,25.012941294129,0,0
-71.681658467352,7.4686326291616,19.817371737174,2522164.3377713,6601.2962587147,2725133.5006244,25.017371737174,0,0
-71.681657771874,7.4712156130079,19.821802180218,2524737.3612834,1946.1933759198,2717054.3191887,25.021802180218,0,0
-71.681657075851,7.4737985951411,19.826232623262,2524737.3612834,1946.1933759198,2717054.3191887,25.026232623262,0,0
-71.681656379828,7.4763815772742,19.830663066307,2524737.3612834,1946.1933759198,2717054.3191887,25.030663066307,0,0
-71.681655683806,7.4789645594074,19.835093509351,2524737.3612834,1946.1933759198,2717054.3191887,25.035093509351,0,0
-71.681654987783,7.4815475415406,19.839523952395,2524737.3612834,1946.1933759198,2717054.3191887,25.039523952395,0,0
-71.681654291761,7.4841305236738,19.84395439544,2524737.3612834,1946.1933759198,2717054.3191887,25.04395439544,0,0
-71.681653595738,7.486713505807,19.848384838484,2524737.3612834,1946.1933759198,2717054.3191887,25.048384838484,0,0
-71.681652899716,7.4892964879402,19.852815281528,2524737.3612834,1946.1933759198,2717054.3191887,25.052815281528,0,0
-71.681652203693,7.4918794700733,19.857245724572,2524737.3612834,1946.1933759198,2717054.3191887,25.057245724572,0,0
-71.68165150767,7.4944624522065,19.861676167617,2524737.3612834,1946.1933759198,2717054.3191887,25.061676167617,0,0
-71.681650811648,7.4970454343397,19.866106610661,2524737.3612834,1946.1933759198,2717054.3191887,25.066106610661,0,0
-71.681650115625,7.4996284164729,19.870537053705,2524737.3612834,1946.1933759198,2717054.3191887,25.070537053705,0,0
-71.681649419603,7.5022113986061,19.87496749675,2524737.3612834,1946.1933759198,2717054.3191887,25.07496749675,0,0
-71.68164872358,7.5047943807393,19.879397939794,2524737.3612834,1946.1933759198,2717054.3191887,25.079397939794,0,0
-71.681648027558,7.5073773628724,19.883828382838,2524737.3612834,1946.1933759198,2717054.3191887,25.083828382838,0,0
-71.681647331535,7.5099603450056,19.888258825883,2524737.3612834,1946.1933759198,2717054.3191887,25.088258825883,0,0
-71.681646635513,7.5125433271388,19.892689268927,2524737.3612834,1946.1933759198,2717054.3191887,25.092689268927,0,0
-71.68164593949,7.515126309272,19.897119711971,2524737.3612834,1946.1933759198,2717054.3191887,25.097119711971,0,0
-71.681645243467,7.5177092914052,19.901550155015,2524737.3612834,1946.1933759198,2717054.3191887,25.101550155015,0,0
-71.681644547445,7.5202922735384,19.90598059806,2524737.3612834,1946.1933759198,2717054.3191887,25.10598059806,0,0
-71.681643851422,7.5228752556715,19.910411041104,2524737.3612834,1946.1933759198,2717054.3191887,25.110411041104,0,0
-71.6816431554,7.5254582378047,19.914841484148,2524737.3612834,1946.1933759198,2717054.3191887,25.114841484148,0,0
-71.681642459377,7.5280412199379,19.919271927193,2524737.3612834,1946.1933759198,2717054.3191887,25.119271927193,0,0
-71.681641763355,7.5306242020711,19.923702370237,2524737.3612834,1946.1933759198,2717054.3191887,25.123702370237,0,0
-71.681641067332,7.5332071842043,19.928132813281,2524737.3612834,1946.1933759198,2717054.3191887,25.128132813281,0,0
-71.681640371309,7.5357901663374,19.932563256326,2524737.3612834,1946.1933759198,2717054.3191887,25.132563256326,0,0
-71.681639675287,7.5383731484706,19.93699369937,2524737.3612834,1946.1933759198,2717054.3191887,25.13699369937,0,0
-71.681638979264,7.5409561306038,19.941424142414,2524737.3612834,1946.1933759198,2717054.3191887,25.141424142414,0,0
-71.681638283242,7.543539112737,19.945854585459,2524737.3612834,1946.1933759198,2717054.3191887,25.145854585459,0,0
-71.681637587219,7.5461220948702,19.950285028503,2524737.3612834,1946.1933759198,2717054.3191887,25.150285028503,0,0
-71.681636891197,7.5487050770034,19.954715471547,2524737.3612834,1946.1933759198,2717054.3191887,25.154715471547,0,0
-71.681636195174,7.5512880591365,19.959145914591,2524737.3612834,1946.1933759198,2717054.3191887,25.159145914591,0,0
-71.681635499151,7.5538710412697,19.963576357636,2524737.3612834,1946.1933759198,2717054.3191887,25.163576357636,0,0
-71.681634803129,7.5564540234029,19.96800680068,2524737.3612834,1946.1933759198,2717054.3191887,25.16800680068,0,0
-71.681634107106,7.5590370055361,19.972437243724,2524737.3612834,1946.1933759198,2717054.3191887,25.172437243724,0,0
-71.681633411084,7.5616199876693,19.976867686769,2524737.3612834,1946.1933759198,2717054.3191887,25.176867686769,0,0
-71.681632715061,7.5642029698025,19.981298129813,2524737.3612834,1946.1933759198,2717054.3191887,25.181298129813,0,0
-71.681632019039,7.5667859519356,19.985728572857,2524737.3612834,1946.1933759198,2717054.3191887,25.185728572857,0,0
-71.681631323016,7.5693689340688,19.990159015902,2524737.3612834,1946.1933759198,2717054.3191887,25.190159015902,0,0
-71.681630626993,7.571951916202,19.994589458946,2524737.3612834,1946.1933759198,2717054.3191887,25.194589458946,0,0
-71.681629930971,7.5745348983352,19.99901990199,2524737.3612834,1946.1933759198,2717054.3191887,25.19901990199,0,0
-71.681629234948,7.5771178804684,20.003450345035,2524737.3612834,1946.1933759198,2717054.3191887,25.203450345035,0,0
-71.681628538926,7.5797008626016,20.007880788079,2524737.3612834,1946.1933759198,2717054.3191887,25.207880788079,0,0
-71.681627842903,7.5822838447347,20.012311231123,2524737.3612834,1946.1933759198,2717054.3191887,25.212311231123,0,0
-71.681627146881,7.5848668268679,20.016741674167,2524737.3612834,1946.1933759198,2717054.3191887,25.216741674167,0,0
-71.681626450858,7.5874498090011,20.021172117212,2524737.3612834,1946.1933759198,2717054.3191887,25.221172117212,0,0
-71.681625754835,7.5900327911343,20.025602560256,2524737.3612834,1946.1933759198,2717054.3191887,25.225602560256,0,0
-71.681625058813,7.5926157732675,20.0300330033,2524737.3612834,1946.1933759198,2717054.3191887,25.2300330033,0,0
-71.68162436279,7.5951987554007,20.034463446345,2524737.3612834,1946.1933759198,2717054.3191887,25.234463446345,0,0
-71.681623666768,7.5977817375338,20.038893889389,2524737.3612834,1946.1933759198,2717054.3191887,25.238893889389,0,0
-71.681622970745,7.600364719667,20.043324332433,2524737.3612834,1946.1933759198,2717054.3191887,25.243324332433,0,0
-71.681622274723,7.6029477018002,20.047754775478,2524737.3612834,1946.1933759198,2717054.3191887,25.247754775478,0,0
-71.6816215787,7.6055306839334,20.052185218522,2524737.3612834,1946.1933759198,2717054.3191887,25.252185218522,0,0
-71.681620882677,7.6081136660666,20.056615661566,2524737.3612834,1946.1933759198,2717054.3191887,25.256615661566,0,0
-71.681620186655,7.6106966481998,20.06104610461,2524737.3612834,1946.1933759198,2717054.3191887,25.26104610461,0,0
-71.681619490632,7.6132796303329,20.065476547655,2524737.3612834,1946.1933759198,2717054.3191887,25.265476547655,0,0
-71.68161879461,7.6158626124661,20.069906990699,2524737.3612834,1946.1933759198,2717054.3191887,25.269906990699,0,0
-71.681618098587,7.6184455945993,20.074337433743,2524737.3612834,1946.1933759198,2717054.3191887,25.274337433743,0,0
-71.681617402565,7.6210285767325,20.078767876788,2524737.3612834,1946.1933759198,2717054.3191887,25.278767876788,0,0
-71.681616706542,7.6236115588657,20.083198319832,2524737.3612834,1946.1933759198,2717054.3191887,25.283198319832,0,0
-71.681616010519,7.6261945409988,20.087628762876,2524737.3612834,1946.1933759198,2717054.3191887,25.287628762876,0,0
-71.681615314497,7.628777523132,20.092059205921,2524737.3612834,1946.1933759198,2717054.3191887,25.292059205921,0,0
-71.681614618474,7.6313605052652,20.096489648965,2524737.3612834,1946.1933759198,2717054.3191887,25.296489648965,0,0
-71.681613922452,7.6339434873984,20.100920092009,2524737.3612834,1946.1933759198,2717054.3191887,25.300920092009,0,0
-71.681613226429,7.6365264695316,20.105350535054,2524737.3612834,1946.1933759198,2717054.3191887,25.305350535054,0,0
-71.681612530407,7.6391094516648,20.109780978098,2524737.3612834,1946.1933759198,2717054.3191887,25.309780978098,0,0
-71.681611834384,7.6416924337979,20.114211421142,2524737.3612834,1946.1933759198,2717054.3191887,25.314211421142,0,0
-71.681611138361,7.6442754159311,20.118641864186,2524737.3612834,1946.1933759198,2717054.3191887,25.318641864186,0,0
-71.681610442339,7.6468583980643,20.123072307231,2524737.3612834,1946.1933759198,2717054.3191887,25.323072307231,0,0
-71.681609746316,7.6494413801975,20.127502750275,2524737.3612834,1946.1933759198,2717054.3191887,25.327502750275,0,0
-71.681609050294,7.6520243623307,20.131933193319,2524737.3612834,1946.1933759198,2717054.3191887,25.331933193319,0,0
-71.681608354271,7.6546073444639,20.136363636364,2524737.3612834,1946.1933759198,2717054.3191887,25.336363636364,0,0
-71.681607658249,7.657190326597,20.140794079408,2524737.3612834,1946.1933759198,2717054.3191887,25.340794079408,0,0
-71.681606962226,7.6597733087302,20.145224522452,2524737.3612834,1946.1933759198,2717054.3191887,25.345224522452,0,0
-71.681606266203,7.6623562908634,20.149654965497,2524737.3612834,1946.1933759198,2717054.3191887,25.349654965497,0,0
-71.681605570181,7.6649392729966,20.154085408541,2524737.3612834,1946.1933759198,2717054.3191887,25.354085408541,0,0
-71.681604874158,7.6675222551298,20.158515851585,2524737.3612834,1946.1933759198,2717054.3191887,25.358515851585,0,0
-71.681604178136,7.670105237263,20.162946294629,2524737.3612834,1946.1933759198,2717054.3191887,25.362946294629,0,0
-71.681603482113,7.6726882193961,20.167376737674,2524737.3612834,1946.1933759198,2717054.3191887,25.367376737674,0,0
-71.681602786091,7.6752712015293,20.171807180718,2524737.3612834,1946.1933759198,2717054.3191887,25.371807180718,0,0
-71.681602090068,7.6778541836625,20.176237623762,2524737.3612834,1946.1933759198,2717054.3191887,25.376237623762,0,0
-71.681601394045,7.6804371657957,20.180668066807,2524737.3612834,1946.1933759198,2717054.3191887,25.380668066807,0,0
-71.681600698023,7.6830201479289,20.185098509851,2524737.3612834,1946.1933759198,2717054.3191887,25.385098509851,0,0
-71.681600002,7.6856031300621,20.189528952895,2524737.3612834,1946.1933759198,2717054.3191887,25.389528952895,0,0
-71.681599305978,7.6881861121952,20.19395939594,2524737.3612834,1946.1933759198,2717054.3191887,25.39395939594,0,0
-71.681598609955,7.6907690943284,20.198389838984,2524737.3612834,1946.1933759198,2717054.3191887,25.398389838984,0,0
-71.681597913933,7.6933520764616,20.202820282028,2524737.3612834,1946.1933759198,2717054.3191887,25.402820282028,0,0
-71.68159721791,7.6959350585948,20.207250725073,2524737.3612834,1946.1933759198,2717054.3191887,25.407250725073,0,0
-71.681596521887,7.698518040728,20.211681168117,2524737.3612834,1946.1933759198,2717054.3191887,25.411681168117,0,0
-71.681595825865,7.7011010228611,20.216111611161,2524737.3612834,1946.1933759198,2717054.3191887,25.416111611161,0,0
-71.681595129842,7.7036840049943,20.220542054205,2524737.3612834,1946.1933759198,2717054.3191887,25.420542054205,0,0
-71.68159443382,7.7062669871275,20.22497249725,2524737.3612834,1946.1933759198,2717054.3191887,25.42497249725,0,0
-71.681593737797,7.7088499692607,20.229402940294,2524737.3612834,1946.1933759198,2717054.3191887,25.429402940294,0,0
-71.681593041775,7.7114329513939,20.233833383338,2524737.3612834,1946.1933759198,2717054.3191887,25.433833383338,0,0
-71.681592345752,7.7140159335271,20.238263826383,2524737.3612834,1946.1933759198,2717054.3191887,25.438263826383,0,0
-71.681591649729,7.7165989156602,20.242694269427,2524737.3612834,1946.1933759198,2717054.3191887,25.442694269427,0,0
-71.681590953707,7.7191818977934,20.247124712471,2524737.3612834,1946.1933759198,2717054.3191887,25.447124712471,0,0
-71.681590257684,7.7217648799266,20.251555155516,2524737.3612834,1946.1933759198,2717054.3191887,25.451555155516,0,0
-71.681589561662,7.7243478620598,20.25598559856,2524737.3612834,1946.1933759198,2717054.3191887,25.45598559856,0,0
-71.681588865639,7.726930844193,20.260416041604,2524737.3612834,1946.1933759198,2717054.3191887,25.460416041604,0,0
-71.681588169617,7.7295138263262,20.264846484648,2524737.3612834,1946.1933759198,2717054.3191887,25.464846484648,0,0
-71.681587473594,7.7320968084593,20.269276927693,2524737.3612834,1946.1933759198,2717054.3191887,25.469276927693,0,0
-71.681586777572,7.7346797905925,20.273707370737,2524737.3612834,1946.1933759198,2717054.3191887,25.473707370737,0,0
-71.681586081549,7.7372627727257,20.278137813781,2524737.3612834,1946.1933759198,2717054.3191887,25.478137813781,0,0
-71.681585385526,7.7398457548589,20.282568256826,2524737.3612834,1946.1933759198,2717054.3191887,25.482568256826,0,0
-71.681584689504,7.7424287369921,20.28699869987,2524737.3612834,1946.1933759198,2717054.3191887,25.48699869987,0,0
-71.681583993481,7.7450117191253,20.291429142914,2524737.3612834,1946.1933759198,2717054.3191887,25.491429142914,0,0
-71.681583297459,7.7475947012584,20.295859585959,2524737.3612834,1946.1933759198,2717054.3191887,25.495859585959,0,0
-71.681582601436,7.7501776833916,20.300290029003,2524737.3612834,1946.1933759198,2717054.3191887,25.500290029003,0,0
-71.681581905414,7.7527606655248,20.304720472047,2524737.3612834,1946.1933759198,2717054.3191887,25.504720472047,0,0
-71.681581209391,7.755343647658,20.309150915092,2524737.3612834,1946.1933759198,2717054.3191887,25.509150915092,0,0
-71.681580513368,7.7579266297912,20.313581358136,2524737.3612834,1946.1933759198,2717054.3191887,25.513581358136,0,0
-71.681579817346,7.7605096119244,20.31801180118,2524737.3612834,1946.1933759198,2717054.3191887,25.51801180118,0,0
-71.681579121323,7.7630925940575,20.322442244224,2524737.3612834,1946.1933759198,2717054.3191887,25.522442244224,0,0
-71.681578425301,7.7656755761907,20.326872687269,2524737.3612834,1946.1933759198,2717054.3191887,25.526872687269,0,0
-71.681577729278,7.7682585583239,20.331303130313,2524737.3612834,1946.1933759198,2717054.3191887,25.531303130313,0,0
-71.681577033256,7.7708415404571,20.335733573357,2524737.3612834,1946.1933759198,2717054.3191887,25.535733573357,0,0
-71.681576337233,7.7734245225903,20.340164016402,2524737.3612834,1946.1933759198,2717054.3191887,25.540164016402,0,0
-71.68157564121,7.7760075047235,20.344594459446,2524737.3612834,1946.1933759198,2717054.3191887,25.544594459446,0,0
-71.681574945188,7.7785904868566,20.34902490249,2524737.3612834,1946.1933759198,2717054.3191887,25.54902490249,0,0
-71.681574249165,7.7811734689898,20.353455345535,2524737.3612834,1946.1933759198,2717054.3191887,25.553455345535,0,0
-71.681573553143,7.783756451123,20.357885788579,2524737.3612834,1946.1933759198,2717054.3191887,25.557885788579,0,0
-71.68157285712,7.7863394332562,20.362316231623,2524737.3612834,1946.1933759198,2717054.3191887,25.562316231623,0,0
-71.681572161098,7.7889224153894,20.366746674667,2524737.3612834,1946.1933759198,2717054.3191887,25.566746674667,0,0
-71.681571465075,7.7915053975225,20.371177117712,2524737.3612834,1946.1933759198,2717054.3191887,25.571177117712,0,0
-71.681570769052,7.7940883796557,20.375607560756,2524737.3612834,1946.1933759198,2717054.3191887,25.575607560756,0,0
-71.68157007303,7.7966713617889,20.3800380038,2524737.3612834,1946.1933759198,2717054.3191887,25.5800380038,0,0
-71.681569377007,7.7992543439221,20.384468446845,2524737.3612834,1946.1933759198,2717054.3191887,25.584468446845,0,0
-71.681568680985,7.8018373260553,20.388898889889,2524737.3612834,1946.1933759198,2717054.3191887,25.588898889889,0,0
-71.681567984962,7.8044203081885,20.393329332933,2524737.3612834,1946.1933759198,2717054.3191887,25.593329332933,0,0
-71.68156728894,7.8070032903216,20.397759775978,2524737.3612834,1946.1933759198,2717054.3191887,25.597759775978,0,0
-71.681566592917,7.8095862724548,20.402190219022,2524737.3612834,1946.1933759198,2717054.3191887,25.602190219022,0,0
-71.681565896894,7.812169254588,20.406620662066,2524737.3612834,1946.1933759198,2717054.3191887,25.606620662066,0,0
-71.681565200872,7.8147522367212,20.411051105111,2524737.3612834,1946.1933759198,2717054.3191887,25.611051105111,0,0
-71.681564504849,7.8173352188544,20.415481548155,2524737.3612834,1946.1933759198,2717054.3191887,25.615481548155,0,0
-71.681563808827,7.8199182009876,20.419911991199,2524737.3612834,1946.1933759198,2717054.3191887,25.619911991199,0,0
-71.681563112804,7.8225011831207,20.424342434243,2524737.3612834,1946.1933759198,2717054.3191887,25.624342434243,0,0
-71.681562416782,7.8250841652539,20.428772877288,2524737.3612834,1946.1933759198,2717054.3191887,25.628772877288,0,0
-71.681561720759,7.8276671473871,20.433203320332,2524737.3612834,1946.1933759198,2717054.3191887,25.633203320332,0,0
-71.681561024736,7.8302501295203,20.437633763376,2524737.3612834,1946.1933759198,2717054.3191887,25.637633763376,0,0
-71.681560328714,7.8328331116535,20.442064206421,2524737.3612834,1946.1933759198,2717054.3191887,25.642064206421,0,0
-71.681559632691,7.8354160937867,20.446494649465,2524737.3612834,1946.1933759198,2717054.3191887,25.646494649465,0,0
-71.681558936669,7.8379990759198,20.450925092509,2524737.3612834,1946.1933759198,2717054.3191887,25.650925092509,0,0
-71.681558240646,7.840582058053,20.455355535554,2524737.3612834,1946.1933759198,2717054.3191887,25.655355535554,0,0
-71.681557544624,7.8431650401862,20.459785978598,2524737.3612834,1946.1933759198,2717054.3191887,25.659785978598,0,0
-71.681556848601,7.8457480223194,20.464216421642,2524737.3612834,1946.1933759198,2717054.3191887,25.664216421642,0,0
-71.681556152578,7.8483310044526,20.468646864686,2524737.3612834,1946.1933759198,2717054.3191887,25.668646864686,0,0
-71.681555456556,7.8509139865858,20.473077307731,2524737.3612834,1946.1933759198,2717054.3191887,25.673077307731,0,0
-71.681554760533,7.8534969687189,20.477507750775,2524737.3612834,1946.1933759198,2717054.3191887,25.677507750775,0,0
-71.681554064511,7.8560799508521,20.481938193819,2524737.3612834,1946.1933759198,2717054.3191887,25.681938193819,0,0
-71.681553368488,7.8586629329853,20.486368636864,2524737.3612834,1946.1933759198,2717054.3191887,25.686368636864,0,0
-71.681552672466,7.8612459151185,20.490799079908,2524737.3612834,1946.1933759198,2717054.3191887,25.690799079908,0,0
-71.681551976443,7.8638288972517,20.495229522952,2524737.3612834,1946.1933759198,2717054.3191887,25.695229522952,0,0
-71.68155128042,7.8664118793848,20.499659965997,2524737.3612834,1946.1933759198,2717054.3191887,25.699659965997,0,0
-71.681550584398,7.868994861518,20.504090409041,2524737.3612834,1946.1933759198,2717054.3191887,25.704090409041,0,0
-71.681549888375,7.8715778436512,20.508520852085,2524737.3612834,1946.1933759198,2717054.3191887,25.708520852085,0,0
-71.681549192353,7.8741608257844,20.51295129513,2524737.3612834,1946.1933759198,2717054.3191887,25.71295129513,0,0
-71.68154849633,7.8767438079176,20.517381738174,2524737.3612834,1946.1933759198,2717054.3191887,25.717381738174,0,0
-71.681547800308,7.8793267900508,20.521812181218,2524737.3612834,1946.1933759198,2717054.3191887,25.721812181218,0,0
-71.681547104285,7.8819097721839,20.526242624262,2524737.3612834,1946.1933759198,2717054.3191887,25.726242624262,0,0
-71.681546408262,7.8844927543171,20.530673067307,2524737.3612834,1946.1933759198,2717054.3191887,25.730673067307,0,0
-71.68154571224,7.8870757364503,20.535103510351,2524737.3612834,1946.1933759198,2717054.3191887,25.735103510351,0,0
-71.681545016217,7.8896587185835,20.539533953395,2524737.3612834,1946.1933759198,2717054.3191887,25.739533953395,0,0
-71.681544320195,7.8922417007167,20.54396439644,2524737.3612834,1946.1933759198,2717054.3191887,25.74396439644,0,0
-71.681543624172,7.8948246828499,20.548394839484,2524737.3612834,1946.1933759198,2717054.3191887,25.748394839484,0,0
-71.68154292815,7.897407664983,20.552825282528,2524737.3612834,1946.1933759198,2717054.3191887,25.752825282528,0,0
-71.681542232127,7.8999906471162,20.557255725573,2524737.3612834,1946.1933759198,2717054.3191887,25.757255725573,0,0
-71.681541536104,7.9025736292494,20.561686168617,2524737.3612834,1946.1933759198,2717054.3191887,25.761686168617,0,0
-71.681540840082,7.9051566113826,20.566116611661,2524737.3612834,1946.1933759198,2717054.3191887,25.766116611661,0,0
-71.681540144059,7.9077395935158,20.570547054705,2524737.3612834,1946.1933759198,2717054.3191887,25.770547054705,0,0
-71.681539448037,7.910322575649,20.57497749775,2524737.3612834,1946.1933759198,2717054.3191887,25.77497749775,0,0
-71.681538752014,7.9129055577821,20.579407940794,2524737.3612834,1946.1933759198,2717054.3191887,25.779407940794,0,0
-71.681538055992,7.9154885399153,20.583838383838,2524737.3612834,1946.1933759198,2717054.3191887,25.783838383838,0,0
-71.681537359969,7.9180715220485,20.588268826883,2524737.3612834,1946.1933759198,2717054.3191887,25.788268826883,0,0
-71.681536663946,7.9206545041817,20.592699269927,2524737.3612834,1946.1933759198,2717054.3191887,25.792699269927,0,0
-71.681535967924,7.9232374863149,20.597129712971,2524737.3612834,1946.1933759198,2717054.3191887,25.797129712971,0,0
-71.681535271901,7.9258204684481,20.601560156016,2524737.3612834,1946.1933759198,2717054.3191887,25.801560156016,0,0
-71.681534575879,7.9284034505812,20.60599059906,2524737.3612834,1946.1933759198,2717054.3191887,25.80599059906,0,0
-71.681533879856,7.9309864327144,20.610421042104,2524737.3612834,1946.1933759198,2717054.3191887,25.810421042104,0,0
-71.681533183834,7.9335694148476,20.614851485149,2524737.3612834,1946.1933759198,2717054.3191887,25.814851485149,0,0
-71.681532487811,7.9361523969808,20.619281928193,2524737.3612834,1946.1933759198,2717054.3191887,25.819281928193,0,0
-71.681531791789,7.938735379114,20.623712371237,2524737.3612834,1946.1933759198,2717054.3191887,25.823712371237,0,0
-71.681531095766,7.9413183612472,20.628142814281,2524737.3612834,1946.1933759198,2717054.3191887,25.828142814281,0,0
-71.681530399743,7.9439013433803,20.632573257326,2524737.3612834,1946.1933759198,2717054.3191887,25.832573257326,0,0
-71.681529703721,7.9464843255135,20.63700370037,2524737.3612834,1946.1933759198,2717054.3191887,25.83700370037,0,0
-71.681529007698,7.9490673076467,20.641434143414,2524737.3612834,1946.1933759198,2717054.3191887,25.841434143414,0,0
-71.681528311676,7.9516502897799,20.645864586459,2524737.3612834,1946.1933759198,2717054.3191887,25.845864586459,0,0
-71.681527615653,7.9542332719131,20.650295029503,2524737.3612834,1946.1933759198,2717054.3191887,25.850295029503,0,0
-71.681526919631,7.9568162540462,20.654725472547,2524737.3612834,1946.1933759198,2717054.3191887,25.854725472547,0,0
-71.681526223608,7.9593992361794,20.659155915592,2524737.3612834,1946.1933759198,2717054.3191887,25.859155915592,0,0
-71.681525527585,7.9619822183126,20.663586358636,2524737.3612834,1946.1933759198,2717054.3191887,25.863586358636,0,0
-71.681524831563,7.9645652004458,20.66801680168,2524737.3612834,1946.1933759198,2717054.3191887,25.86801680168,0,0
-71.68152413554,7.967148182579,20.672447244724,2524737.3612834,1946.1933759198,2717054.3191887,25.872447244724,0,0
-71.681523439518,7.9697311647122,20.676877687769,2524737.3612834,1946.1933759198,2717054.3191887,25.876877687769,0,0
-71.681522743495,7.9723141468453,20.681308130813,2524737.3612834,1946.1933759198,2717054.3191887,25.881308130813,0,0
-71.681522047473,7.9748971289785,20.685738573857,2524737.3612834,1946.1933759198,2717054.3191887,25.885738573857,0,0
-71.68152135145,7.9774801111117,20.690169016902,2524737.3612834,1946.1933759198,2717054.3191887,25.890169016902,0,0
-71.681520655427,7.9800630932449,20.694599459946,2524737.3612834,1946.1933759198,2717054.3191887,25.894599459946,0,0
-71.681519959405,7.9826460753781,20.69902990299,2524737.3612834,1946.1933759198,2717054.3191887,25.89902990299,0,0
-71.681519263382,7.9852290575113,20.703460346035,2524737.3612834,1946.1933759198,2717054.3191887,25.903460346035,0,0
-71.68151856736,7.9878120396444,20.707890789079,2524737.3612834,1946.1933759198,2717054.3191887,25.907890789079,0,0
-71.681517871337,7.9903950217776,20.712321232123,2524737.3612834,1946.1933759198,2717054.3191887,25.912321232123,0,0
-71.681517175315,7.9929780039108,20.716751675168,2524737.3612834,1946.1933759198,2717054.3191887,25.916751675168,0,0
-71.681516479292,7.995560986044,20.721182118212,2524737.3612834,1946.1933759198,2717054.3191887,25.921182118212,0,0
-71.681515783269,7.9981439681772,20.725612561256,2524737.3612834,1946.1933759198,2717054.3191887,25.925612561256,0,0
-71.681515087247,8.0007269503104,20.7300430043,2524737.3612834,1946.1933759198,2717054.3191887,25.9300430043,0,0
-71.681514391224,8.0033099324435,20.734473447345,2524737.3612834,1946.1933759198,2717054.3191887,25.934473447345,0,0
-71.681513695202,8.0058929145767,20.738903890389,2524737.3612834,1946.1933759198,2717054.3191887,25.938903890389,0,0
-71.681512999179,8.0084758967099,20.743334333433,2524737.3612834,1946.1933759198,2717054.3191887,25.943334333433,0,0
-71.681512303157,8.0110588788431,20.747764776478,2524737.3612834,1946.1933759198,2717054.3191887,25.947764776478,0,0
-71.681511607134,8.0136418609763,20.752195219522,2524737.3612834,1946.1933759198,2717054.3191887,25.952195219522,0,0
-71.681510911111,8.0162248431095,20.756625662566,2524737.3612834,1946.1933759198,2717054.3191887,25.956625662566,0,0
-71.681510215089,8.0188078252426,20.761056105611,2524737.3612834,1946.1933759198,2717054.3191887,25.961056105611,0,0
-71.681509519066,8.0213908073758,20.765486548655,2524737.3612834,1946.1933759198,2717054.3191887,25.965486548655,0,0
-71.681508823044,8.023973789509,20.769916991699,2524737.3612834,1946.1933759198,2717054.3191887,25.969916991699,0,0
-71.681508127021,8.0265567716422,20.774347434743,2524737.3612834,1946.1933759198,2717054.3191887,25.974347434743,0,0
-71.681507430999,8.0291397537754,20.778777877788,2524737.3612834,1946.1933759198,2717054.3191887,25.978777877788,0,0
-71.681506734976,8.0317227359085,20.783208320832,2524737.3612834,1946.1933759198,2717054.3191887,25.983208320832,0,0
-71.681506038953,8.0343057180417,20.787638763876,2524737.3612834,1946.1933759198,2717054.3191887,25.987638763876,0,0
-71.681505342931,8.0368887001749,20.792069206921,2524737.3612834,1946.1933759198,2717054.3191887,25.992069206921,0,0
-71.681504646908,8.0394716823081,20.796499649965,2524737.3612834,1946.1933759198,2717054.3191887,25.996499649965,0,0
-71.681503950886,8.0420546644413,20.800930093009,2524737.3612834,1946.1933759198,2717054.3191887,26.000930093009,0,0
-71.681503254863,8.0446376465745,20.805360536054,2524737.3612834,1946.1933759198,2717054.3191887,26.005360536054,0,0
-71.681502558841,8.0472206287076,20.809790979098,2524737.3612834,1946.1933759198,2717054.3191887,26.009790979098,0,0
-71.681501862818,8.0498036108408,20.814221422142,2524737.3612834,1946.1933759198,2717054.3191887,26.014221422142,0,0
-71.681501166795,8.052386592974,20.818651865187,2524737.3612834,1946.1933759198,2717054.3191887,26.018651865187,0,0
-71.681500470773,8.0549695751072,20.823082308231,2524737.3612834,1946.1933759198,2717054.3191887,26.023082308231,0,0
-71.68149977475,8.0575525572404,20.827512751275,2524737.3612834,1946.1933759198,2717054.3191887,26.027512751275,0,0
-71.681499078728,8.0601355393736,20.831943194319,2524737.3612834,1946.1933759198,2717054.3191887,26.031943194319,0,0
-71.681498382705,8.0627185215067,20.836373637364,2524737.3612834,1946.1933759198,2717054.3191887,26.036373637364,0,0
-71.681497686683,8.0653015036399,20.840804080408,2524737.3612834,1946.1933759198,2717054.3191887,26.040804080408,0,0
-71.68149699066,8.0678844857731,20.845234523452,2524737.3612834,1946.1933759198,2717054.3191887,26.045234523452,0,0
-71.681496294637,8.0704674679063,20.849664966497,2524737.3612834,1946.1933759198,2717054.3191887,26.049664966497,0,0
-71.681495598615,8.0730504500395,20.854095409541,2524737.3612834,1946.1933759198,2717054.3191887,26.054095409541,0,0
-71.681494902592,8.0756334321727,20.858525852585,2524737.3612834,1946.1933759198,2717054.3191887,26.058525852585,0,0
-71.68149420657,8.0782164143058,20.86295629563,2524737.3612834,1946.1933759198,2717054.3191887,26.06295629563,0,0
-71.681493510547,8.080799396439,20.867386738674,2524737.3612834,1946.1933759198,2717054.3191887,26.067386738674,0,0
-71.681492814525,8.0833823785722,20.871817181718,2524737.3612834,1946.1933759198,2717054.3191887,26.071817181718,0,0
-71.681492118502,8.0859653607054,20.876247624762,2524737.3612834,1946.1933759198,2717054.3191887,26.076247624762,0,0
-71.681491422479,8.0885483428386,20.880678067807,2524737.3612834,1946.1933759198,2717054.3191887,26.080678067807,0,0
-71.681490726457,8.0911313249718,20.885108510851,2524737.3612834,1946.1933759198,2717054.3191887,26.085108510851,0,0
-71.681490030434,8.0937143071049,20.889538953895,2524737.3612834,1946.1933759198,2717054.3191887,26.089538953895,0,0
-71.681489334412,8.0962972892381,20.89396939694,2524737.3612834,1946.1933759198,2717054.3191887,26.09396939694,0,0
-71.681488638389,8.0988802713713,20.898399839984,2524737.3612834,1946.1933759198,2717054.3191887,26.098399839984,0,0
-71.681487942367,8.1014632535045,20.902830283028,2524737.3612834,1946.1933759198,2717054.3191887,26.102830283028,0,0
-71.681487246344,8.1040462356377,20.907260726073,2524737.3612834,1946.1933759198,2717054.3191887,26.107260726073,0,0
-71.681486550321,8.1066292177708,20.911691169117,2524737.3612834,1946.1933759198,2717054.3191887,26.111691169117,0,0
-71.681485854299,8.109212199904,20.916121612161,2524737.3612834,1946.1933759198,2717054.3191887,26.116121612161,0,0
-71.681485158276,8.1117951820372,20.920552055206,2524737.3612834,1946.1933759198,2717054.3191887,26.120552055206,0,0
-71.681484462254,8.1143781641704,20.92498249825,2524737.3612834,1946.1933759198,2717054.3191887,26.12498249825,0,0
-71.681483766231,8.1169611463036,20.929412941294,2524737.3612834,1946.1933759198,2717054.3191887,26.129412941294,0,0
-71.681483070209,8.1195441284368,20.933843384338,2524737.3612834,1946.1933759198,2717054.3191887,26.133843384338,0,0
-71.681482374186,8.1221271105699,20.938273827383,2524737.3612834,1946.1933759198,2717054.3191887,26.138273827383,0,0
-71.681481678163,8.1247100927031,20.942704270427,2524737.3612834,1946.1933759198,2717054.3191887,26.142704270427,0,0
-71.681480982141,8.1272930748363,20.947134713471,2524737.3612834,1946.1933759198,2717054.3191887,26.147134713471,0,0
-71.681480286118,8.1298760569695,20.951565156516,2524737.3612834,1946.1933759198,2717054.3191887,26.151565156516,0,0
-71.681479590096,8.1324590391027,20.95599559956,2524737.3612834,1946.1933759198,2717054.3191887,26.15599559956,0,0
-71.681478894073,8.1350420212359,20.960426042604,2524737.3612834,1946.1933759198,2717054.3191887,26.160426042604,0,0
-71.681478198051,8.137625003369,20.964856485649,2524737.3612834,1946.1933759198,2717054.3191887,26.164856485649,0,0
-71.681477502028,8.1402079855022,20.969286928693,2524737.3612834,1946.1933759198,2717054.3191887,26.169286928693,0,0
-71.681476806005,8.1427909676354,20.973717371737,2524737.3612834,1946.1933759198,2717054.3191887,26.173717371737,0,0
-71.681476109983,8.1453739497686,20.978147814781,2524737.3612834,1946.1933759198,2717054.3191887,26.178147814781,0,0
-71.681475413943,8.1479569319288,20.982578257826,2532143.5117874,5969.4499449963,2714083.6888484,26.182578257826,0,0
-71.681474716434,8.1505399164426,20.98700870087,2532143.5117874,5969.4499449963,2714083.6888484,26.18700870087,0,0
-71.681474018924,8.1531229009564,20.991439143914,2532143.5117874,5969.4499449963,2714083.6888484,26.191439143914,0,0
-71.681473321415,8.1557058854702,20.995869586959,2532143.5117874,5969.4499449963,2714083.6888484,26.195869586959,0,0
-71.681472623905,8.158288869984,21.000300030003,2532143.5117874,5969.4499449963,2714083.6888484,26.200300030003,0,0
-71.681471926395,8.1608718544979,21.004730473047,2532143.5117874,5969.4499449963,2714083.6888484,26.204730473047,0,0
-71.681471228886,8.1634548390117,21.009160916092,2532143.5117874,5969.4499449963,2714083.6888484,26.209160916092,0,0
-71.681470531376,8.1660378235255,21.013591359136,2532143.5117874,5969.4499449963,2714083.6888484,26.213591359136,0,0
-71.681469833867,8.1686208080393,21.01802180218,2532143.5117874,5969.4499449963,2714083.6888484,26.21802180218,0,0
-71.681469136357,8.1712037925531,21.022452245225,2532143.5117874,5969.4499449963,2714083.6888484,26.222452245225,0,0
-71.681468438847,8.1737867770669,21.026882688269,2532143.5117874,5969.4499449963,2714083.6888484,26.226882688269,0,0
-71.681467741338,8.1763697615808,21.031313131313,2532143.5117874,5969.4499449963,2714083.6888484,26.231313131313,0,0
-71.681467043828,8.1789527460946,21.035743574357,2532143.5117874,5969.4499449963,2714083.6888484,26.235743574357,0,0
-71.681466346319,8.1815357306084,21.040174017402,2532143.5117874,5969.4499449963,2714083.6888484,26.240174017402,0,0
-71.681465648809,8.1841187151222,21.044604460446,2532143.5117874,5969.4499449963,2714083.6888484,26.244604460446,0,0
-71.681464951299,8.186701699636,21.04903490349,2532143.5117874,5969.4499449963,2714083.6888484,26.24903490349,0,0
-71.68146425379,8.1892846841498,21.053465346535,2532143.5117874,5969.4499449963,2714083.6888484,26.253465346535,0,0
-71.68146355628,8.1918676686636,21.057895789579,2532143.5117874,5969.4499449963,2714083.6888484,26.257895789579,0,0
-71.68146285877,8.1944506531775,21.062326232623,2532143.5117874,5969.4499449963,2714083.6888484,26.262326232623,0,0
-71.681462161261,8.1970336376913,21.066756675668,2532143.5117874,5969.4499449963,2714083.6888484,26.266756675668,0,0
-71.681461463751,8.1996166222051,21.071187118712,2532143.5117874,5969.4499449963,2714083.6888484,26.271187118712,0,0
-71.681460766242,8.2021996067189,21.075617561756,2532143.5117874,5969.4499449963,2714083.6888484,26.275617561756,0,0
-71.681460068732,8.2047825912327,21.0800480048,2532143.5117874,5969.4499449963,2714083.6888484,26.2800480048,0,0
-71.681459371222,8.2073655757465,21.084478447845,2532143.5117874,5969.4499449963,2714083.6888484,26.284478447845,0,0
-71.681458673713,8.2099485602603,21.088908890889,2532143.5117874,5969.4499449963,2714083.6888484,26.288908890889,0,0
-71.681457976203,8.2125315447742,21.093339333933,2532143.5117874,5969.4499449963,2714083.6888484,26.293339333933,0,0
-71.681457278694,8.215114529288,21.097769776978,2532143.5117874,5969.4499449963,2714083.6888484,26.297769776978,0,0
-71.681456581184,8.2176975138018,21.102200220022,2532143.5117874,5969.4499449963,2714083.6888484,26.302200220022,0,0
-71.681455883674,8.2202804983156,21.106630663066,2532143.5117874,5969.4499449963,2714083.6888484,26.306630663066,0,0
-71.681455186165,8.2228634828294,21.111061106111,2532143.5117874,5969.4499449963,2714083.6888484,26.311061106111,0,0
-71.681454488655,8.2254464673432,21.115491549155,2532143.5117874,5969.4499449963,2714083.6888484,26.315491549155,0,0
-71.681453791146,8.228029451857,21.119921992199,2532143.5117874,5969.4499449963,2714083.6888484,26.319921992199,0,0
-71.681453093636,8.2306124363709,21.124352435244,2532143.5117874,5969.4499449963,2714083.6888484,26.324352435244,0,0
-71.681452396126,8.2331954208847,21.128782878288,2532143.5117874,5969.4499449963,2714083.6888484,26.328782878288,0,0
-71.681451698617,8.2357784053985,21.133213321332,2532143.5117874,5969.4499449963,2714083.6888484,26.333213321332,0,0
-71.681451001107,8.2383613899123,21.137643764376,2532143.5117874,5969.4499449963,2714083.6888484,26.337643764376,0,0
-71.681450303598,8.2409443744261,21.142074207421,2532143.5117874,5969.4499449963,2714083.6888484,26.342074207421,0,0
-71.681449606088,8.2435273589399,21.146504650465,2532143.5117874,5969.4499449963,2714083.6888484,26.346504650465,0,0
-71.681448908578,8.2461103434537,21.150935093509,2532143.5117874,5969.4499449963,2714083.6888484,26.350935093509,0,0
-71.681448211069,8.2486933279676,21.155365536554,2532143.5117874,5969.4499449963,2714083.6888484,26.355365536554,0,0
-71.681447513559,8.2512763124814,21.159795979598,2532143.5117874,5969.4499449963,2714083.6888484,26.359795979598,0,0
-71.681446816049,8.2538592969952,21.164226422642,2532143.5117874,5969.4499449963,2714083.6888484,26.364226422642,0,0
-71.68144611789,8.2564422798665,21.168656865687,2535470.682919,2099.0199265229,2707170.1876182,26.368656865687,0,0
-71.68144541946,8.2590252620575,21.173087308731,2535470.682919,2099.0199265229,2707170.1876182,26.373087308731,0,0
-71.681444721031,8.2616082442484,21.177517751775,2535470.682919,2099.0199265229,2707170.1876182,26.377517751775,0,0
-71.681444022602,8.2641912264394,21.181948194819,2535470.682919,2099.0199265229,2707170.1876182,26.381948194819,0,0
-71.681443324172,8.2667742086304,21.186378637864,2535470.682919,2099.0199265229,2707170.1876182,26.386378637864,0,0
-71.681442625743,8.2693571908214,21.190809080908,2535470.682919,2099.0199265229,2707170.1876182,26.390809080908,0,0
-71.681441927314,8.2719401730124,21.195239523952,2535470.682919,2099.0199265229,2707170.1876182,26.395239523952,0,0
-71.681441228885,8.2745231552033,21.199669966997,2535470.682919,2099.0199265229,2707170.1876182,26.399669966997,0,0
-71.681440530455,8.2771061373943,21.204100410041,2535470.682919,2099.0199265229,2707170.1876182,26.404100410041,0,0
-71.681439832026,8.2796891195853,21.208530853085,2535470.682919,2099.0199265229,2707170.1876182,26.408530853085,0,0
-71.681439133597,8.2822721017763,21.21296129613,2535470.682919,2099.0199265229,2707170.1876182,26.41296129613,0,0
-71.681438435167,8.2848550839672,21.217391739174,2535470.682919,2099.0199265229,2707170.1876182,26.417391739174,0,0
-71.681437736738,8.2874380661582,21.221822182218,2535470.682919,2099.0199265229,2707170.1876182,26.421822182218,0,0
-71.681437038309,8.2900210483492,21.226252625263,2535470.682919,2099.0199265229,2707170.1876182,26.426252625263,0,0
-71.68143633988,8.2926040305402,21.230683068307,2535470.682919,2099.0199265229,2707170.1876182,26.430683068307,0,0
-71.68143564145,8.2951870127311,21.235113511351,2535470.682919,2099.0199265229,2707170.1876182,26.435113511351,0,0
-71.681434943021,8.2977699949221,21.239543954395,2535470.682919,2099.0199265229,2707170.1876182,26.439543954395,0,0
-71.681434244592,8.3003529771131,21.24397439744,2535470.682919,2099.0199265229,2707170.1876182,26.44397439744,0,0
-71.681433546162,8.3029359593041,21.248404840484,2535470.682919,2099.0199265229,2707170.1876182,26.448404840484,0,0
-71.681432847733,8.305518941495,21.252835283528,2535470.682919,2099.0199265229,2707170.1876182,26.452835283528,0,0
-71.681432149304,8.308101923686,21.257265726573,2535470.682919,2099.0199265229,2707170.1876182,26.457265726573,0,0
-71.681431450875,8.310684905877,21.261696169617,2535470.682919,2099.0199265229,2707170.1876182,26.461696169617,0,0
-71.681430752445,8.313267888068,21.266126612661,2535470.682919,2099.0199265229,2707170.1876182,26.466126612661,0,0
-71.681430054016,8.315850870259,21.270557055706,2535470.682919,2099.0199265229,2707170.1876182,26.470557055706,0,0
-71.681429355587,8.3184338524499,21.27498749875,2535470.682919,2099.0199265229,2707170.1876182,26.47498749875,0,0
-71.681428657157,8.3210168346409,21.279417941794,2535470.682919,2099.0199265229,2707170.1876182,26.479417941794,0,0
-71.681427958728,8.3235998168319,21.283848384838,2535470.682919,2099.0199265229,2707170.1876182,26.483848384838,0,0
-71.681427260299,8.3261827990229,21.288278827883,2535470.682919,2099.0199265229,2707170.1876182,26.488278827883,0,0
-71.68142656187,8.3287657812138,21.292709270927,2535470.682919,2099.0199265229,2707170.1876182,26.492709270927,0,0
-71.68142586344,8.3313487634048,21.297139713971,2535470.682919,2099.0199265229,2707170.1876182,26.497139713971,0,0
-71.681425165011,8.3339317455958,21.301570157016,2535470.682919,2099.0199265229,2707170.1876182,26.501570157016,0,0
-71.681424466582,8.3365147277868,21.30600060006,2535470.682919,2099.0199265229,2707170.1876182,26.50600060006,0,0
-71.681423768152,8.3390977099777,21.310431043104,2535470.682919,2099.0199265229,2707170.1876182,26.510431043104,0,0
-71.681423069723,8.3416806921687,21.314861486149,2535470.682919,2099.0199265229,2707170.1876182,26.514861486149,0,0
-71.681422371294,8.3442636743597,21.319291929193,2535470.682919,2099.0199265229,2707170.1876182,26.519291929193,0,0
-71.681421672864,8.3468466565507,21.323722372237,2535470.682919,2099.0199265229,2707170.1876182,26.523722372237,0,0
-71.681420974435,8.3494296387416,21.328152815282,2535470.682919,2099.0199265229,2707170.1876182,26.528152815282,0,0
-71.681420276006,8.3520126209326,21.332583258326,2535470.682919,2099.0199265229,2707170.1876182,26.532583258326,0,0
-71.681419577577,8.3545956031236,21.33701370137,2535470.682919,2099.0199265229,2707170.1876182,26.53701370137,0,0
-71.681418879147,8.3571785853146,21.341444144414,2535470.682919,2099.0199265229,2707170.1876182,26.541444144414,0,0
-71.681418180718,8.3597615675056,21.345874587459,2535470.682919,2099.0199265229,2707170.1876182,26.545874587459,0,0
-71.681417482289,8.3623445496965,21.350305030503,2535470.682919,2099.0199265229,2707170.1876182,26.550305030503,0,0
-71.681416783859,8.3649275318875,21.354735473547,2535470.682919,2099.0199265229,2707170.1876182,26.554735473547,0,0
-71.68141608543,8.3675105140785,21.359165916592,2535470.682919,2099.0199265229,2707170.1876182,26.559165916592,0,0
-71.681415387001,8.3700934962695,21.363596359636,2535470.682919,2099.0199265229,2707170.1876182,26.563596359636,0,0
-71.681414688572,8.3726764784604,21.36802680268,2535470.682919,2099.0199265229,2707170.1876182,26.56802680268,0,0
-71.681413990142,8.3752594606514,21.372457245725,2535470.682919,2099.0199265229,2707170.1876182,26.572457245725,0,0
-71.681413291713,8.3778424428424,21.376887688769,2535470.682919,2099.0199265229,2707170.1876182,26.576887688769,0,0
-71.681412593284,8.3804254250334,21.381318131813,2535470.682919,2099.0199265229,2707170.1876182,26.581318131813,0,0
-71.681411894854,8.3830084072243,21.385748574857,2535470.682919,2099.0199265229,2707170.1876182,26.585748574857,0,0
-71.681411196425,8.3855913894153,21.390179017902,2535470.682919,2099.0199265229,2707170.1876182,26.590179017902,0,0
-71.681410497996,8.3881743716063,21.394609460946,2535470.682919,2099.0199265229,2707170.1876182,26.594609460946,0,0
-71.681409799567,8.3907573537973,21.39903990399,2535470.682919,2099.0199265229,2707170.1876182,26.59903990399,0,0
-71.681409101137,8.3933403359883,21.403470347035,2535470.682919,2099.0199265229,2707170.1876182,26.603470347035,0,0
-71.681408402708,8.3959233181792,21.407900790079,2535470.682919,2099.0199265229,2707170.1876182,26.607900790079,0,0
-71.681407704279,8.3985063003702,21.412331233123,2535470.682919,2099.0199265229,2707170.1876182,26.612331233123,0,0
-71.681407005849,8.4010892825612,21.416761676168,2535470.682919,2099.0199265229,2707170.1876182,26.616761676168,0,0
-71.68140630742,8.4036722647522,21.421192119212,2535470.682919,2099.0199265229,2707170.1876182,26.621192119212,0,0
-71.681405608991,8.4062552469431,21.425622562256,2535470.682919,2099.0199265229,2707170.1876182,26.625622562256,0,0
-71.681404910562,8.4088382291341,21.430053005301,2535470.682919,2099.0199265229,2707170.1876182,26.630053005301,0,0
-71.681404212132,8.4114212113251,21.434483448345,2535470.682919,2099.0199265229,2707170.1876182,26.634483448345,0,0
-71.681403513703,8.4140041935161,21.438913891389,2535470.682919,2099.0199265229,2707170.1876182,26.638913891389,0,0
-71.681402815274,8.416587175707,21.443344334433,2535470.682919,2099.0199265229,2707170.1876182,26.643344334433,0,0
-71.681402116844,8.419170157898,21.447774777478,2535470.682919,2099.0199265229,2707170.1876182,26.647774777478,0,0
-71.681401418415,8.421753140089,21.452205220522,2535470.682919,2099.0199265229,2707170.1876182,26.652205220522,0,0
-71.681400719986,8.42433612228,21.456635663566,2535470.682919,2099.0199265229,2707170.1876182,26.656635663566,0,0
-71.681400021557,8.4269191044709,21.461066106611,2535470.682919,2099.0199265229,2707170.1876182,26.661066106611,0,0
-71.681399323127,8.4295020866619,21.465496549655,2535470.682919,2099.0199265229,2707170.1876182,26.665496549655,0,0
-71.681398624698,8.4320850688529,21.469926992699,2535470.682919,2099.0199265229,2707170.1876182,26.669926992699,0,0
-71.681397926269,8.4346680510439,21.474357435744,2535470.682919,2099.0199265229,2707170.1876182,26.674357435744,0,0
-71.681397227839,8.4372510332349,21.478787878788,2535470.682919,2099.0199265229,2707170.1876182,26.678787878788,0,0
-71.68139652941,8.4398340154258,21.483218321832,2535470.682919,2099.0199265229,2707170.1876182,26.683218321832,0,0
-71.681395830981,8.4424169976168,21.487648764876,2535470.682919,2099.0199265229,2707170.1876182,26.687648764876,0,0
-71.681395132552,8.4449999798078,21.492079207921,2535470.682919,2099.0199265229,2707170.1876182,26.692079207921,0,0
-71.681394434122,8.4475829619988,21.496509650965,2535470.682919,2099.0199265229,2707170.1876182,26.696509650965,0,0
-71.681393735693,8.4501659441897,21.500940094009,2535470.682919,2099.0199265229,2707170.1876182,26.700940094009,0,0
-71.681393037264,8.4527489263807,21.505370537054,2535470.682919,2099.0199265229,2707170.1876182,26.705370537054,0,0
-71.681392338834,8.4553319085717,21.509800980098,2535470.682919,2099.0199265229,2707170.1876182,26.709800980098,0,0
-71.681391640405,8.4579148907627,21.514231423142,2535470.682919,2099.0199265229,2707170.1876182,26.714231423142,0,0
-71.681390941976,8.4604978729536,21.518661866187,2535470.682919,2099.0199265229,2707170.1876182,26.718661866187,0,0
-71.681390243547,8.4630808551446,21.523092309231,2535470.682919,2099.0199265229,2707170.1876182,26.723092309231,0,0
-71.681389545117,8.4656638373356,21.527522752275,2535470.682919,2099.0199265229,2707170.1876182,26.727522752275,0,0
-71.681388846688,8.4682468195266,21.53195319532,2535470.682919,2099.0199265229,2707170.1876182,26.73195319532,0,0
-71.681388148259,8.4708298017175,21.536383638364,2535470.682919,2099.0199265229,2707170.1876182,26.736383638364,0,0
-71.681387449829,8.4734127839085,21.540814081408,2535470.682919,2099.0199265229,2707170.1876182,26.740814081408,0,0
-71.6813867514,8.4759957660995,21.545244524452,2535470.682919,2099.0199265229,2707170.1876182,26.745244524452,0,0
-71.681386052971,8.4785787482905,21.549674967497,2535470.682919,2099.0199265229,2707170.1876182,26.749674967497,0,0
-71.681385354542,8.4811617304815,21.554105410541,2535470.682919,2099.0199265229,2707170.1876182,26.754105410541,0,0
-71.681384656112,8.4837447126724,21.558535853585,2535470.682919,2099.0199265229,2707170.1876182,26.758535853585,0,0
-71.681383957683,8.4863276948634,21.56296629663,2535470.682919,2099.0199265229,2707170.1876182,26.76296629663,0,0
-71.681383259254,8.4889106770544,21.567396739674,2535470.682919,2099.0199265229,2707170.1876182,26.767396739674,0,0
-71.681382560824,8.4914936592454,21.571827182718,2535470.682919,2099.0199265229,2707170.1876182,26.771827182718,0,0
-71.681381862395,8.4940766414363,21.576257625763,2535470.682919,2099.0199265229,2707170.1876182,26.776257625763,0,0
-71.681381163966,8.4966596236273,21.580688068807,2535470.682919,2099.0199265229,2707170.1876182,26.780688068807,0,0
-71.681380465537,8.4992426058183,21.585118511851,2535470.682919,2099.0199265229,2707170.1876182,26.785118511851,0,0
-71.681379767107,8.5018255880093,21.589548954895,2535470.682919,2099.0199265229,2707170.1876182,26.789548954895,0,0
-71.681379068678,8.5044085702002,21.59397939794,2535470.682919,2099.0199265229,2707170.1876182,26.79397939794,0,0
-71.681378370249,8.5069915523912,21.598409840984,2535470.682919,2099.0199265229,2707170.1876182,26.798409840984,0,0
-71.681377671819,8.5095745345822,21.602840284028,2535470.682919,2099.0199265229,2707170.1876182,26.802840284028,0,0
-71.68137697339,8.5121575167732,21.607270727073,2535470.682919,2099.0199265229,2707170.1876182,26.807270727073,0,0
-71.681376274961,8.5147404989642,21.611701170117,2535470.682919,2099.0199265229,2707170.1876182,26.811701170117,0,0
-71.681375576532,8.5173234811551,21.616131613161,2535470.682919,2099.0199265229,2707170.1876182,26.816131613161,0,0
-71.681374878102,8.5199064633461,21.620562056206,2535470.682919,2099.0199265229,2707170.1876182,26.820562056206,0,0
-71.681374179673,8.5224894455371,21.62499249925,2535470.682919,2099.0199265229,2707170.1876182,26.82499249925,0,0
-71.681373481244,8.5250724277281,21.629422942294,2535470.682919,2099.0199265229,2707170.1876182,26.829422942294,0,0
-71.681372782814,8.527655409919,21.633853385339,2535470.682919,2099.0199265229,2707170.1876182,26.833853385339,0,0
-71.681372084385,8.53023839211,21.638283828383,2535470.682919,2099.0199265229,2707170.1876182,26.838283828383,0,0
-71.681371385956,8.532821374301,21.642714271427,2535470.682919,2099.0199265229,2707170.1876182,26.842714271427,0,0
-71.681370687527,8.535404356492,21.647144714471,2535470.682919,2099.0199265229,2707170.1876182,26.847144714471,0,0
-71.681369989097,8.5379873386829,21.651575157516,2535470.682919,2099.0199265229,2707170.1876182,26.851575157516,0,0
-71.681369290668,8.5405703208739,21.65600560056,2535470.682919,2099.0199265229,2707170.1876182,26.85600560056,0,0
-71.681368592239,8.5431533030649,21.660436043604,2535470.682919,2099.0199265229,2707170.1876182,26.860436043604,0,0
-71.681367893809,8.5457362852559,21.664866486649,2535470.682919,2099.0199265229,2707170.1876182,26.864866486649,0,0
-71.68136719538,8.5483192674468,21.669296929693,2535470.682919,2099.0199265229,2707170.1876182,26.869296929693,0,0
-71.681366496951,8.5509022496378,21.673727372737,2535470.682919,2099.0199265229,2707170.1876182,26.873727372737,0,0
-71.681365798522,8.5534852318288,21.678157815782,2535470.682919,2099.0199265229,2707170.1876182,26.878157815782,0,0
-71.681365100092,8.5560682140198,21.682588258826,2535470.682919,2099.0199265229,2707170.1876182,26.882588258826,0,0
-71.681364401663,8.5586511962108,21.68701870187,2535470.682919,2099.0199265229,2707170.1876182,26.88701870187,0,0
-71.681363703234,8.5612341784017,21.691449144914,2535470.682919,2099.0199265229,2707170.1876182,26.891449144914,0,0
-71.681363004804,8.5638171605927,21.695879587959,2535470.682919,2099.0199265229,2707170.1876182,26.895879587959,0,0
-71.681362306375,8.5664001427837,21.700310031003,2535470.682919,2099.0199265229,2707170.1876182,26.900310031003,0,0
-71.681361607946,8.5689831249747,21.704740474047,2535470.682919,2099.0199265229,2707170.1876182,26.904740474047,0,0
-71.681360909517,8.5715661071656,21.709170917092,2535470.682919,2099.0199265229,2707170.1876182,26.909170917092,0,0
-71.681360211087,8.5741490893566,21.713601360136,2535470.682919,2099.0199265229,2707170.1876182,26.913601360136,0,0
-71.681359512658,8.5767320715476,21.71803180318,2535470.682919,2099.0199265229,2707170.1876182,26.91803180318,0,0
-71.681358814229,8.5793150537386,21.722462246225,2535470.682919,2099.0199265229,2707170.1876182,26.922462246225,0,0
-71.681358115799,8.5818980359295,21.726892689269,2535470.682919,2099.0199265229,2707170.1876182,26.926892689269,0,0
-71.68135741737,8.5844810181205,21.731323132313,2535470.682919,2099.0199265229,2707170.1876182,26.931323132313,0,0
-71.681356718941,8.5870640003115,21.735753575358,2535470.682919,2099.0199265229,2707170.1876182,26.935753575358,0,0
-71.681356020512,8.5896469825025,21.740184018402,2535470.682919,2099.0199265229,2707170.1876182,26.940184018402,0,0
-71.681355322082,8.5922299646934,21.744614461446,2535470.682919,2099.0199265229,2707170.1876182,26.944614461446,0,0
-71.681354623653,8.5948129468844,21.74904490449,2535470.682919,2099.0199265229,2707170.1876182,26.94904490449,0,0
-71.681353925224,8.5973959290754,21.753475347535,2535470.682919,2099.0199265229,2707170.1876182,26.953475347535,0,0
-71.681353226794,8.5999789112664,21.757905790579,2535470.682919,2099.0199265229,2707170.1876182,26.957905790579,0,0
-71.681352528365,8.6025618934574,21.762336233623,2535470.682919,2099.0199265229,2707170.1876182,26.962336233623,0,0
-71.681351829936,8.6051448756483,21.766766676668,2535470.682919,2099.0199265229,2707170.1876182,26.966766676668,0,0
-71.681351131507,8.6077278578393,21.771197119712,2535470.682919,2099.0199265229,2707170.1876182,26.971197119712,0,0
-71.681350433077,8.6103108400303,21.775627562756,2535470.682919,2099.0199265229,2707170.1876182,26.975627562756,0,0
-71.681349734648,8.6128938222213,21.780058005801,2535470.682919,2099.0199265229,2707170.1876182,26.980058005801,0,0
-71.681349036219,8.6154768044122,21.784488448845,2535470.682919,2099.0199265229,2707170.1876182,26.984488448845,0,0
-71.681348337789,8.6180597866032,21.788918891889,2535470.682919,2099.0199265229,2707170.1876182,26.988918891889,0,0
-71.68134763936,8.6206427687942,21.793349334933,2535470.682919,2099.0199265229,2707170.1876182,26.993349334933,0,0
-71.681346940931,8.6232257509852,21.797779777978,2535470.682919,2099.0199265229,2707170.1876182,26.997779777978,0,0
-71.681346242502,8.6258087331761,21.802210221022,2535470.682919,2099.0199265229,2707170.1876182,27.002210221022,0,0
-71.681345544072,8.6283917153671,21.806640664066,2535470.682919,2099.0199265229,2707170.1876182,27.006640664066,0,0
-71.681344845643,8.6309746975581,21.811071107111,2535470.682919,2099.0199265229,2707170.1876182,27.011071107111,0,0
-71.681344147214,8.6335576797491,21.815501550155,2535470.682919,2099.0199265229,2707170.1876182,27.015501550155,0,0
-71.681343448784,8.6361406619401,21.819931993199,2535470.682919,2099.0199265229,2707170.1876182,27.019931993199,0,0
-71.681342750355,8.638723644131,21.824362436244,2535470.682919,2099.0199265229,2707170.1876182,27.024362436244,0,0
-71.681342051926,8.641306626322,21.828792879288,2535470.682919,2099.0199265229,2707170.1876182,27.028792879288,0,0
-71.681341353497,8.643889608513,21.833223322332,2535470.682919,2099.0199265229,2707170.1876182,27.033223322332,0,0
-71.681340655067,8.646472590704,21.837653765377,2535470.682919,2099.0199265229,2707170.1876182,27.037653765377,0,0
-71.681339956638,8.6490555728949,21.842084208421,2535470.682919,2099.0199265229,2707170.1876182,27.042084208421,0,0
-71.681339258209,8.6516385550859,21.846514651465,2535470.682919,2099.0199265229,2707170.1876182,27.046514651465,0,0
-71.681338559779,8.6542215372769,21.850945094509,2535470.682919,2099.0199265229,2707170.1876182,27.050945094509,0,0
-71.68133786135,8.6568045194679,21.855375537554,2535470.682919,2099.0199265229,2707170.1876182,27.055375537554,0,0
-71.681337162921,8.6593875016588,21.859805980598,2535470.682919,2099.0199265229,2707170.1876182,27.059805980598,0,0
-71.681336464492,8.6619704838498,21.864236423642,2535470.682919,2099.0199265229,2707170.1876182,27.064236423642,0,0
-71.681335766062,8.6645534660408,21.868666866687,2535470.682919,2099.0199265229,2707170.1876182,27.068666866687,0,0
-71.681335067633,8.6671364482318,21.873097309731,2535470.682919,2099.0199265229,2707170.1876182,27.073097309731,0,0
-71.681334369204,8.6697194304227,21.877527752775,2535470.682919,2099.0199265229,2707170.1876182,27.077527752775,0,0
-71.681333670774,8.6723024126137,21.88195819582,2535470.682919,2099.0199265229,2707170.1876182,27.08195819582,0,0
-71.681332972345,8.6748853948047,21.886388638864,2535470.682919,2099.0199265229,2707170.1876182,27.086388638864,0,0
-71.681332273916,8.6774683769957,21.890819081908,2535470.682919,2099.0199265229,2707170.1876182,27.090819081908,0,0
-71.681331575486,8.6800513591867,21.895249524952,2535470.682919,2099.0199265229,2707170.1876182,27.095249524952,0,0
-71.681330877057,8.6826343413776,21.899679967997,2535470.682919,2099.0199265229,2707170.1876182,27.099679967997,0,0
-71.681330178628,8.6852173235686,21.904110411041,2535470.682919,2099.0199265229,2707170.1876182,27.104110411041,0,0
-71.681329480199,8.6878003057596,21.908540854085,2535470.682919,2099.0199265229,2707170.1876182,27.108540854085,0,0
-71.681328781769,8.6903832879506,21.91297129713,2535470.682919,2099.0199265229,2707170.1876182,27.11297129713,0,0
-71.68132808334,8.6929662701415,21.917401740174,2535470.682919,2099.0199265229,2707170.1876182,27.117401740174,0,0
-71.681327384911,8.6955492523325,21.921832183218,2535470.682919,2099.0199265229,2707170.1876182,27.121832183218,0,0
-71.681326686481,8.6981322345235,21.926262626263,2535470.682919,2099.0199265229,2707170.1876182,27.126262626263,0,0
-71.681325988052,8.7007152167145,21.930693069307,2535470.682919,2099.0199265229,2707170.1876182,27.130693069307,0,0
-71.681325289623,8.7032981989054,21.935123512351,2535470.682919,2099.0199265229,2707170.1876182,27.135123512351,0,0
-71.681324591194,8.7058811810964,21.939553955396,2535470.682919,2099.0199265229,2707170.1876182,27.139553955396,0,0
-71.681323892764,8.7084641632874,21.94398439844,2535470.682919,2099.0199265229,2707170.1876182,27.14398439844,0,0
-71.681323194335,8.7110471454784,21.948414841484,2535470.682919,2099.0199265229,2707170.1876182,27.148414841484,0,0
-71.681322495906,8.7136301276693,21.952845284528,2535470.682919,2099.0199265229,2707170.1876182,27.152845284528,0,0
-71.681321797476,8.7162131098603,21.957275727573,2535470.682919,2099.0199265229,2707170.1876182,27.157275727573,0,0
-71.681321099047,8.7187960920513,21.961706170617,2535470.682919,2099.0199265229,2707170.1876182,27.161706170617,0,0
-71.681320400618,8.7213790742423,21.966136613661,2535470.682919,2099.0199265229,2707170.1876182,27.166136613661,0,0
-71.681319702189,8.7239620564333,21.970567056706,2535470.682919,2099.0199265229,2707170.1876182,27.170567056706,0,0
-71.681319003759,8.7265450386242,21.97499749975,2535470.682919,2099.0199265229,2707170.1876182,27.17499749975,0,0
-71.68131830533,8.7291280208152,21.979427942794,2535470.682919,2099.0199265229,2707170.1876182,27.179427942794,0,0
-71.681317606901,8.7317110030062,21.983858385839,2535470.682919,2099.0199265229,2707170.1876182,27.183858385839,0,0
-71.681316908471,8.7342939851972,21.988288828883,2535470.682919,2099.0199265229,2707170.1876182,27.188288828883,0,0
-71.681316210042,8.7368769673881,21.992719271927,2535470.682919,2099.0199265229,2707170.1876182,27.192719271927,0,0
-71.681315511613,8.7394599495791,21.997149714971,2535470.682919,2099.0199265229,2707170.1876182,27.197149714971,0,0
-71.681314813184,8.7420429317701,22.001580158016,2535470.682919,2099.0199265229,2707170.1876182,27.201580158016,0,0
-71.681314114754,8.7446259139611,22.00601060106,2535470.682919,2099.0199265229,2707170.1876182,27.20601060106,0,0
-71.681313416325,8.747208896152,22.010441044104,2535470.682919,2099.0199265229,2707170.1876182,27.210441044104,0,0
-71.681312717896,8.749791878343,22.014871487149,2535470.682919,2099.0199265229,2707170.1876182,27.214871487149,0,0
-71.681312019466,8.752374860534,22.019301930193,2535470.682919,2099.0199265229,2707170.1876182,27.219301930193,0,0
-71.681311321037,8.754957842725,22.023732373237,2535470.682919,2099.0199265229,2707170.1876182,27.223732373237,0,0
-71.681310622608,8.7575408249159,22.028162816282,2535470.682919,2099.0199265229,2707170.1876182,27.228162816282,0,0
-71.681309924179,8.7601238071069,22.032593259326,2535470.682919,2099.0199265229,2707170.1876182,27.232593259326,0,0
-71.681309225749,8.7627067892979,22.03702370237,2535470.682919,2099.0199265229,2707170.1876182,27.23702370237,0,0
-71.68130852732,8.7652897714889,22.041454145415,2535470.682919,2099.0199265229,2707170.1876182,27.241454145415,0,0
-71.681307828891,8.7678727536799,22.045884588459,2535470.682919,2099.0199265229,2707170.1876182,27.245884588459,0,0
-71.681307130461,8.7704557358708,22.050315031503,2535470.682919,2099.0199265229,2707170.1876182,27.250315031503,0,0
-71.681306432032,8.7730387180618,22.054745474547,2535470.682919,2099.0199265229,2707170.1876182,27.254745474547,0,0
-71.681305733603,8.7756217002528,22.059175917592,2535470.682919,2099.0199265229,2707170.1876182,27.259175917592,0,0
-71.681305035174,8.7782046824438,22.063606360636,2535470.682919,2099.0199265229,2707170.1876182,27.263606360636,0,0
-71.681304336744,8.7807876646347,22.06803680368,2535470.682919,2099.0199265229,2707170.1876182,27.26803680368,0,0
-71.681303638315,8.7833706468257,22.072467246725,2535470.682919,2099.0199265229,2707170.1876182,27.272467246725,0,0
-71.681302939886,8.7859536290167,22.076897689769,2535470.682919,2099.0199265229,2707170.1876182,27.276897689769,0,0
-71.681302241456,8.7885366112077,22.081328132813,2535470.682919,2099.0199265229,2707170.1876182,27.281328132813,0,0
-71.681301543027,8.7911195933986,22.085758575858,2535470.682919,2099.0199265229,2707170.1876182,27.285758575858,0,0
-71.681300844598,8.7937025755896,22.090189018902,2535470.682919,2099.0199265229,2707170.1876182,27.290189018902,0,0
-71.681300146169,8.7962855577806,22.094619461946,2535470.682919,2099.0199265229,2707170.1876182,27.294619461946,0,0
-71.681299447739,8.7988685399716,22.09904990499,2535470.682919,2099.0199265229,2707170.1876182,27.29904990499,0,0
-71.68129874931,8.8014515221625,22.103480348035,2535470.682919,2099.0199265229,2707170.1876182,27.303480348035,0,0
-71.681298050881,8.8040345043535,22.107910791079,2535470.682919,2099.0199265229,2707170.1876182,27.307910791079,0,0
-71.681297352451,8.8066174865445,22.112341234123,2535470.682919,2099.0199265229,2707170.1876182,27.312341234123,0,0
-71.681296654022,8.8092004687355,22.116771677168,2535470.682919,2099.0199265229,2707170.1876182,27.316771677168,0,0
-71.681295955593,8.8117834509265,22.121202120212,2535470.682919,2099.0199265229,2707170.1876182,27.321202120212,0,0
-71.681295257164,8.8143664331174,22.125632563256,2535470.682919,2099.0199265229,2707170.1876182,27.325632563256,0,0
-71.681294558734,8.8169494153084,22.130063006301,2535470.682919,2099.0199265229,2707170.1876182,27.330063006301,0,0
-71.681293860305,8.8195323974994,22.134493449345,2535470.682919,2099.0199265229,2707170.1876182,27.334493449345,0,0
-71.681293161876,8.8221153796904,22.138923892389,2535470.682919,2099.0199265229,2707170.1876182,27.338923892389,0,0
-71.681292463446,8.8246983618813,22.143354335434,2535470.682919,2099.0199265229,2707170.1876182,27.343354335434,0,0
-71.681291765017,8.8272813440723,22.147784778478,2535470.682919,2099.0199265229,2707170.1876182,27.347784778478,0,0
-71.681291066588,8.8298643262633,22.152215221522,2535470.682919,2099.0199265229,2707170.1876182,27.352215221522,0,0
-71.681290368159,8.8324473084543,22.156645664566,2535470.682919,2099.0199265229,2707170.1876182,27.356645664566,0,0
-71.681289669729,8.8350302906452,22.161076107611,2535470.682919,2099.0199265229,2707170.1876182,27.361076107611,0,0
-71.6812889713,8.8376132728362,22.165506550655,2535470.682919,2099.0199265229,2707170.1876182,27.365506550655,0,0
-71.681288272871,8.8401962550272,22.169936993699,2535470.682919,2099.0199265229,2707170.1876182,27.369936993699,0,0
-71.681287574441,8.8427792372182,22.174367436744,2535470.682919,2099.0199265229,2707170.1876182,27.374367436744,0,0
-71.681286876012,8.8453622194092,22.178797879788,2535470.682919,2099.0199265229,2707170.1876182,27.378797879788,0,0
-71.681286177583,8.8479452016001,22.183228322832,2535470.682919,2099.0199265229,2707170.1876182,27.383228322832,0,0
-71.681285479154,8.8505281837911,22.187658765877,2535470.682919,2099.0199265229,2707170.1876182,27.387658765877,0,0
-71.681284780724,8.8531111659821,22.192089208921,2535470.682919,2099.0199265229,2707170.1876182,27.392089208921,0,0
-71.681284082295,8.8556941481731,22.196519651965,2535470.682919,2099.0199265229,2707170.1876182,27.396519651965,0,0
-71.681283383866,8.858277130364,22.200950095009,2535470.682919,2099.0199265229,2707170.1876182,27.400950095009,0,0
-71.681282685436,8.860860112555,22.205380538054,2535470.682919,2099.0199265229,2707170.1876182,27.405380538054,0,0
-71.681281987007,8.863443094746,22.209810981098,2535470.682919,2099.0199265229,2707170.1876182,27.409810981098,0,0
-71.681281288578,8.866026076937,22.214241424142,2535470.682919,2099.0199265229,2707170.1876182,27.414241424142,0,0
-71.681280590149,8.8686090591279,22.218671867187,2535470.682919,2099.0199265229,2707170.1876182,27.418671867187,0,0
-71.681279891719,8.8711920413189,22.223102310231,2535470.682919,2099.0199265229,2707170.1876182,27.423102310231,0,0
-71.68127919329,8.8737750235099,22.227532753275,2535470.682919,2099.0199265229,2707170.1876182,27.427532753275,0,0
-71.681278494861,8.8763580057009,22.23196319632,2535470.682919,2099.0199265229,2707170.1876182,27.43196319632,0,0
-71.681277796431,8.8789409878918,22.236393639364,2535470.682919,2099.0199265229,2707170.1876182,27.436393639364,0,0
-71.681277098002,8.8815239700828,22.240824082408,2535470.682919,2099.0199265229,2707170.1876182,27.440824082408,0,0
-71.681276399573,8.8841069522738,22.245254525453,2535470.682919,2099.0199265229,2707170.1876182,27.445254525453,0,0
-71.681275701144,8.8866899344648,22.249684968497,2535470.682919,2099.0199265229,2707170.1876182,27.449684968497,0,0
-71.681275002714,8.8892729166558,22.254115411541,2535470.682919,2099.0199265229,2707170.1876182,27.454115411541,0,0
-71.681274304285,8.8918558988467,22.258545854585,2535470.682919,2099.0199265229,2707170.1876182,27.458545854585,0,0
-71.681273605856,8.8944388810377,22.26297629763,2535470.682919,2099.0199265229,2707170.1876182,27.46297629763,0,0
-71.681272907426,8.8970218632287,22.267406740674,2535470.682919,2099.0199265229,2707170.1876182,27.467406740674,0,0
-71.681272208997,8.8996048454197,22.271837183718,2535470.682919,2099.0199265229,2707170.1876182,27.471837183718,0,0
-71.681271510568,8.9021878276106,22.276267626763,2535470.682919,2099.0199265229,2707170.1876182,27.476267626763,0,0
-71.681270812139,8.9047708098016,22.280698069807,2535470.682919,2099.0199265229,2707170.1876182,27.480698069807,0,0
-71.681270113709,8.9073537919926,22.285128512851,2535470.682919,2099.0199265229,2707170.1876182,27.485128512851,0,0
-71.68126941528,8.9099367741836,22.289558955896,2535470.682919,2099.0199265229,2707170.1876182,27.489558955896,0,0
-71.681268716851,8.9125197563745,22.29398939894,2535470.682919,2099.0199265229,2707170.1876182,27.49398939894,0,0
-71.681268018421,8.9151027385655,22.298419841984,2535470.682919,2099.0199265229,2707170.1876182,27.498419841984,0,0
-71.681267319992,8.9176857207565,22.302850285029,2535470.682919,2099.0199265229,2707170.1876182,27.502850285029,0,0
-71.681266621563,8.9202687029475,22.307280728073,2535470.682919,2099.0199265229,2707170.1876182,27.507280728073,0,0
-71.681265923134,8.9228516851385,22.311711171117,2535470.682919,2099.0199265229,2707170.1876182,27.511711171117,0,0
-71.681265224704,8.9254346673294,22.316141614161,2535470.682919,2099.0199265229,2707170.1876182,27.516141614161,0,0
-71.681264526275,8.9280176495204,22.320572057206,2535470.682919,2099.0199265229,2707170.1876182,27.520572057206,0,0
-71.681263827846,8.9306006317114,22.32500250025,2535470.682919,2099.0199265229,2707170.1876182,27.52500250025,0,0
-71.681263129416,8.9331836139024,22.329432943294,2535470.682919,2099.0199265229,2707170.1876182,27.529432943294,0,0
-71.681262430987,8.9357665960933,22.333863386339,2535470.682919,2099.0199265229,2707170.1876182,27.533863386339,0,0
-71.681261732558,8.9383495782843,22.338293829383,2535470.682919,2099.0199265229,2707170.1876182,27.538293829383,0,0
-71.681261034129,8.9409325604753,22.342724272427,2535470.682919,2099.0199265229,2707170.1876182,27.542724272427,0,0
-71.681260335699,8.9435155426663,22.347154715472,2535470.682919,2099.0199265229,2707170.1876182,27.547154715472,0,0
-71.68125963727,8.9460985248572,22.351585158516,2535470.682919,2099.0199265229,2707170.1876182,27.551585158516,0,0
-71.681258938841,8.9486815070482,22.35601560156,2535470.682919,2099.0199265229,2707170.1876182,27.55601560156,0,0
-71.681258240411,8.9512644892392,22.360446044604,2535470.682919,2099.0199265229,2707170.1876182,27.560446044604,0,0
-71.681257541982,8.9538474714302,22.364876487649,2535470.682919,2099.0199265229,2707170.1876182,27.564876487649,0,0
-71.681256843553,8.9564304536211,22.369306930693,2535470.682919,2099.0199265229,2707170.1876182,27.569306930693,0,0
-71.681256145124,8.9590134358121,22.373737373737,2535470.682919,2099.0199265229,2707170.1876182,27.573737373737,0,0
-71.681255446694,8.9615964180031,22.378167816782,2535470.682919,2099.0199265229,2707170.1876182,27.578167816782,0,0
-71.681254748265,8.9641794001941,22.382598259826,2535470.682919,2099.0199265229,2707170.1876182,27.582598259826,0,0
-71.681254049836,8.9667623823851,22.38702870287,2535470.682919,2099.0199265229,2707170.1876182,27.58702870287,0,0
-71.681253351406,8.969345364576,22.391459145915,2535470.682919,2099.0199265229,2707170.1876182,27.591459145915,0,0
-71.681252652977,8.971928346767,22.395889588959,2535470.682919,2099.0199265229,2707170.1876182,27.595889588959,0,0
-71.681251954548,8.974511328958,22.400320032003,2535470.682919,2099.0199265229,2707170.1876182,27.600320032003,0,0
-71.681251256119,8.977094311149,22.404750475048,2535470.682919,2099.0199265229,2707170.1876182,27.604750475048,0,0
-71.681250557689,8.9796772933399,22.409180918092,2535470.682919,2099.0199265229,2707170.1876182,27.609180918092,0,0
-71.68124985926,8.9822602755309,22.413611361136,2535470.682919,2099.0199265229,2707170.1876182,27.613611361136,0,0
-71.681249160831,8.9848432577219,22.41804180418,2535470.682919,2099.0199265229,2707170.1876182,27.61804180418,0,0
-71.681248462401,8.9874262399129,22.422472247225,2535470.682919,2099.0199265229,2707170.1876182,27.622472247225,0,0
-71.681247763972,8.9900092221038,22.426902690269,2535470.682919,2099.0199265229,2707170.1876182,27.626902690269,0,0
-71.681247065543,8.9925922042948,22.431333133313,2535470.682919,2099.0199265229,2707170.1876182,27.631333133313,0,0
-71.681246367114,8.9951751864858,22.435763576358,2535470.682919,2099.0199265229,2707170.1876182,27.635763576358,0,0
-71.681245668684,8.9977581686768,22.440194019402,2535470.682919,2099.0199265229,2707170.1876182,27.640194019402,0,0
-71.681244970255,9.0003411508678,22.444624462446,2535470.682919,2099.0199265229,2707170.1876182,27.644624462446,0,0
-71.681244271826,9.0029241330587,22.449054905491,2535470.682919,2099.0199265229,2707170.1876182,27.649054905491,0,0
-71.681243573396,9.0055071152497,22.453485348535,2535470.682919,2099.0199265229,2707170.1876182,27.653485348535,0,0
-71.681242874967,9.0080900974407,22.457915791579,2535470.682919,2099.0199265229,2707170.1876182,27.657915791579,0,0
-71.681242176538,9.0106730796317,22.462346234623,2535470.682919,2099.0199265229,2707170.1876182,27.662346234623,0,0
-71.681241478108,9.0132560618226,22.466776677668,2535470.682919,2099.0199265229,2707170.1876182,27.666776677668,0,0
-71.681240779679,9.0158390440136,22.471207120712,2535470.682919,2099.0199265229,2707170.1876182,27.671207120712,0,0
-71.68124008125,9.0184220262046,22.475637563756,2535470.682919,2099.0199265229,2707170.1876182,27.675637563756,0,0
-71.681239382821,9.0210050083956,22.480068006801,2535470.682919,2099.0199265229,2707170.1876182,27.680068006801,0,0
-71.681238684391,9.0235879905865,22.484498449845,2535470.682919,2099.0199265229,2707170.1876182,27.684498449845,0,0
-71.681237985962,9.0261709727775,22.488928892889,2535470.682919,2099.0199265229,2707170.1876182,27.688928892889,0,0
-71.681237287533,9.0287539549685,22.493359335934,2535470.682919,2099.0199265229,2707170.1876182,27.693359335934,0,0
-71.681236589103,9.0313369371595,22.497789778978,2535470.682919,2099.0199265229,2707170.1876182,27.697789778978,0,0
-71.681235890674,9.0339199193504,22.502220222022,2535470.682919,2099.0199265229,2707170.1876182,27.702220222022,0,0
-71.681235192245,9.0365029015414,22.506650665067,2535470.682919,2099.0199265229,2707170.1876182,27.706650665067,0,0
-71.681234493816,9.0390858837324,22.511081108111,2535470.682919,2099.0199265229,2707170.1876182,27.711081108111,0,0
-71.681233795386,9.0416688659234,22.515511551155,2535470.682919,2099.0199265229,2707170.1876182,27.715511551155,0,0
-71.681233096957,9.0442518481144,22.519941994199,2535470.682919,2099.0199265229,2707170.1876182,27.719941994199,0,0
-71.681232398528,9.0468348303053,22.524372437244,2535470.682919,2099.0199265229,2707170.1876182,27.724372437244,0,0
-71.681231700098,9.0494178124963,22.528802880288,2535470.682919,2099.0199265229,2707170.1876182,27.728802880288,0,0
-71.681231001669,9.0520007946873,22.533233323332,2535470.682919,2099.0199265229,2707170.1876182,27.733233323332,0,0
-71.68123030324,9.0545837768783,22.537663766377,2535470.682919,2099.0199265229,2707170.1876182,27.737663766377,0,0
-71.681229604811,9.0571667590692,22.542094209421,2535470.682919,2099.0199265229,2707170.1876182,27.742094209421,0,0
-71.681228906381,9.0597497412602,22.546524652465,2535470.682919,2099.0199265229,2707170.1876182,27.746524652465,0,0
-71.681228207952,9.0623327234512,22.55095509551,2535470.682919,2099.0199265229,2707170.1876182,27.75095509551,0,0
-71.681227509523,9.0649157056422,22.555385538554,2535470.682919,2099.0199265229,2707170.1876182,27.755385538554,0,0
-71.681226811093,9.0674986878331,22.559815981598,2535470.682919,2099.0199265229,2707170.1876182,27.759815981598,0,0
-71.681226112664,9.0700816700241,22.564246424642,2535470.682919,2099.0199265229,2707170.1876182,27.764246424642,0,0
-71.681225413397,9.0726646532254,22.568676867687,2543070.0290758,4508.7844990826,2704160.8157703,27.768676867687,0,0
-71.681224713444,9.0752476372543,22.573107310731,2543070.0290758,4508.7844990826,2704160.8157703,27.773107310731,0,0
-71.68122401349,9.0778306212833,22.577537753775,2543070.0290758,4508.7844990826,2704160.8157703,27.777537753775,0,0
-71.681223313537,9.0804136053123,22.58196819682,2543070.0290758,4508.7844990826,2704160.8157703,27.78196819682,0,0
-71.681222613584,9.0829965893412,22.586398639864,2543070.0290758,4508.7844990826,2704160.8157703,27.786398639864,0,0
-71.68122191363,9.0855795733702,22.590829082908,2543070.0290758,4508.7844990826,2704160.8157703,27.790829082908,0,0
-71.681221213677,9.0881625573991,22.595259525953,2543070.0290758,4508.7844990826,2704160.8157703,27.795259525953,0,0
-71.681220513724,9.0907455414281,22.599689968997,2543070.0290758,4508.7844990826,2704160.8157703,27.799689968997,0,0
-71.68121981377,9.0933285254571,22.604120412041,2543070.0290758,4508.7844990826,2704160.8157703,27.804120412041,0,0
-71.681219113817,9.095911509486,22.608550855086,2543070.0290758,4508.7844990826,2704160.8157703,27.808550855086,0,0
-71.681218413863,9.098494493515,22.61298129813,2543070.0290758,4508.7844990826,2704160.8157703,27.81298129813,0,0
-71.68121771391,9.101077477544,22.617411741174,2543070.0290758,4508.7844990826,2704160.8157703,27.817411741174,0,0
-71.681217013957,9.1036604615729,22.621842184218,2543070.0290758,4508.7844990826,2704160.8157703,27.821842184218,0,0
-71.681216314003,9.1062434456019,22.626272627263,2543070.0290757,4508.7844990826,2704160.8157703,27.826272627263,0,0
-71.68121561405,9.1088264296309,22.630703070307,2543070.0290757,4508.7844990826,2704160.8157703,27.830703070307,0,0
-71.681214914097,9.1114094136598,22.635133513351,2543070.0290757,4508.7844990826,2704160.8157703,27.835133513351,0,0
-71.681214214143,9.1139923976888,22.639563956396,2543070.0290757,4508.7844990826,2704160.8157703,27.839563956396,0,0
-71.68121351419,9.1165753817178,22.64399439944,2543070.0290757,4508.7844990826,2704160.8157703,27.84399439944,0,0
-71.681212814237,9.1191583657467,22.648424842484,2543070.0290758,4508.7844990826,2704160.8157703,27.848424842484,0,0
-71.681212114283,9.1217413497757,22.652855285529,2543070.0290758,4508.7844990826,2704160.8157703,27.852855285529,0,0
-71.68121141433,9.1243243338047,22.657285728573,2543070.0290758,4508.7844990826,2704160.8157703,27.857285728573,0,0
-71.681210714376,9.1269073178336,22.661716171617,2543070.0290758,4508.7844990826,2704160.8157703,27.861716171617,0,0
-71.681210014423,9.1294903018626,22.666146614661,2543070.0290758,4508.7844990826,2704160.8157703,27.866146614661,0,0
-71.68120931447,9.1320732858916,22.670577057706,2543070.0290758,4508.7844990826,2704160.8157703,27.870577057706,0,0
-71.681208614516,9.1346562699205,22.67500750075,2543070.0290758,4508.7844990826,2704160.8157703,27.87500750075,0,0
-71.681207914563,9.1372392539495,22.679437943794,2543070.0290758,4508.7844990826,2704160.8157703,27.879437943794,0,0
-71.68120721461,9.1398222379785,22.683868386839,2543070.0290758,4508.7844990826,2704160.8157703,27.883868386839,0,0
-71.681206514656,9.1424052220074,22.688298829883,2543070.0290758,4508.7844990826,2704160.8157703,27.888298829883,0,0
-71.681205814703,9.1449882060364,22.692729272927,2543070.0290758,4508.7844990826,2704160.8157703,27.892729272927,0,0
-71.681205114749,9.1475711900654,22.697159715972,2543070.0290758,4508.7844990826,2704160.8157703,27.897159715972,0,0
-71.681204414796,9.1501541740943,22.701590159016,2543070.0290758,4508.7844990826,2704160.8157703,27.901590159016,0,0
-71.681203714843,9.1527371581233,22.70602060206,2543070.0290758,4508.7844990826,2704160.8157703,27.90602060206,0,0
-71.681203014889,9.1553201421523,22.710451045105,2543070.0290758,4508.7844990826,2704160.8157703,27.910451045105,0,0
-71.681202314936,9.1579031261812,22.714881488149,2543070.0290758,4508.7844990826,2704160.8157703,27.914881488149,0,0
-71.681201614983,9.1604861102102,22.719311931193,2543070.0290758,4508.7844990826,2704160.8157703,27.919311931193,0,0
-71.681200915029,9.1630690942391,22.723742374237,2543070.0290758,4508.7844990826,2704160.8157703,27.923742374237,0,0
-71.681200215076,9.1656520782681,22.728172817282,2543070.0290758,4508.7844990826,2704160.8157703,27.928172817282,0,0
-71.681199515122,9.1682350622971,22.732603260326,2543070.0290758,4508.7844990826,2704160.8157703,27.932603260326,0,0
-71.681198815169,9.170818046326,22.73703370337,2543070.0290758,4508.7844990826,2704160.8157703,27.93703370337,0,0
-71.681198115216,9.173401030355,22.741464146415,2543070.0290758,4508.7844990826,2704160.8157703,27.941464146415,0,0
-71.681197415262,9.175984014384,22.745894589459,2543070.0290757,4508.7844990826,2704160.8157703,27.945894589459,0,0
-71.681196715309,9.1785669984129,22.750325032503,2543070.0290757,4508.7844990826,2704160.8157703,27.950325032503,0,0
-71.681196015356,9.1811499824419,22.754755475548,2543070.0290757,4508.7844990826,2704160.8157703,27.954755475548,0,0
-71.681195315402,9.1837329664709,22.759185918592,2543070.0290757,4508.7844990826,2704160.8157703,27.959185918592,0,0
-71.681194615449,9.1863159504998,22.763616361636,2543070.0290757,4508.7844990826,2704160.8157703,27.963616361636,0,0
-71.681193915496,9.1888989345288,22.76804680468,2543070.0290758,4508.7844990826,2704160.8157703,27.96804680468,0,0
-71.681193215542,9.1914819185578,22.772477247725,2543070.0290758,4508.7844990826,2704160.8157703,27.972477247725,0,0
-71.681192515589,9.1940649025867,22.776907690769,2543070.0290758,4508.7844990826,2704160.8157703,27.976907690769,0,0
-71.681191815635,9.1966478866157,22.781338133813,2543070.0290758,4508.7844990826,2704160.8157703,27.981338133813,0,0
-71.681191115682,9.1992308706447,22.785768576858,2543070.0290758,4508.7844990826,2704160.8157703,27.985768576858,0,0
-71.681190415729,9.2018138546736,22.790199019902,2543070.0290758,4508.7844990826,2704160.8157703,27.990199019902,0,0
-71.681189715775,9.2043968387026,22.794629462946,2543070.0290758,4508.7844990826,2704160.8157703,27.994629462946,0,0
-71.681189015822,9.2069798227316,22.799059905991,2543070.0290758,4508.7844990826,2704160.8157703,27.999059905991,0,0
-71.681188315869,9.2095628067605,22.803490349035,2543070.0290758,4508.7844990826,2704160.8157703,28.003490349035,0,0
-71.681187615915,9.2121457907895,22.807920792079,2543070.0290758,4508.7844990826,2704160.8157703,28.007920792079,0,0
-71.681186915962,9.2147287748185,22.812351235124,2543070.0290758,4508.7844990826,2704160.8157703,28.012351235124,0,0
-71.681186216008,9.2173117588474,22.816781678168,2543070.0290758,4508.7844990826,2704160.8157703,28.016781678168,0,0
-71.681185516055,9.2198947428764,22.821212121212,2543070.0290758,4508.7844990826,2704160.8157703,28.021212121212,0,0
-71.681184816102,9.2224777269054,22.825642564256,2543070.0290758,4508.7844990826,2704160.8157703,28.025642564256,0,0
-71.681184115755,9.225060709829,22.830073007301,2545412.8430468,1015.4270606279,2697218.212961,28.030073007301,0,0
-71.68118341506,9.2276436917771,22.834503450345,2545412.8430468,1015.4270606279,2697218.212961,28.034503450345,0,0
-71.681182714366,9.2302266737251,22.838933893389,2545412.8430468,1015.4270606279,2697218.212961,28.038933893389,0,0
-71.681182013671,9.2328096556731,22.843364336434,2545412.8430468,1015.4270606279,2697218.212961,28.043364336434,0,0
-71.681181312977,9.2353926376212,22.847794779478,2545412.8430468,1015.4270606279,2697218.212961,28.047794779478,0,0
-71.681180612282,9.2379756195692,22.852225222522,2545412.8430468,1015.4270606279,2697218.212961,28.052225222522,0,0
-71.681179911588,9.2405586015172,22.856655665567,2545412.8430468,1015.4270606279,2697218.212961,28.056655665567,0,0
-71.681179210893,9.2431415834653,22.861086108611,2545412.8430468,1015.4270606279,2697218.212961,28.061086108611,0,0
-71.681178510198,9.2457245654133,22.865516551655,2545412.8430468,1015.4270606279,2697218.212961,28.065516551655,0,0
-71.681177809504,9.2483075473613,22.869946994699,2545412.8430468,1015.4270606279,2697218.212961,28.069946994699,0,0
-71.681177108809,9.2508905293093,22.874377437744,2545412.8430468,1015.4270606279,2697218.212961,28.074377437744,0,0
-71.681176408115,9.2534735112574,22.878807880788,2545412.8430468,1015.4270606279,2697218.212961,28.078807880788,0,0
-71.68117570742,9.2560564932054,22.883238323832,2545412.8430468,1015.4270606279,2697218.212961,28.083238323832,0,0
-71.681175006726,9.2586394751534,22.887668766877,2545412.8430468,1015.4270606279,2697218.212961,28.087668766877,0,0
-71.681174306031,9.2612224571015,22.892099209921,2545412.8430468,1015.4270606279,2697218.212961,28.092099209921,0,0
-71.681173605337,9.2638054390495,22.896529652965,2545412.8430468,1015.4270606279,2697218.212961,28.096529652965,0,0
-71.681172904642,9.2663884209975,22.90096009601,2545412.8430468,1015.4270606279,2697218.212961,28.10096009601,0,0
-71.681172203948,9.2689714029456,22.905390539054,2545412.8430468,1015.4270606279,2697218.212961,28.105390539054,0,0
-71.681171503253,9.2715543848936,22.909820982098,2545412.8430468,1015.4270606279,2697218.212961,28.109820982098,0,0
-71.681170802559,9.2741373668416,22.914251425143,2545412.8430468,1015.4270606279,2697218.212961,28.114251425143,0,0
-71.681170101864,9.2767203487897,22.918681868187,2545412.8430468,1015.4270606279,2697218.212961,28.118681868187,0,0
-71.68116940117,9.2793033307377,22.923112311231,2545412.8430468,1015.4270606279,2697218.212961,28.123112311231,0,0
-71.681168700475,9.2818863126857,22.927542754275,2545412.8430468,1015.4270606279,2697218.212961,28.127542754275,0,0
-71.681167999781,9.2844692946337,22.93197319732,2545412.8430468,1015.4270606279,2697218.212961,28.13197319732,0,0
-71.681167299086,9.2870522765818,22.936403640364,2545412.8430468,1015.4270606279,2697218.212961,28.136403640364,0,0
-71.681166598392,9.2896352585298,22.940834083408,2545412.8430468,1015.4270606279,2697218.212961,28.140834083408,0,0
-71.681165897697,9.2922182404778,22.945264526453,2545412.8430468,1015.4270606279,2697218.212961,28.145264526453,0,0
-71.681165197003,9.2948012224259,22.949694969497,2545412.8430468,1015.4270606279,2697218.212961,28.149694969497,0,0
-71.681164496308,9.2973842043739,22.954125412541,2545412.8430468,1015.4270606279,2697218.212961,28.154125412541,0,0
-71.681163795614,9.2999671863219,22.958555855586,2545412.8430468,1015.4270606279,2697218.212961,28.158555855586,0,0
-71.681163094919,9.30255016827,22.96298629863,2545412.8430468,1015.4270606279,2697218.212961,28.16298629863,0,0
-71.681162394224,9.305133150218,22.967416741674,2545412.8430468,1015.4270606279,2697218.212961,28.167416741674,0,0
-71.68116169353,9.307716132166,22.971847184718,2545412.8430468,1015.4270606279,2697218.212961,28.171847184718,0,0
-71.681160992835,9.3102991141141,22.976277627763,2545412.8430468,1015.4270606279,2697218.212961,28.176277627763,0,0
-71.681160292141,9.3128820960621,22.980708070807,2545412.8430468,1015.4270606279,2697218.212961,28.180708070807,0,0
-71.681159591446,9.3154650780101,22.985138513851,2545412.8430468,1015.4270606279,2697218.212961,28.185138513851,0,0
-71.681158890752,9.3180480599581,22.989568956896,2545412.8430468,1015.4270606279,2697218.212961,28.189568956896,0,0
-71.681158190057,9.3206310419062,22.99399939994,2545412.8430468,1015.4270606279,2697218.212961,28.19399939994,0,0
-71.681157489363,9.3232140238542,22.998429842984,2545412.8430468,1015.4270606279,2697218.212961,28.198429842984,0,0
-71.681156788668,9.3257970058022,23.002860286029,2545412.8430468,1015.4270606279,2697218.212961,28.202860286029,0,0
-71.681156087974,9.3283799877503,23.007290729073,2545412.8430468,1015.4270606279,2697218.212961,28.207290729073,0,0
-71.681155387279,9.3309629696983,23.011721172117,2545412.8430468,1015.4270606279,2697218.212961,28.211721172117,0,0
-71.681154686585,9.3335459516463,23.016151615162,2545412.8430468,1015.4270606279,2697218.212961,28.216151615162,0,0
-71.68115398589,9.3361289335944,23.020582058206,2545412.8430468,1015.4270606279,2697218.212961,28.220582058206,0,0
-71.681153285196,9.3387119155424,23.02501250125,2545412.8430468,1015.4270606279,2697218.212961,28.22501250125,0,0
-71.681152584501,9.3412948974904,23.029442944294,2545412.8430468,1015.4270606279,2697218.212961,28.229442944294,0,0
-71.681151883807,9.3438778794384,23.033873387339,2545412.8430468,1015.4270606279,2697218.212961,28.233873387339,0,0
-71.681151183112,9.3464608613865,23.038303830383,2545412.8430468,1015.4270606279,2697218.212961,28.238303830383,0,0
-71.681150482418,9.3490438433345,23.042734273427,2545412.8430468,1015.4270606279,2697218.212961,28.242734273427,0,0
-71.681149781723,9.3516268252825,23.047164716472,2545412.8430468,1015.4270606279,2697218.212961,28.247164716472,0,0
-71.681149081028,9.3542098072306,23.051595159516,2545412.8430468,1015.4270606279,2697218.212961,28.251595159516,0,0
-71.681148380334,9.3567927891786,23.05602560256,2545412.8430468,1015.4270606279,2697218.212961,28.25602560256,0,0
-71.681147679639,9.3593757711266,23.060456045605,2545412.8430468,1015.4270606279,2697218.212961,28.260456045605,0,0
-71.681146978945,9.3619587530747,23.064886488649,2545412.8430468,1015.4270606279,2697218.212961,28.264886488649,0,0
-71.68114627825,9.3645417350227,23.069316931693,2545412.8430468,1015.4270606279,2697218.212961,28.269316931693,0,0
-71.681145577556,9.3671247169707,23.073747374737,2545412.8430468,1015.4270606279,2697218.212961,28.273747374737,0,0
-71.681144876861,9.3697076989188,23.078177817782,2545412.8430468,1015.4270606279,2697218.212961,28.278177817782,0,0
-71.681144176167,9.3722906808668,23.082608260826,2545412.8430468,1015.4270606279,2697218.212961,28.282608260826,0,0
-71.681143475472,9.3748736628148,23.08703870387,2545412.8430468,1015.4270606279,2697218.212961,28.28703870387,0,0
-71.681142774778,9.3774566447628,23.091469146915,2545412.8430468,1015.4270606279,2697218.212961,28.291469146915,0,0
-71.681142074083,9.3800396267109,23.095899589959,2545412.8430468,1015.4270606279,2697218.212961,28.295899589959,0,0
-71.681141373389,9.3826226086589,23.100330033003,2545412.8430468,1015.4270606279,2697218.212961,28.300330033003,0,0
-71.681140672694,9.3852055906069,23.104760476048,2545412.8430468,1015.4270606279,2697218.212961,28.304760476048,0,0
-71.681139972,9.387788572555,23.109190919092,2545412.8430468,1015.4270606279,2697218.212961,28.309190919092,0,0
-71.681139271305,9.390371554503,23.113621362136,2545412.8430468,1015.4270606279,2697218.212961,28.313621362136,0,0
-71.681138570611,9.392954536451,23.118051805181,2545412.8430468,1015.4270606279,2697218.212961,28.318051805181,0,0
-71.681137869916,9.3955375183991,23.122482248225,2545412.8430468,1015.4270606279,2697218.212961,28.322482248225,0,0
-71.681137169222,9.3981205003471,23.126912691269,2545412.8430468,1015.4270606279,2697218.212961,28.326912691269,0,0
-71.681136468527,9.4007034822951,23.131343134313,2545412.8430468,1015.4270606279,2697218.212961,28.331343134313,0,0
-71.681135767833,9.4032864642431,23.135773577358,2545412.8430468,1015.4270606279,2697218.212961,28.335773577358,0,0
-71.681135067138,9.4058694461912,23.140204020402,2545412.8430468,1015.4270606279,2697218.212961,28.340204020402,0,0
-71.681134366444,9.4084524281392,23.144634463446,2545412.8430468,1015.4270606279,2697218.212961,28.344634463446,0,0
-71.681133665749,9.4110354100872,23.149064906491,2545412.8430468,1015.4270606279,2697218.212961,28.349064906491,0,0
-71.681132965054,9.4136183920353,23.153495349535,2545412.8430468,1015.4270606279,2697218.212961,28.353495349535,0,0
-71.68113226436,9.4162013739833,23.157925792579,2545412.8430468,1015.4270606279,2697218.212961,28.357925792579,0,0
-71.681131563665,9.4187843559313,23.162356235624,2545412.8430468,1015.4270606279,2697218.212961,28.362356235624,0,0
-71.681130862971,9.4213673378794,23.166786678668,2545412.8430468,1015.4270606279,2697218.212961,28.366786678668,0,0
-71.681130162276,9.4239503198274,23.171217121712,2545412.8430468,1015.4270606279,2697218.212961,28.371217121712,0,0
-71.681129461582,9.4265333017754,23.175647564756,2545412.8430468,1015.4270606279,2697218.212961,28.375647564756,0,0
-71.681128760887,9.4291162837235,23.180078007801,2545412.8430468,1015.4270606279,2697218.212961,28.380078007801,0,0
-71.681128060193,9.4316992656715,23.184508450845,2545412.8430468,1015.4270606279,2697218.212961,28.384508450845,0,0
-71.681127359498,9.4342822476195,23.188938893889,2545412.8430468,1015.4270606279,2697218.212961,28.388938893889,0,0
-71.681126658804,9.4368652295675,23.193369336934,2545412.8430468,1015.4270606279,2697218.212961,28.393369336934,0,0
-71.681125958109,9.4394482115156,23.197799779978,2545412.8430468,1015.4270606279,2697218.212961,28.397799779978,0,0
-71.681125257415,9.4420311934636,23.202230223022,2545412.8430468,1015.4270606279,2697218.212961,28.402230223022,0,0
-71.68112455672,9.4446141754116,23.206660666067,2545412.8430468,1015.4270606279,2697218.212961,28.406660666067,0,0
-71.681123856026,9.4471971573597,23.211091109111,2545412.8430468,1015.4270606279,2697218.212961,28.411091109111,0,0
-71.681123155331,9.4497801393077,23.215521552155,2545412.8430468,1015.4270606279,2697218.212961,28.415521552155,0,0
-71.681122454637,9.4523631212557,23.2199519952,2545412.8430468,1015.4270606279,2697218.212961,28.4199519952,0,0
-71.681121753942,9.4549461032038,23.224382438244,2545412.8430468,1015.4270606279,2697218.212961,28.424382438244,0,0
-71.681121053248,9.4575290851518,23.228812881288,2545412.8430468,1015.4270606279,2697218.212961,28.428812881288,0,0
-71.681120352553,9.4601120670998,23.233243324332,2545412.8430468,1015.4270606279,2697218.212961,28.433243324332,0,0
-71.681119651858,9.4626950490479,23.237673767377,2545412.8430468,1015.4270606279,2697218.212961,28.437673767377,0,0
-71.681118951164,9.4652780309959,23.242104210421,2545412.8430468,1015.4270606279,2697218.212961,28.442104210421,0,0
-71.681118250469,9.4678610129439,23.246534653465,2545412.8430468,1015.4270606279,2697218.212961,28.446534653465,0,0
-71.681117549775,9.4704439948919,23.25096509651,2545412.8430468,1015.4270606279,2697218.212961,28.45096509651,0,0
-71.68111684908,9.47302697684,23.255395539554,2545412.8430468,1015.4270606279,2697218.212961,28.455395539554,0,0
-71.681116148386,9.475609958788,23.259825982598,2545412.8430468,1015.4270606279,2697218.212961,28.459825982598,0,0
-71.681115447691,9.478192940736,23.264256425643,2545412.8430468,1015.4270606279,2697218.212961,28.464256425643,0,0
-71.681114746997,9.4807759226841,23.268686868687,2545412.8430468,1015.4270606279,2697218.212961,28.468686868687,0,0
-71.681114046302,9.4833589046321,23.273117311731,2545412.8430468,1015.4270606279,2697218.212961,28.473117311731,0,0
-71.681113345608,9.4859418865801,23.277547754775,2545412.8430468,1015.4270606279,2697218.212961,28.477547754775,0,0
-71.681112644913,9.4885248685282,23.28197819782,2545412.8430468,1015.4270606279,2697218.212961,28.48197819782,0,0
-71.681111944219,9.4911078504762,23.286408640864,2545412.8430468,1015.4270606279,2697218.212961,28.486408640864,0,0
-71.681111243524,9.4936908324242,23.290839083908,2545412.8430468,1015.4270606279,2697218.212961,28.490839083908,0,0
-71.68111054283,9.4962738143723,23.295269526953,2545412.8430468,1015.4270606279,2697218.212961,28.495269526953,0,0
-71.681109842135,9.4988567963203,23.299699969997,2545412.8430468,1015.4270606279,2697218.212961,28.499699969997,0,0
-71.681109141441,9.5014397782683,23.304130413041,2545412.8430468,1015.4270606279,2697218.212961,28.504130413041,0,0
-71.681108440746,9.5040227602163,23.308560856086,2545412.8430468,1015.4270606279,2697218.212961,28.508560856086,0,0
-71.681107740052,9.5066057421644,23.31299129913,2545412.8430468,1015.4270606279,2697218.212961,28.51299129913,0,0
-71.681107039357,9.5091887241124,23.317421742174,2545412.8430468,1015.4270606279,2697218.212961,28.517421742174,0,0
-71.681106338663,9.5117717060604,23.321852185219,2545412.8430468,1015.4270606279,2697218.212961,28.521852185219,0,0
-71.681105637968,9.5143546880085,23.326282628263,2545412.8430468,1015.4270606279,2697218.212961,28.526282628263,0,0
-71.681104937273,9.5169376699565,23.330713071307,2545412.8430468,1015.4270606279,2697218.212961,28.530713071307,0,0
-71.681104236579,9.5195206519045,23.335143514351,2545412.8430468,1015.4270606279,2697218.212961,28.535143514351,0,0
-71.681103535884,9.5221036338526,23.339573957396,2545412.8430468,1015.4270606279,2697218.212961,28.539573957396,0,0
-71.68110283519,9.5246866158006,23.34400440044,2545412.8430468,1015.4270606279,2697218.212961,28.54400440044,0,0
-71.681102134495,9.5272695977486,23.348434843484,2545412.8430468,1015.4270606279,2697218.212961,28.548434843484,0,0
-71.681101433801,9.5298525796966,23.352865286529,2545412.8430468,1015.4270606279,2697218.212961,28.552865286529,0,0
-71.681100733106,9.5324355616447,23.357295729573,2545412.8430468,1015.4270606279,2697218.212961,28.557295729573,0,0
-71.681100032412,9.5350185435927,23.361726172617,2545412.8430468,1015.4270606279,2697218.212961,28.561726172617,0,0
-71.681099331717,9.5376015255407,23.366156615662,2545412.8430468,1015.4270606279,2697218.212961,28.566156615662,0,0
-71.681098631023,9.5401845074888,23.370587058706,2545412.8430468,1015.4270606279,2697218.212961,28.570587058706,0,0
-71.681097930328,9.5427674894368,23.37501750175,2545412.8430468,1015.4270606279,2697218.212961,28.57501750175,0,0
-71.681097229634,9.5453504713848,23.379447944794,2545412.8430468,1015.4270606279,2697218.212961,28.579447944794,0,0
-71.681096528939,9.5479334533329,23.383878387839,2545412.8430468,1015.4270606279,2697218.212961,28.583878387839,0,0
-71.681095828245,9.5505164352809,23.388308830883,2545412.8430468,1015.4270606279,2697218.212961,28.588308830883,0,0
-71.68109512755,9.5530994172289,23.392739273927,2545412.8430468,1015.4270606279,2697218.212961,28.592739273927,0,0
-71.681094426856,9.555682399177,23.397169716972,2545412.8430468,1015.4270606279,2697218.212961,28.597169716972,0,0
-71.681093726161,9.558265381125,23.401600160016,2545412.8430468,1015.4270606279,2697218.212961,28.601600160016,0,0
-71.681093025467,9.560848363073,23.40603060306,2545412.8430468,1015.4270606279,2697218.212961,28.60603060306,0,0
-71.681092324772,9.563431345021,23.410461046105,2545412.8430468,1015.4270606279,2697218.212961,28.610461046105,0,0
-71.681091624078,9.5660143269691,23.414891489149,2545412.8430468,1015.4270606279,2697218.212961,28.614891489149,0,0
-71.681090923383,9.5685973089171,23.419321932193,2545412.8430468,1015.4270606279,2697218.212961,28.619321932193,0,0
-71.681090222688,9.5711802908651,23.423752375238,2545412.8430468,1015.4270606279,2697218.212961,28.623752375238,0,0
-71.681089521994,9.5737632728132,23.428182818282,2545412.8430468,1015.4270606279,2697218.212961,28.628182818282,0,0
-71.681088821299,9.5763462547612,23.432613261326,2545412.8430468,1015.4270606279,2697218.212961,28.632613261326,0,0
-71.681088120605,9.5789292367092,23.43704370437,2545412.8430468,1015.4270606279,2697218.212961,28.63704370437,0,0
-71.68108741991,9.5815122186573,23.441474147415,2545412.8430468,1015.4270606279,2697218.212961,28.641474147415,0,0
-71.681086719216,9.5840952006053,23.445904590459,2545412.8430468,1015.4270606279,2697218.212961,28.645904590459,0,0
-71.681086018521,9.5866781825533,23.450335033503,2545412.8430468,1015.4270606279,2697218.212961,28.650335033503,0,0
-71.681085317827,9.5892611645013,23.454765476548,2545412.8430468,1015.4270606279,2697218.212961,28.654765476548,0,0
-71.681084617132,9.5918441464494,23.459195919592,2545412.8430468,1015.4270606279,2697218.212961,28.659195919592,0,0
-71.681083916438,9.5944271283974,23.463626362636,2545412.8430468,1015.4270606279,2697218.212961,28.663626362636,0,0
-71.681083215743,9.5970101103454,23.468056805681,2545412.8430468,1015.4270606279,2697218.212961,28.668056805681,0,0
-71.681082515049,9.5995930922935,23.472487248725,2545412.8430468,1015.4270606279,2697218.212961,28.672487248725,0,0
-71.681081814354,9.6021760742415,23.476917691769,2545412.8430468,1015.4270606279,2697218.212961,28.676917691769,0,0
-71.68108111366,9.6047590561895,23.481348134813,2545412.8430468,1015.4270606279,2697218.212961,28.681348134813,0,0
-71.681080412965,9.6073420381376,23.485778577858,2545412.8430468,1015.4270606279,2697218.212961,28.685778577858,0,0
-71.681079712271,9.6099250200856,23.490209020902,2545412.8430468,1015.4270606279,2697218.212961,28.690209020902,0,0
-71.681079011576,9.6125080020336,23.494639463946,2545412.8430468,1015.4270606279,2697218.212961,28.694639463946,0,0
-71.681078310882,9.6150909839817,23.499069906991,2545412.8430468,1015.4270606279,2697218.212961,28.699069906991,0,0
-71.681077610187,9.6176739659297,23.503500350035,2545412.8430468,1015.4270606279,2697218.212961,28.703500350035,0,0
-71.681076909493,9.6202569478777,23.507930793079,2545412.8430468,1015.4270606279,2697218.212961,28.707930793079,0,0
-71.681076208798,9.6228399298257,23.512361236124,2545412.8430468,1015.4270606279,2697218.212961,28.712361236124,0,0
-71.681075508103,9.6254229117738,23.516791679168,2545412.8430468,1015.4270606279,2697218.212961,28.716791679168,0,0
-71.681074807409,9.6280058937218,23.521222122212,2545412.8430468,1015.4270606279,2697218.212961,28.721222122212,0,0
-71.681074106714,9.6305888756698,23.525652565257,2545412.8430468,1015.4270606279,2697218.212961,28.725652565257,0,0
-71.68107340602,9.6331718576179,23.530083008301,2545412.8430468,1015.4270606279,2697218.212961,28.730083008301,0,0
-71.681072705325,9.6357548395659,23.534513451345,2545412.8430468,1015.4270606279,2697218.212961,28.734513451345,0,0
-71.681072004631,9.6383378215139,23.538943894389,2545412.8430468,1015.4270606279,2697218.212961,28.738943894389,0,0
-71.681071303936,9.640920803462,23.543374337434,2545412.8430468,1015.4270606279,2697218.212961,28.743374337434,0,0
-71.681070603242,9.64350378541,23.547804780478,2545412.8430468,1015.4270606279,2697218.212961,28.747804780478,0,0
-71.681069902547,9.646086767358,23.552235223522,2545412.8430468,1015.4270606279,2697218.212961,28.752235223522,0,0
-71.681069201853,9.6486697493061,23.556665666567,2545412.8430468,1015.4270606279,2697218.212961,28.756665666567,0,0
-71.681068501158,9.6512527312541,23.561096109611,2545412.8430468,1015.4270606279,2697218.212961,28.761096109611,0,0
-71.681067800464,9.6538357132021,23.565526552655,2545412.8430468,1015.4270606279,2697218.212961,28.765526552655,0,0
-71.681067099769,9.6564186951501,23.5699569957,2545412.8430468,1015.4270606279,2697218.212961,28.7699569957,0,0
-71.681066399075,9.6590016770982,23.574387438744,2545412.8430468,1015.4270606279,2697218.212961,28.774387438744,0,0
-71.68106569838,9.6615846590462,23.578817881788,2545412.8430468,1015.4270606279,2697218.212961,28.778817881788,0,0
-71.681064997686,9.6641676409942,23.583248324832,2545412.8430468,1015.4270606279,2697218.212961,28.783248324832,0,0
-71.681064296991,9.6667506229423,23.587678767877,2545412.8430468,1015.4270606279,2697218.212961,28.787678767877,0,0
-71.681063596297,9.6693336048903,23.592109210921,2545412.8430468,1015.4270606279,2697218.212961,28.792109210921,0,0
-71.681062895602,9.6719165868383,23.596539653965,2545412.8430468,1015.4270606279,2697218.212961,28.796539653965,0,0
-71.681062194908,9.6744995687864,23.60097009701,2545412.8430468,1015.4270606279,2697218.212961,28.80097009701,0,0
-71.681061494213,9.6770825507344,23.605400540054,2545412.8430468,1015.4270606279,2697218.212961,28.805400540054,0,0
-71.681060793518,9.6796655326824,23.609830983098,2545412.8430468,1015.4270606279,2697218.212961,28.809830983098,0,0
-71.681060092824,9.6822485146304,23.614261426143,2545412.8430468,1015.4270606279,2697218.212961,28.814261426143,0,0
-71.681059392129,9.6848314965785,23.618691869187,2545412.8430468,1015.4270606279,2697218.212961,28.818691869187,0,0
-71.681058691435,9.6874144785265,23.623122312231,2545412.8430468,1015.4270606279,2697218.212961,28.823122312231,0,0
-71.68105799074,9.6899974604745,23.627552755276,2545412.8430468,1015.4270606279,2697218.212961,28.827552755276,0,0
-71.681057290046,9.6925804424226,23.63198319832,2545412.8430468,1015.4270606279,2697218.212961,28.83198319832,0,0
-71.681056589351,9.6951634243706,23.636413641364,2545412.8430468,1015.4270606279,2697218.212961,28.836413641364,0,0
-71.681055888657,9.6977464063186,23.640844084408,2545412.8430468,1015.4270606279,2697218.212961,28.840844084408,0,0
-71.681055187962,9.7003293882667,23.645274527453,2545412.8430468,1015.4270606279,2697218.212961,28.845274527453,0,0
-71.681054487268,9.7029123702147,23.649704970497,2545412.8430468,1015.4270606279,2697218.212961,28.849704970497,0,0
-71.681053786573,9.7054953521627,23.654135413541,2545412.8430468,1015.4270606279,2697218.212961,28.854135413541,0,0
-71.681053085879,9.7080783341108,23.658565856586,2545412.8430468,1015.4270606279,2697218.212961,28.858565856586,0,0
-71.681052385184,9.7106613160588,23.66299629963,2545412.8430468,1015.4270606279,2697218.212961,28.86299629963,0,0
-71.68105168449,9.7132442980068,23.667426742674,2545412.8430468,1015.4270606279,2697218.212961,28.867426742674,0,0
-71.681050983795,9.7158272799548,23.671857185719,2545412.8430468,1015.4270606279,2697218.212961,28.871857185719,0,0
-71.681050283101,9.7184102619029,23.676287628763,2545412.8430468,1015.4270606279,2697218.212961,28.876287628763,0,0
-71.681049582406,9.7209932438509,23.680718071807,2545412.8430468,1015.4270606279,2697218.212961,28.880718071807,0,0
-71.681048881712,9.7235762257989,23.685148514851,2545412.8430468,1015.4270606279,2697218.212961,28.885148514851,0,0
-71.681048181017,9.726159207747,23.689578957896,2545412.8430468,1015.4270606279,2697218.212961,28.889578957896,0,0
-71.681047480323,9.728742189695,23.69400940094,2545412.8430468,1015.4270606279,2697218.212961,28.89400940094,0,0
-71.681046779628,9.731325171643,23.698439843984,2545412.8430468,1015.4270606279,2697218.212961,28.898439843984,0,0
-71.681046078933,9.7339081535911,23.702870287029,2545412.8430468,1015.4270606279,2697218.212961,28.902870287029,0,0
-71.681045378239,9.7364911355391,23.707300730073,2545412.8430468,1015.4270606279,2697218.212961,28.907300730073,0,0
-71.681044677544,9.7390741174871,23.711731173117,2545412.8430468,1015.4270606279,2697218.212961,28.911731173117,0,0
-71.68104397685,9.7416570994352,23.716161616162,2545412.8430468,1015.4270606279,2697218.212961,28.916161616162,0,0
-71.681043276155,9.7442400813832,23.720592059206,2545412.8430468,1015.4270606279,2697218.212961,28.920592059206,0,0
-71.681042575461,9.7468230633312,23.72502250225,2545412.8430468,1015.4270606279,2697218.212961,28.92502250225,0,0
-71.681041874766,9.7494060452792,23.729452945295,2545412.8430468,1015.4270606279,2697218.212961,28.929452945295,0,0
-71.681041174072,9.7519890272273,23.733883388339,2545412.8430468,1015.4270606279,2697218.212961,28.933883388339,0,0
-71.681040473377,9.7545720091753,23.738313831383,2545412.8430468,1015.4270606279,2697218.212961,28.938313831383,0,0
-71.681039772683,9.7571549911233,23.742744274427,2545412.8430468,1015.4270606279,2697218.212961,28.942744274427,0,0
-71.681039071988,9.7597379730714,23.747174717472,2545412.8430468,1015.4270606279,2697218.212961,28.947174717472,0,0
-71.681038371294,9.7623209550194,23.751605160516,2545412.8430468,1015.4270606279,2697218.212961,28.951605160516,0,0
-71.681037670599,9.7649039369674,23.75603560356,2545412.8430468,1015.4270606279,2697218.212961,28.95603560356,0,0
-71.681036969905,9.7674869189155,23.760466046605,2545412.8430468,1015.4270606279,2697218.212961,28.960466046605,0,0
-71.68103626921,9.7700699008635,23.764896489649,2545412.8430468,1015.4270606279,2697218.212961,28.964896489649,0,0
-71.681035568516,9.7726528828115,23.769326932693,2545412.8430468,1015.4270606279,2697218.212961,28.969326932693,0,0
-71.681034867821,9.7752358647595,23.773757375738,2545412.8430468,1015.4270606279,2697218.212961,28.973757375738,0,0
-71.681034167127,9.7778188467076,23.778187818782,2545412.8430468,1015.4270606279,2697218.212961,28.978187818782,0,0
-71.681033466432,9.7804018286556,23.782618261826,2545412.8430468,1015.4270606279,2697218.212961,28.982618261826,0,0
-71.681032765738,9.7829848106036,23.78704870487,2545412.8430468,1015.4270606279,2697218.212961,28.98704870487,0,0
-71.681032065043,9.7855677925517,23.791479147915,2545412.8430468,1015.4270606279,2697218.212961,28.991479147915,0,0
-71.681031364348,9.7881507744997,23.795909590959,2545412.8430468,1015.4270606279,2697218.212961,28.995909590959,0,0
-71.681030663654,9.7907337564477,23.800340034003,2545412.8430468,1015.4270606279,2697218.212961,29.000340034003,0,0
-71.681029962959,9.7933167383958,23.804770477048,2545412.8430468,1015.4270606279,2697218.212961,29.004770477048,0,0
-71.681029262265,9.7958997203438,23.809200920092,2545412.8430468,1015.4270606279,2697218.212961,29.009200920092,0,0
-71.68102856157,9.7984827022918,23.813631363136,2545412.8430468,1015.4270606279,2697218.212961,29.013631363136,0,0
-71.681027860876,9.8010656842399,23.818061806181,2545412.8430468,1015.4270606279,2697218.212961,29.018061806181,0,0
-71.681027160181,9.8036486661879,23.822492249225,2545412.8430468,1015.4270606279,2697218.212961,29.022492249225,0,0
-71.681026459487,9.8062316481359,23.826922692269,2545412.8430468,1015.4270606279,2697218.212961,29.026922692269,0,0
-71.681025758792,9.8088146300839,23.831353135314,2545412.8430468,1015.4270606279,2697218.212961,29.031353135314,0,0
-71.681025058098,9.811397612032,23.835783578358,2545412.8430468,1015.4270606279,2697218.212961,29.035783578358,0,0
-71.681024357403,9.81398059398,23.840214021402,2545412.8430468,1015.4270606279,2697218.212961,29.040214021402,0,0
-71.681023656709,9.816563575928,23.844644464446,2545412.8430468,1015.4270606279,2697218.212961,29.044644464446,0,0
-71.681022956014,9.8191465578761,23.849074907491,2545412.8430468,1015.4270606279,2697218.212961,29.049074907491,0,0
-71.68102225532,9.8217295398241,23.853505350535,2545412.8430468,1015.4270606279,2697218.212961,29.053505350535,0,0
-71.681021554625,9.8243125217721,23.857935793579,2545412.8430468,1015.4270606279,2697218.212961,29.057935793579,0,0
-71.681020853931,9.8268955037202,23.862366236624,2545412.8430468,1015.4270606279,2697218.212961,29.062366236624,0,0
-71.681020153236,9.8294784856682,23.866796679668,2545412.8430468,1015.4270606279,2697218.212961,29.066796679668,0,0
-71.681019452542,9.8320614676162,23.871227122712,2545412.8430468,1015.4270606279,2697218.212961,29.071227122712,0,0
-71.681018751847,9.8346444495642,23.875657565757,2545412.8430468,1015.4270606279,2697218.212961,29.075657565757,0,0
-71.681018051153,9.8372274315123,23.880088008801,2545412.8430468,1015.4270606279,2697218.212961,29.080088008801,0,0
-71.681017350458,9.8398104134603,23.884518451845,2545412.8430468,1015.4270606279,2697218.212961,29.084518451845,0,0
-71.681016649763,9.8423933954083,23.888948894889,2545412.8430468,1015.4270606279,2697218.212961,29.088948894889,0,0
-71.681015949069,9.8449763773564,23.893379337934,2545412.8430468,1015.4270606279,2697218.212961,29.093379337934,0,0
-71.681015248374,9.8475593593044,23.897809780978,2545412.8430468,1015.4270606279,2697218.212961,29.097809780978,0,0
-71.68101454768,9.8501423412524,23.902240224022,2545412.8430468,1015.4270606279,2697218.212961,29.102240224022,0,0
-71.681013846985,9.8527253232005,23.906670667067,2545412.8430468,1015.4270606279,2697218.212961,29.106670667067,0,0
-71.681013146291,9.8553083051485,23.911101110111,2545412.8430468,1015.4270606279,2697218.212961,29.111101110111,0,0
-71.681012445596,9.8578912870965,23.915531553155,2545412.8430468,1015.4270606279,2697218.212961,29.115531553155,0,0
-71.681011744902,9.8604742690446,23.9199619962,2545412.8430468,1015.4270606279,2697218.212961,29.1199619962,0,0
-71.681011044207,9.8630572509926,23.924392439244,2545412.8430468,1015.4270606279,2697218.212961,29.124392439244,0,0
-71.681010343513,9.8656402329406,23.928822882288,2545412.8430468,1015.4270606279,2697218.212961,29.128822882288,0,0
-71.681009642818,9.8682232148886,23.933253325333,2545412.8430468,1015.4270606279,2697218.212961,29.133253325333,0,0
-71.681008942124,9.8708061968367,23.937683768377,2545412.8430468,1015.4270606279,2697218.212961,29.137683768377,0,0
-71.681008241429,9.8733891787847,23.942114211421,2545412.8430468,1015.4270606279,2697218.212961,29.142114211421,0,0
-71.681007540735,9.8759721607327,23.946544654465,2545412.8430468,1015.4270606279,2697218.212961,29.146544654465,0,0
-71.68100684004,9.8785551426808,23.95097509751,2545412.8430468,1015.4270606279,2697218.212961,29.15097509751,0,0
-71.681006139346,9.8811381246288,23.955405540554,2545412.8430468,1015.4270606279,2697218.212961,29.155405540554,0,0
-71.681005438651,9.8837211065768,23.959835983598,2545412.8430468,1015.4270606279,2697218.212961,29.159835983598,0,0
-71.681004737957,9.8863040885249,23.964266426643,2545412.8430468,1015.4270606279,2697218.212961,29.164266426643,0,0
-71.681004037262,9.8888870704729,23.968696869687,2545412.8430468,1015.4270606279,2697218.212961,29.168696869687,0,0
-71.681003336567,9.8914700524209,23.973127312731,2545412.8430468,1015.4270606279,2697218.212961,29.173127312731,0,0
-71.681002635873,9.894053034369,23.977557755776,2545412.8430468,1015.4270606279,2697218.212961,29.177557755776,0,0
-71.681001935178,9.896636016317,23.98198819882,2545412.8430468,1015.4270606279,2697218.212961,29.18198819882,0,0
-71.681001234484,9.899218998265,23.986418641864,2545412.8430468,1015.4270606279,2697218.212961,29.186418641864,0,0
-71.681000533789,9.901801980213,23.990849084908,2545412.8430468,1015.4270606279,2697218.212961,29.190849084908,0,0
-71.680999833095,9.9043849621611,23.995279527953,2545412.8430468,1015.4270606279,2697218.212961,29.195279527953,0,0
-71.6809991324,9.9069679441091,23.999709970997,2545412.8430468,1015.4270606279,2697218.212961,29.199709970997,0,0
-71.680998431706,9.9095509260571,24.004140414041,2545412.8430468,1015.4270606279,2697218.212961,29.204140414041,0,0
-71.680997731011,9.9121339080052,24.008570857086,2545412.8430468,1015.4270606279,2697218.212961,29.208570857086,0,0
-71.680997030317,9.9147168899532,24.01300130013,2545412.8430468,1015.4270606279,2697218.212961,29.21300130013,0,0
-71.680996329622,9.9172998719012,24.017431743174,2545412.8430468,1015.4270606279,2697218.212961,29.217431743174,0,0
-71.680995628928,9.9198828538493,24.021862186219,2545412.8430468,1015.4270606279,2697218.212961,29.221862186219,0,0
-71.680994928233,9.9224658357973,24.026292629263,2545412.8430468,1015.4270606279,2697218.212961,29.226292629263,0,0
-71.680994227539,9.9250488177453,24.030723072307,2545412.8430468,1015.4270606279,2697218.212961,29.230723072307,0,0
-71.680993526844,9.9276317996933,24.035153515352,2545412.8430468,1015.4270606279,2697218.212961,29.235153515352,0,0
-71.68099282615,9.9302147816414,24.039583958396,2545412.8430468,1015.4270606279,2697218.212961,29.239583958396,0,0
-71.680992125455,9.9327977635894,24.04401440144,2545412.8430468,1015.4270606279,2697218.212961,29.24401440144,0,0
-71.680991424761,9.9353807455374,24.048444844484,2545412.8430468,1015.4270606279,2697218.212961,29.248444844484,0,0
-71.680990724066,9.9379637274855,24.052875287529,2545412.8430468,1015.4270606279,2697218.212961,29.252875287529,0,0
-71.680990023372,9.9405467094335,24.057305730573,2545412.8430468,1015.4270606279,2697218.212961,29.257305730573,0,0
-71.680989322677,9.9431296913815,24.061736173617,2545412.8430468,1015.4270606279,2697218.212961,29.261736173617,0,0
-71.680988621982,9.9457126733296,24.066166616662,2545412.8430468,1015.4270606279,2697218.212961,29.266166616662,0,0
-71.680987921288,9.9482956552776,24.070597059706,2545412.8430468,1015.4270606279,2697218.212961,29.270597059706,0,0
-71.680987220593,9.9508786372256,24.07502750275,2545412.8430468,1015.4270606279,2697218.212961,29.27502750275,0,0
-71.680986519899,9.9534616191737,24.079457945795,2545412.8430468,1015.4270606279,2697218.212961,29.279457945795,0,0
-71.680985819204,9.9560446011217,24.083888388839,2545412.8430468,1015.4270606279,2697218.212961,29.283888388839,0,0
-71.68098511851,9.9586275830697,24.088318831883,2545412.8430468,1015.4270606279,2697218.212961,29.288318831883,0,0
-71.680984417815,9.9612105650177,24.092749274927,2545412.8430468,1015.4270606279,2697218.212961,29.292749274927,0,0
-71.680983717121,9.9637935469658,24.097179717972,2545412.8430468,1015.4270606279,2697218.212961,29.297179717972,0,0
-71.680983016426,9.9663765289138,24.101610161016,2545412.8430468,1015.4270606279,2697218.212961,29.301610161016,0,0
-71.680982315732,9.9689595108618,24.10604060406,2545412.8430468,1015.4270606279,2697218.212961,29.30604060406,0,0
-71.680981615037,9.9715424928099,24.110471047105,2545412.8430468,1015.4270606279,2697218.212961,29.310471047105,0,0
-71.680980914343,9.9741254747579,24.114901490149,2545412.8430468,1015.4270606279,2697218.212961,29.314901490149,0,0
-71.680980213648,9.9767084567059,24.119331933193,2545412.8430468,1015.4270606279,2697218.212961,29.319331933193,0,0
-71.680979512954,9.979291438654,24.123762376238,2545412.8430468,1015.4270606279,2697218.212961,29.323762376238,0,0
-71.680978812259,9.981874420602,24.128192819282,2545412.8430468,1015.4270606279,2697218.212961,29.328192819282,0,0
-71.680978111565,9.98445740255,24.132623262326,2545412.8430468,1015.4270606279,2697218.212961,29.332623262326,0,0
-71.68097741087,9.9870403844981,24.137053705371,2545412.8430468,1015.4270606279,2697218.212961,29.337053705371,0,0
-71.680976710176,9.9896233664461,24.141484148415,2545412.8430468,1015.4270606279,2697218.212961,29.341484148415,0,0
-71.680976009481,9.9922063483941,24.145914591459,2545412.8430468,1015.4270606279,2697218.212961,29.345914591459,0,0
-71.680975308787,9.9947893303421,24.150345034503,2545412.8430468,1015.4270606279,2697218.212961,29.350345034503,0,0
-71.680974608092,9.9973723122902,24.154775477548,2545412.8430468,1015.4270606279,2697218.212961,29.354775477548,0,0
-71.680973907397,9.9999552942382,24.159205920592,2545412.8430468,1015.4270606279,2697218.212961,29.359205920592,0,0
-71.680973206703,10.002538276186,24.163636363636,2545412.8430468,1015.4270606279,2697218.212961,29.363636363636,0,0
-71.680972506008,10.005121258134,24.168066806681,2545412.8430468,1015.4270606279,2697218.212961,29.368066806681,0,0
-71.680971805314,10.007704240082,24.172497249725,2545412.8430468,1015.4270606279,2697218.212961,29.372497249725,0,0
-71.680971104619,10.01028722203,24.176927692769,2545412.8430468,1015.4270606279,2697218.212961,29.376927692769,0,0
-71.680970403925,10.012870203978,24.181358135814,2545412.8430468,1015.4270606279,2697218.212961,29.381358135814,0,0
-71.68096970323,10.015453185926,24.185788578858,2545412.8430468,1015.4270606279,2697218.212961,29.385788578858,0,0
-71.680969002536,10.018036167874,24.190219021902,2545412.8430468,1015.4270606279,2697218.212961,29.390219021902,0,0
-71.680968301841,10.020619149822,24.194649464946,2545412.8430468,1015.4270606279,2697218.212961,29.394649464946,0,0
-71.680967601147,10.02320213177,24.199079907991,2545412.8430468,1015.4270606279,2697218.212961,29.399079907991,0,0
-71.680966900452,10.025785113719,24.203510351035,2545412.8430468,1015.4270606279,2697218.212961,29.403510351035,0,0
-71.680966199758,10.028368095667,24.207940794079,2545412.8430468,1015.4270606279,2697218.212961,29.407940794079,0,0
-71.680965499063,10.030951077615,24.212371237124,2545412.8430468,1015.4270606279,2697218.212961,29.412371237124,0,0
-71.680964798369,10.033534059563,24.216801680168,2545412.8430468,1015.4270606279,2697218.212961,29.416801680168,0,0
-71.680964097674,10.036117041511,24.221232123212,2545412.8430468,1015.4270606279,2697218.212961,29.421232123212,0,0
-71.68096339698,10.038700023459,24.225662566257,2545412.8430468,1015.4270606279,2697218.212961,29.425662566257,0,0
-71.680962696285,10.041283005407,24.230093009301,2545412.8430468,1015.4270606279,2697218.212961,29.430093009301,0,0
-71.680961995591,10.043865987355,24.234523452345,2545412.8430468,1015.4270606279,2697218.212961,29.434523452345,0,0
-71.680961294896,10.046448969303,24.23895389539,2545412.8430468,1015.4270606279,2697218.212961,29.43895389539,0,0
-71.680960594202,10.049031951251,24.243384338434,2545412.8430468,1015.4270606279,2697218.212961,29.443384338434,0,0
-71.680959893507,10.051614933199,24.247814781478,2545412.8430468,1015.4270606279,2697218.212961,29.447814781478,0,0
-71.680959192812,10.054197915147,24.252245224522,2545412.8430468,1015.4270606279,2697218.212961,29.452245224522,0,0
-71.680958492118,10.056780897095,24.256675667567,2545412.8430468,1015.4270606279,2697218.212961,29.456675667567,0,0
-71.680957791423,10.059363879043,24.261106110611,2545412.8430468,1015.4270606279,2697218.212961,29.461106110611,0,0
-71.680957090729,10.061946860991,24.265536553655,2545412.8430468,1015.4270606279,2697218.212961,29.465536553655,0,0
-71.680956390034,10.064529842939,24.2699669967,2545412.8430468,1015.4270606279,2697218.212961,29.4699669967,0,0
-71.68095568934,10.067112824887,24.274397439744,2545412.8430468,1015.4270606279,2697218.212961,29.474397439744,0,0
-71.680954988645,10.069695806835,24.278827882788,2545412.8430468,1015.4270606279,2697218.212961,29.478827882788,0,0
-71.680954287951,10.072278788783,24.283258325833,2545412.8430468,1015.4270606279,2697218.212961,29.483258325833,0,0
-71.680953587256,10.074861770731,24.287688768877,2545412.8430468,1015.4270606279,2697218.212961,29.487688768877,0,0
-71.680952886562,10.077444752679,24.292119211921,2545412.8430468,1015.4270606279,2697218.212961,29.492119211921,0,0
-71.680952185867,10.080027734627,24.296549654965,2545412.8430468,1015.4270606279,2697218.212961,29.496549654965,0,0
-71.680951485173,10.082610716575,24.30098009801,2545412.8430468,1015.4270606279,2697218.212961,29.50098009801,0,0
-71.680950784478,10.085193698523,24.305410541054,2545412.8430468,1015.4270606279,2697218.212961,29.505410541054,0,0
-71.680950083784,10.087776680471,24.309840984098,2545412.8430468,1015.4270606279,2697218.212961,29.509840984098,0,0
-71.680949383089,10.090359662419,24.314271427143,2545412.8430468,1015.4270606279,2697218.212961,29.514271427143,0,0
-71.680948682395,10.092942644367,24.318701870187,2545412.8430468,1015.4270606279,2697218.212961,29.518701870187,0,0
-71.680947981276,10.095525626826,24.323132313231,2552956.1615268,3234.9201232366,2693413.668369,29.523132313231,0,0
-71.680947279032,10.098108610644,24.327562756276,2552956.1615268,3234.9201232366,2693413.668369,29.527562756276,0,0
-71.680946576788,10.100691594461,24.33199319932,2552956.1615268,3234.9201232366,2693413.668369,29.53199319932,0,0
-71.680945874544,10.103274578279,24.336423642364,2552956.1615268,3234.9201232366,2693413.668369,29.536423642364,0,0
-71.680945172299,10.105857562096,24.340854085409,2552956.1615268,3234.9201232366,2693413.668369,29.540854085409,0,0
-71.680944470055,10.108440545914,24.345284528453,2552956.1615268,3234.9201232366,2693413.668369,29.545284528453,0,0
-71.680943767811,10.111023529731,24.349714971497,2552956.1615268,3234.9201232366,2693413.668369,29.549714971497,0,0
-71.680943065567,10.113606513549,24.354145414541,2552956.1615268,3234.9201232366,2693413.668369,29.554145414541,0,0
-71.680942363323,10.116189497366,24.358575857586,2552956.1615268,3234.9201232366,2693413.668369,29.558575857586,0,0
-71.680941661078,10.118772481184,24.36300630063,2552956.1615268,3234.9201232366,2693413.668369,29.56300630063,0,0
-71.680940958834,10.121355465001,24.367436743674,2552956.1615268,3234.9201232366,2693413.668369,29.567436743674,0,0
-71.68094025659,10.123938448818,24.371867186719,2552956.1615268,3234.9201232366,2693413.668369,29.571867186719,0,0
-71.680939554346,10.126521432636,24.376297629763,2552956.1615268,3234.9201232366,2693413.668369,29.576297629763,0,0
-71.680938852101,10.129104416453,24.380728072807,2552956.1615268,3234.9201232366,2693413.668369,29.580728072807,0,0
-71.680938149857,10.131687400271,24.385158515852,2552956.1615268,3234.9201232366,2693413.668369,29.585158515852,0,0
-71.680937447613,10.134270384088,24.389588958896,2552956.1615268,3234.9201232366,2693413.668369,29.589588958896,0,0
-71.680936745369,10.136853367906,24.39401940194,2552956.1615268,3234.9201232366,2693413.668369,29.59401940194,0,0
-71.680936043124,10.139436351723,24.398449844984,2552956.1615268,3234.9201232366,2693413.668369,29.598449844984,0,0
-71.68093534088,10.142019335541,24.402880288029,2552956.1615268,3234.9201232366,2693413.668369,29.602880288029,0,0
-71.680934638636,10.144602319358,24.407310731073,2552956.1615268,3234.9201232366,2693413.668369,29.607310731073,0,0
-71.680933936392,10.147185303176,24.411741174117,2552956.1615268,3234.9201232366,2693413.668369,29.611741174117,0,0
-71.680933234147,10.149768286993,24.416171617162,2552956.1615268,3234.9201232366,2693413.668369,29.616171617162,0,0
-71.680932531903,10.15235127081,24.420602060206,2552956.1615268,3234.9201232366,2693413.668369,29.620602060206,0,0
-71.680931829659,10.154934254628,24.42503250325,2552956.1615268,3234.9201232366,2693413.668369,29.62503250325,0,0
-71.680931127415,10.157517238445,24.429462946295,2552956.1615268,3234.9201232366,2693413.668369,29.629462946295,0,0
-71.68093042517,10.160100222263,24.433893389339,2552956.1615268,3234.9201232366,2693413.668369,29.633893389339,0,0
-71.680929722926,10.16268320608,24.438323832383,2552956.1615268,3234.9201232366,2693413.668369,29.638323832383,0,0
-71.680929020682,10.165266189898,24.442754275428,2552956.1615268,3234.9201232366,2693413.668369,29.642754275428,0,0
-71.680928318438,10.167849173715,24.447184718472,2552956.1615268,3234.9201232366,2693413.668369,29.647184718472,0,0
-71.680927616194,10.170432157533,24.451615161516,2552956.1615268,3234.9201232366,2693413.668369,29.651615161516,0,0
-71.680926913949,10.17301514135,24.45604560456,2552956.1615268,3234.9201232366,2693413.668369,29.65604560456,0,0
-71.680926211705,10.175598125168,24.460476047605,2552956.1615268,3234.9201232366,2693413.668369,29.660476047605,0,0
-71.680925509461,10.178181108985,24.464906490649,2552956.1615268,3234.9201232366,2693413.668369,29.664906490649,0,0
-71.680924807217,10.180764092803,24.469336933693,2552956.1615268,3234.9201232366,2693413.668369,29.669336933693,0,0
-71.680924104972,10.18334707662,24.473767376738,2552956.1615268,3234.9201232366,2693413.668369,29.673767376738,0,0
-71.680923402728,10.185930060437,24.478197819782,2552956.1615268,3234.9201232366,2693413.668369,29.678197819782,0,0
-71.680922700484,10.188513044255,24.482628262826,2552956.1615268,3234.9201232366,2693413.668369,29.682628262826,0,0
-71.68092199824,10.191096028072,24.487058705871,2552956.1615268,3234.9201232366,2693413.668369,29.687058705871,0,0
-71.680921295995,10.19367901189,24.491489148915,2552956.1615268,3234.9201232366,2693413.668369,29.691489148915,0,0
-71.680920593751,10.196261995707,24.495919591959,2552956.1615268,3234.9201232366,2693413.668369,29.695919591959,0,0
-71.680919891507,10.198844979525,24.500350035003,2552956.1615268,3234.9201232366,2693413.668369,29.700350035003,0,0
-71.680919189263,10.201427963342,24.504780478048,2552956.1615268,3234.9201232366,2693413.668369,29.704780478048,0,0
-71.680918487018,10.20401094716,24.509210921092,2552956.1615268,3234.9201232366,2693413.668369,29.709210921092,0,0
-71.680917784774,10.206593930977,24.513641364136,2552956.1615268,3234.9201232366,2693413.668369,29.713641364136,0,0
-71.68091708253,10.209176914795,24.518071807181,2552956.1615268,3234.9201232366,2693413.668369,29.718071807181,0,0
-71.680916380286,10.211759898612,24.522502250225,2552956.1615268,3234.9201232366,2693413.668369,29.722502250225,0,0
-71.680915678042,10.214342882429,24.526932693269,2552956.1615268,3234.9201232366,2693413.668369,29.726932693269,0,0
-71.680914975797,10.216925866247,24.531363136314,2552956.1615268,3234.9201232366,2693413.668369,29.731363136314,0,0
-71.680914273553,10.219508850064,24.535793579358,2552956.1615268,3234.9201232366,2693413.668369,29.735793579358,0,0
-71.680913571309,10.222091833882,24.540224022402,2552956.1615268,3234.9201232366,2693413.668369,29.740224022402,0,0
-71.680912869065,10.224674817699,24.544654465447,2552956.1615268,3234.9201232366,2693413.668369,29.744654465447,0,0
-71.68091216682,10.227257801517,24.549084908491,2552956.1615268,3234.9201232366,2693413.668369,29.749084908491,0,0
-71.680911464576,10.229840785334,24.553515351535,2552956.1615268,3234.9201232366,2693413.668369,29.753515351535,0,0
-71.680910762332,10.232423769152,24.557945794579,2552956.1615268,3234.9201232366,2693413.668369,29.757945794579,0,0
-71.680910060088,10.235006752969,24.562376237624,2552956.1615268,3234.9201232366,2693413.668369,29.762376237624,0,0
-71.680909357843,10.237589736787,24.566806680668,2552956.1615268,3234.9201232366,2693413.668369,29.766806680668,0,0
-71.680908655599,10.240172720604,24.571237123712,2552956.1615268,3234.9201232366,2693413.668369,29.771237123712,0,0
-71.680907953355,10.242755704421,24.575667566757,2552956.1615268,3234.9201232366,2693413.668369,29.775667566757,0,0
-71.680907251111,10.245338688239,24.580098009801,2552956.1615268,3234.9201232366,2693413.668369,29.780098009801,0,0
-71.680906548866,10.247921672056,24.584528452845,2552956.1615268,3234.9201232366,2693413.668369,29.784528452845,0,0
-71.680905846622,10.250504655874,24.58895889589,2552956.1615268,3234.9201232366,2693413.668369,29.78895889589,0,0
-71.680905144378,10.253087639691,24.593389338934,2552956.1615268,3234.9201232366,2693413.668369,29.793389338934,0,0
-71.680904442134,10.255670623509,24.597819781978,2552956.1615268,3234.9201232366,2693413.668369,29.797819781978,0,0
-71.680903739889,10.258253607326,24.602250225022,2552956.1615268,3234.9201232366,2693413.668369,29.802250225022,0,0
-71.680903037645,10.260836591144,24.606680668067,2552956.1615268,3234.9201232366,2693413.668369,29.806680668067,0,0
-71.680902335401,10.263419574961,24.611111111111,2552956.1615268,3234.9201232366,2693413.668369,29.811111111111,0,0
-71.680901633157,10.266002558779,24.615541554155,2552956.1615268,3234.9201232366,2693413.668369,29.815541554155,0,0
-71.680900930913,10.268585542596,24.6199719972,2552956.1615268,3234.9201232366,2693413.668369,29.8199719972,0,0
-71.680900228668,10.271168526413,24.624402440244,2552956.1615268,3234.9201232366,2693413.668369,29.824402440244,0,0
-71.680899526424,10.273751510231,24.628832883288,2552956.1615268,3234.9201232366,2693413.668369,29.828832883288,0,0
-71.68089882418,10.276334494048,24.633263326333,2552956.1615268,3234.9201232366,2693413.668369,29.833263326333,0,0
-71.680898121936,10.278917477866,24.637693769377,2552956.1615268,3234.9201232366,2693413.668369,29.837693769377,0,0
-71.680897419691,10.281500461683,24.642124212421,2552956.1615268,3234.9201232366,2693413.668369,29.842124212421,0,0
-71.680896717447,10.284083445501,24.646554655466,2552956.1615268,3234.9201232366,2693413.668369,29.846554655466,0,0
-71.680896015203,10.286666429318,24.65098509851,2552956.1615268,3234.9201232366,2693413.668369,29.85098509851,0,0
-71.680895312959,10.289249413136,24.655415541554,2552956.1615268,3234.9201232366,2693413.668369,29.855415541554,0,0
-71.680894610714,10.291832396953,24.659845984598,2552956.1615268,3234.9201232366,2693413.668369,29.859845984598,0,0
-71.68089390847,10.294415380771,24.664276427643,2552956.1615268,3234.9201232366,2693413.668369,29.864276427643,0,0
-71.680893206226,10.296998364588,24.668706870687,2552956.1615268,3234.9201232366,2693413.668369,29.868706870687,0,0
-71.680892503982,10.299581348406,24.673137313731,2552956.1615268,3234.9201232366,2693413.668369,29.873137313731,0,0
-71.680891801737,10.302164332223,24.677567756776,2552956.1615268,3234.9201232366,2693413.668369,29.877567756776,0,0
-71.680891099493,10.30474731604,24.68199819982,2552956.1615268,3234.9201232366,2693413.668369,29.88199819982,0,0
-71.680890397249,10.307330299858,24.686428642864,2552956.1615268,3234.9201232366,2693413.668369,29.886428642864,0,0
-71.680889695005,10.309913283675,24.690859085909,2552956.1615268,3234.9201232366,2693413.668369,29.890859085909,0,0
-71.680888992761,10.312496267493,24.695289528953,2552956.1615268,3234.9201232366,2693413.668369,29.895289528953,0,0
-71.680888290516,10.31507925131,24.699719971997,2552956.1615268,3234.9201232366,2693413.668369,29.899719971997,0,0
-71.680887588272,10.317662235128,24.704150415042,2552956.1615268,3234.9201232366,2693413.668369,29.904150415041,0,0
-71.680886886028,10.320245218945,24.708580858086,2552956.1615268,3234.9201232366,2693413.668369,29.908580858086,0,0
-71.680886183784,10.322828202763,24.71301130113,2552956.1615268,3234.9201232366,2693413.668369,29.91301130113,0,0
-71.680885481539,10.32541118658,24.717441744174,2552956.1615268,3234.9201232366,2693413.668369,29.917441744174,0,0
-71.680884779295,10.327994170398,24.721872187219,2552956.1615268,3234.9201232366,2693413.668369,29.921872187219,0,0
-71.680884077051,10.330577154215,24.726302630263,2552956.1615268,3234.9201232366,2693413.668369,29.926302630263,0,0
-71.680883374807,10.333160138032,24.730733073307,2552956.1615268,3234.9201232366,2693413.668369,29.930733073307,0,0
-71.680882672562,10.33574312185,24.735163516352,2552956.1615268,3234.9201232366,2693413.668369,29.935163516352,0,0
-71.680881970318,10.338326105667,24.739593959396,2552956.1615268,3234.9201232366,2693413.668369,29.939593959396,0,0
-71.680881268074,10.340909089485,24.74402440244,2552956.1615268,3234.9201232366,2693413.668369,29.94402440244,0,0
-71.68088056583,10.343492073302,24.748454845485,2552956.1615268,3234.9201232366,2693413.668369,29.948454845485,0,0
-71.680879863585,10.34607505712,24.752885288529,2552956.1615268,3234.9201232366,2693413.668369,29.952885288529,0,0
-71.680879161341,10.348658040937,24.757315731573,2552956.1615268,3234.9201232366,2693413.668369,29.957315731573,0,0
-71.680878459097,10.351241024755,24.761746174617,2552956.1615268,3234.9201232366,2693413.668369,29.961746174617,0,0
-71.680877756853,10.353824008572,24.766176617662,2552956.1615268,3234.9201232366,2693413.668369,29.966176617662,0,0
-71.680877054609,10.35640699239,24.770607060706,2552956.1615268,3234.9201232366,2693413.668369,29.970607060706,0,0
-71.680876352364,10.358989976207,24.77503750375,2552956.1615268,3234.9201232366,2693413.668369,29.97503750375,0,0
-71.68087565012,10.361572960024,24.779467946795,2552956.1615268,3234.9201232366,2693413.668369,29.979467946795,0,0
-71.680874947876,10.364155943842,24.783898389839,2552956.1615268,3234.9201232366,2693413.668369,29.983898389839,0,0
-71.680874245632,10.366738927659,24.788328832883,2552956.1615268,3234.9201232366,2693413.668369,29.988328832883,0,0
-71.680873543387,10.369321911477,24.792759275928,2552956.1615268,3234.9201232366,2693413.668369,29.992759275928,0,0
-71.680872841143,10.371904895294,24.797189718972,2552956.1615268,3234.9201232366,2693413.668369,29.997189718972,0,0
-71.680872138899,10.374487879112,24.801620162016,2552956.1615268,3234.9201232366,2693413.668369,30.001620162016,0,0
-71.680871435811,10.377070861506,24.806050605061,2557436.9482981,747.45868974421,2689428.6073781,30.006050605061,0,0
-71.680870732569,10.379653843639,24.810481048105,2557436.9482981,747.45868974421,2689428.6073781,30.010481048105,0,0
-71.680870029326,10.382236825772,24.814911491149,2557436.9482981,747.45868974421,2689428.6073781,30.014911491149,0,0
-71.680869326083,10.384819807905,24.819341934193,2557436.9482981,747.45868974421,2689428.6073781,30.019341934193,0,0
-71.680868622841,10.387402790038,24.823772377238,2557436.9482981,747.45868974421,2689428.6073781,30.023772377238,0,0
-71.680867919598,10.389985772171,24.828202820282,2557436.9482981,747.45868974421,2689428.6073781,30.028202820282,0,0
-71.680867216356,10.392568754304,24.832633263326,2557436.9482981,747.45868974421,2689428.6073781,30.032633263326,0,0
-71.680866513113,10.395151736436,24.837063706371,2557436.9482981,747.45868974421,2689428.6073781,30.037063706371,0,0
-71.68086580987,10.397734718569,24.841494149415,2557436.9482981,747.45868974421,2689428.6073781,30.041494149415,0,0
-71.680865106628,10.400317700702,24.845924592459,2557436.9482981,747.45868974421,2689428.6073781,30.045924592459,0,0
-71.680864403385,10.402900682835,24.850355035504,2557436.9482981,747.45868974421,2689428.6073781,30.050355035504,0,0
-71.680863700143,10.405483664968,24.854785478548,2557436.9482981,747.45868974421,2689428.6073781,30.054785478548,0,0
-71.6808629969,10.408066647101,24.859215921592,2557436.9482981,747.45868974421,2689428.6073781,30.059215921592,0,0
-71.680862293657,10.410649629234,24.863646364636,2557436.9482981,747.45868974421,2689428.6073781,30.063646364636,0,0
-71.680861590415,10.413232611367,24.868076807681,2557436.9482981,747.45868974421,2689428.6073781,30.068076807681,0,0
-71.680860887172,10.4158155935,24.872507250725,2557436.9482981,747.45868974421,2689428.6073781,30.072507250725,0,0
-71.68086018393,10.418398575633,24.876937693769,2557436.9482981,747.45868974421,2689428.6073781,30.076937693769,0,0
-71.680859480687,10.420981557766,24.881368136814,2557436.9482981,747.45868974421,2689428.6073781,30.081368136814,0,0
-71.680858777445,10.423564539899,24.885798579858,2557436.9482981,747.45868974421,2689428.6073781,30.085798579858,0,0
-71.680858074202,10.426147522032,24.890229022902,2557436.9482981,747.45868974421,2689428.6073781,30.090229022902,0,0
-71.680857370959,10.428730504165,24.894659465947,2557436.9482981,747.45868974421,2689428.6073781,30.094659465947,0,0
-71.680856667717,10.431313486297,24.899089908991,2557436.9482981,747.45868974421,2689428.6073781,30.099089908991,0,0
-71.680855964474,10.43389646843,24.903520352035,2557436.9482981,747.45868974421,2689428.6073781,30.103520352035,0,0
-71.680855261232,10.436479450563,24.90795079508,2557436.9482981,747.45868974421,2689428.6073781,30.10795079508,0,0
-71.680854557989,10.439062432696,24.912381238124,2557436.9482981,747.45868974421,2689428.6073781,30.112381238124,0,0
-71.680853854746,10.441645414829,24.916811681168,2557436.9482981,747.45868974421,2689428.6073781,30.116811681168,0,0
-71.680853151504,10.444228396962,24.921242124212,2557436.9482981,747.45868974421,2689428.6073781,30.121242124212,0,0
-71.680852448261,10.446811379095,24.925672567257,2557436.9482981,747.45868974421,2689428.6073781,30.125672567257,0,0
-71.680851745019,10.449394361228,24.930103010301,2557436.9482981,747.45868974421,2689428.6073781,30.130103010301,0,0
-71.680851041776,10.451977343361,24.934533453345,2557436.9482981,747.45868974421,2689428.6073781,30.134533453345,0,0
-71.680850338534,10.454560325494,24.93896389639,2557436.9482981,747.45868974421,2689428.6073781,30.13896389639,0,0
-71.680849635291,10.457143307627,24.943394339434,2557436.9482981,747.45868974421,2689428.6073781,30.143394339434,0,0
-71.680848932048,10.45972628976,24.947824782478,2557436.9482981,747.45868974421,2689428.6073781,30.147824782478,0,0
-71.680848228806,10.462309271893,24.952255225523,2557436.9482981,747.45868974421,2689428.6073781,30.152255225523,0,0
-71.680847525563,10.464892254025,24.956685668567,2557436.9482981,747.45868974421,2689428.6073781,30.156685668567,0,0
-71.680846822321,10.467475236158,24.961116111611,2557436.9482981,747.45868974421,2689428.6073781,30.161116111611,0,0
-71.680846119078,10.470058218291,24.965546554655,2557436.9482981,747.45868974421,2689428.6073781,30.165546554655,0,0
-71.680845415835,10.472641200424,24.9699769977,2557436.9482981,747.45868974421,2689428.6073781,30.1699769977,0,0
-71.680844712593,10.475224182557,24.974407440744,2557436.9482981,747.45868974421,2689428.6073781,30.174407440744,0,0
-71.68084400935,10.47780716469,24.978837883788,2557436.9482981,747.45868974421,2689428.6073781,30.178837883788,0,0
-71.680843306108,10.480390146823,24.983268326833,2557436.9482981,747.45868974421,2689428.6073781,30.183268326833,0,0
-71.680842602865,10.482973128956,24.987698769877,2557436.9482981,747.45868974421,2689428.6073781,30.187698769877,0,0
-71.680841899622,10.485556111089,24.992129212921,2557436.9482981,747.45868974421,2689428.6073781,30.192129212921,0,0
-71.68084119638,10.488139093222,24.996559655966,2557436.9482981,747.45868974421,2689428.6073781,30.196559655966,0,0
-71.680840493137,10.490722075355,25.00099009901,2557436.9482981,747.45868974421,2689428.6073781,30.20099009901,0,0
-71.680839789895,10.493305057488,25.005420542054,2557436.9482981,747.45868974421,2689428.6073781,30.205420542054,0,0
-71.680839086652,10.495888039621,25.009850985099,2557436.9482981,747.45868974421,2689428.6073781,30.209850985099,0,0
-71.68083838341,10.498471021754,25.014281428143,2557436.9482981,747.45868974421,2689428.6073781,30.214281428143,0,0
-71.680837680167,10.501054003886,25.018711871187,2557436.9482981,747.45868974421,2689428.6073781,30.218711871187,0,0
-71.680836976924,10.503636986019,25.023142314231,2557436.9482981,747.45868974421,2689428.6073781,30.223142314231,0,0
-71.680836273682,10.506219968152,25.027572757276,2557436.9482981,747.45868974421,2689428.6073781,30.227572757276,0,0
-71.680835570439,10.508802950285,25.03200320032,2557436.9482981,747.45868974421,2689428.6073781,30.23200320032,0,0
-71.680834867197,10.511385932418,25.036433643364,2557436.9482981,747.45868974421,2689428.6073781,30.236433643364,0,0
-71.680834163954,10.513968914551,25.040864086409,2557436.9482981,747.45868974421,2689428.6073781,30.240864086409,0,0
-71.680833460711,10.516551896684,25.045294529453,2557436.9482981,747.45868974421,2689428.6073781,30.245294529453,0,0
-71.680832757469,10.519134878817,25.049724972497,2557436.9482981,747.45868974421,2689428.6073781,30.249724972497,0,0
-71.680832054226,10.52171786095,25.054155415542,2557436.9482981,747.45868974421,2689428.6073781,30.254155415542,0,0
-71.680831350984,10.524300843083,25.058585858586,2557436.9482981,747.45868974421,2689428.6073781,30.258585858586,0,0
-71.680830647741,10.526883825216,25.06301630163,2557436.9482981,747.45868974421,2689428.6073781,30.26301630163,0,0
-71.680829944498,10.529466807349,25.067446744674,2557436.9482981,747.45868974421,2689428.6073781,30.267446744674,0,0
-71.680829241256,10.532049789482,25.071877187719,2557436.9482981,747.45868974421,2689428.6073781,30.271877187719,0,0
-71.680828538013,10.534632771614,25.076307630763,2557436.9482981,747.45868974421,2689428.6073781,30.276307630763,0,0
-71.680827834771,10.537215753747,25.080738073807,2557436.9482981,747.45868974421,2689428.6073781,30.280738073807,0,0
-71.680827131528,10.53979873588,25.085168516852,2557436.9482981,747.45868974421,2689428.6073781,30.285168516852,0,0
-71.680826428286,10.542381718013,25.089598959896,2557436.9482981,747.45868974421,2689428.6073781,30.289598959896,0,0
-71.680825725043,10.544964700146,25.09402940294,2557436.9482981,747.45868974421,2689428.6073781,30.29402940294,0,0
-71.6808250218,10.547547682279,25.098459845985,2557436.9482981,747.45868974421,2689428.6073781,30.298459845985,0,0
-71.680824318558,10.550130664412,25.102890289029,2557436.9482981,747.45868974421,2689428.6073781,30.302890289029,0,0
-71.680823615315,10.552713646545,25.107320732073,2557436.9482981,747.45868974421,2689428.6073781,30.307320732073,0,0
-71.680822912073,10.555296628678,25.111751175118,2557436.9482981,747.45868974421,2689428.6073781,30.311751175118,0,0
-71.68082220883,10.557879610811,25.116181618162,2557436.9482981,747.45868974421,2689428.6073781,30.316181618162,0,0
-71.680821505587,10.560462592944,25.120612061206,2557436.9482981,747.45868974421,2689428.6073781,30.320612061206,0,0
-71.680820802345,10.563045575077,25.12504250425,2557436.9482981,747.45868974421,2689428.6073781,30.32504250425,0,0
-71.680820099102,10.56562855721,25.129472947295,2557436.9482981,747.45868974421,2689428.6073781,30.329472947295,0,0
-71.68081939586,10.568211539343,25.133903390339,2557436.9482981,747.45868974421,2689428.6073781,30.333903390339,0,0
-71.680818692617,10.570794521475,25.138333833383,2557436.9482981,747.45868974421,2689428.6073781,30.338333833383,0,0
-71.680817989374,10.573377503608,25.142764276428,2557436.9482981,747.45868974421,2689428.6073781,30.342764276428,0,0
-71.680817286132,10.575960485741,25.147194719472,2557436.9482981,747.45868974421,2689428.6073781,30.347194719472,0,0
-71.680816582889,10.578543467874,25.151625162516,2557436.9482981,747.45868974421,2689428.6073781,30.351625162516,0,0
-71.680815879647,10.581126450007,25.156055605561,2557436.9482981,747.45868974421,2689428.6073781,30.356055605561,0,0
-71.680815176404,10.58370943214,25.160486048605,2557436.9482981,747.45868974421,2689428.6073781,30.360486048605,0,0
-71.680814473162,10.586292414273,25.164916491649,2557436.9482981,747.45868974421,2689428.6073781,30.364916491649,0,0
-71.680813769919,10.588875396406,25.169346934693,2557436.9482981,747.45868974421,2689428.6073781,30.369346934693,0,0
-71.680813066676,10.591458378539,25.173777377738,2557436.9482981,747.45868974421,2689428.6073781,30.373777377738,0,0
-71.680812363434,10.594041360672,25.178207820782,2557436.9482981,747.45868974421,2689428.6073781,30.378207820782,0,0
-71.680811660191,10.596624342805,25.182638263826,2557436.9482981,747.45868974421,2689428.6073781,30.382638263826,0,0
-71.680810956949,10.599207324938,25.187068706871,2557436.9482981,747.45868974421,2689428.6073781,30.387068706871,0,0
-71.680810253706,10.601790307071,25.191499149915,2557436.9482981,747.45868974421,2689428.6073781,30.391499149915,0,0
-71.680809550463,10.604373289204,25.195929592959,2557436.9482981,747.45868974421,2689428.6073781,30.395929592959,0,0
-71.680808847221,10.606956271336,25.200360036004,2557436.9482981,747.45868974421,2689428.6073781,30.400360036004,0,0
-71.680808143978,10.609539253469,25.204790479048,2557436.9482981,747.45868974421,2689428.6073781,30.404790479048,0,0
-71.680807440736,10.612122235602,25.209220922092,2557436.9482981,747.45868974421,2689428.6073781,30.409220922092,0,0
-71.680806737493,10.614705217735,25.213651365137,2557436.9482981,747.45868974421,2689428.6073781,30.413651365137,0,0
-71.680806034251,10.617288199868,25.218081808181,2557436.9482981,747.45868974421,2689428.6073781,30.418081808181,0,0
-71.680805331008,10.619871182001,25.222512251225,2557436.9482981,747.45868974421,2689428.6073781,30.422512251225,0,0
-71.680804627765,10.622454164134,25.226942694269,2557436.9482981,747.45868974421,2689428.6073781,30.426942694269,0,0
-71.680803924523,10.625037146267,25.231373137314,2557436.9482981,747.45868974421,2689428.6073781,30.431373137314,0,0
-71.68080322128,10.6276201284,25.235803580358,2557436.9482981,747.45868974421,2689428.6073781,30.435803580358,0,0
-71.680802518038,10.630203110533,25.240234023402,2557436.9482981,747.45868974421,2689428.6073781,30.440234023402,0,0
-71.680801814795,10.632786092666,25.244664466447,2557436.9482981,747.45868974421,2689428.6073781,30.444664466447,0,0
-71.680801111552,10.635369074799,25.249094909491,2557436.9482981,747.45868974421,2689428.6073781,30.449094909491,0,0
-71.68080040831,10.637952056932,25.253525352535,2557436.9482981,747.45868974421,2689428.6073781,30.453525352535,0,0
-71.680799705067,10.640535039064,25.25795579558,2557436.9482981,747.45868974421,2689428.6073781,30.45795579558,0,0
-71.680799001825,10.643118021197,25.262386238624,2557436.9482981,747.45868974421,2689428.6073781,30.462386238624,0,0
-71.680798298582,10.64570100333,25.266816681668,2557436.9482981,747.45868974421,2689428.6073781,30.466816681668,0,0
-71.680797595339,10.648283985463,25.271247124712,2557436.9482981,747.45868974421,2689428.6073781,30.471247124712,0,0
-71.680796892097,10.650866967596,25.275677567757,2557436.9482981,747.45868974421,2689428.6073781,30.475677567757,0,0
-71.680796188854,10.653449949729,25.280108010801,2557436.9482981,747.45868974421,2689428.6073781,30.480108010801,0,0
-71.680795485612,10.656032931862,25.284538453845,2557436.9482981,747.45868974421,2689428.6073781,30.484538453845,0,0
-71.680794782369,10.658615913995,25.28896889689,2557436.9482981,747.45868974421,2689428.6073781,30.48896889689,0,0
-71.680794079127,10.661198896128,25.293399339934,2557436.9482981,747.45868974421,2689428.6073781,30.493399339934,0,0
-71.680793375884,10.663781878261,25.297829782978,2557436.9482981,747.45868974421,2689428.6073781,30.497829782978,0,0
-71.680792672641,10.666364860394,25.302260226023,2557436.9482981,747.45868974421,2689428.6073781,30.502260226023,0,0
-71.680791969399,10.668947842527,25.306690669067,2557436.9482981,747.45868974421,2689428.6073781,30.506690669067,0,0
-71.680791266156,10.67153082466,25.311121112111,2557436.9482981,747.45868974421,2689428.6073781,30.511121112111,0,0
-71.680790562914,10.674113806793,25.315551555156,2557436.9482981,747.45868974421,2689428.6073781,30.515551555156,0,0
-71.680789859671,10.676696788925,25.3199819982,2557436.9482981,747.45868974421,2689428.6073781,30.5199819982,0,0
-71.680789156428,10.679279771058,25.324412441244,2557436.9482981,747.45868974421,2689428.6073781,30.524412441244,0,0
-71.680788453186,10.681862753191,25.328842884288,2557436.9482981,747.45868974421,2689428.6073781,30.528842884288,0,0
-71.680787749943,10.684445735324,25.333273327333,2557436.9482981,747.45868974421,2689428.6073781,30.533273327333,0,0
-71.680787046701,10.687028717457,25.337703770377,2557436.9482981,747.45868974421,2689428.6073781,30.537703770377,0,0
-71.680786343458,10.68961169959,25.342134213421,2557436.9482981,747.45868974421,2689428.6073781,30.542134213421,0,0
-71.680785640215,10.692194681723,25.346564656466,2557436.9482981,747.45868974421,2689428.6073781,30.546564656466,0,0
-71.680784936973,10.694777663856,25.35099509951,2557436.9482981,747.45868974421,2689428.6073781,30.55099509951,0,0
-71.68078423373,10.697360645989,25.355425542554,2557436.9482981,747.45868974421,2689428.6073781,30.555425542554,0,0
-71.680783530488,10.699943628122,25.359855985599,2557436.9482981,747.45868974421,2689428.6073781,30.559855985599,0,0
-71.680782827245,10.702526610255,25.364286428643,2557436.9482981,747.45868974421,2689428.6073781,30.564286428643,0,0
-71.680782124003,10.705109592388,25.368716871687,2557436.9482981,747.45868974421,2689428.6073781,30.568716871687,0,0
-71.68078142076,10.707692574521,25.373147314731,2557436.9482981,747.45868974421,2689428.6073781,30.573147314731,0,0
-71.680780717517,10.710275556653,25.377577757776,2557436.9482981,747.45868974421,2689428.6073781,30.577577757776,0,0
-71.680780014275,10.712858538786,25.38200820082,2557436.9482981,747.45868974421,2689428.6073781,30.58200820082,0,0
-71.680779311032,10.715441520919,25.386438643864,2557436.9482981,747.45868974421,2689428.6073781,30.586438643864,0,0
-71.68077860779,10.718024503052,25.390869086909,2557436.9482981,747.45868974421,2689428.6073781,30.590869086909,0,0
-71.680777904547,10.720607485185,25.395299529953,2557436.9482981,747.45868974421,2689428.6073781,30.595299529953,0,0
-71.680777201304,10.723190467318,25.399729972997,2557436.9482981,747.45868974421,2689428.6073781,30.599729972997,0,0
-71.680776498062,10.725773449451,25.404160416042,2557436.9482981,747.45868974421,2689428.6073781,30.604160416042,0,0
-71.680775794819,10.728356431584,25.408590859086,2557436.9482981,747.45868974421,2689428.6073781,30.608590859086,0,0
-71.680775091577,10.730939413717,25.41302130213,2557436.9482981,747.45868974421,2689428.6073781,30.61302130213,0,0
-71.680774388334,10.73352239585,25.417451745175,2557436.9482981,747.45868974421,2689428.6073781,30.617451745175,0,0
-71.680773685091,10.736105377983,25.421882188219,2557436.9482981,747.45868974421,2689428.6073781,30.621882188219,0,0
-71.680772981849,10.738688360116,25.426312631263,2557436.9482981,747.45868974421,2689428.6073781,30.626312631263,0,0
-71.680772278606,10.741271342249,25.430743074307,2557436.9482981,747.45868974421,2689428.6073781,30.630743074307,0,0
-71.680771575364,10.743854324382,25.435173517352,2557436.9482981,747.45868974421,2689428.6073781,30.635173517352,0,0
-71.680770872121,10.746437306514,25.439603960396,2557436.9482981,747.45868974421,2689428.6073781,30.639603960396,0,0
-71.680770168879,10.749020288647,25.44403440344,2557436.9482981,747.45868974421,2689428.6073781,30.64403440344,0,0
-71.680769465636,10.75160327078,25.448464846485,2557436.9482981,747.45868974421,2689428.6073781,30.648464846485,0,0
-71.680768762393,10.754186252913,25.452895289529,2557436.9482981,747.45868974421,2689428.6073781,30.652895289529,0,0
-71.680768059151,10.756769235046,25.457325732573,2557436.9482981,747.45868974421,2689428.6073781,30.657325732573,0,0
-71.680767355908,10.759352217179,25.461756175618,2557436.9482981,747.45868974421,2689428.6073781,30.661756175618,0,0
-71.680766652666,10.761935199312,25.466186618662,2557436.9482981,747.45868974421,2689428.6073781,30.666186618662,0,0
-71.680765949423,10.764518181445,25.470617061706,2557436.9482981,747.45868974421,2689428.6073781,30.670617061706,0,0
-71.68076524618,10.767101163578,25.47504750475,2557436.9482981,747.45868974421,2689428.6073781,30.67504750475,0,0
-71.680764542938,10.769684145711,25.479477947795,2557436.9482981,747.45868974421,2689428.6073781,30.679477947795,0,0
-71.680763839695,10.772267127844,25.483908390839,2557436.9482981,747.45868974421,2689428.6073781,30.683908390839,0,0
-71.680763136453,10.774850109977,25.488338833883,2557436.9482981,747.45868974421,2689428.6073781,30.688338833883,0,0
-71.68076243321,10.77743309211,25.492769276928,2557436.9482981,747.45868974421,2689428.6073781,30.692769276928,0,0
-71.680761729968,10.780016074242,25.497199719972,2557436.9482981,747.45868974421,2689428.6073781,30.697199719972,0,0
-71.680761026725,10.782599056375,25.501630163016,2557436.9482981,747.45868974421,2689428.6073781,30.701630163016,0,0
-71.680760323482,10.785182038508,25.506060606061,2557436.9482981,747.45868974421,2689428.6073781,30.706060606061,0,0
-71.68075962024,10.787765020641,25.510491049105,2557436.9482981,747.45868974421,2689428.6073781,30.710491049105,0,0
-71.680758916997,10.790348002774,25.514921492149,2557436.9482981,747.45868974421,2689428.6073781,30.714921492149,0,0
-71.680758213755,10.792930984907,25.519351935194,2557436.9482981,747.45868974421,2689428.6073781,30.719351935194,0,0
-71.680757510512,10.79551396704,25.523782378238,2557436.9482981,747.45868974421,2689428.6073781,30.723782378238,0,0
-71.680756807269,10.798096949173,25.528212821282,2557436.9482981,747.45868974421,2689428.6073781,30.728212821282,0,0
-71.680756104027,10.800679931306,25.532643264326,2557436.9482981,747.45868974421,2689428.6073781,30.732643264326,0,0
-71.680755400784,10.803262913439,25.537073707371,2557436.9482981,747.45868974421,2689428.6073781,30.737073707371,0,0
-71.680754697542,10.805845895572,25.541504150415,2557436.9482981,747.45868974421,2689428.6073781,30.741504150415,0,0
-71.680753994299,10.808428877705,25.545934593459,2557436.9482981,747.45868974421,2689428.6073781,30.745934593459,0,0
-71.680753291056,10.811011859838,25.550365036504,2557436.9482981,747.45868974421,2689428.6073781,30.750365036504,0,0
-71.680752587814,10.813594841971,25.554795479548,2557436.9482981,747.45868974421,2689428.6073781,30.754795479548,0,0
-71.680751884571,10.816177824103,25.559225922592,2557436.9482981,747.45868974421,2689428.6073781,30.759225922592,0,0
-71.680751181329,10.818760806236,25.563656365637,2557436.9482981,747.45868974421,2689428.6073781,30.763656365637,0,0
-71.680750478086,10.821343788369,25.568086808681,2557436.9482981,747.45868974421,2689428.6073781,30.768086808681,0,0
-71.680749774844,10.823926770502,25.572517251725,2557436.9482981,747.45868974421,2689428.6073781,30.772517251725,0,0
-71.680749071601,10.826509752635,25.576947694769,2557436.9482981,747.45868974421,2689428.6073781,30.776947694769,0,0
-71.680748368358,10.829092734768,25.581378137814,2557436.9482981,747.45868974421,2689428.6073781,30.781378137814,0,0
-71.680747665116,10.831675716901,25.585808580858,2557436.9482981,747.45868974421,2689428.6073781,30.785808580858,0,0
-71.680746961873,10.834258699034,25.590239023902,2557436.9482981,747.45868974421,2689428.6073781,30.790239023902,0,0
-71.680746258631,10.836841681167,25.594669466947,2557436.9482981,747.45868974421,2689428.6073781,30.794669466947,0,0
-71.680745555388,10.8394246633,25.599099909991,2557436.9482981,747.45868974421,2689428.6073781,30.799099909991,0,0
-71.680744852145,10.842007645433,25.603530353035,2557436.9482981,747.45868974422,2689428.6073781,30.803530353035,0,0
-71.680744148903,10.844590627566,25.60796079608,2557436.9482981,747.45868974422,2689428.6073781,30.80796079608,0,0
-71.68074344566,10.847173609699,25.612391239124,2557436.9482981,747.45868974422,2689428.6073781,30.812391239124,0,0
-71.680742742418,10.849756591831,25.616821682168,2557436.9482981,747.45868974422,2689428.6073781,30.816821682168,0,0
-71.680742039175,10.852339573964,25.621252125213,2557436.9482981,747.45868974422,2689428.6073781,30.821252125213,0,0
-71.680741335932,10.854922556097,25.625682568257,2557436.9482981,747.45868974422,2689428.6073781,30.825682568257,0,0
-71.68074063269,10.85750553823,25.630113011301,2557436.9482981,747.45868974422,2689428.6073781,30.830113011301,0,0
-71.680739929447,10.860088520363,25.634543454345,2557436.9482981,747.45868974422,2689428.6073781,30.834543454345,0,0
-71.680739226205,10.862671502496,25.63897389739,2557436.9482981,747.45868974422,2689428.6073781,30.83897389739,0,0
-71.680738522962,10.865254484629,25.643404340434,2557436.9482981,747.45868974422,2689428.6073781,30.843404340434,0,0
-71.68073781972,10.867837466762,25.647834783478,2557436.9482981,747.45868974422,2689428.6073781,30.847834783478,0,0
-71.680737116477,10.870420448895,25.652265226523,2557436.9482981,747.45868974422,2689428.6073781,30.852265226523,0,0
-71.680736413234,10.873003431028,25.656695669567,2557436.9482981,747.45868974422,2689428.6073781,30.856695669567,0,0
-71.680735709992,10.875586413161,25.661126112611,2557436.9482981,747.45868974422,2689428.6073781,30.861126112611,0,0
-71.680735006749,10.878169395294,25.665556555656,2557436.9482981,747.45868974422,2689428.6073781,30.865556555656,0,0
-71.680734303507,10.880752377427,25.6699869987,2557436.9482981,747.45868974422,2689428.6073781,30.8699869987,0,0
-71.680733600264,10.88333535956,25.674417441744,2557436.9482981,747.45868974422,2689428.6073781,30.874417441744,0,0
-71.680732897021,10.885918341692,25.678847884788,2557436.9482981,747.45868974422,2689428.6073781,30.878847884788,0,0
-71.680732193779,10.888501323825,25.683278327833,2557436.9482981,747.45868974422,2689428.6073781,30.883278327833,0,0
-71.680731490536,10.891084305958,25.687708770877,2557436.9482981,747.45868974422,2689428.6073781,30.887708770877,0,0
-71.680730787294,10.893667288091,25.692139213921,2557436.9482981,747.45868974422,2689428.6073781,30.892139213921,0,0
-71.680730084051,10.896250270224,25.696569656966,2557436.9482981,747.45868974422,2689428.6073781,30.896569656966,0,0
-71.680729380808,10.898833252357,25.70100010001,2557436.9482981,747.45868974422,2689428.6073781,30.90100010001,0,0
-71.680728677566,10.90141623449,25.705430543054,2557436.9482981,747.45868974422,2689428.6073781,30.905430543054,0,0
-71.680727974323,10.903999216623,25.709860986099,2557436.9482981,747.45868974422,2689428.6073781,30.909860986099,0,0
-71.680727271081,10.906582198756,25.714291429143,2557436.9482981,747.45868974422,2689428.6073781,30.914291429143,0,0
-71.680726567838,10.909165180889,25.718721872187,2557436.9482981,747.45868974422,2689428.6073781,30.918721872187,0,0
-71.680725864596,10.911748163022,25.723152315232,2557436.9482981,747.45868974422,2689428.6073781,30.923152315232,0,0
-71.680725161353,10.914331145155,25.727582758276,2557436.9482981,747.45868974422,2689428.6073781,30.927582758276,0,0
-71.68072445811,10.916914127288,25.73201320132,2557436.9482981,747.45868974422,2689428.6073781,30.93201320132,0,0
-71.680723754868,10.919497109421,25.736443644364,2557436.9482981,747.45868974422,2689428.6073781,30.936443644364,0,0
-71.680723051625,10.922080091553,25.740874087409,2557436.9482981,747.45868974422,2689428.6073781,30.940874087409,0,0
-71.680722348383,10.924663073686,25.745304530453,2557436.9482981,747.45868974422,2689428.6073781,30.945304530453,0,0
-71.68072164514,10.927246055819,25.749734973497,2557436.9482981,747.45868974422,2689428.6073781,30.949734973497,0,0
-71.680720941897,10.929829037952,25.754165416542,2557436.9482981,747.45868974422,2689428.6073781,30.954165416542,0,0
-71.680720238655,10.932412020085,25.758595859586,2557436.9482981,747.45868974422,2689428.6073781,30.958595859586,0,0
-71.680719535412,10.934995002218,25.76302630263,2557436.9482981,747.45868974422,2689428.6073781,30.96302630263,0,0
-71.68071883217,10.937577984351,25.767456745675,2557436.9482981,747.45868974422,2689428.6073781,30.967456745675,0,0
-71.680718128927,10.940160966484,25.771887188719,2557436.9482981,747.45868974422,2689428.6073781,30.971887188719,0,0
-71.680717425684,10.942743948617,25.776317631763,2557436.9482981,747.45868974422,2689428.6073781,30.976317631763,0,0
-71.680716722442,10.94532693075,25.780748074807,2557436.9482981,747.45868974422,2689428.6073781,30.980748074807,0,0
-71.680716019199,10.947909912883,25.785178517852,2557436.9482981,747.45868974422,2689428.6073781,30.985178517852,0,0
-71.680715315957,10.950492895016,25.789608960896,2557436.9482981,747.45868974422,2689428.6073781,30.989608960896,0,0
-71.680714612714,10.953075877149,25.79403940394,2557436.9482981,747.45868974422,2689428.6073781,30.99403940394,0,0
-71.680713909472,10.955658859281,25.798469846985,2557436.9482981,747.45868974422,2689428.6073781,30.998469846985,0,0
-71.680713206229,10.958241841414,25.802900290029,2557436.9482981,747.45868974422,2689428.6073781,31.002900290029,0,0
-71.680712502986,10.960824823547,25.807330733073,2557436.9482981,747.45868974422,2689428.6073781,31.007330733073,0,0
-71.680711799744,10.96340780568,25.811761176118,2557436.9482981,747.45868974422,2689428.6073781,31.011761176118,0,0
-71.680711096501,10.965990787813,25.816191619162,2557436.9482981,747.45868974422,2689428.6073781,31.016191619162,0,0
-71.680710393259,10.968573769946,25.820622062206,2557436.9482981,747.45868974422,2689428.6073781,31.020622062206,0,0
-71.680709690016,10.971156752079,25.825052505251,2557436.9482981,747.45868974422,2689428.6073781,31.025052505251,0,0
-71.680708986773,10.973739734212,25.829482948295,2557436.9482981,747.45868974422,2689428.6073781,31.029482948295,0,0
-71.680708283531,10.976322716345,25.833913391339,2557436.9482981,747.45868974422,2689428.6073781,31.033913391339,0,0
-71.680707580288,10.978905698478,25.838343834383,2557436.9482981,747.45868974422,2689428.6073781,31.038343834383,0,0
-71.680706877046,10.981488680611,25.842774277428,2557436.9482981,747.45868974422,2689428.6073781,31.042774277428,0,0
-71.680706173803,10.984071662744,25.847204720472,2557436.9482981,747.45868974422,2689428.6073781,31.047204720472,0,0
-71.680705470561,10.986654644877,25.851635163516,2557436.9482981,747.45868974422,2689428.6073781,31.051635163516,0,0
-71.680704767318,10.98923762701,25.856065606561,2557436.9482981,747.45868974422,2689428.6073781,31.056065606561,0,0
-71.680704064075,10.991820609142,25.860496049605,2557436.9482981,747.45868974422,2689428.6073781,31.060496049605,0,0
-71.680703360833,10.994403591275,25.864926492649,2557436.9482981,747.45868974422,2689428.6073781,31.064926492649,0,0
-71.68070265759,10.996986573408,25.869356935694,2557436.9482981,747.45868974422,2689428.6073781,31.069356935694,0,0
-71.680701954348,10.999569555541,25.873787378738,2557436.9482981,747.45868974422,2689428.6073781,31.073787378738,0,0
-71.680701251105,11.002152537674,25.878217821782,2557436.9482981,747.45868974422,2689428.6073781,31.078217821782,0,0
-71.680700547862,11.004735519807,25.882648264826,2557436.9482981,747.45868974422,2689428.6073781,31.082648264826,0,0
-71.68069984462,11.00731850194,25.887078707871,2557436.9482981,747.45868974422,2689428.6073781,31.087078707871,0,0
-71.680699141377,11.009901484073,25.891509150915,2557436.9482981,747.45868974422,2689428.6073781,31.091509150915,0,0
-71.680698438135,11.012484466206,25.895939593959,2557436.9482981,747.45868974422,2689428.6073781,31.095939593959,0,0
-71.680697734892,11.015067448339,25.900370037004,2557436.9482981,747.45868974422,2689428.6073781,31.100370037004,0,0
-71.680697031649,11.017650430472,25.904800480048,2557436.9482981,747.45868974422,2689428.6073781,31.104800480048,0,0
-71.680696328407,11.020233412605,25.909230923092,2557436.9482981,747.45868974422,2689428.6073781,31.109230923092,0,0
-71.680695625164,11.022816394738,25.913661366137,2557436.9482981,747.45868974422,2689428.6073781,31.113661366137,0,0
-71.680694921922,11.02539937687,25.918091809181,2557436.9482981,747.45868974422,2689428.6073781,31.118091809181,0,0
-71.680694218679,11.027982359003,25.922522252225,2557436.9482981,747.45868974422,2689428.6073781,31.122522252225,0,0
-71.680693515437,11.030565341136,25.92695269527,2557436.9482981,747.45868974422,2689428.6073781,31.12695269527,0,0
-71.680692812194,11.033148323269,25.931383138314,2557436.9482981,747.45868974422,2689428.6073781,31.131383138314,0,0
-71.680692108951,11.035731305402,25.935813581358,2557436.9482981,747.45868974422,2689428.6073781,31.135813581358,0,0
-71.680691405709,11.038314287535,25.940244024402,2557436.9482981,747.45868974422,2689428.6073781,31.140244024402,0,0
-71.680690702466,11.040897269668,25.944674467447,2557436.9482981,747.45868974422,2689428.6073781,31.144674467447,0,0
-71.680689999224,11.043480251801,25.949104910491,2557436.9482981,747.45868974422,2689428.6073781,31.149104910491,0,0
-71.680689295981,11.046063233934,25.953535353535,2557436.9482981,747.45868974422,2689428.6073781,31.153535353535,0,0
-71.680688592738,11.048646216067,25.95796579658,2557436.9482981,747.45868974422,2689428.6073781,31.15796579658,0,0
-71.680687889496,11.0512291982,25.962396239624,2557436.9482981,747.45868974422,2689428.6073781,31.162396239624,0,0
-71.680687186253,11.053812180333,25.966826682668,2557436.9482981,747.45868974422,2689428.6073781,31.166826682668,0,0
-71.680686483011,11.056395162466,25.971257125713,2557436.9482981,747.45868974422,2689428.6073781,31.171257125713,0,0
-71.680685779768,11.058978144599,25.975687568757,2557436.9482981,747.45868974422,2689428.6073781,31.175687568757,0,0
-71.680685076525,11.061561126731,25.980118011801,2557436.9482981,747.45868974422,2689428.6073781,31.180118011801,0,0
-71.680684373283,11.064144108864,25.984548454845,2557436.9482981,747.45868974422,2689428.6073781,31.184548454845,0,0
-71.68068367004,11.066727090997,25.98897889789,2557436.9482981,747.45868974422,2689428.6073781,31.18897889789,0,0
-71.680682966798,11.06931007313,25.993409340934,2557436.9482981,747.45868974422,2689428.6073781,31.193409340934,0,0
-71.680682263555,11.071893055263,25.997839783978,2557436.9482981,747.45868974422,2689428.6073781,31.197839783978,0,0
-71.680681560313,11.074476037396,26.002270227023,2557436.9482981,747.45868974422,2689428.6073781,31.202270227023,0,0
-71.68068085707,11.077059019529,26.006700670067,2557436.9482981,747.45868974422,2689428.6073781,31.206700670067,0,0
-71.680680153827,11.079642001662,26.011131113111,2557436.9482981,747.45868974422,2689428.6073781,31.211131113111,0,0
-71.680679450585,11.082224983795,26.015561556156,2557436.9482981,747.45868974422,2689428.6073781,31.215561556156,0,0
-71.680678747342,11.084807965928,26.0199919992,2557436.9482981,747.45868974422,2689428.6073781,31.2199919992,0,0
-71.6806780441,11.087390948061,26.024422442244,2557436.9482981,747.45868974422,2689428.6073781,31.224422442244,0,0
-71.680677340099,11.089973930955,26.028852885289,2562887.8709347,1901.3338659437,2687749.9590722,31.228852885289,0,0
-71.680676635785,11.092556914163,26.033283328333,2562887.8709347,1901.3338659437,2687749.9590722,31.233283328333,0,0
-71.680675931471,11.095139897372,26.037713771377,2562887.8709347,1901.3338659437,2687749.9590722,31.237713771377,0,0
-71.680675227157,11.097722880581,26.042144214421,2562887.8709347,1901.3338659437,2687749.9590722,31.242144214421,0,0
-71.680674522843,11.10030586379,26.046574657466,2562887.8709347,1901.3338659437,2687749.9590722,31.246574657466,0,0
-71.680673818529,11.102888846999,26.05100510051,2562887.8709347,1901.3338659437,2687749.9590722,31.25100510051,0,0
-71.680673114214,11.105471830208,26.055435543554,2562887.8709347,1901.3338659437,2687749.9590722,31.255435543554,0,0
-71.6806724099,11.108054813417,26.059865986599,2562887.8709347,1901.3338659437,2687749.9590722,31.259865986599,0,0
-71.680671705586,11.110637796626,26.064296429643,2562887.8709347,1901.3338659437,2687749.9590722,31.264296429643,0,0
-71.680671001272,11.113220779835,26.068726872687,2562887.8709347,1901.3338659437,2687749.9590722,31.268726872687,0,0
-71.680670296958,11.115803763043,26.073157315732,2562887.8709347,1901.3338659437,2687749.9590722,31.273157315732,0,0
-71.680669592644,11.118386746252,26.077587758776,2562887.8709347,1901.3338659437,2687749.9590722,31.277587758776,0,0
-71.680668888329,11.120969729461,26.08201820182,2562887.8709347,1901.3338659437,2687749.9590722,31.28201820182,0,0
-71.680668184015,11.12355271267,26.086448644864,2562887.8709347,1901.3338659437,2687749.9590722,31.286448644864,0,0
-71.680667479701,11.126135695879,26.090879087909,2562887.8709347,1901.3338659437,2687749.9590722,31.290879087909,0,0
-71.680666775387,11.128718679088,26.095309530953,2562887.8709347,1901.3338659437,2687749.9590722,31.295309530953,0,0
-71.680666071073,11.131301662297,26.099739973997,2562887.8709347,1901.3338659437,2687749.9590722,31.299739973997,0,0
-71.680665366759,11.133884645506,26.104170417042,2562887.8709347,1901.3338659437,2687749.9590722,31.304170417042,0,0
-71.680664662445,11.136467628715,26.108600860086,2562887.8709347,1901.3338659437,2687749.9590722,31.308600860086,0,0
-71.68066395813,11.139050611924,26.11303130313,2562887.8709347,1901.3338659437,2687749.9590722,31.31303130313,0,0
-71.680663253816,11.141633595132,26.117461746175,2562887.8709347,1901.3338659437,2687749.9590722,31.317461746175,0,0
-71.680662549502,11.144216578341,26.121892189219,2562887.8709347,1901.3338659437,2687749.9590722,31.321892189219,0,0
-71.680661845188,11.14679956155,26.126322632263,2562887.8709347,1901.3338659437,2687749.9590722,31.326322632263,0,0
-71.680661140874,11.149382544759,26.130753075308,2562887.8709347,1901.3338659437,2687749.9590722,31.330753075308,0,0
-71.68066043656,11.151965527968,26.135183518352,2562887.8709347,1901.3338659437,2687749.9590722,31.335183518352,0,0
-71.680659732246,11.154548511177,26.139613961396,2562887.8709347,1901.3338659437,2687749.9590722,31.339613961396,0,0
-71.680659027931,11.157131494386,26.14404440444,2562887.8709347,1901.3338659437,2687749.9590722,31.34404440444,0,0
-71.680658323617,11.159714477595,26.148474847485,2562887.8709347,1901.3338659437,2687749.9590722,31.348474847485,0,0
-71.680657619303,11.162297460804,26.152905290529,2562887.8709347,1901.3338659437,2687749.9590722,31.352905290529,0,0
-71.680656914989,11.164880444013,26.157335733573,2562887.8709347,1901.3338659437,2687749.9590722,31.357335733573,0,0
-71.680656210675,11.167463427221,26.161766176618,2562887.8709347,1901.3338659437,2687749.9590722,31.361766176618,0,0
-71.680655506361,11.17004641043,26.166196619662,2562887.8709347,1901.3338659437,2687749.9590722,31.366196619662,0,0
-71.680654802047,11.172629393639,26.170627062706,2562887.8709347,1901.3338659437,2687749.9590722,31.370627062706,0,0
-71.680654097732,11.175212376848,26.175057505751,2562887.8709347,1901.3338659437,2687749.9590722,31.375057505751,0,0
-71.680653393418,11.177795360057,26.179487948795,2562887.8709347,1901.3338659437,2687749.9590722,31.379487948795,0,0
-71.680652689104,11.180378343266,26.183918391839,2562887.8709347,1901.3338659437,2687749.9590722,31.383918391839,0,0
-71.68065198479,11.182961326475,26.188348834883,2562887.8709347,1901.3338659437,2687749.9590722,31.388348834883,0,0
-71.680651280476,11.185544309684,26.192779277928,2562887.8709347,1901.3338659437,2687749.9590722,31.392779277928,0,0
-71.680650576162,11.188127292893,26.197209720972,2562887.8709347,1901.3338659437,2687749.9590722,31.397209720972,0,0
-71.680649871847,11.190710276101,26.201640164016,2562887.8709347,1901.3338659437,2687749.9590722,31.401640164016,0,0
-71.680649167533,11.19329325931,26.206070607061,2562887.8709347,1901.3338659437,2687749.9590722,31.406070607061,0,0
-71.680648463219,11.195876242519,26.210501050105,2562887.8709347,1901.3338659437,2687749.9590722,31.410501050105,0,0
-71.680647758905,11.198459225728,26.214931493149,2562887.8709347,1901.3338659437,2687749.9590722,31.414931493149,0,0
-71.680647054591,11.201042208937,26.219361936194,2562887.8709347,1901.3338659437,2687749.9590722,31.419361936194,0,0
-71.680646350277,11.203625192146,26.223792379238,2562887.8709347,1901.3338659437,2687749.9590722,31.423792379238,0,0
-71.680645645963,11.206208175355,26.228222822282,2562887.8709347,1901.3338659437,2687749.9590722,31.428222822282,0,0
-71.680644941648,11.208791158564,26.232653265327,2562887.8709347,1901.3338659437,2687749.9590722,31.432653265327,0,0
-71.680644237334,11.211374141773,26.237083708371,2562887.8709347,1901.3338659437,2687749.9590722,31.437083708371,0,0
-71.68064353302,11.213957124982,26.241514151415,2562887.8709347,1901.3338659437,2687749.9590722,31.441514151415,0,0
-71.680642828706,11.21654010819,26.245944594459,2562887.8709347,1901.3338659437,2687749.9590722,31.445944594459,0,0
-71.680642124395,11.219123091103,26.250375037504,2561017.3632101,-526.28560411997,2680398.9881394,31.450375037504,0,0
-71.680641420091,11.221706073218,26.254805480548,2561017.3632101,-526.28560411997,2680398.9881394,31.454805480548,0,0
-71.680640715787,11.224289055333,26.259235923592,2561017.3632101,-526.28560411997,2680398.9881394,31.459235923592,0,0
-71.680640011483,11.226872037447,26.263666366637,2561017.3632101,-526.28560411997,2680398.9881394,31.463666366637,0,0
-71.680639307179,11.229455019562,26.268096809681,2561017.3632101,-526.28560411997,2680398.9881394,31.468096809681,0,0
-71.680638602875,11.232038001676,26.272527252725,2561017.3632101,-526.28560411997,2680398.9881394,31.472527252725,0,0
-71.680637898571,11.234620983791,26.27695769577,2561017.3632101,-526.28560411997,2680398.9881394,31.47695769577,0,0
-71.680637194267,11.237203965905,26.281388138814,2561017.3632101,-526.28560411997,2680398.9881394,31.481388138814,0,0
-71.680636489963,11.23978694802,26.285818581858,2561017.3632101,-526.28560411997,2680398.9881394,31.485818581858,0,0
-71.680635785659,11.242369930135,26.290249024902,2561017.3632101,-526.28560411997,2680398.9881394,31.490249024902,0,0
-71.680635081355,11.244952912249,26.294679467947,2561017.3632101,-526.28560411997,2680398.9881394,31.494679467947,0,0
-71.680634377051,11.247535894364,26.299109910991,2561017.3632101,-526.28560411997,2680398.9881394,31.499109910991,0,0
-71.680633672747,11.250118876478,26.303540354035,2561017.3632101,-526.28560411997,2680398.9881394,31.503540354035,0,0
-71.680632968443,11.252701858593,26.30797079708,2561017.3632101,-526.28560411997,2680398.9881394,31.50797079708,0,0
-71.680632264139,11.255284840708,26.312401240124,2561017.3632101,-526.28560411997,2680398.9881394,31.512401240124,0,0
-71.680631559835,11.257867822822,26.316831683168,2561017.3632101,-526.28560411997,2680398.9881394,31.516831683168,0,0
-71.680630855531,11.260450804937,26.321262126213,2561017.3632101,-526.28560411997,2680398.9881394,31.521262126213,0,0
-71.680630151227,11.263033787051,26.325692569257,2561017.3632101,-526.28560411997,2680398.9881394,31.525692569257,0,0
-71.680629446923,11.265616769166,26.330123012301,2561017.3632101,-526.28560411997,2680398.9881394,31.530123012301,0,0
-71.680628742619,11.26819975128,26.334553455346,2561017.3632101,-526.28560411997,2680398.9881394,31.534553455346,0,0
-71.680628038315,11.270782733395,26.33898389839,2561017.3632101,-526.28560411997,2680398.9881394,31.53898389839,0,0
-71.680627334011,11.27336571551,26.343414341434,2561017.3632101,-526.28560411997,2680398.9881394,31.543414341434,0,0
-71.680626629707,11.275948697624,26.347844784478,2561017.3632101,-526.28560411997,2680398.9881394,31.547844784478,0,0
-71.680625925403,11.278531679739,26.352275227523,2561017.3632101,-526.28560411997,2680398.9881394,31.552275227523,0,0
-71.680625221099,11.281114661853,26.356705670567,2561017.3632101,-526.28560411997,2680398.9881394,31.556705670567,0,0
-71.680624516795,11.283697643968,26.361136113611,2561017.3632101,-526.28560411997,2680398.9881394,31.561136113611,0,0
-71.680623812491,11.286280626083,26.365566556656,2561017.3632101,-526.28560411997,2680398.9881394,31.565566556656,0,0
-71.680623108187,11.288863608197,26.3699969997,2561017.3632101,-526.28560411997,2680398.9881394,31.5699969997,0,0
-71.680622403883,11.291446590312,26.374427442744,2561017.3632101,-526.28560411997,2680398.9881394,31.574427442744,0,0
-71.680621699579,11.294029572426,26.378857885789,2561017.3632101,-526.28560411997,2680398.9881394,31.578857885789,0,0
-71.680620995275,11.296612554541,26.383288328833,2561017.3632101,-526.28560411997,2680398.9881394,31.583288328833,0,0
-71.680620290971,11.299195536655,26.387718771877,2561017.3632101,-526.28560411997,2680398.9881394,31.587718771877,0,0
-71.680619586667,11.30177851877,26.392149214921,2561017.3632101,-526.28560411997,2680398.9881394,31.592149214921,0,0
-71.680618882363,11.304361500885,26.396579657966,2561017.3632101,-526.28560411997,2680398.9881394,31.596579657966,0,0
-71.680618178059,11.306944482999,26.40101010101,2561017.3632101,-526.28560411997,2680398.9881394,31.60101010101,0,0
-71.680617473755,11.309527465114,26.405440544054,2561017.3632101,-526.28560411997,2680398.9881394,31.605440544054,0,0
-71.680616769451,11.312110447228,26.409870987099,2561017.3632101,-526.28560411997,2680398.9881394,31.609870987099,0,0
-71.680616065148,11.314693429343,26.414301430143,2561017.3632101,-526.28560411997,2680398.9881394,31.614301430143,0,0
-71.680615360844,11.317276411458,26.418731873187,2561017.3632101,-526.28560411997,2680398.9881394,31.618731873187,0,0
-71.68061465654,11.319859393572,26.423162316232,2561017.3632101,-526.28560411997,2680398.9881394,31.623162316232,0,0
-71.680613952236,11.322442375687,26.427592759276,2561017.3632101,-526.28560411997,2680398.9881394,31.627592759276,0,0
-71.680613247932,11.325025357801,26.43202320232,2561017.3632101,-526.28560411997,2680398.9881394,31.63202320232,0,0
-71.680612543628,11.327608339916,26.436453645365,2561017.3632101,-526.28560411997,2680398.9881394,31.636453645365,0,0
-71.680611839324,11.330191322031,26.440884088409,2561017.3632101,-526.28560411997,2680398.9881394,31.640884088409,0,0
-71.68061113502,11.332774304145,26.445314531453,2561017.3632101,-526.28560411997,2680398.9881394,31.645314531453,0,0
-71.680610430716,11.33535728626,26.449744974497,2561017.3632101,-526.28560411997,2680398.9881394,31.649744974497,0,0
-71.680609726412,11.337940268374,26.454175417542,2561017.3632101,-526.28560411997,2680398.9881394,31.654175417542,0,0
-71.680609022108,11.340523250489,26.458605860586,2561017.3632101,-526.28560411997,2680398.9881394,31.658605860586,0,0
-71.680608317804,11.343106232603,26.46303630363,2561017.3632101,-526.28560411997,2680398.9881394,31.66303630363,0,0
-71.6806076135,11.345689214718,26.467466746675,2561017.3632101,-526.28560411997,2680398.9881394,31.667466746675,0,0
-71.680606909196,11.348272196833,26.471897189719,2561017.3632101,-526.28560411997,2680398.9881394,31.671897189719,0,0
-71.680606204892,11.350855178947,26.476327632763,2561017.3632101,-526.28560411997,2680398.9881394,31.676327632763,0,0
-71.680605500588,11.353438161062,26.480758075808,2561017.3632101,-526.28560411997,2680398.9881394,31.680758075808,0,0
-71.680604796284,11.356021143176,26.485188518852,2561017.3632101,-526.28560411997,2680398.9881394,31.685188518852,0,0
-71.68060409198,11.358604125291,26.489618961896,2561017.3632101,-526.28560411997,2680398.9881394,31.689618961896,0,0
-71.680603387676,11.361187107406,26.49404940494,2561017.3632101,-526.28560411997,2680398.9881394,31.69404940494,0,0
-71.680602683372,11.36377008952,26.498479847985,2561017.3632101,-526.28560411997,2680398.9881394,31.698479847985,0,0
-71.680601979068,11.366353071635,26.502910291029,2561017.3632101,-526.28560411997,2680398.9881394,31.702910291029,0,0
-71.680601274764,11.368936053749,26.507340734073,2561017.3632101,-526.28560411997,2680398.9881394,31.707340734073,0,0
-71.68060057046,11.371519035864,26.511771177118,2561017.3632101,-526.28560411997,2680398.9881394,31.711771177118,0,0
-71.680599866156,11.374102017978,26.516201620162,2561017.3632101,-526.28560411997,2680398.9881394,31.716201620162,0,0
-71.680599161852,11.376685000093,26.520632063206,2561017.3632101,-526.28560411997,2680398.9881394,31.720632063206,0,0
-71.680598457548,11.379267982208,26.525062506251,2561017.3632101,-526.28560411997,2680398.9881394,31.725062506251,0,0
-71.680597753244,11.381850964322,26.529492949295,2561017.3632101,-526.28560411997,2680398.9881394,31.729492949295,0,0
-71.68059704894,11.384433946437,26.533923392339,2561017.3632101,-526.28560411997,2680398.9881394,31.733923392339,0,0
-71.680596344636,11.387016928551,26.538353835384,2561017.3632101,-526.28560411997,2680398.9881394,31.738353835384,0,0
-71.680595640332,11.389599910666,26.542784278428,2561017.3632101,-526.28560411997,2680398.9881394,31.742784278428,0,0
-71.680594936028,11.392182892781,26.547214721472,2561017.3632101,-526.28560411997,2680398.9881394,31.747214721472,0,0
-71.680594231724,11.394765874895,26.551645164516,2561017.3632101,-526.28560411997,2680398.9881394,31.751645164516,0,0
-71.68059352742,11.39734885701,26.556075607561,2561017.3632101,-526.28560411997,2680398.9881394,31.756075607561,0,0
-71.680592823116,11.399931839124,26.560506050605,2561017.3632101,-526.28560411997,2680398.9881394,31.760506050605,0,0
-71.680592118812,11.402514821239,26.564936493649,2561017.3632101,-526.28560411997,2680398.9881394,31.764936493649,0,0
-71.680591414508,11.405097803354,26.569366936694,2561017.3632101,-526.28560411997,2680398.9881394,31.769366936694,0,0
-71.680590710204,11.407680785468,26.573797379738,2561017.3632101,-526.28560411997,2680398.9881394,31.773797379738,0,0
-71.6805900059,11.410263767583,26.578227822782,2561017.3632101,-526.28560411997,2680398.9881394,31.778227822782,0,0
-71.680589301596,11.412846749697,26.582658265827,2561017.3632101,-526.28560411997,2680398.9881394,31.782658265827,0,0
-71.680588597292,11.415429731812,26.587088708871,2561017.3632101,-526.28560411997,2680398.9881394,31.787088708871,0,0
-71.680587892989,11.418012713926,26.591519151915,2561017.3632101,-526.28560411997,2680398.9881394,31.791519151915,0,0
-71.680587188685,11.420595696041,26.595949594959,2561017.3632101,-526.28560411997,2680398.9881394,31.795949594959,0,0
-71.680586484381,11.423178678156,26.600380038004,2561017.3632101,-526.28560411997,2680398.9881394,31.800380038004,0,0
-71.680585780077,11.42576166027,26.604810481048,2561017.3632101,-526.28560411997,2680398.9881394,31.804810481048,0,0
-71.680585075773,11.428344642385,26.609240924092,2561017.3632101,-526.28560411997,2680398.9881394,31.809240924092,0,0
-71.680584371469,11.430927624499,26.613671367137,2561017.3632101,-526.28560411997,2680398.9881394,31.813671367137,0,0
-71.680583667165,11.433510606614,26.618101810181,2561017.3632101,-526.28560411997,2680398.9881394,31.818101810181,0,0
-71.680582962861,11.436093588729,26.622532253225,2561017.3632101,-526.28560411997,2680398.9881394,31.822532253225,0,0
-71.680582258557,11.438676570843,26.62696269627,2561017.3632101,-526.28560411997,2680398.9881394,31.82696269627,0,0
-71.680581554253,11.441259552958,26.631393139314,2561017.3632101,-526.28560411997,2680398.9881394,31.831393139314,0,0
-71.680580849949,11.443842535072,26.635823582358,2561017.3632101,-526.28560411997,2680398.9881394,31.835823582358,0,0
-71.680580145645,11.446425517187,26.640254025403,2561017.3632101,-526.28560411997,2680398.9881394,31.840254025403,0,0
-71.680579441341,11.449008499301,26.644684468447,2561017.3632101,-526.28560411997,2680398.9881394,31.844684468447,0,0
-71.680578737037,11.451591481416,26.649114911491,2561017.3632101,-526.28560411997,2680398.9881394,31.849114911491,0,0
-71.680578032733,11.454174463531,26.653545354535,2561017.3632101,-526.28560411997,2680398.9881394,31.853545354535,0,0
-71.680577328429,11.456757445645,26.65797579758,2561017.3632101,-526.28560411997,2680398.9881394,31.85797579758,0,0
-71.680576624125,11.45934042776,26.662406240624,2561017.3632101,-526.28560411997,2680398.9881394,31.862406240624,0,0
-71.680575919821,11.461923409874,26.666836683668,2561017.3632101,-526.28560411997,2680398.9881394,31.866836683668,0,0
-71.680575215517,11.464506391989,26.671267126713,2561017.3632101,-526.28560411997,2680398.9881394,31.871267126713,0,0
-71.680574511213,11.467089374104,26.675697569757,2561017.3632101,-526.28560411997,2680398.9881394,31.875697569757,0,0
-71.680573806909,11.469672356218,26.680128012801,2561017.3632101,-526.28560411997,2680398.9881394,31.880128012801,0,0
-71.680573102605,11.472255338333,26.684558455846,2561017.3632101,-526.28560411997,2680398.9881394,31.884558455846,0,0
-71.680572398301,11.474838320447,26.68898889889,2561017.3632101,-526.28560411997,2680398.9881394,31.88898889889,0,0
-71.680571693997,11.477421302562,26.693419341934,2561017.3632101,-526.28560411997,2680398.9881394,31.893419341934,0,0
-71.680570989693,11.480004284677,26.697849784978,2561017.3632101,-526.28560411997,2680398.9881394,31.897849784978,0,0
-71.680570285389,11.482587266791,26.702280228023,2561017.3632101,-526.28560411997,2680398.9881394,31.902280228023,0,0
-71.680569581085,11.485170248906,26.706710671067,2561017.3632101,-526.28560411997,2680398.9881394,31.906710671067,0,0
-71.680568876781,11.48775323102,26.711141114111,2561017.3632101,-526.28560411997,2680398.9881394,31.911141114111,0,0
-71.680568172477,11.490336213135,26.715571557156,2561017.3632101,-526.28560411997,2680398.9881394,31.915571557156,0,0
-71.680567468173,11.492919195249,26.7200020002,2561017.3632101,-526.28560411997,2680398.9881394,31.9200020002,0,0
-71.680566763869,11.495502177364,26.724432443244,2561017.3632101,-526.28560411997,2680398.9881394,31.924432443244,0,0
-71.680566059565,11.498085159479,26.728862886289,2561017.3632101,-526.28560411997,2680398.9881394,31.928862886289,0,0
-71.680565355261,11.500668141593,26.733293329333,2561017.3632101,-526.28560411997,2680398.9881394,31.933293329333,0,0
-71.680564650957,11.503251123708,26.737723772377,2561017.3632101,-526.28560411997,2680398.9881394,31.937723772377,0,0
-71.680563946653,11.505834105822,26.742154215422,2561017.3632101,-526.28560411997,2680398.9881394,31.942154215422,0,0
-71.680563242349,11.508417087937,26.746584658466,2561017.3632101,-526.28560411997,2680398.9881394,31.946584658466,0,0
-71.680562538045,11.511000070052,26.75101510151,2561017.3632101,-526.28560411997,2680398.9881394,31.95101510151,0,0
-71.680561833741,11.513583052166,26.755445544554,2561017.3632101,-526.28560411997,2680398.9881394,31.955445544554,0,0
-71.680561129437,11.516166034281,26.759875987599,2561017.3632101,-526.28560411997,2680398.9881394,31.959875987599,0,0
-71.680560425133,11.518749016395,26.764306430643,2561017.3632101,-526.28560411997,2680398.9881394,31.964306430643,0,0
-71.68055972083,11.52133199851,26.768736873687,2561017.3632101,-526.28560411997,2680398.9881394,31.968736873687,0,0
-71.680559016526,11.523914980624,26.773167316732,2561017.3632101,-526.28560411997,2680398.9881394,31.973167316732,0,0
-71.680558312222,11.526497962739,26.777597759776,2561017.3632101,-526.28560411997,2680398.9881394,31.977597759776,0,0
-71.680557607918,11.529080944854,26.78202820282,2561017.3632101,-526.28560411997,2680398.9881394,31.98202820282,0,0
-71.680556903614,11.531663926968,26.786458645865,2561017.3632101,-526.28560411997,2680398.9881394,31.986458645865,0,0
-71.68055619931,11.534246909083,26.790889088909,2561017.3632101,-526.28560411997,2680398.9881394,31.990889088909,0,0
-71.680555495006,11.536829891197,26.795319531953,2561017.3632101,-526.28560411997,2680398.9881394,31.995319531953,0,0
-71.680554790702,11.539412873312,26.799749974997,2561017.3632101,-526.28560411997,2680398.9881394,31.999749974997,0,0
-71.680554086398,11.541995855427,26.804180418042,2561017.3632101,-526.28560411997,2680398.9881394,32.004180418042,0,0
-71.680553382094,11.544578837541,26.808610861086,2561017.3632101,-526.28560411997,2680398.9881394,32.008610861086,0,0
-71.68055267779,11.547161819656,26.81304130413,2561017.3632101,-526.28560411997,2680398.9881394,32.01304130413,0,0
-71.680551973486,11.54974480177,26.817471747175,2561017.3632101,-526.28560411997,2680398.9881394,32.017471747175,0,0
-71.680551269182,11.552327783885,26.821902190219,2561017.3632101,-526.28560411997,2680398.9881394,32.021902190219,0,0
-71.680550564878,11.554910766,26.826332633263,2561017.3632101,-526.28560411997,2680398.9881394,32.026332633263,0,0
-71.680549860574,11.557493748114,26.830763076308,2561017.3632101,-526.28560411997,2680398.9881394,32.030763076308,0,0
-71.68054915627,11.560076730229,26.835193519352,2561017.3632101,-526.28560411997,2680398.9881394,32.035193519352,0,0
-71.680548451966,11.562659712343,26.839623962396,2561017.3632101,-526.28560411997,2680398.9881394,32.039623962396,0,0
-71.680547747662,11.565242694458,26.844054405441,2561017.3632101,-526.28560411997,2680398.9881394,32.044054405441,0,0
-71.680547043358,11.567825676572,26.848484848485,2561017.3632101,-526.28560411997,2680398.9881394,32.048484848485,0,0
-71.680546339054,11.570408658687,26.852915291529,2561017.3632101,-526.28560411997,2680398.9881394,32.052915291529,0,0
-71.68054563475,11.572991640802,26.857345734573,2561017.3632101,-526.28560411997,2680398.9881394,32.057345734573,0,0
-71.680544930446,11.575574622916,26.861776177618,2561017.3632101,-526.28560411997,2680398.9881394,32.061776177618,0,0
-71.680544226142,11.578157605031,26.866206620662,2561017.3632101,-526.28560411997,2680398.9881394,32.066206620662,0,0
-71.680543521838,11.580740587145,26.870637063706,2561017.3632101,-526.28560411997,2680398.9881394,32.070637063706,0,0
-71.680542817534,11.58332356926,26.875067506751,2561017.3632101,-526.28560411997,2680398.9881394,32.075067506751,0,0
-71.68054211323,11.585906551375,26.879497949795,2561017.3632101,-526.28560411997,2680398.9881394,32.079497949795,0,0
-71.680541408926,11.588489533489,26.883928392839,2561017.3632101,-526.28560411997,2680398.9881394,32.083928392839,0,0
-71.680540704622,11.591072515604,26.888358835884,2561017.3632101,-526.28560411997,2680398.9881394,32.088358835884,0,0
-71.680540000318,11.593655497718,26.892789278928,2561017.3632101,-526.28560411997,2680398.9881394,32.092789278928,0,0
-71.680539296014,11.596238479833,26.897219721972,2561017.3632101,-526.28560411997,2680398.9881394,32.097219721972,0,0
-71.68053859171,11.598821461947,26.901650165017,2561017.3632101,-526.28560411997,2680398.9881394,32.101650165017,0,0
-71.680537887406,11.601404444062,26.906080608061,2561017.3632101,-526.28560411997,2680398.9881394,32.106080608061,0,0
-71.680537183102,11.603987426177,26.910511051105,2561017.3632101,-526.28560411997,2680398.9881394,32.110511051105,0,0
-71.680536478798,11.606570408291,26.914941494149,2561017.3632101,-526.28560411997,2680398.9881394,32.114941494149,0,0
-71.680535774494,11.609153390406,26.919371937194,2561017.3632101,-526.28560411997,2680398.9881394,32.119371937194,0,0
-71.68053507019,11.61173637252,26.923802380238,2561017.3632101,-526.28560411997,2680398.9881394,32.123802380238,0,0
-71.680534365886,11.614319354635,26.928232823282,2561017.3632101,-526.28560411997,2680398.9881394,32.128232823282,0,0
-71.680533661582,11.61690233675,26.932663266327,2561017.3632101,-526.28560411997,2680398.9881394,32.132663266327,0,0
-71.680532957278,11.619485318864,26.937093709371,2561017.3632101,-526.28560411997,2680398.9881394,32.137093709371,0,0
-71.680532252974,11.622068300979,26.941524152415,2561017.3632101,-526.28560411997,2680398.9881394,32.141524152415,0,0
-71.680531548671,11.624651283093,26.94595459546,2561017.3632101,-526.28560411997,2680398.9881394,32.14595459546,0,0
-71.680530844367,11.627234265208,26.950385038504,2561017.3632101,-526.28560411997,2680398.9881394,32.150385038504,0,0
-71.680530140063,11.629817247323,26.954815481548,2561017.3632101,-526.28560411997,2680398.9881394,32.154815481548,0,0
-71.680529435759,11.632400229437,26.959245924592,2561017.3632101,-526.28560411997,2680398.9881394,32.159245924592,0,0
-71.680528731455,11.634983211552,26.963676367637,2561017.3632101,-526.28560411997,2680398.9881394,32.163676367637,0,0
-71.680528027151,11.637566193666,26.968106810681,2561017.3632101,-526.28560411997,2680398.9881394,32.168106810681,0,0
-71.680527322847,11.640149175781,26.972537253725,2561017.3632101,-526.28560411997,2680398.9881394,32.172537253725,0,0
-71.680526618543,11.642732157895,26.97696769677,2561017.3632101,-526.28560411997,2680398.9881394,32.17696769677,0,0
-71.680525914239,11.64531514001,26.981398139814,2561017.3632101,-526.28560411997,2680398.9881394,32.181398139814,0,0
-71.680525209935,11.647898122125,26.985828582858,2561017.3632101,-526.28560411997,2680398.9881394,32.185828582858,0,0
-71.680524505631,11.650481104239,26.990259025903,2561017.3632101,-526.28560411997,2680398.9881394,32.190259025903,0,0
-71.680523801327,11.653064086354,26.994689468947,2561017.3632101,-526.28560411997,2680398.9881394,32.194689468947,0,0
-71.680523097023,11.655647068468,26.999119911991,2561017.3632101,-526.28560411997,2680398.9881394,32.199119911991,0,0
-71.680522392719,11.658230050583,27.003550355036,2561017.3632101,-526.28560411997,2680398.9881394,32.203550355036,0,0
-71.680521688415,11.660813032698,27.00798079808,2561017.3632101,-526.28560411997,2680398.9881394,32.20798079808,0,0
-71.680520984111,11.663396014812,27.012411241124,2561017.3632101,-526.28560411997,2680398.9881394,32.212411241124,0,0
-71.680520279807,11.665978996927,27.016841684168,2561017.3632101,-526.28560411997,2680398.9881394,32.216841684168,0,0
-71.680519575503,11.668561979041,27.021272127213,2561017.3632101,-526.28560411997,2680398.9881394,32.221272127213,0,0
-71.680518871199,11.671144961156,27.025702570257,2561017.3632101,-526.28560411997,2680398.9881394,32.225702570257,0,0
-71.680518166895,11.67372794327,27.030133013301,2561017.3632101,-526.28560411997,2680398.9881394,32.230133013301,0,0
-71.680517462591,11.676310925385,27.034563456346,2561017.3632101,-526.28560411997,2680398.9881394,32.234563456346,0,0
-71.680516758287,11.6788939075,27.03899389939,2561017.3632101,-526.28560411997,2680398.9881394,32.23899389939,0,0
-71.680516053983,11.681476889614,27.043424342434,2561017.3632101,-526.28560411997,2680398.9881394,32.243424342434,0,0
-71.680515349679,11.684059871729,27.047854785479,2561017.3632101,-526.28560411997,2680398.9881394,32.247854785479,0,0
-71.680514645375,11.686642853843,27.052285228523,2561017.3632101,-526.28560411997,2680398.9881394,32.252285228523,0,0
-71.680513941071,11.689225835958,27.056715671567,2561017.3632101,-526.28560411997,2680398.9881394,32.256715671567,0,0
-71.680513236767,11.691808818073,27.061146114611,2561017.3632101,-526.28560411997,2680398.9881394,32.261146114611,0,0
-71.680512532463,11.694391800187,27.065576557656,2561017.3632101,-526.28560411997,2680398.9881394,32.265576557656,0,0
-71.680511828159,11.696974782302,27.0700070007,2561017.3632101,-526.28560411997,2680398.9881394,32.2700070007,0,0
-71.680511123855,11.699557764416,27.074437443744,2561017.3632101,-526.28560411997,2680398.9881394,32.274437443744,0,0
-71.680510419551,11.702140746531,27.078867886789,2561017.3632101,-526.28560411997,2680398.9881394,32.278867886789,0,0
-71.680509715247,11.704723728646,27.083298329833,2561017.3632101,-526.28560411997,2680398.9881394,32.283298329833,0,0
-71.680509010943,11.70730671076,27.087728772877,2561017.3632101,-526.28560411997,2680398.9881394,32.287728772877,0,0
-71.680508306639,11.709889692875,27.092159215922,2561017.3632101,-526.28560411997,2680398.9881394,32.292159215922,0,0
-71.680507602335,11.712472674989,27.096589658966,2561017.3632101,-526.28560411997,2680398.9881394,32.296589658966,0,0
-71.680506898031,11.715055657104,27.10102010201,2561017.3632101,-526.28560411997,2680398.9881394,32.30102010201,0,0
-71.680506193727,11.717638639218,27.105450545055,2561017.3632101,-526.28560411997,2680398.9881394,32.305450545055,0,0
-71.680505489423,11.720221621333,27.109880988099,2561017.3632101,-526.28560411997,2680398.9881394,32.309880988099,0,0
-71.680504785119,11.722804603448,27.114311431143,2561017.3632101,-526.28560411997,2680398.9881394,32.314311431143,0,0
-71.680504080815,11.725387585562,27.118741874187,2561017.3632101,-526.28560411997,2680398.9881394,32.318741874187,0,0
-71.680503376511,11.727970567677,27.123172317232,2561017.3632101,-526.28560411997,2680398.9881394,32.323172317232,0,0
-71.680502672208,11.730553549791,27.127602760276,2561017.3632101,-526.28560411997,2680398.9881394,32.327602760276,0,0
-71.680501967904,11.733136531906,27.13203320332,2561017.3632101,-526.28560411997,2680398.9881394,32.33203320332,0,0
-71.6805012636,11.735719514021,27.136463646365,2561017.3632101,-526.28560411997,2680398.9881394,32.336463646365,0,0
-71.680500559296,11.738302496135,27.140894089409,2561017.3632101,-526.28560411997,2680398.9881394,32.340894089409,0,0
-71.680499854992,11.74088547825,27.145324532453,2561017.3632101,-526.28560411997,2680398.9881394,32.345324532453,0,0
-71.680499150688,11.743468460364,27.149754975498,2561017.3632101,-526.28560411997,2680398.9881394,32.349754975498,0,0
-71.680498446384,11.746051442479,27.154185418542,2561017.3632101,-526.28560411997,2680398.9881394,32.354185418542,0,0
-71.68049774208,11.748634424593,27.158615861586,2561017.3632101,-526.28560411997,2680398.9881394,32.358615861586,0,0
-71.680497037776,11.751217406708,27.16304630463,2561017.3632101,-526.28560411997,2680398.9881394,32.36304630463,0,0
-71.680496333472,11.753800388823,27.167476747675,2561017.3632101,-526.28560411997,2680398.9881394,32.367476747675,0,0
-71.680495629168,11.756383370937,27.171907190719,2561017.3632101,-526.28560411997,2680398.9881394,32.371907190719,0,0
-71.680494924864,11.758966353052,27.176337633763,2561017.3632101,-526.28560411997,2680398.9881394,32.376337633763,0,0
-71.68049422056,11.761549335166,27.180768076808,2561017.3632101,-526.28560411997,2680398.9881394,32.380768076808,0,0
-71.680493516256,11.764132317281,27.185198519852,2561017.3632101,-526.28560411997,2680398.9881394,32.385198519852,0,0
-71.680492811952,11.766715299396,27.189628962896,2561017.3632101,-526.28560411997,2680398.9881394,32.389628962896,0,0
-71.680492107648,11.76929828151,27.194059405941,2561017.3632101,-526.28560411997,2680398.9881394,32.394059405941,0,0
-71.680491403344,11.771881263625,27.198489848985,2561017.3632101,-526.28560411997,2680398.9881394,32.398489848985,0,0
-71.68049069904,11.774464245739,27.202920292029,2561017.3632101,-526.28560411997,2680398.9881394,32.402920292029,0,0
-71.680489994736,11.777047227854,27.207350735074,2561017.3632101,-526.28560411997,2680398.9881394,32.407350735074,0,0
-71.680489290432,11.779630209969,27.211781178118,2561017.3632101,-526.28560411997,2680398.9881394,32.411781178118,0,0
-71.680488586128,11.782213192083,27.216211621162,2561017.3632101,-526.28560411997,2680398.9881394,32.416211621162,0,0
-71.680487881824,11.784796174198,27.220642064206,2561017.3632101,-526.28560411997,2680398.9881394,32.420642064206,0,0
-71.68048717752,11.787379156312,27.225072507251,2561017.3632101,-526.28560411997,2680398.9881394,32.425072507251,0,0
-71.680486473216,11.789962138427,27.229502950295,2561017.3632101,-526.28560411997,2680398.9881394,32.429502950295,0,0
-71.680485768912,11.792545120541,27.233933393339,2561017.3632101,-526.28560411997,2680398.9881394,32.433933393339,0,0
-71.680485064608,11.795128102656,27.238363836384,2561017.3632101,-526.28560411997,2680398.9881394,32.438363836384,0,0
-71.680484360304,11.797711084771,27.242794279428,2561017.3632101,-526.28560411997,2680398.9881394,32.442794279428,0,0
-71.680483656,11.800294066885,27.247224722472,2561017.3632101,-526.28560411997,2680398.9881394,32.447224722472,0,0
-71.680482951696,11.802877049,27.251655165517,2561017.3632101,-526.28560411997,2680398.9881394,32.451655165517,0,0
-71.680482247392,11.805460031114,27.256085608561,2561017.3632101,-526.28560411997,2680398.9881394,32.456085608561,0,0
-71.680481543088,11.808043013229,27.260516051605,2561017.3632101,-526.28560411997,2680398.9881394,32.460516051605,0,0
-71.680480838784,11.810625995344,27.264946494649,2561017.3632101,-526.28560411997,2680398.9881394,32.464946494649,0,0
-71.68048013448,11.813208977458,27.269376937694,2561017.3632101,-526.28560411997,2680398.9881394,32.469376937694,0,0
-71.680479430176,11.815791959573,27.273807380738,2561017.3632101,-526.28560411997,2680398.9881394,32.473807380738,0,0
-71.680478725872,11.818374941687,27.278237823782,2561017.3632101,-526.28560411997,2680398.9881394,32.478237823782,0,0
-71.680478021568,11.820957923802,27.282668266827,2561017.3632101,-526.28560411997,2680398.9881394,32.482668266827,0,0
-71.680477317264,11.823540905916,27.287098709871,2561017.3632101,-526.28560411997,2680398.9881394,32.487098709871,0,0
-71.68047661296,11.826123888031,27.291529152915,2561017.3632101,-526.28560411997,2680398.9881394,32.491529152915,0,0
-71.680475908656,11.828706870146,27.29595959596,2561017.3632101,-526.28560411997,2680398.9881394,32.49595959596,0,0
-71.680475204352,11.83128985226,27.300390039004,2561017.3632101,-526.28560411997,2680398.9881394,32.500390039004,0,0
-71.680474500049,11.833872834375,27.304820482048,2561017.3632101,-526.28560411997,2680398.9881394,32.504820482048,0,0
-71.680473795745,11.836455816489,27.309250925093,2561017.3632101,-526.28560411997,2680398.9881394,32.509250925093,0,0
-71.680473091441,11.839038798604,27.313681368137,2561017.3632101,-526.28560411997,2680398.9881394,32.513681368137,0,0
-71.680472387137,11.841621780719,27.318111811181,2561017.3632101,-526.28560411997,2680398.9881394,32.518111811181,0,0
-71.680471682833,11.844204762833,27.322542254225,2561017.3632101,-526.28560411997,2680398.9881394,32.522542254225,0,0
-71.680470978529,11.846787744948,27.32697269727,2561017.3632101,-526.28560411997,2680398.9881394,32.52697269727,0,0
-71.680470274225,11.849370727062,27.331403140314,2561017.3632101,-526.28560411997,2680398.9881394,32.531403140314,0,0
-71.680469569921,11.851953709177,27.335833583358,2561017.3632101,-526.28560411997,2680398.9881394,32.535833583358,0,0
-71.680468865617,11.854536691291,27.340264026403,2561017.3632101,-526.28560411997,2680398.9881394,32.540264026403,0,0
-71.680468161313,11.857119673406,27.344694469447,2561017.3632101,-526.28560411997,2680398.9881394,32.544694469447,0,0
-71.680467457009,11.859702655521,27.349124912491,2561017.3632101,-526.28560411997,2680398.9881394,32.549124912491,0,0
-71.680466752705,11.862285637635,27.353555355536,2561017.3632101,-526.28560411997,2680398.9881394,32.553555355536,0,0
-71.680466048401,11.86486861975,27.35798579858,2561017.3632101,-526.28560411997,2680398.9881394,32.55798579858,0,0
-71.680465344097,11.867451601864,27.362416241624,2561017.3632101,-526.28560411997,2680398.9881394,32.562416241624,0,0
-71.680464639793,11.870034583979,27.366846684668,2561017.3632101,-526.28560411997,2680398.9881394,32.566846684668,0,0
-71.680463935489,11.872617566094,27.371277127713,2561017.3632101,-526.28560411997,2680398.9881394,32.571277127713,0,0
-71.680463231185,11.875200548208,27.375707570757,2561017.3632101,-526.28560411997,2680398.9881394,32.575707570757,0,0
-71.680462526881,11.877783530323,27.380138013801,2561017.3632101,-526.28560411997,2680398.9881394,32.580138013801,0,0
-71.680461822577,11.880366512437,27.384568456846,2561017.3632101,-526.28560411997,2680398.9881394,32.584568456846,0,0
-71.680461118273,11.882949494552,27.38899889989,2561017.3632101,-526.28560411997,2680398.9881394,32.58899889989,0,0
-71.680460413969,11.885532476667,27.393429342934,2561017.3632101,-526.28560411997,2680398.9881394,32.593429342934,0,0
-71.680459709665,11.888115458781,27.397859785979,2561017.3632101,-526.28560411997,2680398.9881394,32.597859785979,0,0
-71.680459005361,11.890698440896,27.402290229023,2561017.3632101,-526.28560411997,2680398.9881394,32.602290229023,0,0
-71.680458301057,11.89328142301,27.406720672067,2561017.3632101,-526.28560411997,2680398.9881394,32.606720672067,0,0
-71.680457596753,11.895864405125,27.411151115112,2561017.3632101,-526.28560411997,2680398.9881394,32.611151115112,0,0
-71.680456892449,11.898447387239,27.415581558156,2561017.3632101,-526.28560411997,2680398.9881394,32.615581558156,0,0
-71.680456188145,11.901030369354,27.4200120012,2561017.3632101,-526.28560411997,2680398.9881394,32.6200120012,0,0
-71.680455483841,11.903613351469,27.424442444244,2561017.3632101,-526.28560411997,2680398.9881394,32.624442444244,0,0
-71.680454779537,11.906196333583,27.428872887289,2561017.3632101,-526.28560411997,2680398.9881394,32.628872887289,0,0
-71.680454075233,11.908779315698,27.433303330333,2561017.3632101,-526.28560411997,2680398.9881394,32.633303330333,0,0
-71.680453370929,11.911362297812,27.437733773377,2561017.3632101,-526.28560411997,2680398.9881394,32.637733773377,0,0
-71.680452666625,11.913945279927,27.442164216422,2561017.3632101,-526.28560411997,2680398.9881394,32.642164216422,0,0
-71.680451962321,11.916528262042,27.446594659466,2561017.3632101,-526.28560411997,2680398.9881394,32.646594659466,0,0
-71.680451258017,11.919111244156,27.45102510251,2561017.3632101,-526.28560411997,2680398.9881394,32.65102510251,0,0
-71.680450553713,11.921694226271,27.455455545555,2561017.3632101,-526.28560411997,2680398.9881394,32.655455545555,0,0
-71.680449849409,11.924277208385,27.459885988599,2561017.3632101,-526.28560411997,2680398.9881394,32.659885988599,0,0
-71.680449145105,11.9268601905,27.464316431643,2561017.3632101,-526.28560411997,2680398.9881394,32.664316431643,0,0
-71.680448440801,11.929443172614,27.468746874687,2561017.3632101,-526.28560411997,2680398.9881394,32.668746874687,0,0
-71.680447736497,11.932026154729,27.473177317732,2561017.3632101,-526.28560411997,2680398.9881394,32.673177317732,0,0
-71.680447032193,11.934609136844,27.477607760776,2561017.3632101,-526.28560411997,2680398.9881394,32.677607760776,0,0
-71.68044632789,11.937192118958,27.48203820382,2561017.3632101,-526.28560411997,2680398.9881394,32.68203820382,0,0
-71.680445623586,11.939775101073,27.486468646865,2561017.3632101,-526.28560411997,2680398.9881394,32.686468646865,0,0
-71.680444919282,11.942358083187,27.490899089909,2561017.3632101,-526.28560411997,2680398.9881394,32.690899089909,0,0
-71.680444214978,11.944941065302,27.495329532953,2561017.3632101,-526.28560411997,2680398.9881394,32.695329532953,0,0
-71.680443510674,11.947524047417,27.499759975998,2561017.3632101,-526.28560411997,2680398.9881394,32.699759975998,0,0
-71.68044280637,11.950107029531,27.504190419042,2561017.3632101,-526.28560411997,2680398.9881394,32.704190419042,0,0
-71.680442102066,11.952690011646,27.508620862086,2561017.3632101,-526.28560411997,2680398.9881394,32.708620862086,0,0
-71.680441397762,11.95527299376,27.513051305131,2561017.3632101,-526.28560411997,2680398.9881394,32.713051305131,0,0
-71.680440693458,11.957855975875,27.517481748175,2561017.3632101,-526.28560411997,2680398.9881394,32.717481748175,0,0
-71.680439989154,11.96043895799,27.521912191219,2561017.3632101,-526.28560411997,2680398.9881394,32.721912191219,0,0
-71.68043928485,11.963021940104,27.526342634263,2561017.3632101,-526.28560411997,2680398.9881394,32.726342634263,0,0
-71.680438580546,11.965604922219,27.530773077308,2561017.3632101,-526.28560411997,2680398.9881394,32.730773077308,0,0
-71.680437876242,11.968187904333,27.535203520352,2561017.3632101,-526.28560411997,2680398.9881394,32.735203520352,0,0
-71.680437171938,11.970770886448,27.539633963396,2561017.3632101,-526.28560411997,2680398.9881394,32.739633963396,0,0
-71.680436467634,11.973353868562,27.544064406441,2561017.3632101,-526.28560411997,2680398.9881394,32.744064406441,0,0
-71.680435762553,11.975936851068,27.548494849485,2569713.6430403,89.964597962913,2681167.2865525,32.748494849485,0,0
-71.680435056695,11.978519833964,27.552925292529,2569713.6430403,89.964597962913,2681167.2865525,32.752925292529,0,0
-71.680434350837,11.98110281686,27.557355735574,2569713.6430403,89.964597962913,2681167.2865525,32.757355735574,0,0
-71.680433644979,11.983685799756,27.561786178618,2569713.6430403,89.964597962913,2681167.2865525,32.761786178618,0,0
-71.680432939121,11.986268782652,27.566216621662,2569713.6430403,89.964597962913,2681167.2865525,32.766216621662,0,0
-71.680432233263,11.988851765549,27.570647064706,2569713.6430403,89.964597962913,2681167.2865525,32.770647064706,0,0
-71.680431527405,11.991434748445,27.575077507751,2569713.6430403,89.964597962913,2681167.2865525,32.775077507751,0,0
-71.680430821547,11.994017731341,27.579507950795,2569713.6430403,89.964597962913,2681167.2865525,32.779507950795,0,0
-71.680430115688,11.996600714237,27.583938393839,2569713.6430403,89.964597962913,2681167.2865525,32.783938393839,0,0
-71.68042940983,11.999183697133,27.588368836884,2569713.6430403,89.964597962913,2681167.2865525,32.788368836884,0,0
-71.680428703972,12.001766680029,27.592799279928,2569713.6430403,89.964597962913,2681167.2865525,32.792799279928,0,0
-71.680427998114,12.004349662926,27.597229722972,2569713.6430403,89.964597962913,2681167.2865525,32.797229722972,0,0
-71.680427292256,12.006932645822,27.601660166017,2569713.6430403,89.964597962913,2681167.2865525,32.801660166017,0,0
-71.680426586398,12.009515628718,27.606090609061,2569713.6430403,89.964597962913,2681167.2865525,32.806090609061,0,0
-71.68042588054,12.012098611614,27.610521052105,2569713.6430403,89.964597962913,2681167.2865525,32.810521052105,0,0
-71.680425174682,12.01468159451,27.61495149515,2569713.6430403,89.964597962913,2681167.2865525,32.81495149515,0,0
-71.680424468824,12.017264577406,27.619381938194,2569713.6430403,89.964597962913,2681167.2865525,32.819381938194,0,0
-71.680423762966,12.019847560303,27.623812381238,2569713.6430403,89.964597962913,2681167.2865525,32.823812381238,0,0
-71.680423057108,12.022430543199,27.628242824282,2569713.6430403,89.964597962913,2681167.2865525,32.828242824282,0,0
-71.68042235125,12.025013526095,27.632673267327,2569713.6430403,89.964597962913,2681167.2865525,32.832673267327,0,0
-71.680421645392,12.027596508991,27.637103710371,2569713.6430403,89.964597962913,2681167.2865525,32.837103710371,0,0
-71.680420939534,12.030179491887,27.641534153415,2569713.6430403,89.964597962913,2681167.2865525,32.841534153415,0,0
-71.680420233675,12.032762474783,27.64596459646,2569713.6430403,89.964597962913,2681167.2865525,32.84596459646,0,0
-71.680419527817,12.03534545768,27.650395039504,2569713.6430403,89.964597962913,2681167.2865525,32.850395039504,0,0
-71.680418821959,12.037928440576,27.654825482548,2569713.6430403,89.964597962913,2681167.2865525,32.854825482548,0,0
-71.680418116101,12.040511423472,27.659255925593,2569713.6430403,89.964597962913,2681167.2865525,32.859255925593,0,0
-71.680417410243,12.043094406368,27.663686368637,2569713.6430403,89.964597962913,2681167.2865525,32.863686368637,0,0
-71.680416704385,12.045677389264,27.668116811681,2569713.6430403,89.964597962913,2681167.2865525,32.868116811681,0,0
-71.680415998527,12.04826037216,27.672547254725,2569713.6430403,89.964597962913,2681167.2865525,32.872547254725,0,0
-71.680415292669,12.050843355057,27.67697769777,2569713.6430403,89.964597962913,2681167.2865525,32.87697769777,0,0
-71.680414586811,12.053426337953,27.681408140814,2569713.6430403,89.964597962913,2681167.2865525,32.881408140814,0,0
-71.680413880953,12.056009320849,27.685838583858,2569713.6430403,89.964597962913,2681167.2865525,32.885838583858,0,0
-71.680413175095,12.058592303745,27.690269026903,2569713.6430403,89.964597962913,2681167.2865525,32.890269026903,0,0
-71.680412469237,12.061175286641,27.694699469947,2569713.6430403,89.964597962913,2681167.2865525,32.894699469947,0,0
-71.680411763379,12.063758269537,27.699129912991,2569713.6430403,89.964597962913,2681167.2865525,32.899129912991,0,0
-71.68041105752,12.066341252434,27.703560356036,2569713.6430403,89.964597962913,2681167.2865525,32.903560356036,0,0
-71.680410351662,12.06892423533,27.70799079908,2569713.6430403,89.964597962913,2681167.2865525,32.90799079908,0,0
-71.680409645804,12.071507218226,27.712421242124,2569713.6430403,89.964597962913,2681167.2865525,32.912421242124,0,0
-71.680408939946,12.074090201122,27.716851685169,2569713.6430403,89.964597962913,2681167.2865525,32.916851685169,0,0
-71.680408234088,12.076673184018,27.721282128213,2569713.6430403,89.964597962913,2681167.2865525,32.921282128213,0,0
-71.68040752823,12.079256166914,27.725712571257,2569713.6430403,89.964597962913,2681167.2865525,32.925712571257,0,0
-71.680406822372,12.081839149811,27.730143014301,2569713.6430403,89.964597962913,2681167.2865525,32.930143014301,0,0
-71.680406116514,12.084422132707,27.734573457346,2569713.6430403,89.964597962913,2681167.2865525,32.934573457346,0,0
-71.680405410656,12.087005115603,27.73900390039,2569713.6430403,89.964597962913,2681167.2865525,32.93900390039,0,0
-71.680404704798,12.089588098499,27.743434343434,2569713.6430403,89.964597962913,2681167.2865525,32.943434343434,0,0
-71.68040399894,12.092171081395,27.747864786479,2569713.6430403,89.964597962913,2681167.2865525,32.947864786479,0,0
-71.680403293082,12.094754064291,27.752295229523,2569713.6430403,89.964597962913,2681167.2865525,32.952295229523,0,0
-71.680402587224,12.097337047188,27.756725672567,2569713.6430403,89.964597962913,2681167.2865525,32.956725672567,0,0
-71.680401881366,12.099920030084,27.761156115612,2569713.6430403,89.964597962913,2681167.2865525,32.961156115612,0,0
-71.680401175507,12.10250301298,27.765586558656,2569713.6430403,89.964597962913,2681167.2865525,32.965586558656,0,0
-71.680400469649,12.105085995876,27.7700170017,2569713.6430403,89.964597962913,2681167.2865525,32.9700170017,0,0
-71.680399763791,12.107668978772,27.774447444744,2569713.6430403,89.964597962913,2681167.2865525,32.974447444744,0,0
-71.680399057933,12.110251961668,27.778877887789,2569713.6430403,89.964597962913,2681167.2865525,32.978877887789,0,0
-71.680398352075,12.112834944565,27.783308330833,2569713.6430403,89.964597962913,2681167.2865525,32.983308330833,0,0
-71.680397646217,12.115417927461,27.787738773877,2569713.6430403,89.964597962913,2681167.2865525,32.987738773877,0,0
-71.680396940359,12.118000910357,27.792169216922,2569713.6430403,89.964597962913,2681167.2865525,32.992169216922,0,0
-71.680396234501,12.120583893253,27.796599659966,2569713.6430403,89.964597962913,2681167.2865525,32.996599659966,0,0
-71.680395528643,12.123166876149,27.80103010301,2569713.6430403,89.964597962913,2681167.2865525,33.00103010301,0,0
-71.680394822785,12.125749859046,27.805460546055,2569713.6430403,89.964597962913,2681167.2865525,33.005460546055,0,0
-71.680394116927,12.128332841942,27.809890989099,2569713.6430403,89.964597962913,2681167.2865525,33.009890989099,0,0
-71.680393411069,12.130915824838,27.814321432143,2569713.6430403,89.964597962913,2681167.2865525,33.014321432143,0,0
-71.680392705211,12.133498807734,27.818751875188,2569713.6430403,89.964597962913,2681167.2865525,33.018751875188,0,0
-71.680391999353,12.13608179063,27.823182318232,2569713.6430403,89.964597962913,2681167.2865525,33.023182318232,0,0
-71.680391293494,12.138664773526,27.827612761276,2569713.6430403,89.964597962913,2681167.2865525,33.027612761276,0,0
-71.680390587636,12.141247756423,27.83204320432,2569713.6430403,89.964597962913,2681167.2865525,33.03204320432,0,0
-71.680389881778,12.143830739319,27.836473647365,2569713.6430403,89.964597962913,2681167.2865525,33.036473647365,0,0
-71.68038917592,12.146413722215,27.840904090409,2569713.6430403,89.964597962913,2681167.2865525,33.040904090409,0,0
-71.680388470062,12.148996705111,27.845334533453,2569713.6430403,89.964597962913,2681167.2865525,33.045334533453,0,0
-71.680387764204,12.151579688007,27.849764976498,2569713.6430403,89.964597962913,2681167.2865525,33.049764976498,0,0
-71.680387058346,12.154162670903,27.854195419542,2569713.6430403,89.964597962913,2681167.2865525,33.054195419542,0,0
-71.680386352488,12.1567456538,27.858625862586,2569713.6430403,89.964597962913,2681167.2865525,33.058625862586,0,0
-71.68038564663,12.159328636696,27.863056305631,2569713.6430403,89.964597962913,2681167.2865525,33.063056305631,0,0
-71.680384940772,12.161911619592,27.867486748675,2569713.6430403,89.964597962913,2681167.2865525,33.067486748675,0,0
-71.680384234914,12.164494602488,27.871917191719,2569713.6430403,89.964597962913,2681167.2865525,33.071917191719,0,0
-71.680383529056,12.167077585384,27.876347634763,2569713.6430403,89.964597962913,2681167.2865525,33.076347634763,0,0
-71.680382823198,12.16966056828,27.880778077808,2569713.6430403,89.964597962913,2681167.2865525,33.080778077808,0,0
-71.680382117339,12.172243551177,27.885208520852,2569713.6430403,89.964597962913,2681167.2865525,33.085208520852,0,0
-71.680381411481,12.174826534073,27.889638963896,2569713.6430403,89.964597962913,2681167.2865525,33.089638963896,0,0
-71.680380705623,12.177409516969,27.894069406941,2569713.6430403,89.964597962913,2681167.2865525,33.094069406941,0,0
-71.680379999765,12.179992499865,27.898499849985,2569713.6430403,89.964597962913,2681167.2865525,33.098499849985,0,0
-71.680379293907,12.182575482761,27.902930293029,2569713.6430403,89.964597962913,2681167.2865525,33.102930293029,0,0
-71.680378588049,12.185158465657,27.907360736074,2569713.6430403,89.964597962913,2681167.2865525,33.107360736074,0,0
-71.680377882191,12.187741448554,27.911791179118,2569713.6430403,89.964597962913,2681167.2865525,33.111791179118,0,0
-71.680377176333,12.19032443145,27.916221622162,2569713.6430403,89.964597962913,2681167.2865525,33.116221622162,0,0
-71.680376470475,12.192907414346,27.920652065207,2569713.6430403,89.964597962913,2681167.2865525,33.120652065207,0,0
-71.680375764617,12.195490397242,27.925082508251,2569713.6430403,89.964597962913,2681167.2865525,33.125082508251,0,0
-71.680375058759,12.198073380138,27.929512951295,2569713.6430403,89.964597962913,2681167.2865525,33.129512951295,0,0
-71.680374352901,12.200656363034,27.933943394339,2569713.6430403,89.964597962913,2681167.2865525,33.133943394339,0,0
-71.680373647043,12.203239345931,27.938373837384,2569713.6430403,89.964597962913,2681167.2865525,33.138373837384,0,0
-71.680372941185,12.205822328827,27.942804280428,2569713.6430403,89.964597962913,2681167.2865525,33.142804280428,0,0
-71.680372235326,12.208405311723,27.947234723472,2569713.6430403,89.964597962913,2681167.2865525,33.147234723472,0,0
-71.680371529468,12.210988294619,27.951665166517,2569713.6430403,89.964597962913,2681167.2865525,33.151665166517,0,0
-71.68037082361,12.213571277515,27.956095609561,2569713.6430403,89.964597962913,2681167.2865525,33.156095609561,0,0
-71.680370117752,12.216154260411,27.960526052605,2569713.6430403,89.964597962913,2681167.2865525,33.160526052605,0,0
-71.680369411894,12.218737243308,27.96495649565,2569713.6430403,89.964597962913,2681167.2865525,33.16495649565,0,0
-71.680368706036,12.221320226204,27.969386938694,2569713.6430403,89.964597962913,2681167.2865525,33.169386938694,0,0
-71.680368000178,12.2239032091,27.973817381738,2569713.6430403,89.964597962913,2681167.2865525,33.173817381738,0,0
-71.68036729432,12.226486191996,27.978247824782,2569713.6430403,89.964597962913,2681167.2865525,33.178247824782,0,0
-71.680366588462,12.229069174892,27.982678267827,2569713.6430403,89.964597962913,2681167.2865525,33.182678267827,0,0
-71.680365882604,12.231652157788,27.987108710871,2569713.6430403,89.964597962913,2681167.2865525,33.187108710871,0,0
-71.680365176746,12.234235140685,27.991539153915,2569713.6430403,89.964597962913,2681167.2865525,33.191539153915,0,0
-71.680364470888,12.236818123581,27.99596959696,2569713.6430403,89.964597962913,2681167.2865525,33.19596959696,0,0
-71.68036376503,12.239401106477,28.000400040004,2569713.6430403,89.964597962913,2681167.2865525,33.200400040004,0,0
-71.680363059171,12.241984089373,28.004830483048,2569713.6430403,89.964597962913,2681167.2865525,33.204830483048,0,0
-71.680362353313,12.244567072269,28.009260926093,2569713.6430403,89.964597962913,2681167.2865525,33.209260926093,0,0
-71.680361647455,12.247150055165,28.013691369137,2569713.6430403,89.964597962913,2681167.2865525,33.213691369137,0,0
-71.680360941597,12.249733038062,28.018121812181,2569713.6430403,89.964597962913,2681167.2865525,33.218121812181,0,0
-71.680360235739,12.252316020958,28.022552255226,2569713.6430403,89.964597962913,2681167.2865525,33.222552255226,0,0
-71.680359529881,12.254899003854,28.02698269827,2569713.6430403,89.964597962913,2681167.2865525,33.22698269827,0,0
-71.680358824023,12.25748198675,28.031413141314,2569713.6430403,89.964597962913,2681167.2865525,33.231413141314,0,0
-71.680358118165,12.260064969646,28.035843584358,2569713.6430403,89.964597962913,2681167.2865525,33.235843584358,0,0
-71.680357412307,12.262647952542,28.040274027403,2569713.6430403,89.964597962913,2681167.2865525,33.240274027403,0,0
-71.680356706449,12.265230935439,28.044704470447,2569713.6430403,89.964597962913,2681167.2865525,33.244704470447,0,0
-71.680356000591,12.267813918335,28.049134913491,2569713.6430403,89.964597962913,2681167.2865525,33.249134913491,0,0
-71.680355294733,12.270396901231,28.053565356536,2569713.6430403,89.964597962913,2681167.2865525,33.253565356536,0,0
-71.680354588875,12.272979884127,28.05799579958,2569713.6430403,89.964597962913,2681167.2865525,33.25799579958,0,0
-71.680353883017,12.275562867023,28.062426242624,2569713.6430403,89.964597962913,2681167.2865525,33.262426242624,0,0
-71.680353177158,12.278145849919,28.066856685669,2569713.6430403,89.964597962913,2681167.2865525,33.266856685669,0,0
-71.6803524713,12.280728832816,28.071287128713,2569713.6430403,89.964597962913,2681167.2865525,33.271287128713,0,0
-71.680351765442,12.283311815712,28.075717571757,2569713.6430403,89.964597962913,2681167.2865525,33.275717571757,0,0
-71.680351059584,12.285894798608,28.080148014801,2569713.6430403,89.964597962913,2681167.2865525,33.280148014801,0,0
-71.680350353726,12.288477781504,28.084578457846,2569713.6430403,89.964597962913,2681167.2865525,33.284578457846,0,0
-71.680349647868,12.2910607644,28.08900890089,2569713.6430403,89.964597962913,2681167.2865525,33.28900890089,0,0
-71.68034894201,12.293643747296,28.093439343934,2569713.6430403,89.964597962913,2681167.2865525,33.293439343934,0,0
-71.680348236152,12.296226730193,28.097869786979,2569713.6430403,89.964597962913,2681167.2865525,33.297869786979,0,0
-71.680347530294,12.298809713089,28.102300230023,2569713.6430403,89.964597962913,2681167.2865525,33.302300230023,0,0
-71.680346824436,12.301392695985,28.106730673067,2569713.6430403,89.964597962913,2681167.2865525,33.306730673067,0,0
-71.680346118578,12.303975678881,28.111161116112,2569713.6430403,89.964597962913,2681167.2865525,33.311161116112,0,0
-71.68034541272,12.306558661777,28.115591559156,2569713.6430403,89.964597962913,2681167.2865525,33.315591559156,0,0
-71.680344706862,12.309141644673,28.1200220022,2569713.6430403,89.964597962913,2681167.2865525,33.3200220022,0,0
-71.680344001004,12.31172462757,28.124452445245,2569713.6430403,89.964597962913,2681167.2865525,33.324452445245,0,0
-71.680343295145,12.314307610466,28.128882888289,2569713.6430403,89.964597962913,2681167.2865525,33.328882888289,0,0
-71.680342589287,12.316890593362,28.133313331333,2569713.6430403,89.964597962913,2681167.2865525,33.333313331333,0,0
-71.680341883429,12.319473576258,28.137743774377,2569713.6430403,89.964597962913,2681167.2865525,33.337743774377,0,0
-71.680341177571,12.322056559154,28.142174217422,2569713.6430403,89.964597962913,2681167.2865525,33.342174217422,0,0
-71.680340471713,12.324639542051,28.146604660466,2569713.6430403,89.964597962913,2681167.2865525,33.346604660466,0,0
-71.680339765855,12.327222524947,28.15103510351,2569713.6430403,89.964597962913,2681167.2865525,33.35103510351,0,0
-71.680339059997,12.329805507843,28.155465546555,2569713.6430403,89.964597962913,2681167.2865525,33.355465546555,0,0
-71.680338354139,12.332388490739,28.159895989599,2569713.6430403,89.964597962913,2681167.2865525,33.359895989599,0,0
-71.680337648281,12.334971473635,28.164326432643,2569713.6430403,89.964597962913,2681167.2865525,33.364326432643,0,0
-71.680336942423,12.337554456531,28.168756875688,2569713.6430403,89.964597962913,2681167.2865525,33.368756875688,0,0
-71.680336236565,12.340137439428,28.173187318732,2569713.6430403,89.964597962913,2681167.2865525,33.373187318732,0,0
-71.680335530707,12.342720422324,28.177617761776,2569713.6430403,89.964597962913,2681167.2865525,33.377617761776,0,0
-71.680334824849,12.34530340522,28.18204820482,2569713.6430403,89.964597962913,2681167.2865525,33.38204820482,0,0
-71.68033411899,12.347886388116,28.186478647865,2569713.6430403,89.964597962913,2681167.2865525,33.386478647865,0,0
-71.680333413132,12.350469371012,28.190909090909,2569713.6430403,89.964597962913,2681167.2865525,33.390909090909,0,0
-71.680332707274,12.353052353908,28.195339533953,2569713.6430403,89.964597962913,2681167.2865525,33.395339533953,0,0
-71.680332001416,12.355635336805,28.199769976998,2569713.6430403,89.964597962913,2681167.2865525,33.399769976998,0,0
-71.680331295558,12.358218319701,28.204200420042,2569713.6430403,89.964597962913,2681167.2865525,33.404200420042,0,0
-71.6803305897,12.360801302597,28.208630863086,2569713.6430403,89.964597962913,2681167.2865525,33.408630863086,0,0
-71.680329883842,12.363384285493,28.213061306131,2569713.6430403,89.964597962913,2681167.2865525,33.413061306131,0,0
-71.680329177984,12.365967268389,28.217491749175,2569713.6430403,89.964597962913,2681167.2865525,33.417491749175,0,0
-71.680328472126,12.368550251285,28.221922192219,2569713.6430403,89.964597962913,2681167.2865525,33.421922192219,0,0
-71.680327766268,12.371133234182,28.226352635264,2569713.6430403,89.964597962913,2681167.2865525,33.426352635264,0,0
-71.68032706041,12.373716217078,28.230783078308,2569713.6430403,89.964597962913,2681167.2865525,33.430783078308,0,0
-71.680326354552,12.376299199974,28.235213521352,2569713.6430403,89.964597962913,2681167.2865525,33.435213521352,0,0
-71.680325648694,12.37888218287,28.239643964396,2569713.6430403,89.964597962913,2681167.2865525,33.439643964396,0,0
-71.680324942836,12.381465165766,28.244074407441,2569713.6430403,89.964597962913,2681167.2865525,33.444074407441,0,0
-71.680324236977,12.384048148662,28.248504850485,2569713.6430403,89.964597962913,2681167.2865525,33.448504850485,0,0
-71.680323531119,12.386631131559,28.252935293529,2569713.6430403,89.964597962913,2681167.2865525,33.452935293529,0,0
-71.680322825261,12.389214114455,28.257365736574,2569713.6430403,89.964597962913,2681167.2865525,33.457365736574,0,0
-71.680322119403,12.391797097351,28.261796179618,2569713.6430403,89.964597962913,2681167.2865525,33.461796179618,0,0
-71.680321413545,12.394380080247,28.266226622662,2569713.6430403,89.964597962913,2681167.2865525,33.466226622662,0,0
-71.680320707687,12.396963063143,28.270657065707,2569713.6430403,89.964597962913,2681167.2865525,33.470657065707,0,0
-71.680320001829,12.399546046039,28.275087508751,2569713.6430403,89.964597962913,2681167.2865525,33.475087508751,0,0
-71.680319295971,12.402129028936,28.279517951795,2569713.6430403,89.964597962913,2681167.2865525,33.479517951795,0,0
-71.680318590113,12.404712011832,28.283948394839,2569713.6430403,89.964597962913,2681167.2865525,33.483948394839,0,0
-71.680317884255,12.407294994728,28.288378837884,2569713.6430403,89.964597962913,2681167.2865525,33.488378837884,0,0
-71.680317178397,12.409877977624,28.292809280928,2569713.6430403,89.964597962913,2681167.2865525,33.492809280928,0,0
-71.680316472539,12.41246096052,28.297239723972,2569713.6430403,89.964597962913,2681167.2865525,33.497239723972,0,0
-71.680315766681,12.415043943416,28.301670167017,2569713.6430403,89.964597962913,2681167.2865525,33.501670167017,0,0
-71.680315060823,12.417626926313,28.306100610061,2569713.6430403,89.964597962913,2681167.2865525,33.506100610061,0,0
-71.680314354964,12.420209909209,28.310531053105,2569713.6430403,89.964597962913,2681167.2865525,33.510531053105,0,0
-71.680313649106,12.422792892105,28.31496149615,2569713.6430403,89.964597962913,2681167.2865525,33.51496149615,0,0
-71.680312943248,12.425375875001,28.319391939194,2569713.6430403,89.964597962913,2681167.2865525,33.519391939194,0,0
-71.68031223739,12.427958857897,28.323822382238,2569713.6430403,89.964597962913,2681167.2865525,33.523822382238,0,0
-71.680311531532,12.430541840793,28.328252825283,2569713.6430403,89.964597962913,2681167.2865525,33.528252825283,0,0
-71.680310825674,12.43312482369,28.332683268327,2569713.6430403,89.964597962913,2681167.2865525,33.532683268327,0,0
-71.680310119816,12.435707806586,28.337113711371,2569713.6430403,89.964597962913,2681167.2865525,33.537113711371,0,0
-71.680309413958,12.438290789482,28.341544154415,2569713.6430403,89.964597962913,2681167.2865525,33.541544154415,0,0
-71.6803087081,12.440873772378,28.34597459746,2569713.6430403,89.964597962913,2681167.2865525,33.54597459746,0,0
-71.680308002242,12.443456755274,28.350405040504,2569713.6430403,89.964597962913,2681167.2865525,33.550405040504,0,0
-71.680307296384,12.44603973817,28.354835483548,2569713.6430403,89.964597962913,2681167.2865525,33.554835483548,0,0
-71.680306590526,12.448622721067,28.359265926593,2569713.6430403,89.964597962913,2681167.2865525,33.559265926593,0,0
-71.680305884668,12.451205703963,28.363696369637,2569713.6430403,89.964597962913,2681167.2865525,33.563696369637,0,0
-71.680305178809,12.453788686859,28.368126812681,2569713.6430403,89.964597962913,2681167.2865525,33.568126812681,0,0
-71.680304472951,12.456371669755,28.372557255726,2569713.6430403,89.964597962913,2681167.2865525,33.572557255726,0,0
-71.680303767093,12.458954652651,28.37698769877,2569713.6430403,89.964597962913,2681167.2865525,33.57698769877,0,0
-71.680303061235,12.461537635547,28.381418141814,2569713.6430403,89.964597962913,2681167.2865525,33.581418141814,0,0
-71.680302355377,12.464120618444,28.385848584858,2569713.6430403,89.964597962913,2681167.2865525,33.585848584858,0,0
-71.680301649519,12.46670360134,28.390279027903,2569713.6430403,89.964597962913,2681167.2865525,33.590279027903,0,0
-71.680300943661,12.469286584236,28.394709470947,2569713.6430403,89.964597962913,2681167.2865525,33.594709470947,0,0
-71.680300237803,12.471869567132,28.399139913991,2569713.6430403,89.964597962913,2681167.2865525,33.599139913991,0,0
-71.680299531945,12.474452550028,28.403570357036,2569713.6430403,89.964597962913,2681167.2865525,33.603570357036,0,0
-71.680298826087,12.477035532924,28.40800080008,2569713.6430403,89.964597962913,2681167.2865525,33.60800080008,0,0
-71.680298120229,12.479618515821,28.412431243124,2569713.6430403,89.964597962913,2681167.2865525,33.612431243124,0,0
-71.680297414371,12.482201498717,28.416861686169,2569713.6430403,89.964597962913,2681167.2865525,33.616861686169,0,0
-71.680296708513,12.484784481613,28.421292129213,2569713.6430403,89.964597962913,2681167.2865525,33.621292129213,0,0
-71.680296002655,12.487367464509,28.425722572257,2569713.6430403,89.964597962913,2681167.2865525,33.625722572257,0,0
-71.680295296796,12.489950447405,28.430153015302,2569713.6430403,89.964597962913,2681167.2865525,33.630153015302,0,0
-71.680294590938,12.492533430301,28.434583458346,2569713.6430403,89.964597962913,2681167.2865525,33.634583458346,0,0
-71.68029388508,12.495116413198,28.43901390139,2569713.6430403,89.964597962913,2681167.2865525,33.63901390139,0,0
-71.680293179222,12.497699396094,28.443444344434,2569713.6430403,89.964597962913,2681167.2865525,33.643444344434,0,0
-71.680292473364,12.50028237899,28.447874787479,2569713.6430403,89.964597962913,2681167.2865525,33.647874787479,0,0
-71.680291767506,12.502865361886,28.452305230523,2569713.6430403,89.964597962913,2681167.2865525,33.652305230523,0,0
-71.680291061648,12.505448344782,28.456735673567,2569713.6430403,89.964597962913,2681167.2865525,33.656735673567,0,0
-71.68029035579,12.508031327678,28.461166116612,2569713.6430403,89.964597962913,2681167.2865525,33.661166116612,0,0
-71.680289649932,12.510614310575,28.465596559656,2569713.6430403,89.964597962913,2681167.2865525,33.665596559656,0,0
-71.680288944074,12.513197293471,28.4700270027,2569713.6430403,89.964597962913,2681167.2865525,33.6700270027,0,0
-71.680288238216,12.515780276367,28.474457445745,2569713.6430403,89.964597962913,2681167.2865525,33.674457445745,0,0
-71.680287532358,12.518363259263,28.478887888789,2569713.6430403,89.964597962913,2681167.2865525,33.678887888789,0,0
-71.6802868265,12.520946242159,28.483318331833,2569713.6430403,89.964597962913,2681167.2865525,33.683318331833,0,0
-71.680286120641,12.523529225056,28.487748774877,2569713.6430403,89.964597962913,2681167.2865525,33.687748774877,0,0
-71.680285414783,12.526112207952,28.492179217922,2569713.6430403,89.964597962913,2681167.2865525,33.692179217922,0,0
-71.680284708925,12.528695190848,28.496609660966,2569713.6430403,89.964597962913,2681167.2865525,33.696609660966,0,0
-71.680284003067,12.531278173744,28.50104010401,2569713.6430403,89.964597962913,2681167.2865525,33.70104010401,0,0
-71.680283297209,12.53386115664,28.505470547055,2569713.6430403,89.964597962913,2681167.2865525,33.705470547055,0,0
-71.680282591351,12.536444139536,28.509900990099,2569713.6430403,89.964597962913,2681167.2865525,33.709900990099,0,0
-71.680281885493,12.539027122433,28.514331433143,2569713.6430403,89.964597962913,2681167.2865525,33.714331433143,0,0
-71.680281179635,12.541610105329,28.518761876188,2569713.6430403,89.964597962913,2681167.2865525,33.718761876188,0,0
-71.680280473777,12.544193088225,28.523192319232,2569713.6430403,89.964597962913,2681167.2865525,33.723192319232,0,0
-71.680279767919,12.546776071121,28.527622762276,2569713.6430403,89.964597962913,2681167.2865525,33.727622762276,0,0
-71.680279062061,12.549359054017,28.532053205321,2569713.6430403,89.964597962913,2681167.2865525,33.732053205321,0,0
-71.680278356203,12.551942036913,28.536483648365,2569713.6430403,89.964597962913,2681167.2865525,33.736483648365,0,0
-71.680277650345,12.55452501981,28.540914091409,2569713.6430403,89.964597962913,2681167.2865525,33.740914091409,0,0
-71.680276944487,12.557108002706,28.545344534453,2569713.6430403,89.964597962913,2681167.2865525,33.745344534453,0,0
-71.680276238628,12.559690985602,28.549774977498,2569713.6430403,89.964597962913,2681167.2865525,33.749774977498,0,0
-71.68027553277,12.562273968498,28.554205420542,2569713.6430403,89.964597962913,2681167.2865525,33.754205420542,0,0
-71.680274826912,12.564856951394,28.558635863586,2569713.6430403,89.964597962913,2681167.2865525,33.758635863586,0,0
-71.680274121054,12.56743993429,28.563066306631,2569713.6430403,89.964597962913,2681167.2865525,33.763066306631,0,0
-71.680273415196,12.570022917187,28.567496749675,2569713.6430403,89.964597962913,2681167.2865525,33.767496749675,0,0
-71.680272709338,12.572605900083,28.571927192719,2569713.6430403,89.964597962913,2681167.2865525,33.771927192719,0,0
-71.68027200348,12.575188882979,28.576357635764,2569713.6430403,89.964597962913,2681167.2865525,33.776357635764,0,0
-71.680271297622,12.577771865875,28.580788078808,2569713.6430403,89.964597962913,2681167.2865525,33.780788078808,0,0
-71.680270591764,12.580354848771,28.585218521852,2569713.6430403,89.964597962913,2681167.2865525,33.785218521852,0,0
-71.680269885906,12.582937831667,28.589648964896,2569713.6430403,89.964597962913,2681167.2865525,33.789648964896,0,0
-71.680269180048,12.585520814564,28.594079407941,2569713.6430403,89.964597962913,2681167.2865525,33.794079407941,0,0
-71.68026847419,12.58810379746,28.598509850985,2569713.6430403,89.964597962913,2681167.2865525,33.798509850985,0,0
-71.680267768332,12.590686780356,28.602940294029,2569713.6430403,89.964597962913,2681167.2865525,33.802940294029,0,0
-71.680267062474,12.593269763252,28.607370737074,2569713.6430403,89.964597962913,2681167.2865525,33.807370737074,0,0
-71.680266356615,12.595852746148,28.611801180118,2569713.6430403,89.964597962913,2681167.2865525,33.811801180118,0,0
-71.680265650757,12.598435729044,28.616231623162,2569713.6430403,89.964597962913,2681167.2865525,33.816231623162,0,0
-71.680264944899,12.601018711941,28.620662066207,2569713.6430403,89.964597962913,2681167.2865525,33.820662066207,0,0
-71.680264239041,12.603601694837,28.625092509251,2569713.6430403,89.964597962913,2681167.2865525,33.825092509251,0,0
-71.680263533183,12.606184677733,28.629522952295,2569713.6430403,89.964597962913,2681167.2865525,33.829522952295,0,0
-71.680262827325,12.608767660629,28.63395339534,2569713.6430403,89.964597962913,2681167.2865525,33.83395339534,0,0
-71.680262121467,12.611350643525,28.638383838384,2569713.6430403,89.964597962913,2681167.2865525,33.838383838384,0,0
-71.680261415609,12.613933626421,28.642814281428,2569713.6430403,89.964597962913,2681167.2865525,33.842814281428,0,0
-71.680260709751,12.616516609318,28.647244724472,2569713.6430403,89.964597962913,2681167.2865525,33.847244724472,0,0
-71.680260003893,12.619099592214,28.651675167517,2569713.6430403,89.964597962913,2681167.2865525,33.851675167517,0,0
-71.680259298035,12.62168257511,28.656105610561,2569713.6430403,89.964597962913,2681167.2865525,33.856105610561,0,0
-71.680258592177,12.624265558006,28.660536053605,2569713.6430403,89.964597962913,2681167.2865525,33.860536053605,0,0
-71.680257886319,12.626848540902,28.66496649665,2569713.6430403,89.964597962913,2681167.2865525,33.86496649665,0,0
-71.68025718046,12.629431523798,28.669396939694,2569713.6430403,89.964597962913,2681167.2865525,33.869396939694,0,0
-71.680256474602,12.632014506695,28.673827382738,2569713.6430403,89.964597962913,2681167.2865525,33.873827382738,0,0
-71.680255768744,12.634597489591,28.678257825783,2569713.6430403,89.964597962913,2681167.2865525,33.878257825783,0,0
-71.680255062886,12.637180472487,28.682688268827,2569713.6430403,89.964597962913,2681167.2865525,33.882688268827,0,0
-71.680254357028,12.639763455383,28.687118711871,2569713.6430403,89.964597962913,2681167.2865525,33.887118711871,0,0
-71.68025365117,12.642346438279,28.691549154915,2569713.6430403,89.964597962913,2681167.2865525,33.891549154915,0,0
-71.680252945312,12.644929421175,28.69597959796,2569713.6430403,89.964597962913,2681167.2865525,33.89597959796,0,0
-71.680252239454,12.647512404072,28.700410041004,2569713.6430403,89.964597962913,2681167.2865525,33.900410041004,0,0
-71.680251533596,12.650095386968,28.704840484048,2569713.6430403,89.964597962913,2681167.2865525,33.904840484048,0,0
-71.680250827738,12.652678369864,28.709270927093,2569713.6430403,89.964597962913,2681167.2865525,33.909270927093,0,0
-71.68025012188,12.65526135276,28.713701370137,2569713.6430403,89.964597962913,2681167.2865525,33.913701370137,0,0
-71.680249416022,12.657844335656,28.718131813181,2569713.6430403,89.964597962913,2681167.2865525,33.918131813181,0,0
-71.680248710164,12.660427318552,28.722562256226,2569713.6430403,89.964597962913,2681167.2865525,33.922562256226,0,0
-71.680248004306,12.663010301449,28.72699269927,2569713.6430403,89.964597962913,2681167.2865525,33.92699269927,0,0
-71.680247298447,12.665593284345,28.731423142314,2569713.6430403,89.964597962913,2681167.2865525,33.931423142314,0,0
-71.680246592589,12.668176267241,28.735853585359,2569713.6430403,89.964597962913,2681167.2865525,33.935853585359,0,0
-71.680245886731,12.670759250137,28.740284028403,2569713.6430403,89.964597962913,2681167.2865525,33.940284028403,0,0
-71.680245180873,12.673342233033,28.744714471447,2569713.6430403,89.964597962913,2681167.2865525,33.944714471447,0,0
-71.680244475015,12.675925215929,28.749144914491,2569713.6430403,89.964597962913,2681167.2865525,33.949144914491,0,0
-71.680243769157,12.678508198826,28.753575357536,2569713.6430403,89.964597962913,2681167.2865525,33.953575357536,0,0
-71.680243063299,12.681091181722,28.75800580058,2569713.6430403,89.964597962913,2681167.2865525,33.95800580058,0,0
-71.680242357441,12.683674164618,28.762436243624,2569713.6430403,89.964597962913,2681167.2865525,33.962436243624,0,0
-71.680241651583,12.686257147514,28.766866686669,2569713.6430403,89.964597962913,2681167.2865525,33.966866686669,0,0
-71.680240945725,12.68884013041,28.771297129713,2569713.6430403,89.964597962913,2681167.2865525,33.971297129713,0,0
-71.680240239867,12.691423113306,28.775727572757,2569713.6430403,89.964597962913,2681167.2865525,33.975727572757,0,0
-71.680239534009,12.694006096203,28.780158015802,2569713.6430403,89.964597962913,2681167.2865525,33.980158015802,0,0
-71.680238828151,12.696589079099,28.784588458846,2569713.6430403,89.964597962913,2681167.2865525,33.984588458846,0,0
-71.680238122293,12.699172061995,28.78901890189,2569713.6430403,89.964597962913,2681167.2865525,33.98901890189,0,0
-71.680237416434,12.701755044891,28.793449344934,2569713.6430403,89.964597962913,2681167.2865525,33.993449344934,0,0
-71.680236710576,12.704338027787,28.797879787979,2569713.6430403,89.964597962913,2681167.2865525,33.997879787979,0,0
-71.680236004718,12.706921010683,28.802310231023,2569713.6430403,89.964597962913,2681167.2865525,34.002310231023,0,0
-71.68023529886,12.70950399358,28.806740674067,2569713.6430403,89.964597962913,2681167.2865525,34.006740674067,0,0
-71.680234593002,12.712086976476,28.811171117112,2569713.6430403,89.964597962913,2681167.2865525,34.011171117112,0,0
-71.680233887144,12.714669959372,28.815601560156,2569713.6430403,89.964597962913,2681167.2865525,34.015601560156,0,0
-71.680233181286,12.717252942268,28.8200320032,2569713.6430403,89.964597962913,2681167.2865525,34.0200320032,0,0
-71.680232475428,12.719835925164,28.824462446245,2569713.6430403,89.964597962913,2681167.2865525,34.024462446245,0,0
-71.68023176957,12.722418908061,28.828892889289,2569713.6430403,89.964597962913,2681167.2865525,34.028892889289,0,0
-71.680231063712,12.725001890957,28.833323332333,2569713.6430403,89.964597962913,2681167.2865525,34.033323332333,0,0
-71.680230357854,12.727584873853,28.837753775378,2569713.6430403,89.964597962913,2681167.2865525,34.037753775378,0,0
-71.680229651996,12.730167856749,28.842184218422,2569713.6430403,89.964597962913,2681167.2865525,34.042184218422,0,0
-71.680228946138,12.732750839645,28.846614661466,2569713.6430403,89.964597962913,2681167.2865525,34.046614661466,0,0
-71.680228240279,12.735333822541,28.85104510451,2569713.6430403,89.964597962913,2681167.2865525,34.05104510451,0,0
-71.680227534421,12.737916805438,28.855475547555,2569713.6430403,89.964597962913,2681167.2865525,34.055475547555,0,0
-71.680226828563,12.740499788334,28.859905990599,2569713.6430403,89.964597962913,2681167.2865525,34.059905990599,0,0
-71.680226122705,12.74308277123,28.864336433643,2569713.6430403,89.964597962913,2681167.2865525,34.064336433643,0,0
-71.680225416847,12.745665754126,28.868766876688,2569713.6430403,89.964597962913,2681167.2865525,34.068766876688,0,0
-71.680224710989,12.748248737022,28.873197319732,2569713.6430403,89.964597962913,2681167.2865525,34.073197319732,0,0
-71.680224005131,12.750831719918,28.877627762776,2569713.6430403,89.964597962913,2681167.2865525,34.077627762776,0,0
-71.680223299273,12.753414702815,28.882058205821,2569713.6430403,89.964597962913,2681167.2865525,34.082058205821,0,0
-71.680222593415,12.755997685711,28.886488648865,2569713.6430403,89.964597962913,2681167.2865525,34.086488648865,0,0
-71.680221887557,12.758580668607,28.890919091909,2569713.6430403,89.964597962913,2681167.2865525,34.090919091909,0,0
-71.680221181699,12.761163651503,28.895349534953,2569713.6430403,89.964597962913,2681167.2865525,34.095349534953,0,0
-71.680220475841,12.763746634399,28.899779977998,2569713.6430403,89.964597962913,2681167.2865525,34.099779977998,0,0
-71.680219769983,12.766329617295,28.904210421042,2569713.6430403,89.964597962913,2681167.2865525,34.104210421042,0,0
-71.680219063737,12.76891259923,28.908640864086,2571159.0715734,-1730.2144686792,2675947.4232772,34.108640864086,0,0
-71.68021835738,12.771495580887,28.913071307131,2571159.0715734,-1730.2144686792,2675947.4232772,34.113071307131,0,0
-71.680217651022,12.774078562543,28.917501750175,2571159.0715734,-1730.2144686792,2675947.4232772,34.117501750175,0,0
-71.680216944665,12.7766615442,28.921932193219,2571159.0715734,-1730.2144686792,2675947.4232772,34.121932193219,0,0
-71.680216238307,12.779244525856,28.926362636264,2571159.0715734,-1730.2144686792,2675947.4232772,34.126362636264,0,0
-71.680215531949,12.781827507512,28.930793079308,2571159.0715734,-1730.2144686792,2675947.4232772,34.130793079308,0,0
-71.680214825592,12.784410489169,28.935223522352,2571159.0715734,-1730.2144686792,2675947.4232772,34.135223522352,0,0
-71.680214119234,12.786993470825,28.939653965397,2571159.0715734,-1730.2144686792,2675947.4232772,34.139653965397,0,0
-71.680213412877,12.789576452482,28.944084408441,2571159.0715734,-1730.2144686792,2675947.4232772,34.144084408441,0,0
-71.680212706519,12.792159434138,28.948514851485,2571159.0715734,-1730.2144686792,2675947.4232772,34.148514851485,0,0
-71.680212000161,12.794742415794,28.952945294529,2571159.0715734,-1730.2144686792,2675947.4232772,34.152945294529,0,0
-71.680211293804,12.797325397451,28.957375737574,2571159.0715734,-1730.2144686792,2675947.4232772,34.157375737574,0,0
-71.680210587446,12.799908379107,28.961806180618,2571159.0715734,-1730.2144686792,2675947.4232772,34.161806180618,0,0
-71.680209881089,12.802491360764,28.966236623662,2571159.0715734,-1730.2144686792,2675947.4232772,34.166236623662,0,0
-71.680209174731,12.80507434242,28.970667066707,2571159.0715734,-1730.2144686792,2675947.4232772,34.170667066707,0,0
-71.680208468374,12.807657324077,28.975097509751,2571159.0715734,-1730.2144686792,2675947.4232772,34.175097509751,0,0
-71.680207762016,12.810240305733,28.979527952795,2571159.0715734,-1730.2144686792,2675947.4232772,34.179527952795,0,0
-71.680207055658,12.812823287389,28.98395839584,2571159.0715734,-1730.2144686792,2675947.4232772,34.18395839584,0,0
-71.680206349301,12.815406269046,28.988388838884,2571159.0715734,-1730.2144686792,2675947.4232772,34.188388838884,0,0
-71.680205642943,12.817989250702,28.992819281928,2571159.0715734,-1730.2144686792,2675947.4232772,34.192819281928,0,0
-71.680204936586,12.820572232359,28.997249724972,2571159.0715734,-1730.2144686792,2675947.4232772,34.197249724972,0,0
-71.680204230228,12.823155214015,29.001680168017,2571159.0715734,-1730.2144686792,2675947.4232772,34.201680168017,0,0
-71.680203523871,12.825738195671,29.006110611061,2571159.0715734,-1730.2144686792,2675947.4232772,34.206110611061,0,0
-71.680202817513,12.828321177328,29.010541054105,2571159.0715734,-1730.2144686792,2675947.4232772,34.210541054105,0,0
-71.680202111155,12.830904158984,29.01497149715,2571159.0715734,-1730.2144686792,2675947.4232772,34.21497149715,0,0
-71.680201404798,12.833487140641,29.019401940194,2571159.0715734,-1730.2144686792,2675947.4232772,34.219401940194,0,0
-71.68020069844,12.836070122297,29.023832383238,2571159.0715734,-1730.2144686792,2675947.4232772,34.223832383238,0,0
-71.680199992083,12.838653103954,29.028262826283,2571159.0715734,-1730.2144686792,2675947.4232772,34.228262826283,0,0
-71.680199285725,12.84123608561,29.032693269327,2571159.0715734,-1730.2144686792,2675947.4232772,34.232693269327,0,0
-71.680198579367,12.843819067266,29.037123712371,2571159.0715734,-1730.2144686792,2675947.4232772,34.237123712371,0,0
-71.68019787301,12.846402048923,29.041554155416,2571159.0715734,-1730.2144686792,2675947.4232772,34.241554155416,0,0
-71.680197166652,12.848985030579,29.04598459846,2571159.0715734,-1730.2144686792,2675947.4232772,34.24598459846,0,0
-71.680196460295,12.851568012236,29.050415041504,2571159.0715734,-1730.2144686792,2675947.4232772,34.250415041504,0,0
-71.680195753937,12.854150993892,29.054845484548,2571159.0715734,-1730.2144686792,2675947.4232772,34.254845484548,0,0
-71.68019504758,12.856733975548,29.059275927593,2571159.0715734,-1730.2144686792,2675947.4232772,34.259275927593,0,0
-71.680194341222,12.859316957205,29.063706370637,2571159.0715734,-1730.2144686792,2675947.4232772,34.263706370637,0,0
-71.680193634864,12.861899938861,29.068136813681,2571159.0715734,-1730.2144686792,2675947.4232772,34.268136813681,0,0
-71.680192928507,12.864482920518,29.072567256726,2571159.0715734,-1730.2144686792,2675947.4232772,34.272567256726,0,0
-71.680192222149,12.867065902174,29.07699769977,2571159.0715734,-1730.2144686792,2675947.4232772,34.27699769977,0,0
-71.680191515792,12.86964888383,29.081428142814,2571159.0715734,-1730.2144686792,2675947.4232772,34.281428142814,0,0
-71.680190809434,12.872231865487,29.085858585859,2571159.0715734,-1730.2144686792,2675947.4232772,34.285858585859,0,0
-71.680190103077,12.874814847143,29.090289028903,2571159.0715734,-1730.2144686792,2675947.4232772,34.290289028903,0,0
-71.680189396719,12.8773978288,29.094719471947,2571159.0715734,-1730.2144686792,2675947.4232772,34.294719471947,0,0
-71.680188690361,12.879980810456,29.099149914991,2571159.0715734,-1730.2144686792,2675947.4232772,34.299149914991,0,0
-71.680187984004,12.882563792113,29.103580358036,2571159.0715734,-1730.2144686792,2675947.4232772,34.303580358036,0,0
-71.680187277646,12.885146773769,29.10801080108,2571159.0715734,-1730.2144686792,2675947.4232772,34.30801080108,0,0
-71.680186571289,12.887729755425,29.112441244124,2571159.0715734,-1730.2144686792,2675947.4232772,34.312441244124,0,0
-71.680185864931,12.890312737082,29.116871687169,2571159.0715734,-1730.2144686792,2675947.4232772,34.316871687169,0,0
-71.680185158573,12.892895718738,29.121302130213,2571159.0715734,-1730.2144686792,2675947.4232772,34.321302130213,0,0
-71.680184452216,12.895478700395,29.125732573257,2571159.0715734,-1730.2144686792,2675947.4232772,34.325732573257,0,0
-71.680183745858,12.898061682051,29.130163016302,2571159.0715734,-1730.2144686792,2675947.4232772,34.330163016302,0,0
-71.680183039501,12.900644663707,29.134593459346,2571159.0715734,-1730.2144686792,2675947.4232772,34.334593459346,0,0
-71.680182333143,12.903227645364,29.13902390239,2571159.0715734,-1730.2144686792,2675947.4232772,34.33902390239,0,0
-71.680181626786,12.90581062702,29.143454345435,2571159.0715734,-1730.2144686792,2675947.4232772,34.343454345435,0,0
-71.680180920428,12.908393608677,29.147884788479,2571159.0715734,-1730.2144686792,2675947.4232772,34.347884788479,0,0
-71.68018021407,12.910976590333,29.152315231523,2571159.0715734,-1730.2144686792,2675947.4232772,34.352315231523,0,0
-71.680179507713,12.91355957199,29.156745674567,2571159.0715734,-1730.2144686792,2675947.4232772,34.356745674567,0,0
-71.680178801355,12.916142553646,29.161176117612,2571159.0715734,-1730.2144686792,2675947.4232772,34.361176117612,0,0
-71.680178094998,12.918725535302,29.165606560656,2571159.0715734,-1730.2144686792,2675947.4232772,34.365606560656,0,0
-71.68017738864,12.921308516959,29.1700370037,2571159.0715734,-1730.2144686792,2675947.4232772,34.3700370037,0,0
-71.680176682283,12.923891498615,29.174467446745,2571159.0715734,-1730.2144686792,2675947.4232772,34.374467446745,0,0
-71.680175975925,12.926474480272,29.178897889789,2571159.0715734,-1730.2144686792,2675947.4232772,34.378897889789,0,0
-71.680175269567,12.929057461928,29.183328332833,2571159.0715734,-1730.2144686792,2675947.4232772,34.383328332833,0,0
-71.68017456321,12.931640443584,29.187758775878,2571159.0715734,-1730.2144686792,2675947.4232772,34.387758775878,0,0
-71.680173856852,12.934223425241,29.192189218922,2571159.0715734,-1730.2144686792,2675947.4232772,34.392189218922,0,0
-71.680173150495,12.936806406897,29.196619661966,2571159.0715734,-1730.2144686792,2675947.4232772,34.396619661966,0,0
-71.680172444137,12.939389388554,29.20105010501,2571159.0715734,-1730.2144686792,2675947.4232772,34.40105010501,0,0
-71.680171737779,12.94197237021,29.205480548055,2571159.0715734,-1730.2144686792,2675947.4232772,34.405480548055,0,0
-71.680171031422,12.944555351866,29.209910991099,2571159.0715734,-1730.2144686792,2675947.4232772,34.409910991099,0,0
-71.680170325064,12.947138333523,29.214341434143,2571159.0715734,-1730.2144686792,2675947.4232772,34.414341434143,0,0
-71.680169618707,12.949721315179,29.218771877188,2571159.0715734,-1730.2144686792,2675947.4232772,34.418771877188,0,0
-71.680168912349,12.952304296836,29.223202320232,2571159.0715734,-1730.2144686792,2675947.4232772,34.423202320232,0,0
-71.680168205992,12.954887278492,29.227632763276,2571159.0715734,-1730.2144686792,2675947.4232772,34.427632763276,0,0
-71.680167499634,12.957470260149,29.232063206321,2571159.0715734,-1730.2144686792,2675947.4232772,34.432063206321,0,0
-71.680166793276,12.960053241805,29.236493649365,2571159.0715734,-1730.2144686792,2675947.4232772,34.436493649365,0,0
-71.680166086919,12.962636223461,29.240924092409,2571159.0715734,-1730.2144686792,2675947.4232772,34.440924092409,0,0
-71.680165380561,12.965219205118,29.245354535454,2571159.0715734,-1730.2144686792,2675947.4232772,34.445354535454,0,0
-71.680164674204,12.967802186774,29.249784978498,2571159.0715734,-1730.2144686792,2675947.4232772,34.449784978498,0,0
-71.680163967846,12.970385168431,29.254215421542,2571159.0715734,-1730.2144686792,2675947.4232772,34.454215421542,0,0
-71.680163261489,12.972968150087,29.258645864586,2571159.0715734,-1730.2144686792,2675947.4232772,34.458645864586,0,0
-71.680162555131,12.975551131743,29.263076307631,2571159.0715734,-1730.2144686792,2675947.4232772,34.463076307631,0,0
-71.680161848773,12.9781341134,29.267506750675,2571159.0715734,-1730.2144686792,2675947.4232772,34.467506750675,0,0
-71.680161142416,12.980717095056,29.271937193719,2571159.0715734,-1730.2144686792,2675947.4232772,34.471937193719,0,0
-71.680160436058,12.983300076713,29.276367636764,2571159.0715734,-1730.2144686792,2675947.4232772,34.476367636764,0,0
-71.680159729701,12.985883058369,29.280798079808,2571159.0715734,-1730.2144686792,2675947.4232772,34.480798079808,0,0
-71.680159023343,12.988466040025,29.285228522852,2571159.0715734,-1730.2144686792,2675947.4232772,34.485228522852,0,0
-71.680158316985,12.991049021682,29.289658965897,2571159.0715734,-1730.2144686792,2675947.4232772,34.489658965897,0,0
-71.680157610628,12.993632003338,29.294089408941,2571159.0715734,-1730.2144686792,2675947.4232772,34.494089408941,0,0
-71.68015690427,12.996214984995,29.298519851985,2571159.0715734,-1730.2144686792,2675947.4232772,34.498519851985,0,0
-71.680156197913,12.998797966651,29.30295029503,2571159.0715734,-1730.2144686792,2675947.4232772,34.502950295029,0,0
-71.680155491555,13.001380948308,29.307380738074,2571159.0715734,-1730.2144686792,2675947.4232772,34.507380738074,0,0
-71.680154785198,13.003963929964,29.311811181118,2571159.0715734,-1730.2144686792,2675947.4232772,34.511811181118,0,0
-71.68015407884,13.00654691162,29.316241624162,2571159.0715734,-1730.2144686792,2675947.4232772,34.516241624162,0,0
-71.680153372482,13.009129893277,29.320672067207,2571159.0715734,-1730.2144686792,2675947.4232772,34.520672067207,0,0
-71.680152666125,13.011712874933,29.325102510251,2571159.0715734,-1730.2144686792,2675947.4232772,34.525102510251,0,0
-71.680151959767,13.01429585659,29.329532953295,2571159.0715734,-1730.2144686792,2675947.4232772,34.529532953295,0,0
-71.68015125341,13.016878838246,29.33396339634,2571159.0715734,-1730.2144686792,2675947.4232772,34.53396339634,0,0
-71.680150547052,13.019461819902,29.338393839384,2571159.0715734,-1730.2144686792,2675947.4232772,34.538393839384,0,0
-71.680149840695,13.022044801559,29.342824282428,2571159.0715734,-1730.2144686792,2675947.4232772,34.542824282428,0,0
-71.680149134337,13.024627783215,29.347254725473,2571159.0715734,-1730.2144686792,2675947.4232772,34.547254725473,0,0
-71.680148427979,13.027210764872,29.351685168517,2571159.0715734,-1730.2144686792,2675947.4232772,34.551685168517,0,0
-71.680147721622,13.029793746528,29.356115611561,2571159.0715734,-1730.2144686792,2675947.4232772,34.556115611561,0,0
-71.680147015264,13.032376728185,29.360546054605,2571159.0715734,-1730.2144686792,2675947.4232772,34.560546054605,0,0
-71.680146308907,13.034959709841,29.36497649765,2571159.0715734,-1730.2144686792,2675947.4232772,34.56497649765,0,0
-71.680145602549,13.037542691497,29.369406940694,2571159.0715734,-1730.2144686792,2675947.4232772,34.569406940694,0,0
-71.680144896191,13.040125673154,29.373837383738,2571159.0715734,-1730.2144686792,2675947.4232772,34.573837383738,0,0
-71.680144189834,13.04270865481,29.378267826783,2571159.0715734,-1730.2144686792,2675947.4232772,34.578267826783,0,0
-71.680143483476,13.045291636467,29.382698269827,2571159.0715734,-1730.2144686792,2675947.4232772,34.582698269827,0,0
-71.680142777119,13.047874618123,29.387128712871,2571159.0715734,-1730.2144686792,2675947.4232772,34.587128712871,0,0
-71.680142070761,13.050457599779,29.391559155916,2571159.0715734,-1730.2144686792,2675947.4232772,34.591559155916,0,0
-71.680141364404,13.053040581436,29.39598959896,2571159.0715734,-1730.2144686792,2675947.4232772,34.59598959896,0,0
-71.680140658046,13.055623563092,29.400420042004,2571159.0715734,-1730.2144686792,2675947.4232772,34.600420042004,0,0
-71.680139951688,13.058206544749,29.404850485049,2571159.0715734,-1730.2144686792,2675947.4232772,34.604850485049,0,0
-71.680139245331,13.060789526405,29.409280928093,2571159.0715734,-1730.2144686792,2675947.4232772,34.609280928093,0,0
-71.680138538973,13.063372508061,29.413711371137,2571159.0715734,-1730.2144686792,2675947.4232772,34.613711371137,0,0
-71.680137832616,13.065955489718,29.418141814181,2571159.0715734,-1730.2144686792,2675947.4232772,34.618141814181,0,0
-71.680137126258,13.068538471374,29.422572257226,2571159.0715734,-1730.2144686792,2675947.4232772,34.622572257226,0,0
-71.680136419901,13.071121453031,29.42700270027,2571159.0715734,-1730.2144686792,2675947.4232772,34.62700270027,0,0
-71.680135713543,13.073704434687,29.431433143314,2571159.0715734,-1730.2144686792,2675947.4232772,34.631433143314,0,0
-71.680135007185,13.076287416344,29.435863586359,2571159.0715734,-1730.2144686792,2675947.4232772,34.635863586359,0,0
-71.680134300828,13.078870398,29.440294029403,2571159.0715734,-1730.2144686792,2675947.4232772,34.640294029403,0,0
-71.68013359447,13.081453379656,29.444724472447,2571159.0715734,-1730.2144686792,2675947.4232772,34.644724472447,0,0
-71.680132888113,13.084036361313,29.449154915492,2571159.0715734,-1730.2144686792,2675947.4232772,34.649154915492,0,0
-71.680132181755,13.086619342969,29.453585358536,2571159.0715734,-1730.2144686792,2675947.4232772,34.653585358536,0,0
-71.680131475397,13.089202324626,29.45801580158,2571159.0715734,-1730.2144686792,2675947.4232772,34.65801580158,0,0
-71.68013076904,13.091785306282,29.462446244624,2571159.0715734,-1730.2144686792,2675947.4232772,34.662446244624,0,0
-71.680130062682,13.094368287938,29.466876687669,2571159.0715734,-1730.2144686792,2675947.4232772,34.666876687669,0,0
-71.680129356325,13.096951269595,29.471307130713,2571159.0715734,-1730.2144686792,2675947.4232772,34.671307130713,0,0
-71.680128649967,13.099534251251,29.475737573757,2571159.0715734,-1730.2144686792,2675947.4232772,34.675737573757,0,0
-71.68012794361,13.102117232908,29.480168016802,2571159.0715734,-1730.2144686792,2675947.4232772,34.680168016802,0,0
-71.680127237252,13.104700214564,29.484598459846,2571159.0715734,-1730.2144686792,2675947.4232772,34.684598459846,0,0
-71.680126530894,13.107283196221,29.48902890289,2571159.0715734,-1730.2144686792,2675947.4232772,34.68902890289,0,0
-71.680125824537,13.109866177877,29.493459345935,2571159.0715734,-1730.2144686792,2675947.4232772,34.693459345935,0,0
-71.680125118179,13.112449159533,29.497889788979,2571159.0715734,-1730.2144686792,2675947.4232772,34.697889788979,0,0
-71.680124411822,13.11503214119,29.502320232023,2571159.0715734,-1730.2144686792,2675947.4232772,34.702320232023,0,0
-71.680123705464,13.117615122846,29.506750675068,2571159.0715734,-1730.2144686792,2675947.4232772,34.706750675068,0,0
-71.680122999107,13.120198104503,29.511181118112,2571159.0715734,-1730.2144686792,2675947.4232772,34.711181118112,0,0
-71.680122292749,13.122781086159,29.515611561156,2571159.0715734,-1730.2144686792,2675947.4232772,34.715611561156,0,0
-71.680121586391,13.125364067815,29.5200420042,2571159.0715734,-1730.2144686792,2675947.4232772,34.7200420042,0,0
-71.680120880034,13.127947049472,29.524472447245,2571159.0715734,-1730.2144686792,2675947.4232772,34.724472447245,0,0
-71.680120173676,13.130530031128,29.528902890289,2571159.0715734,-1730.2144686792,2675947.4232772,34.728902890289,0,0
-71.680119467319,13.133113012785,29.533333333333,2571159.0715734,-1730.2144686792,2675947.4232772,34.733333333333,0,0
-71.680118760961,13.135695994441,29.537763776378,2571159.0715734,-1730.2144686792,2675947.4232772,34.737763776378,0,0
-71.680118054603,13.138278976097,29.542194219422,2571159.0715734,-1730.2144686792,2675947.4232772,34.742194219422,0,0
-71.680117348246,13.140861957754,29.546624662466,2571159.0715734,-1730.2144686792,2675947.4232772,34.746624662466,0,0
-71.680116641888,13.14344493941,29.551055105511,2571159.0715734,-1730.2144686792,2675947.4232772,34.751055105511,0,0
-71.680115935531,13.146027921067,29.555485548555,2571159.0715734,-1730.2144686792,2675947.4232772,34.755485548555,0,0
-71.680115229173,13.148610902723,29.559915991599,2571159.0715734,-1730.2144686792,2675947.4232772,34.759915991599,0,0
-71.680114522816,13.15119388438,29.564346434643,2571159.0715734,-1730.2144686792,2675947.4232772,34.764346434643,0,0
-71.680113816458,13.153776866036,29.568776877688,2571159.0715734,-1730.2144686792,2675947.4232772,34.768776877688,0,0
-71.6801131101,13.156359847692,29.573207320732,2571159.0715734,-1730.2144686792,2675947.4232772,34.773207320732,0,0
-71.680112403743,13.158942829349,29.577637763776,2571159.0715734,-1730.2144686792,2675947.4232772,34.777637763776,0,0
-71.680111697385,13.161525811005,29.582068206821,2571159.0715734,-1730.2144686792,2675947.4232772,34.782068206821,0,0
-71.680110991028,13.164108792662,29.586498649865,2571159.0715734,-1730.2144686792,2675947.4232772,34.786498649865,0,0
-71.68011028467,13.166691774318,29.590929092909,2571159.0715734,-1730.2144686792,2675947.4232772,34.790929092909,0,0
-71.680109578313,13.169274755974,29.595359535954,2571159.0715734,-1730.2144686792,2675947.4232772,34.795359535954,0,0
-71.680108871955,13.171857737631,29.599789978998,2571159.0715734,-1730.2144686792,2675947.4232772,34.799789978998,0,0
-71.680108165597,13.174440719287,29.604220422042,2571159.0715734,-1730.2144686792,2675947.4232772,34.804220422042,0,0
-71.68010745924,13.177023700944,29.608650865087,2571159.0715734,-1730.2144686792,2675947.4232772,34.808650865087,0,0
-71.680106752882,13.1796066826,29.613081308131,2571159.0715734,-1730.2144686792,2675947.4232772,34.813081308131,0,0
-71.680106046525,13.182189664257,29.617511751175,2571159.0715734,-1730.2144686792,2675947.4232772,34.817511751175,0,0
-71.680105340167,13.184772645913,29.621942194219,2571159.0715734,-1730.2144686792,2675947.4232772,34.821942194219,0,0
-71.680104633809,13.187355627569,29.626372637264,2571159.0715734,-1730.2144686792,2675947.4232772,34.826372637264,0,0
-71.680103927452,13.189938609226,29.630803080308,2571159.0715734,-1730.2144686792,2675947.4232772,34.830803080308,0,0
-71.680103221094,13.192521590882,29.635233523352,2571159.0715734,-1730.2144686792,2675947.4232772,34.835233523352,0,0
-71.680102514737,13.195104572539,29.639663966397,2571159.0715734,-1730.2144686792,2675947.4232772,34.839663966397,0,0
-71.680101808379,13.197687554195,29.644094409441,2571159.0715734,-1730.2144686792,2675947.4232772,34.844094409441,0,0
-71.680101102022,13.200270535851,29.648524852485,2571159.0715734,-1730.2144686792,2675947.4232772,34.848524852485,0,0
-71.680100395664,13.202853517508,29.65295529553,2571159.0715734,-1730.2144686792,2675947.4232772,34.85295529553,0,0
-71.680099689306,13.205436499164,29.657385738574,2571159.0715734,-1730.2144686792,2675947.4232772,34.857385738574,0,0
-71.680098982949,13.208019480821,29.661816181618,2571159.0715734,-1730.2144686792,2675947.4232772,34.861816181618,0,0
-71.680098276591,13.210602462477,29.666246624662,2571159.0715734,-1730.2144686792,2675947.4232772,34.866246624662,0,0
-71.680097570147,13.21318544423,29.670677067707,2575960.8619485,-515.04372642596,2673799.1790488,34.870677067707,0,0
-71.680096862816,13.215768426982,29.675107510751,2575960.8619485,-515.04372642596,2673799.1790488,34.875107510751,0,0
-71.680096155484,13.218351409734,29.679537953795,2575960.8619485,-515.04372642596,2673799.1790488,34.879537953795,0,0
-71.680095448152,13.220934392486,29.68396839684,2575960.8619485,-515.04372642596,2673799.1790488,34.88396839684,0,0
-71.680094740821,13.223517375237,29.688398839884,2575960.8619485,-515.04372642596,2673799.1790488,34.888398839884,0,0
-71.680094033489,13.226100357989,29.692829282928,2575960.8619485,-515.04372642596,2673799.1790488,34.892829282928,0,0
-71.680093326157,13.228683340741,29.697259725973,2575960.8619485,-515.04372642596,2673799.1790488,34.897259725973,0,0
-71.680092618825,13.231266323492,29.701690169017,2575960.8619485,-515.04372642596,2673799.1790488,34.901690169017,0,0
-71.680091911494,13.233849306244,29.706120612061,2575960.8619485,-515.04372642596,2673799.1790488,34.906120612061,0,0
-71.680091204162,13.236432288996,29.710551055106,2575960.8619485,-515.04372642596,2673799.1790488,34.910551055106,0,0
-71.68009049683,13.239015271748,29.71498149815,2575960.8619485,-515.04372642596,2673799.1790488,34.91498149815,0,0
-71.680089789498,13.241598254499,29.719411941194,2575960.8619485,-515.04372642596,2673799.1790488,34.919411941194,0,0
-71.680089082167,13.244181237251,29.723842384238,2575960.8619485,-515.04372642596,2673799.1790488,34.923842384238,0,0
-71.680088374835,13.246764220003,29.728272827283,2575960.8619485,-515.04372642596,2673799.1790488,34.928272827283,0,0
-71.680087667503,13.249347202754,29.732703270327,2575960.8619485,-515.04372642596,2673799.1790488,34.932703270327,0,0
-71.680086960172,13.251930185506,29.737133713371,2575960.8619485,-515.04372642596,2673799.1790488,34.937133713371,0,0
-71.68008625284,13.254513168258,29.741564156416,2575960.8619485,-515.04372642596,2673799.1790488,34.941564156416,0,0
-71.680085545508,13.25709615101,29.74599459946,2575960.8619485,-515.04372642596,2673799.1790488,34.94599459946,0,0
-71.680084838176,13.259679133761,29.750425042504,2575960.8619485,-515.04372642596,2673799.1790488,34.950425042504,0,0
-71.680084130845,13.262262116513,29.754855485549,2575960.8619485,-515.04372642596,2673799.1790488,34.954855485549,0,0
-71.680083423513,13.264845099265,29.759285928593,2575960.8619485,-515.04372642596,2673799.1790488,34.959285928593,0,0
-71.680082716181,13.267428082017,29.763716371637,2575960.8619485,-515.04372642596,2673799.1790488,34.963716371637,0,0
-71.680082008849,13.270011064768,29.768146814681,2575960.8619485,-515.04372642596,2673799.1790488,34.968146814681,0,0
-71.680081301518,13.27259404752,29.772577257726,2575960.8619485,-515.04372642596,2673799.1790488,34.972577257726,0,0
-71.680080594186,13.275177030272,29.77700770077,2575960.8619485,-515.04372642596,2673799.1790488,34.97700770077,0,0
-71.680079886854,13.277760013023,29.781438143814,2575960.8619485,-515.04372642596,2673799.1790488,34.981438143814,0,0
-71.680079179522,13.280342995775,29.785868586859,2575960.8619485,-515.04372642596,2673799.1790488,34.985868586859,0,0
-71.680078472191,13.282925978527,29.790299029903,2575960.8619485,-515.04372642596,2673799.1790488,34.990299029903,0,0
-71.680077764859,13.285508961279,29.794729472947,2575960.8619485,-515.04372642596,2673799.1790488,34.994729472947,0,0
-71.680077057527,13.28809194403,29.799159915992,2575960.8619485,-515.04372642596,2673799.1790488,34.999159915992,0,0
-71.680076350196,13.290674926782,29.803590359036,2575960.8619485,-515.04372642596,2673799.1790488,35.003590359036,0,0
-71.680075642864,13.293257909534,29.80802080208,2575960.8619485,-515.04372642596,2673799.1790488,35.00802080208,0,0
-71.680074935532,13.295840892285,29.812451245125,2575960.8619485,-515.04372642596,2673799.1790488,35.012451245125,0,0
-71.6800742282,13.298423875037,29.816881688169,2575960.8619485,-515.04372642596,2673799.1790488,35.016881688169,0,0
-71.680073520869,13.301006857789,29.821312131213,2575960.8619485,-515.04372642596,2673799.1790488,35.021312131213,0,0
-71.680072813537,13.303589840541,29.825742574257,2575960.8619485,-515.04372642596,2673799.1790488,35.025742574257,0,0
-71.680072106205,13.306172823292,29.830173017302,2575960.8619485,-515.04372642596,2673799.1790488,35.030173017302,0,0
-71.680071398873,13.308755806044,29.834603460346,2575960.8619485,-515.04372642596,2673799.1790488,35.034603460346,0,0
-71.680070691542,13.311338788796,29.83903390339,2575960.8619485,-515.04372642596,2673799.1790488,35.03903390339,0,0
-71.68006998421,13.313921771547,29.843464346435,2575960.8619485,-515.04372642596,2673799.1790488,35.043464346435,0,0
-71.680069276878,13.316504754299,29.847894789479,2575960.8619485,-515.04372642596,2673799.1790488,35.047894789479,0,0
-71.680068569547,13.319087737051,29.852325232523,2575960.8619485,-515.04372642596,2673799.1790488,35.052325232523,0,0
-71.680067862215,13.321670719803,29.856755675568,2575960.8619485,-515.04372642596,2673799.1790488,35.056755675568,0,0
-71.680067154883,13.324253702554,29.861186118612,2575960.8619485,-515.04372642596,2673799.1790488,35.061186118612,0,0
-71.680066447551,13.326836685306,29.865616561656,2575960.8619485,-515.04372642596,2673799.1790488,35.065616561656,0,0
-71.68006574022,13.329419668058,29.8700470047,2575960.8619485,-515.04372642596,2673799.1790488,35.0700470047,0,0
-71.680065032888,13.332002650809,29.874477447745,2575960.8619485,-515.04372642596,2673799.1790488,35.074477447745,0,0
-71.680064325556,13.334585633561,29.878907890789,2575960.8619485,-515.04372642596,2673799.1790488,35.078907890789,0,0
-71.680063618224,13.337168616313,29.883338333833,2575960.8619485,-515.04372642596,2673799.1790488,35.083338333833,0,0
-71.680062910893,13.339751599065,29.887768776878,2575960.8619485,-515.04372642596,2673799.1790488,35.087768776878,0,0
-71.680062203561,13.342334581816,29.892199219922,2575960.8619485,-515.04372642596,2673799.1790488,35.092199219922,0,0
-71.680061496229,13.344917564568,29.896629662966,2575960.8619485,-515.04372642596,2673799.1790488,35.096629662966,0,0
-71.680060788898,13.34750054732,29.901060106011,2575960.8619485,-515.04372642596,2673799.1790488,35.101060106011,0,0
-71.680060081566,13.350083530071,29.905490549055,2575960.8619485,-515.04372642596,2673799.1790488,35.105490549055,0,0
-71.680059374234,13.352666512823,29.909920992099,2575960.8619485,-515.04372642596,2673799.1790488,35.109920992099,0,0
-71.680058666902,13.355249495575,29.914351435144,2575960.8619485,-515.04372642596,2673799.1790488,35.114351435144,0,0
-71.680057959571,13.357832478327,29.918781878188,2575960.8619485,-515.04372642596,2673799.1790488,35.118781878188,0,0
-71.680057252239,13.360415461078,29.923212321232,2575960.8619485,-515.04372642596,2673799.1790488,35.123212321232,0,0
-71.680056544907,13.36299844383,29.927642764276,2575960.8619485,-515.04372642596,2673799.1790488,35.127642764276,0,0
-71.680055837575,13.365581426582,29.932073207321,2575960.8619485,-515.04372642596,2673799.1790488,35.132073207321,0,0
-71.680055130244,13.368164409334,29.936503650365,2575960.8619485,-515.04372642596,2673799.1790488,35.136503650365,0,0
-71.680054422912,13.370747392085,29.940934093409,2575960.8619485,-515.04372642596,2673799.1790488,35.140934093409,0,0
-71.68005371558,13.373330374837,29.945364536454,2575960.8619485,-515.04372642596,2673799.1790488,35.145364536454,0,0
-71.680053008249,13.375913357589,29.949794979498,2575960.8619485,-515.04372642596,2673799.1790488,35.149794979498,0,0
-71.680052300917,13.37849634034,29.954225422542,2575960.8619485,-515.04372642596,2673799.1790488,35.154225422542,0,0
-71.680051593585,13.381079323092,29.958655865587,2575960.8619485,-515.04372642596,2673799.1790488,35.158655865587,0,0
-71.680050886253,13.383662305844,29.963086308631,2575960.8619485,-515.04372642596,2673799.1790488,35.163086308631,0,0
-71.680050178922,13.386245288596,29.967516751675,2575960.8619485,-515.04372642596,2673799.1790488,35.167516751675,0,0
-71.68004947159,13.388828271347,29.971947194719,2575960.8619485,-515.04372642596,2673799.1790488,35.171947194719,0,0
-71.680048764258,13.391411254099,29.976377637764,2575960.8619485,-515.04372642596,2673799.1790488,35.176377637764,0,0
-71.680048056926,13.393994236851,29.980808080808,2575960.8619485,-515.04372642596,2673799.1790488,35.180808080808,0,0
-71.680047349595,13.396577219602,29.985238523852,2575960.8619485,-515.04372642596,2673799.1790488,35.185238523852,0,0
-71.680046642263,13.399160202354,29.989668966897,2575960.8619485,-515.04372642596,2673799.1790488,35.189668966897,0,0
-71.680045934931,13.401743185106,29.994099409941,2575960.8619485,-515.04372642596,2673799.1790488,35.194099409941,0,0
-71.6800452276,13.404326167858,29.998529852985,2575960.8619485,-515.04372642596,2673799.1790488,35.198529852985,0,0
-71.680044520268,13.406909150609,30.00296029603,2575960.8619485,-515.04372642596,2673799.1790488,35.20296029603,0,0
-71.680043812936,13.409492133361,30.007390739074,2575960.8619485,-515.04372642596,2673799.1790488,35.207390739074,0,0
-71.680043105604,13.412075116113,30.011821182118,2575960.8619485,-515.04372642596,2673799.1790488,35.211821182118,0,0
-71.680042398273,13.414658098864,30.016251625163,2575960.8619485,-515.04372642596,2673799.1790488,35.216251625163,0,0
-71.680041690941,13.417241081616,30.020682068207,2575960.8619485,-515.04372642596,2673799.1790488,35.220682068207,0,0
-71.680040983609,13.419824064368,30.025112511251,2575960.8619485,-515.04372642596,2673799.1790488,35.225112511251,0,0
-71.680040276277,13.42240704712,30.029542954295,2575960.8619485,-515.04372642596,2673799.1790488,35.229542954295,0,0
-71.680039568946,13.424990029871,30.03397339734,2575960.8619485,-515.04372642596,2673799.1790488,35.23397339734,0,0
-71.680038861614,13.427573012623,30.038403840384,2575960.8619485,-515.04372642596,2673799.1790488,35.238403840384,0,0
-71.680038154282,13.430155995375,30.042834283428,2575960.8619485,-515.04372642596,2673799.1790488,35.242834283428,0,0
-71.680037446951,13.432738978126,30.047264726473,2575960.8619485,-515.04372642596,2673799.1790488,35.247264726473,0,0
-71.680036739619,13.435321960878,30.051695169517,2575960.8619485,-515.04372642596,2673799.1790488,35.251695169517,0,0
-71.680036032287,13.43790494363,30.056125612561,2575960.8619485,-515.04372642596,2673799.1790488,35.256125612561,0,0
-71.680035324955,13.440487926382,30.060556055606,2575960.8619485,-515.04372642596,2673799.1790488,35.260556055606,0,0
-71.680034617624,13.443070909133,30.06498649865,2575960.8619485,-515.04372642596,2673799.1790488,35.26498649865,0,0
-71.680033910292,13.445653891885,30.069416941694,2575960.8619485,-515.04372642596,2673799.1790488,35.269416941694,0,0
-71.68003320296,13.448236874637,30.073847384738,2575960.8619485,-515.04372642596,2673799.1790488,35.273847384738,0,0
-71.680032495628,13.450819857388,30.078277827783,2575960.8619485,-515.04372642596,2673799.1790488,35.278277827783,0,0
-71.680031788297,13.45340284014,30.082708270827,2575960.8619485,-515.04372642596,2673799.1790488,35.282708270827,0,0
-71.680031080965,13.455985822892,30.087138713871,2575960.8619485,-515.04372642596,2673799.1790488,35.287138713871,0,0
-71.680030373633,13.458568805644,30.091569156916,2575960.8619485,-515.04372642596,2673799.1790488,35.291569156916,0,0
-71.680029666302,13.461151788395,30.09599959996,2575960.8619485,-515.04372642596,2673799.1790488,35.29599959996,0,0
-71.68002895897,13.463734771147,30.100430043004,2575960.8619485,-515.04372642596,2673799.1790488,35.300430043004,0,0
-71.680028251638,13.466317753899,30.104860486049,2575960.8619485,-515.04372642596,2673799.1790488,35.304860486049,0,0
-71.680027544306,13.46890073665,30.109290929093,2575960.8619485,-515.04372642596,2673799.1790488,35.309290929093,0,0
-71.680026836975,13.471483719402,30.113721372137,2575960.8619485,-515.04372642596,2673799.1790488,35.313721372137,0,0
-71.680026129643,13.474066702154,30.118151815182,2575960.8619485,-515.04372642596,2673799.1790488,35.318151815182,0,0
-71.680025422311,13.476649684906,30.122582258226,2575960.8619485,-515.04372642596,2673799.1790488,35.322582258226,0,0
-71.680024714979,13.479232667657,30.12701270127,2575960.8619485,-515.04372642596,2673799.1790488,35.32701270127,0,0
-71.680024007648,13.481815650409,30.131443144314,2575960.8619485,-515.04372642596,2673799.1790488,35.331443144314,0,0
-71.680023300316,13.484398633161,30.135873587359,2575960.8619485,-515.04372642596,2673799.1790488,35.335873587359,0,0
-71.680022592984,13.486981615913,30.140304030403,2575960.8619485,-515.04372642596,2673799.1790488,35.340304030403,0,0
-71.680021885653,13.489564598664,30.144734473447,2575960.8619485,-515.04372642596,2673799.1790488,35.344734473447,0,0
-71.680021178321,13.492147581416,30.149164916492,2575960.8619485,-515.04372642596,2673799.1790488,35.349164916492,0,0
-71.680020470989,13.494730564168,30.153595359536,2575960.8619485,-515.04372642596,2673799.1790488,35.353595359536,0,0
-71.680019763657,13.497313546919,30.15802580258,2575960.8619485,-515.04372642596,2673799.1790488,35.35802580258,0,0
-71.680019056326,13.499896529671,30.162456245625,2575960.8619485,-515.04372642596,2673799.1790488,35.362456245625,0,0
-71.680018348994,13.502479512423,30.166886688669,2575960.8619485,-515.04372642596,2673799.1790488,35.366886688669,0,0
-71.680017641662,13.505062495175,30.171317131713,2575960.8619485,-515.04372642596,2673799.1790488,35.371317131713,0,0
-71.68001693433,13.507645477926,30.175747574757,2575960.8619485,-515.04372642596,2673799.1790488,35.375747574757,0,0
-71.680016226999,13.510228460678,30.180178017802,2575960.8619485,-515.04372642596,2673799.1790488,35.380178017802,0,0
-71.680015519667,13.51281144343,30.184608460846,2575960.8619485,-515.04372642596,2673799.1790488,35.384608460846,0,0
-71.680014812335,13.515394426181,30.18903890389,2575960.8619485,-515.04372642596,2673799.1790488,35.38903890389,0,0
-71.680014105004,13.517977408933,30.193469346935,2575960.8619485,-515.04372642596,2673799.1790488,35.393469346935,0,0
-71.680013397672,13.520560391685,30.197899789979,2575960.8619485,-515.04372642596,2673799.1790488,35.397899789979,0,0
-71.68001269034,13.523143374437,30.202330233023,2575960.8619485,-515.04372642596,2673799.1790488,35.402330233023,0,0
-71.680011983008,13.525726357188,30.206760676068,2575960.8619485,-515.04372642596,2673799.1790488,35.406760676068,0,0
-71.680011275677,13.52830933994,30.211191119112,2575960.8619485,-515.04372642596,2673799.1790488,35.411191119112,0,0
-71.680010568345,13.530892322692,30.215621562156,2575960.8619485,-515.04372642596,2673799.1790488,35.415621562156,0,0
-71.680009861013,13.533475305443,30.220052005201,2575960.8619485,-515.04372642596,2673799.1790488,35.420052005201,0,0
-71.680009153681,13.536058288195,30.224482448245,2575960.8619485,-515.04372642596,2673799.1790488,35.424482448245,0,0
-71.68000844635,13.538641270947,30.228912891289,2575960.8619485,-515.04372642596,2673799.1790488,35.428912891289,0,0
-71.680007739018,13.541224253699,30.233343334333,2575960.8619485,-515.04372642596,2673799.1790488,35.433343334333,0,0
-71.680007031686,13.54380723645,30.237773777378,2575960.8619485,-515.04372642596,2673799.1790488,35.437773777378,0,0
-71.680006324355,13.546390219202,30.242204220422,2575960.8619485,-515.04372642596,2673799.1790488,35.442204220422,0,0
-71.680005617023,13.548973201954,30.246634663466,2575960.8619485,-515.04372642596,2673799.1790488,35.446634663466,0,0
-71.680004909691,13.551556184705,30.251065106511,2575960.8619485,-515.04372642596,2673799.1790488,35.451065106511,0,0
-71.680004202359,13.554139167457,30.255495549555,2575960.8619485,-515.04372642596,2673799.1790488,35.455495549555,0,0
-71.680003495028,13.556722150209,30.259925992599,2575960.8619485,-515.04372642596,2673799.1790488,35.459925992599,0,0
-71.680002787696,13.559305132961,30.264356435644,2575960.8619485,-515.04372642596,2673799.1790488,35.464356435644,0,0
-71.680002080364,13.561888115712,30.268786878688,2575960.8619485,-515.04372642596,2673799.1790488,35.468786878688,0,0
-71.680001373032,13.564471098464,30.273217321732,2575960.8619485,-515.04372642596,2673799.1790488,35.473217321732,0,0
-71.680000665701,13.567054081216,30.277647764776,2575960.8619485,-515.04372642596,2673799.1790488,35.477647764776,0,0
-71.679999958369,13.569637063967,30.282078207821,2575960.8619485,-515.04372642596,2673799.1790488,35.482078207821,0,0
-71.679999251037,13.572220046719,30.286508650865,2575960.8619485,-515.04372642596,2673799.1790488,35.486508650865,0,0
-71.679998543706,13.574803029471,30.290939093909,2575960.8619485,-515.04372642596,2673799.1790488,35.490939093909,0,0
-71.679997836374,13.577386012223,30.295369536954,2575960.8619485,-515.04372642596,2673799.1790488,35.495369536954,0,0
-71.679997129042,13.579968994974,30.299799979998,2575960.8619485,-515.04372642596,2673799.1790488,35.499799979998,0,0
-71.67999642171,13.582551977726,30.304230423042,2575960.8619485,-515.04372642596,2673799.1790488,35.504230423042,0,0
-71.679995714379,13.585134960478,30.308660866087,2575960.8619485,-515.04372642596,2673799.1790488,35.508660866087,0,0
-71.679995007047,13.58771794323,30.313091309131,2575960.8619485,-515.04372642596,2673799.1790488,35.513091309131,0,0
-71.679994299715,13.590300925981,30.317521752175,2575960.8619485,-515.04372642596,2673799.1790488,35.517521752175,0,0
-71.679993592383,13.592883908733,30.32195219522,2575960.8619485,-515.04372642596,2673799.1790488,35.52195219522,0,0
-71.679992885052,13.595466891485,30.326382638264,2575960.8619485,-515.04372642596,2673799.1790488,35.526382638264,0,0
-71.67999217772,13.598049874236,30.330813081308,2575960.8619485,-515.04372642596,2673799.1790488,35.530813081308,0,0
-71.679991470388,13.600632856988,30.335243524352,2575960.8619485,-515.04372642596,2673799.1790488,35.535243524352,0,0
-71.679990763057,13.60321583974,30.339673967397,2575960.8619485,-515.04372642596,2673799.1790488,35.539673967397,0,0
-71.679990055725,13.605798822492,30.344104410441,2575960.8619485,-515.04372642596,2673799.1790488,35.544104410441,0,0
-71.679989348393,13.608381805243,30.348534853485,2575960.8619485,-515.04372642596,2673799.1790488,35.548534853485,0,0
-71.679988641061,13.610964787995,30.35296529653,2575960.8619485,-515.04372642596,2673799.1790488,35.55296529653,0,0
-71.67998793373,13.613547770747,30.357395739574,2575960.8619485,-515.04372642596,2673799.1790488,35.557395739574,0,0
-71.679987226398,13.616130753498,30.361826182618,2575960.8619485,-515.04372642596,2673799.1790488,35.561826182618,0,0
-71.679986519066,13.61871373625,30.366256625663,2575960.8619485,-515.04372642596,2673799.1790488,35.566256625663,0,0
-71.679985811734,13.621296719002,30.370687068707,2575960.8619485,-515.04372642596,2673799.1790488,35.570687068707,0,0
-71.679985104403,13.623879701754,30.375117511751,2575960.8619485,-515.04372642596,2673799.1790488,35.575117511751,0,0
-71.679984397071,13.626462684505,30.379547954795,2575960.8619485,-515.04372642596,2673799.1790488,35.579547954795,0,0
-71.679983689739,13.629045667257,30.38397839784,2575960.8619485,-515.04372642596,2673799.1790488,35.58397839784,0,0
-71.679982982408,13.631628650009,30.388408840884,2575960.8619485,-515.04372642596,2673799.1790488,35.588408840884,0,0
-71.679982275076,13.63421163276,30.392839283928,2575960.8619485,-515.04372642596,2673799.1790488,35.592839283928,0,0
-71.679981567744,13.636794615512,30.397269726973,2575960.8619485,-515.04372642596,2673799.1790488,35.597269726973,0,0
-71.679980860412,13.639377598264,30.401700170017,2575960.8619485,-515.04372642596,2673799.1790488,35.601700170017,0,0
-71.679980153081,13.641960581016,30.406130613061,2575960.8619485,-515.04372642596,2673799.1790488,35.606130613061,0,0
-71.679979445749,13.644543563767,30.410561056106,2575960.8619485,-515.04372642596,2673799.1790488,35.610561056106,0,0
-71.679978738417,13.647126546519,30.41499149915,2575960.8619485,-515.04372642596,2673799.1790488,35.61499149915,0,0
-71.679978031085,13.649709529271,30.419421942194,2575960.8619485,-515.04372642596,2673799.1790488,35.619421942194,0,0
-71.679977323754,13.652292512022,30.423852385239,2575960.8619485,-515.04372642596,2673799.1790488,35.623852385239,0,0
-71.679976616422,13.654875494774,30.428282828283,2575960.8619485,-515.04372642596,2673799.1790488,35.628282828283,0,0
-71.67997590909,13.657458477526,30.432713271327,2575960.8619485,-515.04372642596,2673799.1790488,35.632713271327,0,0
-71.679975201759,13.660041460278,30.437143714371,2575960.8619485,-515.04372642596,2673799.1790488,35.637143714371,0,0
-71.679974494427,13.662624443029,30.441574157416,2575960.8619485,-515.04372642596,2673799.1790488,35.641574157416,0,0
-71.679973787095,13.665207425781,30.44600460046,2575960.8619485,-515.04372642596,2673799.1790488,35.64600460046,0,0
-71.679973079763,13.667790408533,30.450435043504,2575960.8619485,-515.04372642596,2673799.1790488,35.650435043504,0,0
-71.679972372432,13.670373391284,30.454865486549,2575960.8619485,-515.04372642596,2673799.1790488,35.654865486549,0,0
-71.6799716651,13.672956374036,30.459295929593,2575960.8619485,-515.04372642596,2673799.1790488,35.659295929593,0,0
-71.679970957768,13.675539356788,30.463726372637,2575960.8619485,-515.04372642596,2673799.1790488,35.663726372637,0,0
-71.679970250436,13.67812233954,30.468156815682,2575960.8619485,-515.04372642596,2673799.1790488,35.668156815682,0,0
-71.679969543105,13.680705322291,30.472587258726,2575960.8619485,-515.04372642596,2673799.1790488,35.672587258726,0,0
-71.679968835773,13.683288305043,30.47701770177,2575960.8619485,-515.04372642596,2673799.1790488,35.67701770177,0,0
-71.679968128441,13.685871287795,30.481448144814,2575960.8619485,-515.04372642596,2673799.1790488,35.681448144814,0,0
-71.67996742111,13.688454270546,30.485878587859,2575960.8619485,-515.04372642596,2673799.1790488,35.685878587859,0,0
-71.679966713778,13.691037253298,30.490309030903,2575960.8619485,-515.04372642596,2673799.1790488,35.690309030903,0,0
-71.679966006446,13.69362023605,30.494739473947,2575960.8619485,-515.04372642596,2673799.1790488,35.694739473947,0,0
-71.679965299114,13.696203218802,30.499169916992,2575960.8619485,-515.04372642596,2673799.1790488,35.699169916992,0,0
-71.679964591783,13.698786201553,30.503600360036,2575960.8619485,-515.04372642596,2673799.1790488,35.703600360036,0,0
-71.679963884451,13.701369184305,30.50803080308,2575960.8619485,-515.04372642596,2673799.1790488,35.70803080308,0,0
-71.679963177119,13.703952167057,30.512461246125,2575960.8619485,-515.04372642596,2673799.1790488,35.712461246125,0,0
-71.679962469787,13.706535149809,30.516891689169,2575960.8619485,-515.04372642596,2673799.1790488,35.716891689169,0,0
-71.679961762456,13.70911813256,30.521322132213,2575960.8619485,-515.04372642596,2673799.1790488,35.721322132213,0,0
-71.679961055124,13.711701115312,30.525752575258,2575960.8619485,-515.04372642596,2673799.1790488,35.725752575258,0,0
-71.679960347792,13.714284098064,30.530183018302,2575960.8619485,-515.04372642596,2673799.1790488,35.730183018302,0,0
-71.679959640461,13.716867080815,30.534613461346,2575960.8619485,-515.04372642596,2673799.1790488,35.734613461346,0,0
-71.679958933129,13.719450063567,30.53904390439,2575960.8619485,-515.04372642596,2673799.1790488,35.73904390439,0,0
-71.679958225797,13.722033046319,30.543474347435,2575960.8619485,-515.04372642596,2673799.1790488,35.743474347435,0,0
-71.679957518465,13.724616029071,30.547904790479,2575960.8619485,-515.04372642596,2673799.1790488,35.747904790479,0,0
-71.679956811134,13.727199011822,30.552335233523,2575960.8619485,-515.04372642596,2673799.1790488,35.752335233523,0,0
-71.679956103802,13.729781994574,30.556765676568,2575960.8619485,-515.04372642596,2673799.1790488,35.756765676568,0,0
-71.67995539647,13.732364977326,30.561196119612,2575960.8619485,-515.04372642596,2673799.1790488,35.761196119612,0,0
-71.679954689138,13.734947960077,30.565626562656,2575960.8619485,-515.04372642596,2673799.1790488,35.765626562656,0,0
-71.679953981807,13.737530942829,30.570057005701,2575960.8619485,-515.04372642596,2673799.1790488,35.770057005701,0,0
-71.679953274475,13.740113925581,30.574487448745,2575960.8619485,-515.04372642596,2673799.1790488,35.774487448745,0,0
-71.679952567143,13.742696908333,30.578917891789,2575960.8619485,-515.04372642596,2673799.1790488,35.778917891789,0,0
-71.679951859812,13.745279891084,30.583348334833,2575960.8619485,-515.04372642596,2673799.1790488,35.783348334833,0,0
-71.67995115248,13.747862873836,30.587778777878,2575960.8619485,-515.04372642596,2673799.1790488,35.787778777878,0,0
-71.679950445148,13.750445856588,30.592209220922,2575960.8619485,-515.04372642596,2673799.1790488,35.792209220922,0,0
-71.679949737816,13.753028839339,30.596639663966,2575960.8619485,-515.04372642596,2673799.1790488,35.796639663966,0,0
-71.679949030485,13.755611822091,30.601070107011,2575960.8619485,-515.04372642596,2673799.1790488,35.801070107011,0,0
-71.679948323153,13.758194804843,30.605500550055,2575960.8619485,-515.04372642596,2673799.1790488,35.805500550055,0,0
-71.679947615821,13.760777787595,30.609930993099,2575960.8619485,-515.04372642596,2673799.1790488,35.809930993099,0,0
-71.679946908489,13.763360770346,30.614361436144,2575960.8619485,-515.04372642596,2673799.1790488,35.814361436144,0,0
-71.679946201158,13.765943753098,30.618791879188,2575960.8619485,-515.04372642596,2673799.1790488,35.818791879188,0,0
-71.679945493826,13.76852673585,30.623222322232,2575960.8619485,-515.04372642596,2673799.1790488,35.823222322232,0,0
-71.679944786494,13.771109718601,30.627652765277,2575960.8619485,-515.04372642596,2673799.1790488,35.827652765277,0,0
-71.679944079163,13.773692701353,30.632083208321,2575960.8619485,-515.04372642596,2673799.1790488,35.832083208321,0,0
-71.679943371831,13.776275684105,30.636513651365,2575960.8619485,-515.04372642596,2673799.1790488,35.836513651365,0,0
-71.679942664499,13.778858666857,30.640944094409,2575960.8619485,-515.04372642596,2673799.1790488,35.840944094409,0,0
-71.679941957167,13.781441649608,30.645374537454,2575960.8619485,-515.04372642596,2673799.1790488,35.845374537454,0,0
-71.679941249836,13.78402463236,30.649804980498,2575960.8619485,-515.04372642596,2673799.1790488,35.849804980498,0,0
-71.679940542504,13.786607615112,30.654235423542,2575960.8619485,-515.04372642596,2673799.1790488,35.854235423542,0,0
-71.679939835172,13.789190597863,30.658665866587,2575960.8619485,-515.04372642596,2673799.1790488,35.858665866587,0,0
-71.67993912784,13.791773580615,30.663096309631,2575960.8619485,-515.04372642596,2673799.1790488,35.863096309631,0,0
-71.679938420509,13.794356563367,30.667526752675,2575960.8619485,-515.04372642596,2673799.1790488,35.867526752675,0,0
-71.679937713177,13.796939546119,30.67195719572,2575960.8619485,-515.04372642596,2673799.1790488,35.87195719572,0,0
-71.679937005845,13.79952252887,30.676387638764,2575960.8619485,-515.04372642596,2673799.1790488,35.876387638764,0,0
-71.679936298514,13.802105511622,30.680818081808,2575960.8619485,-515.04372642596,2673799.1790488,35.880818081808,0,0
-71.679935591182,13.804688494374,30.685248524852,2575960.8619485,-515.04372642596,2673799.1790488,35.885248524852,0,0
-71.67993488385,13.807271477126,30.689678967897,2575960.8619485,-515.04372642596,2673799.1790488,35.889678967897,0,0
-71.679934176518,13.809854459877,30.694109410941,2575960.8619485,-515.04372642596,2673799.1790488,35.894109410941,0,0
-71.679933469187,13.812437442629,30.698539853985,2575960.8619485,-515.04372642596,2673799.1790488,35.898539853985,0,0
-71.679932761855,13.815020425381,30.70297029703,2575960.8619485,-515.04372642596,2673799.1790488,35.90297029703,0,0
-71.679932054523,13.817603408132,30.707400740074,2575960.8619485,-515.04372642596,2673799.1790488,35.907400740074,0,0
-71.679931347191,13.820186390884,30.711831183118,2575960.8619485,-515.04372642596,2673799.1790488,35.911831183118,0,0
-71.67993063986,13.822769373636,30.716261626163,2575960.8619485,-515.04372642596,2673799.1790488,35.916261626163,0,0
-71.679929932528,13.825352356388,30.720692069207,2575960.8619485,-515.04372642596,2673799.1790488,35.920692069207,0,0
-71.679929225196,13.827935339139,30.725122512251,2575960.8619485,-515.04372642596,2673799.1790488,35.925122512251,0,0
-71.679928517865,13.830518321891,30.729552955296,2575960.8619485,-515.04372642596,2673799.1790488,35.929552955296,0,0
-71.679927810533,13.833101304643,30.73398339834,2575960.8619485,-515.04372642596,2673799.1790488,35.93398339834,0,0
-71.679927103201,13.835684287394,30.738413841384,2575960.8619485,-515.04372642596,2673799.1790488,35.938413841384,0,0
-71.679926395869,13.838267270146,30.742844284428,2575960.8619485,-515.04372642596,2673799.1790488,35.942844284428,0,0
-71.679925688538,13.840850252898,30.747274727473,2575960.8619485,-515.04372642596,2673799.1790488,35.947274727473,0,0
-71.679924981206,13.84343323565,30.751705170517,2575960.8619485,-515.04372642596,2673799.1790488,35.951705170517,0,0
-71.679924273874,13.846016218401,30.756135613561,2575960.8619485,-515.04372642596,2673799.1790488,35.956135613561,0,0
-71.679923566542,13.848599201153,30.760566056606,2575960.8619485,-515.04372642596,2673799.1790488,35.960566056606,0,0
-71.679922859211,13.851182183905,30.76499649965,2575960.8619485,-515.04372642596,2673799.1790488,35.96499649965,0,0
-71.679922151879,13.853765166656,30.769426942694,2575960.8619485,-515.04372642596,2673799.1790488,35.969426942694,0,0
-71.679921444547,13.856348149408,30.773857385739,2575960.8619485,-515.04372642596,2673799.1790488,35.973857385739,0,0
-71.679920737216,13.85893113216,30.778287828783,2575960.8619485,-515.04372642596,2673799.1790488,35.978287828783,0,0
-71.679920029884,13.861514114912,30.782718271827,2575960.8619485,-515.04372642596,2673799.1790488,35.982718271827,0,0
-71.679919322552,13.864097097663,30.787148714871,2575960.8619485,-515.04372642596,2673799.1790488,35.987148714871,0,0
-71.67991861522,13.866680080415,30.791579157916,2575960.8619485,-515.04372642596,2673799.1790488,35.991579157916,0,0
-71.679917907889,13.869263063167,30.79600960096,2575960.8619485,-515.04372642596,2673799.1790488,35.99600960096,0,0
-71.679917200557,13.871846045918,30.800440044004,2575960.8619485,-515.04372642596,2673799.1790488,36.000440044004,0,0
-71.679916493225,13.87442902867,30.804870487049,2575960.8619485,-515.04372642596,2673799.1790488,36.004870487049,0,0
-71.679915785893,13.877012011422,30.809300930093,2575960.8619485,-515.04372642596,2673799.1790488,36.009300930093,0,0
-71.679915078562,13.879594994174,30.813731373137,2575960.8619485,-515.04372642596,2673799.1790488,36.013731373137,0,0
-71.67991437123,13.882177976925,30.818161816182,2575960.8619485,-515.04372642596,2673799.1790488,36.018161816182,0,0
-71.679913663898,13.884760959677,30.822592259226,2575960.8619485,-515.04372642596,2673799.1790488,36.022592259226,0,0
-71.679912956567,13.887343942429,30.82702270227,2575960.8619485,-515.04372642596,2673799.1790488,36.02702270227,0,0
-71.679912249235,13.88992692518,30.831453145315,2575960.8619485,-515.04372642596,2673799.1790488,36.031453145315,0,0
-71.679911541903,13.892509907932,30.835883588359,2575960.8619485,-515.04372642596,2673799.1790488,36.035883588359,0,0
-71.679910834571,13.895092890684,30.840314031403,2575960.8619485,-515.04372642596,2673799.1790488,36.040314031403,0,0
-71.67991012724,13.897675873436,30.844744474447,2575960.8619485,-515.04372642596,2673799.1790488,36.044744474447,0,0
-71.679909419908,13.900258856187,30.849174917492,2575960.8619485,-515.04372642596,2673799.1790488,36.049174917492,0,0
-71.679908712576,13.902841838939,30.853605360536,2575960.8619485,-515.04372642596,2673799.1790488,36.053605360536,0,0
-71.679908005244,13.905424821691,30.85803580358,2575960.8619485,-515.04372642596,2673799.1790488,36.05803580358,0,0
-71.679907297913,13.908007804442,30.862466246625,2575960.8619485,-515.04372642596,2673799.1790488,36.062466246625,0,0
-71.679906590581,13.910590787194,30.866896689669,2575960.8619485,-515.04372642596,2673799.1790488,36.066896689669,0,0
-71.679905883249,13.913173769946,30.871327132713,2575960.8619485,-515.04372642596,2673799.1790488,36.071327132713,0,0
-71.679905175918,13.915756752698,30.875757575758,2575960.8619485,-515.04372642596,2673799.1790488,36.075757575758,0,0
-71.679904468586,13.918339735449,30.880188018802,2575960.8619485,-515.04372642596,2673799.1790488,36.080188018802,0,0
-71.679903761254,13.920922718201,30.884618461846,2575960.8619485,-515.04372642596,2673799.1790488,36.084618461846,0,0
-71.679903053922,13.923505700953,30.88904890489,2575960.8619485,-515.04372642596,2673799.1790488,36.08904890489,0,0
-71.679902346591,13.926088683705,30.893479347935,2575960.8619485,-515.04372642596,2673799.1790488,36.093479347935,0,0
-71.679901639259,13.928671666456,30.897909790979,2575960.8619485,-515.04372642596,2673799.1790488,36.097909790979,0,0
-71.679900931927,13.931254649208,30.902340234023,2575960.8619485,-515.04372642596,2673799.1790488,36.102340234023,0,0
-71.679900224595,13.93383763196,30.906770677068,2575960.8619485,-515.04372642596,2673799.1790488,36.106770677068,0,0
-71.679899517264,13.936420614711,30.911201120112,2575960.8619485,-515.04372642596,2673799.1790488,36.111201120112,0,0
-71.679898809932,13.939003597463,30.915631563156,2575960.8619485,-515.04372642596,2673799.1790488,36.115631563156,0,0
-71.6798981026,13.941586580215,30.920062006201,2575960.8619485,-515.04372642596,2673799.1790488,36.120062006201,0,0
-71.679897395269,13.944169562967,30.924492449245,2575960.8619485,-515.04372642596,2673799.1790488,36.124492449245,0,0
-71.679896687937,13.946752545718,30.928922892289,2575960.8619485,-515.04372642596,2673799.1790488,36.128922892289,0,0
-71.679895980605,13.94933552847,30.933353335334,2575960.8619485,-515.04372642596,2673799.1790488,36.133353335334,0,0
-71.679895273273,13.951918511222,30.937783778378,2575960.8619485,-515.04372642596,2673799.1790488,36.137783778378,0,0
-71.679894565942,13.954501493973,30.942214221422,2575960.8619485,-515.04372642596,2673799.1790488,36.142214221422,0,0
-71.67989385861,13.957084476725,30.946644664466,2575960.8619485,-515.04372642596,2673799.1790488,36.146644664466,0,0
-71.679893151278,13.959667459477,30.951075107511,2575960.8619485,-515.04372642596,2673799.1790488,36.151075107511,0,0
-71.679892443946,13.962250442229,30.955505550555,2575960.8619485,-515.04372642596,2673799.1790488,36.155505550555,0,0
-71.679891736615,13.96483342498,30.959935993599,2575960.8619485,-515.04372642596,2673799.1790488,36.159935993599,0,0
-71.679891029283,13.967416407732,30.964366436644,2575960.8619485,-515.04372642596,2673799.1790488,36.164366436644,0,0
-71.679890321951,13.969999390484,30.968796879688,2575960.8619485,-515.04372642596,2673799.1790488,36.168796879688,0,0
-71.67988961462,13.972582373235,30.973227322732,2575960.8619485,-515.04372642596,2673799.1790488,36.173227322732,0,0
-71.679888907288,13.975165355987,30.977657765777,2575960.8619485,-515.04372642596,2673799.1790488,36.177657765777,0,0
-71.679888199956,13.977748338739,30.982088208821,2575960.8619485,-515.04372642596,2673799.1790488,36.182088208821,0,0
-71.679887492624,13.980331321491,30.986518651865,2575960.8619485,-515.04372642596,2673799.1790488,36.186518651865,0,0
-71.679886785293,13.982914304242,30.990949094909,2575960.8619485,-515.04372642596,2673799.1790488,36.190949094909,0,0
-71.679886077961,13.985497286994,30.995379537954,2575960.8619485,-515.04372642596,2673799.1790488,36.195379537954,0,0
-71.679885370629,13.988080269746,30.999809980998,2575960.8619485,-515.04372642596,2673799.1790488,36.199809980998,0,0
-71.679884663297,13.990663252497,31.004240424042,2575960.8619485,-515.04372642596,2673799.1790488,36.204240424042,0,0
-71.679883955966,13.993246235249,31.008670867087,2575960.8619485,-515.04372642596,2673799.1790488,36.208670867087,0,0
-71.679883248634,13.995829218001,31.013101310131,2575960.8619485,-515.04372642596,2673799.1790488,36.213101310131,0,0
-71.679882541302,13.998412200753,31.017531753175,2575960.8619485,-515.04372642596,2673799.1790488,36.217531753175,0,0
-71.679881833971,14.000995183504,31.02196219622,2575960.8619485,-515.04372642596,2673799.1790488,36.22196219622,0,0
-71.679881126639,14.003578166256,31.026392639264,2575960.8619485,-515.04372642596,2673799.1790488,36.226392639264,0,0
-71.679880419307,14.006161149008,31.030823082308,2575960.8619485,-515.04372642596,2673799.1790488,36.230823082308,0,0
-71.679879711975,14.008744131759,31.035253525353,2575960.8619485,-515.04372642596,2673799.1790488,36.235253525353,0,0
-71.679879004644,14.011327114511,31.039683968397,2575960.8619485,-515.04372642596,2673799.1790488,36.239683968397,0,0
-71.679878297312,14.013910097263,31.044114411441,2575960.8619485,-515.04372642596,2673799.1790488,36.244114411441,0,0
-71.67987758998,14.016493080015,31.048544854485,2575960.8619485,-515.04372642596,2673799.1790488,36.248544854485,0,0
-71.679876882648,14.019076062766,31.05297529753,2575960.8619485,-515.04372642596,2673799.1790488,36.25297529753,0,0
-71.679876175317,14.021659045518,31.057405740574,2575960.8619485,-515.04372642596,2673799.1790488,36.257405740574,0,0
-71.679875467985,14.02424202827,31.061836183618,2575960.8619485,-515.04372642596,2673799.1790488,36.261836183618,0,0
-71.679874760653,14.026825011022,31.066266626663,2575960.8619485,-515.04372642596,2673799.1790488,36.266266626663,0,0
-71.679874053321,14.029407993773,31.070697069707,2575960.8619485,-515.04372642596,2673799.1790488,36.270697069707,0,0
-71.67987334599,14.031990976525,31.075127512751,2575960.8619485,-515.04372642596,2673799.1790488,36.275127512751,0,0
-71.679872638658,14.034573959277,31.079557955796,2575960.8619485,-515.04372642596,2673799.1790488,36.279557955796,0,0
-71.679871931326,14.037156942028,31.08398839884,2575960.8619485,-515.04372642596,2673799.1790488,36.28398839884,0,0
-71.679871223995,14.03973992478,31.088418841884,2575960.8619485,-515.04372642596,2673799.1790488,36.288418841884,0,0
-71.679870516663,14.042322907532,31.092849284928,2575960.8619485,-515.04372642596,2673799.1790488,36.292849284928,0,0
-71.679869809331,14.044905890284,31.097279727973,2575960.8619485,-515.04372642596,2673799.1790488,36.297279727973,0,0
-71.679869101999,14.047488873035,31.101710171017,2575960.8619485,-515.04372642596,2673799.1790488,36.301710171017,0,0
-71.679868394668,14.050071855787,31.106140614061,2575960.8619485,-515.04372642596,2673799.1790488,36.306140614061,0,0
-71.679867687336,14.052654838539,31.110571057106,2575960.8619485,-515.04372642596,2673799.1790488,36.310571057106,0,0
-71.679866980004,14.05523782129,31.11500150015,2575960.8619485,-515.04372642596,2673799.1790488,36.31500150015,0,0
-71.679866272672,14.057820804042,31.119431943194,2575960.8619485,-515.04372642596,2673799.1790488,36.319431943194,0,0
-71.679865565341,14.060403786794,31.123862386239,2575960.8619485,-515.04372642596,2673799.1790488,36.323862386239,0,0
-71.679864858009,14.062986769546,31.128292829283,2575960.8619485,-515.04372642596,2673799.1790488,36.328292829283,0,0
-71.679864150677,14.065569752297,31.132723272327,2575960.8619485,-515.04372642596,2673799.1790488,36.332723272327,0,0
-71.679863443346,14.068152735049,31.137153715372,2575960.8619485,-515.04372642596,2673799.1790488,36.337153715372,0,0
-71.679862736014,14.070735717801,31.141584158416,2575960.8619485,-515.04372642596,2673799.1790488,36.341584158416,0,0
-71.679862028682,14.073318700552,31.14601460146,2575960.8619485,-515.04372642596,2673799.1790488,36.34601460146,0,0
-71.67986132135,14.075901683304,31.150445044504,2575960.8619485,-515.04372642596,2673799.1790488,36.350445044504,0,0
-71.679860614019,14.078484666056,31.154875487549,2575960.8619485,-515.04372642596,2673799.1790488,36.354875487549,0,0
-71.679859906687,14.081067648808,31.159305930593,2575960.8619485,-515.04372642596,2673799.1790488,36.359305930593,0,0
-71.679859199355,14.083650631559,31.163736373637,2575960.8619485,-515.04372642596,2673799.1790488,36.363736373637,0,0
-71.679858492023,14.086233614311,31.168166816682,2575960.8619485,-515.04372642596,2673799.1790488,36.368166816682,0,0
-71.679857784692,14.088816597063,31.172597259726,2575960.8619485,-515.04372642596,2673799.1790488,36.372597259726,0,0
-71.67985707736,14.091399579814,31.17702770277,2575960.8619485,-515.04372642596,2673799.1790488,36.37702770277,0,0
-71.679856370028,14.093982562566,31.181458145815,2575960.8619485,-515.04372642596,2673799.1790488,36.381458145815,0,0
-71.679855662697,14.096565545318,31.185888588859,2575960.8619485,-515.04372642596,2673799.1790488,36.385888588859,0,0
-71.679854955365,14.09914852807,31.190319031903,2575960.8619485,-515.04372642596,2673799.1790488,36.390319031903,0,0
-71.679854248033,14.101731510821,31.194749474947,2575960.8619485,-515.04372642596,2673799.1790488,36.394749474947,0,0
-71.679853540701,14.104314493573,31.199179917992,2575960.8619485,-515.04372642596,2673799.1790488,36.399179917992,0,0
-71.67985283337,14.106897476325,31.203610361036,2575960.8619485,-515.04372642596,2673799.1790488,36.403610361036,0,0
-71.679852126038,14.109480459076,31.20804080408,2575960.8619485,-515.04372642596,2673799.1790488,36.40804080408,0,0
-71.679851418706,14.112063441828,31.212471247125,2575960.8619485,-515.04372642596,2673799.1790488,36.412471247125,0,0
-71.679850711374,14.11464642458,31.216901690169,2575960.8619485,-515.04372642596,2673799.1790488,36.416901690169,0,0
-71.679850004043,14.117229407332,31.221332133213,2575960.8619485,-515.04372642596,2673799.1790488,36.421332133213,0,0
-71.679849296711,14.119812390083,31.225762576258,2575960.8619485,-515.04372642596,2673799.1790488,36.425762576258,0,0
-71.679848589379,14.122395372835,31.230193019302,2575960.8619485,-515.04372642596,2673799.1790488,36.430193019302,0,0
-71.679847882048,14.124978355587,31.234623462346,2575960.8619485,-515.04372642596,2673799.1790488,36.434623462346,0,0
-71.679847174716,14.127561338338,31.239053905391,2575960.8619485,-515.04372642596,2673799.1790488,36.439053905391,0,0
-71.679846467384,14.13014432109,31.243484348435,2575960.8619485,-515.04372642596,2673799.1790488,36.443484348435,0,0
-71.679845760052,14.132727303842,31.247914791479,2575960.8619485,-515.04372642596,2673799.1790488,36.447914791479,0,0
-71.679845052721,14.135310286594,31.252345234523,2575960.8619485,-515.04372642596,2673799.1790488,36.452345234523,0,0
-71.679844345389,14.137893269345,31.256775677568,2575960.8619485,-515.04372642596,2673799.1790488,36.456775677568,0,0
-71.679843638057,14.140476252097,31.261206120612,2575960.8619485,-515.04372642596,2673799.1790488,36.461206120612,0,0
-71.679842930725,14.143059234849,31.265636563656,2575960.8619485,-515.04372642596,2673799.1790488,36.465636563656,0,0
-71.679842223394,14.145642217601,31.270067006701,2575960.8619485,-515.04372642596,2673799.1790488,36.470067006701,0,0
-71.679841516062,14.148225200352,31.274497449745,2575960.8619485,-515.04372642596,2673799.1790488,36.474497449745,0,0
-71.67984080873,14.150808183104,31.278927892789,2575960.8619485,-515.04372642596,2673799.1790488,36.478927892789,0,0
-71.679840101399,14.153391165856,31.283358335834,2575960.8619485,-515.04372642596,2673799.1790488,36.483358335834,0,0
-71.679839394067,14.155974148607,31.287788778878,2575960.8619485,-515.04372642596,2673799.1790488,36.487788778878,0,0
-71.679838686735,14.158557131359,31.292219221922,2575960.8619485,-515.04372642596,2673799.1790488,36.492219221922,0,0
-71.679837978971,14.161140113475,31.296649664966,2578912.7420141,-1732.0659081873,2671234.8858197,36.496649664966,0,0
-71.679837270985,14.163723095264,31.301080108011,2578912.7420141,-1732.0659081873,2671234.8858197,36.501080108011,0,0
-71.679836562998,14.166306077052,31.305510551055,2578912.7420141,-1732.0659081873,2671234.8858197,36.505510551055,0,0
-71.679835855011,14.16888905884,31.309940994099,2578912.7420141,-1732.0659081873,2671234.8858197,36.509940994099,0,0
-71.679835147025,14.171472040628,31.314371437144,2578912.7420141,-1732.0659081873,2671234.8858197,36.514371437144,0,0
-71.679834439038,14.174055022417,31.318801880188,2578912.7420141,-1732.0659081873,2671234.8858197,36.518801880188,0,0
-71.679833731051,14.176638004205,31.323232323232,2578912.7420141,-1732.0659081873,2671234.8858197,36.523232323232,0,0
-71.679833023065,14.179220985993,31.327662766277,2578912.7420141,-1732.0659081873,2671234.8858197,36.527662766277,0,0
-71.679832315078,14.181803967781,31.332093209321,2578912.7420141,-1732.0659081873,2671234.8858197,36.532093209321,0,0
-71.679831607091,14.18438694957,31.336523652365,2578912.7420141,-1732.0659081873,2671234.8858197,36.536523652365,0,0
-71.679830899105,14.186969931358,31.34095409541,2578912.7420141,-1732.0659081873,2671234.8858197,36.54095409541,0,0
-71.679830191118,14.189552913146,31.345384538454,2578912.7420141,-1732.0659081873,2671234.8858197,36.545384538454,0,0
-71.679829483131,14.192135894935,31.349814981498,2578912.7420141,-1732.0659081873,2671234.8858197,36.549814981498,0,0
-71.679828775145,14.194718876723,31.354245424542,2578912.7420141,-1732.0659081873,2671234.8858197,36.554245424542,0,0
-71.679828067158,14.197301858511,31.358675867587,2578912.7420141,-1732.0659081873,2671234.8858197,36.558675867587,0,0
-71.679827359171,14.199884840299,31.363106310631,2578912.7420141,-1732.0659081873,2671234.8858197,36.563106310631,0,0
-71.679826651185,14.202467822088,31.367536753675,2578912.7420141,-1732.0659081873,2671234.8858197,36.567536753675,0,0
-71.679825943198,14.205050803876,31.37196719672,2578912.7420141,-1732.0659081873,2671234.8858197,36.57196719672,0,0
-71.679825235211,14.207633785664,31.376397639764,2578912.7420141,-1732.0659081873,2671234.8858197,36.576397639764,0,0
-71.679824527225,14.210216767452,31.380828082808,2578912.7420141,-1732.0659081873,2671234.8858197,36.580828082808,0,0
-71.679823819238,14.212799749241,31.385258525853,2578912.7420141,-1732.0659081873,2671234.8858197,36.585258525853,0,0
-71.679823111251,14.215382731029,31.389688968897,2578912.7420141,-1732.0659081873,2671234.8858197,36.589688968897,0,0
-71.679822403265,14.217965712817,31.394119411941,2578912.7420141,-1732.0659081873,2671234.8858197,36.594119411941,0,0
-71.679821695278,14.220548694606,31.398549854986,2578912.7420141,-1732.0659081873,2671234.8858197,36.598549854985,0,0
-71.679820987291,14.223131676394,31.40298029803,2578912.7420141,-1732.0659081873,2671234.8858197,36.60298029803,0,0
-71.679820279304,14.225714658182,31.407410741074,2578912.7420141,-1732.0659081873,2671234.8858197,36.607410741074,0,0
-71.679819571318,14.22829763997,31.411841184118,2578912.7420141,-1732.0659081873,2671234.8858197,36.611841184118,0,0
-71.679818863331,14.230880621759,31.416271627163,2578912.7420141,-1732.0659081873,2671234.8858197,36.616271627163,0,0
-71.679818155344,14.233463603547,31.420702070207,2578912.7420141,-1732.0659081873,2671234.8858197,36.620702070207,0,0
-71.679817447358,14.236046585335,31.425132513251,2578912.7420141,-1732.0659081873,2671234.8858197,36.625132513251,0,0
-71.679816739371,14.238629567123,31.429562956296,2578912.7420141,-1732.0659081873,2671234.8858197,36.629562956296,0,0
-71.679816031384,14.241212548912,31.43399339934,2578912.7420141,-1732.0659081873,2671234.8858197,36.63399339934,0,0
-71.679815323398,14.2437955307,31.438423842384,2578912.7420141,-1732.0659081873,2671234.8858197,36.638423842384,0,0
-71.679814615411,14.246378512488,31.442854285429,2578912.7420141,-1732.0659081873,2671234.8858197,36.642854285429,0,0
-71.679813907424,14.248961494276,31.447284728473,2578912.7420141,-1732.0659081873,2671234.8858197,36.647284728473,0,0
-71.679813199438,14.251544476065,31.451715171517,2578912.7420141,-1732.0659081873,2671234.8858197,36.651715171517,0,0
-71.679812491451,14.254127457853,31.456145614561,2578912.7420141,-1732.0659081873,2671234.8858197,36.656145614561,0,0
-71.679811783464,14.256710439641,31.460576057606,2578912.7420141,-1732.0659081873,2671234.8858197,36.660576057606,0,0
-71.679811075478,14.25929342143,31.46500650065,2578912.7420141,-1732.0659081873,2671234.8858197,36.66500650065,0,0
-71.679810367491,14.261876403218,31.469436943694,2578912.7420141,-1732.0659081873,2671234.8858197,36.669436943694,0,0
-71.679809659504,14.264459385006,31.473867386739,2578912.7420141,-1732.0659081873,2671234.8858197,36.673867386739,0,0
-71.679808951518,14.267042366794,31.478297829783,2578912.7420141,-1732.0659081873,2671234.8858197,36.678297829783,0,0
-71.679808243531,14.269625348583,31.482728272827,2578912.7420141,-1732.0659081873,2671234.8858197,36.682728272827,0,0
-71.679807535544,14.272208330371,31.487158715872,2578912.7420141,-1732.0659081873,2671234.8858197,36.687158715872,0,0
-71.679806827558,14.274791312159,31.491589158916,2578912.7420141,-1732.0659081873,2671234.8858197,36.691589158916,0,0
-71.679806119571,14.277374293947,31.49601960196,2578912.7420141,-1732.0659081873,2671234.8858197,36.69601960196,0,0
-71.679805411584,14.279957275736,31.500450045005,2578912.7420141,-1732.0659081873,2671234.8858197,36.700450045005,0,0
-71.679804703598,14.282540257524,31.504880488049,2578912.7420141,-1732.0659081873,2671234.8858197,36.704880488049,0,0
-71.679803995611,14.285123239312,31.509310931093,2578912.7420141,-1732.0659081873,2671234.8858197,36.709310931093,0,0
-71.679803287624,14.287706221101,31.513741374137,2578912.7420141,-1732.0659081873,2671234.8858197,36.713741374137,0,0
-71.679802579638,14.290289202889,31.518171817182,2578912.7420141,-1732.0659081873,2671234.8858197,36.718171817182,0,0
-71.679801871651,14.292872184677,31.522602260226,2578912.7420141,-1732.0659081873,2671234.8858197,36.722602260226,0,0
-71.679801163664,14.295455166465,31.52703270327,2578912.7420141,-1732.0659081873,2671234.8858197,36.72703270327,0,0
-71.679800455678,14.298038148254,31.531463146315,2578912.7420141,-1732.0659081873,2671234.8858197,36.731463146315,0,0
-71.679799747691,14.300621130042,31.535893589359,2578912.7420141,-1732.0659081873,2671234.8858197,36.735893589359,0,0
-71.679799039704,14.30320411183,31.540324032403,2578912.7420141,-1732.0659081873,2671234.8858197,36.740324032403,0,0
-71.679798331718,14.305787093618,31.544754475448,2578912.7420141,-1732.0659081873,2671234.8858197,36.744754475448,0,0
-71.679797623731,14.308370075407,31.549184918492,2578912.7420141,-1732.0659081873,2671234.8858197,36.749184918492,0,0
-71.679796915744,14.310953057195,31.553615361536,2578912.7420141,-1732.0659081873,2671234.8858197,36.753615361536,0,0
-71.679796207758,14.313536038983,31.55804580458,2578912.7420141,-1732.0659081873,2671234.8858197,36.75804580458,0,0
-71.679795499771,14.316119020772,31.562476247625,2578912.7420141,-1732.0659081873,2671234.8858197,36.762476247625,0,0
-71.679794791784,14.31870200256,31.566906690669,2578912.7420141,-1732.0659081873,2671234.8858197,36.766906690669,0,0
-71.679794083797,14.321284984348,31.571337133713,2578912.7420141,-1732.0659081873,2671234.8858197,36.771337133713,0,0
-71.679793375811,14.323867966136,31.575767576758,2578912.7420141,-1732.0659081873,2671234.8858197,36.775767576758,0,0
-71.679792667824,14.326450947925,31.580198019802,2578912.7420141,-1732.0659081873,2671234.8858197,36.780198019802,0,0
-71.679791959837,14.329033929713,31.584628462846,2578912.7420141,-1732.0659081873,2671234.8858197,36.784628462846,0,0
-71.679791251851,14.331616911501,31.589058905891,2578912.7420141,-1732.0659081873,2671234.8858197,36.789058905891,0,0
-71.679790543864,14.334199893289,31.593489348935,2578912.7420141,-1732.0659081873,2671234.8858197,36.793489348935,0,0
-71.679789835877,14.336782875078,31.597919791979,2578912.7420141,-1732.0659081873,2671234.8858197,36.797919791979,0,0
-71.679789127891,14.339365856866,31.602350235024,2578912.7420141,-1732.0659081873,2671234.8858197,36.802350235024,0,0
-71.679788419904,14.341948838654,31.606780678068,2578912.7420141,-1732.0659081873,2671234.8858197,36.806780678068,0,0
-71.679787711917,14.344531820442,31.611211121112,2578912.7420141,-1732.0659081873,2671234.8858197,36.811211121112,0,0
-71.679787003931,14.347114802231,31.615641564156,2578912.7420141,-1732.0659081873,2671234.8858197,36.815641564156,0,0
-71.679786295944,14.349697784019,31.620072007201,2578912.7420141,-1732.0659081873,2671234.8858197,36.820072007201,0,0
-71.679785587957,14.352280765807,31.624502450245,2578912.7420141,-1732.0659081873,2671234.8858197,36.824502450245,0,0
-71.679784879971,14.354863747596,31.628932893289,2578912.7420141,-1732.0659081873,2671234.8858197,36.828932893289,0,0
-71.679784171984,14.357446729384,31.633363336334,2578912.7420141,-1732.0659081873,2671234.8858197,36.833363336334,0,0
-71.679783463997,14.360029711172,31.637793779378,2578912.7420141,-1732.0659081873,2671234.8858197,36.837793779378,0,0
-71.679782756011,14.36261269296,31.642224222422,2578912.7420141,-1732.0659081873,2671234.8858197,36.842224222422,0,0
-71.679782048024,14.365195674749,31.646654665467,2578912.7420141,-1732.0659081873,2671234.8858197,36.846654665467,0,0
-71.679781340037,14.367778656537,31.651085108511,2578912.7420141,-1732.0659081873,2671234.8858197,36.851085108511,0,0
-71.679780632051,14.370361638325,31.655515551555,2578912.7420141,-1732.0659081873,2671234.8858197,36.855515551555,0,0
-71.679779924064,14.372944620113,31.659945994599,2578912.7420141,-1732.0659081873,2671234.8858197,36.859945994599,0,0
-71.679779216077,14.375527601902,31.664376437644,2578912.7420141,-1732.0659081873,2671234.8858197,36.864376437644,0,0
-71.679778508091,14.37811058369,31.668806880688,2578912.7420141,-1732.0659081873,2671234.8858197,36.868806880688,0,0
-71.679777800104,14.380693565478,31.673237323732,2578912.7420141,-1732.0659081873,2671234.8858197,36.873237323732,0,0
-71.679777092117,14.383276547267,31.677667766777,2578912.7420141,-1732.0659081873,2671234.8858197,36.877667766777,0,0
-71.679776384131,14.385859529055,31.682098209821,2578912.7420141,-1732.0659081873,2671234.8858197,36.882098209821,0,0
-71.679775676144,14.388442510843,31.686528652865,2578912.7420141,-1732.0659081873,2671234.8858197,36.886528652865,0,0
-71.679774968157,14.391025492631,31.69095909591,2578912.7420141,-1732.0659081873,2671234.8858197,36.89095909591,0,0
-71.679774260171,14.39360847442,31.695389538954,2578912.7420141,-1732.0659081873,2671234.8858197,36.895389538954,0,0
-71.679773552184,14.396191456208,31.699819981998,2578912.7420141,-1732.0659081873,2671234.8858197,36.899819981998,0,0
-71.679772844197,14.398774437996,31.704250425043,2578912.7420141,-1732.0659081873,2671234.8858197,36.904250425043,0,0
-71.679772136211,14.401357419784,31.708680868087,2578912.7420141,-1732.0659081873,2671234.8858197,36.908680868087,0,0
-71.679771428224,14.403940401573,31.713111311131,2578912.7420141,-1732.0659081873,2671234.8858197,36.913111311131,0,0
-71.679770720237,14.406523383361,31.717541754175,2578912.7420141,-1732.0659081873,2671234.8858197,36.917541754175,0,0
-71.679770012251,14.409106365149,31.72197219722,2578912.7420141,-1732.0659081873,2671234.8858197,36.92197219722,0,0
-71.679769304264,14.411689346938,31.726402640264,2578912.7420141,-1732.0659081873,2671234.8858197,36.926402640264,0,0
-71.679768596277,14.414272328726,31.730833083308,2578912.7420141,-1732.0659081873,2671234.8858197,36.930833083308,0,0
-71.67976788829,14.416855310514,31.735263526353,2578912.7420141,-1732.0659081873,2671234.8858197,36.935263526353,0,0
-71.679767180304,14.419438292302,31.739693969397,2578912.7420141,-1732.0659081873,2671234.8858197,36.939693969397,0,0
-71.679766472317,14.422021274091,31.744124412441,2578912.7420141,-1732.0659081873,2671234.8858197,36.944124412441,0,0
-71.67976576433,14.424604255879,31.748554855486,2578912.7420141,-1732.0659081873,2671234.8858197,36.948554855486,0,0
-71.679765056344,14.427187237667,31.75298529853,2578912.7420141,-1732.0659081873,2671234.8858197,36.95298529853,0,0
-71.679764348357,14.429770219455,31.757415741574,2578912.7420141,-1732.0659081873,2671234.8858197,36.957415741574,0,0
-71.67976364037,14.432353201244,31.761846184618,2578912.7420141,-1732.0659081873,2671234.8858197,36.961846184618,0,0
-71.679762932384,14.434936183032,31.766276627663,2578912.7420141,-1732.0659081873,2671234.8858197,36.966276627663,0,0
-71.679762224397,14.43751916482,31.770707070707,2578912.7420141,-1732.0659081873,2671234.8858197,36.970707070707,0,0
-71.67976151641,14.440102146609,31.775137513751,2578912.7420141,-1732.0659081873,2671234.8858197,36.975137513751,0,0
-71.679760808424,14.442685128397,31.779567956796,2578912.7420141,-1732.0659081873,2671234.8858197,36.979567956796,0,0
-71.679760100437,14.445268110185,31.78399839984,2578912.7420141,-1732.0659081873,2671234.8858197,36.98399839984,0,0
-71.67975939245,14.447851091973,31.788428842884,2578912.7420141,-1732.0659081873,2671234.8858197,36.988428842884,0,0
-71.679758684464,14.450434073762,31.792859285929,2578912.7420141,-1732.0659081873,2671234.8858197,36.992859285929,0,0
-71.679757976477,14.45301705555,31.797289728973,2578912.7420141,-1732.0659081873,2671234.8858197,36.997289728973,0,0
-71.67975726849,14.455600037338,31.801720172017,2578912.7420141,-1732.0659081873,2671234.8858197,37.001720172017,0,0
-71.679756560504,14.458183019126,31.806150615062,2578912.7420141,-1732.0659081873,2671234.8858197,37.006150615062,0,0
-71.679755852517,14.460766000915,31.810581058106,2578912.7420141,-1732.0659081873,2671234.8858197,37.010581058106,0,0
-71.67975514453,14.463348982703,31.81501150115,2578912.7420141,-1732.0659081873,2671234.8858197,37.01501150115,0,0
-71.679754436544,14.465931964491,31.819441944194,2578912.7420141,-1732.0659081873,2671234.8858197,37.019441944194,0,0
-71.679753728557,14.468514946279,31.823872387239,2578912.7420141,-1732.0659081873,2671234.8858197,37.023872387239,0,0
-71.67975302057,14.471097928068,31.828302830283,2578912.7420141,-1732.0659081873,2671234.8858197,37.028302830283,0,0
-71.679752312584,14.473680909856,31.832733273327,2578912.7420141,-1732.0659081873,2671234.8858197,37.032733273327,0,0
-71.679751604597,14.476263891644,31.837163716372,2578912.7420141,-1732.0659081873,2671234.8858197,37.037163716372,0,0
-71.67975089661,14.478846873433,31.841594159416,2578912.7420141,-1732.0659081873,2671234.8858197,37.041594159416,0,0
-71.679750188624,14.481429855221,31.84602460246,2578912.7420141,-1732.0659081873,2671234.8858197,37.04602460246,0,0
-71.679749480637,14.484012837009,31.850455045505,2578912.7420141,-1732.0659081873,2671234.8858197,37.050455045505,0,0
-71.67974877265,14.486595818797,31.854885488549,2578912.7420141,-1732.0659081873,2671234.8858197,37.054885488549,0,0
-71.679748064664,14.489178800586,31.859315931593,2578912.7420141,-1732.0659081873,2671234.8858197,37.059315931593,0,0
-71.679747356677,14.491761782374,31.863746374637,2578912.7420141,-1732.0659081873,2671234.8858197,37.063746374637,0,0
-71.67974664869,14.494344764162,31.868176817682,2578912.7420141,-1732.0659081873,2671234.8858197,37.068176817682,0,0
-71.679745940704,14.49692774595,31.872607260726,2578912.7420141,-1732.0659081873,2671234.8858197,37.072607260726,0,0
-71.679745232717,14.499510727739,31.87703770377,2578912.7420141,-1732.0659081873,2671234.8858197,37.07703770377,0,0
-71.67974452473,14.502093709527,31.881468146815,2578912.7420141,-1732.0659081873,2671234.8858197,37.081468146815,0,0
-71.679743816744,14.504676691315,31.885898589859,2578912.7420141,-1732.0659081873,2671234.8858197,37.085898589859,0,0
-71.679743108757,14.507259673104,31.890329032903,2578912.7420141,-1732.0659081873,2671234.8858197,37.090329032903,0,0
-71.67974240077,14.509842654892,31.894759475948,2578912.7420141,-1732.0659081873,2671234.8858197,37.094759475948,0,0
-71.679741692784,14.51242563668,31.899189918992,2578912.7420141,-1732.0659081873,2671234.8858197,37.099189918992,0,0
-71.679740984797,14.515008618468,31.903620362036,2578912.7420141,-1732.0659081873,2671234.8858197,37.103620362036,0,0
-71.67974027681,14.517591600257,31.908050805081,2578912.7420141,-1732.0659081873,2671234.8858197,37.108050805081,0,0
-71.679739568823,14.520174582045,31.912481248125,2578912.7420141,-1732.0659081873,2671234.8858197,37.112481248125,0,0
-71.679738860837,14.522757563833,31.916911691169,2578912.7420141,-1732.0659081873,2671234.8858197,37.116911691169,0,0
-71.67973815285,14.525340545621,31.921342134213,2578912.7420141,-1732.0659081873,2671234.8858197,37.121342134213,0,0
-71.679737444863,14.52792352741,31.925772577258,2578912.7420141,-1732.0659081873,2671234.8858197,37.125772577258,0,0
-71.679736736877,14.530506509198,31.930203020302,2578912.7420141,-1732.0659081873,2671234.8858197,37.130203020302,0,0
-71.67973602889,14.533089490986,31.934633463346,2578912.7420141,-1732.0659081873,2671234.8858197,37.134633463346,0,0
-71.679735320903,14.535672472775,31.939063906391,2578912.7420141,-1732.0659081873,2671234.8858197,37.139063906391,0,0
-71.679734612917,14.538255454563,31.943494349435,2578912.7420141,-1732.0659081873,2671234.8858197,37.143494349435,0,0
-71.679733904525,14.540838436805,31.947924792479,2582536.385506,-774.1732843782,2669802.8988765,37.147924792479,0,0
-71.679733195812,14.543421419409,31.952355235524,2582536.385506,-774.1732843782,2669802.8988765,37.152355235524,0,0
-71.679732487099,14.546004402012,31.956785678568,2582536.385506,-774.1732843782,2669802.8988765,37.156785678568,0,0
-71.679731778385,14.548587384616,31.961216121612,2582536.385506,-774.1732843782,2669802.8988765,37.161216121612,0,0
-71.679731069672,14.551170367219,31.965646564656,2582536.385506,-774.1732843782,2669802.8988765,37.165646564656,0,0
-71.679730360959,14.553753349823,31.970077007701,2582536.385506,-774.1732843782,2669802.8988765,37.170077007701,0,0
-71.679729652246,14.556336332426,31.974507450745,2582536.385506,-774.1732843782,2669802.8988765,37.174507450745,0,0
-71.679728943532,14.55891931503,31.978937893789,2582536.385506,-774.1732843782,2669802.8988765,37.178937893789,0,0
-71.679728234819,14.561502297633,31.983368336834,2582536.385506,-774.1732843782,2669802.8988765,37.183368336834,0,0
-71.679727526106,14.564085280237,31.987798779878,2582536.385506,-774.1732843782,2669802.8988765,37.187798779878,0,0
-71.679726817392,14.566668262841,31.992229222922,2582536.385506,-774.1732843782,2669802.8988765,37.192229222922,0,0
-71.679726108679,14.569251245444,31.996659665967,2582536.385506,-774.1732843782,2669802.8988765,37.196659665967,0,0
-71.679725399966,14.571834228048,32.001090109011,2582536.385506,-774.1732843782,2669802.8988765,37.201090109011,0,0
-71.679724691253,14.574417210651,32.005520552055,2582536.385506,-774.1732843782,2669802.8988765,37.205520552055,0,0
-71.679723982539,14.577000193255,32.0099509951,2582536.385506,-774.1732843782,2669802.8988765,37.2099509951,0,0
-71.679723273826,14.579583175858,32.014381438144,2582536.385506,-774.1732843782,2669802.8988765,37.214381438144,0,0
-71.679722565113,14.582166158462,32.018811881188,2582536.385506,-774.1732843782,2669802.8988765,37.218811881188,0,0
-71.679721856399,14.584749141065,32.023242324232,2582536.385506,-774.1732843782,2669802.8988765,37.223242324232,0,0
-71.679721147686,14.587332123669,32.027672767277,2582536.385506,-774.1732843782,2669802.8988765,37.227672767277,0,0
-71.679720438973,14.589915106272,32.032103210321,2582536.385506,-774.1732843782,2669802.8988765,37.232103210321,0,0
-71.67971973026,14.592498088876,32.036533653365,2582536.385506,-774.1732843782,2669802.8988765,37.236533653365,0,0
-71.679719021546,14.595081071479,32.04096409641,2582536.385506,-774.1732843782,2669802.8988765,37.24096409641,0,0
-71.679718312833,14.597664054083,32.045394539454,2582536.385506,-774.1732843782,2669802.8988765,37.245394539454,0,0
-71.67971760412,14.600247036686,32.049824982498,2582536.385506,-774.1732843782,2669802.8988765,37.249824982498,0,0
-71.679716895407,14.60283001929,32.054255425543,2582536.385506,-774.1732843782,2669802.8988765,37.254255425543,0,0
-71.679716186693,14.605413001893,32.058685868587,2582536.385506,-774.1732843782,2669802.8988765,37.258685868587,0,0
-71.67971547798,14.607995984497,32.063116311631,2582536.385506,-774.1732843782,2669802.8988765,37.263116311631,0,0
-71.679714769267,14.6105789671,32.067546754675,2582536.385506,-774.1732843782,2669802.8988765,37.267546754675,0,0
-71.679714060553,14.613161949704,32.07197719772,2582536.385506,-774.1732843782,2669802.8988765,37.27197719772,0,0
-71.67971335184,14.615744932307,32.076407640764,2582536.385506,-774.1732843782,2669802.8988765,37.276407640764,0,0
-71.679712643127,14.618327914911,32.080838083808,2582536.385506,-774.1732843782,2669802.8988765,37.280838083808,0,0
-71.679711934414,14.620910897514,32.085268526853,2582536.385506,-774.1732843782,2669802.8988765,37.285268526853,0,0
-71.6797112257,14.623493880118,32.089698969897,2582536.385506,-774.1732843782,2669802.8988765,37.289698969897,0,0
-71.679710516987,14.626076862721,32.094129412941,2582536.385506,-774.1732843782,2669802.8988765,37.294129412941,0,0
-71.679709808274,14.628659845325,32.098559855986,2582536.385506,-774.1732843782,2669802.8988765,37.298559855986,0,0
-71.67970909956,14.631242827928,32.10299029903,2582536.385506,-774.1732843782,2669802.8988765,37.30299029903,0,0
-71.679708390847,14.633825810532,32.107420742074,2582536.385506,-774.1732843782,2669802.8988765,37.307420742074,0,0
-71.679707682134,14.636408793136,32.111851185119,2582536.385506,-774.1732843782,2669802.8988765,37.311851185119,0,0
-71.679706973421,14.638991775739,32.116281628163,2582536.385506,-774.1732843782,2669802.8988765,37.316281628163,0,0
-71.679706264707,14.641574758343,32.120712071207,2582536.385506,-774.1732843782,2669802.8988765,37.320712071207,0,0
-71.679705555994,14.644157740946,32.125142514251,2582536.385506,-774.1732843782,2669802.8988765,37.325142514251,0,0
-71.679704847281,14.64674072355,32.129572957296,2582536.385506,-774.1732843782,2669802.8988765,37.329572957296,0,0
-71.679704138567,14.649323706153,32.13400340034,2582536.385506,-774.1732843782,2669802.8988765,37.33400340034,0,0
-71.679703429854,14.651906688757,32.138433843384,2582536.385506,-774.1732843782,2669802.8988765,37.338433843384,0,0
-71.679702721141,14.65448967136,32.142864286429,2582536.385506,-774.1732843782,2669802.8988765,37.342864286429,0,0
-71.679702012428,14.657072653964,32.147294729473,2582536.385506,-774.1732843782,2669802.8988765,37.347294729473,0,0
-71.679701303714,14.659655636567,32.151725172517,2582536.385506,-774.1732843782,2669802.8988765,37.351725172517,0,0
-71.679700595001,14.662238619171,32.156155615562,2582536.385506,-774.1732843782,2669802.8988765,37.356155615562,0,0
-71.679699886288,14.664821601774,32.160586058606,2582536.385506,-774.1732843782,2669802.8988765,37.360586058606,0,0
-71.679699177575,14.667404584378,32.16501650165,2582536.385506,-774.1732843782,2669802.8988765,37.36501650165,0,0
-71.679698468861,14.669987566981,32.169446944694,2582536.385506,-774.1732843782,2669802.8988765,37.369446944694,0,0
-71.679697760148,14.672570549585,32.173877387739,2582536.385506,-774.1732843782,2669802.8988765,37.373877387739,0,0
-71.679697051435,14.675153532188,32.178307830783,2582536.385506,-774.1732843782,2669802.8988765,37.378307830783,0,0
-71.679696342721,14.677736514792,32.182738273827,2582536.385506,-774.1732843782,2669802.8988765,37.382738273827,0,0
-71.679695634008,14.680319497395,32.187168716872,2582536.385506,-774.1732843782,2669802.8988765,37.387168716872,0,0
-71.679694925295,14.682902479999,32.191599159916,2582536.385506,-774.1732843782,2669802.8988765,37.391599159916,0,0
-71.679694216582,14.685485462602,32.19602960296,2582536.385506,-774.1732843782,2669802.8988765,37.39602960296,0,0
-71.679693507868,14.688068445206,32.200460046005,2582536.385506,-774.1732843782,2669802.8988765,37.400460046005,0,0
-71.679692799155,14.690651427809,32.204890489049,2582536.385506,-774.1732843782,2669802.8988765,37.404890489049,0,0
-71.679692090442,14.693234410413,32.209320932093,2582536.385506,-774.1732843782,2669802.8988765,37.409320932093,0,0
-71.679691381728,14.695817393016,32.213751375138,2582536.385506,-774.1732843782,2669802.8988765,37.413751375138,0,0
-71.679690673015,14.69840037562,32.218181818182,2582536.385506,-774.1732843782,2669802.8988765,37.418181818182,0,0
-71.679689964302,14.700983358223,32.222612261226,2582536.385506,-774.1732843782,2669802.8988765,37.422612261226,0,0
-71.679689255589,14.703566340827,32.22704270427,2582536.385506,-774.1732843782,2669802.8988765,37.42704270427,0,0
-71.679688546875,14.70614932343,32.231473147315,2582536.385506,-774.1732843782,2669802.8988765,37.431473147315,0,0
-71.679687838162,14.708732306034,32.235903590359,2582536.385506,-774.1732843782,2669802.8988765,37.435903590359,0,0
-71.679687129449,14.711315288638,32.240334033403,2582536.385506,-774.1732843782,2669802.8988765,37.440334033403,0,0
-71.679686420736,14.713898271241,32.244764476448,2582536.385506,-774.1732843782,2669802.8988765,37.444764476448,0,0
-71.679685712022,14.716481253845,32.249194919492,2582536.385506,-774.1732843782,2669802.8988765,37.449194919492,0,0
-71.679685003309,14.719064236448,32.253625362536,2582536.385506,-774.1732843782,2669802.8988765,37.453625362536,0,0
-71.679684294596,14.721647219052,32.258055805581,2582536.385506,-774.1732843782,2669802.8988765,37.458055805581,0,0
-71.679683585882,14.724230201655,32.262486248625,2582536.385506,-774.1732843782,2669802.8988765,37.462486248625,0,0
-71.679682877169,14.726813184259,32.266916691669,2582536.385506,-774.1732843782,2669802.8988765,37.466916691669,0,0
-71.679682168456,14.729396166862,32.271347134713,2582536.385506,-774.1732843782,2669802.8988765,37.471347134713,0,0
-71.679681459743,14.731979149466,32.275777577758,2582536.385506,-774.1732843782,2669802.8988765,37.475777577758,0,0
-71.679680751029,14.734562132069,32.280208020802,2582536.385506,-774.1732843782,2669802.8988765,37.480208020802,0,0
-71.679680042316,14.737145114673,32.284638463846,2582536.385506,-774.1732843782,2669802.8988765,37.484638463846,0,0
-71.679679333603,14.739728097276,32.289068906891,2582536.385506,-774.1732843782,2669802.8988765,37.489068906891,0,0
-71.679678624889,14.74231107988,32.293499349935,2582536.385506,-774.1732843782,2669802.8988765,37.493499349935,0,0
-71.679677916176,14.744894062483,32.297929792979,2582536.385506,-774.1732843782,2669802.8988765,37.497929792979,0,0
-71.679677207463,14.747477045087,32.302360236024,2582536.385506,-774.1732843782,2669802.8988765,37.502360236024,0,0
-71.67967649875,14.75006002769,32.306790679068,2582536.385506,-774.1732843782,2669802.8988765,37.506790679068,0,0
-71.679675790036,14.752643010294,32.311221122112,2582536.385506,-774.1732843782,2669802.8988765,37.511221122112,0,0
-71.679675081323,14.755225992897,32.315651565157,2582536.385506,-774.1732843782,2669802.8988765,37.515651565157,0,0
-71.67967437261,14.757808975501,32.320082008201,2582536.385506,-774.1732843782,2669802.8988765,37.520082008201,0,0
-71.679673663897,14.760391958104,32.324512451245,2582536.385506,-774.1732843782,2669802.8988765,37.524512451245,0,0
-71.679672955183,14.762974940708,32.328942894289,2582536.385506,-774.1732843782,2669802.8988765,37.528942894289,0,0
-71.67967224647,14.765557923311,32.333373337334,2582536.385506,-774.1732843782,2669802.8988765,37.533373337334,0,0
-71.679671537757,14.768140905915,32.337803780378,2582536.385506,-774.1732843782,2669802.8988765,37.537803780378,0,0
-71.679670829043,14.770723888518,32.342234223422,2582536.385506,-774.1732843782,2669802.8988765,37.542234223422,0,0
-71.67967012033,14.773306871122,32.346664666467,2582536.385506,-774.1732843782,2669802.8988765,37.546664666467,0,0
-71.679669411617,14.775889853725,32.351095109511,2582536.385506,-774.1732843782,2669802.8988765,37.551095109511,0,0
-71.679668702904,14.778472836329,32.355525552555,2582536.385506,-774.1732843782,2669802.8988765,37.555525552555,0,0
-71.67966799419,14.781055818932,32.3599559956,2582536.385506,-774.1732843782,2669802.8988765,37.5599559956,0,0
-71.679667285477,14.783638801536,32.364386438644,2582536.385506,-774.1732843782,2669802.8988765,37.564386438644,0,0
-71.679666576764,14.78622178414,32.368816881688,2582536.385506,-774.1732843782,2669802.8988765,37.568816881688,0,0
-71.67966586805,14.788804766743,32.373247324732,2582536.385506,-774.1732843782,2669802.8988765,37.573247324732,0,0
-71.679665159337,14.791387749347,32.377677767777,2582536.385506,-774.1732843782,2669802.8988765,37.577677767777,0,0
-71.679664450624,14.79397073195,32.382108210821,2582536.385506,-774.1732843782,2669802.8988765,37.582108210821,0,0
-71.679663741911,14.796553714554,32.386538653865,2582536.385506,-774.1732843782,2669802.8988765,37.586538653865,0,0
-71.679663033197,14.799136697157,32.39096909691,2582536.385506,-774.1732843782,2669802.8988765,37.59096909691,0,0
-71.679662324484,14.801719679761,32.395399539954,2582536.385506,-774.1732843782,2669802.8988765,37.595399539954,0,0
-71.679661615771,14.804302662364,32.399829982998,2582536.385506,-774.1732843782,2669802.8988765,37.599829982998,0,0
-71.679660907057,14.806885644968,32.404260426043,2582536.385506,-774.1732843782,2669802.8988765,37.604260426043,0,0
-71.679660198344,14.809468627571,32.408690869087,2582536.385506,-774.1732843782,2669802.8988765,37.608690869087,0,0
-71.679659489631,14.812051610175,32.413121312131,2582536.385506,-774.1732843782,2669802.8988765,37.613121312131,0,0
-71.679658780918,14.814634592778,32.417551755176,2582536.385506,-774.1732843782,2669802.8988765,37.617551755176,0,0
-71.679658072204,14.817217575382,32.42198219822,2582536.385506,-774.1732843782,2669802.8988765,37.62198219822,0,0
-71.679657363491,14.819800557985,32.426412641264,2582536.385506,-774.1732843782,2669802.8988765,37.626412641264,0,0
-71.679656654778,14.822383540589,32.430843084308,2582536.385506,-774.1732843782,2669802.8988765,37.630843084308,0,0
-71.679655946065,14.824966523192,32.435273527353,2582536.385506,-774.1732843782,2669802.8988765,37.635273527353,0,0
-71.679655237351,14.827549505796,32.439703970397,2582536.385506,-774.1732843782,2669802.8988765,37.639703970397,0,0
-71.679654528638,14.830132488399,32.444134413441,2582536.385506,-774.1732843782,2669802.8988765,37.644134413441,0,0
-71.679653819925,14.832715471003,32.448564856486,2582536.385506,-774.1732843782,2669802.8988765,37.648564856486,0,0
-71.679653111211,14.835298453606,32.45299529953,2582536.385506,-774.1732843782,2669802.8988765,37.65299529953,0,0
-71.679652402498,14.83788143621,32.457425742574,2582536.385506,-774.1732843782,2669802.8988765,37.657425742574,0,0
-71.679651693785,14.840464418813,32.461856185619,2582536.385506,-774.1732843782,2669802.8988765,37.661856185619,0,0
-71.679650985072,14.843047401417,32.466286628663,2582536.385506,-774.1732843782,2669802.8988765,37.666286628663,0,0
-71.679650276358,14.84563038402,32.470717071707,2582536.385506,-774.1732843782,2669802.8988765,37.670717071707,0,0
-71.679649567645,14.848213366624,32.475147514751,2582536.385506,-774.1732843782,2669802.8988765,37.675147514751,0,0
-71.679648858932,14.850796349227,32.479577957796,2582536.385506,-774.1732843782,2669802.8988765,37.679577957796,0,0
-71.679648150218,14.853379331831,32.48400840084,2582536.385506,-774.1732843782,2669802.8988765,37.68400840084,0,0
-71.679647441505,14.855962314435,32.488438843884,2582536.385506,-774.1732843782,2669802.8988765,37.688438843884,0,0
-71.679646732792,14.858545297038,32.492869286929,2582536.385506,-774.1732843782,2669802.8988765,37.692869286929,0,0
-71.679646024079,14.861128279642,32.497299729973,2582536.385506,-774.1732843782,2669802.8988765,37.697299729973,0,0
-71.679645315365,14.863711262245,32.501730173017,2582536.385506,-774.1732843782,2669802.8988765,37.701730173017,0,0
-71.679644606652,14.866294244849,32.506160616062,2582536.385506,-774.1732843782,2669802.8988765,37.706160616062,0,0
-71.679643897939,14.868877227452,32.510591059106,2582536.385506,-774.1732843782,2669802.8988765,37.710591059106,0,0
-71.679643189226,14.871460210056,32.51502150215,2582536.385506,-774.1732843782,2669802.8988765,37.71502150215,0,0
-71.679642480512,14.874043192659,32.519451945195,2582536.385506,-774.1732843782,2669802.8988765,37.719451945195,0,0
-71.679641771799,14.876626175263,32.523882388239,2582536.385506,-774.1732843782,2669802.8988765,37.723882388239,0,0
-71.679641063086,14.879209157866,32.528312831283,2582536.385506,-774.1732843782,2669802.8988765,37.728312831283,0,0
-71.679640354372,14.88179214047,32.532743274327,2582536.385506,-774.1732843782,2669802.8988765,37.732743274327,0,0
-71.679639645659,14.884375123073,32.537173717372,2582536.385506,-774.1732843782,2669802.8988765,37.737173717372,0,0
-71.679638936946,14.886958105677,32.541604160416,2582536.385506,-774.1732843782,2669802.8988765,37.741604160416,0,0
-71.679638228233,14.88954108828,32.54603460346,2582536.385506,-774.1732843782,2669802.8988765,37.74603460346,0,0
-71.679637519519,14.892124070884,32.550465046505,2582536.385506,-774.1732843782,2669802.8988765,37.750465046505,0,0
-71.679636810806,14.894707053487,32.554895489549,2582536.385506,-774.1732843782,2669802.8988765,37.754895489549,0,0
-71.679636102093,14.897290036091,32.559325932593,2582536.385506,-774.1732843782,2669802.8988765,37.759325932593,0,0
-71.679635393379,14.899873018694,32.563756375638,2582536.385506,-774.1732843782,2669802.8988765,37.763756375638,0,0
-71.679634684666,14.902456001298,32.568186818682,2582536.385506,-774.1732843782,2669802.8988765,37.768186818682,0,0
-71.679633975953,14.905038983901,32.572617261726,2582536.385506,-774.1732843782,2669802.8988765,37.772617261726,0,0
-71.67963326724,14.907621966505,32.57704770477,2582536.385506,-774.1732843782,2669802.8988765,37.77704770477,0,0
-71.679632558526,14.910204949108,32.581478147815,2582536.385506,-774.1732843782,2669802.8988765,37.781478147815,0,0
-71.679631849813,14.912787931712,32.585908590859,2582536.385506,-774.1732843782,2669802.8988765,37.785908590859,0,0
-71.6796311411,14.915370914315,32.590339033903,2582536.385506,-774.1732843782,2669802.8988765,37.790339033903,0,0
-71.679630432387,14.917953896919,32.594769476948,2582536.385506,-774.1732843782,2669802.8988765,37.794769476948,0,0
-71.679629723673,14.920536879522,32.599199919992,2582536.385506,-774.1732843782,2669802.8988765,37.799199919992,0,0
-71.67962901496,14.923119862126,32.603630363036,2582536.385506,-774.1732843782,2669802.8988765,37.803630363036,0,0
-71.679628306247,14.925702844729,32.608060806081,2582536.385506,-774.1732843782,2669802.8988765,37.808060806081,0,0
-71.679627597533,14.928285827333,32.612491249125,2582536.385506,-774.1732843782,2669802.8988765,37.812491249125,0,0
-71.67962688882,14.930868809937,32.616921692169,2582536.385506,-774.1732843782,2669802.8988765,37.816921692169,0,0
-71.679626180107,14.93345179254,32.621352135214,2582536.385506,-774.1732843782,2669802.8988765,37.821352135214,0,0
-71.679625471394,14.936034775144,32.625782578258,2582536.385506,-774.1732843782,2669802.8988765,37.825782578258,0,0
-71.67962476268,14.938617757747,32.630213021302,2582536.385506,-774.1732843782,2669802.8988765,37.830213021302,0,0
-71.679624053967,14.941200740351,32.634643464346,2582536.385506,-774.1732843782,2669802.8988765,37.834643464346,0,0
-71.679623345254,14.943783722954,32.639073907391,2582536.385506,-774.1732843782,2669802.8988765,37.839073907391,0,0
-71.67962263654,14.946366705558,32.643504350435,2582536.385506,-774.1732843782,2669802.8988765,37.843504350435,0,0
-71.679621927827,14.948949688161,32.647934793479,2582536.385506,-774.1732843782,2669802.8988765,37.847934793479,0,0
-71.679621219114,14.951532670765,32.652365236524,2582536.385506,-774.1732843782,2669802.8988765,37.852365236524,0,0
-71.679620510401,14.954115653368,32.656795679568,2582536.385506,-774.1732843782,2669802.8988765,37.856795679568,0,0
-71.679619801687,14.956698635972,32.661226122612,2582536.385506,-774.1732843782,2669802.8988765,37.861226122612,0,0
-71.679619092974,14.959281618575,32.665656565657,2582536.385506,-774.1732843782,2669802.8988765,37.865656565657,0,0
-71.679618384261,14.961864601179,32.670087008701,2582536.385506,-774.1732843782,2669802.8988765,37.870087008701,0,0
-71.679617675547,14.964447583782,32.674517451745,2582536.385506,-774.1732843782,2669802.8988765,37.874517451745,0,0
-71.679616966834,14.967030566386,32.678947894789,2582536.385506,-774.1732843782,2669802.8988765,37.878947894789,0,0
-71.679616258121,14.969613548989,32.683378337834,2582536.385506,-774.1732843782,2669802.8988765,37.883378337834,0,0
-71.679615549408,14.972196531593,32.687808780878,2582536.385506,-774.1732843782,2669802.8988765,37.887808780878,0,0
-71.679614840694,14.974779514196,32.692239223922,2582536.385506,-774.1732843782,2669802.8988765,37.892239223922,0,0
-71.679614131981,14.9773624968,32.696669666967,2582536.385506,-774.1732843782,2669802.8988765,37.896669666967,0,0
-71.679613423268,14.979945479403,32.701100110011,2582536.385506,-774.1732843782,2669802.8988765,37.901100110011,0,0
-71.679612714555,14.982528462007,32.705530553055,2582536.385506,-774.1732843782,2669802.8988765,37.905530553055,0,0
-71.679612005841,14.98511144461,32.7099609961,2582536.385506,-774.1732843782,2669802.8988765,37.9099609961,0,0
-71.679611297128,14.987694427214,32.714391439144,2582536.385506,-774.1732843782,2669802.8988765,37.914391439144,0,0
-71.679610588415,14.990277409817,32.718821882188,2582536.385506,-774.1732843782,2669802.8988765,37.918821882188,0,0
-71.679609879701,14.992860392421,32.723252325233,2582536.385506,-774.1732843782,2669802.8988765,37.923252325233,0,0
-71.679609170988,14.995443375024,32.727682768277,2582536.385506,-774.1732843782,2669802.8988765,37.927682768277,0,0
-71.679608462275,14.998026357628,32.732113211321,2582536.385506,-774.1732843782,2669802.8988765,37.932113211321,0,0
-71.679607753562,15.000609340231,32.736543654365,2582536.385506,-774.1732843782,2669802.8988765,37.936543654365,0,0
-71.679607044848,15.003192322835,32.74097409741,2582536.385506,-774.1732843782,2669802.8988765,37.94097409741,0,0
-71.679606336135,15.005775305439,32.745404540454,2582536.385506,-774.1732843782,2669802.8988765,37.945404540454,0,0
-71.679605627422,15.008358288042,32.749834983498,2582536.385506,-774.1732843782,2669802.8988765,37.949834983498,0,0
-71.679604918708,15.010941270646,32.754265426543,2582536.385506,-774.1732843782,2669802.8988765,37.954265426543,0,0
-71.679604209995,15.013524253249,32.758695869587,2582536.385506,-774.1732843782,2669802.8988765,37.958695869587,0,0
-71.679603501282,15.016107235853,32.763126312631,2582536.385506,-774.1732843782,2669802.8988765,37.963126312631,0,0
-71.679602792569,15.018690218456,32.767556755676,2582536.385506,-774.1732843782,2669802.8988765,37.967556755676,0,0
-71.679602083855,15.02127320106,32.77198719872,2582536.385506,-774.1732843782,2669802.8988765,37.97198719872,0,0
-71.679601375142,15.023856183663,32.776417641764,2582536.385506,-774.1732843782,2669802.8988765,37.976417641764,0,0
-71.679600666429,15.026439166267,32.780848084808,2582536.385506,-774.1732843782,2669802.8988765,37.980848084808,0,0
-71.679599957716,15.02902214887,32.785278527853,2582536.385506,-774.1732843782,2669802.8988765,37.985278527853,0,0
-71.679599249002,15.031605131474,32.789708970897,2582536.385506,-774.1732843782,2669802.8988765,37.989708970897,0,0
-71.679598540289,15.034188114077,32.794139413941,2582536.385506,-774.1732843782,2669802.8988765,37.994139413941,0,0
-71.679597831576,15.036771096681,32.798569856986,2582536.385506,-774.1732843782,2669802.8988765,37.998569856986,0,0
-71.679597122862,15.039354079284,32.80300030003,2582536.385506,-774.1732843782,2669802.8988765,38.00300030003,0,0
-71.679596414149,15.041937061888,32.807430743074,2582536.385506,-774.1732843782,2669802.8988765,38.007430743074,0,0
-71.679595705436,15.044520044491,32.811861186119,2582536.385506,-774.1732843782,2669802.8988765,38.011861186119,0,0
-71.679594996723,15.047103027095,32.816291629163,2582536.385506,-774.1732843782,2669802.8988765,38.016291629163,0,0
-71.679594288009,15.049686009698,32.820722072207,2582536.385506,-774.1732843782,2669802.8988765,38.020722072207,0,0
-71.679593579296,15.052268992302,32.825152515252,2582536.385506,-774.1732843782,2669802.8988765,38.025152515252,0,0
-71.679592870583,15.054851974905,32.829582958296,2582536.385506,-774.1732843782,2669802.8988765,38.029582958296,0,0
-71.679592161869,15.057434957509,32.83401340134,2582536.385506,-774.1732843782,2669802.8988765,38.03401340134,0,0
-71.679591453156,15.060017940112,32.838443844384,2582536.385506,-774.1732843782,2669802.8988765,38.038443844384,0,0
-71.679590744443,15.062600922716,32.842874287429,2582536.385506,-774.1732843782,2669802.8988765,38.042874287429,0,0
-71.67959003573,15.065183905319,32.847304730473,2582536.385506,-774.1732843782,2669802.8988765,38.047304730473,0,0
-71.679589327016,15.067766887923,32.851735173517,2582536.385506,-774.1732843782,2669802.8988765,38.051735173517,0,0
-71.679588618303,15.070349870526,32.856165616562,2582536.385506,-774.1732843782,2669802.8988765,38.056165616562,0,0
-71.67958790959,15.07293285313,32.860596059606,2582536.385506,-774.1732843782,2669802.8988765,38.060596059606,0,0
-71.679587200877,15.075515835734,32.86502650265,2582536.385506,-774.1732843782,2669802.8988765,38.06502650265,0,0
-71.679586492163,15.078098818337,32.869456945695,2582536.385506,-774.1732843782,2669802.8988765,38.069456945695,0,0
-71.67958578345,15.080681800941,32.873887388739,2582536.385506,-774.1732843782,2669802.8988765,38.073887388739,0,0
-71.679585074737,15.083264783544,32.878317831783,2582536.385506,-774.1732843782,2669802.8988765,38.078317831783,0,0
-71.679584366023,15.085847766148,32.882748274827,2582536.385506,-774.1732843782,2669802.8988765,38.082748274827,0,0
-71.67958365731,15.088430748751,32.887178717872,2582536.385506,-774.1732843782,2669802.8988765,38.087178717872,0,0
-71.679582948597,15.091013731355,32.891609160916,2582536.385506,-774.1732843782,2669802.8988765,38.091609160916,0,0
-71.679582239884,15.093596713958,32.89603960396,2582536.385506,-774.1732843782,2669802.8988765,38.09603960396,0,0
-71.67958153117,15.096179696562,32.900470047005,2582536.385506,-774.1732843782,2669802.8988765,38.100470047005,0,0
-71.679580822457,15.098762679165,32.904900490049,2582536.385506,-774.1732843782,2669802.8988765,38.104900490049,0,0
-71.679580113744,15.101345661769,32.909330933093,2582536.385506,-774.1732843782,2669802.8988765,38.109330933093,0,0
-71.67957940503,15.103928644372,32.913761376138,2582536.385506,-774.1732843782,2669802.8988765,38.113761376138,0,0
-71.679578696317,15.106511626976,32.918191819182,2582536.385506,-774.1732843782,2669802.8988765,38.118191819182,0,0
-71.679577987604,15.109094609579,32.922622262226,2582536.385506,-774.1732843782,2669802.8988765,38.122622262226,0,0
-71.679577278891,15.111677592183,32.927052705271,2582536.385506,-774.1732843782,2669802.8988765,38.127052705271,0,0
-71.679576570177,15.114260574786,32.931483148315,2582536.385506,-774.1732843782,2669802.8988765,38.131483148315,0,0
-71.679575861464,15.11684355739,32.935913591359,2582536.385506,-774.1732843782,2669802.8988765,38.135913591359,0,0
-71.679575152751,15.119426539993,32.940344034403,2582536.385506,-774.1732843782,2669802.8988765,38.140344034403,0,0
-71.679574444038,15.122009522597,32.944774477448,2582536.385506,-774.1732843782,2669802.8988765,38.144774477448,0,0
-71.679573735324,15.1245925052,32.949204920492,2582536.385506,-774.1732843782,2669802.8988765,38.149204920492,0,0
-71.679573026611,15.127175487804,32.953635363536,2582536.385506,-774.1732843782,2669802.8988765,38.153635363536,0,0
-71.679572317898,15.129758470407,32.958065806581,2582536.385506,-774.1732843782,2669802.8988765,38.158065806581,0,0
-71.679571609184,15.132341453011,32.962496249625,2582536.385506,-774.1732843782,2669802.8988765,38.162496249625,0,0
-71.679570900471,15.134924435614,32.966926692669,2582536.385506,-774.1732843782,2669802.8988765,38.166926692669,0,0
-71.679570191758,15.137507418218,32.971357135714,2582536.385506,-774.1732843782,2669802.8988765,38.171357135714,0,0
-71.679569483045,15.140090400821,32.975787578758,2582536.385506,-774.1732843782,2669802.8988765,38.175787578758,0,0
-71.679568774331,15.142673383425,32.980218021802,2582536.385506,-774.1732843782,2669802.8988765,38.180218021802,0,0
-71.679568065618,15.145256366028,32.984648464846,2582536.385506,-774.1732843782,2669802.8988765,38.184648464846,0,0
-71.679567356905,15.147839348632,32.989078907891,2582536.385506,-774.1732843782,2669802.8988765,38.189078907891,0,0
-71.679566648191,15.150422331236,32.993509350935,2582536.385506,-774.1732843782,2669802.8988765,38.193509350935,0,0
-71.679565939478,15.153005313839,32.997939793979,2582536.385506,-774.1732843782,2669802.8988765,38.197939793979,0,0
-71.679565230765,15.155588296443,33.002370237024,2582536.385506,-774.1732843782,2669802.8988765,38.202370237024,0,0
-71.679564522052,15.158171279046,33.006800680068,2582536.385506,-774.1732843782,2669802.8988765,38.206800680068,0,0
-71.679563813338,15.16075426165,33.011231123112,2582536.385506,-774.1732843782,2669802.8988765,38.211231123112,0,0
-71.679563104625,15.163337244253,33.015661566157,2582536.385506,-774.1732843782,2669802.8988765,38.215661566157,0,0
-71.679562395912,15.165920226857,33.020092009201,2582536.385506,-774.1732843782,2669802.8988765,38.220092009201,0,0
-71.679561687198,15.16850320946,33.024522452245,2582536.385506,-774.1732843782,2669802.8988765,38.224522452245,0,0
-71.679560978485,15.171086192064,33.02895289529,2582536.385506,-774.1732843782,2669802.8988765,38.22895289529,0,0
-71.679560269772,15.173669174667,33.033383338334,2582536.385506,-774.1732843782,2669802.8988765,38.233383338334,0,0
-71.679559561059,15.176252157271,33.037813781378,2582536.385506,-774.1732843782,2669802.8988765,38.237813781378,0,0
-71.679558852345,15.178835139874,33.042244224422,2582536.385506,-774.1732843782,2669802.8988765,38.242244224422,0,0
-71.679558143632,15.181418122478,33.046674667467,2582536.385506,-774.1732843782,2669802.8988765,38.246674667467,0,0
-71.679557434919,15.184001105081,33.051105110511,2582536.385506,-774.1732843782,2669802.8988765,38.251105110511,0,0
-71.679556726206,15.186584087685,33.055535553555,2582536.385506,-774.1732843782,2669802.8988765,38.255535553555,0,0
-71.679556017492,15.189167070288,33.0599659966,2582536.385506,-774.1732843782,2669802.8988765,38.2599659966,0,0
-71.679555308779,15.191750052892,33.064396439644,2582536.385506,-774.1732843782,2669802.8988765,38.264396439644,0,0
-71.679554600066,15.194333035495,33.068826882688,2582536.385506,-774.1732843782,2669802.8988765,38.268826882688,0,0
-71.679553891352,15.196916018099,33.073257325733,2582536.385506,-774.1732843782,2669802.8988765,38.273257325733,0,0
-71.679553182639,15.199499000702,33.077687768777,2582536.385506,-774.1732843782,2669802.8988765,38.277687768777,0,0
-71.679552473926,15.202081983306,33.082118211821,2582536.385506,-774.1732843782,2669802.8988765,38.282118211821,0,0
-71.679551765213,15.204664965909,33.086548654865,2582536.385506,-774.1732843782,2669802.8988765,38.286548654865,0,0
-71.679551056499,15.207247948513,33.09097909791,2582536.385506,-774.1732843782,2669802.8988765,38.29097909791,0,0
-71.679550347786,15.209830931116,33.095409540954,2582536.385506,-774.1732843782,2669802.8988765,38.295409540954,0,0
-71.679549639073,15.21241391372,33.099839983998,2582536.385506,-774.1732843782,2669802.8988765,38.299839983998,0,0
-71.679548930359,15.214996896323,33.104270427043,2582536.385506,-774.1732843782,2669802.8988765,38.304270427043,0,0
-71.679548221646,15.217579878927,33.108700870087,2582536.385506,-774.1732843782,2669802.8988765,38.308700870087,0,0
-71.679547512933,15.220162861531,33.113131313131,2582536.385506,-774.1732843782,2669802.8988765,38.313131313131,0,0
-71.67954680422,15.222745844134,33.117561756176,2582536.385506,-774.1732843782,2669802.8988765,38.317561756176,0,0
-71.679546095506,15.225328826738,33.12199219922,2582536.385506,-774.1732843782,2669802.8988765,38.32199219922,0,0
-71.679545386793,15.227911809341,33.126422642264,2582536.385506,-774.1732843782,2669802.8988765,38.326422642264,0,0
-71.67954467808,15.230494791945,33.130853085309,2582536.385506,-774.1732843782,2669802.8988765,38.330853085309,0,0
-71.679543969367,15.233077774548,33.135283528353,2582536.385506,-774.1732843782,2669802.8988765,38.335283528353,0,0
-71.679543260653,15.235660757152,33.139713971397,2582536.385506,-774.1732843782,2669802.8988765,38.339713971397,0,0
-71.67954255194,15.238243739755,33.144144414441,2582536.385506,-774.1732843782,2669802.8988765,38.344144414441,0,0
-71.679541843227,15.240826722359,33.148574857486,2582536.385506,-774.1732843782,2669802.8988765,38.348574857486,0,0
-71.679541134513,15.243409704962,33.15300530053,2582536.385506,-774.1732843782,2669802.8988765,38.35300530053,0,0
-71.6795404258,15.245992687566,33.157435743574,2582536.385506,-774.1732843782,2669802.8988765,38.357435743574,0,0
-71.679539717087,15.248575670169,33.161866186619,2582536.385506,-774.1732843782,2669802.8988765,38.361866186619,0,0
-71.679539008374,15.251158652773,33.166296629663,2582536.385506,-774.1732843782,2669802.8988765,38.366296629663,0,0
-71.67953829966,15.253741635376,33.170727072707,2582536.385506,-774.1732843782,2669802.8988765,38.370727072707,0,0
-71.679537590947,15.25632461798,33.175157515752,2582536.385506,-774.1732843782,2669802.8988765,38.375157515752,0,0
-71.679536882234,15.258907600583,33.179587958796,2582536.385506,-774.1732843782,2669802.8988765,38.379587958796,0,0
-71.67953617352,15.261490583187,33.18401840184,2582536.385506,-774.1732843782,2669802.8988765,38.38401840184,0,0
-71.679535464807,15.26407356579,33.188448844884,2582536.385506,-774.1732843782,2669802.8988765,38.388448844884,0,0
-71.679534756094,15.266656548394,33.192879287929,2582536.385506,-774.1732843782,2669802.8988765,38.392879287929,0,0
-71.679534047381,15.269239530997,33.197309730973,2582536.385506,-774.1732843782,2669802.8988765,38.397309730973,0,0
-71.679533338667,15.271822513601,33.201740174017,2582536.385506,-774.1732843782,2669802.8988765,38.401740174017,0,0
-71.679532629954,15.274405496204,33.206170617062,2582536.385506,-774.1732843782,2669802.8988765,38.406170617062,0,0
-71.679531921241,15.276988478808,33.210601060106,2582536.385506,-774.1732843782,2669802.8988765,38.410601060106,0,0
-71.679531212528,15.279571461411,33.21503150315,2582536.385506,-774.1732843782,2669802.8988765,38.41503150315,0,0
-71.679530503814,15.282154444015,33.219461946195,2582536.385506,-774.1732843782,2669802.8988765,38.419461946195,0,0
-71.679529795101,15.284737426618,33.223892389239,2582536.385506,-774.1732843782,2669802.8988765,38.423892389239,0,0
-71.679529086388,15.287320409222,33.228322832283,2582536.385506,-774.1732843782,2669802.8988765,38.428322832283,0,0
-71.679528377674,15.289903391825,33.232753275328,2582536.385506,-774.1732843782,2669802.8988765,38.432753275328,0,0
-71.679527668961,15.292486374429,33.237183718372,2582536.385506,-774.1732843782,2669802.8988765,38.437183718372,0,0
-71.679526960248,15.295069357033,33.241614161416,2582536.385506,-774.1732843782,2669802.8988765,38.441614161416,0,0
-71.679526251535,15.297652339636,33.24604460446,2582536.385506,-774.1732843782,2669802.8988765,38.44604460446,0,0
-71.679525542821,15.30023532224,33.250475047505,2582536.385506,-774.1732843782,2669802.8988765,38.450475047505,0,0
-71.679524834108,15.302818304843,33.254905490549,2582536.385506,-774.1732843782,2669802.8988765,38.454905490549,0,0
-71.679524125395,15.305401287447,33.259335933593,2582536.385506,-774.1732843782,2669802.8988765,38.459335933593,0,0
-71.679523416681,15.30798427005,33.263766376638,2582536.385506,-774.1732843782,2669802.8988765,38.463766376638,0,0
-71.679522707968,15.310567252654,33.268196819682,2582536.385506,-774.1732843782,2669802.8988765,38.468196819682,0,0
-71.679521999255,15.313150235257,33.272627262726,2582536.385506,-774.1732843782,2669802.8988765,38.472627262726,0,0
-71.679521290542,15.315733217861,33.277057705771,2582536.385506,-774.1732843782,2669802.8988765,38.477057705771,0,0
-71.679520581828,15.318316200464,33.281488148815,2582536.385506,-774.1732843782,2669802.8988765,38.481488148815,0,0
-71.679519873115,15.320899183068,33.285918591859,2582536.385506,-774.1732843782,2669802.8988765,38.485918591859,0,0
-71.679519164402,15.323482165671,33.290349034903,2582536.385506,-774.1732843782,2669802.8988765,38.490349034903,0,0
-71.679518455688,15.326065148275,33.294779477948,2582536.385506,-774.1732843782,2669802.8988765,38.494779477948,0,0
-71.679517746975,15.328648130878,33.299209920992,2582536.385506,-774.1732843782,2669802.8988765,38.499209920992,0,0
-71.679517038262,15.331231113482,33.303640364036,2582536.385506,-774.1732843782,2669802.8988765,38.503640364036,0,0
-71.679516329549,15.333814096085,33.308070807081,2582536.385506,-774.1732843782,2669802.8988765,38.508070807081,0,0
-71.679515620835,15.336397078689,33.312501250125,2582536.385506,-774.1732843782,2669802.8988765,38.512501250125,0,0
-71.679514912122,15.338980061292,33.316931693169,2582536.385506,-774.1732843782,2669802.8988765,38.516931693169,0,0
-71.679514203409,15.341563043896,33.321362136214,2582536.385506,-774.1732843782,2669802.8988765,38.521362136214,0,0
-71.679513494696,15.344146026499,33.325792579258,2582536.385506,-774.1732843782,2669802.8988765,38.525792579258,0,0
-71.679512785982,15.346729009103,33.330223022302,2582536.385506,-774.1732843782,2669802.8988765,38.530223022302,0,0
-71.679512077269,15.349311991706,33.334653465347,2582536.385506,-774.1732843782,2669802.8988765,38.534653465347,0,0
-71.679511368556,15.35189497431,33.339083908391,2582536.385506,-774.1732843782,2669802.8988765,38.539083908391,0,0
-71.679510659842,15.354477956913,33.343514351435,2582536.385506,-774.1732843782,2669802.8988765,38.543514351435,0,0
-71.679509951129,15.357060939517,33.347944794479,2582536.385506,-774.1732843782,2669802.8988765,38.547944794479,0,0
-71.679509242416,15.35964392212,33.352375237524,2582536.385506,-774.1732843782,2669802.8988765,38.552375237524,0,0
-71.679508533703,15.362226904724,33.356805680568,2582536.385506,-774.1732843782,2669802.8988765,38.556805680568,0,0
-71.679507824989,15.364809887328,33.361236123612,2582536.385506,-774.1732843782,2669802.8988765,38.561236123612,0,0
-71.679507116276,15.367392869931,33.365666566657,2582536.385506,-774.1732843782,2669802.8988765,38.565666566657,0,0
-71.679506407563,15.369975852535,33.370097009701,2582536.385506,-774.1732843782,2669802.8988765,38.570097009701,0,0
-71.679505698849,15.372558835138,33.374527452745,2582536.385506,-774.1732843782,2669802.8988765,38.574527452745,0,0
-71.679504990136,15.375141817742,33.37895789579,2582536.385506,-774.1732843782,2669802.8988765,38.57895789579,0,0
-71.679504281423,15.377724800345,33.383388338834,2582536.385506,-774.1732843782,2669802.8988765,38.583388338834,0,0
-71.67950357271,15.380307782949,33.387818781878,2582536.385506,-774.1732843782,2669802.8988765,38.587818781878,0,0
-71.679502863996,15.382890765552,33.392249224922,2582536.385506,-774.1732843782,2669802.8988765,38.592249224922,0,0
-71.679502155283,15.385473748156,33.396679667967,2582536.385506,-774.1732843782,2669802.8988765,38.596679667967,0,0
-71.67950144657,15.388056730759,33.401110111011,2582536.385506,-774.1732843782,2669802.8988765,38.601110111011,0,0
-71.679500737857,15.390639713363,33.405540554055,2582536.385506,-774.1732843782,2669802.8988765,38.605540554055,0,0
-71.679500029143,15.393222695966,33.4099709971,2582536.385506,-774.1732843782,2669802.8988765,38.6099709971,0,0
-71.67949932043,15.39580567857,33.414401440144,2582536.385506,-774.1732843782,2669802.8988765,38.614401440144,0,0
-71.679498611717,15.398388661173,33.418831883188,2582536.385506,-774.1732843782,2669802.8988765,38.618831883188,0,0
-71.679497903003,15.400971643777,33.423262326233,2582536.385506,-774.1732843782,2669802.8988765,38.623262326233,0,0
-71.67949719429,15.40355462638,33.427692769277,2582536.385506,-774.1732843782,2669802.8988765,38.627692769277,0,0
-71.679496485577,15.406137608984,33.432123212321,2582536.385506,-774.1732843782,2669802.8988765,38.632123212321,0,0
-71.679495776864,15.408720591587,33.436553655366,2582536.385506,-774.1732843782,2669802.8988765,38.636553655366,0,0
-71.67949506815,15.411303574191,33.44098409841,2582536.385506,-774.1732843782,2669802.8988765,38.64098409841,0,0
-71.679494359437,15.413886556794,33.445414541454,2582536.385506,-774.1732843782,2669802.8988765,38.645414541454,0,0
-71.679493650724,15.416469539398,33.449844984498,2582536.385506,-774.1732843782,2669802.8988765,38.649844984498,0,0
-71.67949294201,15.419052522001,33.454275427543,2582536.385506,-774.1732843782,2669802.8988765,38.654275427543,0,0
-71.679492233297,15.421635504605,33.458705870587,2582536.385506,-774.1732843782,2669802.8988765,38.658705870587,0,0
-71.679491524584,15.424218487208,33.463136313631,2582536.385506,-774.1732843782,2669802.8988765,38.663136313631,0,0
-71.679490815871,15.426801469812,33.467566756676,2582536.385506,-774.1732843782,2669802.8988765,38.667566756676,0,0
-71.679490107157,15.429384452415,33.47199719972,2582536.385506,-774.1732843782,2669802.8988765,38.67199719972,0,0
-71.679489398444,15.431967435019,33.476427642764,2582536.385506,-774.1732843782,2669802.8988765,38.676427642764,0,0
-71.679488689731,15.434550417622,33.480858085809,2582536.385506,-774.1732843782,2669802.8988765,38.680858085809,0,0
-71.679487981018,15.437133400226,33.485288528853,2582536.385506,-774.1732843782,2669802.8988765,38.685288528853,0,0
-71.679487272304,15.43971638283,33.489718971897,2582536.385506,-774.1732843782,2669802.8988765,38.689718971897,0,0
-71.679486563591,15.442299365433,33.494149414941,2582536.385506,-774.1732843782,2669802.8988765,38.694149414941,0,0
-71.679485854878,15.444882348037,33.498579857986,2582536.385506,-774.1732843782,2669802.8988765,38.698579857986,0,0
-71.679485146164,15.44746533064,33.50301030103,2582536.385506,-774.1732843782,2669802.8988765,38.70301030103,0,0
-71.679484437451,15.450048313244,33.507440744074,2582536.385506,-774.1732843782,2669802.8988765,38.707440744074,0,0
-71.679483728738,15.452631295847,33.511871187119,2582536.385506,-774.1732843782,2669802.8988765,38.711871187119,0,0
-71.679483020025,15.455214278451,33.516301630163,2582536.385506,-774.1732843782,2669802.8988765,38.716301630163,0,0
-71.679482311311,15.457797261054,33.520732073207,2582536.385506,-774.1732843782,2669802.8988765,38.720732073207,0,0
-71.679481602598,15.460380243658,33.525162516252,2582536.385506,-774.1732843782,2669802.8988765,38.725162516252,0,0
-71.679480893885,15.462963226261,33.529592959296,2582536.385506,-774.1732843782,2669802.8988765,38.729592959296,0,0
-71.679480185171,15.465546208865,33.53402340234,2582536.385506,-774.1732843782,2669802.8988765,38.73402340234,0,0
-71.679479476458,15.468129191468,33.538453845385,2582536.385506,-774.1732843782,2669802.8988765,38.738453845385,0,0
-71.679478767745,15.470712174072,33.542884288429,2582536.385506,-774.1732843782,2669802.8988765,38.742884288429,0,0
-71.679478059032,15.473295156675,33.547314731473,2582536.385506,-774.1732843782,2669802.8988765,38.747314731473,0,0
-71.679477350318,15.475878139279,33.551745174517,2582536.385506,-774.1732843782,2669802.8988765,38.751745174517,0,0
-71.679476641605,15.478461121882,33.556175617562,2582536.385506,-774.1732843782,2669802.8988765,38.756175617562,0,0
-71.679475932892,15.481044104486,33.560606060606,2582536.385506,-774.1732843782,2669802.8988765,38.760606060606,0,0
-71.679475224178,15.483627087089,33.56503650365,2582536.385506,-774.1732843782,2669802.8988765,38.76503650365,0,0
-71.679474515465,15.486210069693,33.569466946695,2582536.385506,-774.1732843782,2669802.8988765,38.769466946695,0,0
-71.679473806752,15.488793052296,33.573897389739,2582536.385506,-774.1732843782,2669802.8988765,38.773897389739,0,0
-71.679473098039,15.4913760349,33.578327832783,2582536.385506,-774.1732843782,2669802.8988765,38.778327832783,0,0
-71.679472389325,15.493959017503,33.582758275828,2582536.385506,-774.1732843782,2669802.8988765,38.782758275828,0,0
-71.679471680612,15.496542000107,33.587188718872,2582536.385506,-774.1732843782,2669802.8988765,38.787188718872,0,0
-71.679470971899,15.49912498271,33.591619161916,2582536.385506,-774.1732843782,2669802.8988765,38.791619161916,0,0
-71.679470263186,15.501707965314,33.59604960496,2582536.385506,-774.1732843782,2669802.8988765,38.79604960496,0,0
-71.679469554472,15.504290947917,33.600480048005,2582536.385506,-774.1732843782,2669802.8988765,38.800480048005,0,0
-71.679468845759,15.506873930521,33.604910491049,2582536.385506,-774.1732843782,2669802.8988765,38.804910491049,0,0
-71.679468137046,15.509456913124,33.609340934093,2582536.385506,-774.1732843782,2669802.8988765,38.809340934093,0,0
-71.679467428332,15.512039895728,33.613771377138,2582536.385506,-774.1732843782,2669802.8988765,38.813771377138,0,0
-71.679466719619,15.514622878332,33.618201820182,2582536.385506,-774.1732843782,2669802.8988765,38.818201820182,0,0
-71.679466010906,15.517205860935,33.622632263226,2582536.385506,-774.1732843782,2669802.8988765,38.822632263226,0,0
-71.679465302193,15.519788843539,33.627062706271,2582536.385506,-774.1732843782,2669802.8988765,38.827062706271,0,0
-71.679464593479,15.522371826142,33.631493149315,2582536.385506,-774.1732843782,2669802.8988765,38.831493149315,0,0
-71.679463884766,15.524954808746,33.635923592359,2582536.385506,-774.1732843782,2669802.8988765,38.835923592359,0,0
-71.679463176053,15.527537791349,33.640354035404,2582536.385506,-774.1732843782,2669802.8988765,38.840354035404,0,0
-71.679462467339,15.530120773953,33.644784478448,2582536.385506,-774.1732843782,2669802.8988765,38.844784478448,0,0
-71.679461758626,15.532703756556,33.649214921492,2582536.385506,-774.1732843782,2669802.8988765,38.849214921492,0,0
-71.679461049913,15.53528673916,33.653645364536,2582536.385506,-774.1732843782,2669802.8988765,38.853645364536,0,0
-71.6794603412,15.537869721763,33.658075807581,2582536.385506,-774.1732843782,2669802.8988765,38.858075807581,0,0
-71.679459632486,15.540452704367,33.662506250625,2582536.385506,-774.1732843782,2669802.8988765,38.862506250625,0,0
-71.679458923773,15.54303568697,33.666936693669,2582536.385506,-774.1732843782,2669802.8988765,38.866936693669,0,0
-71.679458214997,15.545618669489,33.671367136714,2584563.0365878,-1442.2975876081,2668166.6097445,38.871367136714,0,0
-71.67945750584,15.548201651497,33.675797579758,2584563.0365878,-1442.2975876081,2668166.6097445,38.875797579758,0,0
-71.679456796682,15.550784633505,33.680228022802,2584563.0365878,-1442.2975876081,2668166.6097445,38.880228022802,0,0
-71.679456087525,15.553367615513,33.684658465847,2584563.0365878,-1442.2975876081,2668166.6097445,38.884658465847,0,0
-71.679455378368,15.555950597522,33.689088908891,2584563.0365878,-1442.2975876081,2668166.6097445,38.889088908891,0,0
-71.67945466921,15.55853357953,33.693519351935,2584563.0365878,-1442.2975876081,2668166.6097445,38.893519351935,0,0
-71.679453960053,15.561116561538,33.697949794979,2584563.0365878,-1442.2975876081,2668166.6097445,38.897949794979,0,0
-71.679453250896,15.563699543546,33.702380238024,2584563.0365878,-1442.2975876081,2668166.6097445,38.902380238024,0,0
-71.679452541738,15.566282525554,33.706810681068,2584563.0365878,-1442.2975876081,2668166.6097445,38.906810681068,0,0
-71.679451832581,15.568865507562,33.711241124112,2584563.0365878,-1442.2975876081,2668166.6097445,38.911241124112,0,0
-71.679451123424,15.57144848957,33.715671567157,2584563.0365878,-1442.2975876081,2668166.6097445,38.915671567157,0,0
-71.679450414266,15.574031471578,33.720102010201,2584563.0365878,-1442.2975876081,2668166.6097445,38.920102010201,0,0
-71.679449705109,15.576614453586,33.724532453245,2584563.0365878,-1442.2975876081,2668166.6097445,38.924532453245,0,0
-71.679448995952,15.579197435594,33.72896289629,2584563.0365878,-1442.2975876081,2668166.6097445,38.92896289629,0,0
-71.679448286794,15.581780417602,33.733393339334,2584563.0365878,-1442.2975876081,2668166.6097445,38.933393339334,0,0
-71.679447577637,15.58436339961,33.737823782378,2584563.0365878,-1442.2975876081,2668166.6097445,38.937823782378,0,0
-71.679446868479,15.586946381618,33.742254225423,2584563.0365878,-1442.2975876081,2668166.6097445,38.942254225423,0,0
-71.679446159322,15.589529363626,33.746684668467,2584563.0365878,-1442.2975876081,2668166.6097445,38.946684668467,0,0
-71.679445450165,15.592112345634,33.751115111511,2584563.0365878,-1442.2975876081,2668166.6097445,38.951115111511,0,0
-71.679444741007,15.594695327642,33.755545554555,2584563.0365878,-1442.2975876081,2668166.6097445,38.955545554555,0,0
-71.67944403185,15.59727830965,33.7599759976,2584563.0365878,-1442.2975876081,2668166.6097445,38.9599759976,0,0
-71.679443322693,15.599861291658,33.764406440644,2584563.0365878,-1442.2975876081,2668166.6097445,38.964406440644,0,0
-71.679442613535,15.602444273666,33.768836883688,2584563.0365878,-1442.2975876081,2668166.6097445,38.968836883688,0,0
-71.679441904378,15.605027255674,33.773267326733,2584563.0365878,-1442.2975876081,2668166.6097445,38.973267326733,0,0
-71.679441195221,15.607610237682,33.777697769777,2584563.0365878,-1442.2975876081,2668166.6097445,38.977697769777,0,0
-71.679440486063,15.61019321969,33.782128212821,2584563.0365878,-1442.2975876081,2668166.6097445,38.982128212821,0,0
-71.679439776906,15.612776201698,33.786558655866,2584563.0365878,-1442.2975876081,2668166.6097445,38.986558655866,0,0
-71.679439067749,15.615359183706,33.79098909891,2584563.0365878,-1442.2975876081,2668166.6097445,38.99098909891,0,0
-71.679438358591,15.617942165714,33.795419541954,2584563.0365878,-1442.2975876081,2668166.6097445,38.995419541954,0,0
-71.679437649434,15.620525147722,33.799849984998,2584563.0365878,-1442.2975876081,2668166.6097445,38.999849984998,0,0
-71.679436940277,15.62310812973,33.804280428043,2584563.0365878,-1442.2975876081,2668166.6097445,39.004280428043,0,0
-71.679436231119,15.625691111738,33.808710871087,2584563.0365878,-1442.2975876081,2668166.6097445,39.008710871087,0,0
-71.679435521962,15.628274093747,33.813141314131,2584563.0365878,-1442.2975876081,2668166.6097445,39.013141314131,0,0
-71.679434812805,15.630857075755,33.817571757176,2584563.0365878,-1442.2975876081,2668166.6097445,39.017571757176,0,0
-71.679434103647,15.633440057763,33.82200220022,2584563.0365878,-1442.2975876081,2668166.6097445,39.02200220022,0,0
-71.67943339449,15.636023039771,33.826432643264,2584563.0365878,-1442.2975876081,2668166.6097445,39.026432643264,0,0
-71.679432685333,15.638606021779,33.830863086309,2584563.0365878,-1442.2975876081,2668166.6097445,39.030863086309,0,0
-71.679431976175,15.641189003787,33.835293529353,2584563.0365878,-1442.2975876081,2668166.6097445,39.035293529353,0,0
-71.679431267018,15.643771985795,33.839723972397,2584563.0365878,-1442.2975876081,2668166.6097445,39.039723972397,0,0
-71.679430557861,15.646354967803,33.844154415442,2584563.0365878,-1442.2975876081,2668166.6097445,39.044154415442,0,0
-71.679429848703,15.648937949811,33.848584858486,2584563.0365878,-1442.2975876081,2668166.6097445,39.048584858486,0,0
-71.679429139546,15.651520931819,33.85301530153,2584563.0365878,-1442.2975876081,2668166.6097445,39.05301530153,0,0
-71.679428430389,15.654103913827,33.857445744574,2584563.0365878,-1442.2975876081,2668166.6097445,39.057445744574,0,0
-71.679427721231,15.656686895835,33.861876187619,2584563.0365878,-1442.2975876081,2668166.6097445,39.061876187619,0,0
-71.679427012074,15.659269877843,33.866306630663,2584563.0365878,-1442.2975876081,2668166.6097445,39.066306630663,0,0
-71.679426302917,15.661852859851,33.870737073707,2584563.0365878,-1442.2975876081,2668166.6097445,39.070737073707,0,0
-71.679425593759,15.664435841859,33.875167516752,2584563.0365878,-1442.2975876081,2668166.6097445,39.075167516752,0,0
-71.679424884602,15.667018823867,33.879597959796,2584563.0365878,-1442.2975876081,2668166.6097445,39.079597959796,0,0
-71.679424175445,15.669601805875,33.88402840284,2584563.0365878,-1442.2975876081,2668166.6097445,39.08402840284,0,0
-71.679423466287,15.672184787883,33.888458845885,2584563.0365878,-1442.2975876081,2668166.6097445,39.088458845885,0,0
-71.67942275713,15.674767769891,33.892889288929,2584563.0365878,-1442.2975876081,2668166.6097445,39.092889288929,0,0
-71.679422047973,15.677350751899,33.897319731973,2584563.0365878,-1442.2975876081,2668166.6097445,39.097319731973,0,0
-71.679421338815,15.679933733907,33.901750175017,2584563.0365878,-1442.2975876081,2668166.6097445,39.101750175018,0,0
-71.679420629658,15.682516715915,33.906180618062,2584563.0365878,-1442.2975876081,2668166.6097445,39.106180618062,0,0
-71.679419920501,15.685099697923,33.910611061106,2584563.0365878,-1442.2975876081,2668166.6097445,39.110611061106,0,0
-71.679419211343,15.687682679931,33.91504150415,2584563.0365878,-1442.2975876081,2668166.6097445,39.11504150415,0,0
-71.679418502186,15.690265661939,33.919471947195,2584563.0365878,-1442.2975876081,2668166.6097445,39.119471947195,0,0
-71.679417793029,15.692848643947,33.923902390239,2584563.0365878,-1442.2975876081,2668166.6097445,39.123902390239,0,0
-71.679417083871,15.695431625955,33.928332833283,2584563.0365878,-1442.2975876081,2668166.6097445,39.128332833283,0,0
-71.679416374714,15.698014607963,33.932763276328,2584563.0365878,-1442.2975876081,2668166.6097445,39.132763276328,0,0
-71.679415665557,15.700597589972,33.937193719372,2584563.0365878,-1442.2975876081,2668166.6097445,39.137193719372,0,0
-71.679414956399,15.70318057198,33.941624162416,2584563.0365878,-1442.2975876081,2668166.6097445,39.141624162416,0,0
-71.679414247242,15.705763553988,33.946054605461,2584563.0365878,-1442.2975876081,2668166.6097445,39.146054605461,0,0
-71.679413538085,15.708346535996,33.950485048505,2584563.0365878,-1442.2975876081,2668166.6097445,39.150485048505,0,0
-71.679412828927,15.710929518004,33.954915491549,2584563.0365878,-1442.2975876081,2668166.6097445,39.154915491549,0,0
-71.67941211977,15.713512500012,33.959345934593,2584563.0365878,-1442.2975876081,2668166.6097445,39.159345934593,0,0
-71.679411410613,15.71609548202,33.963776377638,2584563.0365878,-1442.2975876081,2668166.6097445,39.163776377638,0,0
-71.679410701455,15.718678464028,33.968206820682,2584563.0365878,-1442.2975876081,2668166.6097445,39.168206820682,0,0
-71.679409992298,15.721261446036,33.972637263726,2584563.0365878,-1442.2975876081,2668166.6097445,39.172637263726,0,0
-71.679409283141,15.723844428044,33.977067706771,2584563.0365878,-1442.2975876081,2668166.6097445,39.177067706771,0,0
-71.679408573983,15.726427410052,33.981498149815,2584563.0365878,-1442.2975876081,2668166.6097445,39.181498149815,0,0
-71.679407864826,15.72901039206,33.985928592859,2584563.0365878,-1442.2975876081,2668166.6097445,39.185928592859,0,0
-71.679407155669,15.731593374068,33.990359035904,2584563.0365878,-1442.2975876081,2668166.6097445,39.190359035904,0,0
-71.679406446511,15.734176356076,33.994789478948,2584563.0365878,-1442.2975876081,2668166.6097445,39.194789478948,0,0
-71.679405737354,15.736759338084,33.999219921992,2584563.0365878,-1442.2975876081,2668166.6097445,39.199219921992,0,0
-71.679405028197,15.739342320092,34.003650365036,2584563.0365878,-1442.2975876081,2668166.6097445,39.203650365037,0,0
-71.679404319039,15.7419253021,34.008080808081,2584563.0365878,-1442.2975876081,2668166.6097445,39.208080808081,0,0
-71.679403609882,15.744508284108,34.012511251125,2584563.0365878,-1442.2975876081,2668166.6097445,39.212511251125,0,0
-71.679402900725,15.747091266116,34.016941694169,2584563.0365878,-1442.2975876081,2668166.6097445,39.216941694169,0,0
-71.679402191567,15.749674248124,34.021372137214,2584563.0365878,-1442.2975876081,2668166.6097445,39.221372137214,0,0
-71.67940148241,15.752257230132,34.025802580258,2584563.0365878,-1442.2975876081,2668166.6097445,39.225802580258,0,0
-71.679400773253,15.75484021214,34.030233023302,2584563.0365878,-1442.2975876081,2668166.6097445,39.230233023302,0,0
-71.679400064095,15.757423194148,34.034663466347,2584563.0365878,-1442.2975876081,2668166.6097445,39.234663466347,0,0
-71.679399354938,15.760006176156,34.039093909391,2584563.0365878,-1442.2975876081,2668166.6097445,39.239093909391,0,0
-71.679398645781,15.762589158164,34.043524352435,2584563.0365878,-1442.2975876081,2668166.6097445,39.243524352435,0,0
-71.679397936623,15.765172140172,34.04795479548,2584563.0365878,-1442.2975876081,2668166.6097445,39.24795479548,0,0
-71.679397227466,15.76775512218,34.052385238524,2584563.0365878,-1442.2975876081,2668166.6097445,39.252385238524,0,0
-71.679396518309,15.770338104189,34.056815681568,2584563.0365878,-1442.2975876081,2668166.6097445,39.256815681568,0,0
-71.679395809151,15.772921086197,34.061246124612,2584563.0365878,-1442.2975876081,2668166.6097445,39.261246124612,0,0
-71.679395099994,15.775504068205,34.065676567657,2584563.0365878,-1442.2975876081,2668166.6097445,39.265676567657,0,0
-71.679394390837,15.778087050213,34.070107010701,2584563.0365878,-1442.2975876081,2668166.6097445,39.270107010701,0,0
-71.679393681679,15.780670032221,34.074537453745,2584563.0365878,-1442.2975876081,2668166.6097445,39.274537453745,0,0
-71.679392972522,15.783253014229,34.07896789679,2584563.0365878,-1442.2975876081,2668166.6097445,39.27896789679,0,0
-71.679392263365,15.785835996237,34.083398339834,2584563.0365878,-1442.2975876081,2668166.6097445,39.283398339834,0,0
-71.679391554207,15.788418978245,34.087828782878,2584563.0365878,-1442.2975876081,2668166.6097445,39.287828782878,0,0
-71.67939084505,15.791001960253,34.092259225923,2584563.0365878,-1442.2975876081,2668166.6097445,39.292259225923,0,0
-71.679390135893,15.793584942261,34.096689668967,2584563.0365878,-1442.2975876081,2668166.6097445,39.296689668967,0,0
-71.679389426735,15.796167924269,34.101120112011,2584563.0365878,-1442.2975876081,2668166.6097445,39.301120112011,0,0
-71.679388717578,15.798750906277,34.105550555056,2584563.0365878,-1442.2975876081,2668166.6097445,39.305550555056,0,0
-71.679388008421,15.801333888285,34.1099809981,2584563.0365878,-1442.2975876081,2668166.6097445,39.3099809981,0,0
-71.679387299263,15.803916870293,34.114411441144,2584563.0365878,-1442.2975876081,2668166.6097445,39.314411441144,0,0
-71.679386590106,15.806499852301,34.118841884188,2584563.0365878,-1442.2975876081,2668166.6097445,39.318841884188,0,0
-71.679385880949,15.809082834309,34.123272327233,2584563.0365878,-1442.2975876081,2668166.6097445,39.323272327233,0,0
-71.679385171791,15.811665816317,34.127702770277,2584563.0365878,-1442.2975876081,2668166.6097445,39.327702770277,0,0
-71.679384462634,15.814248798325,34.132133213321,2584563.0365878,-1442.2975876081,2668166.6097445,39.332133213321,0,0
-71.679383753477,15.816831780333,34.136563656366,2584563.0365878,-1442.2975876081,2668166.6097445,39.336563656366,0,0
-71.679383044319,15.819414762341,34.14099409941,2584563.0365878,-1442.2975876081,2668166.6097445,39.34099409941,0,0
-71.679382335162,15.821997744349,34.145424542454,2584563.0365878,-1442.2975876081,2668166.6097445,39.345424542454,0,0
-71.679381626004,15.824580726357,34.149854985499,2584563.0365878,-1442.2975876081,2668166.6097445,39.349854985499,0,0
-71.679380916847,15.827163708365,34.154285428543,2584563.0365878,-1442.2975876081,2668166.6097445,39.354285428543,0,0
-71.67938020769,15.829746690373,34.158715871587,2584563.0365878,-1442.2975876081,2668166.6097445,39.358715871587,0,0
-71.679379498532,15.832329672381,34.163146314631,2584563.0365878,-1442.2975876081,2668166.6097445,39.363146314631,0,0
-71.679378789375,15.834912654389,34.167576757676,2584563.0365878,-1442.2975876081,2668166.6097445,39.367576757676,0,0
-71.679378080218,15.837495636397,34.17200720072,2584563.0365878,-1442.2975876081,2668166.6097445,39.37200720072,0,0
-71.67937737106,15.840078618405,34.176437643764,2584563.0365878,-1442.2975876081,2668166.6097445,39.376437643764,0,0
-71.679376661903,15.842661600414,34.180868086809,2584563.0365878,-1442.2975876081,2668166.6097445,39.380868086809,0,0
-71.679375952746,15.845244582422,34.185298529853,2584563.0365878,-1442.2975876081,2668166.6097445,39.385298529853,0,0
-71.679375243588,15.84782756443,34.189728972897,2584563.0365878,-1442.2975876081,2668166.6097445,39.389728972897,0,0
-71.679374534431,15.850410546438,34.194159415942,2584563.0365878,-1442.2975876081,2668166.6097445,39.394159415942,0,0
-71.679373825274,15.852993528446,34.198589858986,2584563.0365878,-1442.2975876081,2668166.6097445,39.398589858986,0,0
-71.679373116116,15.855576510454,34.20302030203,2584563.0365878,-1442.2975876081,2668166.6097445,39.40302030203,0,0
-71.679372406959,15.858159492462,34.207450745075,2584563.0365878,-1442.2975876081,2668166.6097445,39.407450745075,0,0
-71.679371697802,15.86074247447,34.211881188119,2584563.0365878,-1442.2975876081,2668166.6097445,39.411881188119,0,0
-71.679370988644,15.863325456478,34.216311631163,2584563.0365878,-1442.2975876081,2668166.6097445,39.416311631163,0,0
-71.679370279487,15.865908438486,34.220742074207,2584563.0365878,-1442.2975876081,2668166.6097445,39.420742074207,0,0
-71.67936957033,15.868491420494,34.225172517252,2584563.0365878,-1442.2975876081,2668166.6097445,39.425172517252,0,0
-71.679368861172,15.871074402502,34.229602960296,2584563.0365878,-1442.2975876081,2668166.6097445,39.429602960296,0,0
-71.679368152015,15.87365738451,34.23403340334,2584563.0365878,-1442.2975876081,2668166.6097445,39.43403340334,0,0
-71.679367442858,15.876240366518,34.238463846385,2584563.0365878,-1442.2975876081,2668166.6097445,39.438463846385,0,0
-71.6793667337,15.878823348526,34.242894289429,2584563.0365878,-1442.2975876081,2668166.6097445,39.442894289429,0,0
-71.679366024543,15.881406330534,34.247324732473,2584563.0365878,-1442.2975876081,2668166.6097445,39.447324732473,0,0
-71.679365315386,15.883989312542,34.251755175518,2584563.0365878,-1442.2975876081,2668166.6097445,39.451755175518,0,0
-71.679364606052,15.8865722947,34.256185618562,2587904.4801029,-942.18635676258,2667528.1824669,39.456185618562,0,0
-71.679363896255,15.889155277251,34.260616061606,2587904.4801029,-942.18635676258,2667528.1824669,39.460616061606,0,0
-71.679363186459,15.891738259802,34.26504650465,2587904.4801029,-942.18635676258,2667528.1824669,39.46504650465,0,0
-71.679362476662,15.894321242352,34.269476947695,2587904.4801029,-942.18635676258,2667528.1824669,39.469476947695,0,0
-71.679361766865,15.896904224903,34.273907390739,2587904.4801029,-942.18635676258,2667528.1824669,39.473907390739,0,0
-71.679361057069,15.899487207454,34.278337833783,2587904.4801029,-942.18635676258,2667528.1824669,39.478337833783,0,0
-71.679360347272,15.902070190005,34.282768276828,2587904.4801029,-942.18635676258,2667528.1824669,39.482768276828,0,0
-71.679359637476,15.904653172555,34.287198719872,2587904.4801029,-942.18635676258,2667528.1824669,39.487198719872,0,0
-71.679358927679,15.907236155106,34.291629162916,2587904.4801029,-942.18635676258,2667528.1824669,39.491629162916,0,0
-71.679358217883,15.909819137657,34.296059605961,2587904.4801029,-942.18635676258,2667528.1824669,39.496059605961,0,0
-71.679357508086,15.912402120208,34.300490049005,2587904.4801029,-942.18635676258,2667528.1824669,39.500490049005,0,0
-71.679356798289,15.914985102759,34.304920492049,2587904.4801029,-942.18635676258,2667528.1824669,39.504920492049,0,0
-71.679356088493,15.917568085309,34.309350935094,2587904.4801029,-942.18635676258,2667528.1824669,39.509350935094,0,0
-71.679355378696,15.92015106786,34.313781378138,2587904.4801029,-942.18635676258,2667528.1824669,39.513781378138,0,0
-71.6793546689,15.922734050411,34.318211821182,2587904.4801029,-942.18635676258,2667528.1824669,39.518211821182,0,0
-71.679353959103,15.925317032962,34.322642264226,2587904.4801029,-942.18635676258,2667528.1824669,39.522642264226,0,0
-71.679353249306,15.927900015512,34.327072707271,2587904.4801029,-942.18635676258,2667528.1824669,39.527072707271,0,0
-71.67935253951,15.930482998063,34.331503150315,2587904.4801029,-942.18635676258,2667528.1824669,39.531503150315,0,0
-71.679351829713,15.933065980614,34.335933593359,2587904.4801029,-942.18635676258,2667528.1824669,39.535933593359,0,0
-71.679351119917,15.935648963165,34.340364036404,2587904.4801029,-942.18635676258,2667528.1824669,39.540364036404,0,0
-71.67935041012,15.938231945716,34.344794479448,2587904.4801029,-942.18635676258,2667528.1824669,39.544794479448,0,0
-71.679349700323,15.940814928266,34.349224922492,2587904.4801029,-942.18635676258,2667528.1824669,39.549224922492,0,0
-71.679348990527,15.943397910817,34.353655365537,2587904.4801029,-942.18635676258,2667528.1824669,39.553655365537,0,0
-71.67934828073,15.945980893368,34.358085808581,2587904.4801029,-942.18635676258,2667528.1824669,39.558085808581,0,0
-71.679347570934,15.948563875919,34.362516251625,2587904.4801029,-942.18635676258,2667528.1824669,39.562516251625,0,0
-71.679346861137,15.951146858469,34.366946694669,2587904.4801029,-942.18635676258,2667528.1824669,39.566946694669,0,0
-71.67934615134,15.95372984102,34.371377137714,2587904.4801029,-942.18635676258,2667528.1824669,39.571377137714,0,0
-71.679345441544,15.956312823571,34.375807580758,2587904.4801029,-942.18635676258,2667528.1824669,39.575807580758,0,0
-71.679344731747,15.958895806122,34.380238023802,2587904.4801029,-942.18635676258,2667528.1824669,39.580238023802,0,0
-71.679344021951,15.961478788673,34.384668466847,2587904.4801029,-942.18635676258,2667528.1824669,39.584668466847,0,0
-71.679343312154,15.964061771223,34.389098909891,2587904.4801029,-942.18635676258,2667528.1824669,39.589098909891,0,0
-71.679342602357,15.966644753774,34.393529352935,2587904.4801029,-942.18635676258,2667528.1824669,39.593529352935,0,0
-71.679341892561,15.969227736325,34.39795979598,2587904.4801029,-942.18635676258,2667528.1824669,39.59795979598,0,0
-71.679341182764,15.971810718876,34.402390239024,2587904.4801029,-942.18635676258,2667528.1824669,39.602390239024,0,0
-71.679340472968,15.974393701426,34.406820682068,2587904.4801029,-942.18635676258,2667528.1824669,39.606820682068,0,0
-71.679339763171,15.976976683977,34.411251125113,2587904.4801029,-942.18635676258,2667528.1824669,39.611251125113,0,0
-71.679339053375,15.979559666528,34.415681568157,2587904.4801029,-942.18635676258,2667528.1824669,39.615681568157,0,0
-71.679338343578,15.982142649079,34.420112011201,2587904.4801029,-942.18635676258,2667528.1824669,39.620112011201,0,0
-71.679337633781,15.98472563163,34.424542454245,2587904.4801029,-942.18635676258,2667528.1824669,39.624542454245,0,0
-71.679336923985,15.98730861418,34.42897289729,2587904.4801029,-942.18635676258,2667528.1824669,39.62897289729,0,0
-71.679336214188,15.989891596731,34.433403340334,2587904.4801029,-942.18635676258,2667528.1824669,39.633403340334,0,0
-71.679335504392,15.992474579282,34.437833783378,2587904.4801029,-942.18635676258,2667528.1824669,39.637833783378,0,0
-71.679334794595,15.995057561833,34.442264226423,2587904.4801029,-942.18635676258,2667528.1824669,39.642264226423,0,0
-71.679334084798,15.997640544383,34.446694669467,2587904.4801029,-942.18635676258,2667528.1824669,39.646694669467,0,0
-71.679333375002,16.000223526934,34.451125112511,2587904.4801029,-942.18635676258,2667528.1824669,39.651125112511,0,0
-71.679332665205,16.002806509485,34.455555555556,2587904.4801029,-942.18635676258,2667528.1824669,39.655555555556,0,0
-71.679331955409,16.005389492036,34.4599859986,2587904.4801029,-942.18635676258,2667528.1824669,39.6599859986,0,0
-71.679331245612,16.007972474586,34.464416441644,2587904.4801029,-942.18635676258,2667528.1824669,39.664416441644,0,0
-71.679330535815,16.010555457137,34.468846884688,2587904.4801029,-942.18635676258,2667528.1824669,39.668846884688,0,0
-71.679329826019,16.013138439688,34.473277327733,2587904.4801029,-942.18635676258,2667528.1824669,39.673277327733,0,0
-71.679329116222,16.015721422239,34.477707770777,2587904.4801029,-942.18635676258,2667528.1824669,39.677707770777,0,0
-71.679328406426,16.01830440479,34.482138213821,2587904.4801029,-942.18635676258,2667528.1824669,39.682138213821,0,0
-71.679327696629,16.02088738734,34.486568656866,2587904.4801029,-942.18635676258,2667528.1824669,39.686568656866,0,0
-71.679326986832,16.023470369891,34.49099909991,2587904.4801029,-942.18635676258,2667528.1824669,39.69099909991,0,0
-71.679326277036,16.026053352442,34.495429542954,2587904.4801029,-942.18635676258,2667528.1824669,39.695429542954,0,0
-71.679325567239,16.028636334993,34.499859985999,2587904.4801029,-942.18635676258,2667528.1824669,39.699859985999,0,0
-71.679324857443,16.031219317543,34.504290429043,2587904.4801029,-942.18635676258,2667528.1824669,39.704290429043,0,0
-71.679324147646,16.033802300094,34.508720872087,2587904.4801029,-942.18635676258,2667528.1824669,39.708720872087,0,0
-71.67932343785,16.036385282645,34.513151315132,2587904.4801029,-942.18635676258,2667528.1824669,39.713151315132,0,0
-71.679322728053,16.038968265196,34.517581758176,2587904.4801029,-942.18635676258,2667528.1824669,39.717581758176,0,0
-71.679322018256,16.041551247747,34.52201220122,2587904.4801029,-942.18635676258,2667528.1824669,39.72201220122,0,0
-71.67932130846,16.044134230297,34.526442644264,2587904.4801029,-942.18635676258,2667528.1824669,39.726442644264,0,0
-71.679320598663,16.046717212848,34.530873087309,2587904.4801029,-942.18635676258,2667528.1824669,39.730873087309,0,0
-71.679319888867,16.049300195399,34.535303530353,2587904.4801029,-942.18635676258,2667528.1824669,39.735303530353,0,0
-71.67931917907,16.05188317795,34.539733973397,2587904.4801029,-942.18635676258,2667528.1824669,39.739733973397,0,0
-71.679318469273,16.0544661605,34.544164416442,2587904.4801029,-942.18635676258,2667528.1824669,39.744164416442,0,0
-71.679317759477,16.057049143051,34.548594859486,2587904.4801029,-942.18635676258,2667528.1824669,39.748594859486,0,0
-71.67931704968,16.059632125602,34.55302530253,2587904.4801029,-942.18635676258,2667528.1824669,39.75302530253,0,0
-71.679316339884,16.062215108153,34.557455745575,2587904.4801029,-942.18635676258,2667528.1824669,39.757455745575,0,0
-71.679315630087,16.064798090704,34.561886188619,2587904.4801029,-942.18635676258,2667528.1824669,39.761886188619,0,0
-71.67931492029,16.067381073254,34.566316631663,2587904.4801029,-942.18635676258,2667528.1824669,39.766316631663,0,0
-71.679314210494,16.069964055805,34.570747074707,2587904.4801029,-942.18635676258,2667528.1824669,39.770747074707,0,0
-71.679313500697,16.072547038356,34.575177517752,2587904.4801029,-942.18635676258,2667528.1824669,39.775177517752,0,0
-71.679312790901,16.075130020907,34.579607960796,2587904.4801029,-942.18635676258,2667528.1824669,39.779607960796,0,0
-71.679312081104,16.077713003457,34.58403840384,2587904.4801029,-942.18635676258,2667528.1824669,39.78403840384,0,0
-71.679311371307,16.080295986008,34.588468846885,2587904.4801029,-942.18635676258,2667528.1824669,39.788468846885,0,0
-71.679310661511,16.082878968559,34.592899289929,2587904.4801029,-942.18635676258,2667528.1824669,39.792899289929,0,0
-71.679309951714,16.08546195111,34.597329732973,2587904.4801029,-942.18635676258,2667528.1824669,39.797329732973,0,0
-71.679309241918,16.088044933661,34.601760176018,2587904.4801029,-942.18635676258,2667528.1824669,39.801760176018,0,0
-71.679308532121,16.090627916211,34.606190619062,2587904.4801029,-942.18635676258,2667528.1824669,39.806190619062,0,0
-71.679307822325,16.093210898762,34.610621062106,2587904.4801029,-942.18635676258,2667528.1824669,39.810621062106,0,0
-71.679307112528,16.095793881313,34.615051505151,2587904.4801029,-942.18635676258,2667528.1824669,39.815051505151,0,0
-71.679306402731,16.098376863864,34.619481948195,2587904.4801029,-942.18635676258,2667528.1824669,39.819481948195,0,0
-71.679305692935,16.100959846414,34.623912391239,2587904.4801029,-942.18635676258,2667528.1824669,39.823912391239,0,0
-71.679304983138,16.103542828965,34.628342834283,2587904.4801029,-942.18635676258,2667528.1824669,39.828342834283,0,0
-71.679304273342,16.106125811516,34.632773277328,2587904.4801029,-942.18635676258,2667528.1824669,39.832773277328,0,0
-71.679303563545,16.108708794067,34.637203720372,2587904.4801029,-942.18635676258,2667528.1824669,39.837203720372,0,0
-71.679302853748,16.111291776617,34.641634163416,2587904.4801029,-942.18635676258,2667528.1824669,39.841634163416,0,0
-71.679302143952,16.113874759168,34.646064606461,2587904.4801029,-942.18635676258,2667528.1824669,39.846064606461,0,0
-71.679301434155,16.116457741719,34.650495049505,2587904.4801029,-942.18635676258,2667528.1824669,39.850495049505,0,0
-71.679300724359,16.11904072427,34.654925492549,2587904.4801029,-942.18635676258,2667528.1824669,39.854925492549,0,0
-71.679300014562,16.121623706821,34.659355935594,2587904.4801029,-942.18635676258,2667528.1824669,39.859355935594,0,0
-71.679299304765,16.124206689371,34.663786378638,2587904.4801029,-942.18635676258,2667528.1824669,39.863786378638,0,0
-71.679298594969,16.126789671922,34.668216821682,2587904.4801029,-942.18635676258,2667528.1824669,39.868216821682,0,0
-71.679297885172,16.129372654473,34.672647264726,2587904.4801029,-942.18635676258,2667528.1824669,39.872647264726,0,0
-71.679297175376,16.131955637024,34.677077707771,2587904.4801029,-942.18635676258,2667528.1824669,39.877077707771,0,0
-71.679296465579,16.134538619574,34.681508150815,2587904.4801029,-942.18635676258,2667528.1824669,39.881508150815,0,0
-71.679295755782,16.137121602125,34.685938593859,2587904.4801029,-942.18635676258,2667528.1824669,39.885938593859,0,0
-71.679295045986,16.139704584676,34.690369036904,2587904.4801029,-942.18635676258,2667528.1824669,39.890369036904,0,0
-71.679294336189,16.142287567227,34.694799479948,2587904.4801029,-942.18635676258,2667528.1824669,39.894799479948,0,0
-71.679293626393,16.144870549778,34.699229922992,2587904.4801029,-942.18635676258,2667528.1824669,39.899229922992,0,0
-71.679292916596,16.147453532328,34.703660366037,2587904.4801029,-942.18635676258,2667528.1824669,39.903660366037,0,0
-71.6792922068,16.150036514879,34.708090809081,2587904.4801029,-942.18635676258,2667528.1824669,39.908090809081,0,0
-71.679291497003,16.15261949743,34.712521252125,2587904.4801029,-942.18635676258,2667528.1824669,39.912521252125,0,0
-71.679290787206,16.155202479981,34.71695169517,2587904.4801029,-942.18635676258,2667528.1824669,39.91695169517,0,0
-71.67929007741,16.157785462531,34.721382138214,2587904.4801029,-942.18635676258,2667528.1824669,39.921382138214,0,0
-71.679289367613,16.160368445082,34.725812581258,2587904.4801029,-942.18635676258,2667528.1824669,39.925812581258,0,0
-71.679288657817,16.162951427633,34.730243024302,2587904.4801029,-942.18635676258,2667528.1824669,39.930243024302,0,0
-71.67928794802,16.165534410184,34.734673467347,2587904.4801029,-942.18635676258,2667528.1824669,39.934673467347,0,0
-71.679287238223,16.168117392735,34.739103910391,2587904.4801029,-942.18635676258,2667528.1824669,39.939103910391,0,0
-71.679286528427,16.170700375285,34.743534353435,2587904.4801029,-942.18635676258,2667528.1824669,39.943534353435,0,0
-71.67928581863,16.173283357836,34.74796479648,2587904.4801029,-942.18635676258,2667528.1824669,39.94796479648,0,0
-71.679285108834,16.175866340387,34.752395239524,2587904.4801029,-942.18635676258,2667528.1824669,39.952395239524,0,0
-71.679284399037,16.178449322938,34.756825682568,2587904.4801029,-942.18635676258,2667528.1824669,39.956825682568,0,0
-71.67928368924,16.181032305488,34.761256125613,2587904.4801029,-942.18635676258,2667528.1824669,39.961256125613,0,0
-71.679282979444,16.183615288039,34.765686568657,2587904.4801029,-942.18635676258,2667528.1824669,39.965686568657,0,0
-71.679282269647,16.18619827059,34.770117011701,2587904.4801029,-942.18635676258,2667528.1824669,39.970117011701,0,0
-71.679281559851,16.188781253141,34.774547454745,2587904.4801029,-942.18635676258,2667528.1824669,39.974547454745,0,0
-71.679280850054,16.191364235692,34.77897789779,2587904.4801029,-942.18635676258,2667528.1824669,39.97897789779,0,0
-71.679280140257,16.193947218242,34.783408340834,2587904.4801029,-942.18635676258,2667528.1824669,39.983408340834,0,0
-71.679279430461,16.196530200793,34.787838783878,2587904.4801029,-942.18635676258,2667528.1824669,39.987838783878,0,0
-71.679278720664,16.199113183344,34.792269226923,2587904.4801029,-942.18635676258,2667528.1824669,39.992269226923,0,0
-71.679278010868,16.201696165895,34.796699669967,2587904.4801029,-942.18635676258,2667528.1824669,39.996699669967,0,0
-71.679277301071,16.204279148445,34.801130113011,2587904.4801029,-942.18635676258,2667528.1824669,40.001130113011,0,0
-71.679276591275,16.206862130996,34.805560556056,2587904.4801029,-942.18635676258,2667528.1824669,40.005560556056,0,0
-71.679275881478,16.209445113547,34.8099909991,2587904.4801029,-942.18635676258,2667528.1824669,40.0099909991,0,0
-71.679275171681,16.212028096098,34.814421442144,2587904.4801029,-942.18635676258,2667528.1824669,40.014421442144,0,0
-71.679274461885,16.214611078648,34.818851885189,2587904.4801029,-942.18635676258,2667528.1824669,40.018851885189,0,0
-71.679273752088,16.217194061199,34.823282328233,2587904.4801029,-942.18635676258,2667528.1824669,40.023282328233,0,0
-71.679273042292,16.21977704375,34.827712771277,2587904.4801029,-942.18635676258,2667528.1824669,40.027712771277,0,0
-71.679272332495,16.222360026301,34.832143214321,2587904.4801029,-942.18635676258,2667528.1824669,40.032143214321,0,0
-71.679271622698,16.224943008852,34.836573657366,2587904.4801029,-942.18635676258,2667528.1824669,40.036573657366,0,0
-71.679270912902,16.227525991402,34.84100410041,2587904.4801029,-942.18635676258,2667528.1824669,40.04100410041,0,0
-71.679270203105,16.230108973953,34.845434543454,2587904.4801029,-942.18635676258,2667528.1824669,40.045434543454,0,0
-71.679269493309,16.232691956504,34.849864986499,2587904.4801029,-942.18635676258,2667528.1824669,40.049864986499,0,0
-71.679268783512,16.235274939055,34.854295429543,2587904.4801029,-942.18635676258,2667528.1824669,40.054295429543,0,0
-71.679268073715,16.237857921605,34.858725872587,2587904.4801029,-942.18635676258,2667528.1824669,40.058725872587,0,0
-71.679267363919,16.240440904156,34.863156315632,2587904.4801029,-942.18635676258,2667528.1824669,40.063156315632,0,0
-71.679266654122,16.243023886707,34.867586758676,2587904.4801029,-942.18635676258,2667528.1824669,40.067586758676,0,0
-71.679265944326,16.245606869258,34.87201720172,2587904.4801029,-942.18635676258,2667528.1824669,40.07201720172,0,0
-71.679265234529,16.248189851809,34.876447644764,2587904.4801029,-942.18635676258,2667528.1824669,40.076447644764,0,0
-71.679264524732,16.250772834359,34.880878087809,2587904.4801029,-942.18635676258,2667528.1824669,40.080878087809,0,0
-71.679263814936,16.25335581691,34.885308530853,2587904.4801029,-942.18635676258,2667528.1824669,40.085308530853,0,0
-71.679263105139,16.255938799461,34.889738973897,2587904.4801029,-942.18635676258,2667528.1824669,40.089738973897,0,0
-71.679262395343,16.258521782012,34.894169416942,2587904.4801029,-942.18635676258,2667528.1824669,40.094169416942,0,0
-71.679261685546,16.261104764562,34.898599859986,2587904.4801029,-942.18635676258,2667528.1824669,40.098599859986,0,0
-71.679260975749,16.263687747113,34.90303030303,2587904.4801029,-942.18635676258,2667528.1824669,40.10303030303,0,0
-71.679260265953,16.266270729664,34.907460746075,2587904.4801029,-942.18635676258,2667528.1824669,40.107460746075,0,0
-71.679259556156,16.268853712215,34.911891189119,2587904.4801029,-942.18635676258,2667528.1824669,40.111891189119,0,0
-71.67925884636,16.271436694766,34.916321632163,2587904.4801029,-942.18635676258,2667528.1824669,40.116321632163,0,0
-71.679258136563,16.274019677316,34.920752075208,2587904.4801029,-942.18635676258,2667528.1824669,40.120752075208,0,0
-71.679257426767,16.276602659867,34.925182518252,2587904.4801029,-942.18635676258,2667528.1824669,40.125182518252,0,0
-71.67925671697,16.279185642418,34.929612961296,2587904.4801029,-942.18635676258,2667528.1824669,40.129612961296,0,0
-71.679256007173,16.281768624969,34.93404340434,2587904.4801029,-942.18635676258,2667528.1824669,40.13404340434,0,0
-71.679255297377,16.284351607519,34.938473847385,2587904.4801029,-942.18635676258,2667528.1824669,40.138473847385,0,0
-71.67925458758,16.28693459007,34.942904290429,2587904.4801029,-942.18635676258,2667528.1824669,40.142904290429,0,0
-71.679253877784,16.289517572621,34.947334733473,2587904.4801029,-942.18635676258,2667528.1824669,40.147334733473,0,0
-71.679253167987,16.292100555172,34.951765176518,2587904.4801029,-942.18635676258,2667528.1824669,40.151765176518,0,0
-71.67925245819,16.294683537723,34.956195619562,2587904.4801029,-942.18635676258,2667528.1824669,40.156195619562,0,0
-71.679251748394,16.297266520273,34.960626062606,2587904.4801029,-942.18635676258,2667528.1824669,40.160626062606,0,0
-71.679251038597,16.299849502824,34.965056505651,2587904.4801029,-942.18635676258,2667528.1824669,40.165056505651,0,0
-71.679250328801,16.302432485375,34.969486948695,2587904.4801029,-942.18635676258,2667528.1824669,40.169486948695,0,0
-71.679249619004,16.305015467926,34.973917391739,2587904.4801029,-942.18635676258,2667528.1824669,40.173917391739,0,0
-71.679248909207,16.307598450476,34.978347834783,2587904.4801029,-942.18635676258,2667528.1824669,40.178347834783,0,0
-71.679248199411,16.310181433027,34.982778277828,2587904.4801029,-942.18635676258,2667528.1824669,40.182778277828,0,0
-71.679247489614,16.312764415578,34.987208720872,2587904.4801029,-942.18635676258,2667528.1824669,40.187208720872,0,0
-71.679246779818,16.315347398129,34.991639163916,2587904.4801029,-942.18635676258,2667528.1824669,40.191639163916,0,0
-71.679246070021,16.317930380679,34.996069606961,2587904.4801029,-942.18635676258,2667528.1824669,40.196069606961,0,0
-71.679245360224,16.32051336323,35.000500050005,2587904.4801029,-942.18635676258,2667528.1824669,40.200500050005,0,0
-71.679244650428,16.323096345781,35.004930493049,2587904.4801029,-942.18635676258,2667528.1824669,40.204930493049,0,0
-71.679243940631,16.325679328332,35.009360936094,2587904.4801029,-942.18635676258,2667528.1824669,40.209360936094,0,0
-71.679243230835,16.328262310883,35.013791379138,2587904.4801029,-942.18635676258,2667528.1824669,40.213791379138,0,0
-71.679242521038,16.330845293433,35.018221822182,2587904.4801029,-942.18635676258,2667528.1824669,40.218221822182,0,0
-71.679241811242,16.333428275984,35.022652265227,2587904.4801029,-942.18635676258,2667528.1824669,40.222652265227,0,0
-71.679241101445,16.336011258535,35.027082708271,2587904.4801029,-942.18635676258,2667528.1824669,40.227082708271,0,0
-71.679240391648,16.338594241086,35.031513151315,2587904.4801029,-942.18635676258,2667528.1824669,40.231513151315,0,0
-71.679239681852,16.341177223636,35.035943594359,2587904.4801029,-942.18635676258,2667528.1824669,40.235943594359,0,0
-71.679238972055,16.343760206187,35.040374037404,2587904.4801029,-942.18635676258,2667528.1824669,40.240374037404,0,0
-71.679238262259,16.346343188738,35.044804480448,2587904.4801029,-942.18635676258,2667528.1824669,40.244804480448,0,0
-71.679237552462,16.348926171289,35.049234923492,2587904.4801029,-942.18635676258,2667528.1824669,40.249234923492,0,0
-71.679236842665,16.35150915384,35.053665366537,2587904.4801029,-942.18635676258,2667528.1824669,40.253665366537,0,0
-71.679236132869,16.35409213639,35.058095809581,2587904.4801029,-942.18635676258,2667528.1824669,40.258095809581,0,0
-71.679235423072,16.356675118941,35.062526252625,2587904.4801029,-942.18635676258,2667528.1824669,40.262526252625,0,0
-71.679234713276,16.359258101492,35.06695669567,2587904.4801029,-942.18635676258,2667528.1824669,40.26695669567,0,0
-71.679234003479,16.361841084043,35.071387138714,2587904.4801029,-942.18635676258,2667528.1824669,40.271387138714,0,0
-71.679233293682,16.364424066593,35.075817581758,2587904.4801029,-942.18635676258,2667528.1824669,40.275817581758,0,0
-71.679232583886,16.367007049144,35.080248024802,2587904.4801029,-942.18635676258,2667528.1824669,40.280248024802,0,0
-71.679231874089,16.369590031695,35.084678467847,2587904.4801029,-942.18635676258,2667528.1824669,40.284678467847,0,0
-71.679231164293,16.372173014246,35.089108910891,2587904.4801029,-942.18635676258,2667528.1824669,40.289108910891,0,0
-71.679230454496,16.374755996797,35.093539353935,2587904.4801029,-942.18635676258,2667528.1824669,40.293539353935,0,0
-71.679229744699,16.377338979347,35.09796979698,2587904.4801029,-942.18635676258,2667528.1824669,40.29796979698,0,0
-71.679229034903,16.379921961898,35.102400240024,2587904.4801029,-942.18635676258,2667528.1824669,40.302400240024,0,0
-71.679228325106,16.382504944449,35.106830683068,2587904.4801029,-942.18635676258,2667528.1824669,40.306830683068,0,0
-71.67922761531,16.385087927,35.111261126113,2587904.4801029,-942.18635676258,2667528.1824669,40.311261126113,0,0
-71.679226905513,16.38767090955,35.115691569157,2587904.4801029,-942.18635676258,2667528.1824669,40.315691569157,0,0
-71.679226195717,16.390253892101,35.120122012201,2587904.4801029,-942.18635676258,2667528.1824669,40.320122012201,0,0
-71.67922548592,16.392836874652,35.124552455246,2587904.4801029,-942.18635676258,2667528.1824669,40.324552455246,0,0
-71.679224776123,16.395419857203,35.12898289829,2587904.4801029,-942.18635676258,2667528.1824669,40.32898289829,0,0
-71.679224066327,16.398002839754,35.133413341334,2587904.4801029,-942.18635676258,2667528.1824669,40.333413341334,0,0
-71.67922335653,16.400585822304,35.137843784378,2587904.4801029,-942.18635676258,2667528.1824669,40.337843784378,0,0
-71.679222646734,16.403168804855,35.142274227423,2587904.4801029,-942.18635676258,2667528.1824669,40.342274227423,0,0
-71.679221936937,16.405751787406,35.146704670467,2587904.4801029,-942.18635676258,2667528.1824669,40.346704670467,0,0
-71.67922122714,16.408334769957,35.151135113511,2587904.4801029,-942.18635676258,2667528.1824669,40.351135113511,0,0
-71.679220517344,16.410917752507,35.155565556556,2587904.4801029,-942.18635676258,2667528.1824669,40.355565556556,0,0
-71.679219807547,16.413500735058,35.1599959996,2587904.4801029,-942.18635676258,2667528.1824669,40.3599959996,0,0
-71.679219097751,16.416083717609,35.164426442644,2587904.4801029,-942.18635676258,2667528.1824669,40.364426442644,0,0
-71.679218387954,16.41866670016,35.168856885689,2587904.4801029,-942.18635676258,2667528.1824669,40.368856885689,0,0
-71.679217678157,16.42124968271,35.173287328733,2587904.4801029,-942.18635676258,2667528.1824669,40.373287328733,0,0
-71.679216968361,16.423832665261,35.177717771777,2587904.4801029,-942.18635676258,2667528.1824669,40.377717771777,0,0
-71.679216258564,16.426415647812,35.182148214821,2587904.4801029,-942.18635676258,2667528.1824669,40.382148214821,0,0
-71.679215548768,16.428998630363,35.186578657866,2587904.4801029,-942.18635676258,2667528.1824669,40.386578657866,0,0
-71.679214838971,16.431581612914,35.19100910091,2587904.4801029,-942.18635676258,2667528.1824669,40.39100910091,0,0
-71.679214129174,16.434164595464,35.195439543954,2587904.4801029,-942.18635676258,2667528.1824669,40.395439543954,0,0
-71.679213419378,16.436747578015,35.199869986999,2587904.4801029,-942.18635676258,2667528.1824669,40.399869986999,0,0
-71.679212709581,16.439330560566,35.204300430043,2587904.4801029,-942.18635676258,2667528.1824669,40.404300430043,0,0
-71.679211999785,16.441913543117,35.208730873087,2587904.4801029,-942.18635676258,2667528.1824669,40.408730873087,0,0
-71.679211289988,16.444496525667,35.213161316132,2587904.4801029,-942.18635676258,2667528.1824669,40.413161316132,0,0
-71.679210580191,16.447079508218,35.217591759176,2587904.4801029,-942.18635676258,2667528.1824669,40.417591759176,0,0
-71.679209870395,16.449662490769,35.22202220222,2587904.4801029,-942.18635676258,2667528.1824669,40.42202220222,0,0
-71.679209160598,16.45224547332,35.226452645265,2587904.4801029,-942.18635676258,2667528.1824669,40.426452645265,0,0
-71.679208450802,16.454828455871,35.230883088309,2587904.4801029,-942.18635676258,2667528.1824669,40.430883088309,0,0
-71.679207741005,16.457411438421,35.235313531353,2587904.4801029,-942.18635676258,2667528.1824669,40.435313531353,0,0
-71.679207031209,16.459994420972,35.239743974397,2587904.4801029,-942.18635676258,2667528.1824669,40.439743974397,0,0
-71.679206321412,16.462577403523,35.244174417442,2587904.4801029,-942.18635676258,2667528.1824669,40.444174417442,0,0
-71.679205611615,16.465160386074,35.248604860486,2587904.4801029,-942.18635676258,2667528.1824669,40.448604860486,0,0
-71.679204901819,16.467743368624,35.25303530353,2587904.4801029,-942.18635676258,2667528.1824669,40.45303530353,0,0
-71.679204192022,16.470326351175,35.257465746575,2587904.4801029,-942.18635676258,2667528.1824669,40.457465746575,0,0
-71.679203482226,16.472909333726,35.261896189619,2587904.4801029,-942.18635676258,2667528.1824669,40.461896189619,0,0
-71.679202772429,16.475492316277,35.266326632663,2587904.4801029,-942.18635676258,2667528.1824669,40.466326632663,0,0
-71.679202062632,16.478075298828,35.270757075708,2587904.4801029,-942.18635676258,2667528.1824669,40.470757075708,0,0
-71.679201352836,16.480658281378,35.275187518752,2587904.4801029,-942.18635676258,2667528.1824669,40.475187518752,0,0
-71.679200643039,16.483241263929,35.279617961796,2587904.4801029,-942.18635676258,2667528.1824669,40.479617961796,0,0
-71.679199933243,16.48582424648,35.28404840484,2587904.4801029,-942.18635676258,2667528.1824669,40.48404840484,0,0
-71.679199223446,16.488407229031,35.288478847885,2587904.4801029,-942.18635676258,2667528.1824669,40.488478847885,0,0
-71.679198513649,16.490990211581,35.292909290929,2587904.4801029,-942.18635676258,2667528.1824669,40.492909290929,0,0
-71.679197803853,16.493573194132,35.297339733973,2587904.4801029,-942.18635676258,2667528.1824669,40.497339733973,0,0
-71.679197094056,16.496156176683,35.301770177018,2587904.4801029,-942.18635676258,2667528.1824669,40.501770177018,0,0
-71.67919638426,16.498739159234,35.306200620062,2587904.4801029,-942.18635676258,2667528.1824669,40.506200620062,0,0
-71.679195674463,16.501322141785,35.310631063106,2587904.4801029,-942.18635676258,2667528.1824669,40.510631063106,0,0
-71.679194964666,16.503905124335,35.315061506151,2587904.4801029,-942.18635676258,2667528.1824669,40.515061506151,0,0
-71.67919425487,16.506488106886,35.319491949195,2587904.4801029,-942.18635676258,2667528.1824669,40.519491949195,0,0
-71.679193545073,16.509071089437,35.323922392239,2587904.4801029,-942.18635676258,2667528.1824669,40.523922392239,0,0
-71.679192835277,16.511654071988,35.328352835284,2587904.4801029,-942.18635676258,2667528.1824669,40.528352835284,0,0
-71.67919212548,16.514237054538,35.332783278328,2587904.4801029,-942.18635676258,2667528.1824669,40.532783278328,0,0
-71.679191415684,16.516820037089,35.337213721372,2587904.4801029,-942.18635676258,2667528.1824669,40.537213721372,0,0
-71.679190705887,16.51940301964,35.341644164416,2587904.4801029,-942.18635676258,2667528.1824669,40.541644164416,0,0
-71.67918999609,16.521986002191,35.346074607461,2587904.4801029,-942.18635676258,2667528.1824669,40.546074607461,0,0
-71.679189286294,16.524568984741,35.350505050505,2587904.4801029,-942.18635676258,2667528.1824669,40.550505050505,0,0
-71.679188576497,16.527151967292,35.354935493549,2587904.4801029,-942.18635676258,2667528.1824669,40.554935493549,0,0
-71.679187866701,16.529734949843,35.359365936594,2587904.4801029,-942.18635676258,2667528.1824669,40.559365936594,0,0
-71.679187156904,16.532317932394,35.363796379638,2587904.4801029,-942.18635676258,2667528.1824669,40.563796379638,0,0
-71.679186447107,16.534900914945,35.368226822682,2587904.4801029,-942.18635676258,2667528.1824669,40.568226822682,0,0
-71.679185737311,16.537483897495,35.372657265727,2587904.4801029,-942.18635676258,2667528.1824669,40.572657265727,0,0
-71.679185027514,16.540066880046,35.377087708771,2587904.4801029,-942.18635676258,2667528.1824669,40.577087708771,0,0
-71.679184317718,16.542649862597,35.381518151815,2587904.4801029,-942.18635676258,2667528.1824669,40.581518151815,0,0
-71.679183607921,16.545232845148,35.385948594859,2587904.4801029,-942.18635676258,2667528.1824669,40.585948594859,0,0
-71.679182898124,16.547815827698,35.390379037904,2587904.4801029,-942.18635676258,2667528.1824669,40.590379037904,0,0
-71.679182188328,16.550398810249,35.394809480948,2587904.4801029,-942.18635676258,2667528.1824669,40.594809480948,0,0
-71.679181478531,16.5529817928,35.399239923992,2587904.4801029,-942.18635676258,2667528.1824669,40.599239923992,0,0
-71.679180768735,16.555564775351,35.403670367037,2587904.4801029,-942.18635676258,2667528.1824669,40.603670367037,0,0
-71.679180058938,16.558147757902,35.408100810081,2587904.4801029,-942.18635676258,2667528.1824669,40.608100810081,0,0
-71.679179349141,16.560730740452,35.412531253125,2587904.4801029,-942.18635676258,2667528.1824669,40.612531253125,0,0
-71.679178639345,16.563313723003,35.41696169617,2587904.4801029,-942.18635676258,2667528.1824669,40.61696169617,0,0
-71.679177929548,16.565896705554,35.421392139214,2587904.4801029,-942.18635676258,2667528.1824669,40.621392139214,0,0
-71.679177219752,16.568479688105,35.425822582258,2587904.4801029,-942.18635676258,2667528.1824669,40.625822582258,0,0
-71.679176509955,16.571062670655,35.430253025303,2587904.4801029,-942.18635676258,2667528.1824669,40.630253025303,0,0
-71.679175800159,16.573645653206,35.434683468347,2587904.4801029,-942.18635676258,2667528.1824669,40.634683468347,0,0
-71.679175090362,16.576228635757,35.439113911391,2587904.4801029,-942.18635676258,2667528.1824669,40.639113911391,0,0
-71.679174380565,16.578811618308,35.443544354435,2587904.4801029,-942.18635676258,2667528.1824669,40.643544354435,0,0
-71.679173670769,16.581394600859,35.44797479748,2587904.4801029,-942.18635676258,2667528.1824669,40.64797479748,0,0
-71.679172960972,16.583977583409,35.452405240524,2587904.4801029,-942.18635676258,2667528.1824669,40.652405240524,0,0
-71.679172251176,16.58656056596,35.456835683568,2587904.4801029,-942.18635676258,2667528.1824669,40.656835683568,0,0
-71.679171541379,16.589143548511,35.461266126613,2587904.4801029,-942.18635676258,2667528.1824669,40.661266126613,0,0
-71.679170831582,16.591726531062,35.465696569657,2587904.4801029,-942.18635676258,2667528.1824669,40.665696569657,0,0
-71.679170121786,16.594309513612,35.470127012701,2587904.4801029,-942.18635676258,2667528.1824669,40.670127012701,0,0
-71.679169411989,16.596892496163,35.474557455746,2587904.4801029,-942.18635676258,2667528.1824669,40.674557455746,0,0
-71.679168702193,16.599475478714,35.47898789879,2587904.4801029,-942.18635676258,2667528.1824669,40.67898789879,0,0
-71.679167992396,16.602058461265,35.483418341834,2587904.4801029,-942.18635676258,2667528.1824669,40.683418341834,0,0
-71.679167282599,16.604641443816,35.487848784878,2587904.4801029,-942.18635676258,2667528.1824669,40.687848784878,0,0
-71.679166572803,16.607224426366,35.492279227923,2587904.4801029,-942.18635676258,2667528.1824669,40.692279227923,0,0
-71.679165863006,16.609807408917,35.496709670967,2587904.4801029,-942.18635676258,2667528.1824669,40.696709670967,0,0
-71.67916515321,16.612390391468,35.501140114011,2587904.4801029,-942.18635676258,2667528.1824669,40.701140114011,0,0
-71.679164443413,16.614973374019,35.505570557056,2587904.4801029,-942.18635676258,2667528.1824669,40.705570557056,0,0
-71.679163733616,16.617556356569,35.5100010001,2587904.4801029,-942.18635676258,2667528.1824669,40.7100010001,0,0
-71.67916302382,16.62013933912,35.514431443144,2587904.4801029,-942.18635676258,2667528.1824669,40.714431443144,0,0
-71.679162314023,16.622722321671,35.518861886189,2587904.4801029,-942.18635676258,2667528.1824669,40.718861886189,0,0
-71.679161604227,16.625305304222,35.523292329233,2587904.4801029,-942.18635676258,2667528.1824669,40.723292329233,0,0
-71.67916089443,16.627888286772,35.527722772277,2587904.4801029,-942.18635676258,2667528.1824669,40.727722772277,0,0
-71.679160184634,16.630471269323,35.532153215322,2587904.4801029,-942.18635676258,2667528.1824669,40.732153215322,0,0
-71.679159474837,16.633054251874,35.536583658366,2587904.4801029,-942.18635676258,2667528.1824669,40.736583658366,0,0
-71.67915876504,16.635637234425,35.54101410141,2587904.4801029,-942.18635676258,2667528.1824669,40.74101410141,0,0
-71.679158055244,16.638220216976,35.545444544454,2587904.4801029,-942.18635676258,2667528.1824669,40.745444544454,0,0
-71.679157345447,16.640803199526,35.549874987499,2587904.4801029,-942.18635676258,2667528.1824669,40.749874987499,0,0
-71.679156635651,16.643386182077,35.554305430543,2587904.4801029,-942.18635676258,2667528.1824669,40.754305430543,0,0
-71.679155925854,16.645969164628,35.558735873587,2587904.4801029,-942.18635676258,2667528.1824669,40.758735873587,0,0
-71.679155216057,16.648552147179,35.563166316632,2587904.4801029,-942.18635676258,2667528.1824669,40.763166316632,0,0
-71.679154506261,16.651135129729,35.567596759676,2587904.4801029,-942.18635676258,2667528.1824669,40.767596759676,0,0
-71.679153796464,16.65371811228,35.57202720272,2587904.4801029,-942.18635676258,2667528.1824669,40.77202720272,0,0
-71.679153086668,16.656301094831,35.576457645765,2587904.4801029,-942.18635676258,2667528.1824669,40.776457645765,0,0
-71.679152376871,16.658884077382,35.580888088809,2587904.4801029,-942.18635676258,2667528.1824669,40.780888088809,0,0
-71.679151667074,16.661467059933,35.585318531853,2587904.4801029,-942.18635676258,2667528.1824669,40.785318531853,0,0
-71.679150957278,16.664050042483,35.589748974897,2587904.4801029,-942.18635676258,2667528.1824669,40.789748974897,0,0
-71.679150247481,16.666633025034,35.594179417942,2587904.4801029,-942.18635676258,2667528.1824669,40.794179417942,0,0
-71.679149537685,16.669216007585,35.598609860986,2587904.4801029,-942.18635676258,2667528.1824669,40.798609860986,0,0
-71.679148827888,16.671798990136,35.60304030403,2587904.4801029,-942.18635676258,2667528.1824669,40.80304030403,0,0
-71.679148118091,16.674381972686,35.607470747075,2587904.4801029,-942.18635676258,2667528.1824669,40.807470747075,0,0
-71.679147408295,16.676964955237,35.611901190119,2587904.4801029,-942.18635676258,2667528.1824669,40.811901190119,0,0
-71.679146698498,16.679547937788,35.616331633163,2587904.4801029,-942.18635676258,2667528.1824669,40.816331633163,0,0
-71.679145988702,16.682130920339,35.620762076208,2587904.4801029,-942.18635676258,2667528.1824669,40.820762076208,0,0
-71.679145278905,16.68471390289,35.625192519252,2587904.4801029,-942.18635676258,2667528.1824669,40.825192519252,0,0
-71.679144569108,16.68729688544,35.629622962296,2587904.4801029,-942.18635676258,2667528.1824669,40.829622962296,0,0
-71.679143859312,16.689879867991,35.634053405341,2587904.4801029,-942.18635676258,2667528.1824669,40.834053405341,0,0
-71.679143149515,16.692462850542,35.638483848385,2587904.4801029,-942.18635676258,2667528.1824669,40.838483848385,0,0
-71.679142439719,16.695045833093,35.642914291429,2587904.4801029,-942.18635676258,2667528.1824669,40.842914291429,0,0
-71.679141729922,16.697628815643,35.647344734473,2587904.4801029,-942.18635676258,2667528.1824669,40.847344734473,0,0
-71.679141020126,16.700211798194,35.651775177518,2587904.4801029,-942.18635676258,2667528.1824669,40.851775177518,0,0
-71.679140310329,16.702794780745,35.656205620562,2587904.4801029,-942.18635676258,2667528.1824669,40.856205620562,0,0
-71.679139600532,16.705377763296,35.660636063606,2587904.4801029,-942.18635676258,2667528.1824669,40.860636063606,0,0
-71.679138890736,16.707960745846,35.665066506651,2587904.4801029,-942.18635676258,2667528.1824669,40.865066506651,0,0
-71.679138180939,16.710543728397,35.669496949695,2587904.4801029,-942.18635676258,2667528.1824669,40.869496949695,0,0
-71.679137471143,16.713126710948,35.673927392739,2587904.4801029,-942.18635676258,2667528.1824669,40.873927392739,0,0
-71.679136761346,16.715709693499,35.678357835784,2587904.4801029,-942.18635676258,2667528.1824669,40.878357835784,0,0
-71.679136051549,16.71829267605,35.682788278828,2587904.4801029,-942.18635676258,2667528.1824669,40.882788278828,0,0
-71.679135341753,16.7208756586,35.687218721872,2587904.4801029,-942.18635676258,2667528.1824669,40.887218721872,0,0
-71.679134631956,16.723458641151,35.691649164916,2587904.4801029,-942.18635676258,2667528.1824669,40.891649164916,0,0
-71.67913392216,16.726041623702,35.696079607961,2587904.4801029,-942.18635676258,2667528.1824669,40.896079607961,0,0
-71.679133212363,16.728624606253,35.700510051005,2587904.4801029,-942.18635676258,2667528.1824669,40.900510051005,0,0
-71.679132502566,16.731207588803,35.704940494049,2587904.4801029,-942.18635676258,2667528.1824669,40.904940494049,0,0
-71.67913179277,16.733790571354,35.709370937094,2587904.4801029,-942.18635676258,2667528.1824669,40.909370937094,0,0
-71.679131082973,16.736373553905,35.713801380138,2587904.4801029,-942.18635676258,2667528.1824669,40.913801380138,0,0
-71.679130373177,16.738956536456,35.718231823182,2587904.4801029,-942.18635676258,2667528.1824669,40.918231823182,0,0
-71.67912966338,16.741539519007,35.722662266227,2587904.4801029,-942.18635676258,2667528.1824669,40.922662266227,0,0
-71.679128953583,16.744122501557,35.727092709271,2587904.4801029,-942.18635676258,2667528.1824669,40.927092709271,0,0
-71.679128243787,16.746705484108,35.731523152315,2587904.4801029,-942.18635676258,2667528.1824669,40.931523152315,0,0
-71.67912753399,16.749288466659,35.73595359536,2587904.4801029,-942.18635676258,2667528.1824669,40.93595359536,0,0
-71.679126824194,16.75187144921,35.740384038404,2587904.4801029,-942.18635676258,2667528.1824669,40.940384038404,0,0
-71.679126114397,16.75445443176,35.744814481448,2587904.4801029,-942.18635676258,2667528.1824669,40.944814481448,0,0
-71.679125404601,16.757037414311,35.749244924492,2587904.4801029,-942.18635676258,2667528.1824669,40.949244924492,0,0
-71.679124694804,16.759620396862,35.753675367537,2587904.4801029,-942.18635676258,2667528.1824669,40.953675367537,0,0
-71.679123985007,16.762203379413,35.758105810581,2587904.4801029,-942.18635676258,2667528.1824669,40.958105810581,0,0
-71.679123275211,16.764786361964,35.762536253625,2587904.4801029,-942.18635676258,2667528.1824669,40.962536253625,0,0
-71.679122565414,16.767369344514,35.76696669667,2587904.4801029,-942.18635676258,2667528.1824669,40.96696669667,0,0
-71.679121855618,16.769952327065,35.771397139714,2587904.4801029,-942.18635676258,2667528.1824669,40.971397139714,0,0
-71.679121145821,16.772535309616,35.775827582758,2587904.4801029,-942.18635676258,2667528.1824669,40.975827582758,0,0
-71.679120436024,16.775118292167,35.780258025803,2587904.4801029,-942.18635676258,2667528.1824669,40.980258025803,0,0
-71.679119726228,16.777701274717,35.784688468847,2587904.4801029,-942.18635676258,2667528.1824669,40.984688468847,0,0
-71.679119016431,16.780284257268,35.789118911891,2587904.4801029,-942.18635676258,2667528.1824669,40.989118911891,0,0
-71.679118306635,16.782867239819,35.793549354935,2587904.4801029,-942.18635676258,2667528.1824669,40.993549354935,0,0
-71.679117596838,16.78545022237,35.79797979798,2587904.4801029,-942.18635676258,2667528.1824669,40.99797979798,0,0
-71.679116887041,16.788033204921,35.802410241024,2587904.4801029,-942.18635676258,2667528.1824669,41.002410241024,0,0
-71.679116177245,16.790616187471,35.806840684068,2587904.4801029,-942.18635676258,2667528.1824669,41.006840684068,0,0
-71.679115467448,16.793199170022,35.811271127113,2587904.4801029,-942.18635676258,2667528.1824669,41.011271127113,0,0
-71.679114757652,16.795782152573,35.815701570157,2587904.4801029,-942.18635676258,2667528.1824669,41.015701570157,0,0
-71.679114047855,16.798365135124,35.820132013201,2587904.4801029,-942.18635676258,2667528.1824669,41.020132013201,0,0
-71.679113338058,16.800948117674,35.824562456246,2587904.4801029,-942.18635676258,2667528.1824669,41.024562456246,0,0
-71.679112628262,16.803531100225,35.82899289929,2587904.4801029,-942.18635676258,2667528.1824669,41.02899289929,0,0
-71.679111918465,16.806114082776,35.833423342334,2587904.4801029,-942.18635676258,2667528.1824669,41.033423342334,0,0
-71.679111208669,16.808697065327,35.837853785379,2587904.4801029,-942.18635676258,2667528.1824669,41.037853785379,0,0
-71.679110498872,16.811280047877,35.842284228423,2587904.4801029,-942.18635676258,2667528.1824669,41.042284228423,0,0
-71.679109789076,16.813863030428,35.846714671467,2587904.4801029,-942.18635676258,2667528.1824669,41.046714671467,0,0
-71.679109079279,16.816446012979,35.851145114511,2587904.4801029,-942.18635676258,2667528.1824669,41.051145114511,0,0
-71.679108369482,16.81902899553,35.855575557556,2587904.4801029,-942.18635676258,2667528.1824669,41.055575557556,0,0
-71.679107659686,16.821611978081,35.8600060006,2587904.4801029,-942.18635676258,2667528.1824669,41.0600060006,0,0
-71.679106949889,16.824194960631,35.864436443644,2587904.4801029,-942.18635676258,2667528.1824669,41.064436443644,0,0
-71.679106240093,16.826777943182,35.868866886689,2587904.4801029,-942.18635676258,2667528.1824669,41.068866886689,0,0
-71.679105530296,16.829360925733,35.873297329733,2587904.4801029,-942.18635676258,2667528.1824669,41.073297329733,0,0
-71.679104820499,16.831943908284,35.877727772777,2587904.4801029,-942.18635676258,2667528.1824669,41.077727772777,0,0
-71.679104110703,16.834526890834,35.882158215822,2587904.4801029,-942.18635676258,2667528.1824669,41.082158215822,0,0
-71.679103400906,16.837109873385,35.886588658866,2587904.4801029,-942.18635676258,2667528.1824669,41.086588658866,0,0
-71.67910269111,16.839692855936,35.89101910191,2587904.4801029,-942.18635676258,2667528.1824669,41.09101910191,0,0
-71.679101981313,16.842275838487,35.895449544954,2587904.4801029,-942.18635676258,2667528.1824669,41.095449544954,0,0
-71.679101271516,16.844858821038,35.899879987999,2587904.4801029,-942.18635676258,2667528.1824669,41.099879987999,0,0
-71.67910056172,16.847441803588,35.904310431043,2587904.4801029,-942.18635676258,2667528.1824669,41.104310431043,0,0
-71.679099851923,16.850024786139,35.908740874087,2587904.4801029,-942.18635676258,2667528.1824669,41.108740874087,0,0
-71.679099142127,16.85260776869,35.913171317132,2587904.4801029,-942.18635676258,2667528.1824669,41.113171317132,0,0
-71.67909843233,16.855190751241,35.917601760176,2587904.4801029,-942.18635676258,2667528.1824669,41.117601760176,0,0
-71.679097722533,16.857773733791,35.92203220322,2587904.4801029,-942.18635676258,2667528.1824669,41.12203220322,0,0
-71.679097012737,16.860356716342,35.926462646265,2587904.4801029,-942.18635676258,2667528.1824669,41.126462646265,0,0
-71.67909630294,16.862939698893,35.930893089309,2587904.4801029,-942.18635676258,2667528.1824669,41.130893089309,0,0
-71.679095593144,16.865522681444,35.935323532353,2587904.4801029,-942.18635676258,2667528.1824669,41.135323532353,0,0
-71.679094883347,16.868105663995,35.939753975398,2587904.4801029,-942.18635676258,2667528.1824669,41.139753975398,0,0
-71.679094173551,16.870688646545,35.944184418442,2587904.4801029,-942.18635676258,2667528.1824669,41.144184418442,0,0
-71.679093463754,16.873271629096,35.948614861486,2587904.4801029,-942.18635676258,2667528.1824669,41.148614861486,0,0
-71.679092753957,16.875854611647,35.95304530453,2587904.4801029,-942.18635676258,2667528.1824669,41.15304530453,0,0
-71.679092044161,16.878437594198,35.957475747575,2587904.4801029,-942.18635676258,2667528.1824669,41.157475747575,0,0
-71.679091334364,16.881020576748,35.961906190619,2587904.4801029,-942.18635676258,2667528.1824669,41.161906190619,0,0
-71.679090624568,16.883603559299,35.966336633663,2587904.4801029,-942.18635676258,2667528.1824669,41.166336633663,0,0
-71.679089914771,16.88618654185,35.970767076708,2587904.4801029,-942.18635676258,2667528.1824669,41.170767076708,0,0
-71.679089204974,16.888769524401,35.975197519752,2587904.4801029,-942.18635676258,2667528.1824669,41.175197519752,0,0
-71.679088495178,16.891352506952,35.979627962796,2587904.4801029,-942.18635676258,2667528.1824669,41.179627962796,0,0
-71.679087785381,16.893935489502,35.984058405841,2587904.4801029,-942.18635676258,2667528.1824669,41.184058405841,0,0
-71.679087075585,16.896518472053,35.988488848885,2587904.4801029,-942.18635676258,2667528.1824669,41.188488848885,0,0
-71.679086365788,16.899101454604,35.992919291929,2587904.4801029,-942.18635676258,2667528.1824669,41.192919291929,0,0
-71.679085655991,16.901684437155,35.997349734973,2587904.4801029,-942.18635676258,2667528.1824669,41.197349734973,0,0
-71.679084946195,16.904267419705,36.001780178018,2587904.4801029,-942.18635676258,2667528.1824669,41.201780178018,0,0
-71.679084236398,16.906850402256,36.006210621062,2587904.4801029,-942.18635676258,2667528.1824669,41.206210621062,0,0
-71.679083526602,16.909433384807,36.010641064106,2587904.4801029,-942.18635676258,2667528.1824669,41.210641064106,0,0
-71.679082816805,16.912016367358,36.015071507151,2587904.4801029,-942.18635676258,2667528.1824669,41.215071507151,0,0
-71.679082107008,16.914599349908,36.019501950195,2587904.4801029,-942.18635676258,2667528.1824669,41.219501950195,0,0
-71.679081397212,16.917182332459,36.023932393239,2587904.4801029,-942.18635676258,2667528.1824669,41.223932393239,0,0
-71.679080687415,16.91976531501,36.028362836284,2587904.4801029,-942.18635676258,2667528.1824669,41.228362836284,0,0
-71.679079977619,16.922348297561,36.032793279328,2587904.4801029,-942.18635676258,2667528.1824669,41.232793279328,0,0
-71.679079267822,16.924931280112,36.037223722372,2587904.4801029,-942.18635676258,2667528.1824669,41.237223722372,0,0
-71.679078558025,16.927514262662,36.041654165417,2587904.4801029,-942.18635676258,2667528.1824669,41.241654165417,0,0
-71.679077848229,16.930097245213,36.046084608461,2587904.4801029,-942.18635676258,2667528.1824669,41.246084608461,0,0
-71.679077138432,16.932680227764,36.050515051505,2587904.4801029,-942.18635676258,2667528.1824669,41.250515051505,0,0
-71.679076428636,16.935263210315,36.054945494549,2587904.4801029,-942.18635676258,2667528.1824669,41.254945494549,0,0
-71.679075718839,16.937846192865,36.059375937594,2587904.4801029,-942.18635676258,2667528.1824669,41.259375937594,0,0
-71.679075009043,16.940429175416,36.063806380638,2587904.4801029,-942.18635676258,2667528.1824669,41.263806380638,0,0
-71.679074299246,16.943012157967,36.068236823682,2587904.4801029,-942.18635676258,2667528.1824669,41.268236823682,0,0
-71.679073589449,16.945595140518,36.072667266727,2587904.4801029,-942.18635676258,2667528.1824669,41.272667266727,0,0
-71.679072879653,16.948178123069,36.077097709771,2587904.4801029,-942.18635676258,2667528.1824669,41.277097709771,0,0
-71.679072169856,16.950761105619,36.081528152815,2587904.4801029,-942.18635676258,2667528.1824669,41.281528152815,0,0
-71.67907146006,16.95334408817,36.08595859586,2587904.4801029,-942.18635676258,2667528.1824669,41.28595859586,0,0
-71.679070750263,16.955927070721,36.090389038904,2587904.4801029,-942.18635676258,2667528.1824669,41.290389038904,0,0
-71.679070040466,16.958510053272,36.094819481948,2587904.4801029,-942.18635676258,2667528.1824669,41.294819481948,0,0
-71.67906933067,16.961093035822,36.099249924992,2587904.4801029,-942.18635676258,2667528.1824669,41.299249924992,0,0
-71.679068620873,16.963676018373,36.103680368037,2587904.4801029,-942.18635676258,2667528.1824669,41.303680368037,0,0
-71.679067911077,16.966259000924,36.108110811081,2587904.4801029,-942.18635676258,2667528.1824669,41.308110811081,0,0
-71.67906720128,16.968841983475,36.112541254125,2587904.4801029,-942.18635676258,2667528.1824669,41.312541254125,0,0
-71.679066491483,16.971424966026,36.11697169717,2587904.4801029,-942.18635676258,2667528.1824669,41.31697169717,0,0
-71.679065781687,16.974007948576,36.121402140214,2587904.4801029,-942.18635676258,2667528.1824669,41.321402140214,0,0
-71.67906507189,16.976590931127,36.125832583258,2587904.4801029,-942.18635676258,2667528.1824669,41.325832583258,0,0
-71.679064362094,16.979173913678,36.130263026303,2587904.4801029,-942.18635676258,2667528.1824669,41.330263026303,0,0
-71.679063652297,16.981756896229,36.134693469347,2587904.4801029,-942.18635676258,2667528.1824669,41.334693469347,0,0
-71.6790629425,16.984339878779,36.139123912391,2587904.4801029,-942.18635676258,2667528.1824669,41.339123912391,0,0
-71.679062232704,16.98692286133,36.143554355436,2587904.4801029,-942.18635676258,2667528.1824669,41.343554355436,0,0
-71.679061522907,16.989505843881,36.14798479848,2587904.4801029,-942.18635676258,2667528.1824669,41.34798479848,0,0
-71.67906081308,16.992088826382,36.152415241524,2588787.2124297,-1374.1974507726,2666464.4551035,41.352415241524,0,0
-71.679060103075,16.994671808593,36.156845684568,2588787.2124297,-1374.1974507726,2666464.4551035,41.356845684568,0,0
-71.679059393069,16.997254790803,36.161276127613,2588787.2124297,-1374.1974507726,2666464.4551035,41.361276127613,0,0
-71.679058683063,16.999837773013,36.165706570657,2588787.2124297,-1374.1974507726,2666464.4551035,41.365706570657,0,0
-71.679057973057,17.002420755223,36.170137013701,2588787.2124297,-1374.1974507726,2666464.4551035,41.370137013701,0,0
-71.679057263051,17.005003737433,36.174567456746,2588787.2124297,-1374.1974507726,2666464.4551035,41.374567456746,0,0
-71.679056553045,17.007586719643,36.17899789979,2588787.2124297,-1374.1974507726,2666464.4551035,41.37899789979,0,0
-71.67905584304,17.010169701853,36.183428342834,2588787.2124297,-1374.1974507726,2666464.4551035,41.383428342834,0,0
-71.679055133034,17.012752684063,36.187858785879,2588787.2124297,-1374.1974507726,2666464.4551035,41.387858785879,0,0
-71.679054423028,17.015335666274,36.192289228923,2588787.2124297,-1374.1974507726,2666464.4551035,41.392289228923,0,0
-71.679053713022,17.017918648484,36.196719671967,2588787.2124297,-1374.1974507726,2666464.4551035,41.396719671967,0,0
-71.679053003016,17.020501630694,36.201150115011,2588787.2124297,-1374.1974507726,2666464.4551035,41.401150115011,0,0
-71.67905229301,17.023084612904,36.205580558056,2588787.2124297,-1374.1974507726,2666464.4551035,41.405580558056,0,0
-71.679051583005,17.025667595114,36.2100110011,2588787.2124297,-1374.1974507726,2666464.4551035,41.4100110011,0,0
-71.679050872999,17.028250577324,36.214441444144,2588787.2124297,-1374.1974507726,2666464.4551035,41.414441444144,0,0
-71.679050162993,17.030833559534,36.218871887189,2588787.2124297,-1374.1974507726,2666464.4551035,41.418871887189,0,0
-71.679049452987,17.033416541744,36.223302330233,2588787.2124297,-1374.1974507726,2666464.4551035,41.423302330233,0,0
-71.679048742981,17.035999523955,36.227732773277,2588787.2124297,-1374.1974507726,2666464.4551035,41.427732773277,0,0
-71.679048032975,17.038582506165,36.232163216322,2588787.2124297,-1374.1974507726,2666464.4551035,41.432163216322,0,0
-71.679047322969,17.041165488375,36.236593659366,2588787.2124297,-1374.1974507726,2666464.4551035,41.436593659366,0,0
-71.679046612964,17.043748470585,36.24102410241,2588787.2124297,-1374.1974507726,2666464.4551035,41.44102410241,0,0
-71.679045902958,17.046331452795,36.245454545455,2588787.2124297,-1374.1974507726,2666464.4551035,41.445454545455,0,0
-71.679045192952,17.048914435005,36.249884988499,2588787.2124297,-1374.1974507726,2666464.4551035,41.449884988499,0,0
-71.679044482946,17.051497417215,36.254315431543,2588787.2124297,-1374.1974507726,2666464.4551035,41.454315431543,0,0
-71.67904377294,17.054080399425,36.258745874587,2588787.2124297,-1374.1974507726,2666464.4551035,41.458745874587,0,0
-71.679043062934,17.056663381636,36.263176317632,2588787.2124297,-1374.1974507726,2666464.4551035,41.463176317632,0,0
-71.679042352929,17.059246363846,36.267606760676,2588787.2124297,-1374.1974507726,2666464.4551035,41.467606760676,0,0
-71.679041642923,17.061829346056,36.27203720372,2588787.2124297,-1374.1974507726,2666464.4551035,41.47203720372,0,0
-71.679040932917,17.064412328266,36.276467646765,2588787.2124297,-1374.1974507726,2666464.4551035,41.476467646765,0,0
-71.679040222911,17.066995310476,36.280898089809,2588787.2124297,-1374.1974507726,2666464.4551035,41.480898089809,0,0
-71.679039512905,17.069578292686,36.285328532853,2588787.2124297,-1374.1974507726,2666464.4551035,41.485328532853,0,0
-71.679038802899,17.072161274896,36.289758975898,2588787.2124297,-1374.1974507726,2666464.4551035,41.489758975898,0,0
-71.679038092894,17.074744257106,36.294189418942,2588787.2124297,-1374.1974507726,2666464.4551035,41.494189418942,0,0
-71.679037382888,17.077327239317,36.298619861986,2588787.2124297,-1374.1974507726,2666464.4551035,41.498619861986,0,0
-71.679036672882,17.079910221527,36.30305030503,2588787.2124297,-1374.1974507726,2666464.4551035,41.50305030503,0,0
-71.679035962876,17.082493203737,36.307480748075,2588787.2124297,-1374.1974507726,2666464.4551035,41.507480748075,0,0
-71.67903525287,17.085076185947,36.311911191119,2588787.2124297,-1374.1974507726,2666464.4551035,41.511911191119,0,0
-71.679034542864,17.087659168157,36.316341634163,2588787.2124297,-1374.1974507726,2666464.4551035,41.516341634163,0,0
-71.679033832859,17.090242150367,36.320772077208,2588787.2124297,-1374.1974507726,2666464.4551035,41.520772077208,0,0
-71.679033122853,17.092825132577,36.325202520252,2588787.2124297,-1374.1974507726,2666464.4551035,41.525202520252,0,0
-71.679032412847,17.095408114787,36.329632963296,2588787.2124297,-1374.1974507726,2666464.4551035,41.529632963296,0,0
-71.679031702841,17.097991096998,36.334063406341,2588787.2124297,-1374.1974507726,2666464.4551035,41.534063406341,0,0
-71.679030992835,17.100574079208,36.338493849385,2588787.2124297,-1374.1974507726,2666464.4551035,41.538493849385,0,0
-71.679030282829,17.103157061418,36.342924292429,2588787.2124297,-1374.1974507726,2666464.4551035,41.542924292429,0,0
-71.679029572824,17.105740043628,36.347354735474,2588787.2124297,-1374.1974507726,2666464.4551035,41.547354735474,0,0
-71.679028862818,17.108323025838,36.351785178518,2588787.2124297,-1374.1974507726,2666464.4551035,41.551785178518,0,0
-71.679028152812,17.110906008048,36.356215621562,2588787.2124297,-1374.1974507726,2666464.4551035,41.556215621562,0,0
-71.679027442806,17.113488990258,36.360646064606,2588787.2124297,-1374.1974507726,2666464.4551035,41.560646064606,0,0
-71.6790267328,17.116071972468,36.365076507651,2588787.2124297,-1374.1974507726,2666464.4551035,41.565076507651,0,0
-71.679026022794,17.118654954679,36.369506950695,2588787.2124297,-1374.1974507726,2666464.4551035,41.569506950695,0,0
-71.679025312788,17.121237936889,36.373937393739,2588787.2124297,-1374.1974507726,2666464.4551035,41.573937393739,0,0
-71.679024602783,17.123820919099,36.378367836784,2588787.2124297,-1374.1974507726,2666464.4551035,41.578367836784,0,0
-71.679023892777,17.126403901309,36.382798279828,2588787.2124297,-1374.1974507726,2666464.4551035,41.582798279828,0,0
-71.679023182771,17.128986883519,36.387228722872,2588787.2124297,-1374.1974507726,2666464.4551035,41.587228722872,0,0
-71.679022472765,17.131569865729,36.391659165917,2588787.2124297,-1374.1974507726,2666464.4551035,41.591659165917,0,0
-71.679021762759,17.134152847939,36.396089608961,2588787.2124297,-1374.1974507726,2666464.4551035,41.596089608961,0,0
-71.679021052753,17.136735830149,36.400520052005,2588787.2124297,-1374.1974507726,2666464.4551035,41.600520052005,0,0
-71.679020342748,17.13931881236,36.404950495049,2588787.2124297,-1374.1974507726,2666464.4551035,41.60495049505,0,0
-71.679019632742,17.14190179457,36.409380938094,2588787.2124297,-1374.1974507726,2666464.4551035,41.609380938094,0,0
-71.679018922736,17.14448477678,36.413811381138,2588787.2124297,-1374.1974507726,2666464.4551035,41.613811381138,0,0
-71.67901821273,17.14706775899,36.418241824182,2588787.2124297,-1374.1974507726,2666464.4551035,41.618241824182,0,0
-71.679017502724,17.1496507412,36.422672267227,2588787.2124297,-1374.1974507726,2666464.4551035,41.622672267227,0,0
-71.679016792718,17.15223372341,36.427102710271,2588787.2124297,-1374.1974507726,2666464.4551035,41.627102710271,0,0
-71.679016082713,17.15481670562,36.431533153315,2588787.2124297,-1374.1974507726,2666464.4551035,41.631533153315,0,0
-71.679015372707,17.15739968783,36.43596359636,2588787.2124297,-1374.1974507726,2666464.4551035,41.63596359636,0,0
-71.679014662701,17.159982670041,36.440394039404,2588787.2124297,-1374.1974507726,2666464.4551035,41.640394039404,0,0
-71.679013952695,17.162565652251,36.444824482448,2588787.2124297,-1374.1974507726,2666464.4551035,41.644824482448,0,0
-71.679013242689,17.165148634461,36.449254925493,2588787.2124297,-1374.1974507726,2666464.4551035,41.649254925493,0,0
-71.679012532683,17.167731616671,36.453685368537,2588787.2124297,-1374.1974507726,2666464.4551035,41.653685368537,0,0
-71.679011822678,17.170314598881,36.458115811581,2588787.2124297,-1374.1974507726,2666464.4551035,41.658115811581,0,0
-71.679011112672,17.172897581091,36.462546254625,2588787.2124297,-1374.1974507726,2666464.4551035,41.662546254625,0,0
-71.679010402666,17.175480563301,36.46697669767,2588787.2124297,-1374.1974507726,2666464.4551035,41.66697669767,0,0
-71.67900969266,17.178063545511,36.471407140714,2588787.2124297,-1374.1974507726,2666464.4551035,41.671407140714,0,0
-71.679008982654,17.180646527722,36.475837583758,2588787.2124297,-1374.1974507726,2666464.4551035,41.675837583758,0,0
-71.679008272648,17.183229509932,36.480268026803,2588787.2124297,-1374.1974507726,2666464.4551035,41.680268026803,0,0
-71.679007562643,17.185812492142,36.484698469847,2588787.2124297,-1374.1974507726,2666464.4551035,41.684698469847,0,0
-71.679006852637,17.188395474352,36.489128912891,2588787.2124297,-1374.1974507726,2666464.4551035,41.689128912891,0,0
-71.679006142631,17.190978456562,36.493559355936,2588787.2124297,-1374.1974507726,2666464.4551035,41.693559355936,0,0
-71.679005432625,17.193561438772,36.49798979898,2588787.2124297,-1374.1974507726,2666464.4551035,41.69798979898,0,0
-71.679004722619,17.196144420982,36.502420242024,2588787.2124297,-1374.1974507726,2666464.4551035,41.702420242024,0,0
-71.679004012613,17.198727403192,36.506850685068,2588787.2124297,-1374.1974507726,2666464.4551035,41.706850685069,0,0
-71.679003302607,17.201310385403,36.511281128113,2588787.2124297,-1374.1974507726,2666464.4551035,41.711281128113,0,0
-71.679002592602,17.203893367613,36.515711571157,2588787.2124297,-1374.1974507726,2666464.4551035,41.715711571157,0,0
-71.679001882596,17.206476349823,36.520142014201,2588787.2124297,-1374.1974507726,2666464.4551035,41.720142014201,0,0
-71.67900117259,17.209059332033,36.524572457246,2588787.2124297,-1374.1974507726,2666464.4551035,41.724572457246,0,0
-71.679000462584,17.211642314243,36.52900290029,2588787.2124297,-1374.1974507726,2666464.4551035,41.72900290029,0,0
-71.678999752578,17.214225296453,36.533433343334,2588787.2124297,-1374.1974507726,2666464.4551035,41.733433343334,0,0
-71.678999042572,17.216808278663,36.537863786379,2588787.2124297,-1374.1974507726,2666464.4551035,41.737863786379,0,0
-71.678998332567,17.219391260873,36.542294229423,2588787.2124297,-1374.1974507726,2666464.4551035,41.742294229423,0,0
-71.678997622561,17.221974243084,36.546724672467,2588787.2124297,-1374.1974507726,2666464.4551035,41.746724672467,0,0
-71.678996912445,17.224557225336,36.551155115512,2592264.3800629,-1398.1040994792,2666795.5764199,41.751155115512,0,0
-71.678996201818,17.227140207785,36.555585558556,2592264.3800629,-1398.1040994792,2666795.5764199,41.755585558556,0,0
-71.678995491192,17.229723190235,36.5600160016,2592264.3800629,-1398.1040994792,2666795.5764199,41.7600160016,0,0
-71.678994780566,17.232306172684,36.564446444644,2592264.3800629,-1398.1040994792,2666795.5764199,41.764446444644,0,0
-71.67899406994,17.234889155133,36.568876887689,2592264.3800629,-1398.1040994792,2666795.5764199,41.768876887689,0,0
-71.678993359314,17.237472137582,36.573307330733,2592264.3800629,-1398.1040994792,2666795.5764199,41.773307330733,0,0
-71.678992648688,17.240055120031,36.577737773777,2592264.3800629,-1398.1040994792,2666795.5764199,41.777737773777,0,0
-71.678991938062,17.242638102481,36.582168216822,2592264.3800629,-1398.1040994792,2666795.5764199,41.782168216822,0,0
-71.678991227435,17.24522108493,36.586598659866,2592264.3800629,-1398.1040994792,2666795.5764199,41.786598659866,0,0
-71.678990516809,17.247804067379,36.59102910291,2592264.3800629,-1398.1040994792,2666795.5764199,41.79102910291,0,0
-71.678989806183,17.250387049828,36.595459545955,2592264.3800629,-1398.1040994792,2666795.5764199,41.795459545955,0,0
-71.678989095557,17.252970032277,36.599889988999,2592264.3800629,-1398.1040994792,2666795.5764199,41.799889988999,0,0
-71.678988384931,17.255553014727,36.604320432043,2592264.3800629,-1398.1040994792,2666795.5764199,41.804320432043,0,0
-71.678987674305,17.258135997176,36.608750875088,2592264.3800629,-1398.1040994792,2666795.5764199,41.808750875088,0,0
-71.678986963678,17.260718979625,36.613181318132,2592264.3800629,-1398.1040994792,2666795.5764199,41.813181318132,0,0
-71.678986253052,17.263301962074,36.617611761176,2592264.3800629,-1398.1040994792,2666795.5764199,41.817611761176,0,0
-71.678985542426,17.265884944523,36.62204220422,2592264.3800629,-1398.1040994792,2666795.5764199,41.82204220422,0,0
-71.6789848318,17.268467926973,36.626472647265,2592264.3800629,-1398.1040994792,2666795.5764199,41.826472647265,0,0
-71.678984121174,17.271050909422,36.630903090309,2592264.3800629,-1398.1040994792,2666795.5764199,41.830903090309,0,0
-71.678983410548,17.273633891871,36.635333533353,2592264.3800629,-1398.1040994792,2666795.5764199,41.835333533353,0,0
-71.678982699921,17.27621687432,36.639763976398,2592264.3800629,-1398.1040994792,2666795.5764199,41.839763976398,0,0
-71.678981989295,17.278799856769,36.644194419442,2592264.3800629,-1398.1040994792,2666795.5764199,41.844194419442,0,0
-71.678981278669,17.281382839219,36.648624862486,2592264.3800629,-1398.1040994792,2666795.5764199,41.848624862486,0,0
-71.678980568043,17.283965821668,36.653055305531,2592264.3800629,-1398.1040994792,2666795.5764199,41.853055305531,0,0
-71.678979857417,17.286548804117,36.657485748575,2592264.3800629,-1398.1040994792,2666795.5764199,41.857485748575,0,0
-71.678979146791,17.289131786566,36.661916191619,2592264.3800629,-1398.1040994792,2666795.5764199,41.861916191619,0,0
-71.678978436165,17.291714769015,36.666346634663,2592264.3800629,-1398.1040994792,2666795.5764199,41.866346634663,0,0
-71.678977725538,17.294297751465,36.670777077708,2592264.3800629,-1398.1040994792,2666795.5764199,41.870777077708,0,0
-71.678977014912,17.296880733914,36.675207520752,2592264.3800629,-1398.1040994792,2666795.5764199,41.875207520752,0,0
-71.678976304286,17.299463716363,36.679637963796,2592264.3800629,-1398.1040994792,2666795.5764199,41.879637963796,0,0
-71.67897559366,17.302046698812,36.684068406841,2592264.3800629,-1398.1040994792,2666795.5764199,41.884068406841,0,0
-71.678974883034,17.304629681261,36.688498849885,2592264.3800629,-1398.1040994792,2666795.5764199,41.888498849885,0,0
-71.678974172408,17.307212663711,36.692929292929,2592264.3800629,-1398.1040994792,2666795.5764199,41.892929292929,0,0
-71.678973461781,17.30979564616,36.697359735974,2592264.3800629,-1398.1040994792,2666795.5764199,41.897359735974,0,0
-71.678972751155,17.312378628609,36.701790179018,2592264.3800629,-1398.1040994792,2666795.5764199,41.901790179018,0,0
-71.678972040529,17.314961611058,36.706220622062,2592264.3800629,-1398.1040994792,2666795.5764199,41.906220622062,0,0
-71.678971329903,17.317544593507,36.710651065107,2592264.3800629,-1398.1040994792,2666795.5764199,41.910651065107,0,0
-71.678970619277,17.320127575957,36.715081508151,2592264.3800629,-1398.1040994792,2666795.5764199,41.915081508151,0,0
-71.678969908651,17.322710558406,36.719511951195,2592264.3800629,-1398.1040994792,2666795.5764199,41.919511951195,0,0
-71.678969198024,17.325293540855,36.723942394239,2592264.3800629,-1398.1040994792,2666795.5764199,41.923942394239,0,0
-71.678968487398,17.327876523304,36.728372837284,2592264.3800629,-1398.1040994792,2666795.5764199,41.928372837284,0,0
-71.678967776772,17.330459505753,36.732803280328,2592264.3800629,-1398.1040994792,2666795.5764199,41.932803280328,0,0
-71.678967066146,17.333042488203,36.737233723372,2592264.3800629,-1398.1040994792,2666795.5764199,41.937233723372,0,0
-71.67896635552,17.335625470652,36.741664166417,2592264.3800629,-1398.1040994792,2666795.5764199,41.941664166417,0,0
-71.678965644894,17.338208453101,36.746094609461,2592264.3800629,-1398.1040994792,2666795.5764199,41.946094609461,0,0
-71.678964934267,17.34079143555,36.750525052505,2592264.3800629,-1398.1040994792,2666795.5764199,41.950525052505,0,0
-71.678964223641,17.343374417999,36.75495549555,2592264.3800629,-1398.1040994792,2666795.5764199,41.95495549555,0,0
-71.678963513015,17.345957400449,36.759385938594,2592264.3800629,-1398.1040994792,2666795.5764199,41.959385938594,0,0
-71.678962802389,17.348540382898,36.763816381638,2592264.3800629,-1398.1040994792,2666795.5764199,41.963816381638,0,0
-71.678962091763,17.351123365347,36.768246824682,2592264.3800629,-1398.1040994792,2666795.5764199,41.968246824682,0,0
-71.678961381137,17.353706347796,36.772677267727,2592264.3800629,-1398.1040994792,2666795.5764199,41.972677267727,0,0
-71.678960670511,17.356289330245,36.777107710771,2592264.3800629,-1398.1040994792,2666795.5764199,41.977107710771,0,0
-71.678959959884,17.358872312695,36.781538153815,2592264.3800629,-1398.1040994792,2666795.5764199,41.981538153815,0,0
-71.678959249258,17.361455295144,36.78596859686,2592264.3800629,-1398.1040994792,2666795.5764199,41.98596859686,0,0
-71.678958538632,17.364038277593,36.790399039904,2592264.3800629,-1398.1040994792,2666795.5764199,41.990399039904,0,0
-71.678957828006,17.366621260042,36.794829482948,2592264.3800629,-1398.1040994792,2666795.5764199,41.994829482948,0,0
-71.67895711738,17.369204242491,36.799259925993,2592264.3800629,-1398.1040994792,2666795.5764199,41.999259925993,0,0
-71.678956406754,17.371787224941,36.803690369037,2592264.3800629,-1398.1040994792,2666795.5764199,42.003690369037,0,0
-71.678955696127,17.37437020739,36.808120812081,2592264.3800629,-1398.1040994792,2666795.5764199,42.008120812081,0,0
-71.678954985501,17.376953189839,36.812551255126,2592264.3800629,-1398.1040994792,2666795.5764199,42.012551255126,0,0
-71.678954274875,17.379536172288,36.81698169817,2592264.3800629,-1398.1040994792,2666795.5764199,42.01698169817,0,0
-71.678953564249,17.382119154737,36.821412141214,2592264.3800629,-1398.1040994792,2666795.5764199,42.021412141214,0,0
-71.678952853623,17.384702137187,36.825842584258,2592264.3800629,-1398.1040994792,2666795.5764199,42.025842584258,0,0
-71.678952142997,17.387285119636,36.830273027303,2592264.3800629,-1398.1040994792,2666795.5764199,42.030273027303,0,0
-71.67895143237,17.389868102085,36.834703470347,2592264.3800629,-1398.1040994792,2666795.5764199,42.034703470347,0,0
-71.678950721744,17.392451084534,36.839133913391,2592264.3800629,-1398.1040994792,2666795.5764199,42.039133913391,0,0
-71.678950011118,17.395034066983,36.843564356436,2592264.3800629,-1398.1040994792,2666795.5764199,42.043564356436,0,0
-71.678949300492,17.397617049433,36.84799479948,2592264.3800629,-1398.1040994792,2666795.5764199,42.04799479948,0,0
-71.678948589866,17.400200031882,36.852425242524,2592264.3800629,-1398.1040994792,2666795.5764199,42.052425242524,0,0
-71.67894787924,17.402783014331,36.856855685569,2592264.3800629,-1398.1040994792,2666795.5764199,42.056855685569,0,0
-71.678947168614,17.40536599678,36.861286128613,2592264.3800629,-1398.1040994792,2666795.5764199,42.061286128613,0,0
-71.678946457987,17.407948979229,36.865716571657,2592264.3800629,-1398.1040994792,2666795.5764199,42.065716571657,0,0
-71.678945747361,17.410531961679,36.870147014701,2592264.3800629,-1398.1040994792,2666795.5764199,42.070147014701,0,0
-71.678945036735,17.413114944128,36.874577457746,2592264.3800629,-1398.1040994792,2666795.5764199,42.074577457746,0,0
-71.678944326109,17.415697926577,36.87900790079,2592264.3800629,-1398.1040994792,2666795.5764199,42.07900790079,0,0
-71.678943615483,17.418280909026,36.883438343834,2592264.3800629,-1398.1040994792,2666795.5764199,42.083438343834,0,0
-71.678942904857,17.420863891475,36.887868786879,2592264.3800629,-1398.1040994792,2666795.5764199,42.087868786879,0,0
-71.67894219423,17.423446873925,36.892299229923,2592264.3800629,-1398.1040994792,2666795.5764199,42.092299229923,0,0
-71.678941483604,17.426029856374,36.896729672967,2592264.3800629,-1398.1040994792,2666795.5764199,42.096729672967,0,0
-71.678940772978,17.428612838823,36.901160116012,2592264.3800629,-1398.1040994792,2666795.5764199,42.101160116012,0,0
-71.678940062352,17.431195821272,36.905590559056,2592264.3800629,-1398.1040994792,2666795.5764199,42.105590559056,0,0
-71.678939351726,17.433778803721,36.9100210021,2592264.3800629,-1398.1040994792,2666795.5764199,42.1100210021,0,0
-71.6789386411,17.436361786171,36.914451445145,2592264.3800629,-1398.1040994792,2666795.5764199,42.114451445145,0,0
-71.678937930473,17.43894476862,36.918881888189,2592264.3800629,-1398.1040994792,2666795.5764199,42.118881888189,0,0
-71.678937219847,17.441527751069,36.923312331233,2592264.3800629,-1398.1040994792,2666795.5764199,42.123312331233,0,0
-71.678936509221,17.444110733518,36.927742774277,2592264.3800629,-1398.1040994792,2666795.5764199,42.127742774277,0,0
-71.678935798595,17.446693715967,36.932173217322,2592264.3800629,-1398.1040994792,2666795.5764199,42.132173217322,0,0
-71.678935087969,17.449276698417,36.936603660366,2592264.3800629,-1398.1040994792,2666795.5764199,42.136603660366,0,0
-71.678934377343,17.451859680866,36.94103410341,2592264.3800629,-1398.1040994792,2666795.5764199,42.14103410341,0,0
-71.678933666717,17.454442663315,36.945464546455,2592264.3800629,-1398.1040994792,2666795.5764199,42.145464546455,0,0
-71.67893295609,17.457025645764,36.949894989499,2592264.3800629,-1398.1040994792,2666795.5764199,42.149894989499,0,0
-71.678932245464,17.459608628213,36.954325432543,2592264.3800629,-1398.1040994792,2666795.5764199,42.154325432543,0,0
-71.678931534838,17.462191610663,36.958755875588,2592264.3800629,-1398.1040994792,2666795.5764199,42.158755875588,0,0
-71.678930824212,17.464774593112,36.963186318632,2592264.3800629,-1398.1040994792,2666795.5764199,42.163186318632,0,0
-71.678930113586,17.467357575561,36.967616761676,2592264.3800629,-1398.1040994792,2666795.5764199,42.167616761676,0,0
-71.67892940296,17.46994055801,36.97204720472,2592264.3800629,-1398.1040994792,2666795.5764199,42.17204720472,0,0
-71.678928692333,17.472523540459,36.976477647765,2592264.3800629,-1398.1040994792,2666795.5764199,42.176477647765,0,0
-71.678927981707,17.475106522909,36.980908090809,2592264.3800629,-1398.1040994792,2666795.5764199,42.180908090809,0,0
-71.678927271081,17.477689505358,36.985338533853,2592264.3800629,-1398.1040994792,2666795.5764199,42.185338533853,0,0
-71.678926560455,17.480272487807,36.989768976898,2592264.3800629,-1398.1040994792,2666795.5764199,42.189768976898,0,0
-71.678925849829,17.482855470256,36.994199419942,2592264.3800629,-1398.1040994792,2666795.5764199,42.194199419942,0,0
-71.678925139203,17.485438452705,36.998629862986,2592264.3800629,-1398.1040994792,2666795.5764199,42.198629862986,0,0
-71.678924428576,17.488021435155,37.003060306031,2592264.3800629,-1398.1040994792,2666795.5764199,42.203060306031,0,0
-71.67892371795,17.490604417604,37.007490749075,2592264.3800629,-1398.1040994792,2666795.5764199,42.207490749075,0,0
-71.678923007324,17.493187400053,37.011921192119,2592264.3800629,-1398.1040994792,2666795.5764199,42.211921192119,0,0
-71.678922296698,17.495770382502,37.016351635164,2592264.3800629,-1398.1040994792,2666795.5764199,42.216351635164,0,0
-71.678921586072,17.498353364951,37.020782078208,2592264.3800629,-1398.1040994792,2666795.5764199,42.220782078208,0,0
-71.678920875446,17.500936347401,37.025212521252,2592264.3800629,-1398.1040994792,2666795.5764199,42.225212521252,0,0
-71.678920164819,17.50351932985,37.029642964296,2592264.3800629,-1398.1040994792,2666795.5764199,42.229642964296,0,0
-71.678919454193,17.506102312299,37.034073407341,2592264.3800629,-1398.1040994792,2666795.5764199,42.234073407341,0,0
-71.678918743567,17.508685294748,37.038503850385,2592264.3800629,-1398.1040994792,2666795.5764199,42.238503850385,0,0
-71.678918032941,17.511268277197,37.042934293429,2592264.3800629,-1398.1040994792,2666795.5764199,42.242934293429,0,0
-71.678917322315,17.513851259647,37.047364736474,2592264.3800629,-1398.1040994792,2666795.5764199,42.247364736474,0,0
-71.678916611689,17.516434242096,37.051795179518,2592264.3800629,-1398.1040994792,2666795.5764199,42.251795179518,0,0
-71.678915901063,17.519017224545,37.056225622562,2592264.3800629,-1398.1040994792,2666795.5764199,42.256225622562,0,0
-71.678915190436,17.521600206994,37.060656065607,2592264.3800629,-1398.1040994792,2666795.5764199,42.260656065607,0,0
-71.67891447981,17.524183189443,37.065086508651,2592264.3800629,-1398.1040994792,2666795.5764199,42.265086508651,0,0
-71.678913769184,17.526766171893,37.069516951695,2592264.3800629,-1398.1040994792,2666795.5764199,42.269516951695,0,0
-71.678913058558,17.529349154342,37.073947394739,2592264.3800629,-1398.1040994792,2666795.5764199,42.273947394739,0,0
-71.678912347932,17.531932136791,37.078377837784,2592264.3800629,-1398.1040994792,2666795.5764199,42.278377837784,0,0
-71.678911637306,17.53451511924,37.082808280828,2592264.3800629,-1398.1040994792,2666795.5764199,42.282808280828,0,0
-71.678910926679,17.537098101689,37.087238723872,2592264.3800629,-1398.1040994792,2666795.5764199,42.287238723872,0,0
-71.678910216053,17.539681084139,37.091669166917,2592264.3800629,-1398.1040994792,2666795.5764199,42.291669166917,0,0
-71.678909505427,17.542264066588,37.096099609961,2592264.3800629,-1398.1040994792,2666795.5764199,42.296099609961,0,0
-71.678908794801,17.544847049037,37.100530053005,2592264.3800629,-1398.1040994792,2666795.5764199,42.300530053005,0,0
-71.678908084175,17.547430031486,37.10496049605,2592264.3800629,-1398.1040994792,2666795.5764199,42.30496049605,0,0
-71.678907373549,17.550013013935,37.109390939094,2592264.3800629,-1398.1040994792,2666795.5764199,42.309390939094,0,0
-71.678906662922,17.552595996385,37.113821382138,2592264.3800629,-1398.1040994792,2666795.5764199,42.313821382138,0,0
-71.678905952296,17.555178978834,37.118251825183,2592264.3800629,-1398.1040994792,2666795.5764199,42.318251825183,0,0
-71.67890524167,17.557761961283,37.122682268227,2592264.3800629,-1398.1040994792,2666795.5764199,42.322682268227,0,0
-71.678904531044,17.560344943732,37.127112711271,2592264.3800629,-1398.1040994792,2666795.5764199,42.327112711271,0,0
-71.678903820418,17.562927926181,37.131543154315,2592264.3800629,-1398.1040994792,2666795.5764199,42.331543154315,0,0
-71.678903109792,17.565510908631,37.13597359736,2592264.3800629,-1398.1040994792,2666795.5764199,42.33597359736,0,0
-71.678902399166,17.56809389108,37.140404040404,2592264.3800629,-1398.1040994792,2666795.5764199,42.340404040404,0,0
-71.678901688539,17.570676873529,37.144834483448,2592264.3800629,-1398.1040994792,2666795.5764199,42.344834483448,0,0
-71.678900977913,17.573259855978,37.149264926493,2592264.3800629,-1398.1040994792,2666795.5764199,42.349264926493,0,0
-71.678900267287,17.575842838427,37.153695369537,2592264.3800629,-1398.1040994792,2666795.5764199,42.353695369537,0,0
-71.678899556661,17.578425820877,37.158125812581,2592264.3800629,-1398.1040994792,2666795.5764199,42.358125812581,0,0
-71.678898846035,17.581008803326,37.162556255626,2592264.3800629,-1398.1040994792,2666795.5764199,42.362556255626,0,0
-71.678898135409,17.583591785775,37.16698669867,2592264.3800629,-1398.1040994792,2666795.5764199,42.36698669867,0,0
-71.678897424782,17.586174768224,37.171417141714,2592264.3800629,-1398.1040994792,2666795.5764199,42.371417141714,0,0
-71.678896714156,17.588757750674,37.175847584758,2592264.3800629,-1398.1040994792,2666795.5764199,42.375847584758,0,0
-71.67889600353,17.591340733123,37.180278027803,2592264.3800629,-1398.1040994792,2666795.5764199,42.380278027803,0,0
-71.678895292904,17.593923715572,37.184708470847,2592264.3800629,-1398.1040994792,2666795.5764199,42.384708470847,0,0
-71.678894582278,17.596506698021,37.189138913891,2592264.3800629,-1398.1040994792,2666795.5764199,42.389138913891,0,0
-71.678893871652,17.59908968047,37.193569356936,2592264.3800629,-1398.1040994792,2666795.5764199,42.393569356936,0,0
-71.678893161025,17.60167266292,37.19799979998,2592264.3800629,-1398.1040994792,2666795.5764199,42.39799979998,0,0
-71.678892450399,17.604255645369,37.202430243024,2592264.3800629,-1398.1040994792,2666795.5764199,42.402430243024,0,0
-71.678891739773,17.606838627818,37.206860686069,2592264.3800629,-1398.1040994792,2666795.5764199,42.406860686069,0,0
-71.678891029147,17.609421610267,37.211291129113,2592264.3800629,-1398.1040994792,2666795.5764199,42.411291129113,0,0
-71.678890318521,17.612004592716,37.215721572157,2592264.3800629,-1398.1040994792,2666795.5764199,42.415721572157,0,0
-71.678889607895,17.614587575166,37.220152015202,2592264.3800629,-1398.1040994792,2666795.5764199,42.420152015202,0,0
-71.678888897268,17.617170557615,37.224582458246,2592264.3800629,-1398.1040994792,2666795.5764199,42.424582458246,0,0
-71.678888186642,17.619753540064,37.22901290129,2592264.3800629,-1398.1040994792,2666795.5764199,42.42901290129,0,0
-71.678887476016,17.622336522513,37.233443344334,2592264.3800629,-1398.1040994792,2666795.5764199,42.433443344334,0,0
-71.67888676539,17.624919504962,37.237873787379,2592264.3800629,-1398.1040994792,2666795.5764199,42.437873787379,0,0
-71.678886054764,17.627502487412,37.242304230423,2592264.3800629,-1398.1040994792,2666795.5764199,42.442304230423,0,0
-71.678885344138,17.630085469861,37.246734673467,2592264.3800629,-1398.1040994792,2666795.5764199,42.446734673467,0,0
-71.678884633512,17.63266845231,37.251165116512,2592264.3800629,-1398.1040994792,2666795.5764199,42.451165116512,0,0
-71.678883922885,17.635251434759,37.255595559556,2592264.3800629,-1398.1040994792,2666795.5764199,42.455595559556,0,0
-71.678883212259,17.637834417208,37.2600260026,2592264.3800629,-1398.1040994792,2666795.5764199,42.4600260026,0,0
-71.678882501633,17.640417399658,37.264456445645,2592264.3800629,-1398.1040994792,2666795.5764199,42.464456445645,0,0
-71.678881791007,17.643000382107,37.268886888689,2592264.3800629,-1398.1040994792,2666795.5764199,42.468886888689,0,0
-71.678881080381,17.645583364556,37.273317331733,2592264.3800629,-1398.1040994792,2666795.5764199,42.473317331733,0,0
-71.678880369755,17.648166347005,37.277747774777,2592264.3800629,-1398.1040994792,2666795.5764199,42.477747774777,0,0
-71.678879659128,17.650749329454,37.282178217822,2592264.3800629,-1398.1040994792,2666795.5764199,42.482178217822,0,0
-71.678878948502,17.653332311904,37.286608660866,2592264.3800629,-1398.1040994792,2666795.5764199,42.486608660866,0,0
-71.678878237876,17.655915294353,37.29103910391,2592264.3800629,-1398.1040994792,2666795.5764199,42.49103910391,0,0
-71.67887752725,17.658498276802,37.295469546955,2592264.3800629,-1398.1040994792,2666795.5764199,42.495469546955,0,0
-71.678876816624,17.661081259251,37.299899989999,2592264.3800629,-1398.1040994792,2666795.5764199,42.499899989999,0,0
-71.678876105998,17.6636642417,37.304330433043,2592264.3800629,-1398.1040994792,2666795.5764199,42.504330433043,0,0
-71.678875395371,17.66624722415,37.308760876088,2592264.3800629,-1398.1040994792,2666795.5764199,42.508760876088,0,0
-71.678874684745,17.668830206599,37.313191319132,2592264.3800629,-1398.1040994792,2666795.5764199,42.513191319132,0,0
-71.678873974119,17.671413189048,37.317621762176,2592264.3800629,-1398.1040994792,2666795.5764199,42.517621762176,0,0
-71.678873263493,17.673996171497,37.322052205221,2592264.3800629,-1398.1040994792,2666795.5764199,42.522052205221,0,0
-71.678872552867,17.676579153946,37.326482648265,2592264.3800629,-1398.1040994792,2666795.5764199,42.526482648265,0,0
-71.678871842241,17.679162136396,37.330913091309,2592264.3800629,-1398.1040994792,2666795.5764199,42.530913091309,0,0
-71.678871131615,17.681745118845,37.335343534353,2592264.3800629,-1398.1040994792,2666795.5764199,42.535343534353,0,0
-71.678870420988,17.684328101294,37.339773977398,2592264.3800629,-1398.1040994792,2666795.5764199,42.539773977398,0,0
-71.678869710362,17.686911083743,37.344204420442,2592264.3800629,-1398.1040994792,2666795.5764199,42.544204420442,0,0
-71.678868999736,17.689494066192,37.348634863486,2592264.3800629,-1398.1040994792,2666795.5764199,42.548634863486,0,0
-71.67886828911,17.692077048642,37.353065306531,2592264.3800629,-1398.1040994792,2666795.5764199,42.553065306531,0,0
-71.678867578484,17.694660031091,37.357495749575,2592264.3800629,-1398.1040994792,2666795.5764199,42.557495749575,0,0
-71.678866867858,17.69724301354,37.361926192619,2592264.3800629,-1398.1040994792,2666795.5764199,42.561926192619,0,0
-71.678866157231,17.699825995989,37.366356635664,2592264.3800629,-1398.1040994792,2666795.5764199,42.566356635664,0,0
-71.678865446605,17.702408978438,37.370787078708,2592264.3800629,-1398.1040994792,2666795.5764199,42.570787078708,0,0
-71.678864735979,17.704991960888,37.375217521752,2592264.3800629,-1398.1040994792,2666795.5764199,42.575217521752,0,0
-71.678864025353,17.707574943337,37.379647964796,2592264.3800629,-1398.1040994792,2666795.5764199,42.579647964796,0,0
-71.678863314727,17.710157925786,37.384078407841,2592264.3800629,-1398.1040994792,2666795.5764199,42.584078407841,0,0
-71.678862604101,17.712740908235,37.388508850885,2592264.3800629,-1398.1040994792,2666795.5764199,42.588508850885,0,0
-71.678861893474,17.715323890684,37.392939293929,2592264.3800629,-1398.1040994792,2666795.5764199,42.592939293929,0,0
-71.678861182848,17.717906873134,37.397369736974,2592264.3800629,-1398.1040994792,2666795.5764199,42.597369736974,0,0
-71.678860472222,17.720489855583,37.401800180018,2592264.3800629,-1398.1040994792,2666795.5764199,42.601800180018,0,0
-71.678859761596,17.723072838032,37.406230623062,2592264.3800629,-1398.1040994792,2666795.5764199,42.606230623062,0,0
-71.67885905097,17.725655820481,37.410661066107,2592264.3800629,-1398.1040994792,2666795.5764199,42.610661066107,0,0
-71.678858340344,17.72823880293,37.415091509151,2592264.3800629,-1398.1040994792,2666795.5764199,42.615091509151,0,0
-71.678857629717,17.73082178538,37.419521952195,2592264.3800629,-1398.1040994792,2666795.5764199,42.619521952195,0,0
-71.678856919091,17.733404767829,37.42395239524,2592264.3800629,-1398.1040994792,2666795.5764199,42.62395239524,0,0
-71.678856208465,17.735987750278,37.428382838284,2592264.3800629,-1398.1040994792,2666795.5764199,42.628382838284,0,0
-71.678855497839,17.738570732727,37.432813281328,2592264.3800629,-1398.1040994792,2666795.5764199,42.632813281328,0,0
-71.678854787213,17.741153715176,37.437243724372,2592264.3800629,-1398.1040994792,2666795.5764199,42.637243724372,0,0
-71.678854076587,17.743736697626,37.441674167417,2592264.3800629,-1398.1040994792,2666795.5764199,42.641674167417,0,0
-71.678853365961,17.746319680075,37.446104610461,2592264.3800629,-1398.1040994792,2666795.5764199,42.646104610461,0,0
-71.678852655334,17.748902662524,37.450535053505,2592264.3800629,-1398.1040994792,2666795.5764199,42.650535053505,0,0
-71.678851944708,17.751485644973,37.45496549655,2592264.3800629,-1398.1040994792,2666795.5764199,42.65496549655,0,0
-71.678851234082,17.754068627422,37.459395939594,2592264.3800629,-1398.1040994792,2666795.5764199,42.659395939594,0,0
-71.678850523456,17.756651609872,37.463826382638,2592264.3800629,-1398.1040994792,2666795.5764199,42.663826382638,0,0
-71.67884981283,17.759234592321,37.468256825683,2592264.3800629,-1398.1040994792,2666795.5764199,42.668256825683,0,0
-71.678849102204,17.76181757477,37.472687268727,2592264.3800629,-1398.1040994792,2666795.5764199,42.672687268727,0,0
-71.678848391577,17.764400557219,37.477117711771,2592264.3800629,-1398.1040994792,2666795.5764199,42.677117711771,0,0
-71.678847680951,17.766983539668,37.481548154815,2592264.3800629,-1398.1040994792,2666795.5764199,42.681548154815,0,0
-71.678846970325,17.769566522118,37.48597859786,2592264.3800629,-1398.1040994792,2666795.5764199,42.68597859786,0,0
-71.678846259699,17.772149504567,37.490409040904,2592264.3800629,-1398.1040994792,2666795.5764199,42.690409040904,0,0
-71.678845549073,17.774732487016,37.494839483948,2592264.3800629,-1398.1040994792,2666795.5764199,42.694839483948,0,0
-71.678844838447,17.777315469465,37.499269926993,2592264.3800629,-1398.1040994792,2666795.5764199,42.699269926993,0,0
-71.67884412782,17.779898451914,37.503700370037,2592264.3800629,-1398.1040994792,2666795.5764199,42.703700370037,0,0
-71.678843417194,17.782481434364,37.508130813081,2592264.3800629,-1398.1040994792,2666795.5764199,42.708130813081,0,0
-71.678842706568,17.785064416813,37.512561256126,2592264.3800629,-1398.1040994792,2666795.5764199,42.712561256126,0,0
-71.678841995942,17.787647399262,37.51699169917,2592264.3800629,-1398.1040994792,2666795.5764199,42.71699169917,0,0
-71.678841285316,17.790230381711,37.521422142214,2592264.3800629,-1398.1040994792,2666795.5764199,42.721422142214,0,0
-71.67884057469,17.79281336416,37.525852585259,2592264.3800629,-1398.1040994792,2666795.5764199,42.725852585259,0,0
-71.678839864064,17.79539634661,37.530283028303,2592264.3800629,-1398.1040994792,2666795.5764199,42.730283028303,0,0
-71.678839153437,17.797979329059,37.534713471347,2592264.3800629,-1398.1040994792,2666795.5764199,42.734713471347,0,0
-71.678838442811,17.800562311508,37.539143914391,2592264.3800629,-1398.1040994792,2666795.5764199,42.739143914391,0,0
-71.678837732185,17.803145293957,37.543574357436,2592264.3800629,-1398.1040994792,2666795.5764199,42.743574357436,0,0
-71.678837021559,17.805728276406,37.54800480048,2592264.3800629,-1398.1040994792,2666795.5764199,42.74800480048,0,0
-71.678836310933,17.808311258856,37.552435243524,2592264.3800629,-1398.1040994792,2666795.5764199,42.752435243524,0,0
-71.678835600307,17.810894241305,37.556865686569,2592264.3800629,-1398.1040994792,2666795.5764199,42.756865686569,0,0
-71.67883488968,17.813477223754,37.561296129613,2592264.3800629,-1398.1040994792,2666795.5764199,42.761296129613,0,0
-71.678834179054,17.816060206203,37.565726572657,2592264.3800629,-1398.1040994792,2666795.5764199,42.765726572657,0,0
-71.678833468428,17.818643188652,37.570157015702,2592264.3800629,-1398.1040994792,2666795.5764199,42.770157015702,0,0
-71.678832757802,17.821226171102,37.574587458746,2592264.3800629,-1398.1040994792,2666795.5764199,42.774587458746,0,0
-71.678832047176,17.823809153551,37.57901790179,2592264.3800629,-1398.1040994792,2666795.5764199,42.77901790179,0,0
-71.67883133655,17.826392136,37.583448344834,2592264.3800629,-1398.1040994792,2666795.5764199,42.783448344834,0,0
-71.678830625923,17.828975118449,37.587878787879,2592264.3800629,-1398.1040994792,2666795.5764199,42.787878787879,0,0
-71.678829915297,17.831558100898,37.592309230923,2592264.3800629,-1398.1040994792,2666795.5764199,42.792309230923,0,0
-71.678829204671,17.834141083348,37.596739673967,2592264.3800629,-1398.1040994792,2666795.5764199,42.796739673967,0,0
-71.678828494045,17.836724065797,37.601170117012,2592264.3800629,-1398.1040994792,2666795.5764199,42.801170117012,0,0
-71.678827783419,17.839307048246,37.605600560056,2592264.3800629,-1398.1040994792,2666795.5764199,42.805600560056,0,0
-71.678827072793,17.841890030695,37.6100310031,2592264.3800629,-1398.1040994792,2666795.5764199,42.8100310031,0,0
-71.678826362167,17.844473013144,37.614461446145,2592264.3800629,-1398.1040994792,2666795.5764199,42.814461446145,0,0
-71.67882565154,17.847055995594,37.618891889189,2592264.3800629,-1398.1040994792,2666795.5764199,42.818891889189,0,0
-71.678824940914,17.849638978043,37.623322332233,2592264.3800629,-1398.1040994792,2666795.5764199,42.823322332233,0,0
-71.678824230288,17.852221960492,37.627752775278,2592264.3800629,-1398.1040994792,2666795.5764199,42.827752775278,0,0
-71.678823519662,17.854804942941,37.632183218322,2592264.3800629,-1398.1040994792,2666795.5764199,42.832183218322,0,0
-71.678822809036,17.85738792539,37.636613661366,2592264.3800629,-1398.1040994792,2666795.5764199,42.836613661366,0,0
-71.67882209841,17.85997090784,37.64104410441,2592264.3800629,-1398.1040994792,2666795.5764199,42.84104410441,0,0
-71.678821387783,17.862553890289,37.645474547455,2592264.3800629,-1398.1040994792,2666795.5764199,42.845474547455,0,0
-71.678820677157,17.865136872738,37.649904990499,2592264.3800629,-1398.1040994792,2666795.5764199,42.849904990499,0,0
-71.678819966531,17.867719855187,37.654335433543,2592264.3800629,-1398.1040994792,2666795.5764199,42.854335433543,0,0
-71.678819255905,17.870302837636,37.658765876588,2592264.3800629,-1398.1040994792,2666795.5764199,42.858765876588,0,0
-71.678818545279,17.872885820086,37.663196319632,2592264.3800629,-1398.1040994792,2666795.5764199,42.863196319632,0,0
-71.678817834653,17.875468802535,37.667626762676,2592264.3800629,-1398.1040994792,2666795.5764199,42.867626762676,0,0
-71.678817124026,17.878051784984,37.672057205721,2592264.3800629,-1398.1040994792,2666795.5764199,42.872057205721,0,0
-71.6788164134,17.880634767433,37.676487648765,2592264.3800629,-1398.1040994792,2666795.5764199,42.876487648765,0,0
-71.678815702774,17.883217749882,37.680918091809,2592264.3800629,-1398.1040994792,2666795.5764199,42.880918091809,0,0
-71.678814992148,17.885800732332,37.685348534853,2592264.3800629,-1398.1040994792,2666795.5764199,42.885348534853,0,0
-71.678814281522,17.888383714781,37.689778977898,2592264.3800629,-1398.1040994792,2666795.5764199,42.889778977898,0,0
-71.678813570896,17.89096669723,37.694209420942,2592264.3800629,-1398.1040994792,2666795.5764199,42.894209420942,0,0
-71.67881286027,17.893549679679,37.698639863986,2592264.3800629,-1398.1040994792,2666795.5764199,42.898639863986,0,0
-71.678812149643,17.896132662128,37.703070307031,2592264.3800629,-1398.1040994792,2666795.5764199,42.903070307031,0,0
-71.678811439017,17.898715644578,37.707500750075,2592264.3800629,-1398.1040994792,2666795.5764199,42.907500750075,0,0
-71.678810728391,17.901298627027,37.711931193119,2592264.3800629,-1398.1040994792,2666795.5764199,42.911931193119,0,0
-71.678810017765,17.903881609476,37.716361636164,2592264.3800629,-1398.1040994792,2666795.5764199,42.916361636164,0,0
-71.678809307139,17.906464591925,37.720792079208,2592264.3800629,-1398.1040994792,2666795.5764199,42.920792079208,0,0
-71.678808596513,17.909047574374,37.725222522252,2592264.3800629,-1398.1040994792,2666795.5764199,42.925222522252,0,0
-71.678807885886,17.911630556824,37.729652965297,2592264.3800629,-1398.1040994792,2666795.5764199,42.929652965297,0,0
-71.67880717526,17.914213539273,37.734083408341,2592264.3800629,-1398.1040994792,2666795.5764199,42.934083408341,0,0
-71.678806464634,17.916796521722,37.738513851385,2592264.3800629,-1398.1040994792,2666795.5764199,42.938513851385,0,0
-71.678805754008,17.919379504171,37.742944294429,2592264.3800629,-1398.1040994792,2666795.5764199,42.942944294429,0,0
-71.678805043382,17.92196248662,37.747374737474,2592264.3800629,-1398.1040994792,2666795.5764199,42.947374737474,0,0
-71.678804332756,17.92454546907,37.751805180518,2592264.3800629,-1398.1040994792,2666795.5764199,42.951805180518,0,0
-71.678803622129,17.927128451519,37.756235623562,2592264.3800629,-1398.1040994792,2666795.5764199,42.956235623562,0,0
-71.678802911503,17.929711433968,37.760666066607,2592264.3800629,-1398.1040994792,2666795.5764199,42.960666066607,0,0
-71.678802200877,17.932294416417,37.765096509651,2592264.3800629,-1398.1040994792,2666795.5764199,42.965096509651,0,0
-71.678801490251,17.934877398866,37.769526952695,2592264.3800629,-1398.1040994792,2666795.5764199,42.969526952695,0,0
-71.678800779625,17.937460381316,37.77395739574,2592264.3800629,-1398.1040994792,2666795.5764199,42.97395739574,0,0
-71.678800068999,17.940043363765,37.778387838784,2592264.3800629,-1398.1040994792,2666795.5764199,42.978387838784,0,0
-71.678799358372,17.942626346214,37.782818281828,2592264.3800629,-1398.1040994792,2666795.5764199,42.982818281828,0,0
-71.678798647746,17.945209328663,37.787248724872,2592264.3800629,-1398.1040994792,2666795.5764199,42.987248724872,0,0
-71.67879793712,17.947792311112,37.791679167917,2592264.3800629,-1398.1040994792,2666795.5764199,42.991679167917,0,0
-71.678797226494,17.950375293562,37.796109610961,2592264.3800629,-1398.1040994792,2666795.5764199,42.996109610961,0,0
-71.678796515868,17.952958276011,37.800540054005,2592264.3800629,-1398.1040994792,2666795.5764199,43.000540054005,0,0
-71.678795805242,17.95554125846,37.80497049705,2592264.3800629,-1398.1040994792,2666795.5764199,43.00497049705,0,0
-71.678795094616,17.958124240909,37.809400940094,2592264.3800629,-1398.1040994792,2666795.5764199,43.009400940094,0,0
-71.678794383989,17.960707223358,37.813831383138,2592264.3800629,-1398.1040994792,2666795.5764199,43.013831383138,0,0
-71.678793673363,17.963290205808,37.818261826183,2592264.3800629,-1398.1040994792,2666795.5764199,43.018261826183,0,0
-71.678792962737,17.965873188257,37.822692269227,2592264.3800629,-1398.1040994792,2666795.5764199,43.022692269227,0,0
-71.678792252111,17.968456170706,37.827122712271,2592264.3800629,-1398.1040994792,2666795.5764199,43.027122712271,0,0
-71.678791541485,17.971039153155,37.831553155316,2592264.3800629,-1398.1040994792,2666795.5764199,43.031553155316,0,0
-71.678790830859,17.973622135604,37.83598359836,2592264.3800629,-1398.1040994792,2666795.5764199,43.03598359836,0,0
-71.678790120232,17.976205118054,37.840414041404,2592264.3800629,-1398.1040994792,2666795.5764199,43.040414041404,0,0
-71.678789409606,17.978788100503,37.844844484448,2592264.3800629,-1398.1040994792,2666795.5764199,43.044844484448,0,0
-71.67878869898,17.981371082952,37.849274927493,2592264.3800629,-1398.1040994792,2666795.5764199,43.049274927493,0,0
-71.678787988354,17.983954065401,37.853705370537,2592264.3800629,-1398.1040994792,2666795.5764199,43.053705370537,0,0
-71.678787277728,17.98653704785,37.858135813581,2592264.3800629,-1398.1040994792,2666795.5764199,43.058135813581,0,0
-71.678786567102,17.9891200303,37.862566256626,2592264.3800629,-1398.1040994792,2666795.5764199,43.062566256626,0,0
-71.678785856475,17.991703012749,37.86699669967,2592264.3800629,-1398.1040994792,2666795.5764199,43.06699669967,0,0
-71.678785145849,17.994285995198,37.871427142714,2592264.3800629,-1398.1040994792,2666795.5764199,43.071427142714,0,0
-71.678784435223,17.996868977647,37.875857585759,2592264.3800629,-1398.1040994792,2666795.5764199,43.075857585759,0,0
-71.678783724597,17.999451960096,37.880288028803,2592264.3800629,-1398.1040994792,2666795.5764199,43.080288028803,0,0
-71.678783013971,18.002034942546,37.884718471847,2592264.3800629,-1398.1040994792,2666795.5764199,43.084718471847,0,0
-71.678782303345,18.004617924995,37.889148914891,2592264.3800629,-1398.1040994792,2666795.5764199,43.089148914891,0,0
-71.678781592719,18.007200907444,37.893579357936,2592264.3800629,-1398.1040994792,2666795.5764199,43.093579357936,0,0
-71.678780882092,18.009783889893,37.89800980098,2592264.3800629,-1398.1040994792,2666795.5764199,43.09800980098,0,0
-71.678780171466,18.012366872342,37.902440244024,2592264.3800629,-1398.1040994792,2666795.5764199,43.102440244024,0,0
-71.67877946084,18.014949854792,37.906870687069,2592264.3800629,-1398.1040994792,2666795.5764199,43.106870687069,0,0
-71.678778750214,18.017532837241,37.911301130113,2592264.3800629,-1398.1040994792,2666795.5764199,43.111301130113,0,0
-71.678778039588,18.02011581969,37.915731573157,2592264.3800629,-1398.1040994792,2666795.5764199,43.115731573157,0,0
-71.678777328962,18.022698802139,37.920162016202,2592264.3800629,-1398.1040994792,2666795.5764199,43.120162016202,0,0
-71.678776618335,18.025281784588,37.924592459246,2592264.3800629,-1398.1040994792,2666795.5764199,43.124592459246,0,0
-71.678775907709,18.027864767038,37.92902290229,2592264.3800629,-1398.1040994792,2666795.5764199,43.12902290229,0,0
-71.678775197083,18.030447749487,37.933453345335,2592264.3800629,-1398.1040994792,2666795.5764199,43.133453345335,0,0
-71.678774486457,18.033030731936,37.937883788379,2592264.3800629,-1398.1040994792,2666795.5764199,43.137883788379,0,0
-71.678773775831,18.035613714385,37.942314231423,2592264.3800629,-1398.1040994792,2666795.5764199,43.142314231423,0,0
-71.678773065205,18.038196696834,37.946744674467,2592264.3800629,-1398.1040994792,2666795.5764199,43.146744674467,0,0
-71.678772354578,18.040779679284,37.951175117512,2592264.3800629,-1398.1040994792,2666795.5764199,43.151175117512,0,0
-71.678771643952,18.043362661733,37.955605560556,2592264.3800629,-1398.1040994792,2666795.5764199,43.155605560556,0,0
-71.678770933326,18.045945644182,37.9600360036,2592264.3800629,-1398.1040994792,2666795.5764199,43.1600360036,0,0
-71.6787702227,18.048528626631,37.964466446645,2592264.3800629,-1398.1040994792,2666795.5764199,43.164466446645,0,0
-71.678769512074,18.05111160908,37.968896889689,2592264.3800629,-1398.1040994792,2666795.5764199,43.168896889689,0,0
-71.678768801448,18.05369459153,37.973327332733,2592264.3800629,-1398.1040994792,2666795.5764199,43.173327332733,0,0
-71.678768090821,18.056277573979,37.977757775778,2592264.3800629,-1398.1040994792,2666795.5764199,43.177757775778,0,0
-71.678767380195,18.058860556428,37.982188218822,2592264.3800629,-1398.1040994792,2666795.5764199,43.182188218822,0,0
-71.678766669569,18.061443538877,37.986618661866,2592264.3800629,-1398.1040994792,2666795.5764199,43.186618661866,0,0
-71.678765958943,18.064026521327,37.99104910491,2592264.3800629,-1398.1040994792,2666795.5764199,43.19104910491,0,0
-71.678765248317,18.066609503776,37.995479547955,2592264.3800629,-1398.1040994792,2666795.5764199,43.195479547955,0,0
-71.678764537691,18.069192486225,37.999909990999,2592264.3800629,-1398.1040994792,2666795.5764199,43.199909990999,0,0
-71.678763827065,18.071775468674,38.004340434043,2592264.3800629,-1398.1040994792,2666795.5764199,43.204340434043,0,0
-71.678763116438,18.074358451123,38.008770877088,2592264.3800629,-1398.1040994792,2666795.5764199,43.208770877088,0,0
-71.678762405812,18.076941433573,38.013201320132,2592264.3800629,-1398.1040994792,2666795.5764199,43.213201320132,0,0
-71.678761695186,18.079524416022,38.017631763176,2592264.3800629,-1398.1040994792,2666795.5764199,43.217631763176,0,0
-71.67876098456,18.082107398471,38.022062206221,2592264.3800629,-1398.1040994792,2666795.5764199,43.222062206221,0,0
-71.678760273934,18.08469038092,38.026492649265,2592264.3800629,-1398.1040994792,2666795.5764199,43.226492649265,0,0
-71.678759563308,18.087273363369,38.030923092309,2592264.3800629,-1398.1040994792,2666795.5764199,43.230923092309,0,0
-71.678758852681,18.089856345819,38.035353535354,2592264.3800629,-1398.1040994792,2666795.5764199,43.235353535354,0,0
-71.678758142055,18.092439328268,38.039783978398,2592264.3800629,-1398.1040994792,2666795.5764199,43.239783978398,0,0
-71.678757431429,18.095022310717,38.044214421442,2592264.3800629,-1398.1040994792,2666795.5764199,43.244214421442,0,0
-71.678756720803,18.097605293166,38.048644864486,2592264.3800629,-1398.1040994792,2666795.5764199,43.248644864486,0,0
-71.678756010177,18.100188275615,38.053075307531,2592264.3800629,-1398.1040994792,2666795.5764199,43.253075307531,0,0
-71.678755299551,18.102771258065,38.057505750575,2592264.3800629,-1398.1040994792,2666795.5764199,43.257505750575,0,0
-71.678754588924,18.105354240514,38.061936193619,2592264.3800629,-1398.1040994792,2666795.5764199,43.261936193619,0,0
-71.678753878298,18.107937222963,38.066366636664,2592264.3800629,-1398.1040994792,2666795.5764199,43.266366636664,0,0
-71.678753167672,18.110520205412,38.070797079708,2592264.3800629,-1398.1040994792,2666795.5764199,43.270797079708,0,0
-71.678752457046,18.113103187861,38.075227522752,2592264.3800629,-1398.1040994792,2666795.5764199,43.275227522752,0,0
-71.67875174642,18.115686170311,38.079657965797,2592264.3800629,-1398.1040994792,2666795.5764199,43.279657965797,0,0
-71.678751035794,18.11826915276,38.084088408841,2592264.3800629,-1398.1040994792,2666795.5764199,43.284088408841,0,0
-71.678750325168,18.120852135209,38.088518851885,2592264.3800629,-1398.1040994792,2666795.5764199,43.288518851885,0,0
-71.678749614541,18.123435117658,38.092949294929,2592264.3800629,-1398.1040994792,2666795.5764199,43.292949294929,0,0
-71.678748903915,18.126018100107,38.097379737974,2592264.3800629,-1398.1040994792,2666795.5764199,43.297379737974,0,0
-71.678748193289,18.128601082557,38.101810181018,2592264.3800629,-1398.1040994792,2666795.5764199,43.301810181018,0,0
-71.678747482663,18.131184065006,38.106240624062,2592264.3800629,-1398.1040994792,2666795.5764199,43.306240624062,0,0
-71.678746772037,18.133767047455,38.110671067107,2592264.3800629,-1398.1040994792,2666795.5764199,43.310671067107,0,0
-71.678746061411,18.136350029904,38.115101510151,2592264.3800629,-1398.1040994792,2666795.5764199,43.315101510151,0,0
-71.678745350784,18.138933012353,38.119531953195,2592264.3800629,-1398.1040994792,2666795.5764199,43.319531953195,0,0
-71.678744640158,18.141515994803,38.12396239624,2592264.3800629,-1398.1040994792,2666795.5764199,43.32396239624,0,0
-71.678743929532,18.144098977252,38.128392839284,2592264.3800629,-1398.1040994792,2666795.5764199,43.328392839284,0,0
-71.678743218906,18.146681959701,38.132823282328,2592264.3800629,-1398.1040994792,2666795.5764199,43.332823282328,0,0
-71.67874250828,18.14926494215,38.137253725373,2592264.3800629,-1398.1040994792,2666795.5764199,43.337253725373,0,0
-71.678741797654,18.151847924599,38.141684168417,2592264.3800629,-1398.1040994792,2666795.5764199,43.341684168417,0,0
-71.678741087027,18.154430907049,38.146114611461,2592264.3800629,-1398.1040994792,2666795.5764199,43.346114611461,0,0
-71.678740376401,18.157013889498,38.150545054505,2592264.3800629,-1398.1040994792,2666795.5764199,43.350545054505,0,0
-71.678739665775,18.159596871947,38.15497549755,2592264.3800629,-1398.1040994792,2666795.5764199,43.35497549755,0,0
-71.678738955149,18.162179854396,38.159405940594,2592264.3800629,-1398.1040994792,2666795.5764199,43.359405940594,0,0
-71.678738244523,18.164762836845,38.163836383638,2592264.3800629,-1398.1040994792,2666795.5764199,43.363836383638,0,0
-71.678737533897,18.167345819295,38.168266826683,2592264.3800629,-1398.1040994792,2666795.5764199,43.368266826683,0,0
-71.67873682327,18.169928801744,38.172697269727,2592264.3800629,-1398.1040994792,2666795.5764199,43.372697269727,0,0
-71.678736112644,18.172511784193,38.177127712771,2592264.3800629,-1398.1040994792,2666795.5764199,43.377127712771,0,0
-71.678735402018,18.175094766642,38.181558155816,2592264.3800629,-1398.1040994792,2666795.5764199,43.381558155816,0,0
-71.678734691392,18.177677749091,38.18598859886,2592264.3800629,-1398.1040994792,2666795.5764199,43.38598859886,0,0
-71.678733980766,18.180260731541,38.190419041904,2592264.3800629,-1398.1040994792,2666795.5764199,43.390419041904,0,0
-71.67873327014,18.18284371399,38.194849484948,2592264.3800629,-1398.1040994792,2666795.5764199,43.394849484948,0,0
-71.678732559514,18.185426696439,38.199279927993,2592264.3800629,-1398.1040994792,2666795.5764199,43.399279927993,0,0
-71.678731848887,18.188009678888,38.203710371037,2592264.3800629,-1398.1040994792,2666795.5764199,43.403710371037,0,0
-71.678731138261,18.190592661337,38.208140814081,2592264.3800629,-1398.1040994792,2666795.5764199,43.408140814081,0,0
-71.678730427635,18.193175643787,38.212571257126,2592264.3800629,-1398.1040994792,2666795.5764199,43.412571257126,0,0
-71.678729717009,18.195758626236,38.21700170017,2592264.3800629,-1398.1040994792,2666795.5764199,43.41700170017,0,0
-71.678729006383,18.198341608685,38.221432143214,2592264.3800629,-1398.1040994792,2666795.5764199,43.421432143214,0,0
-71.678728295757,18.200924591134,38.225862586259,2592264.3800629,-1398.1040994792,2666795.5764199,43.425862586259,0,0
-71.67872758513,18.203507573583,38.230293029303,2592264.3800629,-1398.1040994792,2666795.5764199,43.430293029303,0,0
-71.678726874504,18.206090556033,38.234723472347,2592264.3800629,-1398.1040994792,2666795.5764199,43.434723472347,0,0
-71.678726163878,18.208673538482,38.239153915392,2592264.3800629,-1398.1040994792,2666795.5764199,43.439153915392,0,0
-71.678725453252,18.211256520931,38.243584358436,2592264.3800629,-1398.1040994792,2666795.5764199,43.443584358436,0,0
-71.678724742626,18.21383950338,38.24801480148,2592264.3800629,-1398.1040994792,2666795.5764199,43.44801480148,0,0
-71.678724032,18.216422485829,38.252445244524,2592264.3800629,-1398.1040994792,2666795.5764199,43.452445244524,0,0
-71.678723321373,18.219005468279,38.256875687569,2592264.3800629,-1398.1040994792,2666795.5764199,43.456875687569,0,0
-71.678722610747,18.221588450728,38.261306130613,2592264.3800629,-1398.1040994792,2666795.5764199,43.461306130613,0,0
-71.678721900121,18.224171433177,38.265736573657,2592264.3800629,-1398.1040994792,2666795.5764199,43.465736573657,0,0
-71.678721189495,18.226754415626,38.270167016702,2592264.3800629,-1398.1040994792,2666795.5764199,43.470167016702,0,0
-71.678720478869,18.229337398075,38.274597459746,2592264.3800629,-1398.1040994792,2666795.5764199,43.474597459746,0,0
-71.678719768243,18.231920380525,38.27902790279,2592264.3800629,-1398.1040994792,2666795.5764199,43.47902790279,0,0
-71.678719057617,18.234503362974,38.283458345835,2592264.3800629,-1398.1040994792,2666795.5764199,43.483458345835,0,0
-71.67871834699,18.237086345423,38.287888788879,2592264.3800629,-1398.1040994792,2666795.5764199,43.487888788879,0,0
-71.678717636364,18.239669327872,38.292319231923,2592264.3800629,-1398.1040994792,2666795.5764199,43.492319231923,0,0
-71.678716925738,18.242252310321,38.296749674967,2592264.3800629,-1398.1040994792,2666795.5764199,43.496749674967,0,0
-71.678716215112,18.244835292771,38.301180118012,2592264.3800629,-1398.1040994792,2666795.5764199,43.501180118012,0,0
-71.678715504486,18.24741827522,38.305610561056,2592264.3800629,-1398.1040994792,2666795.5764199,43.505610561056,0,0
-71.67871479386,18.250001257669,38.3100410041,2592264.3800629,-1398.1040994792,2666795.5764199,43.5100410041,0,0
-71.678714083233,18.252584240118,38.314471447145,2592264.3800629,-1398.1040994792,2666795.5764199,43.514471447145,0,0
-71.678713372607,18.255167222567,38.318901890189,2592264.3800629,-1398.1040994792,2666795.5764199,43.518901890189,0,0
-71.678712661981,18.257750205017,38.323332333233,2592264.3800629,-1398.1040994792,2666795.5764199,43.523332333233,0,0
-71.678711951355,18.260333187466,38.327762776278,2592264.3800629,-1398.1040994792,2666795.5764199,43.527762776278,0,0
-71.678711240729,18.262916169915,38.332193219322,2592264.3800629,-1398.1040994792,2666795.5764199,43.532193219322,0,0
-71.678710530103,18.265499152364,38.336623662366,2592264.3800629,-1398.1040994792,2666795.5764199,43.536623662366,0,0
-71.678709819476,18.268082134813,38.341054105411,2592264.3800629,-1398.1040994792,2666795.5764199,43.541054105411,0,0
-71.67870910885,18.270665117263,38.345484548455,2592264.3800629,-1398.1040994792,2666795.5764199,43.545484548455,0,0
-71.678708398224,18.273248099712,38.349914991499,2592264.3800629,-1398.1040994792,2666795.5764199,43.549914991499,0,0
-71.678707687598,18.275831082161,38.354345434543,2592264.3800629,-1398.1040994792,2666795.5764199,43.554345434543,0,0
-71.678706976972,18.27841406461,38.358775877588,2592264.3800629,-1398.1040994792,2666795.5764199,43.558775877588,0,0
-71.678706266346,18.280997047059,38.363206320632,2592264.3800629,-1398.1040994792,2666795.5764199,43.563206320632,0,0
-71.67870555572,18.283580029509,38.367636763676,2592264.3800629,-1398.1040994792,2666795.5764199,43.567636763676,0,0
-71.678704845093,18.286163011958,38.372067206721,2592264.3800629,-1398.1040994792,2666795.5764199,43.572067206721,0,0
-71.678704134467,18.288745994407,38.376497649765,2592264.3800629,-1398.1040994792,2666795.5764199,43.576497649765,0,0
-71.678703423841,18.291328976856,38.380928092809,2592264.3800629,-1398.1040994792,2666795.5764199,43.580928092809,0,0
-71.678702713215,18.293911959305,38.385358535854,2592264.3800629,-1398.1040994792,2666795.5764199,43.585358535854,0,0
-71.678702002589,18.296494941755,38.389788978898,2592264.3800629,-1398.1040994792,2666795.5764199,43.589788978898,0,0
-71.678701291963,18.299077924204,38.394219421942,2592264.3800629,-1398.1040994792,2666795.5764199,43.594219421942,0,0
-71.678700581336,18.301660906653,38.398649864986,2592264.3800629,-1398.1040994792,2666795.5764199,43.598649864986,0,0
-71.67869987071,18.304243889102,38.403080308031,2592264.3800629,-1398.1040994792,2666795.5764199,43.603080308031,0,0
-71.678699160084,18.306826871551,38.407510751075,2592264.3800629,-1398.1040994792,2666795.5764199,43.607510751075,0,0
-71.678698449458,18.309409854001,38.411941194119,2592264.3800629,-1398.1040994792,2666795.5764199,43.611941194119,0,0
-71.678697738832,18.31199283645,38.416371637164,2592264.3800629,-1398.1040994792,2666795.5764199,43.616371637164,0,0
-71.678697028206,18.314575818899,38.420802080208,2592264.3800629,-1398.1040994792,2666795.5764199,43.620802080208,0,0
-71.678696317579,18.317158801348,38.425232523252,2592264.3800629,-1398.1040994792,2666795.5764199,43.625232523252,0,0
-71.678695606953,18.319741783797,38.429662966297,2592264.3800629,-1398.1040994792,2666795.5764199,43.629662966297,0,0
-71.678694896327,18.322324766247,38.434093409341,2592264.3800629,-1398.1040994792,2666795.5764199,43.634093409341,0,0
-71.678694185701,18.324907748696,38.438523852385,2592264.3800629,-1398.1040994792,2666795.5764199,43.638523852385,0,0
-71.678693475075,18.327490731145,38.44295429543,2592264.3800629,-1398.1040994792,2666795.5764199,43.64295429543,0,0
-71.678692764449,18.330073713594,38.447384738474,2592264.3800629,-1398.1040994792,2666795.5764199,43.647384738474,0,0
-71.678692053822,18.332656696043,38.451815181518,2592264.3800629,-1398.1040994792,2666795.5764199,43.651815181518,0,0
-71.678691343196,18.335239678493,38.456245624562,2592264.3800629,-1398.1040994792,2666795.5764199,43.656245624562,0,0
-71.67869063257,18.337822660942,38.460676067607,2592264.3800629,-1398.1040994792,2666795.5764199,43.660676067607,0,0
-71.678689921944,18.340405643391,38.465106510651,2592264.3800629,-1398.1040994792,2666795.5764199,43.665106510651,0,0
-71.678689211318,18.34298862584,38.469536953695,2592264.3800629,-1398.1040994792,2666795.5764199,43.669536953695,0,0
-71.678688500692,18.345571608289,38.47396739674,2592264.3800629,-1398.1040994792,2666795.5764199,43.67396739674,0,0
-71.678687790066,18.348154590739,38.478397839784,2592264.3800629,-1398.1040994792,2666795.5764199,43.678397839784,0,0
-71.678687079439,18.350737573188,38.482828282828,2592264.3800629,-1398.1040994792,2666795.5764199,43.682828282828,0,0
-71.678686368813,18.353320555637,38.487258725873,2592264.3800629,-1398.1040994792,2666795.5764199,43.687258725873,0,0
-71.678685658187,18.355903538086,38.491689168917,2592264.3800629,-1398.1040994792,2666795.5764199,43.691689168917,0,0
-71.678684947561,18.358486520535,38.496119611961,2592264.3800629,-1398.1040994792,2666795.5764199,43.696119611961,0,0
-71.678684236935,18.361069502985,38.500550055005,2592264.3800629,-1398.1040994792,2666795.5764199,43.700550055006,0,0
-71.678683526309,18.363652485434,38.50498049805,2592264.3800629,-1398.1040994792,2666795.5764199,43.70498049805,0,0
-71.678682815682,18.366235467883,38.509410941094,2592264.3800629,-1398.1040994792,2666795.5764199,43.709410941094,0,0
-71.678682105056,18.368818450332,38.513841384138,2592264.3800629,-1398.1040994792,2666795.5764199,43.713841384138,0,0
-71.67868139443,18.371401432781,38.518271827183,2592264.3800629,-1398.1040994792,2666795.5764199,43.718271827183,0,0
-71.678680683804,18.373984415231,38.522702270227,2592264.3800629,-1398.1040994792,2666795.5764199,43.722702270227,0,0
-71.678679973178,18.37656739768,38.527132713271,2592264.3800629,-1398.1040994792,2666795.5764199,43.727132713271,0,0
-71.678679262552,18.379150380129,38.531563156316,2592264.3800629,-1398.1040994792,2666795.5764199,43.731563156316,0,0
-71.678678551925,18.381733362578,38.53599359936,2592264.3800629,-1398.1040994792,2666795.5764199,43.73599359936,0,0
-71.678677841299,18.384316345027,38.540424042404,2592264.3800629,-1398.1040994792,2666795.5764199,43.740424042404,0,0
-71.678677130673,18.386899327477,38.544854485449,2592264.3800629,-1398.1040994792,2666795.5764199,43.744854485449,0,0
-71.678676420047,18.389482309926,38.549284928493,2592264.3800629,-1398.1040994792,2666795.5764199,43.749284928493,0,0
-71.678675709421,18.392065292375,38.553715371537,2592264.3800629,-1398.1040994792,2666795.5764199,43.753715371537,0,0
-71.678674998795,18.394648274824,38.558145814581,2592264.3800629,-1398.1040994792,2666795.5764199,43.758145814581,0,0
-71.678674288168,18.397231257273,38.562576257626,2592264.3800629,-1398.1040994792,2666795.5764199,43.762576257626,0,0
-71.678673577542,18.399814239723,38.56700670067,2592264.3800629,-1398.1040994792,2666795.5764199,43.76700670067,0,0
-71.678672866916,18.402397222172,38.571437143714,2592264.3800629,-1398.1040994792,2666795.5764199,43.771437143714,0,0
-71.67867215629,18.404980204621,38.575867586759,2592264.3800629,-1398.1040994792,2666795.5764199,43.775867586759,0,0
-71.678671445664,18.40756318707,38.580298029803,2592264.3800629,-1398.1040994792,2666795.5764199,43.780298029803,0,0
-71.678670735038,18.410146169519,38.584728472847,2592264.3800629,-1398.1040994792,2666795.5764199,43.784728472847,0,0
-71.678670024412,18.412729151969,38.589158915892,2592264.3800629,-1398.1040994792,2666795.5764199,43.789158915892,0,0
-71.678669313785,18.415312134418,38.593589358936,2592264.3800629,-1398.1040994792,2666795.5764199,43.793589358936,0,0
-71.678668603159,18.417895116867,38.59801980198,2592264.3800629,-1398.1040994792,2666795.5764199,43.79801980198,0,0
-71.678667892533,18.420478099316,38.602450245024,2592264.3800629,-1398.1040994792,2666795.5764199,43.802450245025,0,0
-71.678667181907,18.423061081765,38.606880688069,2592264.3800629,-1398.1040994792,2666795.5764199,43.806880688069,0,0
-71.678666471281,18.425644064215,38.611311131113,2592264.3800629,-1398.1040994792,2666795.5764199,43.811311131113,0,0
-71.678665760655,18.428227046664,38.615741574157,2592264.3800629,-1398.1040994792,2666795.5764199,43.815741574157,0,0
-71.678665050028,18.430810029113,38.620172017202,2592264.3800629,-1398.1040994792,2666795.5764199,43.820172017202,0,0
-71.678664339402,18.433393011562,38.624602460246,2592264.3800629,-1398.1040994792,2666795.5764199,43.824602460246,0,0
-71.678663628776,18.435975994011,38.62903290329,2592264.3800629,-1398.1040994792,2666795.5764199,43.82903290329,0,0
-71.67866291815,18.438558976461,38.633463346335,2592264.3800629,-1398.1040994792,2666795.5764199,43.833463346335,0,0
-71.678662207524,18.44114195891,38.637893789379,2592264.3800629,-1398.1040994792,2666795.5764199,43.837893789379,0,0
-71.678661496898,18.443724941359,38.642324232423,2592264.3800629,-1398.1040994792,2666795.5764199,43.842324232423,0,0
-71.678660786271,18.446307923808,38.646754675468,2592264.3800629,-1398.1040994792,2666795.5764199,43.846754675468,0,0
-71.678660075645,18.448890906257,38.651185118512,2592264.3800629,-1398.1040994792,2666795.5764199,43.851185118512,0,0
-71.678659365019,18.451473888707,38.655615561556,2592264.3800629,-1398.1040994792,2666795.5764199,43.855615561556,0,0
-71.678658654393,18.454056871156,38.6600460046,2592264.3800629,-1398.1040994792,2666795.5764199,43.8600460046,0,0
-71.678657943767,18.456639853605,38.664476447645,2592264.3800629,-1398.1040994792,2666795.5764199,43.864476447645,0,0
-71.678657233141,18.459222836054,38.668906890689,2592264.3800629,-1398.1040994792,2666795.5764199,43.868906890689,0,0
-71.678656522515,18.461805818503,38.673337333733,2592264.3800629,-1398.1040994792,2666795.5764199,43.873337333733,0,0
-71.678655811888,18.464388800953,38.677767776778,2592264.3800629,-1398.1040994792,2666795.5764199,43.877767776778,0,0
-71.678655101262,18.466971783402,38.682198219822,2592264.3800629,-1398.1040994792,2666795.5764199,43.882198219822,0,0
-71.678654390636,18.469554765851,38.686628662866,2592264.3800629,-1398.1040994792,2666795.5764199,43.886628662866,0,0
-71.67865368001,18.4721377483,38.691059105911,2592264.3800629,-1398.1040994792,2666795.5764199,43.891059105911,0,0
-71.678652969384,18.474720730749,38.695489548955,2592264.3800629,-1398.1040994792,2666795.5764199,43.895489548955,0,0
-71.678652258758,18.477303713199,38.699919991999,2592264.3800629,-1398.1040994792,2666795.5764199,43.899919991999,0,0
-71.678651548131,18.479886695648,38.704350435044,2592264.3800629,-1398.1040994792,2666795.5764199,43.904350435044,0,0
-71.678650837505,18.482469678097,38.708780878088,2592264.3800629,-1398.1040994792,2666795.5764199,43.908780878088,0,0
-71.678650126879,18.485052660546,38.713211321132,2592264.3800629,-1398.1040994792,2666795.5764199,43.913211321132,0,0
-71.678649416243,18.487635643002,38.717641764176,2592521.11532,-1280.0968549726,2666958.9915926,43.917641764176,0,0
-71.678648705578,18.490218625479,38.722072207221,2592521.11532,-1280.0968549726,2666958.9915926,43.922072207221,0,0
-71.678647994912,18.492801607955,38.726502650265,2592521.11532,-1280.0968549726,2666958.9915926,43.926502650265,0,0
-71.678647284246,18.495384590432,38.730933093309,2592521.11532,-1280.0968549726,2666958.9915926,43.930933093309,0,0
-71.678646573581,18.497967572908,38.735363536354,2592521.11532,-1280.0968549726,2666958.9915926,43.935363536354,0,0
-71.678645862915,18.500550555384,38.739793979398,2592521.11532,-1280.0968549726,2666958.9915926,43.939793979398,0,0
-71.678645151976,18.503133537841,38.744224422442,2594490.7497209,-1676.1958875667,2667508.060277,43.944224422442,0,0
-71.678644440975,18.505716520293,38.748654865487,2594490.7497209,-1676.1958875667,2667508.060277,43.948654865487,0,0
-71.678643729974,18.508299502744,38.753085308531,2594490.7497209,-1676.1958875667,2667508.060277,43.953085308531,0,0
-71.678643018973,18.510882485196,38.757515751575,2594490.7497209,-1676.1958875667,2667508.060277,43.957515751575,0,0
-71.678642307973,18.513465467648,38.761946194619,2594490.7497209,-1676.1958875667,2667508.060277,43.961946194619,0,0
-71.678641596972,18.5160484501,38.766376637664,2594490.7497209,-1676.1958875667,2667508.060277,43.966376637664,0,0
-71.678640885971,18.518631432552,38.770807080708,2594490.7497209,-1676.1958875667,2667508.060277,43.970807080708,0,0
-71.67864017497,18.521214415003,38.775237523752,2594490.7497209,-1676.1958875667,2667508.060277,43.975237523752,0,0
-71.67863946397,18.523797397455,38.779667966797,2594490.7497209,-1676.1958875667,2667508.060277,43.979667966797,0,0
-71.678638752969,18.526380379907,38.784098409841,2594490.7497209,-1676.1958875667,2667508.060277,43.984098409841,0,0
-71.678638041968,18.528963362359,38.788528852885,2594490.7497209,-1676.1958875667,2667508.060277,43.988528852885,0,0
-71.678637330967,18.531546344811,38.79295929593,2594490.7497209,-1676.1958875667,2667508.060277,43.99295929593,0,0
-71.678636619966,18.534129327262,38.797389738974,2594490.7497209,-1676.1958875667,2667508.060277,43.997389738974,0,0
-71.678635908966,18.536712309714,38.801820182018,2594490.7497209,-1676.1958875667,2667508.060277,44.001820182018,0,0
-71.678635197965,18.539295292166,38.806250625063,2594490.7497209,-1676.1958875667,2667508.060277,44.006250625063,0,0
-71.678634486964,18.541878274618,38.810681068107,2594490.7497209,-1676.1958875667,2667508.060277,44.010681068107,0,0
-71.678633775963,18.54446125707,38.815111511151,2594490.7497209,-1676.1958875667,2667508.060277,44.015111511151,0,0
-71.678633064963,18.547044239521,38.819541954195,2594490.7497209,-1676.1958875667,2667508.060277,44.019541954195,0,0
-71.678632353962,18.549627221973,38.82397239724,2594490.7497209,-1676.1958875667,2667508.060277,44.02397239724,0,0
-71.678631642961,18.552210204425,38.828402840284,2594490.7497209,-1676.1958875667,2667508.060277,44.028402840284,0,0
-71.67863093196,18.554793186877,38.832833283328,2594490.7497209,-1676.1958875667,2667508.060277,44.032833283328,0,0
-71.67863022096,18.557376169329,38.837263726373,2594490.7497209,-1676.1958875667,2667508.060277,44.037263726373,0,0
-71.678629509959,18.55995915178,38.841694169417,2594490.7497209,-1676.1958875667,2667508.060277,44.041694169417,0,0
-71.678628798958,18.562542134232,38.846124612461,2594490.7497209,-1676.1958875667,2667508.060277,44.046124612461,0,0
-71.678628087957,18.565125116684,38.850555055506,2594490.7497209,-1676.1958875667,2667508.060277,44.050555055506,0,0
-71.678627376957,18.567708099136,38.85498549855,2594490.7497209,-1676.1958875667,2667508.060277,44.05498549855,0,0
-71.678626665956,18.570291081588,38.859415941594,2594490.7497209,-1676.1958875667,2667508.060277,44.059415941594,0,0
-71.678625954955,18.572874064039,38.863846384638,2594490.7497209,-1676.1958875667,2667508.060277,44.063846384638,0,0
-71.678625243954,18.575457046491,38.868276827683,2594490.7497209,-1676.1958875667,2667508.060277,44.068276827683,0,0
-71.678624532953,18.578040028943,38.872707270727,2594490.7497209,-1676.1958875667,2667508.060277,44.072707270727,0,0
-71.678623821953,18.580623011395,38.877137713771,2594490.7497209,-1676.1958875667,2667508.060277,44.077137713771,0,0
-71.678623110952,18.583205993847,38.881568156816,2594490.7497209,-1676.1958875667,2667508.060277,44.081568156816,0,0
-71.678622399951,18.585788976298,38.88599859986,2594490.7497209,-1676.1958875667,2667508.060277,44.08599859986,0,0
-71.67862168895,18.58837195875,38.890429042904,2594490.7497209,-1676.1958875667,2667508.060277,44.090429042904,0,0
-71.67862097795,18.590954941202,38.894859485949,2594490.7497209,-1676.1958875667,2667508.060277,44.094859485949,0,0
-71.678620266949,18.593537923654,38.899289928993,2594490.7497209,-1676.1958875667,2667508.060277,44.099289928993,0,0
-71.678619555948,18.596120906106,38.903720372037,2594490.7497209,-1676.1958875667,2667508.060277,44.103720372037,0,0
-71.678618844947,18.598703888557,38.908150815082,2594490.7497209,-1676.1958875667,2667508.060277,44.108150815082,0,0
-71.678618133947,18.601286871009,38.912581258126,2594490.7497209,-1676.1958875667,2667508.060277,44.112581258126,0,0
-71.678617422946,18.603869853461,38.91701170117,2594490.7497209,-1676.1958875667,2667508.060277,44.11701170117,0,0
-71.678616711945,18.606452835913,38.921442144214,2594490.7497209,-1676.1958875667,2667508.060277,44.121442144214,0,0
-71.678616000944,18.609035818364,38.925872587259,2594490.7497209,-1676.1958875667,2667508.060277,44.125872587259,0,0
-71.678615289944,18.611618800816,38.930303030303,2594490.7497209,-1676.1958875667,2667508.060277,44.130303030303,0,0
-71.678614578943,18.614201783268,38.934733473347,2594490.7497209,-1676.1958875667,2667508.060277,44.134733473347,0,0
-71.678613867942,18.61678476572,38.939163916392,2594490.7497209,-1676.1958875667,2667508.060277,44.139163916392,0,0
-71.678613156941,18.619367748172,38.943594359436,2594490.7497209,-1676.1958875667,2667508.060277,44.143594359436,0,0
-71.67861244594,18.621950730623,38.94802480248,2594490.7497209,-1676.1958875667,2667508.060277,44.14802480248,0,0
-71.67861173494,18.624533713075,38.952455245525,2594490.7497209,-1676.1958875667,2667508.060277,44.152455245525,0,0
-71.678611023939,18.627116695527,38.956885688569,2594490.7497209,-1676.1958875667,2667508.060277,44.156885688569,0,0
-71.678610312938,18.629699677979,38.961316131613,2594490.7497209,-1676.1958875667,2667508.060277,44.161316131613,0,0
-71.678609601937,18.632282660431,38.965746574657,2594490.7497209,-1676.1958875667,2667508.060277,44.165746574657,0,0
-71.678608890937,18.634865642882,38.970177017702,2594490.7497209,-1676.1958875667,2667508.060277,44.170177017702,0,0
-71.678608179936,18.637448625334,38.974607460746,2594490.7497209,-1676.1958875667,2667508.060277,44.174607460746,0,0
-71.678607468935,18.640031607786,38.97903790379,2594490.7497209,-1676.1958875667,2667508.060277,44.17903790379,0,0
-71.678606757934,18.642614590238,38.983468346835,2594490.7497209,-1676.1958875667,2667508.060277,44.183468346835,0,0
-71.678606046934,18.64519757269,38.987898789879,2594490.7497209,-1676.1958875667,2667508.060277,44.187898789879,0,0
-71.678605335933,18.647780555141,38.992329232923,2594490.7497209,-1676.1958875667,2667508.060277,44.192329232923,0,0
-71.678604624932,18.650363537593,38.996759675968,2594490.7497209,-1676.1958875667,2667508.060277,44.196759675968,0,0
-71.678603913931,18.652946520045,39.001190119012,2594490.7497209,-1676.1958875667,2667508.060277,44.201190119012,0,0
-71.67860320293,18.655529502497,39.005620562056,2594490.7497209,-1676.1958875667,2667508.060277,44.205620562056,0,0
-71.67860249193,18.658112484949,39.010051005101,2594490.7497209,-1676.1958875667,2667508.060277,44.210051005101,0,0
-71.678601780929,18.6606954674,39.014481448145,2594490.7497209,-1676.1958875667,2667508.060277,44.214481448145,0,0
-71.678601069928,18.663278449852,39.018911891189,2594490.7497209,-1676.1958875667,2667508.060277,44.218911891189,0,0
-71.678600358927,18.665861432304,39.023342334233,2594490.7497209,-1676.1958875667,2667508.060277,44.223342334233,0,0
-71.678599647927,18.668444414756,39.027772777278,2594490.7497209,-1676.1958875667,2667508.060277,44.227772777278,0,0
-71.678598936926,18.671027397208,39.032203220322,2594490.7497209,-1676.1958875667,2667508.060277,44.232203220322,0,0
-71.678598225925,18.673610379659,39.036633663366,2594490.7497209,-1676.1958875667,2667508.060277,44.236633663366,0,0
-71.678597514924,18.676193362111,39.041064106411,2594490.7497209,-1676.1958875667,2667508.060277,44.241064106411,0,0
-71.678596803924,18.678776344563,39.045494549455,2594490.7497209,-1676.1958875667,2667508.060277,44.245494549455,0,0
-71.678596092923,18.681359327015,39.049924992499,2594490.7497209,-1676.1958875667,2667508.060277,44.249924992499,0,0
-71.678595381922,18.683942309467,39.054355435544,2594490.7497209,-1676.1958875667,2667508.060277,44.254355435544,0,0
-71.678594670921,18.686525291918,39.058785878588,2594490.7497209,-1676.1958875667,2667508.060277,44.258785878588,0,0
-71.678593959921,18.68910827437,39.063216321632,2594490.7497209,-1676.1958875667,2667508.060277,44.263216321632,0,0
-71.67859324892,18.691691256822,39.067646764676,2594490.7497209,-1676.1958875667,2667508.060277,44.267646764676,0,0
-71.678592537919,18.694274239274,39.072077207721,2594490.7497209,-1676.1958875667,2667508.060277,44.272077207721,0,0
-71.678591826918,18.696857221726,39.076507650765,2594490.7497209,-1676.1958875667,2667508.060277,44.276507650765,0,0
-71.678591115917,18.699440204177,39.080938093809,2594490.7497209,-1676.1958875667,2667508.060277,44.280938093809,0,0
-71.678590404917,18.702023186629,39.085368536854,2594490.7497209,-1676.1958875667,2667508.060277,44.285368536854,0,0
-71.678589693916,18.704606169081,39.089798979898,2594490.7497209,-1676.1958875667,2667508.060277,44.289798979898,0,0
-71.678588982915,18.707189151533,39.094229422942,2594490.7497209,-1676.1958875667,2667508.060277,44.294229422942,0,0
-71.678588271914,18.709772133985,39.098659865987,2594490.7497209,-1676.1958875667,2667508.060277,44.298659865987,0,0
-71.678587560914,18.712355116436,39.103090309031,2594490.7497209,-1676.1958875667,2667508.060277,44.303090309031,0,0
-71.678586849913,18.714938098888,39.107520752075,2594490.7497209,-1676.1958875667,2667508.060277,44.307520752075,0,0
-71.678586138912,18.71752108134,39.11195119512,2594490.7497209,-1676.1958875667,2667508.060277,44.31195119512,0,0
-71.678585427911,18.720104063792,39.116381638164,2594490.7497209,-1676.1958875667,2667508.060277,44.316381638164,0,0
-71.678584716911,18.722687046244,39.120812081208,2594490.7497209,-1676.1958875667,2667508.060277,44.320812081208,0,0
-71.67858400591,18.725270028695,39.125242524252,2594490.7497209,-1676.1958875667,2667508.060277,44.325242524252,0,0
-71.678583294909,18.727853011147,39.129672967297,2594490.7497209,-1676.1958875667,2667508.060277,44.329672967297,0,0
-71.678582583908,18.730435993599,39.134103410341,2594490.7497209,-1676.1958875667,2667508.060277,44.334103410341,0,0
-71.678581872908,18.733018976051,39.138533853385,2594490.7497209,-1676.1958875667,2667508.060277,44.338533853385,0,0
-71.678581161907,18.735601958503,39.14296429643,2594490.7497209,-1676.1958875667,2667508.060277,44.34296429643,0,0
-71.678580450906,18.738184940954,39.147394739474,2594490.7497209,-1676.1958875667,2667508.060277,44.347394739474,0,0
-71.678579739905,18.740767923406,39.151825182518,2594490.7497209,-1676.1958875667,2667508.060277,44.351825182518,0,0
-71.678579028904,18.743350905858,39.156255625563,2594490.7497209,-1676.1958875667,2667508.060277,44.356255625563,0,0
-71.678578317904,18.74593388831,39.160686068607,2594490.7497209,-1676.1958875667,2667508.060277,44.360686068607,0,0
-71.678577606903,18.748516870762,39.165116511651,2594490.7497209,-1676.1958875667,2667508.060277,44.365116511651,0,0
-71.678576895902,18.751099853213,39.169546954695,2594490.7497209,-1676.1958875667,2667508.060277,44.369546954695,0,0
-71.678576184901,18.753682835665,39.17397739774,2594490.7497209,-1676.1958875667,2667508.060277,44.37397739774,0,0
-71.678575473901,18.756265818117,39.178407840784,2594490.7497209,-1676.1958875667,2667508.060277,44.378407840784,0,0
-71.6785747629,18.758848800569,39.182838283828,2594490.7497209,-1676.1958875667,2667508.060277,44.382838283828,0,0
-71.678574051899,18.761431783021,39.187268726873,2594490.7497209,-1676.1958875667,2667508.060277,44.387268726873,0,0
-71.678573340898,18.764014765472,39.191699169917,2594490.7497209,-1676.1958875667,2667508.060277,44.391699169917,0,0
-71.678572629898,18.766597747924,39.196129612961,2594490.7497209,-1676.1958875667,2667508.060277,44.396129612961,0,0
-71.678571918897,18.769180730376,39.200560056006,2594490.7497209,-1676.1958875667,2667508.060277,44.400560056006,0,0
-71.678571207896,18.771763712828,39.20499049905,2594490.7497209,-1676.1958875667,2667508.060277,44.40499049905,0,0
-71.678570496895,18.77434669528,39.209420942094,2594490.7497209,-1676.1958875667,2667508.060277,44.409420942094,0,0
-71.678569785895,18.776929677731,39.213851385139,2594490.7497209,-1676.1958875667,2667508.060277,44.413851385139,0,0
-71.678569074894,18.779512660183,39.218281828183,2594490.7497209,-1676.1958875667,2667508.060277,44.418281828183,0,0
-71.678568363893,18.782095642635,39.222712271227,2594490.7497209,-1676.1958875667,2667508.060277,44.422712271227,0,0
-71.678567652892,18.784678625087,39.227142714271,2594490.7497209,-1676.1958875667,2667508.060277,44.427142714271,0,0
-71.678566941891,18.787261607539,39.231573157316,2594490.7497209,-1676.1958875667,2667508.060277,44.431573157316,0,0
-71.678566230891,18.78984458999,39.23600360036,2594490.7497209,-1676.1958875667,2667508.060277,44.43600360036,0,0
-71.67856551989,18.792427572442,39.240434043404,2594490.7497209,-1676.1958875667,2667508.060277,44.440434043404,0,0
-71.678564808889,18.795010554894,39.244864486449,2594490.7497209,-1676.1958875667,2667508.060277,44.444864486449,0,0
-71.678564097888,18.797593537346,39.249294929493,2594490.7497209,-1676.1958875667,2667508.060277,44.449294929493,0,0
-71.678563386888,18.800176519797,39.253725372537,2594490.7497209,-1676.1958875667,2667508.060277,44.453725372537,0,0
-71.678562675887,18.802759502249,39.258155815582,2594490.7497209,-1676.1958875667,2667508.060277,44.458155815582,0,0
-71.678561964886,18.805342484701,39.262586258626,2594490.7497209,-1676.1958875667,2667508.060277,44.462586258626,0,0
-71.678561253885,18.807925467153,39.26701670167,2594490.7497209,-1676.1958875667,2667508.060277,44.46701670167,0,0
-71.678560542885,18.810508449605,39.271447144714,2594490.7497209,-1676.1958875667,2667508.060277,44.471447144714,0,0
-71.678559831884,18.813091432056,39.275877587759,2594490.7497209,-1676.1958875667,2667508.060277,44.475877587759,0,0
-71.678559120883,18.815674414508,39.280308030803,2594490.7497209,-1676.1958875667,2667508.060277,44.480308030803,0,0
-71.678558409882,18.81825739696,39.284738473847,2594490.7497209,-1676.1958875667,2667508.060277,44.484738473847,0,0
-71.678557698881,18.820840379412,39.289168916892,2594490.7497209,-1676.1958875667,2667508.060277,44.489168916892,0,0
-71.678556987881,18.823423361864,39.293599359936,2594490.7497209,-1676.1958875667,2667508.060277,44.493599359936,0,0
-71.67855627688,18.826006344315,39.29802980298,2594490.7497209,-1676.1958875667,2667508.060277,44.49802980298,0,0
-71.678555565879,18.828589326767,39.302460246025,2594490.7497209,-1676.1958875667,2667508.060277,44.502460246025,0,0
-71.678554854878,18.831172309219,39.306890689069,2594490.7497209,-1676.1958875667,2667508.060277,44.506890689069,0,0
-71.678554143878,18.833755291671,39.311321132113,2594490.7497209,-1676.1958875667,2667508.060277,44.511321132113,0,0
-71.678553432877,18.836338274123,39.315751575158,2594490.7497209,-1676.1958875667,2667508.060277,44.515751575158,0,0
-71.678552721876,18.838921256574,39.320182018202,2594490.7497209,-1676.1958875667,2667508.060277,44.520182018202,0,0
-71.678552010875,18.841504239026,39.324612461246,2594490.7497209,-1676.1958875667,2667508.060277,44.524612461246,0,0
-71.678551299875,18.844087221478,39.32904290429,2594490.7497209,-1676.1958875667,2667508.060277,44.52904290429,0,0
-71.678550588919,18.846670203928,39.333473347335,2594248.8301175,1574.1388708152,2667690.6617198,44.533473347335,0,0
-71.678549877971,18.849253186379,39.337903790379,2594248.8301175,1574.1388708152,2667690.6617198,44.537903790379,0,0
-71.678549167022,18.851836168829,39.342334233423,2594248.8301175,1574.1388708152,2667690.6617198,44.542334233423,0,0
-71.678548456074,18.854419151279,39.346764676468,2594248.8301175,1574.1388708152,2667690.6617198,44.546764676468,0,0
-71.678547745126,18.857002133729,39.351195119512,2594248.8301175,1574.1388708152,2667690.6617198,44.551195119512,0,0
-71.678547034177,18.85958511618,39.355625562556,2594248.8301175,1574.1388708152,2667690.6617198,44.555625562556,0,0
-71.678546323229,18.86216809863,39.360056005601,2594248.8301175,1574.1388708152,2667690.6617198,44.560056005601,0,0
-71.678545612281,18.86475108108,39.364486448645,2594248.8301175,1574.1388708152,2667690.6617198,44.564486448645,0,0
-71.678544901332,18.86733406353,39.368916891689,2594248.8301175,1574.1388708152,2667690.6617198,44.568916891689,0,0
-71.678544190384,18.869917045981,39.373347334733,2594248.8301175,1574.1388708152,2667690.6617198,44.573347334733,0,0
-71.678543479436,18.872500028431,39.377777777778,2594248.8301175,1574.1388708152,2667690.6617198,44.577777777778,0,0
-71.678542768487,18.875083010881,39.382208220822,2594248.8301175,1574.1388708152,2667690.6617198,44.582208220822,0,0
-71.678542057539,18.877665993331,39.386638663866,2594248.8301175,1574.1388708152,2667690.6617198,44.586638663866,0,0
-71.678541346591,18.880248975781,39.391069106911,2594248.8301175,1574.1388708152,2667690.6617198,44.591069106911,0,0
-71.678540635642,18.882831958232,39.395499549955,2594248.8301175,1574.1388708152,2667690.6617198,44.595499549955,0,0
-71.678539924694,18.885414940682,39.399929992999,2594248.8301175,1574.1388708152,2667690.6617198,44.599929992999,0,0
-71.678539213746,18.887997923132,39.404360436044,2594248.8301175,1574.1388708152,2667690.6617198,44.604360436044,0,0
-71.678538502797,18.890580905582,39.408790879088,2594248.8301175,1574.1388708152,2667690.6617198,44.608790879088,0,0
-71.678537791849,18.893163888033,39.413221322132,2594248.8301175,1574.1388708152,2667690.6617198,44.613221322132,0,0
-71.678537080901,18.895746870483,39.417651765177,2594248.8301175,1574.1388708152,2667690.6617198,44.617651765177,0,0
-71.678536369952,18.898329852933,39.422082208221,2594248.8301175,1574.1388708152,2667690.6617198,44.622082208221,0,0
-71.678535659004,18.900912835383,39.426512651265,2594248.8301175,1574.1388708152,2667690.6617198,44.626512651265,0,0
-71.678534948056,18.903495817834,39.430943094309,2594248.8301175,1574.1388708152,2667690.6617198,44.630943094309,0,0
-71.678534237107,18.906078800284,39.435373537354,2594248.8301175,1574.1388708152,2667690.6617198,44.635373537354,0,0
-71.678533526159,18.908661782734,39.439803980398,2594248.8301175,1574.1388708152,2667690.6617198,44.639803980398,0,0
-71.678532815211,18.911244765184,39.444234423442,2594248.8301175,1574.1388708152,2667690.6617198,44.644234423442,0,0
-71.678532104262,18.913827747634,39.448664866487,2594248.8301175,1574.1388708152,2667690.6617198,44.648664866487,0,0
-71.678531393314,18.916410730085,39.453095309531,2594248.8301175,1574.1388708152,2667690.6617198,44.653095309531,0,0
-71.678530682366,18.918993712535,39.457525752575,2594248.8301175,1574.1388708152,2667690.6617198,44.657525752575,0,0
-71.678529971417,18.921576694985,39.46195619562,2594248.8301175,1574.1388708152,2667690.6617198,44.66195619562,0,0
-71.678529260469,18.924159677435,39.466386638664,2594248.8301175,1574.1388708152,2667690.6617198,44.666386638664,0,0
-71.678528549521,18.926742659886,39.470817081708,2594248.8301175,1574.1388708152,2667690.6617198,44.670817081708,0,0
-71.678527838572,18.929325642336,39.475247524752,2594248.8301175,1574.1388708152,2667690.6617198,44.675247524752,0,0
-71.678527127624,18.931908624786,39.479677967797,2594248.8301175,1574.1388708152,2667690.6617198,44.679677967797,0,0
-71.678526416676,18.934491607236,39.484108410841,2594248.8301175,1574.1388708152,2667690.6617198,44.684108410841,0,0
-71.678525705727,18.937074589687,39.488538853885,2594248.8301175,1574.1388708152,2667690.6617198,44.688538853885,0,0
-71.678524994779,18.939657572137,39.49296929693,2594248.8301175,1574.1388708152,2667690.6617198,44.69296929693,0,0
-71.678524283831,18.942240554587,39.497399739974,2594248.8301175,1574.1388708152,2667690.6617198,44.697399739974,0,0
-71.678523572882,18.944823537037,39.501830183018,2594248.8301175,1574.1388708152,2667690.6617198,44.701830183018,0,0
-71.678522861934,18.947406519488,39.506260626063,2594248.8301175,1574.1388708152,2667690.6617198,44.706260626063,0,0
-71.678522150986,18.949989501938,39.510691069107,2594248.8301175,1574.1388708152,2667690.6617198,44.710691069107,0,0
-71.678521440037,18.952572484388,39.515121512151,2594248.8301175,1574.1388708152,2667690.6617198,44.715121512151,0,0
-71.678520729089,18.955155466838,39.519551955196,2594248.8301175,1574.1388708152,2667690.6617198,44.719551955196,0,0
-71.678520018141,18.957738449288,39.52398239824,2594248.8301175,1574.1388708152,2667690.6617198,44.72398239824,0,0
-71.678519307192,18.960321431739,39.528412841284,2594248.8301175,1574.1388708152,2667690.6617198,44.728412841284,0,0
-71.678518596244,18.962904414189,39.532843284328,2594248.8301175,1574.1388708152,2667690.6617198,44.732843284328,0,0
-71.678517885296,18.965487396639,39.537273727373,2594248.8301175,1574.1388708152,2667690.6617198,44.737273727373,0,0
-71.678517174347,18.968070379089,39.541704170417,2594248.8301175,1574.1388708152,2667690.6617198,44.741704170417,0,0
-71.678516463399,18.97065336154,39.546134613461,2594248.8301175,1574.1388708152,2667690.6617198,44.746134613461,0,0
-71.678515752451,18.97323634399,39.550565056506,2594248.8301175,1574.1388708152,2667690.6617198,44.750565056506,0,0
-71.678515041502,18.97581932644,39.55499549955,2594248.8301175,1574.1388708152,2667690.6617198,44.75499549955,0,0
-71.678514330554,18.97840230889,39.559425942594,2594248.8301175,1574.1388708152,2667690.6617198,44.759425942594,0,0
-71.678513619606,18.980985291341,39.563856385639,2594248.8301175,1574.1388708152,2667690.6617198,44.763856385639,0,0
-71.678512908657,18.983568273791,39.568286828683,2594248.8301175,1574.1388708152,2667690.6617198,44.768286828683,0,0
-71.678512197709,18.986151256241,39.572717271727,2594248.8301175,1574.1388708152,2667690.6617198,44.772717271727,0,0
-71.678511486761,18.988734238691,39.577147714771,2594248.8301175,1574.1388708152,2667690.6617198,44.777147714771,0,0
-71.678510775812,18.991317221141,39.581578157816,2594248.8301175,1574.1388708152,2667690.6617198,44.781578157816,0,0
-71.678510064864,18.993900203592,39.58600860086,2594248.8301175,1574.1388708152,2667690.6617198,44.78600860086,0,0
-71.678509353916,18.996483186042,39.590439043904,2594248.8301175,1574.1388708152,2667690.6617198,44.790439043904,0,0
-71.678508642967,18.999066168492,39.594869486949,2594248.8301175,1574.1388708152,2667690.6617198,44.794869486949,0,0
-71.678507932019,19.001649150942,39.599299929993,2594248.8301175,1574.1388708152,2667690.6617198,44.799299929993,0,0
-71.678507221071,19.004232133393,39.603730373037,2594248.8301175,1574.1388708152,2667690.6617198,44.803730373037,0,0
-71.678506510122,19.006815115843,39.608160816082,2594248.8301175,1574.1388708152,2667690.6617198,44.808160816082,0,0
-71.678505799174,19.009398098293,39.612591259126,2594248.8301175,1574.1388708152,2667690.6617198,44.812591259126,0,0
-71.678505088226,19.011981080743,39.61702170217,2594248.8301175,1574.1388708152,2667690.6617198,44.81702170217,0,0
-71.678504377277,19.014564063194,39.621452145215,2594248.8301175,1574.1388708152,2667690.6617198,44.821452145215,0,0
-71.678503666329,19.017147045644,39.625882588259,2594248.8301175,1574.1388708152,2667690.6617198,44.825882588259,0,0
-71.678502955381,19.019730028094,39.630313031303,2594248.8301175,1574.1388708152,2667690.6617198,44.830313031303,0,0
-71.678502244432,19.022313010544,39.634743474347,2594248.8301175,1574.1388708152,2667690.6617198,44.834743474347,0,0
-71.678501533484,19.024895992994,39.639173917392,2594248.8301175,1574.1388708152,2667690.6617198,44.839173917392,0,0
-71.678500822536,19.027478975445,39.643604360436,2594248.8301175,1574.1388708152,2667690.6617198,44.843604360436,0,0
-71.678500111587,19.030061957895,39.64803480348,2594248.8301175,1574.1388708152,2667690.6617198,44.84803480348,0,0
-71.678499400639,19.032644940345,39.652465246525,2594248.8301175,1574.1388708152,2667690.6617198,44.852465246525,0,0
-71.678498689691,19.035227922795,39.656895689569,2594248.8301175,1574.1388708152,2667690.6617198,44.856895689569,0,0
-71.678497978742,19.037810905246,39.661326132613,2594248.8301175,1574.1388708152,2667690.6617198,44.861326132613,0,0
-71.678497267794,19.040393887696,39.665756575658,2594248.8301175,1574.1388708152,2667690.6617198,44.865756575658,0,0
-71.678496556846,19.042976870146,39.670187018702,2594248.8301175,1574.1388708152,2667690.6617198,44.870187018702,0,0
-71.678495845897,19.045559852596,39.674617461746,2594248.8301175,1574.1388708152,2667690.6617198,44.874617461746,0,0
-71.678495134949,19.048142835047,39.67904790479,2594248.8301175,1574.1388708152,2667690.6617198,44.87904790479,0,0
-71.678494424001,19.050725817497,39.683478347835,2594248.8301175,1574.1388708152,2667690.6617198,44.883478347835,0,0
-71.678493713052,19.053308799947,39.687908790879,2594248.8301175,1574.1388708152,2667690.6617198,44.887908790879,0,0
-71.678493002104,19.055891782397,39.692339233923,2594248.8301175,1574.1388708152,2667690.6617198,44.892339233923,0,0
-71.678492291156,19.058474764847,39.696769676968,2594248.8301175,1574.1388708152,2667690.6617198,44.896769676968,0,0
-71.678491580207,19.061057747298,39.701200120012,2594248.8301175,1574.1388708152,2667690.6617198,44.901200120012,0,0
-71.678490869259,19.063640729748,39.705630563056,2594248.8301175,1574.1388708152,2667690.6617198,44.905630563056,0,0
-71.678490158311,19.066223712198,39.710061006101,2594248.8301175,1574.1388708152,2667690.6617198,44.910061006101,0,0
-71.678489447362,19.068806694648,39.714491449145,2594248.8301175,1574.1388708152,2667690.6617198,44.914491449145,0,0
-71.678488736414,19.071389677099,39.718921892189,2594248.8301175,1574.1388708152,2667690.6617198,44.918921892189,0,0
-71.678488025466,19.073972659549,39.723352335234,2594248.8301175,1574.1388708152,2667690.6617198,44.923352335234,0,0
-71.678487314517,19.076555641999,39.727782778278,2594248.8301175,1574.1388708152,2667690.6617198,44.927782778278,0,0
-71.678486603569,19.079138624449,39.732213221322,2594248.8301175,1574.1388708152,2667690.6617198,44.932213221322,0,0
-71.678485892621,19.0817216069,39.736643664366,2594248.8301175,1574.1388708152,2667690.6617198,44.936643664366,0,0
-71.678485181672,19.08430458935,39.741074107411,2594248.8301175,1574.1388708152,2667690.6617198,44.941074107411,0,0
-71.678484470724,19.0868875718,39.745504550455,2594248.8301175,1574.1388708152,2667690.6617198,44.945504550455,0,0
-71.678483759776,19.08947055425,39.749934993499,2594248.8301175,1574.1388708152,2667690.6617198,44.949934993499,0,0
-71.678483048827,19.0920535367,39.754365436544,2594248.8301175,1574.1388708152,2667690.6617198,44.954365436544,0,0
-71.678482337879,19.094636519151,39.758795879588,2594248.8301175,1574.1388708152,2667690.6617198,44.958795879588,0,0
-71.678481626931,19.097219501601,39.763226322632,2594248.8301175,1574.1388708152,2667690.6617198,44.963226322632,0,0
-71.678480915982,19.099802484051,39.767656765677,2594248.8301175,1574.1388708152,2667690.6617198,44.967656765677,0,0
-71.678480205034,19.102385466501,39.772087208721,2594248.8301175,1574.1388708152,2667690.6617198,44.972087208721,0,0
-71.678479494086,19.104968448952,39.776517651765,2594248.8301175,1574.1388708152,2667690.6617198,44.976517651765,0,0
-71.678478783137,19.107551431402,39.780948094809,2594248.8301175,1574.1388708152,2667690.6617198,44.980948094809,0,0
-71.678478072189,19.110134413852,39.785378537854,2594248.8301175,1574.1388708152,2667690.6617198,44.985378537854,0,0
-71.678477361241,19.112717396302,39.789808980898,2594248.8301175,1574.1388708152,2667690.6617198,44.989808980898,0,0
-71.678476650292,19.115300378753,39.794239423942,2594248.8301175,1574.1388708152,2667690.6617198,44.994239423942,0,0
-71.678475939344,19.117883361203,39.798669866987,2594248.8301175,1574.1388708152,2667690.6617198,44.998669866987,0,0
-71.678475228396,19.120466343653,39.803100310031,2594248.8301175,1574.1388708152,2667690.6617198,45.003100310031,0,0
-71.678474517447,19.123049326103,39.807530753075,2594248.8301175,1574.1388708152,2667690.6617198,45.007530753075,0,0
-71.678473806499,19.125632308553,39.81196119612,2594248.8301175,1574.1388708152,2667690.6617198,45.01196119612,0,0
-71.678473095551,19.128215291004,39.816391639164,2594248.8301175,1574.1388708152,2667690.6617198,45.016391639164,0,0
-71.678472384602,19.130798273454,39.820822082208,2594248.8301175,1574.1388708152,2667690.6617198,45.020822082208,0,0
-71.678471673654,19.133381255904,39.825252525253,2594248.8301175,1574.1388708152,2667690.6617198,45.025252525253,0,0
-71.678470962706,19.135964238354,39.829682968297,2594248.8301175,1574.1388708152,2667690.6617198,45.029682968297,0,0
-71.678470251757,19.138547220805,39.834113411341,2594248.8301175,1574.1388708152,2667690.6617198,45.034113411341,0,0
-71.678469540809,19.141130203255,39.838543854385,2594248.8301175,1574.1388708152,2667690.6617198,45.038543854385,0,0
-71.678468829861,19.143713185705,39.84297429743,2594248.8301175,1574.1388708152,2667690.6617198,45.04297429743,0,0
-71.678468118912,19.146296168155,39.847404740474,2594248.8301175,1574.1388708152,2667690.6617198,45.047404740474,0,0
-71.678467407964,19.148879150606,39.851835183518,2594248.8301175,1574.1388708152,2667690.6617198,45.051835183518,0,0
-71.678466697016,19.151462133056,39.856265626563,2594248.8301175,1574.1388708152,2667690.6617198,45.056265626563,0,0
-71.678465986067,19.154045115506,39.860696069607,2594248.8301175,1574.1388708152,2667690.6617198,45.060696069607,0,0
-71.678465275119,19.156628097956,39.865126512651,2594248.8301175,1574.1388708152,2667690.6617198,45.065126512651,0,0
-71.678464564171,19.159211080406,39.869556955696,2594248.8301175,1574.1388708152,2667690.6617198,45.069556955696,0,0
-71.678463853222,19.161794062857,39.87398739874,2594248.8301175,1574.1388708152,2667690.6617198,45.07398739874,0,0
-71.678463142274,19.164377045307,39.878417841784,2594248.8301175,1574.1388708152,2667690.6617198,45.078417841784,0,0
-71.678462431326,19.166960027757,39.882848284828,2594248.8301175,1574.1388708152,2667690.6617198,45.082848284828,0,0
-71.678461720377,19.169543010207,39.887278727873,2594248.8301175,1574.1388708152,2667690.6617198,45.087278727873,0,0
-71.678461009429,19.172125992658,39.891709170917,2594248.8301175,1574.1388708152,2667690.6617198,45.091709170917,0,0
-71.678460298481,19.174708975108,39.896139613961,2594248.8301175,1574.1388708152,2667690.6617198,45.096139613961,0,0
-71.678459587532,19.177291957558,39.900570057006,2594248.8301175,1574.1388708152,2667690.6617198,45.100570057006,0,0
-71.678458876584,19.179874940008,39.90500050005,2594248.8301175,1574.1388708152,2667690.6617198,45.10500050005,0,0
-71.678458165636,19.182457922459,39.909430943094,2594248.8301175,1574.1388708152,2667690.6617198,45.109430943094,0,0
-71.678457454687,19.185040904909,39.913861386139,2594248.8301175,1574.1388708152,2667690.6617198,45.113861386139,0,0
-71.678456743739,19.187623887359,39.918291829183,2594248.8301175,1574.1388708152,2667690.6617198,45.118291829183,0,0
-71.678456032791,19.190206869809,39.922722272227,2594248.8301175,1574.1388708152,2667690.6617198,45.122722272227,0,0
-71.678455321842,19.192789852259,39.927152715272,2594248.8301175,1574.1388708152,2667690.6617198,45.127152715272,0,0
-71.678454610894,19.19537283471,39.931583158316,2594248.8301175,1574.1388708152,2667690.6617198,45.131583158316,0,0
-71.678453899946,19.19795581716,39.93601360136,2594248.8301175,1574.1388708152,2667690.6617198,45.13601360136,0,0
-71.678453188997,19.20053879961,39.940444044404,2594248.8301175,1574.1388708152,2667690.6617198,45.140444044404,0,0
-71.678452478049,19.20312178206,39.944874487449,2594248.8301175,1574.1388708152,2667690.6617198,45.144874487449,0,0
-71.678451767101,19.205704764511,39.949304930493,2594248.8301175,1574.1388708152,2667690.6617198,45.149304930493,0,0
-71.678451056152,19.208287746961,39.953735373537,2594248.8301175,1574.1388708152,2667690.6617198,45.153735373537,0,0
-71.678450345204,19.210870729411,39.958165816582,2594248.8301175,1574.1388708152,2667690.6617198,45.158165816582,0,0
-71.678449634256,19.213453711861,39.962596259626,2594248.8301175,1574.1388708152,2667690.6617198,45.162596259626,0,0
-71.678448923307,19.216036694312,39.96702670267,2594248.8301175,1574.1388708152,2667690.6617198,45.16702670267,0,0
-71.678448212359,19.218619676762,39.971457145715,2594248.8301175,1574.1388708152,2667690.6617198,45.171457145715,0,0
-71.678447501411,19.221202659212,39.975887588759,2594248.8301175,1574.1388708152,2667690.6617198,45.175887588759,0,0
-71.678446790462,19.223785641662,39.980318031803,2594248.8301175,1574.1388708152,2667690.6617198,45.180318031803,0,0
-71.678446079514,19.226368624112,39.984748474847,2594248.8301175,1574.1388708152,2667690.6617198,45.184748474847,0,0
-71.678445368566,19.228951606563,39.989178917892,2594248.8301175,1574.1388708152,2667690.6617198,45.189178917892,0,0
-71.678444657617,19.231534589013,39.993609360936,2594248.8301175,1574.1388708152,2667690.6617198,45.193609360936,0,0
-71.678443946669,19.234117571463,39.99803980398,2594248.8301175,1574.1388708152,2667690.6617198,45.19803980398,0,0
-71.678443235721,19.236700553913,40.002470247025,2594248.8301175,1574.1388708152,2667690.6617198,45.202470247025,0,0
-71.678442524772,19.239283536364,40.006900690069,2594248.8301175,1574.1388708152,2667690.6617198,45.206900690069,0,0
-71.678441813824,19.241866518814,40.011331133113,2594248.8301175,1574.1388708152,2667690.6617198,45.211331133113,0,0
-71.678441102876,19.244449501264,40.015761576158,2594248.8301175,1574.1388708152,2667690.6617198,45.215761576158,0,0
-71.678440391927,19.247032483714,40.020192019202,2594248.8301175,1574.1388708152,2667690.6617198,45.220192019202,0,0
-71.678439680979,19.249615466165,40.024622462246,2594248.8301175,1574.1388708152,2667690.6617198,45.224622462246,0,0
-71.678438970031,19.252198448615,40.029052905291,2594248.8301175,1574.1388708152,2667690.6617198,45.229052905291,0,0
-71.678438259082,19.254781431065,40.033483348335,2594248.8301175,1574.1388708152,2667690.6617198,45.233483348335,0,0
-71.678437548134,19.257364413515,40.037913791379,2594248.8301175,1574.1388708152,2667690.6617198,45.237913791379,0,0
-71.678436837186,19.259947395965,40.042344234423,2594248.8301175,1574.1388708152,2667690.6617198,45.242344234423,0,0
-71.678436126237,19.262530378416,40.046774677468,2594248.8301175,1574.1388708152,2667690.6617198,45.246774677468,0,0
-71.678435415289,19.265113360866,40.051205120512,2594248.8301175,1574.1388708152,2667690.6617198,45.251205120512,0,0
-71.678434704341,19.267696343316,40.055635563556,2594248.8301175,1574.1388708152,2667690.6617198,45.255635563556,0,0
-71.678433993392,19.270279325766,40.060066006601,2594248.8301175,1574.1388708152,2667690.6617198,45.260066006601,0,0
-71.678433282444,19.272862308217,40.064496449645,2594248.8301175,1574.1388708152,2667690.6617198,45.264496449645,0,0
-71.678432571496,19.275445290667,40.068926892689,2594248.8301175,1574.1388708152,2667690.6617198,45.268926892689,0,0
-71.678431860547,19.278028273117,40.073357335734,2594248.8301175,1574.1388708152,2667690.6617198,45.273357335734,0,0
-71.678431149599,19.280611255567,40.077787778778,2594248.8301175,1574.1388708152,2667690.6617198,45.277787778778,0,0
-71.678430438651,19.283194238018,40.082218221822,2594248.8301175,1574.1388708152,2667690.6617198,45.282218221822,0,0
-71.678429727702,19.285777220468,40.086648664866,2594248.8301175,1574.1388708152,2667690.6617198,45.286648664866,0,0
-71.678429016754,19.288360202918,40.091079107911,2594248.8301175,1574.1388708152,2667690.6617198,45.291079107911,0,0
-71.678428305806,19.290943185368,40.095509550955,2594248.8301175,1574.1388708152,2667690.6617198,45.295509550955,0,0
-71.678427594857,19.293526167818,40.099939993999,2594248.8301175,1574.1388708152,2667690.6617198,45.299939993999,0,0
-71.678426883909,19.296109150269,40.104370437044,2594248.8301175,1574.1388708152,2667690.6617198,45.304370437044,0,0
-71.678426172961,19.298692132719,40.108800880088,2594248.8301175,1574.1388708152,2667690.6617198,45.308800880088,0,0
-71.678425462012,19.301275115169,40.113231323132,2594248.8301175,1574.1388708152,2667690.6617198,45.313231323132,0,0
-71.678424751064,19.303858097619,40.117661766177,2594248.8301175,1574.1388708152,2667690.6617198,45.317661766177,0,0
-71.678424040116,19.30644108007,40.122092209221,2594248.8301175,1574.1388708152,2667690.6617198,45.322092209221,0,0
-71.678423329167,19.30902406252,40.126522652265,2594248.8301175,1574.1388708152,2667690.6617198,45.326522652265,0,0
-71.678422618219,19.31160704497,40.13095309531,2594248.8301175,1574.1388708152,2667690.6617198,45.33095309531,0,0
-71.678421907271,19.31419002742,40.135383538354,2594248.8301175,1574.1388708152,2667690.6617198,45.335383538354,0,0
-71.678421196322,19.316773009871,40.139813981398,2594248.8301175,1574.1388708152,2667690.6617198,45.339813981398,0,0
-71.678420485374,19.319355992321,40.144244424442,2594248.8301175,1574.1388708152,2667690.6617198,45.344244424442,0,0
-71.678419774426,19.321938974771,40.148674867487,2594248.8301175,1574.1388708152,2667690.6617198,45.348674867487,0,0
-71.678419063477,19.324521957221,40.153105310531,2594248.8301175,1574.1388708152,2667690.6617198,45.353105310531,0,0
-71.678418352529,19.327104939672,40.157535753575,2594248.8301175,1574.1388708152,2667690.6617198,45.357535753575,0,0
-71.678417641581,19.329687922122,40.16196619662,2594248.8301175,1574.1388708152,2667690.6617198,45.36196619662,0,0
-71.678416930632,19.332270904572,40.166396639664,2594248.8301175,1574.1388708152,2667690.6617198,45.366396639664,0,0
-71.678416219684,19.334853887022,40.170827082708,2594248.8301175,1574.1388708152,2667690.6617198,45.370827082708,0,0
-71.678415508736,19.337436869472,40.175257525753,2594248.8301175,1574.1388708152,2667690.6617198,45.375257525753,0,0
-71.678414797787,19.340019851923,40.179687968797,2594248.8301175,1574.1388708152,2667690.6617198,45.379687968797,0,0
-71.678414086839,19.342602834373,40.184118411841,2594248.8301175,1574.1388708152,2667690.6617198,45.384118411841,0,0
-71.678413375891,19.345185816823,40.188548854885,2594248.8301175,1574.1388708152,2667690.6617198,45.388548854885,0,0
-71.678412664942,19.347768799273,40.19297929793,2594248.8301175,1574.1388708152,2667690.6617198,45.39297929793,0,0
-71.678411953994,19.350351781724,40.197409740974,2594248.8301175,1574.1388708152,2667690.6617198,45.397409740974,0,0
-71.678411243046,19.352934764174,40.201840184018,2594248.8301175,1574.1388708152,2667690.6617198,45.401840184018,0,0
-71.678410532097,19.355517746624,40.206270627063,2594248.8301175,1574.1388708152,2667690.6617198,45.406270627063,0,0
-71.678409821149,19.358100729074,40.210701070107,2594248.8301175,1574.1388708152,2667690.6617198,45.410701070107,0,0
-71.678409110201,19.360683711525,40.215131513151,2594248.8301175,1574.1388708152,2667690.6617198,45.415131513151,0,0
-71.678408399252,19.363266693975,40.219561956196,2594248.8301175,1574.1388708152,2667690.6617198,45.419561956196,0,0
-71.678407688304,19.365849676425,40.22399239924,2594248.8301175,1574.1388708152,2667690.6617198,45.42399239924,0,0
-71.678406977356,19.368432658875,40.228422842284,2594248.8301175,1574.1388708152,2667690.6617198,45.428422842284,0,0
-71.678406266407,19.371015641325,40.232853285329,2594248.8301175,1574.1388708152,2667690.6617198,45.432853285329,0,0
-71.678405555459,19.373598623776,40.237283728373,2594248.8301175,1574.1388708152,2667690.6617198,45.437283728373,0,0
-71.678404844511,19.376181606226,40.241714171417,2594248.8301175,1574.1388708152,2667690.6617198,45.441714171417,0,0
-71.678404133562,19.378764588676,40.246144614461,2594248.8301175,1574.1388708152,2667690.6617198,45.446144614461,0,0
-71.678403422614,19.381347571126,40.250575057506,2594248.8301175,1574.1388708152,2667690.6617198,45.450575057506,0,0
-71.678402711666,19.383930553577,40.25500550055,2594248.8301175,1574.1388708152,2667690.6617198,45.45500550055,0,0
-71.678402000717,19.386513536027,40.259435943594,2594248.8301175,1574.1388708152,2667690.6617198,45.459435943594,0,0
-71.678401289769,19.389096518477,40.263866386639,2594248.8301175,1574.1388708152,2667690.6617198,45.463866386639,0,0
-71.678400578821,19.391679500927,40.268296829683,2594248.8301175,1574.1388708152,2667690.6617198,45.468296829683,0,0
-71.678399867872,19.394262483378,40.272727272727,2594248.8301175,1574.1388708152,2667690.6617198,45.472727272727,0,0
-71.678399156924,19.396845465828,40.277157715772,2594248.8301175,1574.1388708152,2667690.6617198,45.477157715772,0,0
-71.678398445976,19.399428448278,40.281588158816,2594248.8301175,1574.1388708152,2667690.6617198,45.481588158816,0,0
-71.678397735027,19.402011430728,40.28601860186,2594248.8301175,1574.1388708152,2667690.6617198,45.48601860186,0,0
-71.678397024079,19.404594413178,40.290449044904,2594248.8301175,1574.1388708152,2667690.6617198,45.490449044904,0,0
-71.678396313131,19.407177395629,40.294879487949,2594248.8301175,1574.1388708152,2667690.6617198,45.494879487949,0,0
-71.678395602182,19.409760378079,40.299309930993,2594248.8301175,1574.1388708152,2667690.6617198,45.499309930993,0,0
-71.678394891234,19.412343360529,40.303740374037,2594248.8301175,1574.1388708152,2667690.6617198,45.503740374037,0,0
-71.678394180286,19.414926342979,40.308170817082,2594248.8301175,1574.1388708152,2667690.6617198,45.508170817082,0,0
-71.678393469337,19.41750932543,40.312601260126,2594248.8301175,1574.1388708152,2667690.6617198,45.512601260126,0,0
-71.678392758389,19.42009230788,40.31703170317,2594248.8301175,1574.1388708152,2667690.6617198,45.51703170317,0,0
-71.678392047441,19.42267529033,40.321462146215,2594248.8301175,1574.1388708152,2667690.6617198,45.521462146215,0,0
-71.678391336492,19.42525827278,40.325892589259,2594248.8301175,1574.1388708152,2667690.6617198,45.525892589259,0,0
-71.678390625544,19.427841255231,40.330323032303,2594248.8301175,1574.1388708152,2667690.6617198,45.530323032303,0,0
-71.678389914596,19.430424237681,40.334753475348,2594248.8301175,1574.1388708152,2667690.6617198,45.534753475348,0,0
-71.678389203647,19.433007220131,40.339183918392,2594248.8301175,1574.1388708152,2667690.6617198,45.539183918392,0,0
-71.678388492699,19.435590202581,40.343614361436,2594248.8301175,1574.1388708152,2667690.6617198,45.543614361436,0,0
-71.678387781751,19.438173185031,40.34804480448,2594248.8301175,1574.1388708152,2667690.6617198,45.54804480448,0,0
-71.678387070802,19.440756167482,40.352475247525,2594248.8301175,1574.1388708152,2667690.6617198,45.552475247525,0,0
-71.678386359854,19.443339149932,40.356905690569,2594248.8301175,1574.1388708152,2667690.6617198,45.556905690569,0,0
-71.678385648906,19.445922132382,40.361336133613,2594248.8301175,1574.1388708152,2667690.6617198,45.561336133613,0,0
-71.678384937957,19.448505114832,40.365766576658,2594248.8301175,1574.1388708152,2667690.6617198,45.565766576658,0,0
-71.678384227009,19.451088097283,40.370197019702,2594248.8301175,1574.1388708152,2667690.6617198,45.570197019702,0,0
-71.678383516061,19.453671079733,40.374627462746,2594248.8301175,1574.1388708152,2667690.6617198,45.574627462746,0,0
-71.678382805112,19.456254062183,40.379057905791,2594248.8301175,1574.1388708152,2667690.6617198,45.579057905791,0,0
-71.678382094164,19.458837044633,40.383488348835,2594248.8301175,1574.1388708152,2667690.6617198,45.583488348835,0,0
-71.678381383216,19.461420027084,40.387918791879,2594248.8301175,1574.1388708152,2667690.6617198,45.587918791879,0,0
-71.678380672267,19.464003009534,40.392349234923,2594248.8301175,1574.1388708152,2667690.6617198,45.592349234923,0,0
-71.678379961319,19.466585991984,40.396779677968,2594248.8301175,1574.1388708152,2667690.6617198,45.596779677968,0,0
-71.678379250371,19.469168974434,40.401210121012,2594248.8301175,1574.1388708152,2667690.6617198,45.601210121012,0,0
-71.678378539422,19.471751956884,40.405640564056,2594248.8301175,1574.1388708152,2667690.6617198,45.605640564056,0,0
-71.678377828474,19.474334939335,40.410071007101,2594248.8301175,1574.1388708152,2667690.6617198,45.610071007101,0,0
-71.678377117526,19.476917921785,40.414501450145,2594248.8301175,1574.1388708152,2667690.6617198,45.614501450145,0,0
-71.678376406577,19.479500904235,40.418931893189,2594248.8301175,1574.1388708152,2667690.6617198,45.618931893189,0,0
-71.678375695629,19.482083886685,40.423362336234,2594248.8301175,1574.1388708152,2667690.6617198,45.623362336234,0,0
-71.678374984681,19.484666869136,40.427792779278,2594248.8301175,1574.1388708152,2667690.6617198,45.627792779278,0,0
-71.678374273732,19.487249851586,40.432223222322,2594248.8301175,1574.1388708152,2667690.6617198,45.632223222322,0,0
-71.678373562784,19.489832834036,40.436653665367,2594248.8301175,1574.1388708152,2667690.6617198,45.636653665367,0,0
-71.678372851836,19.492415816486,40.441084108411,2594248.8301175,1574.1388708152,2667690.6617198,45.641084108411,0,0
-71.678372140887,19.494998798937,40.445514551455,2594248.8301175,1574.1388708152,2667690.6617198,45.645514551455,0,0
-71.678371429939,19.497581781387,40.449944994499,2594248.8301175,1574.1388708152,2667690.6617198,45.649944994499,0,0
-71.678370718991,19.500164763837,40.454375437544,2594248.8301175,1574.1388708152,2667690.6617198,45.654375437544,0,0
-71.678370008042,19.502747746287,40.458805880588,2594248.8301175,1574.1388708152,2667690.6617198,45.658805880588,0,0
-71.678369297094,19.505330728737,40.463236323632,2594248.8301175,1574.1388708152,2667690.6617198,45.663236323632,0,0
-71.678368586146,19.507913711188,40.467666766677,2594248.8301175,1574.1388708152,2667690.6617198,45.667666766677,0,0
-71.678367875197,19.510496693638,40.472097209721,2594248.8301175,1574.1388708152,2667690.6617198,45.672097209721,0,0
-71.678367164249,19.513079676088,40.476527652765,2594248.8301175,1574.1388708152,2667690.6617198,45.676527652765,0,0
-71.678366453301,19.515662658538,40.48095809581,2594248.8301175,1574.1388708152,2667690.6617198,45.68095809581,0,0
-71.678365742352,19.518245640989,40.485388538854,2594248.8301175,1574.1388708152,2667690.6617198,45.685388538854,0,0
-71.678365031404,19.520828623439,40.489818981898,2594248.8301175,1574.1388708152,2667690.6617198,45.689818981898,0,0
-71.678364320456,19.523411605889,40.494249424942,2594248.8301175,1574.1388708152,2667690.6617198,45.694249424942,0,0
-71.678363609507,19.525994588339,40.498679867987,2594248.8301175,1574.1388708152,2667690.6617198,45.698679867987,0,0
-71.678362898559,19.52857757079,40.503110311031,2594248.8301175,1574.1388708152,2667690.6617198,45.703110311031,0,0
-71.678362187611,19.53116055324,40.507540754075,2594248.8301175,1574.1388708152,2667690.6617198,45.707540754075,0,0
-71.678361476662,19.53374353569,40.51197119712,2594248.8301175,1574.1388708152,2667690.6617198,45.71197119712,0,0
-71.678360765714,19.53632651814,40.516401640164,2594248.8301175,1574.1388708152,2667690.6617198,45.716401640164,0,0
-71.678360054766,19.53890950059,40.520832083208,2594248.8301175,1574.1388708152,2667690.6617198,45.720832083208,0,0
-71.678359343817,19.541492483041,40.525262526253,2594248.8301175,1574.1388708152,2667690.6617198,45.725262526253,0,0
-71.678358632869,19.544075465491,40.529692969297,2594248.8301175,1574.1388708152,2667690.6617198,45.729692969297,0,0
-71.678357921921,19.546658447941,40.534123412341,2594248.8301175,1574.1388708152,2667690.6617198,45.734123412341,0,0
-71.678357210972,19.549241430391,40.538553855386,2594248.8301175,1574.1388708152,2667690.6617198,45.738553855386,0,0
-71.678356500024,19.551824412842,40.54298429843,2594248.8301175,1574.1388708152,2667690.6617198,45.74298429843,0,0
-71.678355789076,19.554407395292,40.547414741474,2594248.8301175,1574.1388708152,2667690.6617198,45.747414741474,0,0
-71.678355078127,19.556990377742,40.551845184518,2594248.8301175,1574.1388708152,2667690.6617198,45.751845184518,0,0
-71.678354367179,19.559573360192,40.556275627563,2594248.8301175,1574.1388708152,2667690.6617198,45.756275627563,0,0
-71.678353656231,19.562156342643,40.560706070607,2594248.8301175,1574.1388708152,2667690.6617198,45.760706070607,0,0
-71.678352945282,19.564739325093,40.565136513651,2594248.8301175,1574.1388708152,2667690.6617198,45.765136513651,0,0
-71.678352234334,19.567322307543,40.569566956696,2594248.8301175,1574.1388708152,2667690.6617198,45.769566956696,0,0
-71.678351523386,19.569905289993,40.57399739974,2594248.8301175,1574.1388708152,2667690.6617198,45.77399739974,0,0
-71.678350812437,19.572488272443,40.578427842784,2594248.8301175,1574.1388708152,2667690.6617198,45.778427842784,0,0
-71.678350101489,19.575071254894,40.582858285829,2594248.8301175,1574.1388708152,2667690.6617198,45.782858285829,0,0
-71.678349390541,19.577654237344,40.587288728873,2594248.8301175,1574.1388708152,2667690.6617198,45.787288728873,0,0
-71.678348679592,19.580237219794,40.591719171917,2594248.8301175,1574.1388708152,2667690.6617198,45.791719171917,0,0
-71.678347968644,19.582820202244,40.596149614961,2594248.8301175,1574.1388708152,2667690.6617198,45.796149614961,0,0
-71.678347257696,19.585403184695,40.600580058006,2594248.8301175,1574.1388708152,2667690.6617198,45.800580058006,0,0
-71.678346546747,19.587986167145,40.60501050105,2594248.8301175,1574.1388708152,2667690.6617198,45.80501050105,0,0
-71.678345835799,19.590569149595,40.609440944094,2594248.8301175,1574.1388708152,2667690.6617198,45.809440944094,0,0
-71.678345124851,19.593152132045,40.613871387139,2594248.8301175,1574.1388708152,2667690.6617198,45.813871387139,0,0
-71.678344413902,19.595735114496,40.618301830183,2594248.8301175,1574.1388708152,2667690.6617198,45.818301830183,0,0
-71.678343702954,19.598318096946,40.622732273227,2594248.8301175,1574.1388708152,2667690.6617198,45.822732273227,0,0
-71.678342992006,19.600901079396,40.627162716272,2594248.8301175,1574.1388708152,2667690.6617198,45.827162716272,0,0
-71.678342281057,19.603484061846,40.631593159316,2594248.8301175,1574.1388708152,2667690.6617198,45.831593159316,0,0
-71.678341570109,19.606067044296,40.63602360236,2594248.8301175,1574.1388708152,2667690.6617198,45.83602360236,0,0
-71.678340859161,19.608650026747,40.640454045405,2594248.8301175,1574.1388708152,2667690.6617198,45.840454045405,0,0
-71.678340148212,19.611233009197,40.644884488449,2594248.8301175,1574.1388708152,2667690.6617198,45.844884488449,0,0
-71.678339437264,19.613815991647,40.649314931493,2594248.8301175,1574.1388708152,2667690.6617198,45.849314931493,0,0
-71.678338726316,19.616398974097,40.653745374537,2594248.8301175,1574.1388708152,2667690.6617198,45.853745374537,0,0
-71.678338015367,19.618981956548,40.658175817582,2594248.8301175,1574.1388708152,2667690.6617198,45.858175817582,0,0
-71.678337304419,19.621564938998,40.662606260626,2594248.8301175,1574.1388708152,2667690.6617198,45.862606260626,0,0
-71.678336593471,19.624147921448,40.66703670367,2594248.8301175,1574.1388708152,2667690.6617198,45.86703670367,0,0
-71.678335882522,19.626730903898,40.671467146715,2594248.8301175,1574.1388708152,2667690.6617198,45.871467146715,0,0
-71.678335171574,19.629313886349,40.675897589759,2594248.8301175,1574.1388708152,2667690.6617198,45.875897589759,0,0
-71.678334460626,19.631896868799,40.680328032803,2594248.8301175,1574.1388708152,2667690.6617198,45.880328032803,0,0
-71.678333749677,19.634479851249,40.684758475848,2594248.8301175,1574.1388708152,2667690.6617198,45.884758475848,0,0
-71.678333038729,19.637062833699,40.689188918892,2594248.8301175,1574.1388708152,2667690.6617198,45.889188918892,0,0
-71.678332327781,19.639645816149,40.693619361936,2594248.8301175,1574.1388708152,2667690.6617198,45.893619361936,0,0
-71.678331616832,19.6422287986,40.69804980498,2594248.8301175,1574.1388708152,2667690.6617198,45.89804980498,0,0
-71.678330905884,19.64481178105,40.702480248025,2594248.8301175,1574.1388708152,2667690.6617198,45.902480248025,0,0
-71.678330194936,19.6473947635,40.706910691069,2594248.8301175,1574.1388708152,2667690.6617198,45.906910691069,0,0
-71.678329483987,19.64997774595,40.711341134113,2594248.8301175,1574.1388708152,2667690.6617198,45.911341134113,0,0
-71.678328773039,19.652560728401,40.715771577158,2594248.8301175,1574.1388708152,2667690.6617198,45.915771577158,0,0
-71.678328062091,19.655143710851,40.720202020202,2594248.8301175,1574.1388708152,2667690.6617198,45.920202020202,0,0
-71.678327351142,19.657726693301,40.724632463246,2594248.8301175,1574.1388708152,2667690.6617198,45.924632463246,0,0
-71.678326640194,19.660309675751,40.729062906291,2594248.8301175,1574.1388708152,2667690.6617198,45.929062906291,0,0
-71.678325929246,19.662892658202,40.733493349335,2594248.8301175,1574.1388708152,2667690.6617198,45.933493349335,0,0
-71.678325218297,19.665475640652,40.737923792379,2594248.8301175,1574.1388708152,2667690.6617198,45.937923792379,0,0
-71.678324507349,19.668058623102,40.742354235424,2594248.8301175,1574.1388708152,2667690.6617198,45.942354235424,0,0
-71.678323796401,19.670641605552,40.746784678468,2594248.8301175,1574.1388708152,2667690.6617198,45.946784678468,0,0
-71.678323085452,19.673224588002,40.751215121512,2594248.8301175,1574.1388708152,2667690.6617198,45.951215121512,0,0
-71.678322374504,19.675807570453,40.755645564556,2594248.8301175,1574.1388708152,2667690.6617198,45.955645564556,0,0
-71.678321663556,19.678390552903,40.760076007601,2594248.8301175,1574.1388708152,2667690.6617198,45.960076007601,0,0
-71.678320952607,19.680973535353,40.764506450645,2594248.8301175,1574.1388708152,2667690.6617198,45.964506450645,0,0
-71.678320241659,19.683556517803,40.768936893689,2594248.8301175,1574.1388708152,2667690.6617198,45.968936893689,0,0
-71.678319530711,19.686139500254,40.773367336734,2594248.8301175,1574.1388708152,2667690.6617198,45.973367336734,0,0
-71.678318819762,19.688722482704,40.777797779778,2594248.8301175,1574.1388708152,2667690.6617198,45.977797779778,0,0
-71.678318108814,19.691305465154,40.782228222822,2594248.8301175,1574.1388708152,2667690.6617198,45.982228222822,0,0
-71.678317397866,19.693888447604,40.786658665867,2594248.8301175,1574.1388708152,2667690.6617198,45.986658665867,0,0
-71.678316686917,19.696471430055,40.791089108911,2594248.8301175,1574.1388708152,2667690.6617198,45.991089108911,0,0
-71.678315975969,19.699054412505,40.795519551955,2594248.8301175,1574.1388708152,2667690.6617198,45.995519551955,0,0
-71.678315265021,19.701637394955,40.799949994999,2594248.8301175,1574.1388708152,2667690.6617198,45.999949994999,0,0
-71.678314554072,19.704220377405,40.804380438044,2594248.8301175,1574.1388708152,2667690.6617198,46.004380438044,0,0
-71.678313843124,19.706803359855,40.808810881088,2594248.8301175,1574.1388708152,2667690.6617198,46.008810881088,0,0
-71.678313132176,19.709386342306,40.813241324132,2594248.8301175,1574.1388708152,2667690.6617198,46.013241324132,0,0
-71.678312421228,19.711969324756,40.817671767177,2594248.8301175,1574.1388708152,2667690.6617198,46.017671767177,0,0
-71.678311710279,19.714552307206,40.822102210221,2594248.8301175,1574.1388708152,2667690.6617198,46.022102210221,0,0
-71.678310999331,19.717135289656,40.826532653265,2594248.8301175,1574.1388708152,2667690.6617198,46.026532653265,0,0
-71.678310288382,19.719718272107,40.83096309631,2594248.8301175,1574.1388708152,2667690.6617198,46.03096309631,0,0
-71.678309577434,19.722301254557,40.835393539354,2594248.8301175,1574.1388708152,2667690.6617198,46.035393539354,0,0
-71.678308866486,19.724884237007,40.839823982398,2594248.8301175,1574.1388708152,2667690.6617198,46.039823982398,0,0
-71.678308155538,19.727467219457,40.844254425443,2594248.8301175,1574.1388708152,2667690.6617198,46.044254425443,0,0
-71.678307444589,19.730050201908,40.848684868487,2594248.8301175,1574.1388708152,2667690.6617198,46.048684868487,0,0
-71.678306733641,19.732633184358,40.853115311531,2594248.8301175,1574.1388708152,2667690.6617198,46.053115311531,0,0
-71.678306022693,19.735216166808,40.857545754575,2594248.8301175,1574.1388708152,2667690.6617198,46.057545754575,0,0
-71.678305311744,19.737799149258,40.86197619762,2594248.8301175,1574.1388708152,2667690.6617198,46.06197619762,0,0
-71.678304600796,19.740382131709,40.866406640664,2594248.8301175,1574.1388708152,2667690.6617198,46.066406640664,0,0
-71.678303889848,19.742965114159,40.870837083708,2594248.8301175,1574.1388708152,2667690.6617198,46.070837083708,0,0
-71.678303178899,19.745548096609,40.875267526753,2594248.8301175,1574.1388708152,2667690.6617198,46.075267526753,0,0
-71.678302467951,19.748131079059,40.879697969797,2594248.8301175,1574.1388708152,2667690.6617198,46.079697969797,0,0
-71.678301757003,19.750714061509,40.884128412841,2594248.8301175,1574.1388708152,2667690.6617198,46.084128412841,0,0
-71.678301046054,19.75329704396,40.888558855886,2594248.8301175,1574.1388708152,2667690.6617198,46.088558855886,0,0
-71.678300334881,19.755880026222,40.89298929893,2597287.329141,324.10225647299,2669180.2786497,46.09298929893,0,0
-71.678299623445,19.758463008264,40.897419741974,2597287.329141,324.10225647299,2669180.2786497,46.097419741974,0,0
-71.678298912009,19.761045990307,40.901850185018,2597287.329141,324.10225647299,2669180.2786497,46.101850185018,0,0
-71.678298200572,19.763628972349,40.906280628063,2597287.329141,324.10225647299,2669180.2786497,46.106280628063,0,0
-71.678297489136,19.766211954391,40.910711071107,2597287.329141,324.10225647299,2669180.2786497,46.110711071107,0,0
-71.6782967777,19.768794936434,40.915141514151,2597287.329141,324.10225647299,2669180.2786497,46.115141514151,0,0
-71.678296066264,19.771377918476,40.919571957196,2597287.329141,324.10225647299,2669180.2786497,46.119571957196,0,0
-71.678295354827,19.773960900518,40.92400240024,2597287.329141,324.10225647299,2669180.2786497,46.12400240024,0,0
-71.678294643391,19.776543882561,40.928432843284,2597287.329141,324.10225647299,2669180.2786497,46.128432843284,0,0
-71.678293931955,19.779126864603,40.932863286329,2597287.329141,324.10225647299,2669180.2786497,46.132863286329,0,0
-71.678293220519,19.781709846645,40.937293729373,2597287.329141,324.10225647299,2669180.2786497,46.137293729373,0,0
-71.678292509082,19.784292828688,40.941724172417,2597287.329141,324.10225647299,2669180.2786497,46.141724172417,0,0
-71.678291797646,19.78687581073,40.946154615462,2597287.329141,324.10225647299,2669180.2786497,46.146154615462,0,0
-71.67829108621,19.789458792772,40.950585058506,2597287.329141,324.10225647299,2669180.2786497,46.150585058506,0,0
-71.678290374774,19.792041774815,40.95501550155,2597287.329141,324.10225647299,2669180.2786497,46.15501550155,0,0
-71.678289663337,19.794624756857,40.959445944594,2597287.329141,324.10225647299,2669180.2786497,46.159445944594,0,0
-71.678288951901,19.797207738899,40.963876387639,2597287.329141,324.10225647299,2669180.2786497,46.163876387639,0,0
-71.678288240465,19.799790720941,40.968306830683,2597287.329141,324.10225647299,2669180.2786497,46.168306830683,0,0
-71.678287529029,19.802373702984,40.972737273727,2597287.329141,324.10225647299,2669180.2786497,46.172737273727,0,0
-71.678286818025,19.804956685309,40.977167716772,2594597.6769883,-293.24324996165,2670858.1331725,46.177167716772,0,0
-71.678286107156,19.807539667723,40.981598159816,2594597.6769883,-293.24324996165,2670858.1331725,46.181598159816,0,0
-71.678285396286,19.810122650137,40.98602860286,2594597.6769883,-293.24324996165,2670858.1331725,46.18602860286,0,0
-71.678284685417,19.812705632551,40.990459045905,2594597.6769883,-293.24324996165,2670858.1331725,46.190459045905,0,0
-71.678283974548,19.815288614965,40.994889488949,2594597.6769883,-293.24324996165,2670858.1331725,46.194889488949,0,0
-71.678283263679,19.817871597379,40.999319931993,2594597.6769883,-293.24324996165,2670858.1331725,46.199319931993,0,0
-71.678282552809,19.820454579793,41.003750375037,2594597.6769883,-293.24324996165,2670858.1331725,46.203750375038,0,0
-71.67828184194,19.823037562207,41.008180818082,2594597.6769883,-293.24324996165,2670858.1331725,46.208180818082,0,0
-71.678281131071,19.825620544621,41.012611261126,2594597.6769883,-293.24324996165,2670858.1331725,46.212611261126,0,0
-71.678280420202,19.828203527035,41.01704170417,2594597.6769883,-293.24324996165,2670858.1331725,46.21704170417,0,0
-71.678279709333,19.830786509449,41.021472147215,2594597.6769883,-293.24324996165,2670858.1331725,46.221472147215,0,0
-71.678278998463,19.833369491863,41.025902590259,2594597.6769883,-293.24324996165,2670858.1331725,46.225902590259,0,0
-71.678278287594,19.835952474277,41.030333033303,2594597.6769883,-293.24324996165,2670858.1331725,46.230333033303,0,0
-71.678277576725,19.83853545669,41.034763476348,2594597.6769883,-293.24324996165,2670858.1331725,46.234763476348,0,0
-71.678276865856,19.841118439104,41.039193919392,2594597.6769883,-293.24324996165,2670858.1331725,46.239193919392,0,0
-71.678276154987,19.843701421518,41.043624362436,2594597.6769883,-293.24324996165,2670858.1331725,46.243624362436,0,0
-71.678275444118,19.846284403932,41.048054805481,2594597.6769883,-293.24324996165,2670858.1331725,46.248054805481,0,0
-71.678274733248,19.848867386346,41.052485248525,2594597.6769883,-293.24324996165,2670858.1331725,46.252485248525,0,0
-71.678274022379,19.85145036876,41.056915691569,2594597.6769883,-293.24324996165,2670858.1331725,46.256915691569,0,0
-71.67827331151,19.854033351174,41.061346134613,2594597.6769883,-293.24324996165,2670858.1331725,46.261346134613,0,0
-71.678272600641,19.856616333588,41.065776577658,2594597.6769883,-293.24324996165,2670858.1331725,46.265776577658,0,0
-71.678271889772,19.859199316002,41.070207020702,2594597.6769883,-293.24324996165,2670858.1331725,46.270207020702,0,0
-71.678271178902,19.861782298416,41.074637463746,2594597.6769883,-293.24324996165,2670858.1331725,46.274637463746,0,0
-71.678270468033,19.86436528083,41.079067906791,2594597.6769883,-293.24324996165,2670858.1331725,46.279067906791,0,0
-71.678269757164,19.866948263244,41.083498349835,2594597.6769883,-293.24324996165,2670858.1331725,46.283498349835,0,0
-71.678269046295,19.869531245658,41.087928792879,2594597.6769883,-293.24324996165,2670858.1331725,46.287928792879,0,0
-71.678268335426,19.872114228072,41.092359235924,2594597.6769883,-293.24324996165,2670858.1331725,46.292359235924,0,0
-71.678267624556,19.874697210485,41.096789678968,2594597.6769883,-293.24324996165,2670858.1331725,46.296789678968,0,0
-71.678266913687,19.877280192899,41.101220122012,2594597.6769883,-293.24324996165,2670858.1331725,46.301220122012,0,0
-71.678266202818,19.879863175313,41.105650565057,2594597.6769883,-293.24324996165,2670858.1331725,46.305650565057,0,0
-71.678265491949,19.882446157727,41.110081008101,2594597.6769883,-293.24324996165,2670858.1331725,46.310081008101,0,0
-71.67826478108,19.885029140141,41.114511451145,2594597.6769883,-293.24324996165,2670858.1331725,46.314511451145,0,0
-71.67826407021,19.887612122555,41.118941894189,2594597.6769883,-293.24324996165,2670858.1331725,46.318941894189,0,0
-71.678263359341,19.890195104969,41.123372337234,2594597.6769883,-293.24324996165,2670858.1331725,46.323372337234,0,0
-71.678262648472,19.892778087383,41.127802780278,2594597.6769883,-293.24324996165,2670858.1331725,46.327802780278,0,0
-71.678261937603,19.895361069797,41.132233223322,2594597.6769883,-293.24324996165,2670858.1331725,46.332233223322,0,0
-71.678261226734,19.897944052211,41.136663666367,2594597.6769883,-293.24324996165,2670858.1331725,46.336663666367,0,0
-71.678260515864,19.900527034625,41.141094109411,2594597.6769883,-293.24324996165,2670858.1331725,46.341094109411,0,0
-71.678259804995,19.903110017039,41.145524552455,2594597.6769883,-293.24324996165,2670858.1331725,46.345524552455,0,0
-71.678259094126,19.905692999453,41.1499549955,2594597.6769883,-293.24324996165,2670858.1331725,46.3499549955,0,0
-71.678258383257,19.908275981866,41.154385438544,2594597.6769883,-293.24324996165,2670858.1331725,46.354385438544,0,0
-71.678257672388,19.91085896428,41.158815881588,2594597.6769883,-293.24324996165,2670858.1331725,46.358815881588,0,0
-71.678256961518,19.913441946694,41.163246324632,2594597.6769883,-293.24324996165,2670858.1331725,46.363246324632,0,0
-71.678256250649,19.916024929108,41.167676767677,2594597.6769883,-293.24324996165,2670858.1331725,46.367676767677,0,0
-71.67825553978,19.918607911522,41.172107210721,2594597.6769883,-293.24324996165,2670858.1331725,46.372107210721,0,0
-71.678254828911,19.921190893936,41.176537653765,2594597.6769883,-293.24324996165,2670858.1331725,46.376537653765,0,0
-71.678254118042,19.92377387635,41.18096809681,2594597.6769883,-293.24324996165,2670858.1331725,46.38096809681,0,0
-71.678253407172,19.926356858764,41.185398539854,2594597.6769883,-293.24324996165,2670858.1331725,46.385398539854,0,0
-71.678252696303,19.928939841178,41.189828982898,2594597.6769883,-293.24324996165,2670858.1331725,46.389828982898,0,0
-71.678251985434,19.931522823592,41.194259425943,2594597.6769883,-293.24324996165,2670858.1331725,46.394259425943,0,0
-71.678251274565,19.934105806006,41.198689868987,2594597.6769883,-293.24324996165,2670858.1331725,46.398689868987,0,0
-71.678250563696,19.93668878842,41.203120312031,2594597.6769883,-293.24324996165,2670858.1331725,46.403120312031,0,0
-71.678249852826,19.939271770834,41.207550755076,2594597.6769883,-293.24324996165,2670858.1331725,46.407550755076,0,0
-71.678249141957,19.941854753248,41.21198119812,2594597.6769883,-293.24324996165,2670858.1331725,46.41198119812,0,0
-71.678248431088,19.944437735661,41.216411641164,2594597.6769883,-293.24324996165,2670858.1331725,46.416411641164,0,0
-71.678247720219,19.947020718075,41.220842084208,2594597.6769883,-293.24324996165,2670858.1331725,46.420842084208,0,0
-71.67824700935,19.949603700489,41.225272527253,2594597.6769883,-293.24324996165,2670858.1331725,46.425272527253,0,0
-71.67824629848,19.952186682903,41.229702970297,2594597.6769883,-293.24324996165,2670858.1331725,46.429702970297,0,0
-71.678245587611,19.954769665317,41.234133413341,2594597.6769883,-293.24324996165,2670858.1331725,46.434133413341,0,0
-71.678244876742,19.957352647731,41.238563856386,2594597.6769883,-293.24324996165,2670858.1331725,46.438563856386,0,0
-71.678244165873,19.959935630145,41.24299429943,2594597.6769883,-293.24324996165,2670858.1331725,46.44299429943,0,0
-71.678243455004,19.962518612559,41.247424742474,2594597.6769883,-293.24324996165,2670858.1331725,46.447424742474,0,0
-71.678242744134,19.965101594973,41.251855185519,2594597.6769883,-293.24324996165,2670858.1331725,46.451855185519,0,0
-71.678242033265,19.967684577387,41.256285628563,2594597.6769883,-293.24324996165,2670858.1331725,46.456285628563,0,0
-71.678241322396,19.970267559801,41.260716071607,2594597.6769883,-293.24324996165,2670858.1331725,46.460716071607,0,0
-71.678240611527,19.972850542215,41.265146514651,2594597.6769883,-293.24324996165,2670858.1331725,46.465146514651,0,0
-71.678239900658,19.975433524629,41.269576957696,2594597.6769883,-293.24324996165,2670858.1331725,46.469576957696,0,0
-71.678239189788,19.978016507042,41.27400740074,2594597.6769883,-293.24324996165,2670858.1331725,46.47400740074,0,0
-71.678238478919,19.980599489456,41.278437843784,2594597.6769883,-293.24324996165,2670858.1331725,46.478437843784,0,0
-71.67823776805,19.98318247187,41.282868286829,2594597.6769883,-293.24324996165,2670858.1331725,46.482868286829,0,0
-71.678237057181,19.985765454284,41.287298729873,2594597.6769883,-293.24324996165,2670858.1331725,46.487298729873,0,0
-71.678236346312,19.988348436698,41.291729172917,2594597.6769883,-293.24324996165,2670858.1331725,46.491729172917,0,0
-71.678235635442,19.990931419112,41.296159615962,2594597.6769883,-293.24324996165,2670858.1331725,46.496159615962,0,0
-71.678234924573,19.993514401526,41.300590059006,2594597.6769883,-293.24324996165,2670858.1331725,46.500590059006,0,0
-71.678234213704,19.99609738394,41.30502050205,2594597.6769883,-293.24324996165,2670858.1331725,46.50502050205,0,0
-71.678233502835,19.998680366354,41.309450945095,2594597.6769883,-293.24324996165,2670858.1331725,46.509450945095,0,0
-71.678232791966,20.001263348768,41.313881388139,2594597.6769883,-293.24324996165,2670858.1331725,46.513881388139,0,0
-71.678232081096,20.003846331182,41.318311831183,2594597.6769883,-293.24324996165,2670858.1331725,46.518311831183,0,0
-71.678231370227,20.006429313596,41.322742274227,2594597.6769883,-293.24324996165,2670858.1331725,46.522742274227,0,0
-71.678230659358,20.00901229601,41.327172717272,2594597.6769883,-293.24324996165,2670858.1331725,46.527172717272,0,0
-71.678229948489,20.011595278424,41.331603160316,2594597.6769883,-293.24324996165,2670858.1331725,46.531603160316,0,0
-71.67822923762,20.014178260837,41.33603360336,2594597.6769883,-293.24324996165,2670858.1331725,46.53603360336,0,0
-71.67822852675,20.016761243251,41.340464046405,2594597.6769883,-293.24324996165,2670858.1331725,46.540464046405,0,0
-71.678227815881,20.019344225665,41.344894489449,2594597.6769883,-293.24324996165,2670858.1331725,46.544894489449,0,0
-71.678227105012,20.021927208079,41.349324932493,2594597.6769883,-293.24324996165,2670858.1331725,46.549324932493,0,0
-71.678226394143,20.024510190493,41.353755375538,2594597.6769883,-293.24324996165,2670858.1331725,46.553755375538,0,0
-71.678225683274,20.027093172907,41.358185818582,2594597.6769883,-293.24324996165,2670858.1331725,46.558185818582,0,0
-71.678224972404,20.029676155321,41.362616261626,2594597.6769883,-293.24324996165,2670858.1331725,46.562616261626,0,0
-71.678224261535,20.032259137735,41.36704670467,2594597.6769883,-293.24324996165,2670858.1331725,46.56704670467,0,0
-71.678223550666,20.034842120149,41.371477147715,2594597.6769883,-293.24324996165,2670858.1331725,46.571477147715,0,0
-71.678222839797,20.037425102563,41.375907590759,2594597.6769883,-293.24324996165,2670858.1331725,46.575907590759,0,0
-71.678222128928,20.040008084977,41.380338033803,2594597.6769883,-293.24324996165,2670858.1331725,46.580338033803,0,0
-71.678221418058,20.042591067391,41.384768476848,2594597.6769883,-293.24324996165,2670858.1331725,46.584768476848,0,0
-71.678220707189,20.045174049805,41.389198919892,2594597.6769883,-293.24324996165,2670858.1331725,46.589198919892,0,0
-71.67821999632,20.047757032218,41.393629362936,2594597.6769883,-293.24324996165,2670858.1331725,46.593629362936,0,0
-71.678219285451,20.050340014632,41.398059805981,2594597.6769883,-293.24324996165,2670858.1331725,46.598059805981,0,0
-71.678218574582,20.052922997046,41.402490249025,2594597.6769883,-293.24324996165,2670858.1331725,46.602490249025,0,0
-71.678217863712,20.05550597946,41.406920692069,2594597.6769883,-293.24324996165,2670858.1331725,46.606920692069,0,0
-71.678217152843,20.058088961874,41.411351135114,2594597.6769883,-293.24324996165,2670858.1331725,46.611351135114,0,0
-71.678216441974,20.060671944288,41.415781578158,2594597.6769883,-293.24324996165,2670858.1331725,46.615781578158,0,0
-71.678215731105,20.063254926702,41.420212021202,2594597.6769883,-293.24324996165,2670858.1331725,46.620212021202,0,0
-71.678215020236,20.065837909116,41.424642464246,2594597.6769883,-293.24324996165,2670858.1331725,46.624642464246,0,0
-71.678214309366,20.06842089153,41.429072907291,2594597.6769883,-293.24324996165,2670858.1331725,46.629072907291,0,0
-71.678213598497,20.071003873944,41.433503350335,2594597.6769883,-293.24324996165,2670858.1331725,46.633503350335,0,0
-71.678212887628,20.073586856358,41.437933793379,2594597.6769883,-293.24324996165,2670858.1331725,46.637933793379,0,0
-71.678212176759,20.076169838772,41.442364236424,2594597.6769883,-293.24324996165,2670858.1331725,46.642364236424,0,0
-71.67821146589,20.078752821186,41.446794679468,2594597.6769883,-293.24324996165,2670858.1331725,46.646794679468,0,0
-71.67821075502,20.0813358036,41.451225122512,2594597.6769883,-293.24324996165,2670858.1331725,46.651225122512,0,0
-71.678210044151,20.083918786013,41.455655565557,2594597.6769883,-293.24324996165,2670858.1331725,46.655655565557,0,0
-71.678209333282,20.086501768427,41.460086008601,2594597.6769883,-293.24324996165,2670858.1331725,46.660086008601,0,0
-71.678208622413,20.089084750841,41.464516451645,2594597.6769883,-293.24324996165,2670858.1331725,46.664516451645,0,0
-71.678207911544,20.091667733255,41.468946894689,2594597.6769883,-293.24324996165,2670858.1331725,46.668946894689,0,0
-71.678207200674,20.094250715669,41.473377337734,2594597.6769883,-293.24324996165,2670858.1331725,46.673377337734,0,0
-71.678206489805,20.096833698083,41.477807780778,2594597.6769883,-293.24324996165,2670858.1331725,46.677807780778,0,0
-71.678205778936,20.099416680497,41.482238223822,2594597.6769883,-293.24324996165,2670858.1331725,46.682238223822,0,0
-71.678205068067,20.101999662911,41.486668666867,2594597.6769883,-293.24324996165,2670858.1331725,46.686668666867,0,0
-71.678204357198,20.104582645325,41.491099109911,2594597.6769883,-293.24324996165,2670858.1331725,46.691099109911,0,0
-71.678203646328,20.107165627739,41.495529552955,2594597.6769883,-293.24324996165,2670858.1331725,46.695529552955,0,0
-71.678202935459,20.109748610153,41.499959996,2594597.6769883,-293.24324996165,2670858.1331725,46.699959996,0,0
-71.67820222459,20.112331592567,41.504390439044,2594597.6769883,-293.24324996165,2670858.1331725,46.704390439044,0,0
-71.678201513721,20.114914574981,41.508820882088,2594597.6769883,-293.24324996165,2670858.1331725,46.708820882088,0,0
-71.678200802852,20.117497557394,41.513251325133,2594597.6769883,-293.24324996165,2670858.1331725,46.713251325133,0,0
-71.678200091982,20.120080539808,41.517681768177,2594597.6769883,-293.24324996165,2670858.1331725,46.717681768177,0,0
-71.678199381113,20.122663522222,41.522112211221,2594597.6769883,-293.24324996165,2670858.1331725,46.722112211221,0,0
-71.678198670244,20.125246504636,41.526542654265,2594597.6769883,-293.24324996165,2670858.1331725,46.726542654265,0,0
-71.678197959375,20.12782948705,41.53097309731,2594597.6769883,-293.24324996165,2670858.1331725,46.73097309731,0,0
-71.678197248506,20.130412469464,41.535403540354,2594597.6769883,-293.24324996165,2670858.1331725,46.735403540354,0,0
-71.678196537636,20.132995451878,41.539833983398,2594597.6769883,-293.24324996165,2670858.1331725,46.739833983398,0,0
-71.678195826767,20.135578434292,41.544264426443,2594597.6769883,-293.24324996165,2670858.1331725,46.744264426443,0,0
-71.678195115898,20.138161416706,41.548694869487,2594597.6769883,-293.24324996165,2670858.1331725,46.748694869487,0,0
-71.678194405029,20.14074439912,41.553125312531,2594597.6769883,-293.24324996165,2670858.1331725,46.753125312531,0,0
-71.67819369416,20.143327381534,41.557555755576,2594597.6769883,-293.24324996165,2670858.1331725,46.757555755576,0,0
-71.67819298329,20.145910363948,41.56198619862,2594597.6769883,-293.24324996165,2670858.1331725,46.76198619862,0,0
-71.678192272421,20.148493346362,41.566416641664,2594597.6769883,-293.24324996165,2670858.1331725,46.766416641664,0,0
-71.678191561552,20.151076328776,41.570847084708,2594597.6769883,-293.24324996165,2670858.1331725,46.770847084708,0,0
-71.678190850683,20.153659311189,41.575277527753,2594597.6769883,-293.24324996165,2670858.1331725,46.775277527753,0,0
-71.678190139814,20.156242293603,41.579707970797,2594597.6769883,-293.24324996165,2670858.1331725,46.779707970797,0,0
-71.678189428944,20.158825276017,41.584138413841,2594597.6769883,-293.24324996165,2670858.1331725,46.784138413841,0,0
-71.678188718075,20.161408258431,41.588568856886,2594597.6769883,-293.24324996165,2670858.1331725,46.788568856886,0,0
-71.678188007206,20.163991240845,41.59299929993,2594597.6769883,-293.24324996165,2670858.1331725,46.79299929993,0,0
-71.678187296337,20.166574223259,41.597429742974,2594597.6769883,-293.24324996165,2670858.1331725,46.797429742974,0,0
-71.678186585468,20.169157205673,41.601860186019,2594597.6769883,-293.24324996165,2670858.1331725,46.801860186019,0,0
-71.678185874598,20.171740188087,41.606290629063,2594597.6769883,-293.24324996165,2670858.1331725,46.806290629063,0,0
-71.678185163729,20.174323170501,41.610721072107,2594597.6769883,-293.24324996165,2670858.1331725,46.810721072107,0,0
-71.67818445286,20.176906152915,41.615151515152,2594597.6769883,-293.24324996165,2670858.1331725,46.815151515152,0,0
-71.678183741991,20.179489135329,41.619581958196,2594597.6769883,-293.24324996165,2670858.1331725,46.819581958196,0,0
-71.678183031122,20.182072117743,41.62401240124,2594597.6769883,-293.24324996165,2670858.1331725,46.82401240124,0,0
-71.678182320252,20.184655100157,41.628442844284,2594597.6769883,-293.24324996165,2670858.1331725,46.828442844284,0,0
-71.678181609383,20.18723808257,41.632873287329,2594597.6769883,-293.24324996165,2670858.1331725,46.832873287329,0,0
-71.678180898514,20.189821064984,41.637303730373,2594597.6769883,-293.24324996165,2670858.1331725,46.837303730373,0,0
-71.678180187645,20.192404047398,41.641734173417,2594597.6769883,-293.24324996165,2670858.1331725,46.841734173417,0,0
-71.678179476776,20.194987029812,41.646164616462,2594597.6769883,-293.24324996165,2670858.1331725,46.846164616462,0,0
-71.678178765906,20.197570012226,41.650595059506,2594597.6769883,-293.24324996165,2670858.1331725,46.850595059506,0,0
-71.678178055037,20.20015299464,41.65502550255,2594597.6769883,-293.24324996165,2670858.1331725,46.85502550255,0,0
-71.678177344168,20.202735977054,41.659455945595,2594597.6769883,-293.24324996165,2670858.1331725,46.859455945595,0,0
-71.678176633299,20.205318959468,41.663886388639,2594597.6769883,-293.24324996165,2670858.1331725,46.863886388639,0,0
-71.67817592243,20.207901941882,41.668316831683,2594597.6769883,-293.24324996165,2670858.1331725,46.868316831683,0,0
-71.67817521156,20.210484924296,41.672747274727,2594597.6769883,-293.24324996165,2670858.1331725,46.872747274727,0,0
-71.678174500691,20.21306790671,41.677177717772,2594597.6769883,-293.24324996165,2670858.1331725,46.877177717772,0,0
-71.678173789822,20.215650889124,41.681608160816,2594597.6769883,-293.24324996165,2670858.1331725,46.881608160816,0,0
-71.678173078953,20.218233871538,41.68603860386,2594597.6769883,-293.24324996165,2670858.1331725,46.88603860386,0,0
-71.678172368084,20.220816853952,41.690469046905,2594597.6769883,-293.24324996165,2670858.1331725,46.890469046905,0,0
-71.678171657214,20.223399836365,41.694899489949,2594597.6769883,-293.24324996165,2670858.1331725,46.894899489949,0,0
-71.678170946345,20.225982818779,41.699329932993,2594597.6769883,-293.24324996165,2670858.1331725,46.899329932993,0,0
-71.678170235476,20.228565801193,41.703760376038,2594597.6769883,-293.24324996165,2670858.1331725,46.903760376038,0,0
-71.678169524607,20.231148783607,41.708190819082,2594597.6769883,-293.24324996165,2670858.1331725,46.908190819082,0,0
-71.678168813738,20.233731766021,41.712621262126,2594597.6769883,-293.24324996165,2670858.1331725,46.912621262126,0,0
-71.678168102868,20.236314748435,41.717051705171,2594597.6769883,-293.24324996165,2670858.1331725,46.917051705171,0,0
-71.678167391999,20.238897730849,41.721482148215,2594597.6769883,-293.24324996165,2670858.1331725,46.921482148215,0,0
-71.67816668113,20.241480713263,41.725912591259,2594597.6769883,-293.24324996165,2670858.1331725,46.925912591259,0,0
-71.678165970261,20.244063695677,41.730343034303,2594597.6769883,-293.24324996165,2670858.1331725,46.930343034303,0,0
-71.678165259392,20.246646678091,41.734773477348,2594597.6769883,-293.24324996165,2670858.1331725,46.934773477348,0,0
-71.678164548522,20.249229660505,41.739203920392,2594597.6769883,-293.24324996165,2670858.1331725,46.939203920392,0,0
-71.678163837653,20.251812642919,41.743634363436,2594597.6769883,-293.24324996165,2670858.1331725,46.943634363436,0,0
-71.678163126784,20.254395625333,41.748064806481,2594597.6769883,-293.24324996165,2670858.1331725,46.948064806481,0,0
-71.678162415915,20.256978607746,41.752495249525,2594597.6769883,-293.24324996165,2670858.1331725,46.952495249525,0,0
-71.678161705046,20.25956159016,41.756925692569,2594597.6769883,-293.24324996165,2670858.1331725,46.956925692569,0,0
-71.678160994176,20.262144572574,41.761356135614,2594597.6769883,-293.24324996165,2670858.1331725,46.961356135614,0,0
-71.678160283307,20.264727554988,41.765786578658,2594597.6769883,-293.24324996165,2670858.1331725,46.965786578658,0,0
-71.678159572438,20.267310537402,41.770217021702,2594597.6769883,-293.24324996165,2670858.1331725,46.970217021702,0,0
-71.678158861569,20.269893519816,41.774647464746,2594597.6769883,-293.24324996165,2670858.1331725,46.974647464746,0,0
-71.6781581507,20.27247650223,41.779077907791,2594597.6769883,-293.24324996165,2670858.1331725,46.979077907791,0,0
-71.67815743983,20.275059484644,41.783508350835,2594597.6769883,-293.24324996165,2670858.1331725,46.983508350835,0,0
-71.678156728961,20.277642467058,41.787938793879,2594597.6769883,-293.24324996165,2670858.1331725,46.987938793879,0,0
-71.678156018092,20.280225449472,41.792369236924,2594597.6769883,-293.24324996165,2670858.1331725,46.992369236924,0,0
-71.678155307223,20.282808431886,41.796799679968,2594597.6769883,-293.24324996165,2670858.1331725,46.996799679968,0,0
-71.678154596354,20.2853914143,41.801230123012,2594597.6769883,-293.24324996165,2670858.1331725,47.001230123012,0,0
-71.678153885484,20.287974396714,41.805660566057,2594597.6769883,-293.24324996165,2670858.1331725,47.005660566057,0,0
-71.678153174615,20.290557379128,41.810091009101,2594597.6769883,-293.24324996165,2670858.1331725,47.010091009101,0,0
-71.678152463746,20.293140361541,41.814521452145,2594597.6769883,-293.24324996165,2670858.1331725,47.014521452145,0,0
-71.678151752877,20.295723343955,41.81895189519,2594597.6769883,-293.24324996165,2670858.1331725,47.01895189519,0,0
-71.678151042008,20.298306326369,41.823382338234,2594597.6769883,-293.24324996165,2670858.1331725,47.023382338234,0,0
-71.678150331138,20.300889308783,41.827812781278,2594597.6769883,-293.24324996165,2670858.1331725,47.027812781278,0,0
-71.678149620269,20.303472291197,41.832243224322,2594597.6769883,-293.24324996165,2670858.1331725,47.032243224322,0,0
-71.6781489094,20.306055273611,41.836673667367,2594597.6769883,-293.24324996165,2670858.1331725,47.036673667367,0,0
-71.678148198531,20.308638256025,41.841104110411,2594597.6769883,-293.24324996165,2670858.1331725,47.041104110411,0,0
-71.678147487662,20.311221238439,41.845534553455,2594597.6769883,-293.24324996165,2670858.1331725,47.045534553455,0,0
-71.678146776792,20.313804220853,41.8499649965,2594597.6769883,-293.24324996165,2670858.1331725,47.0499649965,0,0
-71.678146065923,20.316387203267,41.854395439544,2594597.6769883,-293.24324996165,2670858.1331725,47.054395439544,0,0
-71.678145355054,20.318970185681,41.858825882588,2594597.6769883,-293.24324996165,2670858.1331725,47.058825882588,0,0
-71.678144644185,20.321553168095,41.863256325633,2594597.6769883,-293.24324996165,2670858.1331725,47.063256325633,0,0
-71.678143933316,20.324136150509,41.867686768677,2594597.6769883,-293.24324996165,2670858.1331725,47.067686768677,0,0
-71.678143222446,20.326719132922,41.872117211721,2594597.6769883,-293.24324996165,2670858.1331725,47.072117211721,0,0
-71.678142511577,20.329302115336,41.876547654765,2594597.6769883,-293.24324996165,2670858.1331725,47.076547654765,0,0
-71.678141800708,20.33188509775,41.88097809781,2594597.6769883,-293.24324996165,2670858.1331725,47.08097809781,0,0
-71.678141089839,20.334468080164,41.885408540854,2594597.6769883,-293.24324996165,2670858.1331725,47.085408540854,0,0
-71.67814037897,20.337051062578,41.889838983898,2594597.6769883,-293.24324996165,2670858.1331725,47.089838983898,0,0
-71.6781396681,20.339634044992,41.894269426943,2594597.6769883,-293.24324996165,2670858.1331725,47.094269426943,0,0
-71.678138957231,20.342217027406,41.898699869987,2594597.6769883,-293.24324996165,2670858.1331725,47.098699869987,0,0
-71.678138246362,20.34480000982,41.903130313031,2594597.6769883,-293.24324996165,2670858.1331725,47.103130313031,0,0
-71.678137535493,20.347382992234,41.907560756076,2594597.6769883,-293.24324996165,2670858.1331725,47.107560756076,0,0
-71.678136824624,20.349965974648,41.91199119912,2594597.6769883,-293.24324996165,2670858.1331725,47.11199119912,0,0
-71.678136113754,20.352548957062,41.916421642164,2594597.6769883,-293.24324996165,2670858.1331725,47.116421642164,0,0
-71.678135402885,20.355131939476,41.920852085209,2594597.6769883,-293.24324996165,2670858.1331725,47.120852085209,0,0
-71.678134692016,20.35771492189,41.925282528253,2594597.6769883,-293.24324996165,2670858.1331725,47.125282528253,0,0
-71.678133981147,20.360297904304,41.929712971297,2594597.6769883,-293.24324996165,2670858.1331725,47.129712971297,0,0
-71.678133270278,20.362880886717,41.934143414341,2594597.6769883,-293.24324996165,2670858.1331725,47.134143414341,0,0
-71.678132559408,20.365463869131,41.938573857386,2594597.6769883,-293.24324996165,2670858.1331725,47.138573857386,0,0
-71.678131848539,20.368046851545,41.94300430043,2594597.6769883,-293.24324996165,2670858.1331725,47.14300430043,0,0
-71.67813113767,20.370629833959,41.947434743474,2594597.6769883,-293.24324996165,2670858.1331725,47.147434743474,0,0
-71.678130426801,20.373212816373,41.951865186519,2594597.6769883,-293.24324996165,2670858.1331725,47.151865186519,0,0
-71.678129715932,20.375795798787,41.956295629563,2594597.6769883,-293.24324996165,2670858.1331725,47.156295629563,0,0
-71.678129005062,20.378378781201,41.960726072607,2594597.6769883,-293.24324996165,2670858.1331725,47.160726072607,0,0
-71.678128294193,20.380961763615,41.965156515652,2594597.6769883,-293.24324996165,2670858.1331725,47.165156515652,0,0
-71.678127583324,20.383544746029,41.969586958696,2594597.6769883,-293.24324996165,2670858.1331725,47.169586958696,0,0
-71.678126872455,20.386127728443,41.97401740174,2594597.6769883,-293.24324996165,2670858.1331725,47.17401740174,0,0
-71.678126161586,20.388710710857,41.978447844784,2594597.6769883,-293.24324996165,2670858.1331725,47.178447844784,0,0
-71.678125450716,20.391293693271,41.982878287829,2594597.6769883,-293.24324996165,2670858.1331725,47.182878287829,0,0
-71.678124739847,20.393876675685,41.987308730873,2594597.6769883,-293.24324996165,2670858.1331725,47.187308730873,0,0
-71.678124028978,20.396459658098,41.991739173917,2594597.6769883,-293.24324996165,2670858.1331725,47.191739173917,0,0
-71.678123318109,20.399042640512,41.996169616962,2594597.6769883,-293.24324996165,2670858.1331725,47.196169616962,0,0
-71.67812260724,20.401625622926,42.000600060006,2594597.6769883,-293.24324996165,2670858.1331725,47.200600060006,0,0
-71.67812189637,20.40420860534,42.00503050305,2594597.6769883,-293.24324996165,2670858.1331725,47.20503050305,0,0
-71.678121185501,20.406791587754,42.009460946095,2594597.6769883,-293.24324996165,2670858.1331725,47.209460946095,0,0
-71.678120474632,20.409374570168,42.013891389139,2594597.6769883,-293.24324996165,2670858.1331725,47.213891389139,0,0
-71.678119763763,20.411957552582,42.018321832183,2594597.6769883,-293.24324996165,2670858.1331725,47.218321832183,0,0
-71.678119052894,20.414540534996,42.022752275228,2594597.6769883,-293.24324996165,2670858.1331725,47.222752275228,0,0
-71.678118342024,20.41712351741,42.027182718272,2594597.6769883,-293.24324996165,2670858.1331725,47.227182718272,0,0
-71.678117631155,20.419706499824,42.031613161316,2594597.6769883,-293.24324996165,2670858.1331725,47.231613161316,0,0
-71.678116920286,20.422289482238,42.03604360436,2594597.6769883,-293.24324996165,2670858.1331725,47.23604360436,0,0
-71.678116209417,20.424872464652,42.040474047405,2594597.6769883,-293.24324996165,2670858.1331725,47.240474047405,0,0
-71.678115498548,20.427455447066,42.044904490449,2594597.6769883,-293.24324996165,2670858.1331725,47.244904490449,0,0
-71.678114787678,20.43003842948,42.049334933493,2594597.6769883,-293.24324996165,2670858.1331725,47.249334933493,0,0
-71.678114076809,20.432621411893,42.053765376538,2594597.6769883,-293.24324996165,2670858.1331725,47.253765376538,0,0
-71.67811336594,20.435204394307,42.058195819582,2594597.6769883,-293.24324996165,2670858.1331725,47.258195819582,0,0
-71.678112655071,20.437787376721,42.062626262626,2594597.6769883,-293.24324996165,2670858.1331725,47.262626262626,0,0
-71.678111944202,20.440370359135,42.067056705671,2594597.6769883,-293.24324996165,2670858.1331725,47.267056705671,0,0
-71.678111233332,20.442953341549,42.071487148715,2594597.6769883,-293.24324996165,2670858.1331725,47.271487148715,0,0
-71.678110522463,20.445536323963,42.075917591759,2594597.6769883,-293.24324996165,2670858.1331725,47.275917591759,0,0
-71.678109811594,20.448119306377,42.080348034803,2594597.6769883,-293.24324996165,2670858.1331725,47.280348034803,0,0
-71.678109100725,20.450702288791,42.084778477848,2594597.6769883,-293.24324996165,2670858.1331725,47.284778477848,0,0
-71.678108389856,20.453285271205,42.089208920892,2594597.6769883,-293.24324996165,2670858.1331725,47.289208920892,0,0
-71.678107678986,20.455868253619,42.093639363936,2594597.6769883,-293.24324996165,2670858.1331725,47.293639363936,0,0
-71.678106968117,20.458451236033,42.098069806981,2594597.6769883,-293.24324996165,2670858.1331725,47.298069806981,0,0
-71.678106257248,20.461034218447,42.102500250025,2594597.6769883,-293.24324996165,2670858.1331725,47.302500250025,0,0
-71.678105546379,20.463617200861,42.106930693069,2594597.6769883,-293.24324996165,2670858.1331725,47.306930693069,0,0
-71.67810483551,20.466200183275,42.111361136114,2594597.6769883,-293.24324996165,2670858.1331725,47.311361136114,0,0
-71.67810412464,20.468783165688,42.115791579158,2594597.6769883,-293.24324996165,2670858.1331725,47.315791579158,0,0
-71.678103413771,20.471366148102,42.120222022202,2594597.6769883,-293.24324996165,2670858.1331725,47.320222022202,0,0
-71.678102702902,20.473949130516,42.124652465247,2594597.6769883,-293.24324996165,2670858.1331725,47.324652465247,0,0
-71.678101992033,20.47653211293,42.129082908291,2594597.6769883,-293.24324996165,2670858.1331725,47.329082908291,0,0
-71.678101281164,20.479115095344,42.133513351335,2594597.6769883,-293.24324996165,2670858.1331725,47.333513351335,0,0
-71.678100570294,20.481698077758,42.137943794379,2594597.6769883,-293.24324996165,2670858.1331725,47.337943794379,0,0
-71.678099859425,20.484281060172,42.142374237424,2594597.6769883,-293.24324996165,2670858.1331725,47.342374237424,0,0
-71.678099148556,20.486864042586,42.146804680468,2594597.6769883,-293.24324996165,2670858.1331725,47.346804680468,0,0
-71.678098437687,20.489447025,42.151235123512,2594597.6769883,-293.24324996165,2670858.1331725,47.351235123512,0,0
-71.678097726818,20.492030007414,42.155665566557,2594597.6769883,-293.24324996165,2670858.1331725,47.355665566557,0,0
-71.678097015948,20.494612989828,42.160096009601,2594597.6769883,-293.24324996165,2670858.1331725,47.360096009601,0,0
-71.678096305079,20.497195972242,42.164526452645,2594597.6769883,-293.24324996165,2670858.1331725,47.364526452645,0,0
-71.67809559421,20.499778954656,42.16895689569,2594597.6769883,-293.24324996165,2670858.1331725,47.36895689569,0,0
-71.678094883341,20.502361937069,42.173387338734,2594597.6769883,-293.24324996165,2670858.1331725,47.373387338734,0,0
-71.678094172472,20.504944919483,42.177817781778,2594597.6769883,-293.24324996165,2670858.1331725,47.377817781778,0,0
-71.678093461602,20.507527901897,42.182248224822,2594597.6769883,-293.24324996165,2670858.1331725,47.382248224822,0,0
-71.678092750733,20.510110884311,42.186678667867,2594597.6769883,-293.24324996165,2670858.1331725,47.386678667867,0,0
-71.678092039864,20.512693866725,42.191109110911,2594597.6769883,-293.24324996165,2670858.1331725,47.391109110911,0,0
-71.678091328995,20.515276849139,42.195539553955,2594597.6769883,-293.24324996165,2670858.1331725,47.395539553955,0,0
-71.678090618126,20.517859831553,42.199969997,2594597.6769883,-293.24324996165,2670858.1331725,47.399969997,0,0
-71.678089907256,20.520442813967,42.204400440044,2594597.6769883,-293.24324996165,2670858.1331725,47.404400440044,0,0
-71.678089196387,20.523025796381,42.208830883088,2594597.6769883,-293.24324996165,2670858.1331725,47.408830883088,0,0
-71.678088485518,20.525608778795,42.213261326133,2594597.6769883,-293.24324996165,2670858.1331725,47.413261326133,0,0
-71.678087774649,20.528191761209,42.217691769177,2594597.6769883,-293.24324996165,2670858.1331725,47.417691769177,0,0
-71.67808706378,20.530774743623,42.222122212221,2594597.6769883,-293.24324996165,2670858.1331725,47.422122212221,0,0
-71.67808635291,20.533357726037,42.226552655266,2594597.6769883,-293.24324996165,2670858.1331725,47.426552655266,0,0
-71.678085642041,20.535940708451,42.23098309831,2594597.6769883,-293.24324996165,2670858.1331725,47.43098309831,0,0
-71.678084931172,20.538523690864,42.235413541354,2594597.6769883,-293.24324996165,2670858.1331725,47.435413541354,0,0
-71.678084220303,20.541106673278,42.239843984398,2594597.6769883,-293.24324996165,2670858.1331725,47.439843984398,0,0
-71.678083509434,20.543689655692,42.244274427443,2594597.6769883,-293.24324996165,2670858.1331725,47.444274427443,0,0
-71.678082798564,20.546272638106,42.248704870487,2594597.6769883,-293.24324996165,2670858.1331725,47.448704870487,0,0
-71.678082087695,20.54885562052,42.253135313531,2594597.6769883,-293.24324996165,2670858.1331725,47.453135313531,0,0
-71.678081376826,20.551438602934,42.257565756576,2594597.6769883,-293.24324996165,2670858.1331725,47.457565756576,0,0
-71.678080665957,20.554021585348,42.26199619962,2594597.6769883,-293.24324996165,2670858.1331725,47.46199619962,0,0
-71.678079955088,20.556604567762,42.266426642664,2594597.6769883,-293.24324996165,2670858.1331725,47.466426642664,0,0
-71.678079244218,20.559187550176,42.270857085709,2594597.6769883,-293.24324996165,2670858.1331725,47.470857085709,0,0
-71.678078533349,20.56177053259,42.275287528753,2594597.6769883,-293.24324996165,2670858.1331725,47.475287528753,0,0
-71.67807782248,20.564353515004,42.279717971797,2594597.6769883,-293.24324996165,2670858.1331725,47.479717971797,0,0
-71.678077111611,20.566936497418,42.284148414841,2594597.6769883,-293.24324996165,2670858.1331725,47.484148414841,0,0
-71.678076400742,20.569519479832,42.288578857886,2594597.6769883,-293.24324996165,2670858.1331725,47.488578857886,0,0
-71.678075689872,20.572102462245,42.29300930093,2594597.6769883,-293.24324996165,2670858.1331725,47.49300930093,0,0
-71.678074979003,20.574685444659,42.297439743974,2594597.6769883,-293.24324996165,2670858.1331725,47.497439743974,0,0
-71.678074268134,20.577268427073,42.301870187019,2594597.6769883,-293.24324996165,2670858.1331725,47.501870187019,0,0
-71.678073557265,20.579851409487,42.306300630063,2594597.6769883,-293.24324996165,2670858.1331725,47.506300630063,0,0
-71.678072846396,20.582434391901,42.310731073107,2594597.6769883,-293.24324996165,2670858.1331725,47.510731073107,0,0
-71.678072135526,20.585017374315,42.315161516152,2594597.6769883,-293.24324996165,2670858.1331725,47.515161516152,0,0
-71.678071424657,20.587600356729,42.319591959196,2594597.6769883,-293.24324996165,2670858.1331725,47.519591959196,0,0
-71.678070713788,20.590183339143,42.32402240224,2594597.6769883,-293.24324996165,2670858.1331725,47.52402240224,0,0
-71.678070002919,20.592766321557,42.328452845285,2594597.6769883,-293.24324996165,2670858.1331725,47.528452845285,0,0
-71.67806929205,20.595349303971,42.332883288329,2594597.6769883,-293.24324996165,2670858.1331725,47.532883288329,0,0
-71.67806858118,20.597932286385,42.337313731373,2594597.6769883,-293.24324996165,2670858.1331725,47.537313731373,0,0
-71.678067870311,20.600515268799,42.341744174417,2594597.6769883,-293.24324996165,2670858.1331725,47.541744174417,0,0
-71.678067159442,20.603098251213,42.346174617462,2594597.6769883,-293.24324996165,2670858.1331725,47.546174617462,0,0
-71.678066448573,20.605681233627,42.350605060506,2594597.6769883,-293.24324996165,2670858.1331725,47.550605060506,0,0
-71.678065737704,20.60826421604,42.35503550355,2594597.6769883,-293.24324996165,2670858.1331725,47.55503550355,0,0
-71.678065026834,20.610847198454,42.359465946595,2594597.6769883,-293.24324996165,2670858.1331725,47.559465946595,0,0
-71.678064315965,20.613430180868,42.363896389639,2594597.6769883,-293.24324996165,2670858.1331725,47.563896389639,0,0
-71.678063605096,20.616013163282,42.368326832683,2594597.6769883,-293.24324996165,2670858.1331725,47.568326832683,0,0
-71.678062894227,20.618596145696,42.372757275728,2594597.6769883,-293.24324996165,2670858.1331725,47.572757275728,0,0
-71.678062183358,20.62117912811,42.377187718772,2594597.6769883,-293.24324996165,2670858.1331725,47.577187718772,0,0
-71.678061472488,20.623762110524,42.381618161816,2594597.6769883,-293.24324996165,2670858.1331725,47.581618161816,0,0
-71.678060761619,20.626345092938,42.38604860486,2594597.6769883,-293.24324996165,2670858.1331725,47.58604860486,0,0
-71.67806005075,20.628928075352,42.390479047905,2594597.6769883,-293.24324996165,2670858.1331725,47.590479047905,0,0
-71.678059339881,20.631511057766,42.394909490949,2594597.6769883,-293.24324996165,2670858.1331725,47.594909490949,0,0
-71.678058629012,20.63409404018,42.399339933993,2594597.6769883,-293.24324996165,2670858.1331725,47.599339933993,0,0
-71.678057918142,20.636677022594,42.403770377038,2594597.6769883,-293.24324996165,2670858.1331725,47.603770377038,0,0
-71.678057207273,20.639260005008,42.408200820082,2594597.6769883,-293.24324996165,2670858.1331725,47.608200820082,0,0
-71.678056496404,20.641842987421,42.412631263126,2594597.6769883,-293.24324996165,2670858.1331725,47.612631263126,0,0
-71.678055785535,20.644425969835,42.417061706171,2594597.6769883,-293.24324996165,2670858.1331725,47.617061706171,0,0
-71.678055074666,20.647008952249,42.421492149215,2594597.6769883,-293.24324996165,2670858.1331725,47.621492149215,0,0
-71.678054363796,20.649591934663,42.425922592259,2594597.6769883,-293.24324996165,2670858.1331725,47.625922592259,0,0
-71.678053652621,20.652174917115,42.430353035304,2597793.4518366,-80.809025567326,2671666.9606562,47.630353035304,0,0
-71.678052941204,20.654757899596,42.434783478348,2597793.4518366,-80.809025567326,2671666.9606562,47.634783478348,0,0
-71.678052229788,20.657340882077,42.439213921392,2597793.4518366,-80.809025567326,2671666.9606562,47.639213921392,0,0
-71.678051518371,20.659923864558,42.443644364436,2597793.4518366,-80.809025567326,2671666.9606562,47.643644364436,0,0
-71.678050806955,20.66250684704,42.448074807481,2597793.4518366,-80.809025567326,2671666.9606562,47.648074807481,0,0
-71.678050095538,20.665089829521,42.452505250525,2597793.4518366,-80.809025567326,2671666.9606562,47.652505250525,0,0
-71.678049384122,20.667672812002,42.456935693569,2597793.4518366,-80.809025567326,2671666.9606562,47.656935693569,0,0
-71.678048672705,20.670255794483,42.461366136614,2597793.4518366,-80.809025567326,2671666.9606562,47.661366136614,0,0
-71.678047961288,20.672838776965,42.465796579658,2597793.4518366,-80.809025567326,2671666.9606562,47.665796579658,0,0
-71.678047249872,20.675421759446,42.470227022702,2597793.4518366,-80.809025567326,2671666.9606562,47.670227022702,0,0
-71.678046538455,20.678004741927,42.474657465747,2597793.4518366,-80.809025567326,2671666.9606562,47.674657465747,0,0
-71.678045827039,20.680587724408,42.479087908791,2597793.4518366,-80.809025567326,2671666.9606562,47.679087908791,0,0
-71.678045115622,20.683170706889,42.483518351835,2597793.4518366,-80.809025567326,2671666.9606562,47.683518351835,0,0
-71.678044404206,20.685753689371,42.487948794879,2597793.4518366,-80.809025567326,2671666.9606562,47.687948794879,0,0
-71.678043692789,20.688336671852,42.492379237924,2597793.4518366,-80.809025567326,2671666.9606562,47.692379237924,0,0
-71.678042981373,20.690919654333,42.496809680968,2597793.4518366,-80.809025567326,2671666.9606562,47.696809680968,0,0
-71.678042269956,20.693502636814,42.501240124012,2597793.4518366,-80.809025567326,2671666.9606562,47.701240124012,0,0
-71.678041558539,20.696085619296,42.505670567057,2597793.4518366,-80.809025567326,2671666.9606562,47.705670567057,0,0
-71.678040847123,20.698668601777,42.510101010101,2597793.4518366,-80.809025567326,2671666.9606562,47.710101010101,0,0
-71.678040135706,20.701251584258,42.514531453145,2597793.4518366,-80.809025567326,2671666.9606562,47.714531453145,0,0
-71.67803942429,20.703834566739,42.51896189619,2597793.4518366,-80.809025567326,2671666.9606562,47.71896189619,0,0
-71.678038712873,20.70641754922,42.523392339234,2597793.4518366,-80.809025567326,2671666.9606562,47.723392339234,0,0
-71.678038001457,20.709000531702,42.527822782278,2597793.4518366,-80.809025567326,2671666.9606562,47.727822782278,0,0
-71.67803729004,20.711583514183,42.532253225323,2597793.4518366,-80.809025567326,2671666.9606562,47.732253225323,0,0
-71.678036578623,20.714166496664,42.536683668367,2597793.4518366,-80.809025567326,2671666.9606562,47.736683668367,0,0
-71.678035867207,20.716749479145,42.541114111411,2597793.4518366,-80.809025567326,2671666.9606562,47.741114111411,0,0
-71.67803515579,20.719332461626,42.545544554455,2597793.4518366,-80.809025567326,2671666.9606562,47.745544554455,0,0
-71.678034444374,20.721915444108,42.5499749975,2597793.4518366,-80.809025567326,2671666.9606562,47.7499749975,0,0
-71.678033732957,20.724498426589,42.554405440544,2597793.4518366,-80.809025567326,2671666.9606562,47.754405440544,0,0
-71.678033021541,20.72708140907,42.558835883588,2597793.4518366,-80.809025567326,2671666.9606562,47.758835883588,0,0
-71.678032310124,20.729664391551,42.563266326633,2597793.4518366,-80.809025567326,2671666.9606562,47.763266326633,0,0
-71.678031598707,20.732247374033,42.567696769677,2597793.4518366,-80.809025567326,2671666.9606562,47.767696769677,0,0
-71.678030887291,20.734830356514,42.572127212721,2597793.4518366,-80.809025567326,2671666.9606562,47.772127212721,0,0
-71.678030175874,20.737413338995,42.576557655766,2597793.4518366,-80.809025567326,2671666.9606562,47.776557655766,0,0
-71.678029464458,20.739996321476,42.58098809881,2597793.4518366,-80.809025567326,2671666.9606562,47.78098809881,0,0
-71.678028753041,20.742579303957,42.585418541854,2597793.4518366,-80.809025567326,2671666.9606562,47.785418541854,0,0
-71.678028041625,20.745162286439,42.589848984898,2597793.4518366,-80.809025567326,2671666.9606562,47.789848984898,0,0
-71.678027330208,20.74774526892,42.594279427943,2597793.4518366,-80.809025567326,2671666.9606562,47.794279427943,0,0
-71.678026618792,20.750328251401,42.598709870987,2597793.4518366,-80.809025567326,2671666.9606562,47.798709870987,0,0
-71.678025907375,20.752911233882,42.603140314031,2597793.4518366,-80.809025567326,2671666.9606562,47.803140314031,0,0
-71.678025195958,20.755494216364,42.607570757076,2597793.4518366,-80.809025567326,2671666.9606562,47.807570757076,0,0
-71.678024484542,20.758077198845,42.61200120012,2597793.4518366,-80.809025567326,2671666.9606562,47.81200120012,0,0
-71.678023773125,20.760660181326,42.616431643164,2597793.4518366,-80.809025567326,2671666.9606562,47.816431643164,0,0
-71.678023061709,20.763243163807,42.620862086209,2597793.4518366,-80.809025567326,2671666.9606562,47.820862086209,0,0
-71.678022350292,20.765826146288,42.625292529253,2597793.4518366,-80.809025567326,2671666.9606562,47.825292529253,0,0
-71.678021638876,20.76840912877,42.629722972297,2597793.4518366,-80.809025567326,2671666.9606562,47.829722972297,0,0
-71.678020927459,20.770992111251,42.634153415342,2597793.4518366,-80.809025567326,2671666.9606562,47.834153415342,0,0
-71.678020216042,20.773575093732,42.638583858386,2597793.4518366,-80.809025567326,2671666.9606562,47.838583858386,0,0
-71.678019504626,20.776158076213,42.64301430143,2597793.4518366,-80.809025567326,2671666.9606562,47.84301430143,0,0
-71.678018793209,20.778741058694,42.647444744474,2597793.4518366,-80.809025567326,2671666.9606562,47.847444744474,0,0
-71.678018081793,20.781324041176,42.651875187519,2597793.4518366,-80.809025567326,2671666.9606562,47.851875187519,0,0
-71.678017370376,20.783907023657,42.656305630563,2597793.4518366,-80.809025567326,2671666.9606562,47.856305630563,0,0
-71.67801665896,20.786490006138,42.660736073607,2597793.4518366,-80.809025567326,2671666.9606562,47.860736073607,0,0
-71.678015947543,20.789072988619,42.665166516652,2597793.4518366,-80.809025567326,2671666.9606562,47.865166516652,0,0
-71.678015236126,20.791655971101,42.669596959696,2597793.4518366,-80.809025567326,2671666.9606562,47.869596959696,0,0
-71.67801452471,20.794238953582,42.67402740274,2597793.4518366,-80.809025567326,2671666.9606562,47.87402740274,0,0
-71.678013813293,20.796821936063,42.678457845785,2597793.4518366,-80.809025567326,2671666.9606562,47.878457845785,0,0
-71.678013101877,20.799404918544,42.682888288829,2597793.4518366,-80.809025567326,2671666.9606562,47.882888288829,0,0
-71.67801239046,20.801987901025,42.687318731873,2597793.4518366,-80.809025567326,2671666.9606562,47.887318731873,0,0
-71.678011679044,20.804570883507,42.691749174917,2597793.4518366,-80.809025567326,2671666.9606562,47.891749174917,0,0
-71.678010967627,20.807153865988,42.696179617962,2597793.4518366,-80.809025567326,2671666.9606562,47.896179617962,0,0
-71.678010256211,20.809736848469,42.700610061006,2597793.4518366,-80.809025567326,2671666.9606562,47.900610061006,0,0
-71.678009544794,20.81231983095,42.70504050405,2597793.4518366,-80.809025567326,2671666.9606562,47.90504050405,0,0
-71.678008833377,20.814902813432,42.709470947095,2597793.4518366,-80.809025567326,2671666.9606562,47.909470947095,0,0
-71.678008121961,20.817485795913,42.713901390139,2597793.4518366,-80.809025567326,2671666.9606562,47.913901390139,0,0
-71.678007410544,20.820068778394,42.718331833183,2597793.4518366,-80.809025567326,2671666.9606562,47.918331833183,0,0
-71.678006699128,20.822651760875,42.722762276228,2597793.4518366,-80.809025567326,2671666.9606562,47.922762276228,0,0
-71.678005987711,20.825234743356,42.727192719272,2597793.4518366,-80.809025567326,2671666.9606562,47.927192719272,0,0
-71.678005276295,20.827817725838,42.731623162316,2597793.4518366,-80.809025567326,2671666.9606562,47.931623162316,0,0
-71.678004564878,20.830400708319,42.736053605361,2597793.4518366,-80.809025567326,2671666.9606562,47.936053605361,0,0
-71.678003853461,20.8329836908,42.740484048405,2597793.4518366,-80.809025567326,2671666.9606562,47.940484048405,0,0
-71.678003142045,20.835566673281,42.744914491449,2597793.4518366,-80.809025567326,2671666.9606562,47.944914491449,0,0
-71.678002430628,20.838149655763,42.749344934493,2597793.4518366,-80.809025567326,2671666.9606562,47.949344934493,0,0
-71.678001719212,20.840732638244,42.753775377538,2597793.4518366,-80.809025567326,2671666.9606562,47.953775377538,0,0
-71.678001007795,20.843315620725,42.758205820582,2597793.4518366,-80.809025567326,2671666.9606562,47.958205820582,0,0
-71.678000296379,20.845898603206,42.762636263626,2597793.4518366,-80.809025567326,2671666.9606562,47.962636263626,0,0
-71.677999584962,20.848481585687,42.767066706671,2597793.4518366,-80.809025567326,2671666.9606562,47.967066706671,0,0
-71.677998873546,20.851064568169,42.771497149715,2597793.4518366,-80.809025567326,2671666.9606562,47.971497149715,0,0
-71.677998162129,20.85364755065,42.775927592759,2597793.4518366,-80.809025567326,2671666.9606562,47.975927592759,0,0
-71.677997450712,20.856230533131,42.780358035804,2597793.4518366,-80.809025567326,2671666.9606562,47.980358035804,0,0
-71.677996739296,20.858813515612,42.784788478848,2597793.4518366,-80.809025567326,2671666.9606562,47.984788478848,0,0
-71.677996027879,20.861396498093,42.789218921892,2597793.4518366,-80.809025567326,2671666.9606562,47.989218921892,0,0
-71.677995316463,20.863979480575,42.793649364936,2597793.4518366,-80.809025567326,2671666.9606562,47.993649364936,0,0
-71.677994605046,20.866562463056,42.798079807981,2597793.4518366,-80.809025567326,2671666.9606562,47.998079807981,0,0
-71.67799389363,20.869145445537,42.802510251025,2597793.4518366,-80.809025567326,2671666.9606562,48.002510251025,0,0
-71.677993182213,20.871728428018,42.806940694069,2597793.4518366,-80.809025567326,2671666.9606562,48.006940694069,0,0
-71.677992470796,20.8743114105,42.811371137114,2597793.4518366,-80.809025567326,2671666.9606562,48.011371137114,0,0
-71.67799175938,20.876894392981,42.815801580158,2597793.4518366,-80.809025567326,2671666.9606562,48.015801580158,0,0
-71.677991047963,20.879477375462,42.820232023202,2597793.4518366,-80.809025567326,2671666.9606562,48.020232023202,0,0
-71.677990336547,20.882060357943,42.824662466247,2597793.4518366,-80.809025567326,2671666.9606562,48.024662466247,0,0
-71.67798962513,20.884643340424,42.829092909291,2597793.4518366,-80.809025567326,2671666.9606562,48.029092909291,0,0
-71.677988913714,20.887226322906,42.833523352335,2597793.4518366,-80.809025567326,2671666.9606562,48.033523352335,0,0
-71.677988202297,20.889809305387,42.83795379538,2597793.4518366,-80.809025567326,2671666.9606562,48.03795379538,0,0
-71.67798749088,20.892392287868,42.842384238424,2597793.4518366,-80.809025567326,2671666.9606562,48.042384238424,0,0
-71.677986779464,20.894975270349,42.846814681468,2597793.4518366,-80.809025567326,2671666.9606562,48.046814681468,0,0
-71.677986068047,20.897558252831,42.851245124512,2597793.4518366,-80.809025567326,2671666.9606562,48.051245124512,0,0
-71.677985356631,20.900141235312,42.855675567557,2597793.4518366,-80.809025567326,2671666.9606562,48.055675567557,0,0
-71.677984645214,20.902724217793,42.860106010601,2597793.4518366,-80.809025567326,2671666.9606562,48.060106010601,0,0
-71.677983933798,20.905307200274,42.864536453645,2597793.4518366,-80.809025567326,2671666.9606562,48.064536453645,0,0
-71.677983222381,20.907890182755,42.86896689669,2597793.4518366,-80.809025567326,2671666.9606562,48.06896689669,0,0
-71.677982510965,20.910473165237,42.873397339734,2597793.4518366,-80.809025567326,2671666.9606562,48.073397339734,0,0
-71.677981799548,20.913056147718,42.877827782778,2597793.4518366,-80.809025567326,2671666.9606562,48.077827782778,0,0
-71.677981088131,20.915639130199,42.882258225823,2597793.4518366,-80.809025567326,2671666.9606562,48.082258225823,0,0
-71.677980376715,20.91822211268,42.886688668867,2597793.4518366,-80.809025567326,2671666.9606562,48.086688668867,0,0
-71.677979665298,20.920805095161,42.891119111911,2597793.4518366,-80.809025567326,2671666.9606562,48.091119111911,0,0
-71.677978953882,20.923388077643,42.895549554955,2597793.4518366,-80.809025567326,2671666.9606562,48.095549554955,0,0
-71.677978242465,20.925971060124,42.899979998,2597793.4518366,-80.809025567326,2671666.9606562,48.099979998,0,0
-71.677977531049,20.928554042605,42.904410441044,2597793.4518366,-80.809025567326,2671666.9606562,48.104410441044,0,0
-71.677976819632,20.931137025086,42.908840884088,2597793.4518366,-80.809025567326,2671666.9606562,48.108840884088,0,0
-71.677976108215,20.933720007568,42.913271327133,2597793.4518366,-80.809025567326,2671666.9606562,48.113271327133,0,0
-71.677975396799,20.936302990049,42.917701770177,2597793.4518366,-80.809025567326,2671666.9606562,48.117701770177,0,0
-71.677974685382,20.93888597253,42.922132213221,2597793.4518366,-80.809025567326,2671666.9606562,48.122132213221,0,0
-71.677973973966,20.941468955011,42.926562656266,2597793.4518366,-80.809025567326,2671666.9606562,48.126562656266,0,0
-71.677973262549,20.944051937492,42.93099309931,2597793.4518366,-80.809025567326,2671666.9606562,48.13099309931,0,0
-71.677972551133,20.946634919974,42.935423542354,2597793.4518366,-80.809025567326,2671666.9606562,48.135423542354,0,0
-71.677971839716,20.949217902455,42.939853985399,2597793.4518366,-80.809025567326,2671666.9606562,48.139853985399,0,0
-71.677971128299,20.951800884936,42.944284428443,2597793.4518366,-80.809025567326,2671666.9606562,48.144284428443,0,0
-71.677970416883,20.954383867417,42.948714871487,2597793.4518366,-80.809025567326,2671666.9606562,48.148714871487,0,0
-71.677969705466,20.956966849899,42.953145314531,2597793.4518366,-80.809025567326,2671666.9606562,48.153145314531,0,0
-71.67796899405,20.95954983238,42.957575757576,2597793.4518366,-80.809025567326,2671666.9606562,48.157575757576,0,0
-71.677968282633,20.962132814861,42.96200620062,2597793.4518366,-80.809025567326,2671666.9606562,48.16200620062,0,0
-71.677967571217,20.964715797342,42.966436643664,2597793.4518366,-80.809025567326,2671666.9606562,48.166436643664,0,0
-71.6779668598,20.967298779823,42.970867086709,2597793.4518366,-80.809025567326,2671666.9606562,48.170867086709,0,0
-71.677966148384,20.969881762305,42.975297529753,2597793.4518366,-80.809025567326,2671666.9606562,48.175297529753,0,0
-71.677965436967,20.972464744786,42.979727972797,2597793.4518366,-80.809025567326,2671666.9606562,48.179727972797,0,0
-71.67796472555,20.975047727267,42.984158415842,2597793.4518366,-80.809025567326,2671666.9606562,48.184158415842,0,0
-71.677964014134,20.977630709748,42.988588858886,2597793.4518366,-80.809025567326,2671666.9606562,48.188588858886,0,0
-71.677963302717,20.980213692229,42.99301930193,2597793.4518366,-80.809025567326,2671666.9606562,48.19301930193,0,0
-71.677962591301,20.982796674711,42.997449744974,2597793.4518366,-80.809025567326,2671666.9606562,48.197449744974,0,0
-71.677961879884,20.985379657192,43.001880188019,2597793.4518366,-80.809025567326,2671666.9606562,48.201880188019,0,0
-71.677961168468,20.987962639673,43.006310631063,2597793.4518366,-80.809025567326,2671666.9606562,48.206310631063,0,0
-71.677960457051,20.990545622154,43.010741074107,2597793.4518366,-80.809025567326,2671666.9606562,48.210741074107,0,0
-71.677959745634,20.993128604636,43.015171517152,2597793.4518366,-80.809025567326,2671666.9606562,48.215171517152,0,0
-71.677959034218,20.995711587117,43.019601960196,2597793.4518366,-80.809025567326,2671666.9606562,48.219601960196,0,0
-71.677958322801,20.998294569598,43.02403240324,2597793.4518366,-80.809025567326,2671666.9606562,48.22403240324,0,0
-71.677957611385,21.000877552079,43.028462846285,2597793.4518366,-80.809025567326,2671666.9606562,48.228462846285,0,0
-71.677956899968,21.00346053456,43.032893289329,2597793.4518366,-80.809025567326,2671666.9606562,48.232893289329,0,0
-71.677956188552,21.006043517042,43.037323732373,2597793.4518366,-80.809025567326,2671666.9606562,48.237323732373,0,0
-71.677955477135,21.008626499523,43.041754175418,2597793.4518366,-80.809025567326,2671666.9606562,48.241754175418,0,0
-71.677954765718,21.011209482004,43.046184618462,2597793.4518366,-80.809025567326,2671666.9606562,48.246184618462,0,0
-71.677954054302,21.013792464485,43.050615061506,2597793.4518366,-80.809025567326,2671666.9606562,48.250615061506,0,0
-71.677953342885,21.016375446967,43.05504550455,2597793.4518366,-80.809025567326,2671666.9606562,48.25504550455,0,0
-71.677952631469,21.018958429448,43.059475947595,2597793.4518366,-80.809025567326,2671666.9606562,48.259475947595,0,0
-71.677951920052,21.021541411929,43.063906390639,2597793.4518366,-80.809025567326,2671666.9606562,48.263906390639,0,0
-71.677951208636,21.02412439441,43.068336833683,2597793.4518366,-80.809025567326,2671666.9606562,48.268336833683,0,0
-71.677950497219,21.026707376891,43.072767276728,2597793.4518366,-80.809025567326,2671666.9606562,48.272767276728,0,0
-71.677949785803,21.029290359373,43.077197719772,2597793.4518366,-80.809025567326,2671666.9606562,48.277197719772,0,0
-71.677949074386,21.031873341854,43.081628162816,2597793.4518366,-80.809025567326,2671666.9606562,48.281628162816,0,0
-71.677948362969,21.034456324335,43.086058605861,2597793.4518366,-80.809025567326,2671666.9606562,48.286058605861,0,0
-71.677947651553,21.037039306816,43.090489048905,2597793.4518366,-80.809025567326,2671666.9606562,48.290489048905,0,0
-71.677946940136,21.039622289298,43.094919491949,2597793.4518366,-80.809025567326,2671666.9606562,48.294919491949,0,0
-71.67794622872,21.042205271779,43.099349934993,2597793.4518366,-80.809025567326,2671666.9606562,48.299349934994,0,0
-71.677945517303,21.04478825426,43.103780378038,2597793.4518366,-80.809025567326,2671666.9606562,48.303780378038,0,0
-71.677944805887,21.047371236741,43.108210821082,2597793.4518366,-80.809025567326,2671666.9606562,48.308210821082,0,0
-71.67794409447,21.049954219222,43.112641264126,2597793.4518366,-80.809025567326,2671666.9606562,48.312641264126,0,0
-71.677943383053,21.052537201704,43.117071707171,2597793.4518366,-80.809025567326,2671666.9606562,48.317071707171,0,0
-71.677942671637,21.055120184185,43.121502150215,2597793.4518366,-80.809025567326,2671666.9606562,48.321502150215,0,0
-71.67794196022,21.057703166666,43.125932593259,2597793.4518366,-80.809025567326,2671666.9606562,48.325932593259,0,0
-71.677941248804,21.060286149147,43.130363036304,2597793.4518366,-80.809025567326,2671666.9606562,48.330363036304,0,0
-71.677940537387,21.062869131628,43.134793479348,2597793.4518366,-80.809025567326,2671666.9606562,48.334793479348,0,0
-71.677939825971,21.06545211411,43.139223922392,2597793.4518366,-80.809025567326,2671666.9606562,48.339223922392,0,0
-71.677939114554,21.068035096591,43.143654365437,2597793.4518366,-80.809025567326,2671666.9606562,48.343654365437,0,0
-71.677938403137,21.070618079072,43.148084808481,2597793.4518366,-80.809025567326,2671666.9606562,48.348084808481,0,0
-71.677937691721,21.073201061553,43.152515251525,2597793.4518366,-80.809025567326,2671666.9606562,48.352515251525,0,0
-71.677936980304,21.075784044035,43.156945694569,2597793.4518366,-80.809025567326,2671666.9606562,48.356945694569,0,0
-71.677936268888,21.078367026516,43.161376137614,2597793.4518366,-80.809025567326,2671666.9606562,48.361376137614,0,0
-71.677935557471,21.080950008997,43.165806580658,2597793.4518366,-80.809025567326,2671666.9606562,48.365806580658,0,0
-71.677934846055,21.083532991478,43.170237023702,2597793.4518366,-80.809025567326,2671666.9606562,48.370237023702,0,0
-71.677934134638,21.086115973959,43.174667466747,2597793.4518366,-80.809025567326,2671666.9606562,48.374667466747,0,0
-71.677933423222,21.088698956441,43.179097909791,2597793.4518366,-80.809025567326,2671666.9606562,48.379097909791,0,0
-71.677932711805,21.091281938922,43.183528352835,2597793.4518366,-80.809025567326,2671666.9606562,48.383528352835,0,0
-71.677932000388,21.093864921403,43.18795879588,2597793.4518366,-80.809025567326,2671666.9606562,48.38795879588,0,0
-71.677931288972,21.096447903884,43.192389238924,2597793.4518366,-80.809025567326,2671666.9606562,48.392389238924,0,0
-71.677930577555,21.099030886366,43.196819681968,2597793.4518366,-80.809025567326,2671666.9606562,48.396819681968,0,0
-71.677929866139,21.101613868847,43.201250125012,2597793.4518366,-80.809025567326,2671666.9606562,48.401250125013,0,0
-71.677929154722,21.104196851328,43.205680568057,2597793.4518366,-80.809025567326,2671666.9606562,48.405680568057,0,0
-71.677928443306,21.106779833809,43.210111011101,2597793.4518366,-80.809025567326,2671666.9606562,48.410111011101,0,0
-71.677927731889,21.10936281629,43.214541454145,2597793.4518366,-80.809025567326,2671666.9606562,48.414541454145,0,0
-71.677927020472,21.111945798772,43.21897189719,2597793.4518366,-80.809025567326,2671666.9606562,48.41897189719,0,0
-71.677926309056,21.114528781253,43.223402340234,2597793.4518366,-80.809025567326,2671666.9606562,48.423402340234,0,0
-71.677925597639,21.117111763734,43.227832783278,2597793.4518366,-80.809025567326,2671666.9606562,48.427832783278,0,0
-71.677924886223,21.119694746215,43.232263226323,2597793.4518366,-80.809025567326,2671666.9606562,48.432263226323,0,0
-71.677924174806,21.122277728696,43.236693669367,2597793.4518366,-80.809025567326,2671666.9606562,48.436693669367,0,0
-71.67792346339,21.124860711178,43.241124112411,2597793.4518366,-80.809025567326,2671666.9606562,48.441124112411,0,0
-71.677922751973,21.127443693659,43.245554555456,2597793.4518366,-80.809025567326,2671666.9606562,48.445554555456,0,0
-71.677922040557,21.13002667614,43.2499849985,2597793.4518366,-80.809025567326,2671666.9606562,48.4499849985,0,0
-71.67792132914,21.132609658621,43.254415441544,2597793.4518366,-80.809025567326,2671666.9606562,48.454415441544,0,0
-71.677920617723,21.135192641103,43.258845884588,2597793.4518366,-80.809025567326,2671666.9606562,48.458845884588,0,0
-71.677919906307,21.137775623584,43.263276327633,2597793.4518366,-80.809025567326,2671666.9606562,48.463276327633,0,0
-71.67791919489,21.140358606065,43.267706770677,2597793.4518366,-80.809025567326,2671666.9606562,48.467706770677,0,0
-71.677918483474,21.142941588546,43.272137213721,2597793.4518366,-80.809025567326,2671666.9606562,48.472137213721,0,0
-71.677917772057,21.145524571027,43.276567656766,2597793.4518366,-80.809025567326,2671666.9606562,48.476567656766,0,0
-71.677917060641,21.148107553509,43.28099809981,2597793.4518366,-80.809025567326,2671666.9606562,48.48099809981,0,0
-71.677916349224,21.15069053599,43.285428542854,2597793.4518366,-80.809025567326,2671666.9606562,48.485428542854,0,0
-71.677915637807,21.153273518471,43.289858985899,2597793.4518366,-80.809025567326,2671666.9606562,48.489858985899,0,0
-71.677914926391,21.155856500952,43.294289428943,2597793.4518366,-80.809025567326,2671666.9606562,48.494289428943,0,0
-71.677914214974,21.158439483434,43.298719871987,2597793.4518366,-80.809025567326,2671666.9606562,48.498719871987,0,0
-71.677913503558,21.161022465915,43.303150315032,2597793.4518366,-80.809025567326,2671666.9606562,48.503150315032,0,0
-71.677912792141,21.163605448396,43.307580758076,2597793.4518366,-80.809025567326,2671666.9606562,48.507580758076,0,0
-71.677912080725,21.166188430877,43.31201120112,2597793.4518366,-80.809025567326,2671666.9606562,48.51201120112,0,0
-71.677911369308,21.168771413358,43.316441644164,2597793.4518366,-80.809025567326,2671666.9606562,48.516441644164,0,0
-71.677910657891,21.17135439584,43.320872087209,2597793.4518366,-80.809025567326,2671666.9606562,48.520872087209,0,0
-71.677909946475,21.173937378321,43.325302530253,2597793.4518366,-80.809025567326,2671666.9606562,48.525302530253,0,0
-71.677909235058,21.176520360802,43.329732973297,2597793.4518366,-80.809025567326,2671666.9606562,48.529732973297,0,0
-71.677908523642,21.179103343283,43.334163416342,2597793.4518366,-80.809025567326,2671666.9606562,48.534163416342,0,0
-71.677907812225,21.181686325764,43.338593859386,2597793.4518366,-80.809025567326,2671666.9606562,48.538593859386,0,0
-71.677907100809,21.184269308246,43.34302430243,2597793.4518366,-80.809025567326,2671666.9606562,48.54302430243,0,0
-71.677906389392,21.186852290727,43.347454745475,2597793.4518366,-80.809025567326,2671666.9606562,48.547454745475,0,0
-71.677905677976,21.189435273208,43.351885188519,2597793.4518366,-80.809025567326,2671666.9606562,48.551885188519,0,0
-71.677904966559,21.192018255689,43.356315631563,2597793.4518366,-80.809025567326,2671666.9606562,48.556315631563,0,0
-71.677904255142,21.194601238171,43.360746074607,2597793.4518366,-80.809025567326,2671666.9606562,48.560746074607,0,0
-71.677903543726,21.197184220652,43.365176517652,2597793.4518366,-80.809025567326,2671666.9606562,48.565176517652,0,0
-71.677902832309,21.199767203133,43.369606960696,2597793.4518366,-80.809025567326,2671666.9606562,48.569606960696,0,0
-71.677902120893,21.202350185614,43.37403740374,2597793.4518366,-80.809025567326,2671666.9606562,48.57403740374,0,0
-71.677901409476,21.204933168095,43.378467846785,2597793.4518366,-80.809025567326,2671666.9606562,48.578467846785,0,0
-71.67790069806,21.207516150577,43.382898289829,2597793.4518366,-80.809025567326,2671666.9606562,48.582898289829,0,0
-71.677899986643,21.210099133058,43.387328732873,2597793.4518366,-80.809025567326,2671666.9606562,48.587328732873,0,0
-71.677899275226,21.212682115539,43.391759175918,2597793.4518366,-80.809025567326,2671666.9606562,48.591759175918,0,0
-71.67789856381,21.21526509802,43.396189618962,2597793.4518366,-80.809025567326,2671666.9606562,48.596189618962,0,0
-71.677897852393,21.217848080502,43.400620062006,2597793.4518366,-80.809025567326,2671666.9606562,48.600620062006,0,0
-71.677897140977,21.220431062983,43.405050505051,2597793.4518366,-80.809025567326,2671666.9606562,48.605050505051,0,0
-71.67789642956,21.223014045464,43.409480948095,2597793.4518366,-80.809025567326,2671666.9606562,48.609480948095,0,0
-71.677895718144,21.225597027945,43.413911391139,2597793.4518366,-80.809025567326,2671666.9606562,48.613911391139,0,0
-71.677895006727,21.228180010426,43.418341834183,2597793.4518366,-80.809025567326,2671666.9606562,48.618341834183,0,0
-71.67789429531,21.230762992908,43.422772277228,2597793.4518366,-80.809025567326,2671666.9606562,48.622772277228,0,0
-71.677893583894,21.233345975389,43.427202720272,2597793.4518366,-80.809025567326,2671666.9606562,48.627202720272,0,0
-71.677892872477,21.23592895787,43.431633163316,2597793.4518366,-80.809025567326,2671666.9606562,48.631633163316,0,0
-71.677892161061,21.238511940351,43.436063606361,2597793.4518366,-80.809025567326,2671666.9606562,48.636063606361,0,0
-71.677891449644,21.241094922833,43.440494049405,2597793.4518366,-80.809025567326,2671666.9606562,48.640494049405,0,0
-71.677890738228,21.243677905314,43.444924492449,2597793.4518366,-80.809025567326,2671666.9606562,48.644924492449,0,0
-71.677890026811,21.246260887795,43.449354935494,2597793.4518366,-80.809025567326,2671666.9606562,48.649354935494,0,0
-71.677889315395,21.248843870276,43.453785378538,2597793.4518366,-80.809025567326,2671666.9606562,48.653785378538,0,0
-71.677888603978,21.251426852757,43.458215821582,2597793.4518366,-80.809025567326,2671666.9606562,48.658215821582,0,0
-71.677887892561,21.254009835239,43.462646264626,2597793.4518366,-80.809025567326,2671666.9606562,48.662646264626,0,0
-71.677887181145,21.25659281772,43.467076707671,2597793.4518366,-80.809025567326,2671666.9606562,48.667076707671,0,0
-71.677886469728,21.259175800201,43.471507150715,2597793.4518366,-80.809025567326,2671666.9606562,48.671507150715,0,0
-71.677885758312,21.261758782682,43.475937593759,2597793.4518366,-80.809025567326,2671666.9606562,48.675937593759,0,0
-71.677885046895,21.264341765163,43.480368036804,2597793.4518366,-80.809025567326,2671666.9606562,48.680368036804,0,0
-71.677884335479,21.266924747645,43.484798479848,2597793.4518366,-80.809025567326,2671666.9606562,48.684798479848,0,0
-71.677883624062,21.269507730126,43.489228922892,2597793.4518366,-80.809025567326,2671666.9606562,48.689228922892,0,0
-71.677882912645,21.272090712607,43.493659365937,2597793.4518366,-80.809025567326,2671666.9606562,48.693659365937,0,0
-71.677882201229,21.274673695088,43.498089808981,2597793.4518366,-80.809025567326,2671666.9606562,48.698089808981,0,0
-71.677881489812,21.27725667757,43.502520252025,2597793.4518366,-80.809025567326,2671666.9606562,48.702520252025,0,0
-71.677880778396,21.279839660051,43.50695069507,2597793.4518366,-80.809025567326,2671666.9606562,48.70695069507,0,0
-71.677880066979,21.282422642532,43.511381138114,2597793.4518366,-80.809025567326,2671666.9606562,48.711381138114,0,0
-71.677879355563,21.285005625013,43.515811581158,2597793.4518366,-80.809025567326,2671666.9606562,48.715811581158,0,0
-71.677878644146,21.287588607494,43.520242024202,2597793.4518366,-80.809025567326,2671666.9606562,48.720242024202,0,0
-71.677877932729,21.290171589976,43.524672467247,2597793.4518366,-80.809025567326,2671666.9606562,48.724672467247,0,0
-71.677877221313,21.292754572457,43.529102910291,2597793.4518366,-80.809025567326,2671666.9606562,48.729102910291,0,0
-71.677876509896,21.295337554938,43.533533353335,2597793.4518366,-80.809025567326,2671666.9606562,48.733533353335,0,0
-71.67787579848,21.297920537419,43.53796379638,2597793.4518366,-80.809025567326,2671666.9606562,48.73796379638,0,0
-71.677875087063,21.300503519901,43.542394239424,2597793.4518366,-80.809025567326,2671666.9606562,48.742394239424,0,0
-71.677874375647,21.303086502382,43.546824682468,2597793.4518366,-80.809025567326,2671666.9606562,48.746824682468,0,0
-71.67787366423,21.305669484863,43.551255125513,2597793.4518366,-80.809025567326,2671666.9606562,48.751255125513,0,0
-71.677872952814,21.308252467344,43.555685568557,2597793.4518366,-80.809025567326,2671666.9606562,48.755685568557,0,0
-71.677872241397,21.310835449825,43.560116011601,2597793.4518366,-80.809025567326,2671666.9606562,48.760116011601,0,0
-71.67787152998,21.313418432307,43.564546454645,2597793.4518366,-80.809025567326,2671666.9606562,48.764546454645,0,0
-71.677870818564,21.316001414788,43.56897689769,2597793.4518366,-80.809025567326,2671666.9606562,48.76897689769,0,0
-71.677870107147,21.318584397269,43.573407340734,2597793.4518366,-80.809025567326,2671666.9606562,48.773407340734,0,0
-71.677869395731,21.32116737975,43.577837783778,2597793.4518366,-80.809025567326,2671666.9606562,48.777837783778,0,0
-71.677868684314,21.323750362231,43.582268226823,2597793.4518366,-80.809025567326,2671666.9606562,48.782268226823,0,0
-71.677867972898,21.326333344713,43.586698669867,2597793.4518366,-80.809025567326,2671666.9606562,48.786698669867,0,0
-71.677867261481,21.328916327194,43.591129112911,2597793.4518366,-80.809025567326,2671666.9606562,48.791129112911,0,0
-71.677866550064,21.331499309675,43.595559555956,2597793.4518366,-80.809025567326,2671666.9606562,48.795559555956,0,0
-71.677865838648,21.334082292156,43.599989999,2597793.4518366,-80.809025567326,2671666.9606562,48.799989999,0,0
-71.677865127231,21.336665274638,43.604420442044,2597793.4518366,-80.809025567326,2671666.9606562,48.804420442044,0,0
-71.677864415815,21.339248257119,43.608850885089,2597793.4518366,-80.809025567326,2671666.9606562,48.808850885089,0,0
-71.677863704398,21.3418312396,43.613281328133,2597793.4518366,-80.809025567326,2671666.9606562,48.813281328133,0,0
-71.677862992982,21.344414222081,43.617711771177,2597793.4518366,-80.809025567326,2671666.9606562,48.817711771177,0,0
-71.677862281565,21.346997204562,43.622142214221,2597793.4518366,-80.809025567326,2671666.9606562,48.822142214221,0,0
-71.677861570148,21.349580187044,43.626572657266,2597793.4518366,-80.809025567326,2671666.9606562,48.826572657266,0,0
-71.677860858732,21.352163169525,43.63100310031,2597793.4518366,-80.809025567326,2671666.9606562,48.83100310031,0,0
-71.677860147315,21.354746152006,43.635433543354,2597793.4518366,-80.809025567326,2671666.9606562,48.835433543354,0,0
-71.677859435899,21.357329134487,43.639863986399,2597793.4518366,-80.809025567326,2671666.9606562,48.839863986399,0,0
-71.677858724482,21.359912116969,43.644294429443,2597793.4518366,-80.809025567326,2671666.9606562,48.844294429443,0,0
-71.677858013066,21.36249509945,43.648724872487,2597793.4518366,-80.809025567326,2671666.9606562,48.848724872487,0,0
-71.677857301649,21.365078081931,43.653155315532,2597793.4518366,-80.809025567326,2671666.9606562,48.853155315532,0,0
-71.677856590233,21.367661064412,43.657585758576,2597793.4518366,-80.809025567326,2671666.9606562,48.857585758576,0,0
-71.677855878816,21.370244046893,43.66201620162,2597793.4518366,-80.809025567326,2671666.9606562,48.86201620162,0,0
-71.677855167399,21.372827029375,43.666446644664,2597793.4518366,-80.809025567326,2671666.9606562,48.866446644664,0,0
-71.677854455983,21.375410011856,43.670877087709,2597793.4518366,-80.809025567326,2671666.9606562,48.870877087709,0,0
-71.677853744566,21.377992994337,43.675307530753,2597793.4518366,-80.809025567326,2671666.9606562,48.875307530753,0,0
-71.67785303315,21.380575976818,43.679737973797,2597793.4518366,-80.809025567326,2671666.9606562,48.879737973797,0,0
-71.677852321733,21.383158959299,43.684168416842,2597793.4518366,-80.809025567326,2671666.9606562,48.884168416842,0,0
-71.677851610317,21.385741941781,43.688598859886,2597793.4518366,-80.809025567326,2671666.9606562,48.888598859886,0,0
-71.6778508989,21.388324924262,43.69302930293,2597793.4518366,-80.809025567326,2671666.9606562,48.89302930293,0,0
-71.677850187483,21.390907906743,43.697459745975,2597793.4518366,-80.809025567326,2671666.9606562,48.897459745975,0,0
-71.677849476067,21.393490889224,43.701890189019,2597793.4518366,-80.809025567326,2671666.9606562,48.901890189019,0,0
-71.67784876465,21.396073871706,43.706320632063,2597793.4518366,-80.809025567326,2671666.9606562,48.906320632063,0,0
-71.677848053234,21.398656854187,43.710751075108,2597793.4518366,-80.809025567326,2671666.9606562,48.910751075108,0,0
-71.677847341817,21.401239836668,43.715181518152,2597793.4518366,-80.809025567326,2671666.9606562,48.915181518152,0,0
-71.677846630401,21.403822819149,43.719611961196,2597793.4518366,-80.809025567326,2671666.9606562,48.919611961196,0,0
-71.677845918984,21.40640580163,43.72404240424,2597793.4518366,-80.809025567326,2671666.9606562,48.92404240424,0,0
-71.677845207568,21.408988784112,43.728472847285,2597793.4518366,-80.809025567326,2671666.9606562,48.928472847285,0,0
-71.677844496151,21.411571766593,43.732903290329,2597793.4518366,-80.809025567326,2671666.9606562,48.932903290329,0,0
-71.677843784734,21.414154749074,43.737333733373,2597793.4518366,-80.809025567326,2671666.9606562,48.937333733373,0,0
-71.677843073318,21.416737731555,43.741764176418,2597793.4518366,-80.809025567326,2671666.9606562,48.941764176418,0,0
-71.677842361901,21.419320714037,43.746194619462,2597793.4518366,-80.809025567326,2671666.9606562,48.946194619462,0,0
-71.677841650485,21.421903696518,43.750625062506,2597793.4518366,-80.809025567326,2671666.9606562,48.950625062506,0,0
-71.677840939068,21.424486678999,43.755055505551,2597793.4518366,-80.809025567326,2671666.9606562,48.955055505551,0,0
-71.677840227652,21.42706966148,43.759485948595,2597793.4518366,-80.809025567326,2671666.9606562,48.959485948595,0,0
-71.677839516235,21.429652643961,43.763916391639,2597793.4518366,-80.809025567326,2671666.9606562,48.963916391639,0,0
-71.677838804818,21.432235626443,43.768346834683,2597793.4518366,-80.809025567326,2671666.9606562,48.968346834683,0,0
-71.677838093402,21.434818608924,43.772777277728,2597793.4518366,-80.809025567326,2671666.9606562,48.972777277728,0,0
-71.677837381985,21.437401591405,43.777207720772,2597793.4518366,-80.809025567326,2671666.9606562,48.977207720772,0,0
-71.677836670569,21.439984573886,43.781638163816,2597793.4518366,-80.809025567326,2671666.9606562,48.981638163816,0,0
-71.677835959152,21.442567556368,43.786068606861,2597793.4518366,-80.809025567326,2671666.9606562,48.986068606861,0,0
-71.677835247736,21.445150538849,43.790499049905,2597793.4518366,-80.809025567326,2671666.9606562,48.990499049905,0,0
-71.677834536319,21.44773352133,43.794929492949,2597793.4518366,-80.809025567326,2671666.9606562,48.994929492949,0,0
-71.677833824902,21.450316503811,43.799359935994,2597793.4518366,-80.809025567326,2671666.9606562,48.999359935994,0,0
-71.677833113486,21.452899486292,43.803790379038,2597793.4518366,-80.809025567326,2671666.9606562,49.003790379038,0,0
-71.677832402069,21.455482468774,43.808220822082,2597793.4518366,-80.809025567326,2671666.9606562,49.008220822082,0,0
-71.677831690653,21.458065451255,43.812651265127,2597793.4518366,-80.809025567326,2671666.9606562,49.012651265127,0,0
-71.677830979236,21.460648433736,43.817081708171,2597793.4518366,-80.809025567326,2671666.9606562,49.017081708171,0,0
-71.67783026782,21.463231416217,43.821512151215,2597793.4518366,-80.809025567326,2671666.9606562,49.021512151215,0,0
-71.677829556403,21.465814398698,43.825942594259,2597793.4518366,-80.809025567326,2671666.9606562,49.025942594259,0,0
-71.677828844987,21.46839738118,43.830373037304,2597793.4518366,-80.809025567326,2671666.9606562,49.030373037304,0,0
-71.67782813357,21.470980363661,43.834803480348,2597793.4518366,-80.809025567326,2671666.9606562,49.034803480348,0,0
-71.677827422153,21.473563346142,43.839233923392,2597793.4518366,-80.809025567326,2671666.9606562,49.039233923392,0,0
-71.677826710737,21.476146328623,43.843664366437,2597793.4518366,-80.809025567326,2671666.9606562,49.043664366437,0,0
-71.67782599932,21.478729311105,43.848094809481,2597793.4518366,-80.809025567326,2671666.9606562,49.048094809481,0,0
-71.677825287904,21.481312293586,43.852525252525,2597793.4518366,-80.809025567326,2671666.9606562,49.052525252525,0,0
-71.677824576487,21.483895276067,43.85695569557,2597793.4518366,-80.809025567326,2671666.9606562,49.05695569557,0,0
-71.677823865071,21.486478258548,43.861386138614,2597793.4518366,-80.809025567326,2671666.9606562,49.061386138614,0,0
-71.677823153654,21.489061241029,43.865816581658,2597793.4518366,-80.809025567326,2671666.9606562,49.065816581658,0,0
-71.677822442237,21.491644223511,43.870247024702,2597793.4518366,-80.809025567326,2671666.9606562,49.070247024702,0,0
-71.677821730821,21.494227205992,43.874677467747,2597793.4518366,-80.809025567326,2671666.9606562,49.074677467747,0,0
-71.677821019404,21.496810188473,43.879107910791,2597793.4518366,-80.809025567326,2671666.9606562,49.079107910791,0,0
-71.677820307988,21.499393170954,43.883538353835,2597793.4518366,-80.809025567326,2671666.9606562,49.083538353835,0,0
-71.677819596571,21.501976153435,43.88796879688,2597793.4518366,-80.809025567326,2671666.9606562,49.08796879688,0,0
-71.677818885155,21.504559135917,43.892399239924,2597793.4518366,-80.809025567326,2671666.9606562,49.092399239924,0,0
-71.677818173738,21.507142118398,43.896829682968,2597793.4518366,-80.809025567326,2671666.9606562,49.096829682968,0,0
-71.677817462321,21.509725100879,43.901260126013,2597793.4518366,-80.809025567326,2671666.9606562,49.101260126013,0,0
-71.677816750905,21.51230808336,43.905690569057,2597793.4518366,-80.809025567326,2671666.9606562,49.105690569057,0,0
-71.677816039488,21.514891065842,43.910121012101,2597793.4518366,-80.809025567326,2671666.9606562,49.110121012101,0,0
-71.677815328072,21.517474048323,43.914551455146,2597793.4518366,-80.809025567326,2671666.9606562,49.114551455146,0,0
-71.677814616655,21.520057030804,43.91898189819,2597793.4518366,-80.809025567326,2671666.9606562,49.11898189819,0,0
-71.677813905239,21.522640013285,43.923412341234,2597793.4518366,-80.809025567326,2671666.9606562,49.123412341234,0,0
-71.677813193822,21.525222995766,43.927842784278,2597793.4518366,-80.809025567326,2671666.9606562,49.127842784278,0,0
-71.677812482406,21.527805978248,43.932273227323,2597793.4518366,-80.809025567326,2671666.9606562,49.132273227323,0,0
-71.677811770989,21.530388960729,43.936703670367,2597793.4518366,-80.809025567326,2671666.9606562,49.136703670367,0,0
-71.677811059572,21.53297194321,43.941134113411,2597793.4518366,-80.809025567326,2671666.9606562,49.141134113411,0,0
-71.677810348156,21.535554925691,43.945564556456,2597793.4518366,-80.809025567326,2671666.9606562,49.145564556456,0,0
-71.677809636739,21.538137908173,43.9499949995,2597793.4518366,-80.809025567326,2671666.9606562,49.1499949995,0,0
-71.677808925323,21.540720890654,43.954425442544,2597793.4518366,-80.809025567326,2671666.9606562,49.154425442544,0,0
-71.677808213906,21.543303873135,43.958855885589,2597793.4518366,-80.809025567326,2671666.9606562,49.158855885589,0,0
-71.67780750249,21.545886855616,43.963286328633,2597793.4518366,-80.809025567326,2671666.9606562,49.163286328633,0,0
-71.677806791073,21.548469838097,43.967716771677,2597793.4518366,-80.809025567326,2671666.9606562,49.167716771677,0,0
-71.677806079656,21.551052820579,43.972147214721,2597793.4518366,-80.809025567326,2671666.9606562,49.172147214721,0,0
-71.67780536824,21.55363580306,43.976577657766,2597793.4518366,-80.809025567326,2671666.9606562,49.176577657766,0,0
-71.677804656823,21.556218785541,43.98100810081,2597793.4518366,-80.809025567326,2671666.9606562,49.18100810081,0,0
-71.677803945407,21.558801768022,43.985438543854,2597793.4518366,-80.809025567326,2671666.9606562,49.185438543854,0,0
-71.67780323399,21.561384750504,43.989868986899,2597793.4518366,-80.809025567326,2671666.9606562,49.189868986899,0,0
-71.677802522574,21.563967732985,43.994299429943,2597793.4518366,-80.809025567326,2671666.9606562,49.194299429943,0,0
-71.677801811157,21.566550715466,43.998729872987,2597793.4518366,-80.809025567326,2671666.9606562,49.198729872987,0,0
-71.67780109974,21.569133697947,44.003160316032,2597793.4518366,-80.809025567326,2671666.9606562,49.203160316032,0,0
-71.677800388324,21.571716680428,44.007590759076,2597793.4518366,-80.809025567326,2671666.9606562,49.207590759076,0,0
-71.677799676907,21.57429966291,44.01202120212,2597793.4518366,-80.809025567326,2671666.9606562,49.21202120212,0,0
-71.677798965491,21.576882645391,44.016451645165,2597793.4518366,-80.809025567326,2671666.9606562,49.216451645165,0,0
-71.677798254074,21.579465627872,44.020882088209,2597793.4518366,-80.809025567326,2671666.9606562,49.220882088209,0,0
-71.677797542658,21.582048610353,44.025312531253,2597793.4518366,-80.809025567326,2671666.9606562,49.225312531253,0,0
-71.677796831241,21.584631592834,44.029742974297,2597793.4518366,-80.809025567326,2671666.9606562,49.229742974297,0,0
-71.677796119825,21.587214575316,44.034173417342,2597793.4518366,-80.809025567326,2671666.9606562,49.234173417342,0,0
-71.677795408408,21.589797557797,44.038603860386,2597793.4518366,-80.809025567326,2671666.9606562,49.238603860386,0,0
-71.677794696991,21.592380540278,44.04303430343,2597793.4518366,-80.809025567326,2671666.9606562,49.24303430343,0,0
-71.677793985575,21.594963522759,44.047464746475,2597793.4518366,-80.809025567326,2671666.9606562,49.247464746475,0,0
-71.677793274158,21.597546505241,44.051895189519,2597793.4518366,-80.809025567326,2671666.9606562,49.251895189519,0,0
-71.677792562742,21.600129487722,44.056325632563,2597793.4518366,-80.809025567326,2671666.9606562,49.256325632563,0,0
-71.677791851325,21.602712470203,44.060756075608,2597793.4518366,-80.809025567326,2671666.9606562,49.260756075608,0,0
-71.677791139909,21.605295452684,44.065186518652,2597793.4518366,-80.809025567326,2671666.9606562,49.265186518652,0,0
-71.677790428492,21.607878435165,44.069616961696,2597793.4518366,-80.809025567326,2671666.9606562,49.269616961696,0,0
-71.677789717075,21.610461417647,44.07404740474,2597793.4518366,-80.809025567326,2671666.9606562,49.27404740474,0,0
-71.677789005659,21.613044400128,44.078477847785,2597793.4518366,-80.809025567326,2671666.9606562,49.278477847785,0,0
-71.677788294242,21.615627382609,44.082908290829,2597793.4518366,-80.809025567326,2671666.9606562,49.282908290829,0,0
-71.677787582826,21.61821036509,44.087338733873,2597793.4518366,-80.809025567326,2671666.9606562,49.287338733873,0,0
-71.677786871409,21.620793347572,44.091769176918,2597793.4518366,-80.809025567326,2671666.9606562,49.291769176918,0,0
-71.677786159993,21.623376330053,44.096199619962,2597793.4518366,-80.809025567326,2671666.9606562,49.296199619962,0,0
-71.677785448576,21.625959312534,44.100630063006,2597793.4518366,-80.809025567326,2671666.9606562,49.300630063006,0,0
-71.677784737159,21.628542295015,44.105060506051,2597793.4518366,-80.809025567326,2671666.9606562,49.305060506051,0,0
-71.677784025743,21.631125277496,44.109490949095,2597793.4518366,-80.809025567326,2671666.9606562,49.309490949095,0,0
-71.677783314326,21.633708259978,44.113921392139,2597793.4518366,-80.809025567326,2671666.9606562,49.313921392139,0,0
-71.67778260291,21.636291242459,44.118351835184,2597793.4518366,-80.809025567326,2671666.9606562,49.318351835184,0,0
-71.677781891493,21.63887422494,44.122782278228,2597793.4518366,-80.809025567326,2671666.9606562,49.322782278228,0,0
-71.677781180077,21.641457207421,44.127212721272,2597793.4518366,-80.809025567326,2671666.9606562,49.327212721272,0,0
-71.67778046866,21.644040189902,44.131643164316,2597793.4518366,-80.809025567326,2671666.9606562,49.331643164316,0,0
-71.677779757244,21.646623172384,44.136073607361,2597793.4518366,-80.809025567326,2671666.9606562,49.336073607361,0,0
-71.677779045827,21.649206154865,44.140504050405,2597793.4518366,-80.809025567326,2671666.9606562,49.340504050405,0,0
-71.67777833441,21.651789137346,44.144934493449,2597793.4518366,-80.809025567326,2671666.9606562,49.344934493449,0,0
-71.677777622994,21.654372119827,44.149364936494,2597793.4518366,-80.809025567326,2671666.9606562,49.349364936494,0,0
-71.677776911577,21.656955102309,44.153795379538,2597793.4518366,-80.809025567326,2671666.9606562,49.353795379538,0,0
-71.677776200161,21.65953808479,44.158225822582,2597793.4518366,-80.809025567326,2671666.9606562,49.358225822582,0,0
-71.677775488744,21.662121067271,44.162656265627,2597793.4518366,-80.809025567326,2671666.9606562,49.362656265627,0,0
-71.677774777328,21.664704049752,44.167086708671,2597793.4518366,-80.809025567326,2671666.9606562,49.367086708671,0,0
-71.677774065911,21.667287032233,44.171517151715,2597793.4518366,-80.809025567326,2671666.9606562,49.371517151715,0,0
-71.677773354494,21.669870014715,44.175947594759,2597793.4518366,-80.809025567326,2671666.9606562,49.375947594759,0,0
-71.677772643078,21.672452997196,44.180378037804,2597793.4518366,-80.809025567326,2671666.9606562,49.380378037804,0,0
-71.677771931661,21.675035979677,44.184808480848,2597793.4518366,-80.809025567326,2671666.9606562,49.384808480848,0,0
-71.677771220245,21.677618962158,44.189238923892,2597793.4518366,-80.809025567326,2671666.9606562,49.389238923892,0,0
-71.677770508828,21.68020194464,44.193669366937,2597793.4518366,-80.809025567326,2671666.9606562,49.393669366937,0,0
-71.677769797412,21.682784927121,44.198099809981,2597793.4518366,-80.809025567326,2671666.9606562,49.398099809981,0,0
-71.677769085995,21.685367909602,44.202530253025,2597793.4518366,-80.809025567326,2671666.9606562,49.402530253025,0,0
-71.677768374579,21.687950892083,44.20696069607,2597793.4518366,-80.809025567326,2671666.9606562,49.40696069607,0,0
-71.677767663162,21.690533874564,44.211391139114,2597793.4518366,-80.809025567326,2671666.9606562,49.411391139114,0,0
-71.677766951745,21.693116857046,44.215821582158,2597793.4518366,-80.809025567326,2671666.9606562,49.415821582158,0,0
-71.677766240329,21.695699839527,44.220252025203,2597793.4518366,-80.809025567326,2671666.9606562,49.420252025203,0,0
-71.677765528912,21.698282822008,44.224682468247,2597793.4518366,-80.809025567326,2671666.9606562,49.424682468247,0,0
-71.677764817496,21.700865804489,44.229112911291,2597793.4518366,-80.809025567326,2671666.9606562,49.429112911291,0,0
-71.677764106079,21.703448786971,44.233543354335,2597793.4518366,-80.809025567326,2671666.9606562,49.433543354335,0,0
-71.677763394663,21.706031769452,44.23797379738,2597793.4518366,-80.809025567326,2671666.9606562,49.43797379738,0,0
-71.677762683246,21.708614751933,44.242404240424,2597793.4518366,-80.809025567326,2671666.9606562,49.442404240424,0,0
-71.677761971829,21.711197734414,44.246834683468,2597793.4518366,-80.809025567326,2671666.9606562,49.446834683468,0,0
-71.677761260413,21.713780716895,44.251265126513,2597793.4518366,-80.809025567326,2671666.9606562,49.451265126513,0,0
-71.677760548996,21.716363699377,44.255695569557,2597793.4518366,-80.809025567326,2671666.9606562,49.455695569557,0,0
-71.67775983758,21.718946681858,44.260126012601,2597793.4518366,-80.809025567326,2671666.9606562,49.460126012601,0,0
-71.677759126163,21.721529664339,44.264556455646,2597793.4518366,-80.809025567326,2671666.9606562,49.464556455646,0,0
-71.677758414747,21.72411264682,44.26898689869,2597793.4518366,-80.809025567326,2671666.9606562,49.46898689869,0,0
-71.67775770333,21.726695629301,44.273417341734,2597793.4518366,-80.809025567326,2671666.9606562,49.473417341734,0,0
-71.677756991913,21.729278611783,44.277847784778,2597793.4518366,-80.809025567326,2671666.9606562,49.477847784778,0,0
-71.677756280497,21.731861594264,44.282278227823,2597793.4518366,-80.809025567326,2671666.9606562,49.482278227823,0,0
-71.67775556908,21.734444576745,44.286708670867,2597793.4518366,-80.809025567326,2671666.9606562,49.486708670867,0,0
-71.677754857664,21.737027559226,44.291139113911,2597793.4518366,-80.809025567326,2671666.9606562,49.491139113911,0,0
-71.677754146247,21.739610541708,44.295569556956,2597793.4518366,-80.809025567326,2671666.9606562,49.495569556956,0,0
-71.677753434831,21.742193524189,44.3,2597793.4518366,-80.809025567326,2671666.9606562,49.5,0,0
