disp_x,disp_y,id,stress_xx,stress_xy,stress_yy,x,y,z
613.01426707982,835.53290119413,0,276599.96999905,-42636.743534332,6190196.269088,5.2,0,0
613.01426703695,835.33111212303,0.0044304430443045,276599.96999905,-42636.743534332,6190196.269088,5.2044304430443,0,0
613.01426699409,835.12932305192,0.008860886088609,276599.96999905,-42636.743534332,6190196.269088,5.2088608860886,0,0
613.01426695123,834.92753398082,0.013291329132914,276599.96999905,-42636.743534332,6190196.2690879,5.2132913291329,0,0
613.01426690837,834.72574490971,0.017721772177218,276599.96999905,-42636.743534332,6190196.269088,5.2177217721772,0,0
613.0142668716,834.52395586905,0.022152215221523,272291.13703389,36830.625787839,5977717.0140913,5.2221522152215,0,0
613.01426683753,834.32216684188,0.026582658265826,272291.13703389,36830.625787839,5977717.0140913,5.2265826582658,0,0
613.01426680347,834.12037781472,0.031013101310131,272291.13703389,36830.625787839,5977717.0140913,5.2310131013101,0,0
613.0142667694,833.91858878755,0.035443544354435,272291.13703389,36830.625787839,5977717.0140913,5.2354435443544,0,0
613.01426673534,833.71679976038,0.03987398739874,272291.13703389,36830.625787839,5977717.0140913,5.2398739873987,0,0
613.01426670127,833.51501073321,0.044304430443044,272291.13703389,36830.625787839,5977717.0140913,5.244304430443,0,0
613.0142666672,833.31322170605,0.048734873487349,272291.13703389,36830.625787839,5977717.0140913,5.2487348734873,0,0
613.01426663314,833.11143267888,0.053165316531653,272291.13703389,36830.625787839,5977717.0140913,5.2531653165317,0,0
613.01426659907,832.90964365171,0.057595759575958,272291.13703389,36830.625787839,5977717.0140913,5.257595759576,0,0
613.01426656501,832.70785462455,0.062026202620262,272291.13703389,36830.625787839,5977717.0140913,5.2620262026203,0,0
613.01426653094,832.50606559738,0.066456645664567,272291.13703389,36830.625787839,5977717.0140913,5.2664566456646,0,0
613.01426649687,832.30427657021,0.070887088708871,272291.13703389,36830.625787839,5977717.0140913,5.2708870887089,0,0
613.01426646281,832.10248754304,0.075317531753175,272291.13703389,36830.625787839,5977717.0140913,5.2753175317532,0,0
613.01426642874,831.90069851588,0.079747974797479,272291.13703389,36830.625787839,5977717.0140913,5.2797479747975,0,0
613.01426639468,831.69890948871,0.084178417841784,272291.13703389,36830.625787839,5977717.0140913,5.2841784178418,0,0
613.01426636061,831.49712046154,0.088608860886088,272291.13703389,36830.625787839,5977717.0140913,5.2886088608861,0,0
613.01426632871,831.2953314308,0.093039303930393,390928.71079091,-29721.283527344,5915136.7261314,5.2930393039304,0,0
613.01426631914,831.09354236315,0.097469746974697,390928.71079091,-29721.283527344,5915136.7261314,5.2974697469747,0,0
613.01426630957,830.89175329551,0.101900190019,390928.71079091,-29721.283527344,5915136.7261314,5.301900190019,0,0
613.0142663,830.68996422786,0.10633063306331,390928.71079091,-29721.283527344,5915136.7261314,5.3063306330633,0,0
613.01426629044,830.48817516021,0.11076107610761,390928.71079091,-29721.283527344,5915136.7261314,5.3107610761076,0,0
613.01426628087,830.28638609257,0.11519151915192,390928.71079091,-29721.283527344,5915136.7261314,5.3151915191519,0,0
613.0142662713,830.08459702492,0.11962196219622,390928.71079091,-29721.283527344,5915136.7261314,5.3196219621962,0,0
613.01426626173,829.88280795728,0.12405240524052,390928.71079091,-29721.283527344,5915136.7261314,5.3240524052405,0,0
613.01426625216,829.68101888963,0.12848284828483,390928.71079091,-29721.283527344,5915136.7261314,5.3284828482848,0,0
613.01426624259,829.47922982199,0.13291329132913,390928.71079091,-29721.283527344,5915136.7261314,5.3329132913291,0,0
613.01426623302,829.27744075434,0.13734373437344,390928.71079091,-29721.283527344,5915136.7261314,5.3373437343734,0,0
613.01426622345,829.0756516867,0.14177417741774,390928.71079091,-29721.283527344,5915136.7261314,5.3417741774177,0,0
613.01426621388,828.87386261905,0.14620462046205,390928.71079091,-29721.283527344,5915136.7261314,5.346204620462,0,0
613.01426620432,828.67207355141,0.15063506350635,390928.71079091,-29721.283527344,5915136.7261314,5.3506350635064,0,0
613.01426619475,828.47028448376,0.15506550655066,390928.71079091,-29721.283527344,5915136.7261314,5.3550655065507,0,0
613.01426618518,828.26849541612,0.15949594959496,390928.71079091,-29721.283527344,5915136.7261314,5.359495949595,0,0
613.01426617561,828.06670634847,0.16392639263926,390928.71079091,-29721.283527344,5915136.7261314,5.3639263926393,0,0
613.01426616604,827.86491728083,0.16835683568357,390928.71079091,-29721.283527344,5915136.7261314,5.3683568356836,0,0
613.01426615647,827.66312821318,0.17278727872787,390928.71079091,-29721.283527344,5915136.7261314,5.3727872787279,0,0
613.0142661469,827.46133914554,0.17721772177218,390928.71079091,-29721.283527344,5915136.7261314,5.3772177217722,0,0
613.01426613733,827.25955007789,0.18164816481648,390928.71079091,-29721.283527344,5915136.7261314,5.3816481648165,0,0
613.01426613195,827.05776102796,0.18607860786079,407071.61854016,60705.107379233,5719691.3482589,5.3860786078608,0,0
613.01426613414,826.85597201012,0.19050905090509,407071.61854016,60705.107379233,5719691.3482589,5.3905090509051,0,0
613.01426613634,826.65418299228,0.19493949394939,407071.61854016,60705.107379233,5719691.3482589,5.3949394939494,0,0
613.01426613854,826.45239397444,0.1993699369937,407071.61854016,60705.107379233,5719691.3482589,5.3993699369937,0,0
613.01426614073,826.2506049566,0.203800380038,407071.61854016,60705.107379233,5719691.3482589,5.403800380038,0,0
613.01426614293,826.04881593876,0.20823082308231,407071.61854016,60705.107379233,5719691.3482589,5.4082308230823,0,0
613.01426614512,825.84702692092,0.21266126612661,407071.61854016,60705.107379233,5719691.3482589,5.4126612661266,0,0
613.01426614732,825.64523790307,0.21709170917092,407071.61854016,60705.107379233,5719691.3482589,5.4170917091709,0,0
613.01426614951,825.44344888523,0.22152215221522,407071.61854016,60705.107379233,5719691.3482589,5.4215221522152,0,0
613.01426615171,825.24165986739,0.22595259525953,407071.61854016,60705.107379233,5719691.3482589,5.4259525952595,0,0
613.0142661539,825.03987084955,0.23038303830383,407071.61854016,60705.107379233,5719691.3482589,5.4303830383038,0,0
613.01426616268,824.83808181982,0.23481348134813,518855.25053485,-11582.251403044,5658676.3327034,5.4348134813481,0,0
613.01426618805,824.63629276009,0.23924392439244,518855.25053485,-11582.251403044,5658676.3327034,5.4392439243924,0,0
613.01426621342,824.43450370036,0.24367436743674,518855.25053485,-11582.251403044,5658676.3327034,5.4436743674367,0,0
613.01426623879,824.23271464063,0.24810481048105,518855.25053485,-11582.251403044,5658676.3327034,5.448104810481,0,0
613.01426626416,824.0309255809,0.25253525352535,518855.25053485,-11582.251403044,5658676.3327034,5.4525352535254,0,0
613.01426628953,823.82913652117,0.25696569656966,518855.25053485,-11582.251403044,5658676.3327034,5.4569656965697,0,0
613.0142663149,823.62734746144,0.26139613961396,518855.25053485,-11582.251403044,5658676.3327034,5.461396139614,0,0
613.01426634027,823.42555840171,0.26582658265827,518855.25053485,-11582.251403044,5658676.3327034,5.4658265826583,0,0
613.01426636564,823.22376934198,0.27025702570257,518855.25053485,-11582.251403044,5658676.3327034,5.4702570257026,0,0
613.014266391,823.02198028224,0.27468746874687,518855.25053485,-11582.251403044,5658676.3327034,5.4746874687469,0,0
613.01426641637,822.82019122251,0.27911791179118,518855.25053485,-11582.251403044,5658676.3327034,5.4791179117912,0,0
613.01426644174,822.61840216278,0.28354835483548,518855.25053485,-11582.251403044,5658676.3327034,5.4835483548355,0,0
613.01426646711,822.41661310305,0.28797879787979,518855.25053485,-11582.251403044,5658676.3327034,5.4879787978798,0,0
613.01426649248,822.21482404332,0.29240924092409,518855.25053485,-11582.251403044,5658676.3327034,5.4924092409241,0,0
613.01426651785,822.01303498359,0.2968396839684,518855.25053485,-11582.251403044,5658676.3327034,5.4968396839684,0,0
613.01426654322,821.81124592386,0.3012701270127,518855.25053485,-11582.251403044,5658676.3327034,5.5012701270127,0,0
613.01426656859,821.60945686413,0.30570057005701,518855.25053485,-11582.251403044,5658676.3327034,5.505700570057,0,0
613.01426659396,821.4076678044,0.31013101310131,518855.25053485,-11582.251403044,5658676.3327034,5.5101310131013,0,0
613.01426661933,821.20587874467,0.31456145614561,518855.25053485,-11582.251403044,5658676.3327034,5.5145614561456,0,0
613.0142666447,821.00408968494,0.31899189918992,518855.25053485,-11582.251403044,5658676.3327034,5.5189918991899,0,0
613.01426667007,820.80230062521,0.32342234223422,518855.25053485,-11582.251403044,5658676.3327034,5.5234223422342,0,0
613.01426669544,820.60051156547,0.32785278527853,518855.25053485,-11582.251403044,5658676.3327034,5.5278527852785,0,0
613.01426672081,820.39872250574,0.33228322832283,518855.25053485,-11582.251403044,5658676.3327034,5.5322832283228,0,0
613.01426674618,820.19693344601,0.33671367136714,518855.25053485,-11582.251403044,5658676.3327034,5.5367136713671,0,0
613.01426677155,819.99514438628,0.34114411441144,518855.25053485,-11582.251403044,5658676.3327034,5.5411441144114,0,0
613.01426679692,819.79335532655,0.34557455745575,518855.25053485,-11582.251403044,5658676.3327034,5.5455745574557,0,0
613.01426682229,819.59156626682,0.35000500050005,518855.25053485,-11582.251403044,5658676.3327034,5.5500050005001,0,0
613.01426685257,819.38977722489,0.35443544354435,542394.8177222,66213.190065164,5480109.1049999,5.5544354435444,0,0
613.0142668903,819.1879882099,0.35886588658866,542394.8177222,66213.190065164,5480109.1049999,5.5588658865887,0,0
613.01426692802,818.98619919492,0.36329632963296,542394.8177222,66213.190065164,5480109.1049999,5.563296329633,0,0
613.01426696575,818.78441017993,0.36772677267727,542394.8177222,66213.190065164,5480109.1049999,5.5677267726773,0,0
613.01426700347,818.58262116494,0.37215721572157,542394.8177222,66213.190065164,5480109.1049999,5.5721572157216,0,0
613.0142670412,818.38083214996,0.37658765876588,542394.8177222,66213.190065164,5480109.1049999,5.5765876587659,0,0
613.01426707892,818.17904313497,0.38101810181018,542394.8177222,66213.190065164,5480109.1049999,5.5810181018102,0,0
613.01426711973,817.97725411422,0.38544854485449,638498.57275125,946.8965681247,5426129.3234806,5.5854485448545,0,0
613.01426717745,817.7754650619,0.38987898789879,638498.57275125,946.8965681247,5426129.3234806,5.5898789878988,0,0
613.01426723516,817.57367600957,0.39430943094309,638498.57275125,946.8965681247,5426129.3234806,5.5943094309431,0,0
613.01426729288,817.37188695725,0.3987398739874,638498.57275125,946.8965681247,5426129.3234806,5.5987398739874,0,0
613.0142673506,817.17009790493,0.4031703170317,638498.57275125,946.8965681247,5426129.3234806,5.6031703170317,0,0
613.01426740831,816.9683088526,0.40760076007601,638498.57275125,946.8965681247,5426129.3234806,5.607600760076,0,0
613.01426746603,816.76651980028,0.41203120312031,638498.57275125,946.8965681247,5426129.3234806,5.6120312031203,0,0
613.01426752375,816.56473074796,0.41646164616462,638498.57275125,946.8965681247,5426129.3234806,5.6164616461646,0,0
613.01426758146,816.36294169563,0.42089208920892,638498.57275125,946.8965681247,5426129.3234806,5.6208920892089,0,0
613.01426763918,816.16115264331,0.42532253225323,638498.57275125,946.8965681247,5426129.3234806,5.6253225322532,0,0
613.0142676969,815.95936359099,0.42975297529753,638498.57275125,946.8965681247,5426129.3234806,5.6297529752975,0,0
613.01426775461,815.75757453866,0.43418341834183,638498.57275125,946.8965681247,5426129.3234806,5.6341834183418,0,0
613.01426781233,815.55578548634,0.43861386138614,638498.57275125,946.8965681247,5426129.3234806,5.6386138613861,0,0
613.01426787005,815.35399643402,0.44304430443044,638498.57275125,946.8965681247,5426129.3234806,5.6430443044304,0,0
613.01426792776,815.15220738169,0.44747474747475,638498.57275125,946.8965681247,5426129.3234806,5.6474747474747,0,0
613.01426798548,814.95041832937,0.45190519051905,638498.57275125,946.8965681247,5426129.3234806,5.6519051905191,0,0
613.01426804319,814.74862927705,0.45633563356336,638498.57275125,946.8965681247,5426129.3234806,5.6563356335634,0,0
613.01426810091,814.54684022472,0.46076607660766,638498.57275125,946.8965681247,5426129.3234806,5.6607660766077,0,0
613.01426815863,814.3450511724,0.46519651965196,638498.57275125,946.8965681247,5426129.3234806,5.665196519652,0,0
613.01426821634,814.14326212008,0.46962696269627,638498.57275125,946.8965681247,5426129.3234806,5.6696269626963,0,0
613.01426827406,813.94147306775,0.47405740574057,638498.57275125,946.8965681247,5426129.3234806,5.6740574057406,0,0
613.01426833178,813.73968401543,0.47848784878488,638498.57275125,946.8965681247,5426129.3234806,5.6784878487849,0,0
613.01426838949,813.53789496311,0.48291829182918,638498.57275125,946.8965681247,5426129.3234806,5.6829182918292,0,0
613.01426844721,813.33610591078,0.48734873487349,638498.57275125,946.8965681247,5426129.3234806,5.6873487348735,0,0
613.01426850493,813.13431685846,0.49177917791779,638498.57275125,946.8965681247,5426129.3234806,5.6917791779178,0,0
613.01426856264,812.93252780614,0.4962096209621,638498.57275125,946.8965681247,5426129.3234806,5.6962096209621,0,0
613.01426862036,812.73073875381,0.5006400640064,638498.57275125,946.8965681247,5426129.3234806,5.7006400640064,0,0
613.01426867808,812.52894970149,0.50507050705071,638498.57275125,946.8965681247,5426129.3234806,5.7050705070507,0,0
613.01426873579,812.32716064917,0.50950095009501,638498.57275125,946.8965681247,5426129.3234806,5.709500950095,0,0
613.01426879351,812.12537159684,0.51393139313931,638498.57275125,946.8965681247,5426129.3234806,5.7139313931393,0,0
613.01426885123,811.92358254452,0.51836183618362,638498.57275125,946.8965681247,5426129.3234806,5.7183618361836,0,0
613.01426890894,811.7217934922,0.52279227922792,638498.57275125,946.8965681247,5426129.3234806,5.7227922792279,0,0
613.01426896666,811.52000443987,0.52722272227223,638498.57275125,946.8965681247,5426129.3234806,5.7272227222722,0,0
613.01426902437,811.31821538755,0.53165316531653,638498.57275125,946.8965681247,5426129.3234806,5.7316531653165,0,0
613.01426908986,811.11642636242,0.53608360836084,658530.5251377,68399.601055689,5254161.1350013,5.7360836083608,0,0
613.01426915899,810.91463735006,0.54051405140514,658530.5251377,68399.601055689,5254161.1350013,5.7405140514051,0,0
613.01426924257,810.71284831026,0.54494449444945,741814.42168965,10693.753018319,5195043.7258952,5.7449444944494,0,0
613.01426932958,810.51105926395,0.54937493749375,741814.42168965,10693.753018319,5195043.7258952,5.7493749374937,0,0
613.0142694166,810.30927021763,0.55380538053805,741814.42168965,10693.753018319,5195043.7258952,5.7538053805381,0,0
613.01426950361,810.10748117132,0.55823582358236,741814.42168965,10693.753018319,5195043.7258952,5.7582358235824,0,0
613.01426959063,809.905692125,0.56266626662666,741814.42168965,10693.753018319,5195043.7258952,5.7626662666267,0,0
613.01426967764,809.70390307869,0.56709670967097,741814.42168965,10693.753018319,5195043.7258952,5.767096709671,0,0
613.01426976466,809.50211403237,0.57152715271527,741814.42168965,10693.753018319,5195043.7258952,5.7715271527153,0,0
613.01426985167,809.30032498605,0.57595759575958,741814.42168965,10693.753018319,5195043.7258952,5.7759575957596,0,0
613.01426993869,809.09853593974,0.58038803880388,741814.42168965,10693.753018319,5195043.7258952,5.7803880388039,0,0
613.0142700257,808.89674689342,0.58481848184818,741814.42168965,10693.753018319,5195043.7258952,5.7848184818482,0,0
613.01427011271,808.69495784711,0.58924892489249,741814.42168965,10693.753018319,5195043.7258952,5.7892489248925,0,0
613.01427019973,808.49316880079,0.59367936793679,741814.42168965,10693.753018319,5195043.7258952,5.7936793679368,0,0
613.01427028633,808.29137975322,0.5981098109811,707033.61074736,-9648.1064426584,5071838.4183575,5.7981098109811,0,0
613.01427037255,808.08959070446,0.6025402540254,707033.61074736,-9648.1064426584,5071838.4183575,5.8025402540254,0,0
613.01427045877,807.8878016557,0.60697069706971,707033.61074736,-9648.1064426584,5071838.4183575,5.8069706970697,0,0
613.01427054499,807.68601260693,0.61140114011401,707033.61074736,-9648.1064426584,5071838.4183575,5.811401140114,0,0
613.0142706312,807.48422355817,0.61583158315832,707033.61074736,-9648.1064426584,5071838.4183575,5.8158315831583,0,0
613.01427071742,807.28243450941,0.62026202620262,707033.61074736,-9648.1064426584,5071838.4183575,5.8202620262026,0,0
613.01427080364,807.08064546064,0.62469246924692,707033.61074736,-9648.1064426584,5071838.4183575,5.8246924692469,0,0
613.01427088986,806.87885641188,0.62912291229123,707033.61074736,-9648.1064426584,5071838.4183575,5.8291229122912,0,0
613.01427097607,806.67706736312,0.63355335533553,707033.61074736,-9648.1064426584,5071838.4183575,5.8335533553355,0,0
613.01427106229,806.47527831435,0.63798379837984,707033.61074736,-9648.1064426584,5071838.4183575,5.8379837983798,0,0
613.01427114851,806.27348926559,0.64241424142414,707033.61074736,-9648.1064426584,5071838.4183575,5.8424142414241,0,0
613.01427123472,806.07170021683,0.64684468446845,707033.61074736,-9648.1064426584,5071838.4183575,5.8468446844684,0,0
613.01427132094,805.86991116806,0.65127512751275,707033.61074736,-9648.1064426584,5071838.4183575,5.8512751275128,0,0
613.01427140716,805.6681221193,0.65570557055706,707033.61074736,-9648.1064426584,5071838.4183575,5.8557055705571,0,0
613.01427149338,805.46633307054,0.66013601360136,707033.61074736,-9648.1064426584,5071838.4183575,5.8601360136014,0,0
613.01427157959,805.26454402177,0.66456645664566,707033.61074736,-9648.1064426584,5071838.4183575,5.8645664566457,0,0
613.01427166581,805.06275497301,0.66899689968997,707033.61074736,-9648.1064426584,5071838.4183575,5.86899689969,0,0
613.01427175203,804.86096592425,0.67342734273427,707033.61074736,-9648.1064426584,5071838.4183575,5.8734273427343,0,0
613.01427183825,804.65917687548,0.67785778577858,707033.61074736,-9648.1064426584,5071838.4183575,5.8778577857786,0,0
613.01427192446,804.45738782672,0.68228822882288,707033.61074736,-9648.1064426584,5071838.4183575,5.8822882288229,0,0
613.01427201068,804.25559877796,0.68671867186719,707033.61074736,-9648.1064426584,5071838.4183575,5.8867186718672,0,0
613.0142720969,804.05380972919,0.69114911491149,707033.61074736,-9648.1064426584,5071838.4183575,5.8911491149115,0,0
613.01427219212,803.85202067251,0.6955795579558,838909.20838795,-44450.384399201,5080357.2152285,5.8955795579558,0,0
613.01427230204,803.6502316029,0.7000100010001,838909.20838795,-44450.384399201,5080357.2152285,5.9000100010001,0,0
613.01427241197,803.44844253329,0.7044404440444,838909.20838795,-44450.384399201,5080357.2152285,5.9044404440444,0,0
613.0142725219,803.24665346367,0.70887088708871,838909.20838795,-44450.384399201,5080357.2152285,5.9088708870887,0,0
613.01427263182,803.04486439406,0.71330133013301,838909.20838795,-44450.384399201,5080357.2152285,5.913301330133,0,0
613.01427274175,802.84307532445,0.71773177317732,838909.20838795,-44450.384399201,5080357.2152285,5.9177317731773,0,0
613.01427285116,802.64128626153,0.72216221622162,795246.7986064,-11234.111877155,4925846.6656589,5.9221622162216,0,0
613.01427296008,802.43949720503,0.72659265926593,795246.7986064,-11234.111877155,4925846.6656589,5.9265926592659,0,0
613.01427306899,802.23770814854,0.73102310231023,795246.7986064,-11234.111877155,4925846.6656589,5.9310231023102,0,0
613.01427317791,802.03591909204,0.73545354535454,795246.7986064,-11234.111877155,4925846.6656589,5.9354535453545,0,0
613.01427328683,801.83413003554,0.73988398839884,795246.7986064,-11234.111877155,4925846.6656589,5.9398839883988,0,0
613.01427339575,801.63234097904,0.74431443144314,795246.7986064,-11234.111877155,4925846.6656589,5.9443144314431,0,0
613.01427350467,801.43055192255,0.74874487448745,795246.7986064,-11234.111877155,4925846.6656589,5.9487448744874,0,0
613.01427361358,801.22876286605,0.75317531753175,795246.7986064,-11234.111877155,4925846.6656589,5.9531753175318,0,0
613.0142737225,801.02697380955,0.75760576057606,795246.7986064,-11234.111877155,4925846.6656589,5.9576057605761,0,0
613.01427383142,800.82518475305,0.76203620362036,795246.7986064,-11234.111877155,4925846.6656589,5.9620362036204,0,0
613.01427394034,800.62339569656,0.76646664666467,795246.7986064,-11234.111877155,4925846.6656589,5.9664666466647,0,0
613.01427404926,800.42160664006,0.77089708970897,795246.7986064,-11234.111877155,4925846.6656589,5.970897089709,0,0
613.01427415817,800.21981758356,0.77532753275328,795246.7986064,-11234.111877155,4925846.6656589,5.9753275327533,0,0
613.01427426709,800.01802852706,0.77975797579758,795246.7986064,-11234.111877155,4925846.6656589,5.9797579757976,0,0
613.01427437601,799.81623947056,0.78418841884188,795246.7986064,-11234.111877155,4925846.6656589,5.9841884188419,0,0
613.01427448493,799.61445041407,0.78861886188619,795246.7986064,-11234.111877155,4925846.6656589,5.9886188618862,0,0
613.01427459385,799.41266135757,0.79304930493049,795246.7986064,-11234.111877155,4925846.6656589,5.9930493049305,0,0
613.01427470276,799.21087230107,0.7974797479748,795246.7986064,-11234.111877155,4925846.6656589,5.9974797479748,0,0
613.01427481168,799.00908324457,0.8019101910191,795246.7986064,-11234.111877155,4925846.6656589,6.0019101910191,0,0
613.0142749206,798.80729418808,0.80634063406341,795246.7986064,-11234.111877155,4925846.6656589,6.0063406340634,0,0
613.01427502952,798.60550513158,0.81077107710771,795246.7986064,-11234.111877155,4925846.6656589,6.0107710771077,0,0
613.01427513844,798.40371607508,0.81520152015201,795246.7986064,-11234.111877155,4925846.6656589,6.015201520152,0,0
613.01427524735,798.20192701858,0.81963196319632,795246.7986064,-11234.111877155,4925846.6656589,6.0196319631963,0,0
613.01427535627,798.00013796209,0.82406240624062,795246.7986064,-11234.111877155,4925846.6656589,6.0240624062406,0,0
613.01427546519,797.79834890559,0.82849284928493,795246.7986064,-11234.111877155,4925846.6656589,6.0284928492849,0,0
613.01427557411,797.59655984909,0.83292329232923,795246.7986064,-11234.111877155,4925846.6656589,6.0329232923292,0,0
613.01427568303,797.39477079259,0.83735373537354,795246.7986064,-11234.111877155,4925846.6656589,6.0373537353735,0,0
613.01427579194,797.1929817361,0.84178417841784,795246.7986064,-11234.111877155,4925846.6656589,6.0417841784178,0,0
613.01427590086,796.9911926796,0.84621462146215,795246.79860639,-11234.111877155,4925846.6656589,6.0462146214621,0,0
613.01427601182,796.78940362716,0.85064506450645,874310.82926708,47883.236796936,4866715.0840898,6.0506450645065,0,0
613.01427613785,796.5876146048,0.85507550755076,874310.82926708,47883.236796936,4866715.0840898,6.0550755075508,0,0
613.01427626388,796.38582558244,0.85950595059506,874310.82926708,47883.236796936,4866715.0840898,6.0595059505951,0,0
613.0142763899,796.18403656008,0.86393639363936,874310.82926708,47883.236796936,4866715.0840898,6.0639363936394,0,0
613.01427651593,795.98224753772,0.86836683668367,874310.82926708,47883.236796936,4866715.0840898,6.0683668366837,0,0
613.01427664196,795.78045851536,0.87279727972797,874310.82926708,47883.236796936,4866715.0840898,6.072797279728,0,0
613.01427676799,795.57866949299,0.87722772277228,874310.82926708,47883.236796936,4866715.0840898,6.0772277227723,0,0
613.01427689402,795.37688047063,0.88165816581658,874310.82926708,47883.236796936,4866715.0840898,6.0816581658166,0,0
613.01427702005,795.17509144827,0.88608860886089,874310.82926708,47883.236796936,4866715.0840898,6.0860886088609,0,0
613.01427714608,794.97330242591,0.89051905190519,874310.82926708,47883.236796936,4866715.0840898,6.0905190519052,0,0
613.01427727211,794.77151340355,0.8949494949495,874310.82926708,47883.236796936,4866715.0840898,6.0949494949495,0,0
613.01427739814,794.56972438119,0.8993799379938,874310.82926708,47883.236796936,4866715.0840898,6.0993799379938,0,0
613.01427752417,794.36793535883,0.9038103810381,874310.82926708,47883.236796936,4866715.0840898,6.1038103810381,0,0
613.0142776502,794.16614633646,0.90824082408241,874310.82926708,47883.236796936,4866715.0840898,6.1082408240824,0,0
613.01427777623,793.9643573141,0.91267126712671,874310.82926708,47883.236796936,4866715.0840898,6.1126712671267,0,0
613.01427790226,793.76256829174,0.91710171017102,874310.82926708,47883.236796936,4866715.0840898,6.117101710171,0,0
613.01427802829,793.56077926938,0.92153215321532,874310.82926708,47883.236796936,4866715.0840898,6.1215321532153,0,0
613.01427815432,793.35899024702,0.92596259625963,874310.82926708,47883.236796936,4866715.0840898,6.1259625962596,0,0
613.01427828035,793.15720122466,0.93039303930393,874310.82926708,47883.236796936,4866715.0840898,6.1303930393039,0,0
613.01427840638,792.9554122023,0.93482348234823,874310.82926708,47883.236796936,4866715.0840898,6.1348234823482,0,0
613.01427853562,792.75362317142,0.93925392539254,925564.510323,-19493.527302909,4734687.7968977,6.1392539253925,0,0
613.01427867696,792.5518341084,0.94368436843684,925564.510323,-19493.527302909,4734687.7968977,6.1436843684368,0,0
613.01427881831,792.35004504538,0.94811481148115,925564.510323,-19493.527302909,4734687.7968977,6.1481148114811,0,0
613.01427895966,792.14825598237,0.95254525452545,925564.510323,-19493.527302909,4734687.7968977,6.1525452545255,0,0
613.01427910101,791.94646691935,0.95697569756976,925564.510323,-19493.527302909,4734687.7968977,6.1569756975698,0,0
613.01427924236,791.74467785633,0.96140614061406,925564.510323,-19493.527302909,4734687.7968977,6.1614061406141,0,0
613.0142793837,791.54288879331,0.96583658365837,925564.510323,-19493.527302909,4734687.7968977,6.1658365836584,0,0
613.01427952505,791.3410997303,0.97026702670267,925564.510323,-19493.527302909,4734687.7968977,6.1702670267027,0,0
613.0142796664,791.13931066728,0.97469746974697,925564.510323,-19493.527302909,4734687.7968977,6.174697469747,0,0
613.01427980775,790.93752160426,0.97912791279128,925564.510323,-19493.527302909,4734687.7968977,6.1791279127913,0,0
613.0142799491,790.73573254125,0.98355835583558,925564.510323,-19493.527302909,4734687.7968977,6.1835583558356,0,0
613.01428009044,790.53394347823,0.98798879887989,925564.510323,-19493.527302909,4734687.7968977,6.1879887988799,0,0
613.01428023179,790.33215441521,0.99241924192419,925564.510323,-19493.527302909,4734687.7968977,6.1924192419242,0,0
613.01428037314,790.13036535219,0.9968496849685,925564.510323,-19493.527302909,4734687.7968977,6.1968496849685,0,0
613.01428051449,789.92857628918,1.0012801280128,925564.510323,-19493.527302909,4734687.7968977,6.2012801280128,0,0
613.01428065584,789.72678722616,1.0057105710571,925564.510323,-19493.527302909,4734687.7968977,6.2057105710571,0,0
613.01428079719,789.52499816314,1.0101410141014,925564.510323,-19493.527302909,4734687.7968977,6.2101410141014,0,0
613.01428093853,789.32320910013,1.0145714571457,925564.510323,-19493.527302909,4734687.7968977,6.2145714571457,0,0
613.01428107988,789.12142003711,1.01900190019,925564.510323,-19493.527302909,4734687.7968977,6.21900190019,0,0
613.01428122123,788.91963097409,1.0234323432343,925564.510323,-19493.527302909,4734687.7968977,6.2234323432343,0,0
613.01428136258,788.71784191107,1.0278627862786,925564.510323,-19493.527302909,4734687.7968977,6.2278627862786,0,0
613.01428150393,788.51605284806,1.0322932293229,925564.510323,-19493.527302909,4734687.7968977,6.2322932293229,0,0
613.01428164527,788.31426378504,1.0367236723672,925564.510323,-19493.527302909,4734687.7968977,6.2367236723672,0,0
613.01428178662,788.11247472202,1.0411541154115,925564.510323,-19493.527302909,4734687.7968977,6.2411541154115,0,0
613.01428192797,787.91068565901,1.0455845584558,925564.510323,-19493.527302909,4734687.7968977,6.2455845584558,0,0
613.01428206932,787.70889659599,1.0500150015002,925564.510323,-19493.527302909,4734687.7968977,6.2500150015002,0,0
613.01428221067,787.50710753297,1.0544454445445,925564.510323,-19493.527302909,4734687.7968977,6.2544454445445,0,0
613.01428235201,787.30531846995,1.0588758875888,925564.510323,-19493.527302909,4734687.7968977,6.2588758875888,0,0
613.01428249336,787.10352940694,1.0633063306331,925564.510323,-19493.527302909,4734687.7968977,6.2633063306331,0,0
613.01428263471,786.90174034392,1.0677367736774,925564.510323,-19493.527302909,4734687.7968977,6.2677367736774,0,0
613.01428277606,786.6999512809,1.0721672167217,925564.510323,-19493.527302909,4734687.7968977,6.2721672167217,0,0
613.01428291741,786.49816221788,1.076597659766,925564.510323,-19493.527302909,4734687.7968977,6.276597659766,0,0
613.01428305876,786.29637315487,1.0810281028103,925564.510323,-19493.527302909,4734687.7968977,6.2810281028103,0,0
613.0142832001,786.09458409185,1.0854585458546,925564.510323,-19493.527302909,4734687.7968977,6.2854585458546,0,0
613.01428334145,785.89279502883,1.0898889888989,925564.510323,-19493.527302909,4734687.7968977,6.2898889888989,0,0
613.0142834828,785.69100596582,1.0943194319432,925564.510323,-19493.527302909,4734687.7968977,6.2943194319432,0,0
613.01428362415,785.4892169028,1.0987498749875,925564.510323,-19493.527302909,4734687.7968977,6.2987498749875,0,0
613.0142837655,785.28742783978,1.1031803180318,925564.510323,-19493.527302909,4734687.7968977,6.3031803180318,0,0
613.01428391814,785.08563881111,1.1076107610761,961328.31060895,44471.563194062,4607466.5471706,6.3076107610761,0,0
613.01428407176,784.88384978541,1.1120412041204,961328.31060895,44471.563194062,4607466.5471706,6.3120412041204,0,0
613.01428422538,784.68206075971,1.1164716471647,961328.31060895,44471.563194062,4607466.5471706,6.3164716471647,0,0
613.014284379,784.48027173401,1.120902090209,961328.31060895,44471.563194062,4607466.5471706,6.320902090209,0,0
613.01428453262,784.27848270831,1.1253325332533,961328.31060895,44471.563194062,4607466.5471706,6.3253325332533,0,0
613.01428468624,784.07669368261,1.1297629762976,961328.31060895,44471.563194062,4607466.5471706,6.3297629762976,0,0
613.01428483986,783.87490465691,1.1341934193419,961328.31060895,44471.563194062,4607466.5471706,6.3341934193419,0,0
613.01428499348,783.67311563121,1.1386238623862,961328.31060895,44471.563194062,4607466.5471706,6.3386238623862,0,0
613.0142851471,783.47132660551,1.1430543054305,961328.31060895,44471.563194062,4607466.5471706,6.3430543054305,0,0
613.01428530072,783.2695375798,1.1474847484748,961328.31060895,44471.563194062,4607466.5471706,6.3474847484748,0,0
613.01428545434,783.0677485541,1.1519151915192,961328.31060895,44471.563194062,4607466.5471706,6.3519151915192,0,0
613.01428560796,782.8659595284,1.1563456345635,961328.31060895,44471.563194062,4607466.5471706,6.3563456345635,0,0
613.01428576158,782.6641705027,1.1607760776078,961328.31060895,44471.563194062,4607466.5471706,6.3607760776078,0,0
613.0142859152,782.462381477,1.1652065206521,961328.31060895,44471.563194062,4607466.5471706,6.3652065206521,0,0
613.01428606882,782.2605924513,1.1696369636964,961328.31060895,44471.563194062,4607466.5471706,6.3696369636964,0,0
613.01428622244,782.0588034256,1.1740674067407,961328.31060895,44471.563194062,4607466.5471706,6.3740674067407,0,0
613.01428637606,781.8570143999,1.178497849785,961328.31060895,44471.563194062,4607466.5471706,6.378497849785,0,0
613.01428652968,781.6552253742,1.1829282928293,961328.31060895,44471.563194062,4607466.5471706,6.3829282928293,0,0
613.0142866833,781.4534363485,1.1873587358736,961328.31060895,44471.563194062,4607466.5471706,6.3873587358736,0,0
613.01428684015,781.25164731353,1.1917891789179,1008956.6567432,-21550.730184632,4518241.9621865,6.3917891789179,0,0
613.0142870065,781.04985825132,1.1962196219622,1008956.6567432,-21550.730184632,4518241.9621865,6.3962196219622,0,0
613.01428717284,780.84806918911,1.2006500650065,1008956.6567432,-21550.730184632,4518241.9621865,6.4006500650065,0,0
613.01428733919,780.6462801269,1.2050805080508,1008956.6567432,-21550.730184632,4518241.9621865,6.4050805080508,0,0
613.01428750553,780.44449106469,1.2095109510951,1008956.6567432,-21550.730184632,4518241.9621865,6.4095109510951,0,0
613.01428767188,780.24270200248,1.2139413941394,1008956.6567432,-21550.730184632,4518241.9621865,6.4139413941394,0,0
613.01428783823,780.04091294027,1.2183718371837,1008956.6567432,-21550.730184632,4518241.9621865,6.4183718371837,0,0
613.01428800457,779.83912387806,1.222802280228,1008956.6567432,-21550.730184632,4518241.9621865,6.422802280228,0,0
613.01428817092,779.63733481584,1.2272327232723,1008956.6567432,-21550.730184632,4518241.9621865,6.4272327232723,0,0
613.01428833726,779.43554575363,1.2316631663166,1008956.6567432,-21550.730184632,4518241.9621865,6.4316631663166,0,0
613.01428850361,779.23375669142,1.2360936093609,1008956.6567432,-21550.730184632,4518241.9621865,6.4360936093609,0,0
613.01428866996,779.03196762921,1.2405240524052,1008956.6567432,-21550.730184632,4518241.9621865,6.4405240524052,0,0
613.0142888363,778.830178567,1.2449544954495,1008956.6567432,-21550.730184632,4518241.9621865,6.4449544954495,0,0
613.01428900265,778.62838950479,1.2493849384938,1008956.6567432,-21550.730184632,4518241.9621865,6.4493849384938,0,0
613.01428916899,778.42660044258,1.2538153815382,1008956.6567432,-21550.730184632,4518241.9621865,6.4538153815382,0,0
613.01428933534,778.22481138037,1.2582458245825,1008956.6567432,-21550.730184632,4518241.9621865,6.4582458245825,0,0
613.01428950168,778.02302231816,1.2626762676268,1008956.6567432,-21550.730184632,4518241.9621865,6.4626762676268,0,0
613.01428966803,777.82123325595,1.2671067106711,1008956.6567432,-21550.730184632,4518241.9621865,6.4671067106711,0,0
613.01428983438,777.61944419374,1.2715371537154,1008956.6567432,-21550.730184632,4518241.9621865,6.4715371537154,0,0
613.01429000072,777.41765513153,1.2759675967597,1008956.6567432,-21550.730184632,4518241.9621865,6.4759675967597,0,0
613.01429016707,777.21586606931,1.280398039804,1008956.6567432,-21550.730184632,4518241.9621865,6.480398039804,0,0
613.01429033341,777.0140770071,1.2848284828483,1008956.6567432,-21550.730184632,4518241.9621865,6.4848284828483,0,0
613.01429049976,776.81228794489,1.2892589258926,1008956.6567432,-21550.730184632,4518241.9621865,6.4892589258926,0,0
613.01429066611,776.61049888268,1.2936893689369,1008956.6567432,-21550.730184632,4518241.9621865,6.4936893689369,0,0
613.01429083245,776.40870982047,1.2981198119812,1008956.6567432,-21550.730184632,4518241.9621865,6.4981198119812,0,0
613.0142909988,776.20692075826,1.3025502550255,1008956.6567432,-21550.730184632,4518241.9621865,6.5025502550255,0,0
613.01429116514,776.00513169605,1.3069806980698,1008956.6567432,-21550.730184632,4518241.9621865,6.5069806980698,0,0
613.01429133149,775.80334263384,1.3114111411141,1008956.6567432,-21550.730184632,4518241.9621865,6.5114111411141,0,0
613.01429149783,775.60155357163,1.3158415841584,1008956.6567432,-21550.730184632,4518241.9621865,6.5158415841584,0,0
613.01429166418,775.39976450942,1.3202720272027,1008956.6567432,-21550.730184632,4518241.9621865,6.5202720272027,0,0
613.01429183053,775.19797544721,1.324702470247,1008956.6567432,-21550.730184632,4518241.9621865,6.524702470247,0,0
613.01429199687,774.996186385,1.3291329132913,1008956.6567432,-21550.730184632,4518241.9621865,6.5291329132913,0,0
613.01429216322,774.79439732278,1.3335633563356,1008956.6567432,-21550.730184632,4518241.9621865,6.5335633563356,0,0
613.01429232956,774.59260826057,1.3379937993799,1008956.6567432,-21550.730184632,4518241.9621865,6.5379937993799,0,0
613.01429249591,774.39081919836,1.3424242424242,1008956.6567432,-21550.730184632,4518241.9621865,6.5424242424242,0,0
613.01429266243,774.18903013668,1.3468546854685,1047562.7119535,41178.214643115,4425941.2230591,6.5468546854685,0,0
613.01429283999,773.98724110908,1.3512851285129,1047562.7119535,41178.214643115,4425941.2230591,6.5512851285129,0,0
613.01429301755,773.78545208148,1.3557155715572,1047562.7119535,41178.214643115,4425941.2230591,6.5557155715572,0,0
613.01429319511,773.58366305388,1.3601460146015,1047562.7119535,41178.214643115,4425941.2230591,6.5601460146015,0,0
613.01429337268,773.38187402627,1.3645764576458,1047562.7119535,41178.214643115,4425941.2230591,6.5645764576458,0,0
613.01429355024,773.18008499867,1.3690069006901,1047562.7119535,41178.214643115,4425941.2230591,6.5690069006901,0,0
613.0142937278,772.97829597107,1.3734373437344,1047562.7119535,41178.214643115,4425941.2230591,6.5734373437344,0,0
613.01429390536,772.77650694347,1.3778677867787,1047562.7119535,41178.214643115,4425941.2230591,6.5778677867787,0,0
613.01429408292,772.57471791586,1.382298229823,1047562.7119535,41178.214643115,4425941.2230591,6.582298229823,0,0
613.01429426049,772.37292888826,1.3867286728673,1047562.7119535,41178.214643115,4425941.2230591,6.5867286728673,0,0
613.01429443805,772.17113986066,1.3911591159116,1047562.7119535,41178.214643115,4425941.2230591,6.5911591159116,0,0
613.01429461561,771.96935083306,1.3955895589559,1047562.7119535,41178.214643115,4425941.2230591,6.5955895589559,0,0
613.01429479317,771.76756180545,1.4000200020002,1047562.7119535,41178.214643115,4425941.2230591,6.6000200020002,0,0
613.01429497073,771.56577277785,1.4044504450445,1047562.7119535,41178.214643115,4425941.2230591,6.6044504450445,0,0
613.0142951483,771.36398375025,1.4088808880888,1047562.7119535,41178.214643115,4425941.2230591,6.6088808880888,0,0
613.01429532586,771.16219472265,1.4133113311331,1047562.7119535,41178.214643115,4425941.2230591,6.6133113311331,0,0
613.01429550342,770.96040569504,1.4177417741774,1047562.7119535,41178.214643115,4425941.2230591,6.6177417741774,0,0
613.01429568098,770.75861666744,1.4221722172217,1047562.7119535,41178.214643115,4425941.2230591,6.6221722172217,0,0
613.01429585854,770.55682763984,1.426602660266,1047562.7119535,41178.214643115,4425941.2230591,6.626602660266,0,0
613.01429603611,770.35503861224,1.4310331033103,1047562.7119535,41178.214643115,4425941.2230591,6.6310331033103,0,0
613.01429621367,770.15324958463,1.4354635463546,1047562.7119535,41178.214643115,4425941.2230591,6.6354635463546,0,0
613.01429639123,769.95146055703,1.4398939893989,1047562.7119535,41178.214643115,4425941.2230591,6.6398939893989,0,0
613.01429656879,769.74967152943,1.4443244324432,1047562.7119535,41178.214643115,4425941.2230591,6.6443244324432,0,0
613.01429674846,769.54788249392,1.4487548754875,1075262.4067917,-29140.586652229,4314885.2969926,6.6487548754875,0,0
613.01429693609,769.34609342854,1.4531853185319,1075262.4067917,-29140.586652229,4314885.2969926,6.6531853185319,0,0
613.01429712373,769.14430436316,1.4576157615762,1075262.4067917,-29140.586652229,4314885.2969926,6.6576157615762,0,0
613.01429731136,768.94251529778,1.4620462046205,1075262.4067917,-29140.586652229,4314885.2969926,6.6620462046205,0,0
613.01429749899,768.7407262324,1.4664766476648,1075262.4067917,-29140.586652229,4314885.2969926,6.6664766476648,0,0
613.01429768662,768.53893716702,1.4709070907091,1075262.4067917,-29140.586652229,4314885.2969926,6.6709070907091,0,0
613.01429787425,768.33714810164,1.4753375337534,1075262.4067917,-29140.586652229,4314885.2969926,6.6753375337534,0,0
613.01429806188,768.13535903626,1.4797679767977,1075262.4067917,-29140.586652229,4314885.2969926,6.6797679767977,0,0
613.01429824952,767.93356997087,1.484198419842,1075262.4067917,-29140.586652229,4314885.2969926,6.684198419842,0,0
613.01429843715,767.73178090549,1.4886288628863,1075262.4067917,-29140.586652229,4314885.2969926,6.6886288628863,0,0
613.01429862478,767.52999184011,1.4930593059306,1075262.4067917,-29140.586652229,4314885.2969926,6.6930593059306,0,0
613.01429881241,767.32820277473,1.4974897489749,1075262.4067917,-29140.586652229,4314885.2969926,6.6974897489749,0,0
613.01429900004,767.12641370935,1.5019201920192,1075262.4067917,-29140.586652229,4314885.2969926,6.7019201920192,0,0
613.01429918767,766.92462464397,1.5063506350635,1075262.4067917,-29140.586652229,4314885.2969926,6.7063506350635,0,0
613.0142993753,766.72283557859,1.5107810781078,1075262.4067917,-29140.586652229,4314885.2969926,6.7107810781078,0,0
613.01429956294,766.52104651321,1.5152115211521,1075262.4067917,-29140.586652229,4314885.2969926,6.7152115211521,0,0
613.01429975057,766.31925744783,1.5196419641964,1075262.4067917,-29140.586652229,4314885.2969926,6.7196419641964,0,0
613.0142999382,766.11746838245,1.5240724072407,1075262.4067917,-29140.586652229,4314885.2969926,6.7240724072407,0,0
613.01430012583,765.91567931707,1.528502850285,1075262.4067917,-29140.586652229,4314885.2969926,6.728502850285,0,0
613.01430031346,765.71389025169,1.5329332933293,1075262.4067917,-29140.586652229,4314885.2969926,6.7329332933293,0,0
613.01430050109,765.51210118631,1.5373637363736,1075262.4067917,-29140.586652229,4314885.2969926,6.7373637363736,0,0
613.01430068873,765.31031212093,1.5417941794179,1075262.4067917,-29140.586652229,4314885.2969926,6.7417941794179,0,0
613.01430087636,765.10852305555,1.5462246224622,1075262.4067917,-29140.586652229,4314885.2969926,6.7462246224622,0,0
613.01430106399,764.90673399017,1.5506550655066,1075262.4067917,-29140.586652229,4314885.2969926,6.7506550655066,0,0
613.01430125162,764.70494492479,1.5550855085509,1075262.4067917,-29140.586652229,4314885.2969926,6.7550855085509,0,0
613.01430143925,764.50315585941,1.5595159515952,1075262.4067917,-29140.586652229,4314885.2969926,6.7595159515952,0,0
613.01430162688,764.30136679403,1.5639463946395,1075262.4067917,-29140.586652229,4314885.2969926,6.7639463946395,0,0
613.01430181452,764.09957772865,1.5683768376838,1075262.4067917,-29140.586652229,4314885.2969926,6.7683768376838,0,0
613.01430200215,763.89778866327,1.5728072807281,1075262.4067917,-29140.586652229,4314885.2969926,6.7728072807281,0,0
613.01430218978,763.69599959789,1.5772377237724,1075262.4067917,-29140.586652229,4314885.2969926,6.7772377237724,0,0
613.01430237741,763.49421053251,1.5816681668167,1075262.4067917,-29140.586652229,4314885.2969926,6.7816681668167,0,0
613.01430256504,763.29242146713,1.586098609861,1075262.4067917,-29140.586652229,4314885.2969926,6.786098609861,0,0
613.01430275267,763.09063240175,1.5905290529053,1075262.4067917,-29140.586652229,4314885.2969926,6.7905290529053,0,0
613.01430294031,762.88884333637,1.5949594959496,1075262.4067917,-29140.586652229,4314885.2969926,6.7949594959496,0,0
613.01430312794,762.68705427098,1.5993899389939,1075262.4067917,-29140.586652229,4314885.2969926,6.7993899389939,0,0
613.01430331557,762.4852652056,1.6038203820382,1075262.4067917,-29140.586652229,4314885.2969926,6.8038203820382,0,0
613.01430351268,762.28347616719,1.6082508250825,1118975.5655606,29671.767780165,4240271.2082078,6.8082508250825,0,0
613.01430371166,762.08168713409,1.6126812681268,1118975.5655606,29671.767780165,4240271.2082078,6.8126812681268,0,0
613.01430391065,761.87989810099,1.6171117111711,1118975.5655606,29671.767780165,4240271.2082078,6.8171117111711,0,0
613.01430410963,761.67810906789,1.6215421542154,1118975.5655606,29671.767780165,4240271.2082078,6.8215421542154,0,0
613.01430430861,761.47632003479,1.6259725972597,1118975.5655606,29671.767780165,4240271.2082078,6.8259725972597,0,0
613.0143045076,761.27453100169,1.630403040304,1118975.5655606,29671.767780165,4240271.2082078,6.830403040304,0,0
613.01430470658,761.07274196859,1.6348334833483,1118975.5655606,29671.767780165,4240271.2082078,6.8348334833483,0,0
613.01430490556,760.87095293549,1.6392639263926,1118975.5655606,29671.767780165,4240271.2082078,6.8392639263926,0,0
613.01430510455,760.66916390239,1.6436943694369,1118975.5655606,29671.767780165,4240271.2082078,6.8436943694369,0,0
613.01430530353,760.4673748693,1.6481248124812,1118975.5655606,29671.767780165,4240271.2082078,6.8481248124812,0,0
613.01430550251,760.2655858362,1.6525552555256,1118975.5655606,29671.767780165,4240271.2082078,6.8525552555256,0,0
613.0143057015,760.0637968031,1.6569856985699,1118975.5655606,29671.767780165,4240271.2082078,6.8569856985699,0,0
613.01430590048,759.86200777,1.6614161416142,1118975.5655606,29671.767780165,4240271.2082078,6.8614161416142,0,0
613.01430609946,759.6602187369,1.6658465846585,1118975.5655606,29671.767780165,4240271.2082078,6.8658465846585,0,0
613.01430629845,759.4584297038,1.6702770277028,1118975.5655606,29671.767780165,4240271.2082078,6.8702770277028,0,0
613.01430649743,759.2566406707,1.6747074707471,1118975.5655606,29671.767780165,4240271.2082078,6.8747074707471,0,0
613.01430669641,759.0548516376,1.6791379137914,1118975.5655606,29671.767780165,4240271.2082078,6.8791379137914,0,0
613.01430689539,758.8530626045,1.6835683568357,1118975.5655606,29671.767780165,4240271.2082078,6.8835683568357,0,0
613.01430709438,758.6512735714,1.68799879988,1118975.5655606,29671.767780165,4240271.2082078,6.88799879988,0,0
613.01430729336,758.4494845383,1.6924292429243,1118975.5655606,29671.767780165,4240271.2082078,6.8924292429243,0,0
613.01430749234,758.24769550521,1.6968596859686,1118975.5655606,29671.767780165,4240271.2082078,6.8968596859686,0,0
613.01430769133,758.04590647211,1.7012901290129,1118975.5655606,29671.767780165,4240271.2082078,6.9012901290129,0,0
613.01430789031,757.84411743901,1.7057205720572,1118975.5655606,29671.767780165,4240271.2082078,6.9057205720572,0,0
613.01430808929,757.64232840591,1.7101510151015,1118975.5655606,29671.767780165,4240271.2082078,6.9101510151015,0,0
613.01430828828,757.44053937281,1.7145814581458,1118975.5655606,29671.767780165,4240271.2082078,6.9145814581458,0,0
613.01430848726,757.23875033971,1.7190119011901,1118975.5655606,29671.767780165,4240271.2082078,6.9190119011901,0,0
613.01430868624,757.03696130661,1.7234423442344,1118975.5655606,29671.767780165,4240271.2082078,6.9234423442344,0,0
613.01430888523,756.83517227351,1.7278727872787,1118975.5655606,29671.767780165,4240271.2082078,6.9278727872787,0,0
613.01430908421,756.63338324041,1.732303230323,1118975.5655606,29671.767780165,4240271.2082078,6.932303230323,0,0
613.01430928319,756.43159420731,1.7367336733673,1118975.5655606,29671.767780165,4240271.2082078,6.9367336733673,0,0
613.01430948217,756.22980517421,1.7411641164116,1118975.5655606,29671.767780165,4240271.2082078,6.9411641164116,0,0
613.01430968116,756.02801614112,1.7455945594559,1118975.5655606,29671.767780165,4240271.2082078,6.9455945594559,0,0
613.01430988014,755.82622710802,1.7500250025002,1118975.5655606,29671.767780165,4240271.2082078,6.9500250025002,0,0
613.01431007912,755.62443807492,1.7544554455446,1118975.5655606,29671.767780165,4240271.2082078,6.9544554455446,0,0
613.01431027811,755.42264904182,1.7588858885889,1118975.5655606,29671.767780165,4240271.2082078,6.9588858885889,0,0
613.01431048483,755.22085998209,1.7633163316332,1148536.0518173,-35736.089478219,4126625.4229078,6.9633163316332,0,0
613.01431069434,755.01907091277,1.7677467746775,1148536.0518173,-35736.089478219,4126625.4229078,6.9677467746775,0,0
613.01431090385,754.81728184345,1.7721772177218,1148536.0518173,-35736.089478219,4126625.4229078,6.9721772177218,0,0
613.01431111336,754.61549277413,1.7766076607661,1148536.0518173,-35736.089478219,4126625.4229078,6.9766076607661,0,0
613.01431132287,754.41370370481,1.7810381038104,1148536.0518173,-35736.089478219,4126625.4229078,6.9810381038104,0,0
613.01431153238,754.21191463549,1.7854685468547,1148536.0518173,-35736.089478219,4126625.4229078,6.9854685468547,0,0
613.01431174189,754.01012556617,1.789898989899,1148536.0518173,-35736.089478219,4126625.4229078,6.989898989899,0,0
613.01431195139,753.80833649685,1.7943294329433,1148536.0518173,-35736.089478219,4126625.4229078,6.9943294329433,0,0
613.0143121609,753.60654742753,1.7987598759876,1148536.0518173,-35736.089478219,4126625.4229078,6.9987598759876,0,0
613.01431237041,753.40475835821,1.8031903190319,1148536.0518173,-35736.089478219,4126625.4229078,7.0031903190319,0,0
613.01431257992,753.20296928889,1.8076207620762,1148536.0518173,-35736.089478219,4126625.4229078,7.0076207620762,0,0
613.01431278943,753.00118021957,1.8120512051205,1148536.0518173,-35736.089478219,4126625.4229078,7.0120512051205,0,0
613.01431299894,752.79939115025,1.8164816481648,1148536.0518173,-35736.089478219,4126625.4229078,7.0164816481648,0,0
613.01431320845,752.59760208093,1.8209120912091,1148536.0518173,-35736.089478219,4126625.4229078,7.0209120912091,0,0
613.01431341796,752.39581301161,1.8253425342534,1148536.0518173,-35736.089478219,4126625.4229078,7.0253425342534,0,0
613.01431362747,752.19402394229,1.8297729772977,1148536.0518173,-35736.089478219,4126625.4229078,7.0297729772977,0,0
613.01431383698,751.99223487297,1.834203420342,1148536.0518173,-35736.089478219,4126625.4229078,7.034203420342,0,0
613.01431404649,751.79044580365,1.8386338633863,1148536.0518173,-35736.089478219,4126625.4229078,7.0386338633863,0,0
613.014314256,751.58865673433,1.8430643064306,1148536.0518173,-35736.089478219,4126625.4229078,7.0430643064306,0,0
613.01431446551,751.38686766501,1.8474947494749,1148536.0518173,-35736.089478219,4126625.4229078,7.0474947494749,0,0
613.01431467502,751.18507859569,1.8519251925193,1148536.0518173,-35736.089478219,4126625.4229078,7.0519251925193,0,0
613.01431488453,750.98328952637,1.8563556355636,1148536.0518173,-35736.089478219,4126625.4229078,7.0563556355636,0,0
613.01431509404,750.78150045705,1.8607860786079,1148536.0518173,-35736.089478219,4126625.4229078,7.0607860786079,0,0
613.01431530355,750.57971138773,1.8652165216522,1148536.0518173,-35736.089478219,4126625.4229078,7.0652165216522,0,0
613.01431551306,750.37792231841,1.8696469646965,1148536.0518173,-35736.089478219,4126625.4229078,7.0696469646965,0,0
613.01431572257,750.17613324909,1.8740774077408,1148536.0518173,-35736.089478219,4126625.4229078,7.0740774077408,0,0
613.01431593207,749.97434417977,1.8785078507851,1148536.0518173,-35736.089478219,4126625.4229078,7.0785078507851,0,0
613.01431614158,749.77255511045,1.8829382938294,1148536.0518173,-35736.089478219,4126625.4229078,7.0829382938294,0,0
613.01431635109,749.57076604113,1.8873687368737,1148536.0518173,-35736.089478219,4126625.4229078,7.0873687368737,0,0
613.0143165606,749.36897697181,1.891799179918,1148536.0518173,-35736.089478219,4126625.4229078,7.091799179918,0,0
613.01431677916,749.1671879346,1.8962296229623,1178475.9582067,26054.452604443,4042571.154697,7.0962296229623,0,0
613.01431699793,748.96539889814,1.9006600660066,1178475.9582067,26054.452604443,4042571.154697,7.1006600660066,0,0
613.0143172167,748.76360986168,1.9050905090509,1178475.9582067,26054.452604443,4042571.154697,7.1050905090509,0,0
613.01431743547,748.56182082522,1.9095209520952,1178475.9582067,26054.452604443,4042571.154697,7.1095209520952,0,0
613.01431765424,748.36003178876,1.9139513951395,1178475.9582067,26054.452604443,4042571.154697,7.1139513951395,0,0
613.01431787301,748.1582427523,1.9183818381838,1178475.9582067,26054.452604443,4042571.154697,7.1183818381838,0,0
613.01431809178,747.95645371584,1.9228122812281,1178475.9582067,26054.452604443,4042571.154697,7.1228122812281,0,0
613.01431831055,747.75466467938,1.9272427242724,1178475.9582067,26054.452604443,4042571.154697,7.1272427242724,0,0
613.01431852932,747.55287564292,1.9316731673167,1178475.9582067,26054.452604443,4042571.154697,7.1316731673167,0,0
613.01431874809,747.35108660646,1.936103610361,1178475.9582067,26054.452604443,4042571.154697,7.136103610361,0,0
613.01431896686,747.14929757,1.9405340534053,1178475.9582067,26054.452604443,4042571.154697,7.1405340534053,0,0
613.01431918564,746.94750853354,1.9449644964496,1178475.9582067,26054.452604443,4042571.154697,7.1449644964496,0,0
613.01431940441,746.74571949708,1.9493949394939,1178475.9582067,26054.452604443,4042571.154697,7.1493949394939,0,0
613.01431962318,746.54393046062,1.9538253825383,1178475.9582067,26054.452604443,4042571.154697,7.1538253825383,0,0
613.01431984195,746.34214142416,1.9582558255826,1178475.9582067,26054.452604443,4042571.154697,7.1582558255826,0,0
613.01432006072,746.1403523877,1.9626862686269,1178475.9582067,26054.452604443,4042571.154697,7.1626862686269,0,0
613.01432027949,745.93856335124,1.9671167116712,1178475.9582067,26054.452604443,4042571.154697,7.1671167116712,0,0
613.01432049826,745.73677431478,1.9715471547155,1178475.9582067,26054.452604443,4042571.154697,7.1715471547155,0,0
613.01432071703,745.53498527832,1.9759775977598,1178475.9582067,26054.452604443,4042571.154697,7.1759775977598,0,0
613.0143209358,745.33319624186,1.9804080408041,1178475.9582067,26054.452604443,4042571.154697,7.1804080408041,0,0
613.01432115457,745.1314072054,1.9848384838484,1178475.9582067,26054.452604443,4042571.154697,7.1848384838484,0,0
613.01432137334,744.92961816894,1.9892689268927,1178475.9582067,26054.452604443,4042571.154697,7.1892689268927,0,0
613.01432159211,744.72782913248,1.993699369937,1178475.9582067,26054.452604443,4042571.154697,7.193699369937,0,0
613.01432181088,744.52604009602,1.9981298129813,1178475.9582067,26054.452604443,4042571.154697,7.1981298129813,0,0
613.01432202965,744.32425105956,2.0025602560256,1178475.9582067,26054.452604443,4042571.154697,7.2025602560256,0,0
613.01432224842,744.1224620231,2.0069906990699,1178475.9582067,26054.452604443,4042571.154697,7.2069906990699,0,0
613.01432246719,743.92067298664,2.0114211421142,1178475.9582067,26054.452604443,4042571.154697,7.2114211421142,0,0
613.01432268596,743.71888395018,2.0158515851585,1178475.9582067,26054.452604443,4042571.154697,7.2158515851585,0,0
613.01432290473,743.51709491372,2.0202820282028,1178475.9582067,26054.452604443,4042571.154697,7.2202820282028,0,0
613.0143231235,743.31530587726,2.0247124712471,1178475.9582067,26054.452604443,4042571.154697,7.2247124712471,0,0
613.01432334227,743.1135168408,2.0291429142914,1178475.9582067,26054.452604443,4042571.154697,7.2291429142914,0,0
613.01432356104,742.91172780434,2.0335733573357,1178475.9582067,26054.452604443,4042571.154697,7.2335733573357,0,0
613.01432377981,742.70993876788,2.03800380038,1178475.9582067,26054.452604443,4042571.154697,7.23800380038,0,0
613.01432399858,742.50814973142,2.0424342434243,1178475.9582067,26054.452604443,4042571.154697,7.2424342434243,0,0
613.01432421735,742.30636069496,2.0468646864686,1178475.9582067,26054.452604443,4042571.154697,7.2468646864686,0,0
613.01432443613,742.1045716585,2.051295129513,1178475.9582067,26054.452604443,4042571.154697,7.251295129513,0,0
613.0143246549,741.90278262204,2.0557255725573,1178475.9582067,26054.452604443,4042571.154697,7.2557255725573,0,0
613.01432487367,741.70099358558,2.0601560156016,1178475.9582067,26054.452604443,4042571.154697,7.2601560156016,0,0
613.01432509244,741.49920454912,2.0645864586459,1178475.9582067,26054.452604443,4042571.154697,7.2645864586459,0,0
613.01432531121,741.29741551266,2.0690169016902,1178475.9582067,26054.452604443,4042571.154697,7.2690169016902,0,0
613.01432552998,741.0956264762,2.0734473447345,1178475.9582067,26054.452604443,4042571.154697,7.2734473447345,0,0
613.01432574875,740.89383743974,2.0778777877788,1178475.9582067,26054.452604443,4042571.154697,7.2778777877788,0,0
613.01432596752,740.69204840328,2.0823082308231,1178475.9582067,26054.452604443,4042571.154697,7.2823082308231,0,0
613.01432618629,740.49025936682,2.0867386738674,1178475.9582067,26054.452604443,4042571.154697,7.2867386738674,0,0
613.01432640506,740.28847033036,2.0911691169117,1178475.9582067,26054.452604443,4042571.154697,7.2911691169117,0,0
613.01432662383,740.0866812939,2.095599559956,1178475.9582067,26054.452604443,4042571.154697,7.295599559956,0,0
613.0143268426,739.88489225744,2.1000300030003,1178475.9582067,26054.452604443,4042571.154697,7.3000300030003,0,0
613.01432706137,739.68310322098,2.1044604460446,1178475.9582067,26054.452604443,4042571.154697,7.3044604460446,0,0
613.01432728554,739.48131416804,2.1088908890889,1214764.8049435,-28849.029293227,3974366.6603075,7.3088908890889,0,0
613.01432751401,739.27952510195,2.1133213321332,1214764.8049435,-28849.029293227,3974366.6603075,7.3133213321332,0,0
613.01432774249,739.07773603586,2.1177517751775,1214764.8049435,-28849.029293227,3974366.6603075,7.3177517751775,0,0
613.01432797097,738.87594696977,2.1221822182218,1214764.8049435,-28849.029293227,3974366.6603075,7.3221822182218,0,0
613.01432819944,738.67415790368,2.1266126612661,1214764.8049435,-28849.029293227,3974366.6603075,7.3266126612661,0,0
613.01432842792,738.47236883758,2.1310431043104,1214764.8049435,-28849.029293227,3974366.6603075,7.3310431043104,0,0
613.0143286564,738.27057977149,2.1354735473547,1214764.8049435,-28849.029293227,3974366.6603075,7.3354735473547,0,0
613.01432888487,738.0687907054,2.139903990399,1214764.8049435,-28849.029293227,3974366.6603075,7.339903990399,0,0
613.01432911335,737.86700163931,2.1443344334433,1214764.8049435,-28849.029293227,3974366.6603075,7.3443344334433,0,0
613.01432934183,737.66521257322,2.1487648764876,1214764.8049435,-28849.029293227,3974366.6603075,7.3487648764876,0,0
613.0143295703,737.46342350713,2.153195319532,1214764.8049435,-28849.029293227,3974366.6603075,7.353195319532,0,0
613.01432979878,737.26163444104,2.1576257625763,1214764.8049435,-28849.029293227,3974366.6603075,7.3576257625763,0,0
613.01433002725,737.05984537494,2.1620562056206,1214764.8049435,-28849.029293227,3974366.6603075,7.3620562056206,0,0
613.01433025573,736.85805630885,2.1664866486649,1214764.8049435,-28849.029293227,3974366.6603075,7.3664866486649,0,0
613.01433048421,736.65626724276,2.1709170917092,1214764.8049435,-28849.029293227,3974366.6603075,7.3709170917092,0,0
613.01433071268,736.45447817667,2.1753475347535,1214764.8049435,-28849.029293227,3974366.6603075,7.3753475347535,0,0
613.01433094116,736.25268911058,2.1797779777978,1214764.8049435,-28849.029293227,3974366.6603075,7.3797779777978,0,0
613.01433116964,736.05090004449,2.1842084208421,1214764.8049435,-28849.029293227,3974366.6603075,7.3842084208421,0,0
613.01433139811,735.8491109784,2.1886388638864,1214764.8049435,-28849.029293227,3974366.6603075,7.3886388638864,0,0
613.01433162659,735.64732191231,2.1930693069307,1214764.8049435,-28849.029293227,3974366.6603075,7.3930693069307,0,0
613.01433185507,735.44553284621,2.197499749975,1214764.8049435,-28849.029293227,3974366.6603075,7.397499749975,0,0
613.01433208354,735.24374378012,2.2019301930193,1214764.8049435,-28849.029293227,3974366.6603075,7.4019301930193,0,0
613.01433231202,735.04195471403,2.2063606360636,1214764.8049435,-28849.029293227,3974366.6603075,7.4063606360636,0,0
613.0143325405,734.84016564794,2.2107910791079,1214764.8049435,-28849.029293227,3974366.6603075,7.4107910791079,0,0
613.01433276897,734.63837658185,2.2152215221522,1214764.8049435,-28849.029293227,3974366.6603075,7.4152215221522,0,0
613.01433299745,734.43658751576,2.2196519651965,1214764.8049435,-28849.029293227,3974366.6603075,7.4196519651965,0,0
613.01433322592,734.23479844967,2.2240824082408,1214764.8049435,-28849.029293227,3974366.6603075,7.4240824082408,0,0
613.0143334544,734.03300938357,2.2285128512851,1214764.8049435,-28849.029293227,3974366.6603075,7.4285128512851,0,0
613.01433368288,733.83122031748,2.2329432943294,1214764.8049435,-28849.029293227,3974366.6603075,7.4329432943294,0,0
613.01433391135,733.62943125139,2.2373737373737,1214764.8049435,-28849.029293227,3974366.6603075,7.4373737373737,0,0
613.01433413983,733.4276421853,2.241804180418,1214764.8049435,-28849.029293227,3974366.6603075,7.441804180418,0,0
613.01433436831,733.22585311921,2.2462346234623,1214764.8049435,-28849.029293227,3974366.6603075,7.4462346234623,0,0
613.01433459678,733.02406405312,2.2506650665067,1214764.8049435,-28849.029293227,3974366.6603075,7.4506650665067,0,0
613.01433482526,732.82227498703,2.255095509551,1214764.8049435,-28849.029293227,3974366.6603075,7.455095509551,0,0
613.01433505374,732.62048592093,2.2595259525953,1214764.8049435,-28849.029293227,3974366.6603075,7.4595259525953,0,0
613.01433528221,732.41869685484,2.2639563956396,1214764.8049435,-28849.029293227,3974366.6603075,7.4639563956396,0,0
613.01433551454,732.21690780473,2.2683868386839,1227353.7808165,25147.610890127,3868158.7914666,7.4683868386839,0,0
613.01433575011,732.01511876805,2.2728172817282,1227353.7808165,25147.610890127,3868158.7914666,7.4728172817282,0,0
613.01433598567,731.81332973138,2.2772477247725,1227353.7808165,25147.610890127,3868158.7914666,7.4772477247725,0,0
613.01433622124,731.6115406947,2.2816781678168,1227353.7808165,25147.610890127,3868158.7914666,7.4816781678168,0,0
613.01433645681,731.40975165802,2.2861086108611,1227353.7808165,25147.610890127,3868158.7914666,7.4861086108611,0,0
613.01433669237,731.20796262135,2.2905390539054,1227353.7808165,25147.610890127,3868158.7914666,7.4905390539054,0,0
613.01433692794,731.00617358467,2.2949694969497,1227353.7808165,25147.610890127,3868158.7914666,7.4949694969497,0,0
613.01433716351,730.80438454799,2.299399939994,1227353.7808165,25147.610890127,3868158.7914666,7.499399939994,0,0
613.01433739907,730.60259551132,2.3038303830383,1227353.7808165,25147.610890127,3868158.7914666,7.5038303830383,0,0
613.01433763464,730.40080647464,2.3082608260826,1227353.7808165,25147.610890127,3868158.7914666,7.5082608260826,0,0
613.01433787021,730.19901743796,2.3126912691269,1227353.7808165,25147.610890127,3868158.7914666,7.5126912691269,0,0
613.01433810578,729.99722840129,2.3171217121712,1227353.7808165,25147.610890127,3868158.7914666,7.5171217121712,0,0
613.01433834134,729.79543936461,2.3215521552155,1227353.7808165,25147.610890127,3868158.7914666,7.5215521552155,0,0
613.01433857691,729.59365032793,2.3259825982598,1227353.7808165,25147.610890127,3868158.7914666,7.5259825982598,0,0
613.01433881248,729.39186129125,2.3304130413041,1227353.7808165,25147.610890127,3868158.7914666,7.5304130413041,0,0
613.01433904804,729.19007225458,2.3348434843484,1227353.7808165,25147.610890127,3868158.7914666,7.5348434843484,0,0
613.01433928361,728.9882832179,2.3392739273927,1227353.7808165,25147.610890127,3868158.7914666,7.5392739273927,0,0
613.01433951918,728.78649418122,2.343704370437,1227353.7808165,25147.610890127,3868158.7914666,7.543704370437,0,0
613.01433975474,728.58470514455,2.3481348134813,1227353.7808165,25147.610890127,3868158.7914666,7.5481348134813,0,0
613.01433999031,728.38291610787,2.3525652565257,1227353.7808165,25147.610890127,3868158.7914666,7.5525652565257,0,0
613.01434022588,728.18112707119,2.35699569957,1227353.7808165,25147.610890127,3868158.7914666,7.55699569957,0,0
613.01434046144,727.97933803452,2.3614261426143,1227353.7808165,25147.610890127,3868158.7914666,7.5614261426143,0,0
613.01434069701,727.77754899784,2.3658565856586,1227353.7808165,25147.610890127,3868158.7914666,7.5658565856586,0,0
613.01434093258,727.57575996116,2.3702870287029,1227353.7808165,25147.610890127,3868158.7914666,7.5702870287029,0,0
613.01434116814,727.37397092449,2.3747174717472,1227353.7808165,25147.610890127,3868158.7914666,7.5747174717472,0,0
613.01434140371,727.17218188781,2.3791479147915,1227353.7808165,25147.610890127,3868158.7914666,7.5791479147915,0,0
613.01434163928,726.97039285113,2.3835783578358,1227353.7808165,25147.610890127,3868158.7914666,7.5835783578358,0,0
613.01434187484,726.76860381446,2.3880088008801,1227353.7808165,25147.610890127,3868158.7914666,7.5880088008801,0,0
613.01434211041,726.56681477778,2.3924392439244,1227353.7808165,25147.610890127,3868158.7914666,7.5924392439244,0,0
613.01434234598,726.3650257411,2.3968696869687,1227353.7808165,25147.610890127,3868158.7914666,7.5968696869687,0,0
613.01434258154,726.16323670443,2.401300130013,1227353.7808165,25147.610890127,3868158.7914666,7.601300130013,0,0
613.01434281711,725.96144766775,2.4057305730573,1227353.7808165,25147.610890127,3868158.7914666,7.6057305730573,0,0
613.01434305268,725.75965863107,2.4101610161016,1227353.7808165,25147.610890127,3868158.7914666,7.6101610161016,0,0
613.01434328824,725.55786959439,2.4145914591459,1227353.7808165,25147.610890127,3868158.7914666,7.6145914591459,0,0
613.01434352381,725.35608055772,2.4190219021902,1227353.7808165,25147.610890127,3868158.7914666,7.6190219021902,0,0
613.01434375938,725.15429152104,2.4234523452345,1227353.7808165,25147.610890127,3868158.7914666,7.6234523452345,0,0
613.01434399494,724.95250248436,2.4278827882788,1227353.7808165,25147.610890127,3868158.7914666,7.6278827882788,0,0
613.01434423051,724.75071344769,2.4323132313231,1227353.7808165,25147.610890127,3868158.7914666,7.6323132313231,0,0
613.01434446608,724.54892441101,2.4367436743674,1227353.7808165,25147.610890127,3868158.7914666,7.6367436743674,0,0
613.01434470164,724.34713537433,2.4411741174117,1227353.7808165,25147.610890127,3868158.7914666,7.6411741174117,0,0
613.01434493721,724.14534633766,2.445604560456,1227353.7808165,25147.610890127,3868158.7914666,7.645604560456,0,0
613.01434517278,723.94355730098,2.4500350035003,1227353.7808165,25147.610890127,3868158.7914666,7.6500350035004,0,0
613.01434540834,723.7417682643,2.4544654465447,1227353.7808165,25147.610890127,3868158.7914666,7.6544654465447,0,0
613.01434564931,723.53997920927,2.458895889589,1257940.9766561,-30985.815357509,3797916.6416433,7.658895889589,0,0
613.01434589364,723.33819014284,2.4633263326333,1257940.9766561,-30985.815357509,3797916.6416433,7.6633263326333,0,0
613.01434613796,723.1364010764,2.4677567756776,1257940.9766561,-30985.815357509,3797916.6416433,7.6677567756776,0,0
613.01434638228,722.93461200997,2.4721872187219,1257940.9766561,-30985.815357509,3797916.6416433,7.6721872187219,0,0
613.0143466266,722.73282294354,2.4766176617662,1257940.9766561,-30985.815357509,3797916.6416433,7.6766176617662,0,0
613.01434687093,722.5310338771,2.4810481048105,1257940.9766561,-30985.815357509,3797916.6416433,7.6810481048105,0,0
613.01434711525,722.32924481067,2.4854785478548,1257940.9766561,-30985.815357509,3797916.6416433,7.6854785478548,0,0
613.01434735957,722.12745574424,2.4899089908991,1257940.9766561,-30985.815357509,3797916.6416433,7.6899089908991,0,0
613.0143476039,721.9256666778,2.4943394339434,1257940.9766561,-30985.815357509,3797916.6416433,7.6943394339434,0,0
613.01434784822,721.72387761137,2.4987698769877,1257940.9766561,-30985.815357509,3797916.6416433,7.6987698769877,0,0
613.01434809254,721.52208854494,2.503200320032,1257940.9766561,-30985.815357509,3797916.6416433,7.703200320032,0,0
613.01434833687,721.32029947851,2.5076307630763,1257940.9766561,-30985.815357509,3797916.6416433,7.7076307630763,0,0
613.01434858119,721.11851041207,2.5120612061206,1257940.9766561,-30985.815357509,3797916.6416433,7.7120612061206,0,0
613.01434882551,720.91672134564,2.5164916491649,1257940.9766561,-30985.815357509,3797916.6416433,7.7164916491649,0,0
613.01434906983,720.71493227921,2.5209220922092,1257940.9766561,-30985.815357509,3797916.6416433,7.7209220922092,0,0
613.01434931416,720.51314321277,2.5253525352535,1257940.9766561,-30985.815357509,3797916.6416433,7.7253525352535,0,0
613.01434955848,720.31135414634,2.5297829782978,1257940.9766561,-30985.815357509,3797916.6416433,7.7297829782978,0,0
613.0143498028,720.10956507991,2.5342134213421,1257940.9766561,-30985.815357509,3797916.6416433,7.7342134213421,0,0
613.01435004713,719.90777601347,2.5386438643864,1257940.9766561,-30985.815357509,3797916.6416433,7.7386438643864,0,0
613.01435029145,719.70598694704,2.5430743074307,1257940.9766561,-30985.815357509,3797916.6416433,7.7430743074307,0,0
613.01435053577,719.50419788061,2.547504750475,1257940.9766561,-30985.815357509,3797916.6416433,7.747504750475,0,0
613.0143507801,719.30240881417,2.5519351935194,1257940.9766561,-30985.815357509,3797916.6416433,7.7519351935194,0,0
613.01435102442,719.10061974774,2.5563656365637,1257940.9766561,-30985.815357509,3797916.6416433,7.7563656365637,0,0
613.01435126874,718.89883068131,2.560796079608,1257940.9766561,-30985.815357509,3797916.6416433,7.760796079608,0,0
613.01435151306,718.69704161487,2.5652265226523,1257940.9766561,-30985.815357509,3797916.6416433,7.7652265226523,0,0
613.01435175739,718.49525254844,2.5696569656966,1257940.9766561,-30985.815357509,3797916.6416433,7.7696569656966,0,0
613.01435200171,718.29346348201,2.5740874087409,1257940.9766561,-30985.815357509,3797916.6416433,7.7740874087409,0,0
613.01435224603,718.09167441558,2.5785178517852,1257940.9766561,-30985.815357509,3797916.6416433,7.7785178517852,0,0
613.01435249036,717.88988534914,2.5829482948295,1257940.9766561,-30985.815357509,3797916.6416433,7.7829482948295,0,0
613.01435273468,717.68809628271,2.5873787378738,1257940.9766561,-30985.815357509,3797916.6416433,7.7873787378738,0,0
613.014352979,717.48630721628,2.5918091809181,1257940.9766561,-30985.815357509,3797916.6416433,7.7918091809181,0,0
613.01435322333,717.28451814984,2.5962396239624,1257940.9766561,-30985.815357509,3797916.6416433,7.7962396239624,0,0
613.01435346765,717.08272908341,2.6006700670067,1257940.9766561,-30985.815357509,3797916.6416433,7.8006700670067,0,0
613.01435371197,716.88094001698,2.605100510051,1257940.9766561,-30985.815357509,3797916.6416433,7.805100510051,0,0
613.01435395629,716.67915095054,2.6095309530953,1257940.9766561,-30985.815357509,3797916.6416433,7.8095309530953,0,0
613.01435420062,716.47736188411,2.6139613961396,1257940.9766561,-30985.815357509,3797916.6416433,7.8139613961396,0,0
613.01435444494,716.27557281768,2.6183918391839,1257940.9766561,-30985.815357509,3797916.6416433,7.8183918391839,0,0
613.01435468926,716.07378375124,2.6228222822282,1257940.9766561,-30985.815357509,3797916.6416433,7.8228222822282,0,0
613.01435493522,715.87199469249,2.6272527252725,1271158.4630427,24345.037959365,3716694.9768061,7.8272527252725,0,0
613.01435518562,715.67020565455,2.6316831683168,1271158.4630427,24345.037959365,3716694.9768061,7.8316831683168,0,0
613.01435543603,715.46841661662,2.6361136113611,1271158.4630427,24345.037959365,3716694.9768061,7.8361136113611,0,0
613.01435568643,715.26662757869,2.6405440544054,1271158.4630427,24345.037959365,3716694.9768061,7.8405440544054,0,0
613.01435593683,715.06483854075,2.6449744974497,1271158.4630427,24345.037959365,3716694.9768061,7.8449744974497,0,0
613.01435618723,714.86304950282,2.649404940494,1271158.4630427,24345.037959365,3716694.9768061,7.849404940494,0,0
613.01435643763,714.66126046489,2.6538353835384,1271158.4630427,24345.037959365,3716694.9768061,7.8538353835384,0,0
613.01435668803,714.45947142696,2.6582658265827,1271158.4630427,24345.037959365,3716694.9768061,7.8582658265827,0,0
613.01435693843,714.25768238902,2.662696269627,1271158.4630427,24345.037959365,3716694.9768061,7.862696269627,0,0
613.01435718883,714.05589335109,2.6671267126713,1271158.4630427,24345.037959365,3716694.9768061,7.8671267126713,0,0
613.01435743924,713.85410431316,2.6715571557156,1271158.4630427,24345.037959365,3716694.9768061,7.8715571557156,0,0
613.01435768964,713.65231527522,2.6759875987599,1271158.4630427,24345.037959365,3716694.9768061,7.8759875987599,0,0
613.01435794004,713.45052623729,2.6804180418042,1271158.4630427,24345.037959365,3716694.9768061,7.8804180418042,0,0
613.01435819044,713.24873719936,2.6848484848485,1271158.4630427,24345.037959365,3716694.9768061,7.8848484848485,0,0
613.01435844084,713.04694816142,2.6892789278928,1271158.4630427,24345.037959365,3716694.9768061,7.8892789278928,0,0
613.01435869124,712.84515912349,2.6937093709371,1271158.4630427,24345.037959365,3716694.9768061,7.8937093709371,0,0
613.01435894164,712.64337008556,2.6981398139814,1271158.4630427,24345.037959365,3716694.9768061,7.8981398139814,0,0
613.01435919204,712.44158104763,2.7025702570257,1271158.4630427,24345.037959365,3716694.9768061,7.9025702570257,0,0
613.01435944244,712.23979200969,2.70700070007,1271158.4630427,24345.037959365,3716694.9768061,7.90700070007,0,0
613.01435969285,712.03800297176,2.7114311431143,1271158.4630427,24345.037959365,3716694.9768061,7.9114311431143,0,0
613.01435994325,711.83621393383,2.7158615861586,1271158.4630427,24345.037959365,3716694.9768061,7.9158615861586,0,0
613.01436019365,711.63442489589,2.7202920292029,1271158.4630427,24345.037959365,3716694.9768061,7.9202920292029,0,0
613.01436044405,711.43263585796,2.7247224722472,1271158.4630427,24345.037959365,3716694.9768061,7.9247224722472,0,0
613.01436069445,711.23084682003,2.7291529152915,1271158.4630427,24345.037959365,3716694.9768061,7.9291529152915,0,0
613.01436094485,711.02905778209,2.7335833583358,1271158.4630427,24345.037959365,3716694.9768061,7.9335833583358,0,0
613.01436119525,710.82726874416,2.7380138013801,1271158.4630427,24345.037959365,3716694.9768061,7.9380138013801,0,0
613.01436144565,710.62547970623,2.7424442444244,1271158.4630427,24345.037959365,3716694.9768061,7.9424442444244,0,0
613.01436169605,710.4236906683,2.7468746874687,1271158.4630427,24345.037959365,3716694.9768061,7.9468746874687,0,0
613.01436194646,710.22190163036,2.7513051305131,1271158.4630427,24345.037959365,3716694.9768061,7.9513051305131,0,0
613.01436219686,710.02011259243,2.7557355735574,1271158.4630427,24345.037959365,3716694.9768061,7.9557355735574,0,0
613.01436244726,709.8183235545,2.7601660166017,1271158.4630427,24345.037959365,3716694.9768061,7.9601660166017,0,0
613.01436269766,709.61653451656,2.764596459646,1271158.4630427,24345.037959365,3716694.9768061,7.964596459646,0,0
613.01436294806,709.41474547863,2.7690269026903,1271158.4630427,24345.037959365,3716694.9768061,7.9690269026903,0,0
613.01436319846,709.2129564407,2.7734573457346,1271158.4630427,24345.037959365,3716694.9768061,7.9734573457346,0,0
613.01436344886,709.01116740277,2.7778877887789,1271158.4630427,24345.037959365,3716694.9768061,7.9778877887789,0,0
613.01436369926,708.80937836483,2.7823182318232,1271158.4630427,24345.037959365,3716694.9768061,7.9823182318232,0,0
613.01436394966,708.6075893269,2.7867486748675,1271158.4630427,24345.037959365,3716694.9768061,7.9867486748675,0,0
613.01436420007,708.40580028897,2.7911791179118,1271158.4630427,24345.037959365,3716694.9768061,7.9911791179118,0,0
613.01436445047,708.20401125103,2.7956095609561,1271158.4630427,24345.037959365,3716694.9768061,7.9956095609561,0,0
613.01436470087,708.0022222131,2.8000400040004,1271158.4630427,24345.037959365,3716694.9768061,8.0000400040004,0,0
613.01436495127,707.80043317517,2.8044704470447,1271158.4630427,24345.037959365,3716694.9768061,8.0044704470447,0,0
613.01436520167,707.59864413723,2.808900890089,1271158.4630427,24345.037959365,3716694.9768061,8.008900890089,0,0
613.01436545207,707.3968550993,2.8133313331333,1271158.4630427,24345.037959365,3716694.9768061,8.0133313331333,0,0
613.01436570247,707.19506606137,2.8177617761776,1271158.4630427,24345.037959365,3716694.9768061,8.0177617761776,0,0
613.01436595287,706.99327702344,2.8221922192219,1271158.4630427,24345.037959365,3716694.9768061,8.0221922192219,0,0
613.01436620328,706.7914879855,2.8266226622662,1271158.4630427,24345.037959365,3716694.9768061,8.0266226622662,0,0
613.01436645368,706.58969894757,2.8310531053105,1271158.4630427,24345.037959365,3716694.9768061,8.0310531053105,0,0
613.01436670408,706.38790990964,2.8354835483548,1271158.4630427,24345.037959365,3716694.9768061,8.0354835483548,0,0
613.01436695448,706.1861208717,2.8399139913991,1271158.4630427,24345.037959365,3716694.9768061,8.0399139913991,0,0
613.01436720488,705.98433183377,2.8443444344434,1271158.4630427,24345.037959365,3716694.9768061,8.0443444344434,0,0
613.01436745528,705.78254279584,2.8487748774877,1271158.4630427,24345.037959365,3716694.9768061,8.0487748774877,0,0
613.01436770568,705.5807537579,2.8532053205321,1271158.4630427,24345.037959365,3716694.9768061,8.0532053205321,0,0
613.01436795608,705.37896471997,2.8576357635764,1271158.4630427,24345.037959365,3716694.9768061,8.0576357635764,0,0
613.01436820648,705.17717568204,2.8620662066207,1271158.4630427,24345.037959365,3716694.9768061,8.0620662066207,0,0
613.01436845689,704.97538664411,2.866496649665,1271158.4630427,24345.037959365,3716694.9768061,8.066496649665,0,0
613.01436870729,704.77359760617,2.8709270927093,1271158.4630427,24345.037959365,3716694.9768061,8.0709270927093,0,0
613.01436896143,704.57180855452,2.8753575357536,1296906.637456,-25476.265603671,3666815.6869007,8.0753575357536,0,0
613.01436921878,704.37001949109,2.8797879787979,1296906.637456,-25476.265603671,3666815.6869007,8.0797879787979,0,0
613.01436947614,704.16823042766,2.8842184218422,1296906.637456,-25476.265603671,3666815.6869007,8.0842184218422,0,0
613.01436973349,703.96644136422,2.8886488648865,1296906.637456,-25476.265603671,3666815.6869007,8.0886488648865,0,0
613.01436999085,703.76465230079,2.8930793079308,1296906.637456,-25476.265603671,3666815.6869007,8.0930793079308,0,0
613.0143702482,703.56286323736,2.8975097509751,1296906.637456,-25476.265603671,3666815.6869007,8.0975097509751,0,0
613.01437050556,703.36107417392,2.9019401940194,1296906.637456,-25476.265603671,3666815.6869007,8.1019401940194,0,0
613.01437076291,703.15928511049,2.9063706370637,1296906.637456,-25476.265603671,3666815.6869007,8.1063706370637,0,0
613.01437102027,702.95749604706,2.910801080108,1296906.637456,-25476.265603671,3666815.6869007,8.110801080108,0,0
613.01437127762,702.75570698363,2.9152315231523,1296906.637456,-25476.265603671,3666815.6869007,8.1152315231523,0,0
613.01437153498,702.55391792019,2.9196619661966,1296906.637456,-25476.265603671,3666815.6869007,8.1196619661966,0,0
613.01437179233,702.35212885676,2.9240924092409,1296906.637456,-25476.265603671,3666815.6869007,8.1240924092409,0,0
613.01437204969,702.15033979333,2.9285228522852,1296906.637456,-25476.265603671,3666815.6869007,8.1285228522852,0,0
613.01437230704,701.94855072989,2.9329532953295,1296906.637456,-25476.265603671,3666815.6869007,8.1329532953295,0,0
613.0143725644,701.74676166646,2.9373837383738,1296906.637456,-25476.265603671,3666815.6869007,8.1373837383738,0,0
613.01437282175,701.54497260303,2.9418141814181,1296906.637456,-25476.265603671,3666815.6869007,8.1418141814181,0,0
613.01437307911,701.3431835396,2.9462446244624,1296906.637456,-25476.265603671,3666815.6869007,8.1462446244624,0,0
613.01437333646,701.14139447616,2.9506750675067,1296906.637456,-25476.265603671,3666815.6869007,8.1506750675068,0,0
613.01437359382,700.93960541273,2.9551055105511,1296906.637456,-25476.265603671,3666815.6869007,8.1551055105511,0,0
613.01437385117,700.7378163493,2.9595359535954,1296906.637456,-25476.265603671,3666815.6869007,8.1595359535954,0,0
613.01437410853,700.53602728586,2.9639663966397,1296906.637456,-25476.265603671,3666815.6869007,8.1639663966397,0,0
613.01437436588,700.33423822243,2.968396839684,1296906.637456,-25476.265603671,3666815.6869007,8.168396839684,0,0
613.01437462324,700.132449159,2.9728272827283,1296906.637456,-25476.265603671,3666815.6869007,8.1728272827283,0,0
613.01437488059,699.93066009556,2.9772577257726,1296906.637456,-25476.265603671,3666815.6869007,8.1772577257726,0,0
613.01437513795,699.72887103213,2.9816881688169,1296906.637456,-25476.265603671,3666815.6869007,8.1816881688169,0,0
613.0143753953,699.5270819687,2.9861186118612,1296906.637456,-25476.265603671,3666815.6869007,8.1861186118612,0,0
613.01437565266,699.32529290527,2.9905490549055,1296906.637456,-25476.265603671,3666815.6869007,8.1905490549055,0,0
613.01437591001,699.12350384183,2.9949794979498,1296906.637456,-25476.265603671,3666815.6869007,8.1949794979498,0,0
613.01437616737,698.9217147784,2.9994099409941,1296906.637456,-25476.265603671,3666815.6869007,8.1994099409941,0,0
613.01437642472,698.71992571497,3.0038403840384,1296906.637456,-25476.265603671,3666815.6869007,8.2038403840384,0,0
613.01437668208,698.51813665153,3.0082708270827,1296906.637456,-25476.265603671,3666815.6869007,8.2082708270827,0,0
613.01437693943,698.3163475881,3.012701270127,1296906.637456,-25476.265603671,3666815.6869007,8.212701270127,0,0
613.01437719679,698.11455852467,3.0171317131713,1296906.637456,-25476.265603671,3666815.6869007,8.2171317131713,0,0
613.01437745414,697.91276946124,3.0215621562156,1296906.637456,-25476.265603671,3666815.6869007,8.2215621562156,0,0
613.0143777115,697.7109803978,3.0259925992599,1296906.637456,-25476.265603671,3666815.6869007,8.2259925992599,0,0
613.01437796885,697.50919133437,3.0304230423042,1296906.637456,-25476.265603671,3666815.6869007,8.2304230423042,0,0
613.01437822621,697.30740227094,3.0348534853485,1296906.637456,-25476.265603671,3666815.6869007,8.2348534853485,0,0
613.01437848356,697.1056132075,3.0392839283928,1296906.637456,-25476.265603671,3666815.6869007,8.2392839283928,0,0
613.01437874092,696.90382414407,3.0437143714371,1296906.637456,-25476.265603671,3666815.6869007,8.2437143714371,0,0
613.01437899827,696.70203508064,3.0481448144814,1296906.637456,-25476.265603671,3666815.6869007,8.2481448144814,0,0
613.01437925563,696.50024601721,3.0525752575258,1296906.637456,-25476.265603671,3666815.6869007,8.2525752575258,0,0
613.01437951298,696.29845695377,3.0570057005701,1296906.637456,-25476.265603671,3666815.6869007,8.2570057005701,0,0
613.01437977034,696.09666789034,3.0614361436144,1296906.637456,-25476.265603671,3666815.6869007,8.2614361436144,0,0
613.01438002769,695.89487882691,3.0658665866587,1296906.637456,-25476.265603671,3666815.6869007,8.2658665866587,0,0
613.01438028505,695.69308976347,3.070297029703,1296906.637456,-25476.265603671,3666815.6869007,8.270297029703,0,0
613.0143805424,695.49130070004,3.0747274727473,1296906.637456,-25476.265603671,3666815.6869007,8.2747274727473,0,0
613.01438079976,695.28951163661,3.0791579157916,1296906.637456,-25476.265603671,3666815.6869007,8.2791579157916,0,0
613.01438105711,695.08772257317,3.0835883588359,1296906.637456,-25476.265603671,3666815.6869007,8.2835883588359,0,0
613.01438131727,694.88593351932,3.0880188018802,1309108.1781546,13666.718039506,3563786.4103841,8.2880188018802,0,0
613.0143815815,694.68414447939,3.0924492449245,1309108.1781546,13666.718039506,3563786.4103841,8.2924492449245,0,0
613.01438184573,694.48235543946,3.0968796879688,1309108.1781546,13666.718039506,3563786.4103841,8.2968796879688,0,0
613.01438210996,694.28056639952,3.1013101310131,1309108.1781546,13666.718039506,3563786.4103841,8.3013101310131,0,0
613.01438237419,694.07877735959,3.1057405740574,1309108.1781546,13666.718039506,3563786.4103841,8.3057405740574,0,0
613.01438263842,693.87698831966,3.1101710171017,1309108.1781546,13666.718039506,3563786.4103841,8.3101710171017,0,0
613.01438290265,693.67519927973,3.114601460146,1309108.1781546,13666.718039506,3563786.4103841,8.314601460146,0,0
613.01438316688,693.4734102398,3.1190319031903,1309108.1781546,13666.718039506,3563786.4103841,8.3190319031903,0,0
613.01438343112,693.27162119987,3.1234623462346,1309108.1781546,13666.718039506,3563786.4103841,8.3234623462346,0,0
613.01438369535,693.06983215994,3.1278927892789,1309108.1781546,13666.718039506,3563786.4103841,8.3278927892789,0,0
613.01438395958,692.86804312,3.1323232323232,1309108.1781546,13666.718039506,3563786.4103841,8.3323232323232,0,0
613.01438422381,692.66625408007,3.1367536753675,1309108.1781546,13666.718039506,3563786.4103841,8.3367536753675,0,0
613.01438448804,692.46446504014,3.1411841184118,1309108.1781546,13666.718039506,3563786.4103841,8.3411841184118,0,0
613.01438475227,692.26267600021,3.1456145614561,1309108.1781546,13666.718039506,3563786.4103841,8.3456145614561,0,0
613.0143850165,692.06088696028,3.1500450045004,1309108.1781546,13666.718039506,3563786.4103841,8.3500450045004,0,0
613.01438528073,691.85909792035,3.1544754475448,1309108.1781546,13666.718039506,3563786.4103841,8.3544754475448,0,0
613.01438554496,691.65730888042,3.1589058905891,1309108.1781546,13666.718039506,3563786.4103841,8.3589058905891,0,0
613.0143858092,691.45551984048,3.1633363336334,1309108.1781546,13666.718039506,3563786.4103841,8.3633363336334,0,0
613.01438607343,691.25373080055,3.1677667766777,1309108.1781546,13666.718039506,3563786.4103841,8.3677667766777,0,0
613.01438633766,691.05194176062,3.172197219722,1309108.1781546,13666.718039506,3563786.4103841,8.372197219722,0,0
613.01438660189,690.85015272069,3.1766276627663,1309108.1781546,13666.718039506,3563786.4103841,8.3766276627663,0,0
613.01438686612,690.64836368076,3.1810581058106,1309108.1781546,13666.718039506,3563786.4103841,8.3810581058106,0,0
613.01438713035,690.44657464083,3.1854885488549,1309108.1781546,13666.718039506,3563786.4103841,8.3854885488549,0,0
613.01438739458,690.2447856009,3.1899189918992,1309108.1781546,13666.718039506,3563786.4103841,8.3899189918992,0,0
613.01438765881,690.04299656096,3.1943494349435,1309108.1781546,13666.718039506,3563786.4103841,8.3943494349435,0,0
613.01438792304,689.84120752103,3.1987798779878,1309108.1781546,13666.718039506,3563786.4103841,8.3987798779878,0,0
613.01438818727,689.6394184811,3.2032103210321,1309108.1781546,13666.718039506,3563786.4103841,8.4032103210321,0,0
613.01438845151,689.43762944117,3.2076407640764,1309108.1781546,13666.718039506,3563786.4103841,8.4076407640764,0,0
613.01438871574,689.23584040124,3.2120712071207,1309108.1781546,13666.718039506,3563786.4103841,8.4120712071207,0,0
613.01438897997,689.03405136131,3.216501650165,1309108.1781546,13666.718039506,3563786.4103841,8.416501650165,0,0
613.0143892442,688.83226232138,3.2209320932093,1309108.1781546,13666.718039506,3563786.4103841,8.4209320932093,0,0
613.01438950843,688.63047328145,3.2253625362536,1309108.1781546,13666.718039506,3563786.4103841,8.4253625362536,0,0
613.01438977266,688.42868424151,3.2297929792979,1309108.1781546,13666.718039506,3563786.4103841,8.4297929792979,0,0
613.01439003689,688.22689520158,3.2342234223422,1309108.1781546,13666.718039506,3563786.4103841,8.4342234223422,0,0
613.01439030112,688.02510616165,3.2386538653865,1309108.1781546,13666.718039506,3563786.4103841,8.4386538653865,0,0
613.01439056535,687.82331712172,3.2430843084308,1309108.1781546,13666.718039506,3563786.4103841,8.4430843084308,0,0
613.01439082959,687.62152808179,3.2475147514751,1309108.1781546,13666.718039506,3563786.4103841,8.4475147514751,0,0
613.01439109382,687.41973904186,3.2519451945195,1309108.1781546,13666.718039506,3563786.4103841,8.4519451945195,0,0
613.01439135805,687.21795000193,3.2563756375638,1309108.1781546,13666.718039506,3563786.4103841,8.4563756375638,0,0
613.01439162228,687.01616096199,3.2608060806081,1309108.1781546,13666.718039506,3563786.4103841,8.4608060806081,0,0
613.01439188651,686.81437192206,3.2652365236524,1309108.1781546,13666.718039506,3563786.4103841,8.4652365236524,0,0
613.01439215074,686.61258288213,3.2696669666967,1309108.1781546,13666.718039506,3563786.4103841,8.4696669666967,0,0
613.01439241497,686.4107938422,3.274097409741,1309108.1781546,13666.718039506,3563786.4103841,8.474097409741,0,0
613.0143926792,686.20900480227,3.2785278527853,1309108.1781546,13666.718039506,3563786.4103841,8.4785278527853,0,0
613.01439294513,686.00721576028,3.2829582958296,1326748.7286885,5916.5001047503,3566564.0390205,8.4829582958296,0,0
613.01439321246,685.80542671658,3.2873887388739,1326748.7286885,5916.5001047503,3566564.0390205,8.4873887388739,0,0
613.01439347979,685.60363767288,3.2918191819182,1326748.7286885,5916.5001047503,3566564.0390205,8.4918191819182,0,0
613.01439374711,685.40184862918,3.2962496249625,1326748.7286885,5916.5001047503,3566564.0390205,8.4962496249625,0,0
613.01439401444,685.20005958548,3.3006800680068,1326748.7286885,5916.5001047503,3566564.0390205,8.5006800680068,0,0
613.01439428177,684.99827054178,3.3051105110511,1326748.7286885,5916.5001047503,3566564.0390205,8.5051105110511,0,0
613.0143945491,684.79648149808,3.3095409540954,1326748.7286885,5916.5001047503,3566564.0390205,8.5095409540954,0,0
613.01439481643,684.59469245438,3.3139713971397,1326748.7286885,5916.5001047503,3566564.0390205,8.5139713971397,0,0
613.01439508376,684.39290341068,3.318401840184,1326748.7286885,5916.5001047503,3566564.0390205,8.518401840184,0,0
613.01439535109,684.19111436698,3.3228322832283,1326748.7286885,5916.5001047503,3566564.0390205,8.5228322832283,0,0
613.01439561841,683.98932532328,3.3272627262726,1326748.7286885,5916.5001047503,3566564.0390205,8.5272627262726,0,0
613.01439588574,683.78753627958,3.3316931693169,1326748.7286885,5916.5001047503,3566564.0390205,8.5316931693169,0,0
613.01439615307,683.58574723588,3.3361236123612,1326748.7286885,5916.5001047503,3566564.0390205,8.5361236123612,0,0
613.0143964204,683.38395819219,3.3405540554055,1326748.7286885,5916.5001047503,3566564.0390205,8.5405540554055,0,0
613.01439668773,683.18216914849,3.3449844984498,1326748.7286885,5916.5001047503,3566564.0390205,8.5449844984498,0,0
613.01439695506,682.98038010479,3.3494149414941,1326748.7286885,5916.5001047503,3566564.0390205,8.5494149414941,0,0
613.01439722239,682.77859106109,3.3538453845385,1326748.7286885,5916.5001047503,3566564.0390205,8.5538453845385,0,0
613.01439748971,682.57680201739,3.3582758275828,1326748.7286885,5916.5001047503,3566564.0390205,8.5582758275828,0,0
613.01439775704,682.37501297369,3.3627062706271,1326748.7286885,5916.5001047503,3566564.0390205,8.5627062706271,0,0
613.01439802437,682.17322392999,3.3671367136714,1326748.7286885,5916.5001047503,3566564.0390205,8.5671367136714,0,0
613.0143982917,681.97143488629,3.3715671567157,1326748.7286885,5916.5001047503,3566564.0390205,8.5715671567157,0,0
613.01439855903,681.76964584259,3.37599759976,1326748.7286885,5916.5001047503,3566564.0390205,8.57599759976,0,0
613.01439882636,681.56785679889,3.3804280428043,1326748.7286885,5916.5001047503,3566564.0390205,8.5804280428043,0,0
613.01439909369,681.36606775519,3.3848584858486,1326748.7286885,5916.5001047503,3566564.0390205,8.5848584858486,0,0
613.01439936101,681.16427871149,3.3892889288929,1326748.7286885,5916.5001047503,3566564.0390205,8.5892889288929,0,0
613.01439962834,680.96248966779,3.3937193719372,1326748.7286885,5916.5001047503,3566564.0390205,8.5937193719372,0,0
613.01439989567,680.76070062409,3.3981498149815,1326748.7286885,5916.5001047503,3566564.0390205,8.5981498149815,0,0
613.014400163,680.5589115804,3.4025802580258,1326748.7286885,5916.5001047503,3566564.0390205,8.6025802580258,0,0
613.01440043033,680.3571225367,3.4070107010701,1326748.7286885,5916.5001047503,3566564.0390205,8.6070107010701,0,0
613.01440069766,680.155333493,3.4114411441144,1326748.7286885,5916.5001047503,3566564.0390205,8.6114411441144,0,0
613.01440096499,679.9535444493,3.4158715871587,1326748.7286885,5916.5001047503,3566564.0390205,8.6158715871587,0,0
613.01440123232,679.7517554056,3.420302030203,1326748.7286885,5916.5001047503,3566564.0390205,8.620302030203,0,0
613.01440149964,679.5499663619,3.4247324732473,1326748.7286885,5916.5001047503,3566564.0390205,8.6247324732473,0,0
613.01440176697,679.3481773182,3.4291629162916,1326748.7286885,5916.5001047503,3566564.0390205,8.6291629162916,0,0
613.0144020343,679.1463882745,3.4335933593359,1326748.7286885,5916.5001047503,3566564.0390205,8.6335933593359,0,0
613.01440230163,678.9445992308,3.4380238023802,1326748.7286885,5916.5001047503,3566564.0390205,8.6380238023802,0,0
613.01440256896,678.7428101871,3.4424542454245,1326748.7286885,5916.5001047503,3566564.0390205,8.6424542454245,0,0
613.01440283629,678.5410211434,3.4468846884688,1326748.7286885,5916.5001047503,3566564.0390205,8.6468846884688,0,0
613.01440310362,678.3392320997,3.4513151315132,1326748.7286885,5916.5001047503,3566564.0390205,8.6513151315132,0,0
613.01440337094,678.137443056,3.4557455745575,1326748.7286885,5916.5001047503,3566564.0390205,8.6557455745575,0,0
613.01440363827,677.93565401231,3.4601760176018,1326748.7286885,5916.5001047503,3566564.0390205,8.6601760176018,0,0
613.0144039056,677.73386496861,3.4646064606461,1326748.7286885,5916.5001047503,3566564.0390205,8.6646064606461,0,0
613.01440417293,677.53207592491,3.4690369036904,1326748.7286885,5916.5001047503,3566564.0390205,8.6690369036904,0,0
613.01440444026,677.33028688121,3.4734673467347,1326748.7286885,5916.5001047503,3566564.0390205,8.6734673467347,0,0
613.01440470759,677.12849783751,3.477897789779,1326748.7286885,5916.5001047503,3566564.0390205,8.677897789779,0,0
613.01440497492,676.92670879381,3.4823282328233,1326748.7286885,5916.5001047503,3566564.0390205,8.6823282328233,0,0
613.01440524224,676.72491975011,3.4867586758676,1326748.7286885,5916.5001047503,3566564.0390205,8.6867586758676,0,0
613.01440550957,676.52313070641,3.4911891189119,1326748.7286885,5916.5001047503,3566564.0390205,8.6911891189119,0,0
613.0144057769,676.32134166271,3.4956195619562,1326748.7286885,5916.5001047503,3566564.0390205,8.6956195619562,0,0
613.01440604521,676.11955261537,3.5000500050005,1326839.119399,-19942.422996295,3467039.9373527,8.7000500050005,0,0
613.01440631705,675.91776355498,3.5044804480448,1326839.119399,-19942.422996295,3467039.9373527,8.7044804480448,0,0
613.01440658888,675.7159744946,3.5089108910891,1326839.119399,-19942.422996295,3467039.9373527,8.7089108910891,0,0
613.01440686071,675.51418543421,3.5133413341334,1326839.119399,-19942.422996295,3467039.9373527,8.7133413341334,0,0
613.01440713255,675.31239637382,3.5177717771777,1326839.119399,-19942.422996295,3467039.9373527,8.7177717771777,0,0
613.01440740438,675.11060731343,3.522202220222,1326839.119399,-19942.422996295,3467039.9373527,8.722202220222,0,0
613.01440767622,674.90881825304,3.5266326632663,1326839.119399,-19942.422996295,3467039.9373527,8.7266326632663,0,0
613.01440794805,674.70702919265,3.5310631063106,1326839.119399,-19942.422996295,3467039.9373527,8.7310631063106,0,0
613.01440821988,674.50524013226,3.5354935493549,1326839.119399,-19942.422996295,3467039.9373527,8.7354935493549,0,0
613.01440849172,674.30345107187,3.5399239923992,1326839.119399,-19942.422996295,3467039.9373527,8.7399239923992,0,0
613.01440876355,674.10166201148,3.5443544354435,1326839.119399,-19942.422996295,3467039.9373527,8.7443544354435,0,0
613.01440903539,673.89987295109,3.5487848784878,1326839.119399,-19942.422996295,3467039.9373527,8.7487848784878,0,0
613.01440930722,673.6980838907,3.5532153215322,1326839.119399,-19942.422996295,3467039.9373527,8.7532153215322,0,0
613.01440957905,673.49629483031,3.5576457645765,1326839.119399,-19942.422996295,3467039.9373527,8.7576457645765,0,0
613.01440985089,673.29450576992,3.5620762076208,1326839.119399,-19942.422996295,3467039.9373527,8.7620762076208,0,0
613.01441012272,673.09271670953,3.5665066506651,1326839.119399,-19942.422996295,3467039.9373527,8.7665066506651,0,0
613.01441039456,672.89092764914,3.5709370937094,1326839.119399,-19942.422996295,3467039.9373527,8.7709370937094,0,0
613.01441066639,672.68913858875,3.5753675367537,1326839.119399,-19942.422996295,3467039.9373527,8.7753675367537,0,0
613.01441093822,672.48734952836,3.579797979798,1326839.119399,-19942.422996295,3467039.9373527,8.779797979798,0,0
613.01441121006,672.28556046797,3.5842284228423,1326839.119399,-19942.422996295,3467039.9373527,8.7842284228423,0,0
613.01441148189,672.08377140758,3.5886588658866,1326839.119399,-19942.422996295,3467039.9373527,8.7886588658866,0,0
613.01441175373,671.88198234719,3.5930893089309,1326839.119399,-19942.422996295,3467039.9373527,8.7930893089309,0,0
613.01441202556,671.6801932868,3.5975197519752,1326839.119399,-19942.422996295,3467039.9373527,8.7975197519752,0,0
613.01441229739,671.47840422641,3.6019501950195,1326839.119399,-19942.422996295,3467039.9373527,8.8019501950195,0,0
613.01441256923,671.27661516602,3.6063806380638,1326839.119399,-19942.422996295,3467039.9373527,8.8063806380638,0,0
613.01441284106,671.07482610563,3.6108110811081,1326839.119399,-19942.422996295,3467039.9373527,8.8108110811081,0,0
613.0144131129,670.87303704524,3.6152415241524,1326839.119399,-19942.422996295,3467039.9373527,8.8152415241524,0,0
613.01441338473,670.67124798485,3.6196719671967,1326839.119399,-19942.422996295,3467039.9373527,8.8196719671967,0,0
613.01441365656,670.46945892446,3.624102410241,1326839.119399,-19942.422996295,3467039.9373527,8.824102410241,0,0
613.0144139284,670.26766986407,3.6285328532853,1326839.119399,-19942.422996295,3467039.9373527,8.8285328532853,0,0
613.01441420023,670.06588080368,3.6329632963296,1326839.119399,-19942.422996295,3467039.9373527,8.8329632963296,0,0
613.01441447207,669.86409174329,3.6373937393739,1326839.119399,-19942.422996295,3467039.9373527,8.8373937393739,0,0
613.0144147439,669.6623026829,3.6418241824182,1326839.119399,-19942.422996295,3467039.9373527,8.8418241824182,0,0
613.01441501573,669.46051362251,3.6462546254625,1326839.119399,-19942.422996295,3467039.9373527,8.8462546254625,0,0
613.01441528757,669.25872456212,3.6506850685069,1326839.119399,-19942.422996295,3467039.9373527,8.8506850685069,0,0
613.0144155594,669.05693550173,3.6551155115512,1326839.119399,-19942.422996295,3467039.9373527,8.8551155115512,0,0
613.01441583124,668.85514644135,3.6595459545955,1326839.119399,-19942.422996295,3467039.9373527,8.8595459545955,0,0
613.01441610307,668.65335738096,3.6639763976398,1326839.119399,-19942.422996295,3467039.9373527,8.8639763976398,0,0
613.0144163749,668.45156832057,3.6684068406841,1326839.119399,-19942.422996295,3467039.9373527,8.8684068406841,0,0
613.01441664674,668.24977926018,3.6728372837284,1326839.119399,-19942.422996295,3467039.9373527,8.8728372837284,0,0
613.01441691857,668.04799019979,3.6772677267727,1326839.119399,-19942.422996295,3467039.9373527,8.8772677267727,0,0
613.01441719041,667.8462011394,3.681698169817,1326839.119399,-19942.422996295,3467039.9373527,8.881698169817,0,0
613.01441746224,667.64441207901,3.6861286128613,1326839.119399,-19942.422996295,3467039.9373527,8.8861286128613,0,0
613.01441773407,667.44262301862,3.6905590559056,1326839.119399,-19942.422996295,3467039.9373527,8.8905590559056,0,0
613.01441800928,667.24083397038,3.6949894989499,1348580.7894269,15280.802291404,3449370.4465985,8.8949894989499,0,0
613.01441828588,667.03904492721,3.6994199419942,1348580.7894269,15280.802291404,3449370.4465985,8.8994199419942,0,0
613.01441856248,666.83725588403,3.7038503850385,1348580.7894269,15280.802291404,3449370.4465985,8.9038503850385,0,0
613.01441883909,666.63546684085,3.7082808280828,1348580.7894269,15280.802291404,3449370.4465985,8.9082808280828,0,0
613.01441911569,666.43367779768,3.7127112711271,1348580.7894269,15280.802291404,3449370.4465985,8.9127112711271,0,0
613.01441939229,666.2318887545,3.7171417141714,1348580.7894269,15280.802291404,3449370.4465985,8.9171417141714,0,0
613.0144196689,666.03009971133,3.7215721572157,1348580.7894269,15280.802291404,3449370.4465985,8.9215721572157,0,0
613.0144199455,665.82831066815,3.72600260026,1348580.7894269,15280.802291404,3449370.4465985,8.92600260026,0,0
613.0144202221,665.62652162497,3.7304330433043,1348580.7894269,15280.802291404,3449370.4465985,8.9304330433043,0,0
613.0144204987,665.4247325818,3.7348634863486,1348580.7894269,15280.802291404,3449370.4465985,8.9348634863486,0,0
613.01442077531,665.22294353862,3.7392939293929,1348580.7894269,15280.802291404,3449370.4465985,8.9392939293929,0,0
613.01442105191,665.02115449545,3.7437243724372,1348580.7894269,15280.802291404,3449370.4465985,8.9437243724372,0,0
613.01442132851,664.81936545227,3.7481548154815,1348580.7894269,15280.802291404,3449370.4465985,8.9481548154815,0,0
613.01442160512,664.61757640909,3.7525852585259,1348580.7894269,15280.802291404,3449370.4465985,8.9525852585259,0,0
613.01442188172,664.41578736592,3.7570157015702,1348580.7894269,15280.802291404,3449370.4465985,8.9570157015702,0,0
613.01442215832,664.21399832274,3.7614461446145,1348580.7894269,15280.802291404,3449370.4465985,8.9614461446145,0,0
613.01442243493,664.01220927956,3.7658765876588,1348580.7894269,15280.802291404,3449370.4465985,8.9658765876588,0,0
613.01442271153,663.81042023639,3.7703070307031,1348580.7894269,15280.802291404,3449370.4465985,8.9703070307031,0,0
613.01442298813,663.60863119321,3.7747374737474,1348580.7894269,15280.802291404,3449370.4465985,8.9747374737474,0,0
613.01442326473,663.40684215004,3.7791679167917,1348580.7894269,15280.802291404,3449370.4465985,8.9791679167917,0,0
613.01442354134,663.20505310686,3.783598359836,1348580.7894269,15280.802291404,3449370.4465985,8.983598359836,0,0
613.01442381794,663.00326406368,3.7880288028803,1348580.7894269,15280.802291404,3449370.4465985,8.9880288028803,0,0
613.01442409454,662.80147502051,3.7924592459246,1348580.7894269,15280.802291404,3449370.4465985,8.9924592459246,0,0
613.01442437115,662.59968597733,3.7968896889689,1348580.7894269,15280.802291404,3449370.4465985,8.9968896889689,0,0
613.01442464775,662.39789693415,3.8013201320132,1348580.7894269,15280.802291404,3449370.4465985,9.0013201320132,0,0
613.01442492435,662.19610789098,3.8057505750575,1348580.7894269,15280.802291404,3449370.4465985,9.0057505750575,0,0
613.01442520096,661.9943188478,3.8101810181018,1348580.7894269,15280.802291404,3449370.4465985,9.0101810181018,0,0
613.01442547756,661.79252980463,3.8146114611461,1348580.7894269,15280.802291404,3449370.4465985,9.0146114611461,0,0
613.01442575416,661.59074076145,3.8190419041904,1348580.7894269,15280.802291404,3449370.4465985,9.0190419041904,0,0
613.01442603077,661.38895171827,3.8234723472347,1348580.7894269,15280.802291404,3449370.4465985,9.0234723472347,0,0
613.01442630737,661.1871626751,3.827902790279,1348580.7894269,15280.802291404,3449370.4465985,9.027902790279,0,0
613.01442658397,660.98537363192,3.8323332333233,1348580.7894269,15280.802291404,3449370.4465985,9.0323332333233,0,0
613.01442686057,660.78358458875,3.8367636763676,1348580.7894269,15280.802291404,3449370.4465985,9.0367636763676,0,0
613.01442713718,660.58179554557,3.8411941194119,1348580.7894269,15280.802291404,3449370.4465985,9.0411941194119,0,0
613.01442741378,660.38000650239,3.8456245624562,1348580.7894269,15280.802291404,3449370.4465985,9.0456245624562,0,0
613.01442769038,660.17821745922,3.8500550055005,1348580.7894269,15280.802291404,3449370.4465985,9.0500550055005,0,0
613.01442796699,659.97642841604,3.8544854485449,1348580.7894269,15280.802291404,3449370.4465985,9.0544854485449,0,0
613.01442824359,659.77463937286,3.8589158915892,1348580.7894269,15280.802291404,3449370.4465985,9.0589158915892,0,0
613.01442852019,659.57285032969,3.8633463346335,1348580.7894269,15280.802291404,3449370.4465985,9.0633463346335,0,0
613.0144287968,659.37106128651,3.8677767776778,1348580.7894269,15280.802291404,3449370.4465985,9.0677767776778,0,0
613.0144290734,659.16927224334,3.8722072207221,1348580.7894269,15280.802291404,3449370.4465985,9.0722072207221,0,0
613.01442935,658.96748320016,3.8766376637664,1348580.7894269,15280.802291404,3449370.4465985,9.0766376637664,0,0
613.0144296266,658.76569415698,3.8810681068107,1348580.7894269,15280.802291404,3449370.4465985,9.0810681068107,0,0
613.01442990321,658.56390511381,3.885498549855,1348580.7894269,15280.802291404,3449370.4465985,9.085498549855,0,0
613.01443017981,658.36211607063,3.8899289928993,1348580.7894269,15280.802291404,3449370.4465985,9.0899289928993,0,0
613.01443045641,658.16032702746,3.8943594359436,1348580.7894269,15280.802291404,3449370.4465985,9.0943594359436,0,0
613.01443073302,657.95853798428,3.8987898789879,1348580.7894269,15280.802291404,3449370.4465985,9.0987898789879,0,0
613.01443100962,657.7567489411,3.9032203220322,1348580.7894269,15280.802291404,3449370.4465985,9.1032203220322,0,0
613.01443128622,657.55495989793,3.9076507650765,1348580.7894269,15280.802291404,3449370.4465985,9.1076507650765,0,0
613.01443156283,657.35317085475,3.9120812081208,1348580.7894269,15280.802291404,3449370.4465985,9.1120812081208,0,0
613.01443183943,657.15138181157,3.9165116511651,1348580.7894269,15280.802291404,3449370.4465985,9.1165116511651,0,0
613.01443211603,656.9495927684,3.9209420942094,1348580.7894269,15280.802291404,3449370.4465985,9.1209420942094,0,0
613.01443239264,656.74780372522,3.9253725372537,1348580.7894269,15280.802291404,3449370.4465985,9.1253725372537,0,0
613.01443266924,656.54601468205,3.929802980298,1348580.7894269,15280.802291404,3449370.4465985,9.129802980298,0,0
613.01443294584,656.34422563887,3.9342334233423,1348580.7894269,15280.802291404,3449370.4465985,9.1342334233423,0,0
613.01443322244,656.14243659569,3.9386638663866,1348580.7894269,15280.802291404,3449370.4465985,9.1386638663866,0,0
613.01443349905,655.94064755252,3.9430943094309,1348580.7894269,15280.802291404,3449370.4465985,9.1430943094309,0,0
613.01443377565,655.73885850934,3.9475247524752,1348580.7894269,15280.802291404,3449370.4465985,9.1475247524752,0,0
613.01443405225,655.53706946616,3.9519551955196,1348580.7894269,15280.802291404,3449370.4465985,9.1519551955196,0,0
613.01443432886,655.33528042299,3.9563856385639,1348580.7894269,15280.802291404,3449370.4465985,9.1563856385639,0,0
613.01443460546,655.13349137981,3.9608160816082,1348580.7894269,15280.802291404,3449370.4465985,9.1608160816082,0,0
613.01443488206,654.93170233664,3.9652465246525,1348580.7894269,15280.802291404,3449370.4465985,9.1652465246525,0,0
613.01443515867,654.72991329346,3.9696769676968,1348580.7894269,15280.802291404,3449370.4465985,9.1696769676968,0,0
613.01443543527,654.52812425028,3.9741074107411,1348580.7894269,15280.802291404,3449370.4465985,9.1741074107411,0,0
613.01443571187,654.32633520711,3.9785378537854,1348580.7894269,15280.802291404,3449370.4465985,9.1785378537854,0,0
613.01443598847,654.12454616393,3.9829682968297,1348580.7894269,15280.802291404,3449370.4465985,9.1829682968297,0,0
613.01443626508,653.92275712076,3.987398739874,1348580.7894269,15280.802291404,3449370.4465985,9.187398739874,0,0
613.01443654168,653.72096807758,3.9918291829183,1348580.7894269,15280.802291404,3449370.4465985,9.1918291829183,0,0
613.01443681828,653.5191790344,3.9962596259626,1348580.7894269,15280.802291404,3449370.4465985,9.1962596259626,0,0
613.01443709489,653.31738999123,4.0006900690069,1348580.7894269,15280.802291404,3449370.4465985,9.2006900690069,0,0
613.01443737149,653.11560094805,4.0051205120512,1348580.7894269,15280.802291404,3449370.4465985,9.2051205120512,0,0
613.01443764946,652.91381189762,4.0095509550955,1348415.3136931,-19406.62260022,3371514.8796866,9.2095509550955,0,0
613.01443792954,652.71202283596,4.0139813981398,1348415.3136931,-19406.62260022,3371514.8796866,9.2139813981398,0,0
613.01443820963,652.5102337743,4.0184118411841,1348415.3136931,-19406.62260022,3371514.8796866,9.2184118411841,0,0
613.01443848971,652.30844471264,4.0228422842284,1348415.3136931,-19406.62260022,3371514.8796866,9.2228422842284,0,0
613.0144387698,652.10665565099,4.0272727272727,1348415.3136931,-19406.62260022,3371514.8796866,9.2272727272727,0,0
613.01443904988,651.90486658933,4.031703170317,1348415.3136931,-19406.62260022,3371514.8796866,9.231703170317,0,0
613.01443932997,651.70307752767,4.0361336133613,1348415.3136931,-19406.62260022,3371514.8796866,9.2361336133613,0,0
613.01443961005,651.50128846601,4.0405640564056,1348415.3136931,-19406.62260022,3371514.8796866,9.2405640564056,0,0
613.01443989014,651.29949940436,4.0449944994499,1348415.3136931,-19406.62260022,3371514.8796866,9.2449944994499,0,0
613.01444017022,651.0977103427,4.0494249424942,1348415.3136931,-19406.62260022,3371514.8796866,9.2494249424942,0,0
613.0144404503,650.89592128104,4.0538553855386,1348415.3136931,-19406.62260022,3371514.8796866,9.2538553855386,0,0
613.01444073039,650.69413221938,4.0582858285829,1348415.3136931,-19406.62260022,3371514.8796866,9.2582858285829,0,0
613.01444101047,650.49234315773,4.0627162716272,1348415.3136931,-19406.62260022,3371514.8796866,9.2627162716272,0,0
613.01444129056,650.29055409607,4.0671467146715,1348415.3136931,-19406.62260022,3371514.8796866,9.2671467146715,0,0
613.01444157064,650.08876503441,4.0715771577158,1348415.3136931,-19406.62260022,3371514.8796866,9.2715771577158,0,0
613.01444185073,649.88697597275,4.0760076007601,1348415.3136931,-19406.62260022,3371514.8796866,9.2760076007601,0,0
613.01444213081,649.6851869111,4.0804380438044,1348415.3136931,-19406.62260022,3371514.8796866,9.2804380438044,0,0
613.01444241089,649.48339784944,4.0848684868487,1348415.3136931,-19406.62260022,3371514.8796866,9.2848684868487,0,0
613.01444269098,649.28160878778,4.089298929893,1348415.3136931,-19406.62260022,3371514.8796866,9.289298929893,0,0
613.01444297106,649.07981972612,4.0937293729373,1348415.3136931,-19406.62260022,3371514.8796866,9.2937293729373,0,0
613.01444325115,648.87803066447,4.0981598159816,1348415.3136931,-19406.62260022,3371514.8796866,9.2981598159816,0,0
613.01444353123,648.67624160281,4.1025902590259,1348415.3136931,-19406.62260022,3371514.8796866,9.3025902590259,0,0
613.01444381132,648.47445254115,4.1070207020702,1348415.3136931,-19406.62260022,3371514.8796866,9.3070207020702,0,0
613.0144440914,648.27266347949,4.1114511451145,1348415.3136931,-19406.62260022,3371514.8796866,9.3114511451145,0,0
613.01444437149,648.07087441784,4.1158815881588,1348415.3136931,-19406.62260022,3371514.8796866,9.3158815881588,0,0
613.01444465157,647.86908535618,4.1203120312031,1348415.3136931,-19406.62260022,3371514.8796866,9.3203120312031,0,0
613.01444493165,647.66729629452,4.1247424742474,1348415.3136931,-19406.62260022,3371514.8796866,9.3247424742474,0,0
613.01444521174,647.46550723286,4.1291729172917,1348415.3136931,-19406.62260022,3371514.8796866,9.3291729172917,0,0
613.01444549182,647.26371817121,4.133603360336,1348415.3136931,-19406.62260022,3371514.8796866,9.333603360336,0,0
613.01444577191,647.06192910955,4.1380338033803,1348415.3136931,-19406.62260022,3371514.8796866,9.3380338033803,0,0
613.01444605199,646.86014004789,4.1424642464246,1348415.3136931,-19406.62260022,3371514.8796866,9.3424642464246,0,0
613.01444633461,646.65835099614,4.1468946894689,1363680.1678762,12296.86687471,3342788.7950321,9.3468946894689,0,0
613.01444661878,646.45656195044,4.1513251325133,1363680.1678762,12296.86687471,3342788.7950321,9.3513251325133,0,0
613.01444690295,646.25477290475,4.1557555755576,1363680.1678762,12296.86687471,3342788.7950321,9.3557555755576,0,0
613.01444718712,646.05298385905,4.1601860186019,1363680.1678762,12296.86687471,3342788.7950321,9.3601860186019,0,0
613.01444747129,645.85119481336,4.1646164616462,1363680.1678762,12296.86687471,3342788.7950321,9.3646164616462,0,0
613.01444775545,645.64940576767,4.1690469046905,1363680.1678762,12296.86687471,3342788.7950321,9.3690469046905,0,0
613.01444803962,645.44761672197,4.1734773477348,1363680.1678762,12296.86687471,3342788.7950321,9.3734773477348,0,0
613.01444832379,645.24582767628,4.1779077907791,1363680.1678762,12296.86687471,3342788.7950321,9.3779077907791,0,0
613.01444860796,645.04403863058,4.1823382338234,1363680.1678762,12296.86687471,3342788.7950321,9.3823382338234,0,0
613.01444889213,644.84224958489,4.1867686768677,1363680.1678762,12296.86687471,3342788.7950321,9.3867686768677,0,0
613.0144491763,644.64046053919,4.191199119912,1363680.1678762,12296.86687471,3342788.7950321,9.391199119912,0,0
613.01444946047,644.4386714935,4.1956295629563,1363680.1678762,12296.86687471,3342788.7950321,9.3956295629563,0,0
613.01444974464,644.2368824478,4.2000600060006,1363680.1678762,12296.86687471,3342788.7950321,9.4000600060006,0,0
613.01445002881,644.03509340211,4.2044904490449,1363680.1678762,12296.86687471,3342788.7950321,9.4044904490449,0,0
613.01445031297,643.83330435641,4.2089208920892,1363680.1678762,12296.86687471,3342788.7950321,9.4089208920892,0,0
613.01445059714,643.63151531072,4.2133513351335,1363680.1678762,12296.86687471,3342788.7950321,9.4133513351335,0,0
613.01445088131,643.42972626502,4.2177817781778,1363680.1678762,12296.86687471,3342788.7950321,9.4177817781778,0,0
613.01445116548,643.22793721933,4.2222122212221,1363680.1678762,12296.86687471,3342788.7950321,9.4222122212221,0,0
613.01445144965,643.02614817364,4.2266426642664,1363680.1678762,12296.86687471,3342788.7950321,9.4266426642664,0,0
613.01445173382,642.82435912794,4.2310731073107,1363680.1678762,12296.86687471,3342788.7950321,9.4310731073107,0,0
613.01445201799,642.62257008225,4.235503550355,1363680.1678762,12296.86687471,3342788.7950321,9.435503550355,0,0
613.01445230216,642.42078103655,4.2399339933993,1363680.1678762,12296.86687471,3342788.7950321,9.4399339933993,0,0
613.01445258632,642.21899199086,4.2443644364436,1363680.1678762,12296.86687471,3342788.7950321,9.4443644364436,0,0
613.01445287049,642.01720294516,4.2487948794879,1363680.1678762,12296.86687471,3342788.7950321,9.4487948794879,0,0
613.01445315466,641.81541389947,4.2532253225323,1363680.1678762,12296.86687471,3342788.7950321,9.4532253225323,0,0
613.01445343883,641.61362485377,4.2576557655766,1363680.1678762,12296.86687471,3342788.7950321,9.4576557655766,0,0
613.014453723,641.41183580808,4.2620862086209,1363680.1678762,12296.86687471,3342788.7950321,9.4620862086209,0,0
613.01445400717,641.21004676238,4.2665166516652,1363680.1678762,12296.86687471,3342788.7950321,9.4665166516652,0,0
613.01445429134,641.00825771669,4.2709470947095,1363680.1678762,12296.86687471,3342788.7950321,9.4709470947095,0,0
613.01445457551,640.806468671,4.2753775377538,1363680.1678762,12296.86687471,3342788.7950321,9.4753775377538,0,0
613.01445485968,640.6046796253,4.2798079807981,1363680.1678762,12296.86687471,3342788.7950321,9.4798079807981,0,0
613.01445514384,640.40289057961,4.2842384238424,1363680.1678762,12296.86687471,3342788.7950321,9.4842384238424,0,0
613.01445542801,640.20110153391,4.2886688668867,1363680.1678762,12296.86687471,3342788.7950321,9.4886688668867,0,0
613.01445571218,639.99931248822,4.293099309931,1363680.1678762,12296.86687471,3342788.7950321,9.493099309931,0,0
613.01445599635,639.79752344252,4.2975297529753,1363680.1678762,12296.86687471,3342788.7950321,9.4975297529753,0,0
613.01445628052,639.59573439683,4.3019601960196,1363680.1678762,12296.86687471,3342788.7950321,9.5019601960196,0,0
613.01445656469,639.39394535113,4.3063906390639,1363680.1678762,12296.86687471,3342788.7950321,9.5063906390639,0,0
613.01445684886,639.19215630544,4.3108210821082,1363680.1678762,12296.86687471,3342788.7950321,9.5108210821082,0,0
613.01445713303,638.99036725974,4.3152515251525,1363680.1678762,12296.86687471,3342788.7950321,9.5152515251525,0,0
613.01445741719,638.78857821405,4.3196819681968,1363680.1678762,12296.86687471,3342788.7950321,9.5196819681968,0,0
613.01445770136,638.58678916835,4.3241124112411,1363680.1678762,12296.86687471,3342788.7950321,9.5241124112411,0,0
613.01445798553,638.38500012266,4.3285428542854,1363680.1678762,12296.86687471,3342788.7950321,9.5285428542854,0,0
613.0144582697,638.18321107697,4.3329732973297,1363680.1678762,12296.86687471,3342788.7950321,9.5329732973297,0,0
613.01445855387,637.98142203127,4.337403740374,1363680.1678762,12296.86687471,3342788.7950321,9.537403740374,0,0
613.01445883804,637.77963298558,4.3418341834183,1363680.1678762,12296.86687471,3342788.7950321,9.5418341834183,0,0
613.01445912221,637.57784393988,4.3462646264626,1363680.1678762,12296.86687471,3342788.7950321,9.5462646264626,0,0
613.01445940638,637.37605489419,4.350695069507,1363680.1678762,12296.86687471,3342788.7950321,9.550695069507,0,0
613.01445969055,637.17426584849,4.3551255125513,1363680.1678762,12296.86687471,3342788.7950321,9.5551255125513,0,0
613.01445997471,636.9724768028,4.3595559555956,1363680.1678762,12296.86687471,3342788.7950321,9.5595559555956,0,0
613.01446025888,636.7706877571,4.3639863986399,1363680.1678762,12296.86687471,3342788.7950321,9.5639863986399,0,0
613.01446054305,636.56889871141,4.3684168416842,1363680.1678762,12296.86687471,3342788.7950321,9.5684168416842,0,0
613.01446082722,636.36710966571,4.3728472847285,1363680.1678762,12296.86687471,3342788.7950321,9.5728472847285,0,0
613.01446111139,636.16532062002,4.3772777277728,1363680.1678762,12296.86687471,3342788.7950321,9.5772777277728,0,0
613.01446139556,635.96353157433,4.3817081708171,1363680.1678762,12296.86687471,3342788.7950321,9.5817081708171,0,0
613.01446167973,635.76174252863,4.3861386138614,1363680.1678762,12296.86687471,3342788.7950321,9.5861386138614,0,0
613.0144619639,635.55995348294,4.3905690569057,1363680.1678762,12296.86687471,3342788.7950321,9.5905690569057,0,0
613.01446224807,635.35816443724,4.39499949995,1363680.1678762,12296.86687471,3342788.7950321,9.59499949995,0,0
613.01446253223,635.15637539155,4.3994299429943,1363680.1678762,12296.86687471,3342788.7950321,9.5994299429943,0,0
613.0144628164,634.95458634585,4.4038603860386,1363680.1678762,12296.86687471,3342788.7950321,9.6038603860386,0,0
613.01446310057,634.75279730016,4.4082908290829,1363680.1678762,12296.86687471,3342788.7950321,9.6082908290829,0,0
613.01446338474,634.55100825446,4.4127212721272,1363680.1678762,12296.86687471,3342788.7950321,9.6127212721272,0,0
613.01446366891,634.34921920877,4.4171517151715,1363680.1678762,12296.86687471,3342788.7950321,9.6171517151715,0,0
613.01446395308,634.14743016307,4.4215821582158,1363680.1678762,12296.86687471,3342788.7950321,9.6215821582158,0,0
613.01446423725,633.94564111738,4.4260126012601,1363680.1678762,12296.86687471,3342788.7950321,9.6260126012601,0,0
613.01446452142,633.74385207168,4.4304430443044,1363680.1678762,12296.86687471,3342788.7950321,9.6304430443044,0,0
613.01446480558,633.54206302599,4.4348734873487,1363680.1678762,12296.86687471,3342788.7950321,9.6348734873487,0,0
613.01446508975,633.3402739803,4.439303930393,1363680.1678762,12296.86687471,3342788.7950321,9.639303930393,0,0
613.01446537392,633.1384849346,4.4437343734373,1363680.1678762,12296.86687471,3342788.7950321,9.6437343734373,0,0
613.01446565809,632.93669588891,4.4481648164816,1363680.1678762,12296.86687471,3342788.7950321,9.6481648164816,0,0
613.01446594226,632.73490684321,4.452595259526,1363680.1678762,12296.86687471,3342788.7950321,9.652595259526,0,0
613.01446622643,632.53311779752,4.4570257025703,1363680.1678762,12296.86687471,3342788.7950321,9.6570257025703,0,0
613.0144665106,632.33132875182,4.4614561456146,1363680.1678762,12296.86687471,3342788.7950321,9.6614561456146,0,0
613.01446679477,632.12953970613,4.4658865886589,1363680.1678762,12296.86687471,3342788.7950321,9.6658865886589,0,0
613.01446707894,631.92775066043,4.4703170317032,1363680.1678762,12296.86687471,3342788.7950321,9.6703170317032,0,0
613.0144673631,631.72596161474,4.4747474747475,1363680.1678762,12296.86687471,3342788.7950321,9.6747474747475,0,0
613.01446764727,631.52417256904,4.4791779177918,1363680.1678762,12296.86687471,3342788.7950321,9.6791779177918,0,0
613.01446793144,631.32238352335,4.4836083608361,1363680.1678762,12296.86687471,3342788.7950321,9.6836083608361,0,0
613.01446821561,631.12059447766,4.4880388038804,1363680.1678762,12296.86687471,3342788.7950321,9.6880388038804,0,0
613.01446849978,630.91880543196,4.4924692469247,1363680.1678762,12296.86687471,3342788.7950321,9.6924692469247,0,0
613.01446878395,630.71701638627,4.496899689969,1363680.1678762,12296.86687471,3342788.7950321,9.696899689969,0,0
613.01446906812,630.51522734057,4.5013301330133,1363680.1678762,12296.86687471,3342788.7950321,9.7013301330133,0,0
613.01446935229,630.31343829488,4.5057605760576,1363680.1678762,12296.86687471,3342788.7950321,9.7057605760576,0,0
613.01446963645,630.11164924918,4.5101910191019,1363680.1678762,12296.86687471,3342788.7950321,9.7101910191019,0,0
613.01446992062,629.90986020349,4.5146214621462,1363680.1678762,12296.86687471,3342788.7950321,9.7146214621462,0,0
613.01447020479,629.70807115779,4.5190519051905,1363680.1678762,12296.86687471,3342788.7950321,9.7190519051905,0,0
613.01447048896,629.5062821121,4.5234823482348,1363680.1678762,12296.86687471,3342788.7950321,9.7234823482348,0,0
613.01447077313,629.3044930664,4.5279127912791,1363680.1678762,12296.86687471,3342788.7950321,9.7279127912791,0,0
613.0144710573,629.10270402071,4.5323432343234,1363680.1678762,12296.86687471,3342788.7950321,9.7323432343234,0,0
613.01447134147,628.90091497501,4.5367736773677,1363680.1678762,12296.86687471,3342788.7950321,9.7367736773677,0,0
613.01447162564,628.69912592932,4.541204120412,1363680.1678762,12296.86687471,3342788.7950321,9.741204120412,0,0
613.01447190981,628.49733688363,4.5456345634563,1363680.1678762,12296.86687471,3342788.7950321,9.7456345634563,0,0
613.01447219397,628.29554783793,4.5500650065006,1363680.1678762,12296.86687471,3342788.7950321,9.7500650065007,0,0
613.01447247814,628.09375879224,4.554495449545,1363680.1678762,12296.86687471,3342788.7950321,9.754495449545,0,0
613.01447276458,627.89196973504,4.5589258925893,1364630.7934574,-14573.933424727,3283785.7735827,9.7589258925893,0,0
613.01447305158,627.69018067497,4.5633563356336,1364630.7934574,-14573.933424727,3283785.7735827,9.7633563356336,0,0
613.01447333859,627.4883916149,4.5677867786779,1364630.7934574,-14573.933424727,3283785.7735827,9.7677867786779,0,0
613.01447362559,627.28660255483,4.5722172217222,1364630.7934574,-14573.933424727,3283785.7735827,9.7722172217222,0,0
613.01447391259,627.08481349476,4.5766476647665,1364630.7934574,-14573.933424727,3283785.7735827,9.7766476647665,0,0
613.0144741996,626.88302443469,4.5810781078108,1364630.7934574,-14573.933424727,3283785.7735827,9.7810781078108,0,0
613.0144744866,626.68123537462,4.5855085508551,1364630.7934574,-14573.933424727,3283785.7735827,9.7855085508551,0,0
613.01447477361,626.47944631455,4.5899389938994,1364630.7934574,-14573.933424727,3283785.7735827,9.7899389938994,0,0
613.01447506061,626.27765725448,4.5943694369437,1364630.7934574,-14573.933424727,3283785.7735827,9.7943694369437,0,0
613.01447534761,626.07586819441,4.598799879988,1364630.7934574,-14573.933424727,3283785.7735827,9.798799879988,0,0
613.01447563462,625.87407913434,4.6032303230323,1364630.7934574,-14573.933424727,3283785.7735827,9.8032303230323,0,0
613.01447592162,625.67229007426,4.6076607660766,1364630.7934574,-14573.933424727,3283785.7735827,9.8076607660766,0,0
613.01447620862,625.47050101419,4.6120912091209,1364630.7934574,-14573.933424727,3283785.7735827,9.8120912091209,0,0
613.01447649563,625.26871195412,4.6165216521652,1364630.7934574,-14573.933424727,3283785.7735827,9.8165216521652,0,0
613.01447678263,625.06692289405,4.6209520952095,1364630.7934574,-14573.933424727,3283785.7735827,9.8209520952095,0,0
613.01447706964,624.86513383398,4.6253825382538,1364630.7934574,-14573.933424727,3283785.7735827,9.8253825382538,0,0
613.01447735664,624.66334477391,4.6298129812981,1364630.7934574,-14573.933424727,3283785.7735827,9.8298129812981,0,0
613.01447764364,624.46155571384,4.6342434243424,1364630.7934574,-14573.933424727,3283785.7735827,9.8342434243424,0,0
613.01447793065,624.25976665377,4.6386738673867,1364630.7934574,-14573.933424727,3283785.7735827,9.8386738673867,0,0
613.01447821765,624.0579775937,4.643104310431,1364630.7934574,-14573.933424727,3283785.7735827,9.843104310431,0,0
613.01447850465,623.85618853363,4.6475347534753,1364630.7934574,-14573.933424727,3283785.7735827,9.8475347534753,0,0
613.01447879166,623.65439947356,4.6519651965197,1364630.7934574,-14573.933424727,3283785.7735827,9.8519651965197,0,0
613.01447907866,623.45261041348,4.656395639564,1364630.7934574,-14573.933424727,3283785.7735827,9.856395639564,0,0
613.01447936767,623.25082136128,4.6608260826083,1375838.5146335,12861.874857088,3248411.2098662,9.8608260826083,0,0
613.01447965832,623.04903231549,4.6652565256526,1375838.5146335,12861.874857088,3248411.2098662,9.8652565256526,0,0
613.01447994897,622.8472432697,4.6696869686969,1375838.5146335,12861.874857088,3248411.2098662,9.8696869686969,0,0
613.01448023961,622.6454542239,4.6741174117412,1375838.5146335,12861.874857088,3248411.2098662,9.8741174117412,0,0
613.01448053026,622.44366517811,4.6785478547855,1375838.5146335,12861.874857088,3248411.2098662,9.8785478547855,0,0
613.01448082091,622.24187613232,4.6829782978298,1375838.5146335,12861.874857088,3248411.2098662,9.8829782978298,0,0
613.01448111156,622.04008708652,4.6874087408741,1375838.5146335,12861.874857088,3248411.2098662,9.8874087408741,0,0
613.0144814022,621.83829804073,4.6918391839184,1375838.5146335,12861.874857088,3248411.2098662,9.8918391839184,0,0
613.01448169285,621.63650899494,4.6962696269627,1375838.5146335,12861.874857088,3248411.2098662,9.8962696269627,0,0
613.0144819835,621.43471994914,4.700700070007,1375838.5146335,12861.874857088,3248411.2098662,9.900700070007,0,0
613.01448227414,621.23293090335,4.7051305130513,1375838.5146335,12861.874857088,3248411.2098662,9.9051305130513,0,0
613.01448256479,621.03114185756,4.7095609560956,1375838.5146335,12861.874857088,3248411.2098662,9.9095609560956,0,0
613.01448285544,620.82935281176,4.7139913991399,1375838.5146335,12861.874857088,3248411.2098662,9.9139913991399,0,0
613.01448314608,620.62756376597,4.7184218421842,1375838.5146335,12861.874857088,3248411.2098662,9.9184218421842,0,0
613.01448343673,620.42577472018,4.7228522852285,1375838.5146335,12861.874857088,3248411.2098662,9.9228522852285,0,0
613.01448372738,620.22398567438,4.7272827282728,1375838.5146335,12861.874857088,3248411.2098662,9.9272827282728,0,0
613.01448401802,620.02219662859,4.7317131713171,1375838.5146335,12861.874857088,3248411.2098662,9.9317131713171,0,0
613.01448430867,619.8204075828,4.7361436143614,1375838.5146335,12861.874857088,3248411.2098662,9.9361436143614,0,0
613.01448459932,619.618618537,4.7405740574057,1375838.5146335,12861.874857088,3248411.2098662,9.9405740574057,0,0
613.01448488996,619.41682949121,4.74500450045,1375838.5146335,12861.874857088,3248411.2098662,9.94500450045,0,0
613.01448518061,619.21504044542,4.7494349434943,1375838.5146335,12861.874857088,3248411.2098662,9.9494349434943,0,0
613.01448547126,619.01325139963,4.7538653865387,1375838.5146335,12861.874857088,3248411.2098662,9.9538653865387,0,0
613.01448576191,618.81146235383,4.758295829583,1375838.5146335,12861.874857088,3248411.2098662,9.958295829583,0,0
613.01448605255,618.60967330804,4.7627262726273,1375838.5146335,12861.874857088,3248411.2098662,9.9627262726273,0,0
613.0144863432,618.40788426225,4.7671567156716,1375838.5146335,12861.874857088,3248411.2098662,9.9671567156716,0,0
613.01448663385,618.20609521645,4.7715871587159,1375838.5146335,12861.874857088,3248411.2098662,9.9715871587159,0,0
613.01448692449,618.00430617066,4.7760176017602,1375838.5146335,12861.874857088,3248411.2098662,9.9760176017602,0,0
613.01448721514,617.80251712487,4.7804480448045,1375838.5146335,12861.874857088,3248411.2098662,9.9804480448045,0,0
613.01448750579,617.60072807907,4.7848784878488,1375838.5146335,12861.874857088,3248411.2098662,9.9848784878488,0,0
613.01448779643,617.39893903328,4.7893089308931,1375838.5146335,12861.874857088,3248411.2098662,9.9893089308931,0,0
613.01448808708,617.19714998749,4.7937393739374,1375838.5146335,12861.874857088,3248411.2098662,9.9937393739374,0,0
613.01448837773,616.99536094169,4.7981698169817,1375838.5146335,12861.874857088,3248411.2098662,9.9981698169817,0,0
613.01448866837,616.7935718959,4.802600260026,1375838.5146335,12861.874857088,3248411.2098662,10.002600260026,0,0
613.01448895902,616.59178285011,4.8070307030703,1375838.5146335,12861.874857088,3248411.2098662,10.00703070307,0,0
613.01448924967,616.38999380431,4.8114611461146,1375838.5146335,12861.874857088,3248411.2098662,10.011461146115,0,0
613.01448954031,616.18820475852,4.8158915891589,1375838.5146335,12861.874857088,3248411.2098662,10.015891589159,0,0
613.01448983096,615.98641571273,4.8203220322032,1375838.5146335,12861.874857088,3248411.2098662,10.020322032203,0,0
613.01449012161,615.78462666693,4.8247524752475,1375838.5146335,12861.874857088,3248411.2098662,10.024752475248,0,0
613.01449041226,615.58283762114,4.8291829182918,1375838.5146335,12861.874857088,3248411.2098662,10.029182918292,0,0
613.0144907029,615.38104857535,4.8336133613361,1375838.5146335,12861.874857088,3248411.2098662,10.033613361336,0,0
613.01449099355,615.17925952955,4.8380438043804,1375838.5146335,12861.874857088,3248411.2098662,10.03804380438,0,0
613.0144912842,614.97747048376,4.8424742474247,1375838.5146335,12861.874857088,3248411.2098662,10.042474247425,0,0
613.01449157484,614.77568143797,4.846904690469,1375838.5146335,12861.874857088,3248411.2098662,10.046904690469,0,0
613.01449186549,614.57389239217,4.8513351335134,1375838.5146335,12861.874857088,3248411.2098662,10.051335133513,0,0
613.01449215614,614.37210334638,4.8557655765577,1375838.5146335,12861.874857088,3248411.2098662,10.055765576558,0,0
613.01449244678,614.17031430059,4.860196019602,1375838.5146335,12861.874857088,3248411.2098662,10.060196019602,0,0
613.01449273743,613.96852525479,4.8646264626463,1375838.5146335,12861.874857088,3248411.2098662,10.064626462646,0,0
613.01449302808,613.766736209,4.8690569056906,1375838.5146335,12861.874857088,3248411.2098662,10.069056905691,0,0
613.01449331872,613.56494716321,4.8734873487349,1375838.5146335,12861.874857088,3248411.2098662,10.073487348735,0,0
613.01449360937,613.36315811741,4.8779177917792,1375838.5146335,12861.874857088,3248411.2098662,10.077917791779,0,0
613.01449390002,613.16136907162,4.8823482348235,1375838.5146335,12861.874857088,3248411.2098662,10.082348234823,0,0
613.01449419066,612.95958002583,4.8867786778678,1375838.5146335,12861.874857088,3248411.2098662,10.086778677868,0,0
613.01449448131,612.75779098003,4.8912091209121,1375838.5146335,12861.874857088,3248411.2098662,10.091209120912,0,0
613.01449477196,612.55600193424,4.8956395639564,1375838.5146335,12861.874857088,3248411.2098662,10.095639563956,0,0
613.01449506261,612.35421288845,4.9000700070007,1375838.5146335,12861.874857088,3248411.2098662,10.100070007001,0,0
613.01449535325,612.15242384265,4.904500450045,1375838.5146335,12861.874857088,3248411.2098662,10.104500450045,0,0
613.0144956439,611.95063479686,4.9089308930893,1375838.5146335,12861.874857088,3248411.2098662,10.108930893089,0,0
613.01449593455,611.74884575107,4.9133613361336,1375838.5146335,12861.874857088,3248411.2098662,10.113361336134,0,0
613.01449622519,611.54705670527,4.9177917791779,1375838.5146335,12861.874857088,3248411.2098662,10.117791779178,0,0
613.01449651584,611.34526765948,4.9222222222222,1375838.5146335,12861.874857088,3248411.2098662,10.122222222222,0,0
613.01449680649,611.14347861369,4.9266526652665,1375838.5146335,12861.874857088,3248411.2098662,10.126652665267,0,0
613.01449709713,610.94168956789,4.9310831083108,1375838.5146335,12861.874857088,3248411.2098662,10.131083108311,0,0
613.01449738778,610.7399005221,4.9355135513551,1375838.5146335,12861.874857088,3248411.2098662,10.135513551355,0,0
613.01449767843,610.53811147631,4.9399439943994,1375838.5146335,12861.874857088,3248411.2098662,10.139943994399,0,0
613.01449796907,610.33632243052,4.9443744374437,1375838.5146335,12861.874857088,3248411.2098662,10.144374437444,0,0
613.01449825972,610.13453338472,4.948804880488,1375838.5146335,12861.874857088,3248411.2098662,10.148804880488,0,0
613.01449855037,609.93274433893,4.9532353235324,1375838.5146335,12861.874857088,3248411.2098662,10.153235323532,0,0
613.01449884101,609.73095529314,4.9576657665767,1375838.5146335,12861.874857088,3248411.2098662,10.157665766577,0,0
613.01449913166,609.52916624734,4.962096209621,1375838.5146335,12861.874857088,3248411.2098662,10.162096209621,0,0
613.01449942231,609.32737720155,4.9665266526653,1375838.5146335,12861.874857088,3248411.2098662,10.166526652665,0,0
613.01449971296,609.12558815576,4.9709570957096,1375838.5146335,12861.874857088,3248411.2098662,10.17095709571,0,0
613.0145000036,608.92379910996,4.9753875387539,1375838.5146335,12861.874857088,3248411.2098662,10.175387538754,0,0
613.01450029425,608.72201006417,4.9798179817982,1375838.5146335,12861.874857088,3248411.2098662,10.179817981798,0,0
613.0145005849,608.52022101838,4.9842484248425,1375838.5146335,12861.874857088,3248411.2098662,10.184248424842,0,0
613.01450087554,608.31843197258,4.9886788678868,1375838.5146335,12861.874857088,3248411.2098662,10.188678867887,0,0
613.01450116619,608.11664292679,4.9931093109311,1375838.5146335,12861.874857088,3248411.2098662,10.193109310931,0,0
613.01450145741,607.91485387201,4.9975397539754,1373148.2664442,-7378.8354125477,3224062.5718388,10.197539753975,0,0
613.01450174866,607.71306481672,5.0019701970197,1373148.2664442,-7378.8354125477,3224062.5718388,10.20197019702,0,0
613.01450203992,607.51127576143,5.006400640064,1373148.2664442,-7378.8354125477,3224062.5718388,10.206400640064,0,0
613.01450233117,607.30948670614,5.0108310831083,1373148.2664442,-7378.8354125477,3224062.5718388,10.210831083108,0,0
613.01450262242,607.10769765085,5.0152615261526,1373148.2664442,-7378.8354125477,3224062.5718388,10.215261526153,0,0
613.01450291368,606.90590859556,5.0196919691969,1373148.2664442,-7378.8354125477,3224062.5718388,10.219691969197,0,0
613.01450320493,606.70411954027,5.0241224122412,1373148.2664442,-7378.8354125477,3224062.5718388,10.224122412241,0,0
613.01450349619,606.50233048498,5.0285528552855,1373148.2664442,-7378.8354125477,3224062.5718388,10.228552855286,0,0
613.01450378744,606.30054142968,5.0329832983298,1373148.2664442,-7378.8354125477,3224062.5718388,10.23298329833,0,0
613.01450407869,606.09875237439,5.0374137413741,1373148.2664442,-7378.8354125477,3224062.5718388,10.237413741374,0,0
613.01450436995,605.8969633191,5.0418441844184,1373148.2664442,-7378.8354125477,3224062.5718388,10.241844184418,0,0
613.0145046612,605.69517426381,5.0462746274627,1373148.2664442,-7378.8354125477,3224062.5718388,10.246274627463,0,0
613.01450495245,605.49338520852,5.050705070507,1373148.2664442,-7378.8354125477,3224062.5718388,10.250705070507,0,0
613.01450524371,605.29159615323,5.0551355135514,1373148.2664442,-7378.8354125477,3224062.5718388,10.255135513551,0,0
613.01450553496,605.08980709794,5.0595659565957,1373148.2664442,-7378.8354125477,3224062.5718388,10.259565956596,0,0
613.01450582621,604.88801804265,5.06399639964,1373148.2664442,-7378.8354125477,3224062.5718388,10.26399639964,0,0
613.01450611747,604.68622898736,5.0684268426843,1373148.2664442,-7378.8354125477,3224062.5718388,10.268426842684,0,0
613.01450640872,604.48443993206,5.0728572857286,1373148.2664442,-7378.8354125477,3224062.5718388,10.272857285729,0,0
613.01450669997,604.28265087677,5.0772877287729,1373148.2664442,-7378.8354125477,3224062.5718388,10.277287728773,0,0
613.01450699123,604.08086182148,5.0817181718172,1373148.2664442,-7378.8354125477,3224062.5718388,10.281718171817,0,0
613.01450728248,603.87907276619,5.0861486148615,1373148.2664442,-7378.8354125477,3224062.5718388,10.286148614861,0,0
613.01450757374,603.6772837109,5.0905790579058,1373148.2664442,-7378.8354125477,3224062.5718388,10.290579057906,0,0
613.01450786499,603.47549465561,5.0950095009501,1373148.2664442,-7378.8354125477,3224062.5718388,10.29500950095,0,0
613.01450815624,603.27370560032,5.0994399439944,1373148.2664443,-7378.8354125477,3224062.5718388,10.299439943994,0,0
613.0145084475,603.07191654503,5.1038703870387,1373148.2664443,-7378.8354125477,3224062.5718388,10.303870387039,0,0
613.01450873875,602.87012748973,5.108300830083,1373148.2664443,-7378.8354125477,3224062.5718388,10.308300830083,0,0
613.01450903,602.66833843444,5.1127312731273,1373148.2664443,-7378.8354125477,3224062.5718388,10.312731273127,0,0
613.01450932126,602.46654937915,5.1171617161716,1373148.2664443,-7378.8354125477,3224062.5718388,10.317161716172,0,0
613.01450961251,602.26476032386,5.1215921592159,1373148.2664443,-7378.8354125477,3224062.5718388,10.321592159216,0,0
613.01450990376,602.06297126857,5.1260226022602,1373148.2664443,-7378.8354125477,3224062.5718388,10.32602260226,0,0
613.01451019502,601.86118221328,5.1304530453045,1373148.2664443,-7378.8354125477,3224062.5718388,10.330453045305,0,0
613.01451048627,601.65939315799,5.1348834883488,1373148.2664443,-7378.8354125477,3224062.5718388,10.334883488349,0,0
613.01451077753,601.4576041027,5.1393139313931,1373148.2664443,-7378.8354125477,3224062.5718388,10.339313931393,0,0
613.01451106878,601.2558150474,5.1437443744374,1373148.2664443,-7378.8354125477,3224062.5718388,10.343744374437,0,0
613.01451136003,601.05402599211,5.1481748174817,1373148.2664443,-7378.8354125477,3224062.5718388,10.348174817482,0,0
613.01451165129,600.85223693682,5.1526052605261,1373148.2664443,-7378.8354125477,3224062.5718388,10.352605260526,0,0
613.01451194254,600.65044788153,5.1570357035704,1373148.2664443,-7378.8354125477,3224062.5718388,10.35703570357,0,0
613.01451223379,600.44865882624,5.1614661466147,1373148.2664443,-7378.8354125477,3224062.5718388,10.361466146615,0,0
613.01451252505,600.24686977095,5.165896589659,1373148.2664443,-7378.8354125477,3224062.5718388,10.365896589659,0,0
613.0145128163,600.04508071566,5.1703270327033,1373148.2664443,-7378.8354125477,3224062.5718388,10.370327032703,0,0
613.01451310755,599.84329166037,5.1747574757476,1373148.2664443,-7378.8354125477,3224062.5718388,10.374757475748,0,0
613.01451339881,599.64150260507,5.1791879187919,1373148.2664443,-7378.8354125477,3224062.5718388,10.379187918792,0,0
613.01451369006,599.43971354978,5.1836183618362,1373148.2664443,-7378.8354125477,3224062.5718388,10.383618361836,0,0
613.01451398131,599.23792449449,5.1880488048805,1373148.2664443,-7378.8354125477,3224062.5718388,10.38804880488,0,0
613.01451427257,599.0361354392,5.1924792479248,1373148.2664443,-7378.8354125477,3224062.5718388,10.392479247925,0,0
613.01451456382,598.83434638391,5.1969096909691,1373148.2664443,-7378.8354125477,3224062.5718388,10.396909690969,0,0
613.01451485508,598.63255732862,5.2013401340134,1373148.2664443,-7378.8354125477,3224062.5718388,10.401340134013,0,0
613.01451514633,598.43076827333,5.2057705770577,1373148.2664443,-7378.8354125477,3224062.5718388,10.405770577058,0,0
613.01451543758,598.22897921804,5.210201020102,1373148.2664443,-7378.8354125477,3224062.5718388,10.410201020102,0,0
613.01451572884,598.02719016275,5.2146314631463,1373148.2664443,-7378.8354125477,3224062.5718388,10.414631463146,0,0
613.01451602009,597.82540110745,5.2190619061906,1373148.2664443,-7378.8354125477,3224062.5718388,10.419061906191,0,0
613.01451631134,597.62361205216,5.2234923492349,1373148.2664443,-7378.8354125477,3224062.5718388,10.423492349235,0,0
613.0145166026,597.42182299687,5.2279227922792,1373148.2664443,-7378.8354125477,3224062.5718388,10.427922792279,0,0
613.01451689385,597.22003394158,5.2323532353235,1373148.2664443,-7378.8354125477,3224062.5718388,10.432353235324,0,0
613.0145171851,597.01824488629,5.2367836783678,1373148.2664443,-7378.8354125477,3224062.5718388,10.436783678368,0,0
613.01451747888,596.8164558355,5.2412141214121,1383388.8457758,-3409.3775060467,3166887.2648911,10.441214121412,0,0
613.01451777459,596.61466678814,5.2456445644564,1383388.8457758,-3409.3775060467,3166887.2648911,10.445644564456,0,0
613.01451807029,596.41287774077,5.2500750075008,1383388.8457758,-3409.3775060467,3166887.2648911,10.450075007501,0,0
613.01451836599,596.21108869341,5.2545054505451,1383388.8457758,-3409.3775060467,3166887.2648911,10.454505450545,0,0
613.0145186617,596.00929964605,5.2589358935894,1383388.8457758,-3409.3775060467,3166887.2648911,10.458935893589,0,0
613.0145189574,595.80751059869,5.2633663366337,1383388.8457758,-3409.3775060467,3166887.2648911,10.463366336634,0,0
613.0145192531,595.60572155133,5.267796779678,1383388.8457758,-3409.3775060467,3166887.2648911,10.467796779678,0,0
613.01451954881,595.40393250397,5.2722272227223,1383388.8457758,-3409.3775060467,3166887.2648911,10.472227222722,0,0
613.01451984451,595.2021434566,5.2766576657666,1383388.8457758,-3409.3775060467,3166887.2648911,10.476657665767,0,0
613.01452014021,595.00035440924,5.2810881088109,1383388.8457758,-3409.3775060467,3166887.2648911,10.481088108811,0,0
613.01452043592,594.79856536188,5.2855185518552,1383388.8457758,-3409.3775060467,3166887.2648911,10.485518551855,0,0
613.01452073162,594.59677631452,5.2899489948995,1383388.8457758,-3409.3775060467,3166887.2648911,10.489948994899,0,0
613.01452102732,594.39498726716,5.2943794379438,1383388.8457758,-3409.3775060467,3166887.2648911,10.494379437944,0,0
613.01452132303,594.19319821979,5.2988098809881,1383388.8457758,-3409.3775060467,3166887.2648911,10.498809880988,0,0
613.01452161873,593.99140917243,5.3032403240324,1383388.8457758,-3409.3775060467,3166887.2648911,10.503240324032,0,0
613.01452191443,593.78962012507,5.3076707670767,1383388.8457758,-3409.3775060467,3166887.2648911,10.507670767077,0,0
613.01452221014,593.58783107771,5.312101210121,1383388.8457758,-3409.3775060467,3166887.2648911,10.512101210121,0,0
613.01452250584,593.38604203035,5.3165316531653,1383388.8457758,-3409.3775060467,3166887.2648911,10.516531653165,0,0
613.01452280154,593.18425298298,5.3209620962096,1383388.8457758,-3409.3775060467,3166887.2648911,10.52096209621,0,0
613.01452309725,592.98246393562,5.3253925392539,1383388.8457758,-3409.3775060467,3166887.2648911,10.525392539254,0,0
613.01452339295,592.78067488826,5.3298229822982,1383388.8457758,-3409.3775060467,3166887.2648911,10.529822982298,0,0
613.01452368865,592.5788858409,5.3342534253425,1383388.8457758,-3409.3775060467,3166887.2648911,10.534253425343,0,0
613.01452398436,592.37709679354,5.3386838683868,1383388.8457758,-3409.3775060467,3166887.2648911,10.538683868387,0,0
613.01452428006,592.17530774618,5.3431143114311,1383388.8457758,-3409.3775060467,3166887.2648911,10.543114311431,0,0
613.01452457576,591.97351869881,5.3475447544754,1383388.8457758,-3409.3775060467,3166887.2648911,10.547544754475,0,0
613.01452487147,591.77172965145,5.3519751975198,1383388.8457758,-3409.3775060467,3166887.2648911,10.55197519752,0,0
613.01452516717,591.56994060409,5.3564056405641,1383388.8457758,-3409.3775060467,3166887.2648911,10.556405640564,0,0
613.01452546287,591.36815155673,5.3608360836084,1383388.8457758,-3409.3775060467,3166887.2648911,10.560836083608,0,0
613.01452575858,591.16636250937,5.3652665266527,1383388.8457758,-3409.3775060467,3166887.2648911,10.565266526653,0,0
613.01452605428,590.964573462,5.369696969697,1383388.8457758,-3409.3775060467,3166887.2648911,10.569696969697,0,0
613.01452634998,590.76278441464,5.3741274127413,1383388.8457758,-3409.3775060467,3166887.2648911,10.574127412741,0,0
613.01452664569,590.56099536728,5.3785578557856,1383388.8457758,-3409.3775060467,3166887.2648911,10.578557855786,0,0
613.01452694139,590.35920631992,5.3829882988299,1383388.8457758,-3409.3775060467,3166887.2648911,10.58298829883,0,0
613.01452723709,590.15741727256,5.3874187418742,1383388.8457758,-3409.3775060467,3166887.2648911,10.587418741874,0,0
613.0145275328,589.9556282252,5.3918491849185,1383388.8457758,-3409.3775060467,3166887.2648911,10.591849184918,0,0
613.0145278285,589.75383917783,5.3962796279628,1383388.8457758,-3409.3775060467,3166887.2648911,10.596279627963,0,0
613.0145281242,589.55205013047,5.4007100710071,1383388.8457758,-3409.3775060467,3166887.2648911,10.600710071007,0,0
613.01452841991,589.35026108311,5.4051405140514,1383388.8457758,-3409.3775060467,3166887.2648911,10.605140514051,0,0
613.01452871561,589.14847203575,5.4095709570957,1383388.8457758,-3409.3775060467,3166887.2648911,10.609570957096,0,0
613.01452901131,588.94668298839,5.41400140014,1383388.8457758,-3409.3775060467,3166887.2648911,10.61400140014,0,0
613.01452930702,588.74489394102,5.4184318431843,1383388.8457758,-3409.3775060467,3166887.2648911,10.618431843184,0,0
613.01452960272,588.54310489366,5.4228622862286,1383388.8457758,-3409.3775060467,3166887.2648911,10.622862286229,0,0
613.01452989842,588.3413158463,5.4272927292729,1383388.8457758,-3409.3775060467,3166887.2648911,10.627292729273,0,0
613.01453019413,588.13952679894,5.4317231723172,1383388.8457758,-3409.3775060467,3166887.2648911,10.631723172317,0,0
613.01453048983,587.93773775158,5.4361536153615,1383388.8457758,-3409.3775060467,3166887.2648911,10.636153615362,0,0
613.01453078553,587.73594870422,5.4405840584058,1383388.8457758,-3409.3775060467,3166887.2648911,10.640584058406,0,0
613.01453108124,587.53415965685,5.4450145014501,1383388.8457758,-3409.3775060467,3166887.2648911,10.64501450145,0,0
613.01453137694,587.33237060949,5.4494449444944,1383388.8457758,-3409.3775060467,3166887.2648911,10.649444944494,0,0
613.01453167264,587.13058156213,5.4538753875388,1383388.8457758,-3409.3775060467,3166887.2648911,10.653875387539,0,0
613.01453196835,586.92879251477,5.4583058305831,1383388.8457758,-3409.3775060467,3166887.2648911,10.658305830583,0,0
613.01453226405,586.72700346741,5.4627362736274,1383388.8457758,-3409.3775060467,3166887.2648911,10.662736273627,0,0
613.01453255975,586.52521442004,5.4671667166717,1383388.8457758,-3409.3775060467,3166887.2648911,10.667166716672,0,0
613.01453285497,586.32342537646,5.471597159716,1378126.3147568,9178.8976134114,3161717.2442777,10.671597159716,0,0
613.01453314994,586.12163633474,5.4760276027603,1378126.3147568,9178.8976134114,3161717.2442777,10.67602760276,0,0
613.01453344492,585.91984729302,5.4804580458046,1378126.3147568,9178.8976134114,3161717.2442777,10.680458045805,0,0
613.01453373989,585.71805825131,5.4848884888489,1378126.3147568,9178.8976134114,3161717.2442777,10.684888488849,0,0
613.01453403487,585.51626920959,5.4893189318932,1378126.3147568,9178.8976134114,3161717.2442777,10.689318931893,0,0
613.01453432984,585.31448016787,5.4937493749375,1378126.3147568,9178.8976134114,3161717.2442777,10.693749374937,0,0
613.01453462482,585.11269112615,5.4981798179818,1378126.3147568,9178.8976134114,3161717.2442777,10.698179817982,0,0
613.01453491979,584.91090208443,5.5026102610261,1378126.3147568,9178.8976134114,3161717.2442777,10.702610261026,0,0
613.01453521477,584.70911304272,5.5070407040704,1378126.3147568,9178.8976134114,3161717.2442777,10.70704070407,0,0
613.01453550974,584.507324001,5.5114711471147,1378126.3147568,9178.8976134114,3161717.2442777,10.711471147115,0,0
613.01453580472,584.30553495928,5.515901590159,1378126.3147568,9178.8976134114,3161717.2442777,10.715901590159,0,0
613.01453609969,584.10374591756,5.5203320332033,1378126.3147568,9178.8976134114,3161717.2442777,10.720332033203,0,0
613.01453639467,583.90195687584,5.5247624762476,1378126.3147568,9178.8976134114,3161717.2442777,10.724762476248,0,0
613.01453668964,583.70016783413,5.5291929192919,1378126.3147568,9178.8976134114,3161717.2442777,10.729192919292,0,0
613.01453698462,583.49837879241,5.5336233623362,1378126.3147568,9178.8976134114,3161717.2442777,10.733623362336,0,0
613.01453727959,583.29658975069,5.5380538053805,1378126.3147568,9178.8976134114,3161717.2442777,10.738053805381,0,0
613.01453757457,583.09480070897,5.5424842484248,1378126.3147568,9178.8976134114,3161717.2442777,10.742484248425,0,0
613.01453786954,582.89301166725,5.5469146914691,1378126.3147568,9178.8976134114,3161717.2442777,10.746914691469,0,0
613.01453816452,582.69122262554,5.5513451345134,1378126.3147568,9178.8976134114,3161717.2442777,10.751345134513,0,0
613.01453845949,582.48943358382,5.5557755775578,1378126.3147568,9178.8976134114,3161717.2442777,10.755775577558,0,0
613.01453875447,582.2876445421,5.5602060206021,1378126.3147568,9178.8976134114,3161717.2442777,10.760206020602,0,0
613.01453904944,582.08585550038,5.5646364636464,1378126.3147568,9178.8976134114,3161717.2442777,10.764636463646,0,0
613.01453934442,581.88406645866,5.5690669066907,1378126.3147568,9178.8976134114,3161717.2442777,10.769066906691,0,0
613.01453963939,581.68227741695,5.573497349735,1378126.3147568,9178.8976134114,3161717.2442777,10.773497349735,0,0
613.01453993437,581.48048837523,5.5779277927793,1378126.3147568,9178.8976134114,3161717.2442777,10.777927792779,0,0
613.01454022934,581.27869933351,5.5823582358236,1378126.3147568,9178.8976134114,3161717.2442777,10.782358235824,0,0
613.01454052432,581.07691029179,5.5867886788679,1378126.3147568,9178.8976134114,3161717.2442777,10.786788678868,0,0
613.0145408193,580.87512125007,5.5912191219122,1378126.3147568,9178.8976134114,3161717.2442777,10.791219121912,0,0
613.01454111427,580.67333220836,5.5956495649565,1378126.3147568,9178.8976134114,3161717.2442777,10.795649564956,0,0
613.01454140925,580.47154316664,5.6000800080008,1378126.3147568,9178.8976134114,3161717.2442777,10.800080008001,0,0
613.01454170422,580.26975412492,5.6045104510451,1378126.3147568,9178.8976134114,3161717.2442777,10.804510451045,0,0
613.0145419992,580.0679650832,5.6089408940894,1378126.3147568,9178.8976134114,3161717.2442777,10.808940894089,0,0
613.01454229417,579.86617604149,5.6133713371337,1378126.3147568,9178.8976134114,3161717.2442777,10.813371337134,0,0
613.01454258915,579.66438699977,5.617801780178,1378126.3147568,9178.8976134114,3161717.2442777,10.817801780178,0,0
613.01454288412,579.46259795805,5.6222322232223,1378126.3147568,9178.8976134114,3161717.2442777,10.822232223222,0,0
613.0145431791,579.26080891633,5.6266626662666,1378126.3147568,9178.8976134114,3161717.2442777,10.826662666267,0,0
613.01454347407,579.05901987461,5.6310931093109,1378126.3147568,9178.8976134114,3161717.2442777,10.831093109311,0,0
613.01454376905,578.8572308329,5.6355235523552,1378126.3147568,9178.8976134114,3161717.2442777,10.835523552355,0,0
613.01454406402,578.65544179118,5.6399539953995,1378126.3147568,9178.8976134114,3161717.2442777,10.8399539954,0,0
613.01454436052,578.45365274484,5.6443844384438,1386748.6598604,-9543.2951093121,3111329.8750684,10.844384438444,0,0
613.01454465934,578.25186369143,5.6488148814881,1386748.6598604,-9543.2951093121,3111329.8750684,10.848814881488,0,0
613.01454495816,578.05007463803,5.6532453245325,1386748.6598604,-9543.2951093121,3111329.8750684,10.853245324532,0,0
613.01454525699,577.84828558462,5.6576757675768,1386748.6598604,-9543.2951093121,3111329.8750684,10.857675767577,0,0
613.01454555581,577.64649653122,5.6621062106211,1386748.6598604,-9543.2951093121,3111329.8750684,10.862106210621,0,0
613.01454585463,577.44470747781,5.6665366536654,1386748.6598604,-9543.2951093121,3111329.8750684,10.866536653665,0,0
613.01454615345,577.2429184244,5.6709670967097,1386748.6598604,-9543.2951093121,3111329.8750684,10.87096709671,0,0
613.01454645228,577.041129371,5.675397539754,1386748.6598604,-9543.2951093121,3111329.8750684,10.875397539754,0,0
613.0145467511,576.83934031759,5.6798279827983,1386748.6598604,-9543.2951093121,3111329.8750684,10.879827982798,0,0
613.01454704992,576.63755126418,5.6842584258426,1386748.6598604,-9543.2951093121,3111329.8750684,10.884258425843,0,0
613.01454734875,576.43576221078,5.6886888688869,1386748.6598604,-9543.2951093121,3111329.8750684,10.888688868887,0,0
613.01454764757,576.23397315737,5.6931193119312,1386748.6598604,-9543.2951093121,3111329.8750684,10.893119311931,0,0
613.01454794639,576.03218410397,5.6975497549755,1386748.6598604,-9543.2951093121,3111329.8750684,10.897549754975,0,0
613.01454824521,575.83039505056,5.7019801980198,1386748.6598604,-9543.2951093121,3111329.8750684,10.90198019802,0,0
613.01454854404,575.62860599715,5.7064106410641,1386748.6598604,-9543.2951093121,3111329.8750684,10.906410641064,0,0
613.01454884286,575.42681694375,5.7108410841084,1386748.6598604,-9543.2951093121,3111329.8750684,10.910841084108,0,0
613.01454914168,575.22502789034,5.7152715271527,1386748.6598604,-9543.2951093121,3111329.8750684,10.915271527153,0,0
613.01454944051,575.02323883694,5.719701970197,1386748.6598604,-9543.2951093121,3111329.8750684,10.919701970197,0,0
613.01454973933,574.82144978353,5.7241324132413,1386748.6598604,-9543.2951093121,3111329.8750684,10.924132413241,0,0
613.01455003815,574.61966073012,5.7285628562856,1386748.6598604,-9543.2951093121,3111329.8750684,10.928562856286,0,0
613.01455033698,574.41787167672,5.7329932993299,1386748.6598604,-9543.2951093121,3111329.8750684,10.93299329933,0,0
613.0145506358,574.21608262331,5.7374237423742,1386748.6598604,-9543.2951093121,3111329.8750684,10.937423742374,0,0
613.01455093462,574.0142935699,5.7418541854185,1386748.6598604,-9543.2951093121,3111329.8750684,10.941854185419,0,0
613.01455123344,573.8125045165,5.7462846284628,1386748.6598604,-9543.2951093121,3111329.8750684,10.946284628463,0,0
613.01455153227,573.61071546309,5.7507150715072,1386748.6598604,-9543.2951093121,3111329.8750684,10.950715071507,0,0
613.01455183109,573.40892640969,5.7551455145515,1386748.6598604,-9543.2951093121,3111329.8750684,10.955145514551,0,0
613.01455212991,573.20713735628,5.7595759575958,1386748.6598604,-9543.2951093121,3111329.8750684,10.959575957596,0,0
613.01455242874,573.00534830287,5.7640064006401,1386748.6598604,-9543.2951093121,3111329.8750684,10.96400640064,0,0
613.01455272756,572.80355924947,5.7684368436844,1386748.6598604,-9543.2951093121,3111329.8750684,10.968436843684,0,0
613.01455302638,572.60177019606,5.7728672867287,1386748.6598604,-9543.2951093121,3111329.8750684,10.972867286729,0,0
613.01455332521,572.39998114265,5.777297729773,1386748.6598604,-9543.2951093121,3111329.8750684,10.977297729773,0,0
613.01455362403,572.19819208925,5.7817281728173,1386748.6598604,-9543.2951093121,3111329.8750684,10.981728172817,0,0
613.01455392285,571.99640303584,5.7861586158616,1386748.6598604,-9543.2951093121,3111329.8750684,10.986158615862,0,0
613.01455422167,571.79461398244,5.7905890589059,1386748.6598604,-9543.2951093121,3111329.8750684,10.990589058906,0,0
613.0145545205,571.59282492903,5.7950195019502,1386748.6598604,-9543.2951093121,3111329.8750684,10.99501950195,0,0
613.01455481932,571.39103587562,5.7994499449945,1386748.6598604,-9543.2951093121,3111329.8750684,10.999449944994,0,0
613.01455511814,571.18924682222,5.8038803880388,1386748.6598604,-9543.2951093121,3111329.8750684,11.003880388039,0,0
613.01455541697,570.98745776881,5.8083108310831,1386748.6598604,-9543.2951093121,3111329.8750684,11.008310831083,0,0
613.01455571579,570.7856687154,5.8127412741274,1386748.6598604,-9543.2951093121,3111329.8750684,11.012741274127,0,0
613.01455601461,570.583879662,5.8171717171717,1386748.6598604,-9543.2951093121,3111329.8750684,11.017171717172,0,0
613.01455631344,570.38209060859,5.821602160216,1386748.6598604,-9543.2951093121,3111329.8750684,11.021602160216,0,0
613.01455661226,570.18030155519,5.8260326032603,1386748.6598604,-9543.2951093121,3111329.8750684,11.02603260326,0,0
613.01455691108,569.97851250178,5.8304630463046,1386748.6598604,-9543.2951093121,3111329.8750684,11.030463046305,0,0
613.0145572099,569.77672344837,5.8348934893489,1386748.6598604,-9543.2951093121,3111329.8750684,11.034893489349,0,0
613.01455750873,569.57493439497,5.8393239323932,1386748.6598604,-9543.2951093121,3111329.8750684,11.039323932393,0,0
613.01455780755,569.37314534156,5.8437543754375,1386748.6598604,-9543.2951093121,3111329.8750684,11.043754375438,0,0
613.01455810637,569.17135628815,5.8481848184818,1386748.6598604,-9543.2951093121,3111329.8750684,11.048184818482,0,0
613.0145584052,568.96956723475,5.8526152615262,1386748.6598604,-9543.2951093121,3111329.8750684,11.052615261526,0,0
613.01455870402,568.76777818134,5.8570457045705,1386748.6598604,-9543.2951093121,3111329.8750684,11.05704570457,0,0
613.01455900284,568.56598912794,5.8614761476148,1386748.6598604,-9543.2951093121,3111329.8750684,11.061476147615,0,0
613.01455930166,568.36420007453,5.8659065906591,1386748.6598604,-9543.2951093121,3111329.8750684,11.065906590659,0,0
613.01455960049,568.16241102112,5.8703370337034,1386748.6598604,-9543.2951093121,3111329.8750684,11.070337033703,0,0
613.01455989931,567.96062196772,5.8747674767477,1386748.6598604,-9543.2951093121,3111329.8750684,11.074767476748,0,0
613.01456019813,567.75883291431,5.879197919792,1386748.6598604,-9543.2951093121,3111329.8750684,11.079197919792,0,0
613.01456049696,567.5570438609,5.8836283628363,1386748.6598604,-9543.2951093121,3111329.8750684,11.083628362836,0,0
613.01456079578,567.3552548075,5.8880588058806,1386748.6598604,-9543.2951093121,3111329.8750684,11.088058805881,0,0
613.0145610946,567.15346575409,5.8924892489249,1386748.6598604,-9543.2951093121,3111329.8750684,11.092489248925,0,0
613.01456139343,566.95167670069,5.8969196919692,1386748.6598604,-9543.2951093121,3111329.8750684,11.096919691969,0,0
613.01456169225,566.74988764728,5.9013501350135,1386748.6598604,-9543.2951093121,3111329.8750684,11.101350135014,0,0
613.01456199107,566.54809859387,5.9057805780578,1386748.6598604,-9543.2951093121,3111329.8750684,11.105780578058,0,0
613.01456228989,566.34630954047,5.9102110211021,1386748.6598604,-9543.2951093121,3111329.8750684,11.110211021102,0,0
613.01456258872,566.14452048706,5.9146414641464,1386748.6598604,-9543.2951093121,3111329.8750684,11.114641464146,0,0
613.01456288754,565.94273143366,5.9190719071907,1386748.6598604,-9543.2951093121,3111329.8750684,11.119071907191,0,0
613.01456318636,565.74094238025,5.923502350235,1386748.6598604,-9543.2951093121,3111329.8750684,11.123502350235,0,0
613.01456348519,565.53915332684,5.9279327932793,1386748.6598604,-9543.2951093121,3111329.8750684,11.127932793279,0,0
613.01456378401,565.33736427344,5.9323632363236,1386748.6598604,-9543.2951093121,3111329.8750684,11.132363236324,0,0
613.01456408283,565.13557522003,5.9367936793679,1386748.6598604,-9543.2951093121,3111329.8750684,11.136793679368,0,0
613.01456438166,564.93378616662,5.9412241224122,1386748.6598604,-9543.2951093121,3111329.8750684,11.141224122412,0,0
613.01456468048,564.73199711322,5.9456545654565,1386748.6598604,-9543.2951093121,3111329.8750684,11.145654565457,0,0
613.0145649793,564.53020805981,5.9500850085008,1386748.6598604,-9543.2951093121,3111329.8750684,11.150085008501,0,0
613.01456527812,564.32841900641,5.9545154515452,1386748.6598604,-9543.2951093121,3111329.8750684,11.154515451545,0,0
613.01456557695,564.126629953,5.9589458945895,1386748.6598604,-9543.2951093121,3111329.8750684,11.158945894589,0,0
613.01456587577,563.92484089959,5.9633763376338,1386748.6598604,-9543.2951093121,3111329.8750684,11.163376337634,0,0
613.01456617459,563.72305184619,5.9678067806781,1386748.6598604,-9543.2951093121,3111329.8750684,11.167806780678,0,0
613.01456647342,563.52126279278,5.9722372237224,1386748.6598604,-9543.2951093121,3111329.8750684,11.172237223722,0,0
613.01456677224,563.31947373937,5.9766676667667,1386748.6598604,-9543.2951093121,3111329.8750684,11.176667666767,0,0
613.01456707106,563.11768468597,5.981098109811,1386748.6598604,-9543.2951093121,3111329.8750684,11.181098109811,0,0
613.01456736989,562.91589563256,5.9855285528553,1386748.6598604,-9543.2951093121,3111329.8750684,11.185528552855,0,0
613.01456766871,562.71410657916,5.9899589958996,1386748.6598604,-9543.2951093121,3111329.8750684,11.1899589959,0,0
613.01456796753,562.51231752575,5.9943894389439,1386748.6598604,-9543.2951093121,3111329.8750684,11.194389438944,0,0
613.01456826635,562.31052847234,5.9988198819882,1386748.6598604,-9543.2951093121,3111329.8750684,11.198819881988,0,0
613.01456856518,562.10873941894,6.0032503250325,1386748.6598604,-9543.2951093121,3111329.8750684,11.203250325033,0,0
613.014568864,561.90695036553,6.0076807680768,1386748.6598604,-9543.2951093121,3111329.8750684,11.207680768077,0,0
613.01456916282,561.70516131212,6.0121112111211,1386748.6598604,-9543.2951093121,3111329.8750684,11.212111211121,0,0
613.01456946165,561.50337225872,6.0165416541654,1386748.6598604,-9543.2951093121,3111329.8750684,11.216541654165,0,0
613.01456976047,561.30158320531,6.0209720972097,1386748.6598604,-9543.2951093121,3111329.8750684,11.22097209721,0,0
613.01457005929,561.09979415191,6.025402540254,1386748.6598604,-9543.2951093121,3111329.8750684,11.225402540254,0,0
613.01457035811,560.8980050985,6.0298329832983,1386748.6598604,-9543.2951093121,3111329.8750684,11.229832983298,0,0
613.01457065694,560.69621604509,6.0342634263426,1386748.6598604,-9543.2951093121,3111329.8750684,11.234263426343,0,0
613.01457095576,560.49442699169,6.0386938693869,1386748.6598604,-9543.2951093121,3111329.8750684,11.238693869387,0,0
613.01457125458,560.29263793828,6.0431243124312,1386748.6598604,-9543.2951093121,3111329.8750684,11.243124312431,0,0
613.01457155341,560.09084888487,6.0475547554755,1386748.6598604,-9543.2951093121,3111329.8750684,11.247554755476,0,0
613.01457185223,559.88905983147,6.0519851985199,1386748.6598604,-9543.2951093121,3111329.8750684,11.25198519852,0,0
613.01457215105,559.68727077806,6.0564156415642,1386748.6598604,-9543.2951093121,3111329.8750684,11.256415641564,0,0
613.01457244988,559.48548172466,6.0608460846085,1386748.6598604,-9543.2951093121,3111329.8750684,11.260846084608,0,0
613.0145727488,559.28369267379,6.0652765276528,1384903.4127982,8768.6694410003,3096694.8543711,11.265276527653,0,0
613.01457304794,559.08190362883,6.0697069706971,1384903.4127982,8768.6694410003,3096694.8543711,11.269706970697,0,0
613.01457334709,558.88011458386,6.0741374137414,1384903.4127982,8768.6694410003,3096694.8543711,11.274137413741,0,0
613.01457364623,558.6783255389,6.0785678567857,1384903.4127982,8768.6694410003,3096694.8543711,11.278567856786,0,0
613.01457394538,558.47653649394,6.08299829983,1384903.4127982,8768.6694410003,3096694.8543711,11.28299829983,0,0
613.01457424453,558.27474744897,6.0874287428743,1384903.4127982,8768.6694410003,3096694.8543711,11.287428742874,0,0
613.01457454367,558.07295840401,6.0918591859186,1384903.4127982,8768.6694410003,3096694.8543711,11.291859185919,0,0
613.01457484282,557.87116935904,6.0962896289629,1384903.4127982,8768.6694410003,3096694.8543711,11.296289628963,0,0
613.01457514196,557.66938031408,6.1007200720072,1384903.4127982,8768.6694410004,3096694.8543711,11.300720072007,0,0
613.01457544111,557.46759126911,6.1051505150515,1384903.4127982,8768.6694410004,3096694.8543711,11.305150515052,0,0
613.01457574026,557.26580222415,6.1095809580958,1384903.4127982,8768.6694410004,3096694.8543711,11.309580958096,0,0
613.0145760394,557.06401317919,6.1140114011401,1384903.4127982,8768.6694410004,3096694.8543711,11.31401140114,0,0
613.01457633855,556.86222413422,6.1184418441844,1384903.4127982,8768.6694410004,3096694.8543711,11.318441844184,0,0
613.01457663769,556.66043508926,6.1228722872287,1384903.4127982,8768.6694410004,3096694.8543711,11.322872287229,0,0
613.01457693684,556.45864604429,6.127302730273,1384903.4127982,8768.6694410004,3096694.8543711,11.327302730273,0,0
613.01457723599,556.25685699933,6.1317331733173,1384903.4127982,8768.6694410004,3096694.8543711,11.331733173317,0,0
613.01457753513,556.05506795436,6.1361636163616,1384903.4127982,8768.6694410004,3096694.8543711,11.336163616362,0,0
613.01457783428,555.8532789094,6.1405940594059,1384903.4127982,8768.6694410004,3096694.8543711,11.340594059406,0,0
613.01457813342,555.65148986444,6.1450245024502,1384903.4127982,8768.6694410004,3096694.8543711,11.34502450245,0,0
613.01457843257,555.44970081947,6.1494549454945,1384903.4127982,8768.6694410004,3096694.8543711,11.349454945495,0,0
613.01457873172,555.24791177451,6.1538853885389,1384903.4127982,8768.6694410004,3096694.8543711,11.353885388539,0,0
613.01457903086,555.04612272954,6.1583158315832,1384903.4127982,8768.6694410004,3096694.8543711,11.358315831583,0,0
613.01457933001,554.84433368458,6.1627462746275,1384903.4127982,8768.6694410004,3096694.8543711,11.362746274627,0,0
613.01457962915,554.64254463961,6.1671767176718,1384903.4127982,8768.6694410004,3096694.8543711,11.367176717672,0,0
613.0145799283,554.44075559465,6.1716071607161,1384903.4127982,8768.6694410004,3096694.8543711,11.371607160716,0,0
613.01458022744,554.23896654969,6.1760376037604,1384903.4127982,8768.6694410004,3096694.8543711,11.37603760376,0,0
613.01458052659,554.03717750472,6.1804680468047,1384903.4127982,8768.6694410004,3096694.8543711,11.380468046805,0,0
613.01458082574,553.83538845976,6.184898489849,1384903.4127982,8768.6694410004,3096694.8543711,11.384898489849,0,0
613.01458112488,553.63359941479,6.1893289328933,1384903.4127982,8768.6694410004,3096694.8543711,11.389328932893,0,0
613.01458142403,553.43181036983,6.1937593759376,1384903.4127982,8768.6694410004,3096694.8543711,11.393759375938,0,0
613.01458172317,553.23002132486,6.1981898189819,1384903.4127982,8768.6694410004,3096694.8543711,11.398189818982,0,0
613.01458202232,553.0282322799,6.2026202620262,1384903.4127982,8768.6694410004,3096694.8543711,11.402620262026,0,0
613.01458232147,552.82644323494,6.2070507050705,1384903.4127982,8768.6694410004,3096694.8543711,11.407050705071,0,0
613.01458262061,552.62465418997,6.2114811481148,1384903.4127982,8768.6694410004,3096694.8543711,11.411481148115,0,0
613.01458291976,552.42286514501,6.2159115911591,1384903.4127982,8768.6694410004,3096694.8543711,11.415911591159,0,0
613.0145832189,552.22107610004,6.2203420342034,1384903.4127982,8768.6694410004,3096694.8543711,11.420342034203,0,0
613.01458351805,552.01928705508,6.2247724772477,1384903.4127982,8768.6694410004,3096694.8543711,11.424772477248,0,0
613.0145838172,551.81749801011,6.229202920292,1384903.4127982,8768.6694410004,3096694.8543711,11.429202920292,0,0
613.01458411634,551.61570896515,6.2336333633363,1384903.4127982,8768.6694410004,3096694.8543711,11.433633363336,0,0
613.01458441549,551.41391992019,6.2380638063806,1384903.4127982,8768.6694410004,3096694.8543711,11.438063806381,0,0
613.01458471463,551.21213087522,6.2424942494249,1384903.4127982,8768.6694410004,3096694.8543711,11.442494249425,0,0
613.01458501378,551.01034183026,6.2469246924692,1384903.4127982,8768.6694410004,3096694.8543711,11.446924692469,0,0
613.01458531293,550.80855278529,6.2513551355136,1384903.4127982,8768.6694410004,3096694.8543711,11.451355135514,0,0
613.01458561207,550.60676374033,6.2557855785579,1384903.4127982,8768.6694410004,3096694.8543711,11.455785578558,0,0
613.01458591122,550.40497469536,6.2602160216022,1384903.4127982,8768.6694410004,3096694.8543711,11.460216021602,0,0
613.01458621036,550.2031856504,6.2646464646465,1384903.4127982,8768.6694410004,3096694.8543711,11.464646464646,0,0
613.01458650951,550.00139660543,6.2690769076908,1384903.4127982,8768.6694410004,3096694.8543711,11.469076907691,0,0
613.01458680866,549.79960756047,6.2735073507351,1384903.4127982,8768.6694410004,3096694.8543711,11.473507350735,0,0
613.0145871078,549.59781851551,6.2779377937794,1384903.4127982,8768.6694410004,3096694.8543711,11.477937793779,0,0
613.01458740695,549.39602947054,6.2823682368237,1384903.4127982,8768.6694410004,3096694.8543711,11.482368236824,0,0
613.01458770609,549.19424042558,6.286798679868,1384903.4127982,8768.6694410004,3096694.8543711,11.486798679868,0,0
613.01458800524,548.99245138061,6.2912291229123,1384903.4127982,8768.6694410004,3096694.8543711,11.491229122912,0,0
613.01458830439,548.79066233565,6.2956595659566,1384903.4127982,8768.6694410004,3096694.8543711,11.495659565957,0,0
613.01458860353,548.58887329069,6.3000900090009,1384903.4127982,8768.6694410004,3096694.8543711,11.500090009001,0,0
613.01458890268,548.38708424572,6.3045204520452,1384903.4127982,8768.6694410004,3096694.8543711,11.504520452045,0,0
613.01458920182,548.18529520076,6.3089508950895,1384903.4127982,8768.6694410004,3096694.8543711,11.50895089509,0,0
613.01458950097,547.98350615579,6.3133813381338,1384903.4127982,8768.6694410004,3096694.8543711,11.513381338134,0,0
613.01458980012,547.78171711083,6.3178117811781,1384903.4127982,8768.6694410004,3096694.8543711,11.517811781178,0,0
613.01459009926,547.57992806586,6.3222422242224,1384903.4127982,8768.6694410004,3096694.8543711,11.522242224222,0,0
613.01459039841,547.3781390209,6.3266726672667,1384903.4127982,8768.6694410004,3096694.8543711,11.526672667267,0,0
613.01459069755,547.17634997593,6.331103110311,1384903.4127982,8768.6694410004,3096694.8543711,11.531103110311,0,0
613.0145909967,546.97456093097,6.3355335533553,1384903.4127982,8768.6694410004,3096694.8543711,11.535533553355,0,0
613.01459129585,546.77277188601,6.3399639963996,1384903.4127982,8768.6694410004,3096694.8543711,11.5399639964,0,0
613.01459159499,546.57098284104,6.3443944394439,1384903.4127982,8768.6694410004,3096694.8543711,11.544394439444,0,0
613.01459189414,546.36919379608,6.3488248824882,1384903.4127982,8768.6694410004,3096694.8543711,11.548824882488,0,0
613.01459219328,546.16740475111,6.3532553255326,1384903.4127982,8768.6694410004,3096694.8543711,11.553255325533,0,0
613.01459249243,545.96561570615,6.3576857685769,1384903.4127982,8768.6694410004,3096694.8543711,11.557685768577,0,0
613.01459279158,545.76382666118,6.3621162116212,1384903.4127982,8768.6694410004,3096694.8543711,11.562116211621,0,0
613.01459309072,545.56203761622,6.3665466546655,1384903.4127982,8768.6694410004,3096694.8543711,11.566546654665,0,0
613.01459338987,545.36024857126,6.3709770977098,1384903.4127982,8768.6694410004,3096694.8543711,11.57097709771,0,0
613.01459368901,545.15845952629,6.3754075407541,1384903.4127982,8768.6694410004,3096694.8543711,11.575407540754,0,0
613.01459398816,544.95667048133,6.3798379837984,1384903.4127982,8768.6694410004,3096694.8543711,11.579837983798,0,0
613.0145942873,544.75488143636,6.3842684268427,1384903.4127982,8768.6694410004,3096694.8543711,11.584268426843,0,0
613.01459458645,544.5530923914,6.388698869887,1384903.4127982,8768.6694410004,3096694.8543711,11.588698869887,0,0
613.0145948856,544.35130334643,6.3931293129313,1384903.4127982,8768.6694410004,3096694.8543711,11.593129312931,0,0
613.01459518474,544.14951430147,6.3975597559756,1384903.4127982,8768.6694410004,3096694.8543711,11.597559755976,0,0
613.01459548389,543.94772525651,6.4019901990199,1384903.4127982,8768.6694410004,3096694.8543711,11.60199019902,0,0
613.01459578303,543.74593621154,6.4064206420642,1384903.4127982,8768.6694410004,3096694.8543711,11.606420642064,0,0
613.01459608218,543.54414716658,6.4108510851085,1384903.4127982,8768.6694410004,3096694.8543711,11.610851085109,0,0
613.01459638133,543.34235812161,6.4152815281528,1384903.4127982,8768.6694410004,3096694.8543711,11.615281528153,0,0
613.01459668047,543.14056907665,6.4197119711971,1384903.4127982,8768.6694410004,3096694.8543711,11.619711971197,0,0
613.01459697962,542.93878003168,6.4241424142414,1384903.4127982,8768.6694410004,3096694.8543711,11.624142414241,0,0
613.01459727876,542.73699098672,6.4285728572857,1384903.4127982,8768.6694410004,3096694.8543711,11.628572857286,0,0
613.01459757791,542.53520194176,6.43300330033,1384903.4127982,8768.6694410004,3096694.8543711,11.63300330033,0,0
613.01459787706,542.33341289679,6.4374337433743,1384903.4127982,8768.6694410004,3096694.8543711,11.637433743374,0,0
613.0145981762,542.13162385183,6.4418641864186,1384903.4127982,8768.6694410004,3096694.8543711,11.641864186419,0,0
613.01459847535,541.92983480686,6.4462946294629,1384903.4127982,8768.6694410004,3096694.8543711,11.646294629463,0,0
613.01459877449,541.7280457619,6.4507250725072,1384903.4127982,8768.6694410004,3096694.8543711,11.650725072507,0,0
613.01459907364,541.52625671693,6.4551555155516,1384903.4127982,8768.6694410004,3096694.8543711,11.655155515552,0,0
613.01459937279,541.32446767197,6.4595859585959,1384903.4127982,8768.6694410004,3096694.8543711,11.659585958596,0,0
613.01459967343,541.12267862174,6.4640164016402,1389413.1009005,-8844.2339351633,3048206.1190079,11.66401640164,0,0
613.01459997559,540.92088956618,6.4684468446845,1389413.1009005,-8844.2339351633,3048206.1190079,11.668446844684,0,0
613.01460027774,540.71910051061,6.4728772877288,1389413.1009005,-8844.2339351633,3048206.1190079,11.672877287729,0,0
613.0146005799,540.51731145505,6.4773077307731,1389413.1009005,-8844.2339351633,3048206.1190079,11.677307730773,0,0
613.01460088206,540.31552239949,6.4817381738174,1389413.1009005,-8844.2339351633,3048206.1190079,11.681738173817,0,0
613.01460118421,540.11373334392,6.4861686168617,1389413.1009005,-8844.2339351633,3048206.1190079,11.686168616862,0,0
613.01460148637,539.91194428836,6.490599059906,1389413.1009005,-8844.2339351633,3048206.1190079,11.690599059906,0,0
613.01460178853,539.7101552328,6.4950295029503,1389413.1009005,-8844.2339351633,3048206.1190079,11.69502950295,0,0
613.01460209068,539.50836617723,6.4994599459946,1389413.1009005,-8844.2339351633,3048206.1190079,11.699459945995,0,0
613.01460239284,539.30657712167,6.5038903890389,1389413.1009005,-8844.2339351633,3048206.1190079,11.703890389039,0,0
613.014602695,539.10478806611,6.5083208320832,1389413.1009005,-8844.2339351633,3048206.1190079,11.708320832083,0,0
613.01460299715,538.90299901055,6.5127512751275,1389413.1009005,-8844.2339351633,3048206.1190079,11.712751275128,0,0
613.01460329931,538.70120995498,6.5171817181718,1389413.1009005,-8844.2339351633,3048206.1190079,11.717181718172,0,0
613.01460360147,538.49942089942,6.5216121612161,1389413.1009005,-8844.2339351633,3048206.1190079,11.721612161216,0,0
613.01460390362,538.29763184386,6.5260426042604,1389413.1009005,-8844.2339351633,3048206.1190079,11.72604260426,0,0
613.01460420578,538.09584278829,6.5304730473047,1389413.1009005,-8844.2339351633,3048206.1190079,11.730473047305,0,0
613.01460450794,537.89405373273,6.534903490349,1389413.1009005,-8844.2339351633,3048206.1190079,11.734903490349,0,0
613.0146048101,537.69226467717,6.5393339333933,1389413.1009005,-8844.2339351633,3048206.1190079,11.739333933393,0,0
613.01460511225,537.4904756216,6.5437643764376,1389413.1009005,-8844.2339351633,3048206.1190079,11.743764376438,0,0
613.01460541441,537.28868656604,6.5481948194819,1389413.1009005,-8844.2339351633,3048206.1190079,11.748194819482,0,0
613.01460571657,537.08689751048,6.5526252625263,1389413.1009005,-8844.2339351633,3048206.1190079,11.752625262526,0,0
613.01460601872,536.88510845492,6.5570557055706,1389413.1009005,-8844.2339351633,3048206.1190079,11.757055705571,0,0
613.01460632088,536.68331939935,6.5614861486149,1389413.1009005,-8844.2339351633,3048206.1190079,11.761486148615,0,0
613.01460662304,536.48153034379,6.5659165916592,1389413.1009005,-8844.2339351633,3048206.1190079,11.765916591659,0,0
613.01460692519,536.27974128823,6.5703470347035,1389413.1009005,-8844.2339351633,3048206.1190079,11.770347034703,0,0
613.01460722735,536.07795223266,6.5747774777478,1389413.1009005,-8844.2339351633,3048206.1190079,11.774777477748,0,0
613.01460752951,535.8761631771,6.5792079207921,1389413.1009005,-8844.2339351633,3048206.1190079,11.779207920792,0,0
613.01460783166,535.67437412154,6.5836383638364,1389413.1009005,-8844.2339351633,3048206.1190079,11.783638363836,0,0
613.01460813382,535.47258506597,6.5880688068807,1389413.1009005,-8844.2339351633,3048206.1190079,11.788068806881,0,0
613.01460843598,535.27079601041,6.592499249925,1389413.1009005,-8844.2339351633,3048206.1190079,11.792499249925,0,0
613.01460873813,535.06900695485,6.5969296929693,1389413.1009005,-8844.2339351633,3048206.1190079,11.796929692969,0,0
613.01460904029,534.86721789929,6.6013601360136,1389413.1009005,-8844.2339351633,3048206.1190079,11.801360136014,0,0
613.01460934245,534.66542884372,6.6057905790579,1389413.1009005,-8844.2339351633,3048206.1190079,11.805790579058,0,0
613.01460964461,534.46363978816,6.6102210221022,1389413.1009005,-8844.2339351633,3048206.1190079,11.810221022102,0,0
613.01460994676,534.2618507326,6.6146514651465,1389413.1009005,-8844.2339351633,3048206.1190079,11.814651465147,0,0
613.01461024892,534.06006167703,6.6190819081908,1389413.1009005,-8844.2339351633,3048206.1190079,11.819081908191,0,0
613.01461055108,533.85827262147,6.6235123512351,1389413.1009005,-8844.2339351633,3048206.1190079,11.823512351235,0,0
613.01461085323,533.65648356591,6.6279427942794,1389413.1009005,-8844.2339351633,3048206.1190079,11.827942794279,0,0
613.01461115539,533.45469451034,6.6323732373237,1389413.1009005,-8844.2339351633,3048206.1190079,11.832373237324,0,0
613.01461145755,533.25290545478,6.636803680368,1389413.1009005,-8844.2339351633,3048206.1190079,11.836803680368,0,0
613.0146117597,533.05111639922,6.6412341234123,1389413.1009005,-8844.2339351633,3048206.1190079,11.841234123412,0,0
613.01461206186,532.84932734366,6.6456645664566,1389413.1009005,-8844.2339351633,3048206.1190079,11.845664566457,0,0
613.01461236402,532.64753828809,6.650095009501,1389413.1009005,-8844.2339351633,3048206.1190079,11.850095009501,0,0
613.01461266617,532.44574923253,6.6545254525453,1389413.1009005,-8844.2339351633,3048206.1190079,11.854525452545,0,0
613.01461296833,532.24396017697,6.6589558955896,1389413.1009005,-8844.2339351633,3048206.1190079,11.85895589559,0,0
613.01461327049,532.0421711214,6.6633863386339,1389413.1009005,-8844.2339351633,3048206.1190079,11.863386338634,0,0
613.01461357264,531.84038206584,6.6678167816782,1389413.1009005,-8844.2339351633,3048206.1190079,11.867816781678,0,0
613.0146138748,531.63859301028,6.6722472247225,1389413.1009005,-8844.2339351633,3048206.1190079,11.872247224722,0,0
613.01461417696,531.43680395471,6.6766776677668,1389413.1009005,-8844.2339351633,3048206.1190079,11.876677667767,0,0
613.01461447912,531.23501489915,6.6811081108111,1389413.1009005,-8844.2339351633,3048206.1190079,11.881108110811,0,0
613.01461478127,531.03322584359,6.6855385538554,1389413.1009005,-8844.2339351633,3048206.1190079,11.885538553855,0,0
613.01461508343,530.83143678803,6.6899689968997,1389413.1009005,-8844.2339351633,3048206.1190079,11.8899689969,0,0
613.01461538559,530.62964773246,6.694399439944,1389413.1009005,-8844.2339351633,3048206.1190079,11.894399439944,0,0
613.01461568774,530.4278586769,6.6988298829883,1389413.1009005,-8844.2339351633,3048206.1190079,11.898829882988,0,0
613.0146159899,530.22606962134,6.7032603260326,1389413.1009005,-8844.2339351633,3048206.1190079,11.903260326033,0,0
613.01461629206,530.02428056577,6.7076907690769,1389413.1009005,-8844.2339351633,3048206.1190079,11.907690769077,0,0
613.01461659421,529.82249151021,6.7121212121212,1389413.1009005,-8844.2339351633,3048206.1190079,11.912121212121,0,0
613.01461689637,529.62070245465,6.7165516551655,1389413.1009005,-8844.2339351633,3048206.1190079,11.916551655166,0,0
613.01461719853,529.41891339909,6.7209820982098,1389413.1009005,-8844.2339351633,3048206.1190079,11.92098209821,0,0
613.01461750068,529.21712434352,6.7254125412541,1389413.1009005,-8844.2339351633,3048206.1190079,11.925412541254,0,0
613.01461780284,529.01533528796,6.7298429842984,1389413.1009005,-8844.2339351633,3048206.1190079,11.929842984298,0,0
613.01461810521,528.81354623579,6.7342734273427,1387915.7859249,8005.6993284616,3031064.6751077,11.934273427343,0,0
613.01461840787,528.6117571881,6.738703870387,1387915.7859249,8005.6993284616,3031064.6751077,11.938703870387,0,0
613.01461871053,528.4099681404,6.7431343134313,1387915.7859249,8005.6993284616,3031064.6751077,11.943134313431,0,0
613.01461901318,528.20817909271,6.7475647564756,1387915.7859249,8005.6993284616,3031064.6751077,11.947564756476,0,0
613.01461931584,528.00639004502,6.75199519952,1387915.7859249,8005.6993284616,3031064.6751077,11.95199519952,0,0
613.0146196185,527.80460099733,6.7564256425643,1387915.7859249,8005.6993284616,3031064.6751077,11.956425642564,0,0
613.01461992115,527.60281194964,6.7608560856086,1387915.7859249,8005.6993284616,3031064.6751077,11.960856085609,0,0
613.01462022381,527.40102290194,6.7652865286529,1387915.7859249,8005.6993284616,3031064.6751077,11.965286528653,0,0
613.01462052646,527.19923385425,6.7697169716972,1387915.7859249,8005.6993284616,3031064.6751077,11.969716971697,0,0
613.01462082912,526.99744480656,6.7741474147415,1387915.7859249,8005.6993284616,3031064.6751077,11.974147414741,0,0
613.01462113178,526.79565575887,6.7785778577858,1387915.7859249,8005.6993284616,3031064.6751077,11.978577857786,0,0
613.01462143443,526.59386671118,6.7830083008301,1387915.7859249,8005.6993284616,3031064.6751077,11.98300830083,0,0
613.01462173709,526.39207766349,6.7874387438744,1387915.7859249,8005.6993284616,3031064.6751077,11.987438743874,0,0
613.01462203975,526.19028861579,6.7918691869187,1387915.7859249,8005.6993284616,3031064.6751077,11.991869186919,0,0
613.0146223424,525.9884995681,6.796299629963,1387915.7859249,8005.6993284616,3031064.6751077,11.996299629963,0,0
613.01462264506,525.78671052041,6.8007300730073,1387915.7859249,8005.6993284616,3031064.6751077,12.000730073007,0,0
613.01462294772,525.58492147272,6.8051605160516,1387915.7859249,8005.6993284616,3031064.6751077,12.005160516052,0,0
613.01462325037,525.38313242503,6.8095909590959,1387915.7859249,8005.6993284616,3031064.6751077,12.009590959096,0,0
613.01462355303,525.18134337734,6.8140214021402,1387915.7859249,8005.6993284616,3031064.6751077,12.01402140214,0,0
613.01462385569,524.97955432964,6.8184518451845,1387915.7859249,8005.6993284616,3031064.6751077,12.018451845185,0,0
613.01462415834,524.77776528195,6.8228822882288,1387915.7859249,8005.6993284616,3031064.6751077,12.022882288229,0,0
613.014624461,524.57597623426,6.8273127312731,1387915.7859249,8005.6993284616,3031064.6751077,12.027312731273,0,0
613.01462476366,524.37418718657,6.8317431743174,1387915.7859249,8005.6993284616,3031064.6751077,12.031743174317,0,0
613.01462506631,524.17239813888,6.8361736173617,1387915.7859249,8005.6993284616,3031064.6751077,12.036173617362,0,0
613.01462536897,523.97060909118,6.840604060406,1387915.7859249,8005.6993284616,3031064.6751077,12.040604060406,0,0
613.01462567162,523.76882004349,6.8450345034503,1387915.7859249,8005.6993284616,3031064.6751077,12.04503450345,0,0
613.01462597428,523.5670309958,6.8494649464946,1387915.7859249,8005.6993284616,3031064.6751077,12.049464946495,0,0
613.01462627694,523.36524194811,6.853895389539,1387915.7859249,8005.6993284616,3031064.6751077,12.053895389539,0,0
613.01462657959,523.16345290042,6.8583258325833,1387915.7859249,8005.6993284616,3031064.6751077,12.058325832583,0,0
613.01462688225,522.96166385273,6.8627562756276,1387915.7859249,8005.6993284616,3031064.6751077,12.062756275628,0,0
613.01462718491,522.75987480503,6.8671867186719,1387915.7859249,8005.6993284616,3031064.6751077,12.067186718672,0,0
613.01462748756,522.55808575734,6.8716171617162,1387915.7859249,8005.6993284616,3031064.6751077,12.071617161716,0,0
613.01462779022,522.35629670965,6.8760476047605,1387915.7859249,8005.6993284616,3031064.6751077,12.07604760476,0,0
613.01462809288,522.15450766196,6.8804780478048,1387915.7859249,8005.6993284616,3031064.6751077,12.080478047805,0,0
613.01462839553,521.95271861427,6.8849084908491,1387915.7859249,8005.6993284616,3031064.6751077,12.084908490849,0,0
613.01462869819,521.75092956658,6.8893389338934,1387915.7859249,8005.6993284616,3031064.6751077,12.089338933893,0,0
613.01462900085,521.54914051888,6.8937693769377,1387915.7859249,8005.6993284616,3031064.6751077,12.093769376938,0,0
613.0146293035,521.34735147119,6.898199819982,1387915.7859249,8005.6993284616,3031064.6751077,12.098199819982,0,0
613.01462960616,521.1455624235,6.9026302630263,1387915.7859249,8005.6993284616,3031064.6751077,12.102630263026,0,0
613.01462990882,520.94377337581,6.9070607060706,1387915.7859249,8005.6993284616,3031064.6751077,12.107060706071,0,0
613.01463021147,520.74198432812,6.9114911491149,1387915.7859249,8005.6993284616,3031064.6751077,12.111491149115,0,0
613.01463051413,520.54019528042,6.9159215921592,1387915.7859249,8005.6993284616,3031064.6751077,12.115921592159,0,0
613.01463081678,520.33840623273,6.9203520352035,1387915.7859249,8005.6993284616,3031064.6751077,12.120352035204,0,0
613.01463111944,520.13661718504,6.9247824782478,1387915.7859249,8005.6993284616,3031064.6751077,12.124782478248,0,0
613.0146314221,519.93482813735,6.9292129212921,1387915.7859249,8005.6993284616,3031064.6751077,12.129212921292,0,0
613.01463172475,519.73303908966,6.9336433643364,1387915.7859249,8005.6993284616,3031064.6751077,12.133643364336,0,0
613.01463202741,519.53125004197,6.9380738073807,1387915.7859249,8005.6993284616,3031064.6751077,12.138073807381,0,0
613.01463233007,519.32946099427,6.942504250425,1387915.7859249,8005.6993284616,3031064.6751077,12.142504250425,0,0
613.01463263272,519.12767194658,6.9469346934693,1387915.7859249,8005.6993284616,3031064.6751077,12.146934693469,0,0
613.01463293538,518.92588289889,6.9513651365137,1387915.7859249,8005.6993284616,3031064.6751077,12.151365136514,0,0
613.01463323804,518.7240938512,6.955795579558,1387915.7859249,8005.6993284616,3031064.6751077,12.155795579558,0,0
613.01463354069,518.52230480351,6.9602260226023,1387915.7859249,8005.6993284616,3031064.6751077,12.160226022602,0,0
613.01463384335,518.32051575582,6.9646564656466,1387915.7859249,8005.6993284616,3031064.6751077,12.164656465647,0,0
613.01463414601,518.11872670812,6.9690869086909,1387915.7859249,8005.6993284616,3031064.6751077,12.169086908691,0,0
613.01463444866,517.91693766043,6.9735173517352,1387915.7859249,8005.6993284616,3031064.6751077,12.173517351735,0,0
613.01463475132,517.71514861274,6.9779477947795,1387915.7859249,8005.6993284616,3031064.6751077,12.177947794779,0,0
613.01463505397,517.51335956505,6.9823782378238,1387915.7859249,8005.6993284616,3031064.6751077,12.182378237824,0,0
613.01463535663,517.31157051736,6.9868086808681,1387915.7859249,8005.6993284616,3031064.6751077,12.186808680868,0,0
613.01463565929,517.10978146966,6.9912391239124,1387915.7859249,8005.6993284616,3031064.6751077,12.191239123912,0,0
613.01463596194,516.90799242197,6.9956695669567,1387915.7859249,8005.6993284616,3031064.6751077,12.195669566957,0,0
613.0146362646,516.70620337428,7.000100010001,1387915.7859249,8005.6993284616,3031064.6751077,12.200100010001,0,0
613.01463656726,516.50441432659,7.0045304530453,1387915.7859249,8005.6993284616,3031064.6751077,12.204530453045,0,0
613.01463686991,516.3026252789,7.0089608960896,1387915.7859249,8005.6993284616,3031064.6751077,12.20896089609,0,0
613.01463717257,516.10083623121,7.0133913391339,1387915.7859249,8005.6993284616,3031064.6751077,12.213391339134,0,0
613.01463747523,515.89904718351,7.0178217821782,1387915.7859249,8005.6993284616,3031064.6751077,12.217821782178,0,0
613.01463777788,515.69725813582,7.0222522252225,1387915.7859249,8005.6993284616,3031064.6751077,12.222252225223,0,0
613.01463808054,515.49546908813,7.0266826682668,1387915.7859249,8005.6993284616,3031064.6751077,12.226682668267,0,0
613.0146383832,515.29368004044,7.0311131113111,1387915.7859249,8005.6993284616,3031064.6751077,12.231113111311,0,0
613.01463868585,515.09189099275,7.0355435543554,1387915.7859249,8005.6993284616,3031064.6751077,12.235543554355,0,0
613.01463898851,514.89010194506,7.0399739973997,1387915.7859249,8005.6993284616,3031064.6751077,12.2399739974,0,0
613.01463929117,514.68831289736,7.044404440444,1387915.7859249,8005.6993284616,3031064.6751077,12.244404440444,0,0
613.01463959382,514.48652384967,7.0488348834883,1387915.7859249,8005.6993284616,3031064.6751077,12.248834883488,0,0
613.01463989648,514.28473480198,7.0532653265327,1387915.7859249,8005.6993284616,3031064.6751077,12.253265326533,0,0
613.01464019913,514.08294575429,7.057695769577,1387915.7859249,8005.6993284616,3031064.6751077,12.257695769577,0,0
613.01464050179,513.8811567066,7.0621262126213,1387915.7859249,8005.6993284616,3031064.6751077,12.262126212621,0,0
613.01464080445,513.6793676589,7.0665566556656,1387915.7859249,8005.6993284616,3031064.6751077,12.266556655666,0,0
613.0146411071,513.47757861121,7.0709870987099,1387915.7859249,8005.6993284616,3031064.6751077,12.27098709871,0,0
613.01464140976,513.27578956352,7.0754175417542,1387915.7859249,8005.6993284616,3031064.6751077,12.275417541754,0,0
613.01464171242,513.07400051583,7.0798479847985,1387915.7859249,8005.6993284616,3031064.6751077,12.279847984798,0,0
613.01464201507,512.87221146814,7.0842784278428,1387915.7859249,8005.6993284616,3031064.6751077,12.284278427843,0,0
613.01464231773,512.67042242045,7.0887088708871,1387915.7859249,8005.6993284616,3031064.6751077,12.288708870887,0,0
613.01464262039,512.46863337275,7.0931393139314,1387915.7859249,8005.6993284616,3031064.6751077,12.293139313931,0,0
613.01464292304,512.26684432506,7.0975697569757,1387915.7859249,8005.6993284616,3031064.6751077,12.297569756976,0,0
613.0146432257,512.06505527737,7.10200020002,1387915.7859249,8005.6993284616,3031064.6751077,12.30200020002,0,0
613.01464352836,511.86326622968,7.1064306430643,1387915.7859249,8005.6993284616,3031064.6751077,12.306430643064,0,0
613.01464383101,511.66147718199,7.1108610861086,1387915.7859249,8005.6993284616,3031064.6751077,12.310861086109,0,0
613.01464413367,511.45968813429,7.1152915291529,1387915.7859249,8005.6993284616,3031064.6751077,12.315291529153,0,0
613.01464443633,511.2578990866,7.1197219721972,1387915.7859249,8005.6993284616,3031064.6751077,12.319721972197,0,0
613.01464473898,511.05611003891,7.1241524152415,1387915.7859249,8005.6993284616,3031064.6751077,12.324152415242,0,0
613.01464504164,510.85432099122,7.1285828582858,1387915.7859249,8005.6993284616,3031064.6751077,12.328582858286,0,0
613.01464534429,510.65253194353,7.1330133013301,1387915.7859249,8005.6993284616,3031064.6751077,12.33301330133,0,0
613.01464564695,510.45074289584,7.1374437443744,1387915.7859249,8005.6993284616,3031064.6751077,12.337443744374,0,0
613.01464594961,510.24895384814,7.1418741874187,1387915.7859249,8005.6993284616,3031064.6751077,12.341874187419,0,0
613.01464625226,510.04716480045,7.146304630463,1387915.7859249,8005.6993284616,3031064.6751077,12.346304630463,0,0
613.01464655492,509.84537575276,7.1507350735073,1387915.7859249,8005.6993284616,3031064.6751077,12.350735073507,0,0
613.01464685758,509.64358670507,7.1551655165517,1387915.7859249,8005.6993284616,3031064.6751077,12.355165516552,0,0
613.01464716023,509.44179765738,7.159595959596,1387915.7859249,8005.6993284616,3031064.6751077,12.359595959596,0,0
613.01464746289,509.24000860969,7.1640264026403,1387915.7859249,8005.6993284616,3031064.6751077,12.36402640264,0,0
613.01464776555,509.03821956199,7.1684568456846,1387915.7859249,8005.6993284616,3031064.6751077,12.368456845685,0,0
613.0146480682,508.8364305143,7.1728872887289,1387915.7859249,8005.6993284616,3031064.6751077,12.372887288729,0,0
613.01464837086,508.63464146661,7.1773177317732,1387915.7859249,8005.6993284616,3031064.6751077,12.377317731773,0,0
613.01464867352,508.43285241892,7.1817481748175,1387915.7859249,8005.6993284616,3031064.6751077,12.381748174817,0,0
613.01464897617,508.23106337123,7.1861786178618,1387915.7859249,8005.6993284616,3031064.6751077,12.386178617862,0,0
613.01464927883,508.02927432353,7.1906090609061,1387915.7859249,8005.6993284616,3031064.6751077,12.390609060906,0,0
613.01464958149,507.82748527584,7.1950395039504,1387915.7859249,8005.6993284616,3031064.6751077,12.39503950395,0,0
613.01464988414,507.62569622815,7.1994699469947,1387915.7859249,8005.6993284616,3031064.6751077,12.399469946995,0,0
613.0146501868,507.42390718046,7.203900390039,1387915.7859249,8005.6993284616,3031064.6751077,12.403900390039,0,0
613.01465048945,507.22211813277,7.2083308330833,1387915.7859249,8005.6993284616,3031064.6751077,12.408330833083,0,0
613.01465079211,507.02032908508,7.2127612761276,1387915.7859249,8005.6993284616,3031064.6751077,12.412761276128,0,0
613.01465109477,506.81854003738,7.2171917191719,1387915.7859249,8005.6993284616,3031064.6751077,12.417191719172,0,0
613.01465139742,506.61675098969,7.2216221622162,1387915.7859249,8005.6993284616,3031064.6751077,12.421622162216,0,0
613.01465170008,506.414961942,7.2260526052605,1387915.7859249,8005.6993284616,3031064.6751077,12.426052605261,0,0
613.01465200274,506.21317289431,7.2304830483048,1387915.7859249,8005.6993284616,3031064.6751077,12.430483048305,0,0
613.01465230539,506.01138384662,7.2349134913491,1387915.7859249,8005.6993284616,3031064.6751077,12.434913491349,0,0
613.01465260805,505.80959479893,7.2393439343934,1387915.7859249,8005.6993284616,3031064.6751077,12.439343934393,0,0
613.01465291071,505.60780575123,7.2437743774377,1387915.7859249,8005.6993284616,3031064.6751077,12.443774377438,0,0
613.01465321336,505.40601670354,7.248204820482,1387915.7859249,8005.6993284616,3031064.6751077,12.448204820482,0,0
613.01465351602,505.20422765585,7.2526352635264,1387915.7859249,8005.6993284616,3031064.6751077,12.452635263526,0,0
613.01465381868,505.00243860816,7.2570657065707,1387915.7859249,8005.6993284616,3031064.6751077,12.457065706571,0,0
613.01465412133,504.80064956047,7.261496149615,1387915.7859249,8005.6993284616,3031064.6751077,12.461496149615,0,0
613.01465442399,504.59886051277,7.2659265926593,1387915.7859249,8005.6993284616,3031064.6751077,12.465926592659,0,0
613.01465472665,504.39707146508,7.2703570357036,1387915.7859249,8005.6993284616,3031064.6751077,12.470357035704,0,0
613.0146550293,504.19528241739,7.2747874787479,1387915.7859249,8005.6993284616,3031064.6751077,12.474787478748,0,0
613.01465533196,503.9934933697,7.2792179217922,1387915.7859249,8005.6993284616,3031064.6751077,12.479217921792,0,0
613.01465563461,503.79170432201,7.2836483648365,1387915.7859249,8005.6993284616,3031064.6751077,12.483648364836,0,0
613.01465593727,503.58991527432,7.2880788078808,1387915.7859249,8005.6993284616,3031064.6751077,12.488078807881,0,0
613.01465623993,503.38812622662,7.2925092509251,1387915.7859249,8005.6993284616,3031064.6751077,12.492509250925,0,0
613.01465654258,503.18633717893,7.2969396939694,1387915.7859249,8005.6993284616,3031064.6751077,12.496939693969,0,0
613.01465684524,502.98454813124,7.3013701370137,1387915.7859249,8005.6993284616,3031064.6751077,12.501370137014,0,0
613.0146571479,502.78275908355,7.305800580058,1387915.7859249,8005.6993284616,3031064.6751077,12.505800580058,0,0
613.01465745055,502.58097003586,7.3102310231023,1387915.7859249,8005.6993284616,3031064.6751077,12.510231023102,0,0
613.01465775321,502.37918098817,7.3146614661466,1387915.7859249,8005.6993284616,3031064.6751077,12.514661466147,0,0
613.01465805587,502.17739194047,7.3190919091909,1387915.7859249,8005.6993284616,3031064.6751077,12.519091909191,0,0
613.01465835852,501.97560289278,7.3235223522352,1387915.7859249,8005.6993284616,3031064.6751077,12.523522352235,0,0
613.01465866118,501.77381384509,7.3279527952795,1387915.7859249,8005.6993284616,3031064.6751077,12.52795279528,0,0
613.01465896384,501.5720247974,7.3323832383238,1387915.7859249,8005.6993284616,3031064.6751077,12.532383238324,0,0
613.01465926649,501.37023574971,7.3368136813681,1387915.7859249,8005.6993284616,3031064.6751077,12.536813681368,0,0
613.01465956915,501.16844670201,7.3412441244124,1387915.7859249,8005.6993284616,3031064.6751077,12.541244124412,0,0
613.01465987181,500.96665765432,7.3456745674567,1387915.7859249,8005.6993284616,3031064.6751077,12.545674567457,0,0
613.01466017446,500.76486860663,7.350105010501,1387915.7859249,8005.6993284616,3031064.6751077,12.550105010501,0,0
613.01466047712,500.56307955894,7.3545354535454,1387915.7859249,8005.6993284616,3031064.6751077,12.554535453545,0,0
613.01466077977,500.36129051125,7.3589658965897,1387915.7859249,8005.6993284616,3031064.6751077,12.55896589659,0,0
613.01466108243,500.15950146356,7.363396339634,1387915.7859249,8005.6993284616,3031064.6751077,12.563396339634,0,0
613.01466138509,499.95771241586,7.3678267826783,1387915.7859249,8005.6993284616,3031064.6751077,12.567826782678,0,0
613.01466168774,499.75592336817,7.3722572257226,1387915.7859249,8005.6993284616,3031064.6751077,12.572257225723,0,0
613.0146619904,499.55413432048,7.3766876687669,1387915.7859249,8005.6993284616,3031064.6751077,12.576687668767,0,0
613.01466229306,499.35234527279,7.3811181118112,1387915.7859249,8005.6993284616,3031064.6751077,12.581118111811,0,0
613.01466259571,499.1505562251,7.3855485548555,1387915.7859249,8005.6993284616,3031064.6751077,12.585548554855,0,0
613.01466289837,498.94876717741,7.3899789978998,1387915.7859249,8005.6993284616,3031064.6751077,12.5899789979,0,0
613.01466320103,498.74697812971,7.3944094409441,1387915.7859249,8005.6993284616,3031064.6751077,12.594409440944,0,0
613.01466350524,498.54518907505,7.3988398839884,1388631.7401359,-8011.7425479665,2989493.3631638,12.598839883988,0,0
613.0146638099,498.34340001836,7.4032703270327,1388631.7401359,-8011.7425479665,2989493.3631638,12.603270327033,0,0
613.01466411456,498.14161096167,7.407700770077,1388631.7401359,-8011.7425479665,2989493.3631638,12.607700770077,0,0
613.01466441922,497.93982190499,7.4121312131213,1388631.7401359,-8011.7425479665,2989493.3631638,12.612131213121,0,0
613.01466472389,497.7380328483,7.4165616561656,1388631.7401359,-8011.7425479665,2989493.3631638,12.616561656166,0,0
613.01466502855,497.53624379161,7.4209920992099,1388631.7401359,-8011.7425479665,2989493.3631638,12.62099209921,0,0
613.01466533321,497.33445473492,7.4254225422542,1388631.7401359,-8011.7425479665,2989493.3631638,12.625422542254,0,0
613.01466563787,497.13266567823,7.4298529852985,1388631.7401359,-8011.7425479665,2989493.3631638,12.629852985299,0,0
613.01466594253,496.93087662154,7.4342834283428,1388631.7401359,-8011.7425479665,2989493.3631638,12.634283428343,0,0
613.0146662472,496.72908756485,7.4387138713871,1388631.7401359,-8011.7425479665,2989493.3631638,12.638713871387,0,0
613.01466655186,496.52729850816,7.4431443144314,1388631.7401359,-8011.7425479665,2989493.3631638,12.643144314431,0,0
613.01466685652,496.32550945147,7.4475747574757,1388631.7401359,-8011.7425479665,2989493.3631638,12.647574757476,0,0
613.01466716118,496.12372039478,7.4520052005201,1388631.7401359,-8011.7425479665,2989493.3631638,12.65200520052,0,0
613.01466746585,495.92193133809,7.4564356435644,1388631.7401359,-8011.7425479665,2989493.3631638,12.656435643564,0,0
613.01466777051,495.7201422814,7.4608660866087,1388631.7401359,-8011.7425479665,2989493.3631638,12.660866086609,0,0
613.01466807517,495.51835322471,7.465296529653,1388631.7401359,-8011.7425479665,2989493.3631638,12.665296529653,0,0
613.01466837983,495.31656416802,7.4697269726973,1388631.7401359,-8011.7425479665,2989493.3631638,12.669726972697,0,0
613.0146686845,495.11477511133,7.4741574157416,1388631.7401359,-8011.7425479665,2989493.3631638,12.674157415742,0,0
613.01466898916,494.91298605464,7.4785878587859,1388631.7401359,-8011.7425479665,2989493.3631638,12.678587858786,0,0
613.01466929382,494.71119699795,7.4830183018302,1388631.7401359,-8011.7425479665,2989493.3631638,12.68301830183,0,0
613.01466959848,494.50940794126,7.4874487448745,1388631.7401359,-8011.7425479665,2989493.3631638,12.687448744874,0,0
613.01466990314,494.30761888457,7.4918791879188,1388631.7401359,-8011.7425479665,2989493.3631638,12.691879187919,0,0
613.01467020781,494.10582982788,7.4963096309631,1388631.7401359,-8011.7425479665,2989493.3631638,12.696309630963,0,0
613.01467051247,493.9040407712,7.5007400740074,1388631.7401359,-8011.7425479665,2989493.3631638,12.700740074007,0,0
613.01467081749,493.70225171692,7.5051705170517,1389894.9426017,8123.2604437468,2968310.3559034,12.705170517052,0,0
613.01467112334,493.50046266817,7.509600960096,1389894.9426017,8123.2604437468,2968310.3559034,12.709600960096,0,0
613.01467142919,493.29867361942,7.5140314031403,1389894.9426017,8123.2604437468,2968310.3559034,12.71403140314,0,0
613.01467173504,493.09688457067,7.5184618461846,1389894.9426017,8123.2604437468,2968310.3559034,12.718461846185,0,0
613.01467204089,492.89509552191,7.5228922892289,1389894.9426017,8123.2604437468,2968310.3559034,12.722892289229,0,0
613.01467234673,492.69330647316,7.5273227322732,1389894.9426017,8123.2604437468,2968310.3559034,12.727322732273,0,0
613.01467265258,492.49151742441,7.5317531753175,1389894.9426017,8123.2604437468,2968310.3559034,12.731753175318,0,0
613.01467295843,492.28972837566,7.5361836183618,1389894.9426017,8123.2604437468,2968310.3559034,12.736183618362,0,0
613.01467326428,492.08793932691,7.5406140614061,1389894.9426017,8123.2604437468,2968310.3559034,12.740614061406,0,0
613.01467357013,491.88615027816,7.5450445044504,1389894.9426017,8123.2604437468,2968310.3559034,12.74504450445,0,0
613.01467387598,491.6843612294,7.5494749474947,1389894.9426017,8123.2604437468,2968310.3559034,12.749474947495,0,0
613.01467418183,491.48257218065,7.5539053905391,1389894.9426017,8123.2604437468,2968310.3559034,12.753905390539,0,0
613.01467448767,491.2807831319,7.5583358335834,1389894.9426017,8123.2604437468,2968310.3559034,12.758335833583,0,0
613.01467479352,491.07899408315,7.5627662766277,1389894.9426017,8123.2604437468,2968310.3559034,12.762766276628,0,0
613.01467509937,490.8772050344,7.567196719672,1389894.9426017,8123.2604437468,2968310.3559034,12.767196719672,0,0
613.01467540522,490.67541598565,7.5716271627163,1389894.9426017,8123.2604437468,2968310.3559034,12.771627162716,0,0
613.01467571107,490.47362693689,7.5760576057606,1389894.9426017,8123.2604437468,2968310.3559034,12.776057605761,0,0
613.01467601692,490.27183788814,7.5804880488049,1389894.9426017,8123.2604437468,2968310.3559034,12.780488048805,0,0
613.01467632277,490.07004883939,7.5849184918492,1389894.9426017,8123.2604437468,2968310.3559034,12.784918491849,0,0
613.01467662861,489.86825979064,7.5893489348935,1389894.9426017,8123.2604437468,2968310.3559034,12.789348934893,0,0
613.01467693446,489.66647074189,7.5937793779378,1389894.9426017,8123.2604437468,2968310.3559034,12.793779377938,0,0
613.01467724031,489.46468169314,7.5982098209821,1389894.9426017,8123.2604437468,2968310.3559034,12.798209820982,0,0
613.01467754616,489.26289264438,7.6026402640264,1389894.9426017,8123.2604437468,2968310.3559034,12.802640264026,0,0
613.01467785201,489.06110359563,7.6070707070707,1389894.9426017,8123.2604437468,2968310.3559034,12.807070707071,0,0
613.01467815786,488.85931454688,7.611501150115,1389894.9426017,8123.2604437468,2968310.3559034,12.811501150115,0,0
613.0146784637,488.65752549813,7.6159315931593,1389894.9426017,8123.2604437468,2968310.3559034,12.815931593159,0,0
613.01467876955,488.45573644938,7.6203620362036,1389894.9426017,8123.2604437468,2968310.3559034,12.820362036204,0,0
613.0146790754,488.25394740063,7.6247924792479,1389894.9426017,8123.2604437468,2968310.3559034,12.824792479248,0,0
613.01467938125,488.05215835187,7.6292229222922,1389894.9426017,8123.2604437468,2968310.3559034,12.829222922292,0,0
613.0146796871,487.85036930312,7.6336533653365,1389894.9426017,8123.2604437468,2968310.3559034,12.833653365337,0,0
613.01467999295,487.64858025437,7.6380838083808,1389894.9426017,8123.2604437468,2968310.3559034,12.838083808381,0,0
613.0146802988,487.44679120562,7.6425142514251,1389894.9426017,8123.2604437468,2968310.3559034,12.842514251425,0,0
613.01468060464,487.24500215687,7.6469446944694,1389894.9426017,8123.2604437468,2968310.3559034,12.846944694469,0,0
613.01468091049,487.04321310812,7.6513751375138,1389894.9426017,8123.2604437468,2968310.3559034,12.851375137514,0,0
613.01468121634,486.84142405936,7.6558055805581,1389894.9426017,8123.2604437468,2968310.3559034,12.855805580558,0,0
613.01468152219,486.63963501061,7.6602360236024,1389894.9426017,8123.2604437468,2968310.3559034,12.860236023602,0,0
613.01468182804,486.43784596186,7.6646664666467,1389894.9426017,8123.2604437468,2968310.3559034,12.864666466647,0,0
613.01468213389,486.23605691311,7.669096909691,1389894.9426017,8123.2604437468,2968310.3559034,12.869096909691,0,0
613.01468243974,486.03426786436,7.6735273527353,1389894.9426017,8123.2604437468,2968310.3559034,12.873527352735,0,0
613.01468274558,485.83247881561,7.6779577957796,1389894.9426017,8123.2604437468,2968310.3559034,12.87795779578,0,0
613.01468305143,485.63068976685,7.6823882388239,1389894.9426017,8123.2604437468,2968310.3559034,12.882388238824,0,0
613.01468335728,485.4289007181,7.6868186818682,1389894.9426017,8123.2604437468,2968310.3559034,12.886818681868,0,0
613.01468366313,485.22711166935,7.6912491249125,1389894.9426017,8123.2604437468,2968310.3559034,12.891249124912,0,0
613.01468396898,485.0253226206,7.6956795679568,1389894.9426017,8123.2604437468,2968310.3559034,12.895679567957,0,0
613.01468427483,484.82353357185,7.7001100110011,1389894.9426017,8123.2604437468,2968310.3559034,12.900110011001,0,0
613.01468458067,484.6217445231,7.7045404540454,1389894.9426017,8123.2604437468,2968310.3559034,12.904540454045,0,0
613.01468488652,484.41995547434,7.7089708970897,1389894.9426017,8123.2604437468,2968310.3559034,12.90897089709,0,0
613.01468519237,484.21816642559,7.713401340134,1389894.9426017,8123.2604437468,2968310.3559034,12.913401340134,0,0
613.01468549822,484.01637737684,7.7178317831783,1389894.9426017,8123.2604437468,2968310.3559034,12.917831783178,0,0
613.01468580407,483.81458832809,7.7222622262226,1389894.9426017,8123.2604437468,2968310.3559034,12.922262226223,0,0
613.01468610992,483.61279927934,7.7266926692669,1389894.9426017,8123.2604437468,2968310.3559034,12.926692669267,0,0
613.01468641577,483.41101023059,7.7311231123112,1389894.9426017,8123.2604437468,2968310.3559034,12.931123112311,0,0
613.01468672161,483.20922118183,7.7355535553555,1389894.9426017,8123.2604437468,2968310.3559034,12.935553555356,0,0
613.01468702746,483.00743213308,7.7399839983998,1389894.9426017,8123.2604437468,2968310.3559034,12.9399839984,0,0
613.01468733331,482.80564308433,7.7444144414441,1389894.9426017,8123.2604437468,2968310.3559034,12.944414441444,0,0
613.01468763916,482.60385403558,7.7488448844884,1389894.9426017,8123.2604437468,2968310.3559034,12.948844884488,0,0
613.01468794501,482.40206498683,7.7532753275328,1389894.9426017,8123.2604437468,2968310.3559034,12.953275327533,0,0
613.01468825086,482.20027593808,7.7577057705771,1389894.9426017,8123.2604437468,2968310.3559034,12.957705770577,0,0
613.01468855671,481.99848688932,7.7621362136214,1389894.9426017,8123.2604437468,2968310.3559034,12.962136213621,0,0
613.01468886255,481.79669784057,7.7665666566657,1389894.9426017,8123.2604437468,2968310.3559034,12.966566656666,0,0
613.0146891684,481.59490879182,7.77099709971,1389894.9426017,8123.2604437468,2968310.3559034,12.97099709971,0,0
613.01468947425,481.39311974307,7.7754275427543,1389894.9426017,8123.2604437468,2968310.3559034,12.975427542754,0,0
613.0146897801,481.19133069432,7.7798579857986,1389894.9426017,8123.2604437468,2968310.3559034,12.979857985799,0,0
613.01469008595,480.98954164557,7.7842884288429,1389894.9426017,8123.2604437468,2968310.3559034,12.984288428843,0,0
613.0146903918,480.78775259682,7.7887188718872,1389894.9426017,8123.2604437468,2968310.3559034,12.988718871887,0,0
613.01469069764,480.58596354806,7.7931493149315,1389894.9426017,8123.2604437468,2968310.3559034,12.993149314931,0,0
613.01469100349,480.38417449931,7.7975797579758,1389894.9426017,8123.2604437468,2968310.3559034,12.997579757976,0,0
613.01469130934,480.18238545056,7.8020102010201,1389894.9426017,8123.2604437468,2968310.3559034,13.00201020102,0,0
613.01469161519,479.98059640181,7.8064406440644,1389894.9426017,8123.2604437468,2968310.3559034,13.006440644064,0,0
613.01469192104,479.77880735306,7.8108710871087,1389894.9426017,8123.2604437468,2968310.3559034,13.010871087109,0,0
613.01469222689,479.57701830431,7.815301530153,1389894.9426017,8123.2604437468,2968310.3559034,13.015301530153,0,0
613.01469253274,479.37522925555,7.8197319731973,1389894.9426017,8123.2604437468,2968310.3559034,13.019731973197,0,0
613.01469283858,479.1734402068,7.8241624162416,1389894.9426017,8123.2604437468,2968310.3559034,13.024162416242,0,0
613.01469314443,478.97165115805,7.8285928592859,1389894.9426017,8123.2604437468,2968310.3559034,13.028592859286,0,0
613.01469345028,478.7698621093,7.8330233023302,1389894.9426017,8123.2604437468,2968310.3559034,13.03302330233,0,0
613.01469375613,478.56807306055,7.8374537453745,1389894.9426017,8123.2604437468,2968310.3559034,13.037453745375,0,0
613.01469406198,478.3662840118,7.8418841884188,1389894.9426017,8123.2604437468,2968310.3559034,13.041884188419,0,0
613.01469436783,478.16449496304,7.8463146314631,1389894.9426017,8123.2604437468,2968310.3559034,13.046314631463,0,0
613.01469467368,477.96270591429,7.8507450745074,1389894.9426017,8123.2604437468,2968310.3559034,13.050745074507,0,0
613.01469497952,477.76091686554,7.8551755175518,1389894.9426017,8123.2604437468,2968310.3559034,13.055175517552,0,0
613.01469528537,477.55912781679,7.8596059605961,1389894.9426017,8123.2604437468,2968310.3559034,13.059605960596,0,0
613.01469559122,477.35733876804,7.8640364036404,1389894.9426017,8123.2604437468,2968310.3559034,13.06403640364,0,0
613.01469589707,477.15554971929,7.8684668466847,1389894.9426017,8123.2604437468,2968310.3559034,13.068466846685,0,0
613.01469620292,476.95376067053,7.872897289729,1389894.9426017,8123.2604437468,2968310.3559034,13.072897289729,0,0
613.01469650877,476.75197162178,7.8773277327733,1389894.9426017,8123.2604437468,2968310.3559034,13.077327732773,0,0
613.01469681461,476.55018257303,7.8817581758176,1389894.9426017,8123.2604437468,2968310.3559034,13.081758175818,0,0
613.01469712046,476.34839352428,7.8861886188619,1389894.9426017,8123.2604437468,2968310.3559034,13.086188618862,0,0
613.01469742631,476.14660447553,7.8906190619062,1389894.9426017,8123.2604437468,2968310.3559034,13.090619061906,0,0
613.01469773216,475.94481542678,7.8950495049505,1389894.9426017,8123.2604437468,2968310.3559034,13.09504950495,0,0
613.01469803801,475.74302637802,7.8994799479948,1389894.9426017,8123.2604437468,2968310.3559034,13.099479947995,0,0
613.01469834386,475.54123732927,7.9039103910391,1389894.9426017,8123.2604437468,2968310.3559034,13.103910391039,0,0
613.01469864971,475.33944828052,7.9083408340834,1389894.9426017,8123.2604437468,2968310.3559034,13.108340834083,0,0
613.01469895555,475.13765923177,7.9127712771277,1389894.9426017,8123.2604437468,2968310.3559034,13.112771277128,0,0
613.0146992614,474.93587018302,7.917201720172,1389894.9426017,8123.2604437468,2968310.3559034,13.117201720172,0,0
613.01469956725,474.73408113427,7.9216321632163,1389894.9426017,8123.2604437468,2968310.3559034,13.121632163216,0,0
613.0146998731,474.53229208551,7.9260626062606,1389894.9426017,8123.2604437468,2968310.3559034,13.126062606261,0,0
613.01470017895,474.33050303676,7.9304930493049,1389894.9426017,8123.2604437468,2968310.3559034,13.130493049305,0,0
613.0147004848,474.12871398801,7.9349234923492,1389894.9426017,8123.2604437468,2968310.3559034,13.134923492349,0,0
613.01470079065,473.92692493926,7.9393539353935,1389894.9426017,8123.2604437468,2968310.3559034,13.139353935394,0,0
613.01470109649,473.72513589051,7.9437843784378,1389894.9426017,8123.2604437468,2968310.3559034,13.143784378438,0,0
613.01470140234,473.52334684176,7.9482148214821,1389894.9426017,8123.2604437468,2968310.3559034,13.148214821482,0,0
613.01470170819,473.321557793,7.9526452645265,1389894.9426017,8123.2604437468,2968310.3559034,13.152645264526,0,0
613.01470201404,473.11976874425,7.9570757075708,1389894.9426017,8123.2604437468,2968310.3559034,13.157075707571,0,0
613.01470231989,472.9179796955,7.9615061506151,1389894.9426017,8123.2604437468,2968310.3559034,13.161506150615,0,0
613.01470262574,472.71619064675,7.9659365936594,1389894.9426017,8123.2604437468,2968310.3559034,13.165936593659,0,0
613.01470293158,472.514401598,7.9703670367037,1389894.9426017,8123.2604437468,2968310.3559034,13.170367036704,0,0
613.01470323743,472.31261254925,7.974797479748,1389894.9426017,8123.2604437468,2968310.3559034,13.174797479748,0,0
613.01470354328,472.11082350049,7.9792279227923,1389894.9426017,8123.2604437468,2968310.3559034,13.179227922792,0,0
613.01470384913,471.90903445174,7.9836583658366,1389894.9426017,8123.2604437468,2968310.3559034,13.183658365837,0,0
613.01470415498,471.70724540299,7.9880888088809,1389894.9426017,8123.2604437468,2968310.3559034,13.188088808881,0,0
613.01470446083,471.50545635424,7.9925192519252,1389894.9426017,8123.2604437468,2968310.3559034,13.192519251925,0,0
613.01470476668,471.30366730549,7.9969496949695,1389894.9426017,8123.2604437468,2968310.3559034,13.196949694969,0,0
613.01470507252,471.10187825674,8.0013801380138,1389894.9426017,8123.2604437468,2968310.3559034,13.201380138014,0,0
613.01470537837,470.90008920798,8.0058105810581,1389894.9426017,8123.2604437468,2968310.3559034,13.205810581058,0,0
613.01470568422,470.69830015923,8.0102410241024,1389894.9426017,8123.2604437468,2968310.3559034,13.210241024102,0,0
613.01470599007,470.49651111048,8.0146714671467,1389894.9426017,8123.2604437468,2968310.3559034,13.214671467147,0,0
613.01470629592,470.29472206173,8.019101910191,1389894.9426017,8123.2604437468,2968310.3559034,13.219101910191,0,0
613.01470660177,470.09293301298,8.0235323532353,1389894.9426017,8123.2604437468,2968310.3559034,13.223532353235,0,0
613.01470690762,469.89114396423,8.0279627962796,1389894.9426017,8123.2604437468,2968310.3559034,13.22796279628,0,0
613.01470721346,469.68935491547,8.0323932393239,1389894.9426017,8123.2604437468,2968310.3559034,13.232393239324,0,0
613.01470751931,469.48756586672,8.0368236823682,1389894.9426017,8123.2604437468,2968310.3559034,13.236823682368,0,0
613.01470782516,469.28577681797,8.0412541254125,1389894.9426017,8123.2604437468,2968310.3559034,13.241254125413,0,0
613.01470813101,469.08398776922,8.0456845684568,1389894.9426017,8123.2604437468,2968310.3559034,13.245684568457,0,0
613.01470843686,468.88219872047,8.0501150115011,1389894.9426017,8123.2604437468,2968310.3559034,13.250115011501,0,0
613.01470874271,468.68040967172,8.0545454545455,1389894.9426017,8123.2604437468,2968310.3559034,13.254545454545,0,0
613.01470904856,468.47862062296,8.0589758975898,1389894.9426017,8123.2604437468,2968310.3559034,13.25897589759,0,0
613.0147093544,468.27683157421,8.0634063406341,1389894.9426017,8123.2604437468,2968310.3559034,13.263406340634,0,0
613.01470966025,468.07504252546,8.0678367836784,1389894.9426017,8123.2604437468,2968310.3559034,13.267836783678,0,0
613.0147099661,467.87325347671,8.0722672267227,1389894.9426017,8123.2604437468,2968310.3559034,13.272267226723,0,0
613.01471027195,467.67146442796,8.076697669767,1389894.9426017,8123.2604437468,2968310.3559034,13.276697669767,0,0
613.0147105778,467.46967537921,8.0811281128113,1389894.9426017,8123.2604437468,2968310.3559034,13.281128112811,0,0
613.01471088365,467.26788633045,8.0855585558556,1389894.9426017,8123.2604437468,2968310.3559034,13.285558555856,0,0
613.01471118949,467.0660972817,8.0899889988999,1389894.9426017,8123.2604437468,2968310.3559034,13.2899889989,0,0
613.01471149534,466.86430823295,8.0944194419442,1389894.9426017,8123.2604437468,2968310.3559034,13.294419441944,0,0
613.01471180119,466.6625191842,8.0988498849885,1389894.9426017,8123.2604437468,2968310.3559034,13.298849884988,0,0
613.01471210704,466.46073013545,8.1032803280328,1389894.9426017,8123.2604437468,2968310.3559034,13.303280328033,0,0
613.01471241289,466.2589410867,8.1077107710771,1389894.9426017,8123.2604437468,2968310.3559034,13.307710771077,0,0
613.01471271874,466.05715203794,8.1121412141214,1389894.9426017,8123.2604437468,2968310.3559034,13.312141214121,0,0
613.01471302459,465.85536298919,8.1165716571657,1389894.9426017,8123.2604437468,2968310.3559034,13.316571657166,0,0
613.01471333043,465.65357394044,8.12100210021,1389894.9426017,8123.2604437468,2968310.3559034,13.32100210021,0,0
613.01471363628,465.45178489169,8.1254325432543,1389894.9426017,8123.2604437468,2968310.3559034,13.325432543254,0,0
613.01471394213,465.24999584294,8.1298629862986,1389894.9426017,8123.2604437468,2968310.3559034,13.329862986299,0,0
613.01471424798,465.04820679419,8.1342934293429,1389894.9426017,8123.2604437468,2968310.3559034,13.334293429343,0,0
613.01471455383,464.84641774543,8.1387238723872,1389894.9426017,8123.2604437468,2968310.3559034,13.338723872387,0,0
613.01471485968,464.64462869668,8.1431543154315,1389894.9426017,8123.2604437468,2968310.3559034,13.343154315432,0,0
613.01471516553,464.44283964793,8.1475847584758,1389894.9426017,8123.2604437468,2968310.3559034,13.347584758476,0,0
613.01471547137,464.24105059918,8.1520152015202,1389894.9426017,8123.2604437468,2968310.3559034,13.35201520152,0,0
613.01471577722,464.03926155043,8.1564456445645,1389894.9426017,8123.2604437468,2968310.3559034,13.356445644564,0,0
613.01471608307,463.83747250168,8.1608760876088,1389894.9426017,8123.2604437468,2968310.3559034,13.360876087609,0,0
613.01471638892,463.63568345292,8.1653065306531,1389894.9426017,8123.2604437468,2968310.3559034,13.365306530653,0,0
613.01471669477,463.43389440417,8.1697369736974,1389894.9426017,8123.2604437468,2968310.3559034,13.369736973697,0,0
613.01471700062,463.23210535542,8.1741674167417,1389894.9426017,8123.2604437468,2968310.3559034,13.374167416742,0,0
613.01471730646,463.03031630667,8.178597859786,1389894.9426017,8123.2604437468,2968310.3559034,13.378597859786,0,0
613.01471761231,462.82852725792,8.1830283028303,1389894.9426017,8123.2604437468,2968310.3559034,13.38302830283,0,0
613.01471791816,462.62673820917,8.1874587458746,1389894.9426017,8123.2604437468,2968310.3559034,13.387458745875,0,0
613.01471822401,462.42494916041,8.1918891889189,1389894.9426017,8123.2604437468,2968310.3559034,13.391889188919,0,0
613.01471852986,462.22316011166,8.1963196319632,1389894.9426017,8123.2604437468,2968310.3559034,13.396319631963,0,0
613.01471883571,462.02137106291,8.2007500750075,1389894.9426017,8123.2604437468,2968310.3559034,13.400750075008,0,0
613.01471914156,461.81958201416,8.2051805180518,1389894.9426017,8123.2604437468,2968310.3559034,13.405180518052,0,0
613.0147194474,461.61779296541,8.2096109610961,1389894.9426017,8123.2604437468,2968310.3559034,13.409610961096,0,0
613.01471975325,461.41600391666,8.2140414041404,1389894.9426017,8123.2604437468,2968310.3559034,13.41404140414,0,0
613.0147200591,461.21421486791,8.2184718471847,1389894.9426017,8123.2604437468,2968310.3559034,13.418471847185,0,0
613.01472036495,461.01242581915,8.222902290229,1389894.9426017,8123.2604437468,2968310.3559034,13.422902290229,0,0
613.0147206708,460.8106367704,8.2273327332733,1389894.9426017,8123.2604437468,2968310.3559034,13.427332733273,0,0
613.01472097665,460.60884772165,8.2317631763176,1389894.9426017,8123.2604437468,2968310.3559034,13.431763176318,0,0
613.0147212825,460.4070586729,8.2361936193619,1389894.9426017,8123.2604437468,2968310.3559034,13.436193619362,0,0
613.01472158834,460.20526962415,8.2406240624062,1389894.9426017,8123.2604437468,2968310.3559034,13.440624062406,0,0
613.01472189419,460.0034805754,8.2450545054505,1389894.9426017,8123.2604437468,2968310.3559034,13.445054505451,0,0
613.01472220004,459.80169152664,8.2494849484948,1389894.9426017,8123.2604437468,2968310.3559034,13.449484948495,0,0
613.01472250589,459.59990247789,8.2539153915392,1389894.9426017,8123.2604437468,2968310.3559034,13.453915391539,0,0
613.01472281174,459.39811342914,8.2583458345835,1389894.9426017,8123.2604437468,2968310.3559034,13.458345834583,0,0
613.01472311759,459.19632438039,8.2627762776278,1389894.9426017,8123.2604437468,2968310.3559034,13.462776277628,0,0
613.01472342343,458.99453533164,8.2672067206721,1389894.9426017,8123.2604437468,2968310.3559034,13.467206720672,0,0
613.01472372928,458.79274628289,8.2716371637164,1389894.9426017,8123.2604437468,2968310.3559034,13.471637163716,0,0
613.01472403513,458.59095723413,8.2760676067607,1389894.9426017,8123.2604437468,2968310.3559034,13.476067606761,0,0
613.01472434098,458.38916818538,8.280498049805,1389894.9426017,8123.2604437468,2968310.3559034,13.480498049805,0,0
613.01472464683,458.18737913663,8.2849284928493,1389894.9426017,8123.2604437468,2968310.3559034,13.484928492849,0,0
613.01472495268,457.98559008788,8.2893589358936,1389894.9426017,8123.2604437468,2968310.3559034,13.489358935894,0,0
613.01472525853,457.78380103913,8.2937893789379,1389894.9426017,8123.2604437468,2968310.3559034,13.493789378938,0,0
613.01472556437,457.58201199038,8.2982198219822,1389894.9426017,8123.2604437468,2968310.3559034,13.498219821982,0,0
613.01472587022,457.38022294162,8.3026502650265,1389894.9426017,8123.2604437468,2968310.3559034,13.502650265027,0,0
613.01472617607,457.17843389287,8.3070807080708,1389894.9426017,8123.2604437468,2968310.3559034,13.507080708071,0,0
613.01472648192,456.97664484412,8.3115111511151,1389894.9426017,8123.2604437468,2968310.3559034,13.511511151115,0,0
613.01472678777,456.77485579537,8.3159415941594,1389894.9426017,8123.2604437468,2968310.3559034,13.515941594159,0,0
613.01472709362,456.57306674662,8.3203720372037,1389894.9426017,8123.2604437468,2968310.3559034,13.520372037204,0,0
613.01472739947,456.37127769787,8.324802480248,1389894.9426017,8123.2604437468,2968310.3559034,13.524802480248,0,0
613.01472770531,456.16948864911,8.3292329232923,1389894.9426017,8123.2604437468,2968310.3559034,13.529232923292,0,0
613.01472801116,455.96769960036,8.3336633663366,1389894.9426017,8123.2604437468,2968310.3559034,13.533663366337,0,0
613.01472831701,455.76591055161,8.3380938093809,1389894.9426017,8123.2604437468,2968310.3559034,13.538093809381,0,0
613.01472862345,455.56412149827,8.3425242524252,1388198.747245,-6913.2735181879,2940059.2076959,13.542524252425,0,0
613.01472893026,455.36233244201,8.3469546954695,1388198.747245,-6913.2735181879,2940059.2076959,13.54695469547,0,0
613.01472923722,455.16054338682,8.3513851385139,1388866.4176494,6808.2019712417,2921923.8367522,13.551385138514,0,0
613.01472954498,454.95875433728,8.3558155815582,1388866.4176494,6808.2019712417,2921923.8367522,13.555815581558,0,0
613.01472985273,454.75696528775,8.3602460246025,1388866.4176494,6808.2019712417,2921923.8367522,13.560246024602,0,0
613.01473016048,454.55517623821,8.3646764676468,1388866.4176494,6808.2019712417,2921923.8367522,13.564676467647,0,0
613.01473046823,454.35338718867,8.3691069106911,1388866.4176494,6808.2019712417,2921923.8367522,13.569106910691,0,0
613.01473077599,454.15159813914,8.3735373537354,1388866.4176494,6808.2019712417,2921923.8367522,13.573537353735,0,0
613.01473108374,453.9498090896,8.3779677967797,1388866.4176494,6808.2019712417,2921923.8367522,13.57796779678,0,0
613.01473139149,453.74802004006,8.382398239824,1388866.4176494,6808.2019712417,2921923.8367522,13.582398239824,0,0
613.01473169925,453.54623099053,8.3868286828683,1388866.4176494,6808.2019712417,2921923.8367522,13.586828682868,0,0
613.014732007,453.34444194099,8.3912591259126,1388866.4176494,6808.2019712417,2921923.8367522,13.591259125913,0,0
613.01473231475,453.14265289145,8.3956895689569,1388866.4176494,6808.2019712417,2921923.8367522,13.595689568957,0,0
613.0147326225,452.94086384192,8.4001200120012,1388866.4176494,6808.2019712417,2921923.8367522,13.600120012001,0,0
613.01473293026,452.73907479238,8.4045504550455,1388866.4176494,6808.2019712417,2921923.8367522,13.604550455046,0,0
613.01473323801,452.53728574284,8.4089808980898,1388866.4176494,6808.2019712417,2921923.8367522,13.60898089809,0,0
613.01473354576,452.33549669331,8.4134113411341,1388866.4176494,6808.2019712417,2921923.8367522,13.613411341134,0,0
613.01473385352,452.13370764377,8.4178417841784,1388866.4176494,6808.2019712417,2921923.8367522,13.617841784178,0,0
613.01473416127,451.93191859423,8.4222722272227,1388866.4176494,6808.2019712417,2921923.8367522,13.622272227223,0,0
613.01473446902,451.7301295447,8.426702670267,1388866.4176494,6808.2019712417,2921923.8367522,13.626702670267,0,0
613.01473477677,451.52834049516,8.4311331133113,1388866.4176494,6808.2019712417,2921923.8367522,13.631133113311,0,0
613.01473508453,451.32655144563,8.4355635563556,1388866.4176494,6808.2019712417,2921923.8367522,13.635563556356,0,0
613.01473539228,451.12476239609,8.4399939993999,1388866.4176494,6808.2019712417,2921923.8367522,13.6399939994,0,0
613.01473570003,450.92297334655,8.4444244424442,1388866.4176494,6808.2019712417,2921923.8367522,13.644424442444,0,0
613.01473600779,450.72118429702,8.4488548854885,1388866.4176494,6808.2019712417,2921923.8367522,13.648854885489,0,0
613.01473631554,450.51939524748,8.4532853285329,1388866.4176494,6808.2019712417,2921923.8367522,13.653285328533,0,0
613.01473662329,450.31760619794,8.4577157715772,1388866.4176494,6808.2019712417,2921923.8367522,13.657715771577,0,0
613.01473693104,450.11581714841,8.4621462146215,1388866.4176494,6808.2019712417,2921923.8367522,13.662146214621,0,0
613.0147372388,449.91402809887,8.4665766576658,1388866.4176494,6808.2019712417,2921923.8367522,13.666576657666,0,0
613.01473754655,449.71223904933,8.4710071007101,1388866.4176494,6808.2019712417,2921923.8367522,13.67100710071,0,0
613.0147378543,449.5104499998,8.4754375437544,1388866.4176494,6808.2019712417,2921923.8367522,13.675437543754,0,0
613.01473816205,449.30866095026,8.4798679867987,1388866.4176494,6808.2019712417,2921923.8367522,13.679867986799,0,0
613.01473846981,449.10687190072,8.484298429843,1388866.4176494,6808.2019712417,2921923.8367522,13.684298429843,0,0
613.01473877756,448.90508285119,8.4887288728873,1388866.4176494,6808.2019712417,2921923.8367522,13.688728872887,0,0
613.01473908538,448.70329380166,8.4931593159316,1389425.9820364,-7067.4731895835,2915223.9916294,13.693159315932,0,0
613.01473939353,448.50150475221,8.4975897589759,1389425.9820364,-7067.4731895835,2915223.9916294,13.697589758976,0,0
613.01473970169,448.29971570275,8.5020202020202,1389425.9820364,-7067.4731895835,2915223.9916294,13.70202020202,0,0
613.01474000985,448.09792665329,8.5064506450645,1389425.9820364,-7067.4731895835,2915223.9916294,13.706450645065,0,0
613.014740318,447.89613760383,8.5108810881088,1389425.9820364,-7067.4731895835,2915223.9916294,13.710881088109,0,0
613.01474062616,447.69434855437,8.5153115311531,1389425.9820364,-7067.4731895835,2915223.9916294,13.715311531153,0,0
613.01474093432,447.49255950492,8.5197419741974,1389425.9820364,-7067.4731895835,2915223.9916294,13.719741974197,0,0
613.01474124248,447.29077045546,8.5241724172417,1389425.9820364,-7067.4731895835,2915223.9916294,13.724172417242,0,0
613.01474155063,447.088981406,8.528602860286,1389425.9820364,-7067.4731895835,2915223.9916294,13.728602860286,0,0
613.01474185879,446.88719235654,8.5330333033303,1389425.9820364,-7067.4731895835,2915223.9916294,13.73303330333,0,0
613.01474216695,446.68540330709,8.5374637463746,1389425.9820364,-7067.4731895835,2915223.9916294,13.737463746375,0,0
613.0147424751,446.48361425763,8.5418941894189,1389425.9820364,-7067.4731895835,2915223.9916294,13.741894189419,0,0
613.01474278326,446.28182520817,8.5463246324632,1389425.9820364,-7067.4731895835,2915223.9916294,13.746324632463,0,0
613.01474309142,446.08003615871,8.5507550755075,1389425.9820364,-7067.4731895835,2915223.9916294,13.750755075508,0,0
613.01474339958,445.87824710926,8.5551855185519,1389425.9820364,-7067.4731895835,2915223.9916294,13.755185518552,0,0
613.01474370773,445.6764580598,8.5596159615962,1389425.9820364,-7067.4731895835,2915223.9916294,13.759615961596,0,0
613.01474401589,445.47466901034,8.5640464046405,1389425.9820364,-7067.4731895835,2915223.9916294,13.76404640464,0,0
613.01474432405,445.27287996088,8.5684768476848,1389425.9820364,-7067.4731895835,2915223.9916294,13.768476847685,0,0
613.01474463221,445.07109091143,8.5729072907291,1389425.9820364,-7067.4731895835,2915223.9916294,13.772907290729,0,0
613.01474494036,444.86930186197,8.5773377337734,1389425.9820364,-7067.4731895835,2915223.9916294,13.777337733773,0,0
613.01474524852,444.66751281251,8.5817681768177,1389425.9820364,-7067.4731895835,2915223.9916294,13.781768176818,0,0
613.01474555668,444.46572376305,8.586198619862,1389425.9820364,-7067.4731895835,2915223.9916294,13.786198619862,0,0
613.01474586483,444.2639347136,8.5906290629063,1389425.9820364,-7067.4731895835,2915223.9916294,13.790629062906,0,0
613.01474617299,444.06214566414,8.5950595059506,1389425.9820364,-7067.4731895835,2915223.9916294,13.795059505951,0,0
613.01474648115,443.86035661468,8.5994899489949,1389425.9820364,-7067.4731895835,2915223.9916294,13.799489948995,0,0
613.01474678931,443.65856756522,8.6039203920392,1389425.9820364,-7067.4731895835,2915223.9916294,13.803920392039,0,0
613.01474709746,443.45677851577,8.6083508350835,1389425.9820364,-7067.4731895835,2915223.9916294,13.808350835084,0,0
613.01474740562,443.25498946631,8.6127812781278,1389425.9820364,-7067.4731895835,2915223.9916294,13.812781278128,0,0
613.01474771378,443.05320041685,8.6172117211721,1389425.9820364,-7067.4731895835,2915223.9916294,13.817211721172,0,0
613.01474802193,442.85141136739,8.6216421642164,1389425.9820364,-7067.4731895835,2915223.9916294,13.821642164216,0,0
613.01474833009,442.64962231793,8.6260726072607,1389425.9820364,-7067.4731895835,2915223.9916294,13.826072607261,0,0
613.01474863825,442.44783326848,8.630503050305,1389425.9820364,-7067.4731895835,2915223.9916294,13.830503050305,0,0
613.01474894641,442.24604421902,8.6349334933493,1389425.9820364,-7067.4731895835,2915223.9916294,13.834933493349,0,0
613.01474925456,442.04425516956,8.6393639363936,1389425.9820364,-7067.4731895835,2915223.9916294,13.839363936394,0,0
613.01474956272,441.8424661201,8.6437943794379,1389425.9820364,-7067.4731895835,2915223.9916294,13.843794379438,0,0
613.01474987088,441.64067707065,8.6482248224822,1389425.9820364,-7067.4731895835,2915223.9916294,13.848224822482,0,0
613.01475017904,441.43888802119,8.6526552655266,1389425.9820364,-7067.4731895835,2915223.9916294,13.852655265527,0,0
613.01475048719,441.23709897173,8.6570857085709,1389425.9820364,-7067.4731895835,2915223.9916294,13.857085708571,0,0
613.01475079535,441.03530992227,8.6615161516152,1389425.9820364,-7067.4731895835,2915223.9916294,13.861516151615,0,0
613.01475110351,440.83352087282,8.6659465946595,1389425.9820364,-7067.4731895835,2915223.9916294,13.865946594659,0,0
613.01475141166,440.63173182336,8.6703770377038,1389425.9820364,-7067.4731895835,2915223.9916294,13.870377037704,0,0
613.01475171982,440.4299427739,8.6748074807481,1389425.9820364,-7067.4731895835,2915223.9916294,13.874807480748,0,0
613.01475202798,440.22815372444,8.6792379237924,1389425.9820364,-7067.4731895835,2915223.9916294,13.879237923792,0,0
613.01475233614,440.02636467499,8.6836683668367,1389425.9820364,-7067.4731895835,2915223.9916294,13.883668366837,0,0
613.01475264429,439.82457562553,8.688098809881,1389425.9820364,-7067.4731895835,2915223.9916294,13.888098809881,0,0
613.01475295245,439.62278657607,8.6925292529253,1389425.9820364,-7067.4731895835,2915223.9916294,13.892529252925,0,0
613.01475326061,439.42099752661,8.6969596959696,1389425.9820364,-7067.4731895835,2915223.9916294,13.89695969597,0,0
613.01475356876,439.21920847716,8.7013901390139,1389425.9820364,-7067.4731895835,2915223.9916294,13.901390139014,0,0
613.01475387692,439.0174194277,8.7058205820582,1389425.9820364,-7067.4731895835,2915223.9916294,13.905820582058,0,0
613.01475418508,438.81563037824,8.7102510251025,1389425.9820364,-7067.4731895835,2915223.9916294,13.910251025103,0,0
613.01475449324,438.61384132878,8.7146814681468,1389425.9820364,-7067.4731895835,2915223.9916294,13.914681468147,0,0
613.01475480139,438.41205227933,8.7191119111911,1389425.9820364,-7067.4731895835,2915223.9916294,13.919111911191,0,0
613.01475510955,438.21026322987,8.7235423542354,1389425.9820364,-7067.4731895835,2915223.9916294,13.923542354235,0,0
613.01475541771,438.00847418041,8.7279727972797,1389425.9820364,-7067.4731895835,2915223.9916294,13.92797279728,0,0
613.01475572587,437.80668513095,8.732403240324,1389425.9820364,-7067.4731895835,2915223.9916294,13.932403240324,0,0
613.01475603402,437.60489608149,8.7368336833683,1389425.9820364,-7067.4731895835,2915223.9916294,13.936833683368,0,0
613.01475634218,437.40310703204,8.7412641264126,1389425.9820364,-7067.4731895835,2915223.9916294,13.941264126413,0,0
613.01475665034,437.20131798258,8.7456945694569,1389425.9820364,-7067.4731895835,2915223.9916294,13.945694569457,0,0
613.01475695849,436.99952893312,8.7501250125013,1389425.9820364,-7067.4731895835,2915223.9916294,13.950125012501,0,0
613.01475726665,436.79773988366,8.7545554555456,1389425.9820364,-7067.4731895835,2915223.9916294,13.954555455546,0,0
613.01475757481,436.59595083421,8.7589858985899,1389425.9820364,-7067.4731895835,2915223.9916294,13.95898589859,0,0
613.01475788297,436.39416178475,8.7634163416342,1389425.9820364,-7067.4731895835,2915223.9916294,13.963416341634,0,0
613.01475819112,436.19237273529,8.7678467846785,1389425.9820364,-7067.4731895835,2915223.9916294,13.967846784678,0,0
613.01475849928,435.99058368583,8.7722772277228,1389425.9820364,-7067.4731895835,2915223.9916294,13.972277227723,0,0
613.01475880744,435.78879463638,8.7767076707671,1389425.9820364,-7067.4731895835,2915223.9916294,13.976707670767,0,0
613.01475911559,435.58700558692,8.7811381138114,1389425.9820364,-7067.4731895835,2915223.9916294,13.981138113811,0,0
613.01475942375,435.38521653746,8.7855685568557,1389425.9820364,-7067.4731895835,2915223.9916294,13.985568556856,0,0
613.01475973191,435.183427488,8.7899989999,1389425.9820364,-7067.4731895835,2915223.9916294,13.9899989999,0,0
613.01476004007,434.98163843855,8.7944294429443,1389425.9820364,-7067.4731895835,2915223.9916294,13.994429442944,0,0
613.01476034822,434.77984938909,8.7988598859886,1389425.9820364,-7067.4731895835,2915223.9916294,13.998859885989,0,0
613.01476065638,434.57806033963,8.8032903290329,1389425.9820364,-7067.4731895835,2915223.9916294,14.003290329033,0,0
613.01476096454,434.37627129017,8.8077207720772,1389425.9820364,-7067.4731895835,2915223.9916294,14.007720772077,0,0
613.0147612727,434.17448224072,8.8121512151215,1389425.9820364,-7067.4731895835,2915223.9916294,14.012151215122,0,0
613.01476158085,433.97269319126,8.8165816581658,1389425.9820364,-7067.4731895835,2915223.9916294,14.016581658166,0,0
613.01476188901,433.7709041418,8.8210121012101,1389425.9820364,-7067.4731895835,2915223.9916294,14.02101210121,0,0
613.01476219717,433.56911509234,8.8254425442544,1389425.9820364,-7067.4731895835,2915223.9916294,14.025442544254,0,0
613.01476250532,433.36732604289,8.8298729872987,1389425.9820364,-7067.4731895835,2915223.9916294,14.029872987299,0,0
613.01476281348,433.16553699343,8.834303430343,1389425.9820364,-7067.4731895835,2915223.9916294,14.034303430343,0,0
613.01476312164,432.96374794397,8.8387338733873,1389425.9820364,-7067.4731895835,2915223.9916294,14.038733873387,0,0
613.0147634298,432.76195889451,8.8431643164316,1389425.9820364,-7067.4731895835,2915223.9916294,14.043164316432,0,0
613.01476373795,432.56016984505,8.8475947594759,1389425.9820364,-7067.4731895835,2915223.9916294,14.047594759476,0,0
613.01476404611,432.3583807956,8.8520252025203,1389425.9820364,-7067.4731895835,2915223.9916294,14.05202520252,0,0
613.01476435427,432.15659174614,8.8564556455646,1389425.9820364,-7067.4731895835,2915223.9916294,14.056455645565,0,0
613.01476466242,431.95480269668,8.8608860886089,1389425.9820364,-7067.4731895835,2915223.9916294,14.060886088609,0,0
613.01476497058,431.75301364722,8.8653165316532,1389425.9820364,-7067.4731895835,2915223.9916294,14.065316531653,0,0
613.01476527874,431.55122459777,8.8697469746975,1389425.9820364,-7067.4731895835,2915223.9916294,14.069746974697,0,0
613.0147655869,431.34943554831,8.8741774177418,1389425.9820364,-7067.4731895835,2915223.9916294,14.074177417742,0,0
613.01476589505,431.14764649885,8.8786078607861,1389425.9820364,-7067.4731895835,2915223.9916294,14.078607860786,0,0
613.01476620321,430.94585744939,8.8830383038304,1389425.9820364,-7067.4731895835,2915223.9916294,14.08303830383,0,0
613.01476651137,430.74406839994,8.8874687468747,1389425.9820364,-7067.4731895835,2915223.9916294,14.087468746875,0,0
613.01476681953,430.54227935048,8.891899189919,1389425.9820364,-7067.4731895835,2915223.9916294,14.091899189919,0,0
613.01476712768,430.34049030102,8.8963296329633,1389425.9820364,-7067.4731895835,2915223.9916294,14.096329632963,0,0
613.01476743584,430.13870125156,8.9007600760076,1389425.9820364,-7067.4731895835,2915223.9916294,14.100760076008,0,0
613.014767744,429.93691220211,8.9051905190519,1389425.9820364,-7067.4731895835,2915223.9916294,14.105190519052,0,0
613.01476805215,429.73512315265,8.9096209620962,1389425.9820364,-7067.4731895835,2915223.9916294,14.109620962096,0,0
613.01476836031,429.53333410319,8.9140514051405,1389425.9820364,-7067.4731895835,2915223.9916294,14.114051405141,0,0
613.01476866847,429.33154505373,8.9184818481848,1389425.9820364,-7067.4731895835,2915223.9916294,14.118481848185,0,0
613.01476897663,429.12975600428,8.9229122912291,1389425.9820364,-7067.4731895835,2915223.9916294,14.122912291229,0,0
613.01476928478,428.92796695482,8.9273427342734,1389425.9820364,-7067.4731895835,2915223.9916294,14.127342734273,0,0
613.01476959294,428.72617790536,8.9317731773177,1389425.9820364,-7067.4731895835,2915223.9916294,14.131773177318,0,0
613.0147699011,428.5243888559,8.936203620362,1389425.9820364,-7067.4731895835,2915223.9916294,14.136203620362,0,0
613.01477020925,428.32259980645,8.9406340634063,1389425.9820364,-7067.4731895835,2915223.9916294,14.140634063406,0,0
613.01477051741,428.12081075699,8.9450645064506,1389425.9820364,-7067.4731895835,2915223.9916294,14.145064506451,0,0
613.01477082557,427.91902170753,8.9494949494949,1389425.9820364,-7067.4731895835,2915223.9916294,14.149494949495,0,0
613.01477113373,427.71723265807,8.9539253925393,1389425.9820364,-7067.4731895835,2915223.9916294,14.153925392539,0,0
613.01477144188,427.51544360861,8.9583558355836,1389425.9820364,-7067.4731895835,2915223.9916294,14.158355835584,0,0
613.01477175004,427.31365455916,8.9627862786279,1389425.9820364,-7067.4731895835,2915223.9916294,14.162786278628,0,0
613.0147720582,427.1118655097,8.9672167216722,1389425.9820364,-7067.4731895835,2915223.9916294,14.167216721672,0,0
613.01477236636,426.91007646024,8.9716471647165,1389425.9820364,-7067.4731895835,2915223.9916294,14.171647164716,0,0
613.01477267451,426.70828741078,8.9760776077608,1389425.9820364,-7067.4731895835,2915223.9916294,14.176077607761,0,0
613.01477298267,426.50649836133,8.9805080508051,1389425.9820364,-7067.4731895835,2915223.9916294,14.180508050805,0,0
613.01477329083,426.30470931187,8.9849384938494,1389425.9820364,-7067.4731895835,2915223.9916294,14.184938493849,0,0
613.01477359898,426.10292026241,8.9893689368937,1389425.9820364,-7067.4731895835,2915223.9916294,14.189368936894,0,0
613.01477390714,425.90113121295,8.993799379938,1389425.9820364,-7067.4731895835,2915223.9916294,14.193799379938,0,0
613.0147742153,425.6993421635,8.9982298229823,1389425.9820364,-7067.4731895835,2915223.9916294,14.198229822982,0,0
613.01477452346,425.49755311404,9.0026602660266,1389425.9820364,-7067.4731895835,2915223.9916294,14.202660266027,0,0
613.01477483161,425.29576406458,9.0070907090709,1389425.9820364,-7067.4731895835,2915223.9916294,14.207090709071,0,0
613.01477513977,425.09397501512,9.0115211521152,1389425.9820364,-7067.4731895835,2915223.9916294,14.211521152115,0,0
613.01477544793,424.89218596567,9.0159515951595,1389425.9820364,-7067.4731895835,2915223.9916294,14.21595159516,0,0
613.01477575608,424.69039691621,9.0203820382038,1389425.9820364,-7067.4731895835,2915223.9916294,14.220382038204,0,0
613.01477606424,424.48860786675,9.0248124812481,1389425.9820364,-7067.4731895835,2915223.9916294,14.224812481248,0,0
613.0147763724,424.28681881729,9.0292429242924,1389425.9820364,-7067.4731895835,2915223.9916294,14.229242924292,0,0
613.01477668056,424.08502976784,9.0336733673367,1389425.9820364,-7067.4731895835,2915223.9916294,14.233673367337,0,0
613.01477698871,423.88324071838,9.038103810381,1389425.9820364,-7067.4731895835,2915223.9916294,14.238103810381,0,0
613.01477729687,423.68145166892,9.0425342534253,1389425.9820364,-7067.4731895835,2915223.9916294,14.242534253425,0,0
613.01477760503,423.47966261946,9.0469646964696,1389425.9820364,-7067.4731895835,2915223.9916294,14.24696469647,0,0
613.01477791319,423.27787357001,9.051395139514,1389425.9820364,-7067.4731895835,2915223.9916294,14.251395139514,0,0
613.01477822134,423.07608452055,9.0558255825583,1389425.9820364,-7067.4731895835,2915223.9916294,14.255825582558,0,0
613.0147785295,422.87429547109,9.0602560256026,1389425.9820364,-7067.4731895835,2915223.9916294,14.260256025603,0,0
613.01477883766,422.67250642163,9.0646864686469,1389425.9820364,-7067.4731895835,2915223.9916294,14.264686468647,0,0
613.01477914581,422.47071737218,9.0691169116912,1389425.9820364,-7067.4731895835,2915223.9916294,14.269116911691,0,0
613.01477945397,422.26892832272,9.0735473547355,1389425.9820364,-7067.4731895835,2915223.9916294,14.273547354735,0,0
613.01477976213,422.06713927326,9.0779777977798,1389425.9820364,-7067.4731895835,2915223.9916294,14.27797779778,0,0
613.01478007029,421.8653502238,9.0824082408241,1389425.9820364,-7067.4731895835,2915223.9916294,14.282408240824,0,0
613.01478037844,421.66356117434,9.0868386838684,1389425.9820364,-7067.4731895835,2915223.9916294,14.286838683868,0,0
613.0147806866,421.46177212489,9.0912691269127,1389425.9820364,-7067.4731895835,2915223.9916294,14.291269126913,0,0
613.01478099476,421.25998307543,9.095699569957,1389425.9820364,-7067.4731895835,2915223.9916294,14.295699569957,0,0
613.01478130291,421.05819402597,9.1001300130013,1389425.9820364,-7067.4731895835,2915223.9916294,14.300130013001,0,0
613.01478161107,420.85640497651,9.1045604560456,1389425.9820364,-7067.4731895835,2915223.9916294,14.304560456046,0,0
613.01478191923,420.65461592706,9.1089908990899,1389425.9820364,-7067.4731895835,2915223.9916294,14.30899089909,0,0
613.01478222739,420.4528268776,9.1134213421342,1389425.9820364,-7067.4731895835,2915223.9916294,14.313421342134,0,0
613.01478253554,420.25103782814,9.1178517851785,1389425.9820364,-7067.4731895835,2915223.9916294,14.317851785179,0,0
613.0147828437,420.04924877868,9.1222822282228,1389425.9820364,-7067.4731895835,2915223.9916294,14.322282228223,0,0
613.01478315186,419.84745972923,9.1267126712671,1389425.9820364,-7067.4731895835,2915223.9916294,14.326712671267,0,0
613.01478346002,419.64567067977,9.1311431143114,1389425.9820364,-7067.4731895835,2915223.9916294,14.331143114311,0,0
613.01478376817,419.44388163031,9.1355735573557,1389425.9820364,-7067.4731895835,2915223.9916294,14.335573557356,0,0
613.01478407633,419.24209258085,9.1400040004,1389425.9820364,-7067.4731895835,2915223.9916294,14.3400040004,0,0
613.01478438449,419.0403035314,9.1444344434443,1389425.9820364,-7067.4731895835,2915223.9916294,14.344434443444,0,0
613.01478469264,418.83851448194,9.1488648864886,1389425.9820364,-7067.4731895835,2915223.9916294,14.348864886489,0,0
613.0147850008,418.63672543248,9.153295329533,1389425.9820364,-7067.4731895835,2915223.9916294,14.353295329533,0,0
613.01478530896,418.43493638302,9.1577257725773,1389425.9820364,-7067.4731895835,2915223.9916294,14.357725772577,0,0
613.01478561712,418.23314733357,9.1621562156216,1389425.9820364,-7067.4731895835,2915223.9916294,14.362156215622,0,0
613.01478592527,418.03135828411,9.1665866586659,1389425.9820364,-7067.4731895835,2915223.9916294,14.366586658666,0,0
613.01478623343,417.82956923465,9.1710171017102,1389425.9820364,-7067.4731895835,2915223.9916294,14.37101710171,0,0
613.01478654159,417.62778018519,9.1754475447545,1389425.9820364,-7067.4731895835,2915223.9916294,14.375447544754,0,0
613.01478684974,417.42599113574,9.1798779877988,1389425.9820364,-7067.4731895835,2915223.9916294,14.379877987799,0,0
613.0147871579,417.22420208628,9.1843084308431,1389425.9820364,-7067.4731895835,2915223.9916294,14.384308430843,0,0
613.01478746606,417.02241303682,9.1887388738874,1389425.9820364,-7067.4731895835,2915223.9916294,14.388738873887,0,0
613.01478777422,416.82062398736,9.1931693169317,1389425.9820364,-7067.4731895835,2915223.9916294,14.393169316932,0,0
613.01478808237,416.6188349379,9.197599759976,1389425.9820364,-7067.4731895835,2915223.9916294,14.397599759976,0,0
613.01478839053,416.41704588845,9.2020302030203,1389425.9820364,-7067.4731895835,2915223.9916294,14.40203020302,0,0
613.01478869869,416.21525683899,9.2064606460646,1389425.9820364,-7067.4731895835,2915223.9916294,14.406460646065,0,0
613.01478900685,416.01346778953,9.2108910891089,1389425.9820364,-7067.4731895835,2915223.9916294,14.410891089109,0,0
613.014789315,415.81167874007,9.2153215321532,1389425.9820364,-7067.4731895835,2915223.9916294,14.415321532153,0,0
613.01478962316,415.60988969062,9.2197519751975,1389425.9820364,-7067.4731895835,2915223.9916294,14.419751975198,0,0
613.01478993132,415.40810064116,9.2241824182418,1389425.9820364,-7067.4731895835,2915223.9916294,14.424182418242,0,0
613.01479023947,415.2063115917,9.2286128612861,1389425.9820364,-7067.4731895835,2915223.9916294,14.428612861286,0,0
613.01479054763,415.00452254224,9.2330433043304,1389425.9820364,-7067.4731895835,2915223.9916294,14.43304330433,0,0
613.01479085579,414.80273349279,9.2374737473747,1389425.9820364,-7067.4731895835,2915223.9916294,14.437473747375,0,0
613.01479116395,414.60094444333,9.241904190419,1389425.9820364,-7067.4731895835,2915223.9916294,14.441904190419,0,0
613.0147914721,414.39915539387,9.2463346334633,1389425.9820364,-7067.4731895835,2915223.9916294,14.446334633463,0,0
613.01479178026,414.19736634441,9.2507650765077,1389425.9820364,-7067.4731895835,2915223.9916294,14.450765076508,0,0
613.01479208842,413.99557729496,9.255195519552,1389425.9820364,-7067.4731895835,2915223.9916294,14.455195519552,0,0
613.01479239657,413.7937882455,9.2596259625963,1389425.9820364,-7067.4731895835,2915223.9916294,14.459625962596,0,0
613.01479270485,413.59199919998,9.2640564056406,1386285.29002,4939.3140320863,2898968.6992335,14.464056405641,0,0
613.01479301316,413.39021015607,9.2684868486849,1386285.29002,4939.3140320863,2898968.6992335,14.468486848685,0,0
613.01479332148,413.18842111216,9.2729172917292,1386285.29002,4939.3140320863,2898968.6992335,14.472917291729,0,0
613.0147936298,412.98663206826,9.2773477347735,1386285.29002,4939.3140320863,2898968.6992335,14.477347734773,0,0
613.01479393811,412.78484302435,9.2817781778178,1386285.29002,4939.3140320863,2898968.6992335,14.481778177818,0,0
613.01479424643,412.58305398045,9.2862086208621,1386285.29002,4939.3140320863,2898968.6992335,14.486208620862,0,0
613.01479455474,412.38126493654,9.2906390639064,1386285.29002,4939.3140320863,2898968.6992335,14.490639063906,0,0
613.01479486306,412.17947589263,9.2950695069507,1386285.29002,4939.3140320863,2898968.6992335,14.495069506951,0,0
613.01479517138,411.97768684873,9.299499949995,1386285.29002,4939.3140320863,2898968.6992335,14.499499949995,0,0
613.01479547969,411.77589780482,9.3039303930393,1386285.29002,4939.3140320863,2898968.6992335,14.503930393039,0,0
613.01479578801,411.57410876091,9.3083608360836,1386285.29002,4939.3140320863,2898968.6992335,14.508360836084,0,0
613.01479609633,411.37231971701,9.3127912791279,1386285.29002,4939.3140320863,2898968.6992335,14.512791279128,0,0
613.01479640464,411.1705306731,9.3172217221722,1386285.29002,4939.3140320863,2898968.6992335,14.517221722172,0,0
613.01479671296,410.9687416292,9.3216521652165,1386285.29002,4939.3140320863,2898968.6992335,14.521652165217,0,0
613.01479702189,410.76695258265,9.3260826082608,1387881.7620293,-5897.285876332,2874823.2890947,14.526082608261,0,0
613.01479733159,410.56516353277,9.3305130513051,1387881.7620293,-5897.285876332,2874823.2890947,14.530513051305,0,0
613.01479764128,410.36337448289,9.3349434943494,1387881.7620293,-5897.285876332,2874823.2890947,14.534943494349,0,0
613.01479795098,410.16158543301,9.3393739373937,1387881.7620293,-5897.285876332,2874823.2890947,14.539373937394,0,0
613.01479826068,409.95979638313,9.343804380438,1387881.7620293,-5897.285876332,2874823.2890947,14.543804380438,0,0
613.01479857037,409.75800733325,9.3482348234823,1387881.7620293,-5897.285876332,2874823.2890947,14.548234823482,0,0
613.01479888007,409.55621828337,9.3526652665267,1387881.7620293,-5897.285876332,2874823.2890947,14.552665266527,0,0
613.01479918977,409.35442923349,9.357095709571,1387881.7620293,-5897.285876332,2874823.2890947,14.557095709571,0,0
613.01479949947,409.15264018361,9.3615261526153,1387881.7620293,-5897.285876332,2874823.2890947,14.561526152615,0,0
613.01479980916,408.95085113373,9.3659565956596,1387881.7620293,-5897.285876332,2874823.2890947,14.56595659566,0,0
613.01480011886,408.74906208386,9.3703870387039,1387881.7620293,-5897.285876332,2874823.2890947,14.570387038704,0,0
613.01480042856,408.54727303398,9.3748174817482,1387881.7620293,-5897.285876332,2874823.2890947,14.574817481748,0,0
613.01480073826,408.3454839841,9.3792479247925,1387881.7620293,-5897.285876332,2874823.2890947,14.579247924792,0,0
613.01480104795,408.14369493422,9.3836783678368,1387881.7620293,-5897.285876332,2874823.2890947,14.583678367837,0,0
613.01480135765,407.94190588434,9.3881088108811,1387881.7620293,-5897.285876332,2874823.2890947,14.588108810881,0,0
613.01480166735,407.74011683446,9.3925392539254,1387881.7620293,-5897.285876332,2874823.2890947,14.592539253925,0,0
613.01480197705,407.53832778458,9.3969696969697,1387881.7620293,-5897.285876332,2874823.2890947,14.59696969697,0,0
613.01480228674,407.3365387347,9.401400140014,1387881.7620293,-5897.285876332,2874823.2890947,14.601400140014,0,0
613.01480259644,407.13474968482,9.4058305830583,1387881.7620293,-5897.285876332,2874823.2890947,14.605830583058,0,0
613.01480290614,406.93296063494,9.4102610261026,1387881.7620293,-5897.285876332,2874823.2890947,14.610261026103,0,0
613.01480321583,406.73117158506,9.4146914691469,1387881.7620293,-5897.285876332,2874823.2890947,14.614691469147,0,0
613.01480352553,406.52938253518,9.4191219121912,1387881.7620293,-5897.285876332,2874823.2890947,14.619121912191,0,0
613.01480383523,406.3275934853,9.4235523552355,1387881.7620293,-5897.285876332,2874823.2890947,14.623552355236,0,0
613.01480414493,406.12580443542,9.4279827982798,1387881.7620293,-5897.285876332,2874823.2890947,14.62798279828,0,0
613.01480445462,405.92401538554,9.4324132413241,1387881.7620293,-5897.285876332,2874823.2890947,14.632413241324,0,0
613.01480476432,405.72222633566,9.4368436843684,1387881.7620293,-5897.285876332,2874823.2890947,14.636843684368,0,0
613.01480507402,405.52043728578,9.4412741274127,1387881.7620293,-5897.285876332,2874823.2890947,14.641274127413,0,0
613.01480538372,405.3186482359,9.445704570457,1387881.7620293,-5897.285876332,2874823.2890947,14.645704570457,0,0
613.01480569341,405.11685918602,9.4501350135013,1387881.7620293,-5897.285876332,2874823.2890947,14.650135013501,0,0
613.01480600311,404.91507013614,9.4545654565457,1387881.7620293,-5897.285876332,2874823.2890947,14.654565456546,0,0
613.01480631281,404.71328108626,9.45899589959,1387881.7620293,-5897.285876332,2874823.2890947,14.65899589959,0,0
613.01480662251,404.51149203638,9.4634263426343,1387881.7620293,-5897.285876332,2874823.2890947,14.663426342634,0,0
613.0148069322,404.30970298651,9.4678567856786,1387881.7620293,-5897.285876332,2874823.2890947,14.667856785679,0,0
613.0148072419,404.10791393663,9.4722872287229,1387881.7620293,-5897.285876332,2874823.2890947,14.672287228723,0,0
613.0148075516,403.90612488675,9.4767176717672,1387881.7620293,-5897.285876332,2874823.2890947,14.676717671767,0,0
613.01480786129,403.70433583687,9.4811481148115,1387881.7620293,-5897.285876332,2874823.2890947,14.681148114811,0,0
613.01480817099,403.50254678699,9.4855785578558,1387881.7620293,-5897.285876332,2874823.2890947,14.685578557856,0,0
613.01480848069,403.30075773711,9.4900090009001,1387881.7620293,-5897.285876332,2874823.2890947,14.6900090009,0,0
613.01480879039,403.09896868723,9.4944394439444,1387881.7620293,-5897.285876332,2874823.2890947,14.694439443944,0,0
613.01480910008,402.89717963735,9.4988698869887,1387881.7620293,-5897.285876332,2874823.2890947,14.698869886989,0,0
613.01480940978,402.69539058747,9.503300330033,1387881.7620293,-5897.285876332,2874823.2890947,14.703300330033,0,0
613.01480971948,402.49360153759,9.5077307730773,1387881.7620293,-5897.285876332,2874823.2890947,14.707730773077,0,0
613.01481002918,402.29181248771,9.5121612161216,1387881.7620293,-5897.285876332,2874823.2890947,14.712161216122,0,0
613.01481033887,402.09002343783,9.5165916591659,1387881.7620293,-5897.285876332,2874823.2890947,14.716591659166,0,0
613.01481064857,401.88823438795,9.5210221022102,1387881.7620293,-5897.285876332,2874823.2890947,14.72102210221,0,0
613.01481095827,401.68644533807,9.5254525452545,1387881.7620293,-5897.285876332,2874823.2890947,14.725452545255,0,0
613.01481126797,401.48465628819,9.5298829882988,1387881.7620293,-5897.285876332,2874823.2890947,14.729882988299,0,0
613.01481157766,401.28286723831,9.5343134313431,1387881.7620293,-5897.285876332,2874823.2890947,14.734313431343,0,0
613.01481188736,401.08107818843,9.5387438743874,1387881.7620293,-5897.285876332,2874823.2890947,14.738743874387,0,0
613.01481219706,400.87928913855,9.5431743174317,1387881.7620293,-5897.285876332,2874823.2890947,14.743174317432,0,0
613.01481250675,400.67750008867,9.547604760476,1387881.7620293,-5897.285876332,2874823.2890947,14.747604760476,0,0
613.01481281645,400.47571103879,9.5520352035204,1387881.7620293,-5897.285876332,2874823.2890947,14.75203520352,0,0
613.01481312615,400.27392198891,9.5564656465647,1387881.7620293,-5897.285876332,2874823.2890947,14.756465646565,0,0
613.01481343585,400.07213293904,9.560896089609,1387881.7620293,-5897.285876332,2874823.2890947,14.760896089609,0,0
613.01481374554,399.87034388916,9.5653265326533,1387881.7620293,-5897.285876332,2874823.2890947,14.765326532653,0,0
613.01481405524,399.66855483928,9.5697569756976,1387881.7620293,-5897.285876332,2874823.2890947,14.769756975698,0,0
613.01481436494,399.4667657894,9.5741874187419,1387881.7620293,-5897.285876332,2874823.2890947,14.774187418742,0,0
613.01481467464,399.26497673952,9.5786178617862,1387881.7620293,-5897.285876332,2874823.2890947,14.778617861786,0,0
613.01481498433,399.06318768964,9.5830483048305,1387881.7620293,-5897.285876332,2874823.2890947,14.78304830483,0,0
613.01481529403,398.86139863976,9.5874787478748,1387881.7620293,-5897.285876332,2874823.2890947,14.787478747875,0,0
613.01481560373,398.65960958988,9.5919091909191,1387881.7620293,-5897.285876332,2874823.2890947,14.791909190919,0,0
613.01481591342,398.45782054,9.5963396339634,1387881.7620293,-5897.285876332,2874823.2890947,14.796339633963,0,0
613.01481622312,398.25603149012,9.6007700770077,1387881.7620293,-5897.285876332,2874823.2890947,14.800770077008,0,0
613.01481653282,398.05424244024,9.605200520052,1387881.7620293,-5897.285876332,2874823.2890947,14.805200520052,0,0
613.01481684252,397.85245339036,9.6096309630963,1387881.7620293,-5897.285876332,2874823.2890947,14.809630963096,0,0
613.01481715221,397.65066434048,9.6140614061406,1387881.7620293,-5897.285876332,2874823.2890947,14.814061406141,0,0
613.01481746191,397.4488752906,9.6184918491849,1387881.7620293,-5897.285876332,2874823.2890947,14.818491849185,0,0
613.01481777161,397.24708624072,9.6229222922292,1387881.7620293,-5897.285876332,2874823.2890947,14.822922292229,0,0
613.01481808131,397.04529719084,9.6273527352735,1387881.7620293,-5897.285876332,2874823.2890947,14.827352735274,0,0
613.014818391,396.84350814096,9.6317831783178,1387881.7620293,-5897.285876332,2874823.2890947,14.831783178318,0,0
613.0148187007,396.64171909108,9.6362136213621,1387881.7620293,-5897.285876332,2874823.2890947,14.836213621362,0,0
613.0148190104,396.4399300412,9.6406440644064,1387881.7620293,-5897.285876332,2874823.2890947,14.840644064406,0,0
613.0148193201,396.23814099132,9.6450745074507,1387881.7620293,-5897.285876332,2874823.2890947,14.845074507451,0,0
613.01481962979,396.03635194144,9.6495049504951,1387881.7620293,-5897.285876332,2874823.2890947,14.849504950495,0,0
613.01481993949,395.83456289156,9.6539353935394,1387881.7620293,-5897.285876332,2874823.2890947,14.853935393539,0,0
613.01482024919,395.63277384169,9.6583658365837,1387881.7620293,-5897.285876332,2874823.2890947,14.858365836584,0,0
613.01482055888,395.43098479181,9.662796279628,1387881.7620293,-5897.285876332,2874823.2890947,14.862796279628,0,0
613.01482086858,395.22919574193,9.6672267226723,1387881.7620293,-5897.285876332,2874823.2890947,14.867226722672,0,0
613.01482117828,395.02740669205,9.6716571657166,1387881.7620293,-5897.285876332,2874823.2890947,14.871657165717,0,0
613.01482148798,394.82561764217,9.6760876087609,1387881.7620293,-5897.285876332,2874823.2890947,14.876087608761,0,0
613.01482179767,394.62382859229,9.6805180518052,1387881.7620293,-5897.285876332,2874823.2890947,14.880518051805,0,0
613.01482210737,394.42203954241,9.6849484948495,1387881.7620293,-5897.285876332,2874823.2890947,14.884948494849,0,0
613.01482241707,394.22025049253,9.6893789378938,1387881.7620293,-5897.285876332,2874823.2890947,14.889378937894,0,0
613.01482272677,394.01846144265,9.6938093809381,1387881.7620293,-5897.285876332,2874823.2890947,14.893809380938,0,0
613.01482303646,393.81667239277,9.6982398239824,1387881.7620293,-5897.285876332,2874823.2890947,14.898239823982,0,0
613.01482334616,393.61488334289,9.7026702670267,1387881.7620293,-5897.285876332,2874823.2890947,14.902670267027,0,0
613.01482365586,393.41309429301,9.707100710071,1387881.7620293,-5897.285876332,2874823.2890947,14.907100710071,0,0
613.01482396556,393.21130524313,9.7115311531153,1387881.7620293,-5897.285876332,2874823.2890947,14.911531153115,0,0
613.01482427525,393.00951619325,9.7159615961596,1387881.7620293,-5897.285876332,2874823.2890947,14.91596159616,0,0
613.01482458495,392.80772714337,9.7203920392039,1387881.7620293,-5897.285876332,2874823.2890947,14.920392039204,0,0
613.01482489465,392.60593809349,9.7248224822482,1387881.7620293,-5897.285876332,2874823.2890947,14.924822482248,0,0
613.01482520435,392.40414904361,9.7292529252925,1387881.7620293,-5897.285876332,2874823.2890947,14.929252925293,0,0
613.01482551404,392.20235999373,9.7336833683368,1387881.7620293,-5897.285876332,2874823.2890947,14.933683368337,0,0
613.01482582374,392.00057094385,9.7381138113811,1387881.7620293,-5897.285876332,2874823.2890947,14.938113811381,0,0
613.01482613344,391.79878189397,9.7425442544254,1387881.7620293,-5897.285876332,2874823.2890947,14.942544254425,0,0
613.01482644313,391.59699284409,9.7469746974697,1387881.7620293,-5897.285876332,2874823.2890947,14.94697469747,0,0
613.01482675283,391.39520379421,9.7514051405141,1387881.7620293,-5897.285876332,2874823.2890947,14.951405140514,0,0
613.01482706253,391.19341474434,9.7558355835584,1387881.7620293,-5897.285876332,2874823.2890947,14.955835583558,0,0
613.01482737223,390.99162569446,9.7602660266027,1387881.7620293,-5897.285876332,2874823.2890947,14.960266026603,0,0
613.01482768192,390.78983664458,9.764696469647,1387881.7620293,-5897.285876332,2874823.2890947,14.964696469647,0,0
613.01482799162,390.5880475947,9.7691269126913,1387881.7620293,-5897.285876332,2874823.2890947,14.969126912691,0,0
613.01482830132,390.38625854482,9.7735573557356,1387881.7620293,-5897.285876332,2874823.2890947,14.973557355736,0,0
613.01482861102,390.18446949494,9.7779877987799,1387881.7620293,-5897.285876332,2874823.2890947,14.97798779878,0,0
613.01482892071,389.98268044506,9.7824182418242,1387881.7620293,-5897.285876332,2874823.2890947,14.982418241824,0,0
613.01482923041,389.78089139518,9.7868486848685,1387881.7620293,-5897.285876332,2874823.2890947,14.986848684868,0,0
613.01482954011,389.5791023453,9.7912791279128,1387881.7620293,-5897.285876332,2874823.2890947,14.991279127913,0,0
613.0148298498,389.37731329542,9.7957095709571,1387881.7620293,-5897.285876332,2874823.2890947,14.995709570957,0,0
613.0148301595,389.17552424554,9.8001400140014,1387881.7620293,-5897.285876332,2874823.2890947,15.000140014001,0,0
613.0148304692,388.97373519566,9.8045704570457,1387881.7620293,-5897.285876332,2874823.2890947,15.004570457046,0,0
613.0148307789,388.77194614578,9.80900090009,1387881.7620293,-5897.285876332,2874823.2890947,15.00900090009,0,0
613.01483108859,388.5701570959,9.8134313431343,1387881.7620293,-5897.285876332,2874823.2890947,15.013431343134,0,0
613.01483139829,388.36836804602,9.8178617861786,1387881.7620293,-5897.285876332,2874823.2890947,15.017861786179,0,0
613.01483170799,388.16657899614,9.8222922292229,1387881.7620293,-5897.285876332,2874823.2890947,15.022292229223,0,0
613.01483201769,387.96478994626,9.8267226722672,1387881.7620293,-5897.285876332,2874823.2890947,15.026722672267,0,0
613.01483232738,387.76300089638,9.8311531153115,1387881.7620293,-5897.285876332,2874823.2890947,15.031153115312,0,0
613.01483263708,387.5612118465,9.8355835583558,1387881.7620293,-5897.285876332,2874823.2890947,15.035583558356,0,0
613.01483294678,387.35942279662,9.8400140014001,1387881.7620293,-5897.285876332,2874823.2890947,15.0400140014,0,0
613.01483325648,387.15763374674,9.8444444444444,1387881.7620293,-5897.285876332,2874823.2890947,15.044444444444,0,0
613.01483356617,386.95584469687,9.8488748874887,1387881.7620293,-5897.285876332,2874823.2890947,15.048874887489,0,0
613.01483387587,386.75405564699,9.8533053305331,1387881.7620293,-5897.285876332,2874823.2890947,15.053305330533,0,0
613.01483418557,386.55226659711,9.8577357735774,1387881.7620293,-5897.285876332,2874823.2890947,15.057735773577,0,0
613.01483449526,386.35047754723,9.8621662166217,1387881.7620293,-5897.285876332,2874823.2890947,15.062166216622,0,0
613.01483480496,386.14868849735,9.866596659666,1387881.7620293,-5897.285876332,2874823.2890947,15.066596659666,0,0
613.01483511466,385.94689944747,9.8710271027103,1387881.7620293,-5897.285876332,2874823.2890947,15.07102710271,0,0
613.01483542436,385.74511039759,9.8754575457546,1387881.7620293,-5897.285876332,2874823.2890947,15.075457545755,0,0
613.01483573405,385.54332134771,9.8798879887989,1387881.7620293,-5897.285876332,2874823.2890947,15.079887988799,0,0
613.01483604375,385.34153229783,9.8843184318432,1387881.7620293,-5897.285876332,2874823.2890947,15.084318431843,0,0
613.01483635345,385.13974324795,9.8887488748875,1387881.7620293,-5897.285876332,2874823.2890947,15.088748874887,0,0
613.01483666315,384.93795419807,9.8931793179318,1387881.7620293,-5897.285876332,2874823.2890947,15.093179317932,0,0
613.01483697284,384.73616514819,9.8976097609761,1387881.7620293,-5897.285876332,2874823.2890947,15.097609760976,0,0
613.01483728254,384.53437609831,9.9020402040204,1387881.7620293,-5897.285876332,2874823.2890947,15.10204020402,0,0
613.01483759224,384.33258704843,9.9064706470647,1387881.7620293,-5897.285876332,2874823.2890947,15.106470647065,0,0
613.01483790194,384.13079799855,9.910901090109,1387881.7620293,-5897.285876332,2874823.2890947,15.110901090109,0,0
613.01483821163,383.92900894867,9.9153315331533,1387881.7620293,-5897.285876332,2874823.2890947,15.115331533153,0,0
613.01483852133,383.72721989879,9.9197619761976,1387881.7620293,-5897.285876332,2874823.2890947,15.119761976198,0,0
613.01483883103,383.52543084891,9.9241924192419,1387881.7620293,-5897.285876332,2874823.2890947,15.124192419242,0,0
613.01483914072,383.32364179903,9.9286228622862,1387881.7620293,-5897.285876332,2874823.2890947,15.128622862286,0,0
613.01483945042,383.12185274915,9.9330533053305,1387881.7620293,-5897.285876332,2874823.2890947,15.133053305331,0,0
613.01483976012,382.92006369927,9.9374837483748,1387881.7620293,-5897.285876332,2874823.2890947,15.137483748375,0,0
613.01484006982,382.71827464939,9.9419141914191,1387881.7620293,-5897.285876332,2874823.2890947,15.141914191419,0,0
613.01484037951,382.51648559952,9.9463446344634,1387881.7620293,-5897.285876332,2874823.2890947,15.146344634463,0,0
613.01484068921,382.31469654964,9.9507750775077,1387881.7620293,-5897.285876332,2874823.2890947,15.150775077508,0,0
613.01484099891,382.11290749976,9.9552055205521,1387881.7620293,-5897.285876332,2874823.2890947,15.155205520552,0,0
613.01484130861,381.91111844988,9.9596359635964,1387881.7620293,-5897.285876332,2874823.2890947,15.159635963596,0,0
613.0148416183,381.7093294,9.9640664066407,1387881.7620293,-5897.285876332,2874823.2890947,15.164066406641,0,0
613.014841928,381.50754035012,9.968496849685,1387881.7620293,-5897.285876332,2874823.2890947,15.168496849685,0,0
613.0148422377,381.30575130024,9.9729272927293,1387881.7620293,-5897.285876332,2874823.2890947,15.172927292729,0,0
613.0148425474,381.10396225036,9.9773577357736,1387881.7620293,-5897.285876332,2874823.2890947,15.177357735774,0,0
613.01484285709,380.90217320048,9.9817881788179,1387881.7620293,-5897.285876332,2874823.2890947,15.181788178818,0,0
613.01484316679,380.7003841506,9.9862186218622,1387881.7620293,-5897.285876332,2874823.2890947,15.186218621862,0,0
613.01484347649,380.49859510072,9.9906490649065,1387881.7620293,-5897.285876332,2874823.2890947,15.190649064906,0,0
613.01484378618,380.29680605084,9.9950795079508,1387881.7620293,-5897.285876332,2874823.2890947,15.195079507951,0,0
613.01484409588,380.09501700096,9.9995099509951,1387881.7620293,-5897.285876332,2874823.2890947,15.199509950995,0,0
613.01484440558,379.89322795108,10.003940394039,1387881.7620293,-5897.285876332,2874823.2890947,15.203940394039,0,0
613.01484471528,379.6914389012,10.008370837084,1387881.7620293,-5897.285876332,2874823.2890947,15.208370837084,0,0
613.01484502497,379.48964985132,10.012801280128,1387881.7620293,-5897.285876332,2874823.2890947,15.212801280128,0,0
613.01484533467,379.28786080144,10.017231723172,1387881.7620293,-5897.285876332,2874823.2890947,15.217231723172,0,0
613.01484564437,379.08607175156,10.021662166217,1387881.7620293,-5897.285876332,2874823.2890947,15.221662166217,0,0
613.01484595407,378.88428270168,10.026092609261,1387881.7620293,-5897.285876332,2874823.2890947,15.226092609261,0,0
613.01484626376,378.6824936518,10.030523052305,1387881.7620293,-5897.285876332,2874823.2890947,15.230523052305,0,0
613.01484657346,378.48070460192,10.03495349535,1387881.7620293,-5897.285876332,2874823.2890947,15.23495349535,0,0
613.01484688316,378.27891555204,10.039383938394,1387881.7620293,-5897.285876332,2874823.2890947,15.239383938394,0,0
613.01484719286,378.07712650217,10.043814381438,1387881.7620293,-5897.285876332,2874823.2890947,15.243814381438,0,0
613.01484750255,377.87533745229,10.048244824482,1387881.7620293,-5897.285876332,2874823.2890947,15.248244824482,0,0
613.01484781225,377.67354840241,10.052675267527,1387881.7620293,-5897.285876332,2874823.2890947,15.252675267527,0,0
613.01484812195,377.47175935253,10.057105710571,1387881.7620293,-5897.285876332,2874823.2890947,15.257105710571,0,0
613.01484843164,377.26997030265,10.061536153615,1387881.7620293,-5897.285876332,2874823.2890947,15.261536153615,0,0
613.01484874134,377.06818125277,10.06596659666,1387881.7620293,-5897.285876332,2874823.2890947,15.26596659666,0,0
613.01484905104,376.86639220289,10.070397039704,1387881.7620293,-5897.285876332,2874823.2890947,15.270397039704,0,0
613.01484936074,376.66460315301,10.074827482748,1387881.7620293,-5897.285876332,2874823.2890947,15.274827482748,0,0
613.01484967043,376.46281410313,10.079257925793,1387881.7620293,-5897.285876332,2874823.2890947,15.279257925793,0,0
613.01484998013,376.26102505325,10.083688368837,1387881.7620293,-5897.285876332,2874823.2890947,15.283688368837,0,0
613.01485028983,376.05923600337,10.088118811881,1387881.7620293,-5897.285876332,2874823.2890947,15.288118811881,0,0
613.01485059953,375.85744695349,10.092549254925,1387881.7620293,-5897.285876332,2874823.2890947,15.292549254925,0,0
613.01485090922,375.65565790361,10.09697969797,1387881.7620293,-5897.285876332,2874823.2890947,15.29697969797,0,0
613.01485121892,375.45386885373,10.101410141014,1387881.7620293,-5897.285876332,2874823.2890947,15.301410141014,0,0
613.01485152862,375.25207980385,10.105840584058,1387881.7620293,-5897.285876332,2874823.2890947,15.305840584058,0,0
613.01485183832,375.05029075397,10.110271027103,1387881.7620293,-5897.285876332,2874823.2890947,15.310271027103,0,0
613.01485214801,374.84850170409,10.114701470147,1387881.7620293,-5897.285876332,2874823.2890947,15.314701470147,0,0
613.01485245771,374.64671265421,10.119131913191,1387881.7620293,-5897.285876332,2874823.2890947,15.319131913191,0,0
613.01485276741,374.44492360433,10.123562356236,1387881.7620293,-5897.285876332,2874823.2890947,15.323562356236,0,0
613.0148530771,374.24313455445,10.12799279928,1387881.7620293,-5897.285876332,2874823.2890947,15.32799279928,0,0
613.0148533868,374.04134550457,10.132423242324,1387881.7620293,-5897.285876332,2874823.2890947,15.332423242324,0,0
613.0148536965,373.83955645469,10.136853685369,1387881.7620293,-5897.285876332,2874823.2890947,15.336853685369,0,0
613.0148540062,373.63776740482,10.141284128413,1387881.7620293,-5897.285876332,2874823.2890947,15.341284128413,0,0
613.01485431589,373.43597835494,10.145714571457,1387881.7620293,-5897.285876332,2874823.2890947,15.345714571457,0,0
613.01485462559,373.23418930506,10.150145014501,1387881.7620293,-5897.285876332,2874823.2890947,15.350145014501,0,0
613.01485493529,373.03240025518,10.154575457546,1387881.7620293,-5897.285876332,2874823.2890947,15.354575457546,0,0
613.01485524499,372.8306112053,10.15900590059,1387881.7620293,-5897.285876332,2874823.2890947,15.35900590059,0,0
613.01485555468,372.62882215542,10.163436343634,1387881.7620293,-5897.285876332,2874823.2890947,15.363436343634,0,0
613.01485586438,372.42703310554,10.167866786679,1387881.7620293,-5897.285876332,2874823.2890947,15.367866786679,0,0
613.01485617408,372.22524405566,10.172297229723,1387881.7620293,-5897.285876332,2874823.2890947,15.372297229723,0,0
613.01485648378,372.02345500578,10.176727672767,1387881.7620293,-5897.285876332,2874823.2890947,15.376727672767,0,0
613.01485679347,371.8216659559,10.181158115812,1387881.7620293,-5897.285876332,2874823.2890947,15.381158115812,0,0
613.01485710317,371.61987690602,10.185588558856,1387881.7620293,-5897.285876332,2874823.2890947,15.385588558856,0,0
613.01485741287,371.41808785614,10.1900190019,1387881.7620293,-5897.285876332,2874823.2890947,15.3900190019,0,0
613.01485772256,371.21629880626,10.194449444944,1387881.7620293,-5897.285876332,2874823.2890947,15.394449444944,0,0
613.01485803226,371.01450975638,10.198879887989,1387881.7620293,-5897.285876332,2874823.2890947,15.398879887989,0,0
613.01485834196,370.8127207065,10.203310331033,1387881.7620293,-5897.285876332,2874823.2890947,15.403310331033,0,0
613.01485865166,370.61093165662,10.207740774077,1387881.7620293,-5897.285876332,2874823.2890947,15.407740774077,0,0
613.01485896135,370.40914260674,10.212171217122,1387881.7620293,-5897.285876332,2874823.2890947,15.412171217122,0,0
613.01485927104,370.20735355925,10.216601660166,1384320.6732596,3750.1582051895,2861005.3592305,15.416601660166,0,0
613.01485958071,370.00556451375,10.22103210321,1384320.6732596,3750.1582051895,2861005.3592305,15.42103210321,0,0
613.01485989038,369.80377546825,10.225462546255,1384320.6732596,3750.1582051895,2861005.3592305,15.425462546255,0,0
613.01486020005,369.60198642275,10.229892989299,1384320.6732596,3750.1582051895,2861005.3592305,15.429892989299,0,0
613.01486050972,369.40019737725,10.234323432343,1384320.6732596,3750.1582051895,2861005.3592305,15.434323432343,0,0
613.01486081939,369.19840833175,10.238753875388,1384320.6732596,3750.1582051895,2861005.3592305,15.438753875388,0,0
613.01486112906,368.99661928626,10.243184318432,1384320.6732596,3750.1582051895,2861005.3592305,15.443184318432,0,0
613.01486143873,368.79483024076,10.247614761476,1384320.6732596,3750.1582051895,2861005.3592305,15.447614761476,0,0
613.0148617484,368.59304119526,10.25204520452,1384320.6732596,3750.1582051895,2861005.3592305,15.45204520452,0,0
613.01486205807,368.39125214976,10.256475647565,1384320.6732596,3750.1582051895,2861005.3592305,15.456475647565,0,0
613.01486236774,368.18946310426,10.260906090609,1384320.6732596,3750.1582051895,2861005.3592305,15.460906090609,0,0
613.01486267741,367.98767405876,10.265336533653,1384320.6732596,3750.1582051895,2861005.3592305,15.465336533653,0,0
613.01486298708,367.78588501326,10.269766976698,1384320.6732596,3750.1582051895,2861005.3592305,15.469766976698,0,0
613.01486329675,367.58409596776,10.274197419742,1384320.6732596,3750.1582051895,2861005.3592305,15.474197419742,0,0
613.01486360642,367.38230692226,10.278627862786,1384320.6732596,3750.1582051895,2861005.3592305,15.478627862786,0,0
613.01486391609,367.18051787676,10.283058305831,1384320.6732596,3750.1582051895,2861005.3592305,15.483058305831,0,0
613.01486422576,366.97872883127,10.287488748875,1384320.6732596,3750.1582051895,2861005.3592305,15.487488748875,0,0
613.01486453543,366.77693978577,10.291919191919,1384320.6732596,3750.1582051895,2861005.3592305,15.491919191919,0,0
613.0148648451,366.57515074027,10.296349634963,1384320.6732596,3750.1582051895,2861005.3592305,15.496349634963,0,0
613.01486515477,366.37336169477,10.300780078008,1384320.6732596,3750.1582051895,2861005.3592305,15.500780078008,0,0
613.01486546444,366.17157264927,10.305210521052,1384320.6732596,3750.1582051895,2861005.3592305,15.505210521052,0,0
613.01486577411,365.96978360377,10.309640964096,1384320.6732596,3750.1582051895,2861005.3592305,15.509640964096,0,0
613.01486608378,365.76799455827,10.314071407141,1384320.6732596,3750.1582051895,2861005.3592305,15.514071407141,0,0
613.01486639345,365.56620551277,10.318501850185,1384320.6732596,3750.1582051895,2861005.3592305,15.518501850185,0,0
613.01486670312,365.36441646727,10.322932293229,1384320.6732596,3750.1582051895,2861005.3592305,15.522932293229,0,0
613.01486701279,365.16262742177,10.327362736274,1384320.6732596,3750.1582051895,2861005.3592305,15.527362736274,0,0
613.01486732246,364.96083837628,10.331793179318,1384320.6732596,3750.1582051895,2861005.3592305,15.531793179318,0,0
613.01486763213,364.75904933078,10.336223622362,1384320.6732596,3750.1582051895,2861005.3592305,15.536223622362,0,0
613.0148679418,364.55726028528,10.340654065407,1384320.6732596,3750.1582051895,2861005.3592305,15.540654065407,0,0
613.01486825147,364.35547123978,10.345084508451,1384320.6732596,3750.1582051895,2861005.3592305,15.545084508451,0,0
613.01486856114,364.15368219428,10.349514951495,1384320.6732596,3750.1582051895,2861005.3592305,15.549514951495,0,0
613.01486887081,363.95189314878,10.353945394539,1384320.6732596,3750.1582051895,2861005.3592305,15.553945394539,0,0
613.01486918048,363.75010410328,10.358375837584,1384320.6732596,3750.1582051895,2861005.3592305,15.558375837584,0,0
613.01486949015,363.54831505778,10.362806280628,1384320.6732596,3750.1582051895,2861005.3592305,15.562806280628,0,0
613.01486979982,363.34652601228,10.367236723672,1384320.6732596,3750.1582051895,2861005.3592305,15.567236723672,0,0
613.01487010949,363.14473696678,10.371667166717,1384320.6732596,3750.1582051895,2861005.3592305,15.571667166717,0,0
613.01487041916,362.94294792129,10.376097609761,1384320.6732596,3750.1582051895,2861005.3592305,15.576097609761,0,0
613.01487072883,362.74115887579,10.380528052805,1384320.6732596,3750.1582051895,2861005.3592305,15.580528052805,0,0
613.0148710385,362.53936983029,10.38495849585,1384320.6732596,3750.1582051895,2861005.3592305,15.58495849585,0,0
613.01487134817,362.33758078479,10.389388938894,1384320.6732596,3750.1582051895,2861005.3592305,15.589388938894,0,0
613.01487165784,362.13579173929,10.393819381938,1384320.6732596,3750.1582051895,2861005.3592305,15.593819381938,0,0
613.01487196796,361.93400269159,10.398249824982,1385104.2480757,-5299.8260644167,2841945.4929417,15.598249824982,0,0
613.01487227863,361.73221364124,10.402680268027,1385104.2480757,-5299.8260644167,2841945.4929417,15.602680268027,0,0
613.01487258931,361.53042459089,10.407110711071,1385104.2480757,-5299.8260644167,2841945.4929417,15.607110711071,0,0
613.01487289998,361.32863554054,10.411541154115,1385104.2480757,-5299.8260644167,2841945.4929417,15.611541154115,0,0
613.01487321065,361.12684649019,10.41597159716,1385104.2480757,-5299.8260644167,2841945.4929417,15.61597159716,0,0
613.01487352133,360.92505743984,10.420402040204,1385104.2480757,-5299.8260644167,2841945.4929417,15.620402040204,0,0
613.014873832,360.72326838949,10.424832483248,1385104.2480757,-5299.8260644167,2841945.4929417,15.624832483248,0,0
613.01487414267,360.52147933914,10.429262926293,1385104.2480757,-5299.8260644167,2841945.4929417,15.629262926293,0,0
613.01487445334,360.31969028879,10.433693369337,1385104.2480757,-5299.8260644167,2841945.4929417,15.633693369337,0,0
613.01487476402,360.11790123844,10.438123812381,1385104.2480757,-5299.8260644167,2841945.4929417,15.638123812381,0,0
613.01487507469,359.91611218809,10.442554255426,1385104.2480757,-5299.8260644167,2841945.4929417,15.642554255426,0,0
613.01487538536,359.71432313775,10.44698469847,1385104.2480757,-5299.8260644167,2841945.4929417,15.64698469847,0,0
613.01487569604,359.5125340874,10.451415141514,1385104.2480757,-5299.8260644167,2841945.4929417,15.651415141514,0,0
613.01487600671,359.31074503705,10.455845584558,1385104.2480757,-5299.8260644167,2841945.4929417,15.655845584558,0,0
613.01487631738,359.1089559867,10.460276027603,1385104.2480757,-5299.8260644167,2841945.4929417,15.660276027603,0,0
613.01487662805,358.90716693635,10.464706470647,1385104.2480757,-5299.8260644167,2841945.4929417,15.664706470647,0,0
613.01487693873,358.705377886,10.469136913691,1385104.2480757,-5299.8260644167,2841945.4929417,15.669136913691,0,0
613.0148772494,358.50358883565,10.473567356736,1385104.2480757,-5299.8260644167,2841945.4929417,15.673567356736,0,0
613.01487756007,358.3017997853,10.47799779978,1385104.2480757,-5299.8260644167,2841945.4929417,15.67799779978,0,0
613.01487787074,358.10001073495,10.482428242824,1385104.2480757,-5299.8260644167,2841945.4929417,15.682428242824,0,0
613.01487818142,357.8982216846,10.486858685869,1385104.2480757,-5299.8260644167,2841945.4929417,15.686858685869,0,0
613.01487849209,357.69643263425,10.491289128913,1385104.2480757,-5299.8260644167,2841945.4929417,15.691289128913,0,0
613.01487880276,357.4946435839,10.495719571957,1385104.2480757,-5299.8260644167,2841945.4929417,15.695719571957,0,0
613.01487911344,357.29285453355,10.500150015001,1385104.2480757,-5299.8260644167,2841945.4929417,15.700150015001,0,0
613.01487942411,357.0910654832,10.504580458046,1385104.2480757,-5299.8260644167,2841945.4929417,15.704580458046,0,0
613.01487973478,356.88927643285,10.50901090109,1385104.2480757,-5299.8260644167,2841945.4929417,15.70901090109,0,0
613.01488004545,356.68748738251,10.513441344134,1385104.2480757,-5299.8260644167,2841945.4929417,15.713441344134,0,0
613.01488035613,356.48569833216,10.517871787179,1385104.2480757,-5299.8260644167,2841945.4929417,15.717871787179,0,0
613.0148806668,356.28390928181,10.522302230223,1385104.2480757,-5299.8260644167,2841945.4929417,15.722302230223,0,0
613.01488097747,356.08212023146,10.526732673267,1385104.2480757,-5299.8260644167,2841945.4929417,15.726732673267,0,0
613.01488128815,355.88033118111,10.531163116312,1385104.2480757,-5299.8260644167,2841945.4929417,15.731163116312,0,0
613.01488159882,355.67854213076,10.535593559356,1385104.2480757,-5299.8260644167,2841945.4929417,15.735593559356,0,0
613.01488190949,355.47675308041,10.5400240024,1385104.2480757,-5299.8260644167,2841945.4929417,15.7400240024,0,0
613.01488222016,355.27496403006,10.544454445445,1385104.2480757,-5299.8260644167,2841945.4929417,15.744454445445,0,0
613.01488253084,355.07317497971,10.548884888489,1385104.2480757,-5299.8260644167,2841945.4929417,15.748884888489,0,0
613.01488284151,354.87138592936,10.553315331533,1385104.2480757,-5299.8260644167,2841945.4929417,15.753315331533,0,0
613.01488315218,354.66959687901,10.557745774577,1385104.2480757,-5299.8260644167,2841945.4929417,15.757745774577,0,0
613.01488346286,354.46780782866,10.562176217622,1385104.2480757,-5299.8260644167,2841945.4929417,15.762176217622,0,0
613.01488377353,354.26601877831,10.566606660666,1385104.2480757,-5299.8260644167,2841945.4929417,15.766606660666,0,0
613.0148840842,354.06422972796,10.57103710371,1385104.2480757,-5299.8260644167,2841945.4929417,15.77103710371,0,0
613.01488439487,353.86244067761,10.575467546755,1385104.2480757,-5299.8260644167,2841945.4929417,15.775467546755,0,0
613.01488470555,353.66065162727,10.579897989799,1385104.2480757,-5299.8260644167,2841945.4929417,15.779897989799,0,0
613.01488501622,353.45886257692,10.584328432843,1385104.2480757,-5299.8260644167,2841945.4929417,15.784328432843,0,0
613.01488532689,353.25707352657,10.588758875888,1385104.2480757,-5299.8260644167,2841945.4929417,15.788758875888,0,0
613.01488563757,353.05528447622,10.593189318932,1385104.2480757,-5299.8260644167,2841945.4929417,15.793189318932,0,0
613.01488594824,352.85349542587,10.597619761976,1385104.2480757,-5299.8260644167,2841945.4929417,15.797619761976,0,0
613.01488625891,352.65170637552,10.602050205021,1385104.2480757,-5299.8260644167,2841945.4929417,15.80205020502,0,0
613.01488656958,352.44991732517,10.606480648065,1385104.2480757,-5299.8260644167,2841945.4929417,15.806480648065,0,0
613.01488688026,352.24812827482,10.610911091109,1385104.2480757,-5299.8260644167,2841945.4929417,15.810911091109,0,0
613.01488719093,352.04633922447,10.615341534153,1385104.2480757,-5299.8260644167,2841945.4929417,15.815341534153,0,0
613.0148875016,351.84455017412,10.619771977198,1385104.2480757,-5299.8260644167,2841945.4929417,15.819771977198,0,0
613.01488781227,351.64276112377,10.624202420242,1385104.2480757,-5299.8260644167,2841945.4929417,15.824202420242,0,0
613.01488812295,351.44097207342,10.628632863286,1385104.2480757,-5299.8260644167,2841945.4929417,15.828632863286,0,0
613.01488843362,351.23918302307,10.633063306331,1385104.2480757,-5299.8260644167,2841945.4929417,15.833063306331,0,0
613.01488874429,351.03739397272,10.637493749375,1385104.2480757,-5299.8260644167,2841945.4929417,15.837493749375,0,0
613.01488905497,350.83560492237,10.641924192419,1385104.2480757,-5299.8260644167,2841945.4929417,15.841924192419,0,0
613.01488936564,350.63381587203,10.646354635464,1385104.2480757,-5299.8260644167,2841945.4929417,15.846354635464,0,0
613.01488967631,350.43202682168,10.650785078508,1385104.2480757,-5299.8260644167,2841945.4929417,15.850785078508,0,0
613.01488998698,350.23023777133,10.655215521552,1385104.2480757,-5299.8260644167,2841945.4929417,15.855215521552,0,0
613.01489029766,350.02844872098,10.659645964596,1385104.2480757,-5299.8260644167,2841945.4929417,15.859645964596,0,0
613.01489060833,349.82665967063,10.664076407641,1385104.2480757,-5299.8260644167,2841945.4929417,15.864076407641,0,0
613.014890919,349.62487062028,10.668506850685,1385104.2480757,-5299.8260644167,2841945.4929417,15.868506850685,0,0
613.01489122968,349.42308156993,10.672937293729,1385104.2480757,-5299.8260644167,2841945.4929417,15.872937293729,0,0
613.01489154035,349.22129251958,10.677367736774,1385104.2480757,-5299.8260644167,2841945.4929417,15.877367736774,0,0
613.01489185102,349.01950346923,10.681798179818,1385104.2480757,-5299.8260644167,2841945.4929417,15.881798179818,0,0
613.01489216169,348.81771441888,10.686228622862,1385104.2480757,-5299.8260644167,2841945.4929417,15.886228622862,0,0
613.01489247237,348.61592536853,10.690659065907,1385104.2480757,-5299.8260644167,2841945.4929417,15.890659065907,0,0
613.01489278304,348.41413631818,10.695089508951,1385104.2480757,-5299.8260644167,2841945.4929417,15.895089508951,0,0
613.01489309371,348.21234726783,10.699519951995,1385104.2480757,-5299.8260644167,2841945.4929417,15.899519951995,0,0
613.01489340439,348.01055821748,10.70395039504,1385104.2480757,-5299.8260644167,2841945.4929417,15.90395039504,0,0
613.01489371506,347.80876916713,10.708380838084,1385104.2480757,-5299.8260644167,2841945.4929417,15.908380838084,0,0
613.01489402573,347.60698011679,10.712811281128,1385104.2480757,-5299.8260644167,2841945.4929417,15.912811281128,0,0
613.0148943364,347.40519106644,10.717241724172,1385104.2480757,-5299.8260644167,2841945.4929417,15.917241724172,0,0
613.01489464708,347.20340201609,10.721672167217,1385104.2480757,-5299.8260644167,2841945.4929417,15.921672167217,0,0
613.01489495775,347.00161296574,10.726102610261,1385104.2480757,-5299.8260644167,2841945.4929417,15.926102610261,0,0
613.01489526842,346.79982391539,10.730533053305,1385104.2480757,-5299.8260644167,2841945.4929417,15.930533053305,0,0
613.0148955791,346.59803486504,10.73496349635,1385104.2480757,-5299.8260644167,2841945.4929417,15.93496349635,0,0
613.01489588977,346.39624581469,10.739393939394,1385104.2480757,-5299.8260644167,2841945.4929417,15.939393939394,0,0
613.01489620044,346.19445676434,10.743824382438,1385104.2480757,-5299.8260644167,2841945.4929417,15.943824382438,0,0
613.01489651111,345.99266771399,10.748254825483,1385104.2480757,-5299.8260644167,2841945.4929417,15.948254825483,0,0
613.01489682179,345.79087866364,10.752685268527,1385104.2480757,-5299.8260644167,2841945.4929417,15.952685268527,0,0
613.01489713246,345.58908961329,10.757115711571,1385104.2480757,-5299.8260644167,2841945.4929417,15.957115711571,0,0
613.01489744313,345.38730056294,10.761546154615,1385104.2480757,-5299.8260644167,2841945.4929417,15.961546154615,0,0
613.0148977538,345.18551151259,10.76597659766,1385104.2480757,-5299.8260644167,2841945.4929417,15.96597659766,0,0
613.01489806448,344.98372246224,10.770407040704,1385104.2480757,-5299.8260644167,2841945.4929417,15.970407040704,0,0
613.01489837515,344.78193341189,10.774837483748,1385104.2480757,-5299.8260644167,2841945.4929417,15.974837483748,0,0
613.01489868582,344.58014436154,10.779267926793,1385104.2480757,-5299.8260644167,2841945.4929417,15.979267926793,0,0
613.0148989965,344.3783553112,10.783698369837,1385104.2480757,-5299.8260644167,2841945.4929417,15.983698369837,0,0
613.01489930717,344.17656626085,10.788128812881,1385104.2480757,-5299.8260644167,2841945.4929417,15.988128812881,0,0
613.01489961784,343.9747772105,10.792559255926,1385104.2480757,-5299.8260644167,2841945.4929417,15.992559255926,0,0
613.01489992851,343.77298816015,10.79698969897,1385104.2480757,-5299.8260644167,2841945.4929417,15.99698969897,0,0
613.01490023919,343.5711991098,10.801420142014,1385104.2480757,-5299.8260644167,2841945.4929417,16.001420142014,0,0
613.01490054986,343.36941005945,10.805850585059,1385104.2480757,-5299.8260644167,2841945.4929417,16.005850585059,0,0
613.01490086053,343.1676210091,10.810281028103,1385104.2480757,-5299.8260644167,2841945.4929417,16.010281028103,0,0
613.01490117121,342.96583195875,10.814711471147,1385104.2480757,-5299.8260644167,2841945.4929417,16.014711471147,0,0
613.01490148188,342.7640429084,10.819141914191,1385104.2480757,-5299.8260644167,2841945.4929417,16.019141914191,0,0
613.01490179255,342.56225385805,10.823572357236,1385104.2480757,-5299.8260644167,2841945.4929417,16.023572357236,0,0
613.01490210322,342.3604648077,10.82800280028,1385104.2480757,-5299.8260644167,2841945.4929417,16.02800280028,0,0
613.0149024139,342.15867575735,10.832433243324,1385104.2480757,-5299.8260644167,2841945.4929417,16.032433243324,0,0
613.01490272457,341.956886707,10.836863686369,1385104.2480757,-5299.8260644167,2841945.4929417,16.036863686369,0,0
613.01490303524,341.75509765665,10.841294129413,1385104.2480757,-5299.8260644167,2841945.4929417,16.041294129413,0,0
613.01490334592,341.5533086063,10.845724572457,1385104.2480757,-5299.8260644167,2841945.4929417,16.045724572457,0,0
613.01490365659,341.35151955596,10.850155015502,1385104.2480757,-5299.8260644167,2841945.4929417,16.050155015502,0,0
613.01490396726,341.14973050561,10.854585458546,1385104.2480757,-5299.8260644167,2841945.4929417,16.054585458546,0,0
613.01490427793,340.94794145526,10.85901590159,1385104.2480757,-5299.8260644167,2841945.4929417,16.05901590159,0,0
613.01490458861,340.74615240491,10.863446344634,1385104.2480757,-5299.8260644167,2841945.4929417,16.063446344634,0,0
613.01490489928,340.54436335456,10.867876787679,1385104.2480757,-5299.8260644167,2841945.4929417,16.067876787679,0,0
613.01490520995,340.34257430421,10.872307230723,1385104.2480757,-5299.8260644167,2841945.4929417,16.072307230723,0,0
613.01490552063,340.14078525386,10.876737673767,1385104.2480757,-5299.8260644167,2841945.4929417,16.076737673767,0,0
613.0149058313,339.93899620351,10.881168116812,1385104.2480757,-5299.8260644167,2841945.4929417,16.081168116812,0,0
613.01490614197,339.73720715316,10.885598559856,1385104.2480757,-5299.8260644167,2841945.4929417,16.085598559856,0,0
613.01490645264,339.53541810281,10.8900290029,1385104.2480757,-5299.8260644167,2841945.4929417,16.0900290029,0,0
613.01490676332,339.33362905246,10.894459445945,1385104.2480757,-5299.8260644167,2841945.4929417,16.094459445945,0,0
613.01490707399,339.13184000211,10.898889888989,1385104.2480757,-5299.8260644167,2841945.4929417,16.098889888989,0,0
613.01490738466,338.93005095176,10.903320332033,1385104.2480757,-5299.8260644167,2841945.4929417,16.103320332033,0,0
613.01490769533,338.72826190141,10.907750775078,1385104.2480757,-5299.8260644167,2841945.4929417,16.107750775078,0,0
613.01490800601,338.52647285106,10.912181218122,1385104.2480757,-5299.8260644167,2841945.4929417,16.112181218122,0,0
613.01490831668,338.32468380072,10.916611661166,1385104.2480757,-5299.8260644167,2841945.4929417,16.116611661166,0,0
613.01490862735,338.12289475037,10.92104210421,1385104.2480757,-5299.8260644167,2841945.4929417,16.12104210421,0,0
613.01490893803,337.92110570002,10.925472547255,1385104.2480757,-5299.8260644167,2841945.4929417,16.125472547255,0,0
613.0149092487,337.71931664967,10.929902990299,1385104.2480757,-5299.8260644167,2841945.4929417,16.129902990299,0,0
613.01490955937,337.51752759932,10.934333433343,1385104.2480757,-5299.8260644167,2841945.4929417,16.134333433343,0,0
613.01490987004,337.31573854897,10.938763876388,1385104.2480757,-5299.8260644167,2841945.4929417,16.138763876388,0,0
613.01491018072,337.11394949862,10.943194319432,1385104.2480757,-5299.8260644167,2841945.4929417,16.143194319432,0,0
613.01491049139,336.91216044827,10.947624762476,1385104.2480757,-5299.8260644167,2841945.4929417,16.147624762476,0,0
613.01491080206,336.71037139792,10.952055205521,1385104.2480757,-5299.8260644167,2841945.4929417,16.152055205521,0,0
613.01491111274,336.50858234757,10.956485648565,1385104.2480757,-5299.8260644167,2841945.4929417,16.156485648565,0,0
613.01491142341,336.30679329722,10.960916091609,1385104.2480757,-5299.8260644167,2841945.4929417,16.160916091609,0,0
613.01491173408,336.10500424687,10.965346534653,1385104.2480757,-5299.8260644167,2841945.4929417,16.165346534653,0,0
613.01491204475,335.90321519652,10.969776977698,1385104.2480757,-5299.8260644167,2841945.4929417,16.169776977698,0,0
613.01491235543,335.70142614617,10.974207420742,1385104.2480757,-5299.8260644167,2841945.4929417,16.174207420742,0,0
613.0149126661,335.49963709582,10.978637863786,1385104.2480757,-5299.8260644167,2841945.4929417,16.178637863786,0,0
613.01491297677,335.29784804548,10.983068306831,1385104.2480757,-5299.8260644167,2841945.4929417,16.183068306831,0,0
613.01491328745,335.09605899513,10.987498749875,1385104.2480757,-5299.8260644167,2841945.4929417,16.187498749875,0,0
613.01491359812,334.89426994478,10.991929192919,1385104.2480757,-5299.8260644167,2841945.4929417,16.191929192919,0,0
613.01491390879,334.69248089443,10.996359635964,1385104.2480757,-5299.8260644167,2841945.4929417,16.196359635964,0,0
613.01491421946,334.49069184408,11.000790079008,1385104.2480757,-5299.8260644167,2841945.4929417,16.200790079008,0,0
613.01491453014,334.28890279373,11.005220522052,1385104.2480757,-5299.8260644167,2841945.4929417,16.205220522052,0,0
613.01491484081,334.08711374338,11.009650965097,1385104.2480757,-5299.8260644167,2841945.4929417,16.209650965097,0,0
613.01491515148,333.88532469303,11.014081408141,1385104.2480757,-5299.8260644167,2841945.4929417,16.214081408141,0,0
613.01491546216,333.68353564268,11.018511851185,1385104.2480757,-5299.8260644167,2841945.4929417,16.218511851185,0,0
613.01491577283,333.48174659233,11.022942294229,1385104.2480757,-5299.8260644167,2841945.4929417,16.222942294229,0,0
613.0149160835,333.27995754198,11.027372737274,1385104.2480757,-5299.8260644167,2841945.4929417,16.227372737274,0,0
613.01491639417,333.07816849163,11.031803180318,1385104.2480757,-5299.8260644167,2841945.4929417,16.231803180318,0,0
613.01491670485,332.87637944128,11.036233623362,1385104.2480757,-5299.8260644167,2841945.4929417,16.236233623362,0,0
613.01491701552,332.67459039093,11.040664066407,1385104.2480757,-5299.8260644167,2841945.4929417,16.240664066407,0,0
613.01491732619,332.47280134058,11.045094509451,1385104.2480757,-5299.8260644167,2841945.4929417,16.245094509451,0,0
613.01491763686,332.27101229024,11.049524952495,1385104.2480757,-5299.8260644167,2841945.4929417,16.249524952495,0,0
613.01491794754,332.06922323989,11.05395539554,1385104.2480757,-5299.8260644167,2841945.4929417,16.25395539554,0,0
613.01491825821,331.86743418954,11.058385838584,1385104.2480757,-5299.8260644167,2841945.4929417,16.258385838584,0,0
613.01491856888,331.66564513919,11.062816281628,1385104.2480757,-5299.8260644167,2841945.4929417,16.262816281628,0,0
613.01491887956,331.46385608884,11.067246724672,1385104.2480757,-5299.8260644167,2841945.4929417,16.267246724672,0,0
613.01491919023,331.26206703849,11.071677167717,1385104.2480757,-5299.8260644167,2841945.4929417,16.271677167717,0,0
613.0149195009,331.06027798814,11.076107610761,1385104.2480757,-5299.8260644167,2841945.4929417,16.276107610761,0,0
613.01491981157,330.85848893779,11.080538053805,1385104.2480757,-5299.8260644167,2841945.4929417,16.280538053805,0,0
613.01492012225,330.65669988744,11.08496849685,1385104.2480757,-5299.8260644167,2841945.4929417,16.28496849685,0,0
613.01492043292,330.45491083709,11.089398939894,1385104.2480757,-5299.8260644167,2841945.4929417,16.289398939894,0,0
613.01492074359,330.25312178674,11.093829382938,1385104.2480757,-5299.8260644167,2841945.4929417,16.293829382938,0,0
613.01492105427,330.05133273639,11.098259825983,1385104.2480757,-5299.8260644167,2841945.4929417,16.298259825983,0,0
613.01492136494,329.84954368604,11.102690269027,1385104.2480757,-5299.8260644167,2841945.4929417,16.302690269027,0,0
613.01492167561,329.64775463569,11.107120712071,1385104.2480757,-5299.8260644167,2841945.4929417,16.307120712071,0,0
613.01492198628,329.44596558534,11.111551155116,1385104.2480757,-5299.8260644167,2841945.4929417,16.311551155116,0,0
613.01492229696,329.244176535,11.11598159816,1385104.2480757,-5299.8260644167,2841945.4929417,16.31598159816,0,0
613.01492260763,329.04238748465,11.120412041204,1385104.2480757,-5299.8260644167,2841945.4929417,16.320412041204,0,0
613.0149229183,328.8405984343,11.124842484248,1385104.2480757,-5299.8260644167,2841945.4929417,16.324842484248,0,0
613.01492322898,328.63880938395,11.129272927293,1385104.2480757,-5299.8260644167,2841945.4929417,16.329272927293,0,0
613.01492353965,328.4370203336,11.133703370337,1385104.2480757,-5299.8260644167,2841945.4929417,16.333703370337,0,0
613.01492385032,328.23523128325,11.138133813381,1385104.2480757,-5299.8260644167,2841945.4929417,16.338133813381,0,0
613.01492416099,328.0334422329,11.142564256426,1385104.2480757,-5299.8260644167,2841945.4929417,16.342564256426,0,0
613.01492447167,327.83165318255,11.14699469947,1385104.2480757,-5299.8260644167,2841945.4929417,16.34699469947,0,0
613.01492478234,327.6298641322,11.151425142514,1385104.2480757,-5299.8260644167,2841945.4929417,16.351425142514,0,0
613.01492509301,327.42807508185,11.155855585559,1385104.2480757,-5299.8260644167,2841945.4929417,16.355855585559,0,0
613.01492540369,327.2262860315,11.160286028603,1385104.2480757,-5299.8260644167,2841945.4929417,16.360286028603,0,0
613.01492571436,327.02449698115,11.164716471647,1385104.2480757,-5299.8260644167,2841945.4929417,16.364716471647,0,0
613.01492602503,326.8227079308,11.169146914691,1385104.2480757,-5299.8260644167,2841945.4929417,16.369146914691,0,0
613.0149263357,326.62091888045,11.173577357736,1385104.2480757,-5299.8260644167,2841945.4929417,16.373577357736,0,0
613.01492664638,326.4191298301,11.17800780078,1385104.2480757,-5299.8260644167,2841945.4929417,16.37800780078,0,0
613.01492695705,326.21734077975,11.182438243824,1385104.2480757,-5299.8260644167,2841945.4929417,16.382438243824,0,0
613.01492726772,326.01555172941,11.186868686869,1385104.2480757,-5299.8260644167,2841945.4929417,16.386868686869,0,0
613.01492757839,325.81376267906,11.191299129913,1385104.2480757,-5299.8260644167,2841945.4929417,16.391299129913,0,0
613.01492788907,325.61197362871,11.195729572957,1385104.2480757,-5299.8260644167,2841945.4929417,16.395729572957,0,0
613.01492819974,325.41018457836,11.200160016002,1385104.2480757,-5299.8260644167,2841945.4929417,16.400160016002,0,0
613.01492851041,325.20839552801,11.204590459046,1385104.2480757,-5299.8260644167,2841945.4929417,16.404590459046,0,0
613.01492882109,325.00660647766,11.20902090209,1385104.2480757,-5299.8260644167,2841945.4929417,16.40902090209,0,0
613.01492913176,324.80481742731,11.213451345135,1385104.2480757,-5299.8260644167,2841945.4929417,16.413451345135,0,0
613.01492944243,324.60302837696,11.217881788179,1385104.2480757,-5299.8260644167,2841945.4929417,16.417881788179,0,0
613.0149297531,324.40123932661,11.222312231223,1385104.2480757,-5299.8260644167,2841945.4929417,16.422312231223,0,0
613.01493006377,324.19945027754,11.226742674267,1381636.1817251,4102.8520537919,2828758.1923652,16.426742674267,0,0
613.0149303744,323.99766123145,11.231173117312,1381636.1817251,4102.8520537919,2828758.1923652,16.431173117312,0,0
613.01493068503,323.79587218536,11.235603560356,1381636.1817251,4102.8520537919,2828758.1923652,16.435603560356,0,0
613.01493099567,323.59408313928,11.2400340034,1381636.1817251,4102.8520537919,2828758.1923652,16.4400340034,0,0
613.0149313063,323.39229409319,11.244464446445,1381636.1817251,4102.8520537919,2828758.1923652,16.444464446445,0,0
613.01493161694,323.19050504711,11.248894889489,1381636.1817251,4102.8520537919,2828758.1923652,16.448894889489,0,0
613.01493192757,322.98871600102,11.253325332533,1381636.1817251,4102.8520537919,2828758.1923652,16.453325332533,0,0
613.0149322382,322.78692695493,11.257755775578,1381636.1817251,4102.8520537919,2828758.1923652,16.457755775578,0,0
613.01493254884,322.58513790885,11.262186218622,1381636.1817251,4102.8520537919,2828758.1923652,16.462186218622,0,0
613.01493285947,322.38334886276,11.266616661666,1381636.1817251,4102.8520537919,2828758.1923652,16.466616661666,0,0
613.01493317011,322.18155981668,11.27104710471,1381636.1817251,4102.8520537919,2828758.1923652,16.47104710471,0,0
613.01493348074,321.97977077059,11.275477547755,1381636.1817251,4102.8520537919,2828758.1923652,16.475477547755,0,0
613.01493379137,321.7779817245,11.279907990799,1381636.1817251,4102.8520537919,2828758.1923652,16.479907990799,0,0
613.01493410201,321.57619267842,11.284338433843,1381636.1817251,4102.8520537919,2828758.1923652,16.484338433843,0,0
613.01493441264,321.37440363233,11.288768876888,1381636.1817251,4102.8520537919,2828758.1923652,16.488768876888,0,0
613.01493472328,321.17261458625,11.293199319932,1381636.1817251,4102.8520537919,2828758.1923652,16.493199319932,0,0
613.01493503391,320.97082554016,11.297629762976,1381636.1817251,4102.8520537919,2828758.1923652,16.497629762976,0,0
613.01493534454,320.76903649407,11.302060206021,1381636.1817251,4102.8520537919,2828758.1923652,16.502060206021,0,0
613.01493565518,320.56724744799,11.306490649065,1381636.1817251,4102.8520537919,2828758.1923652,16.506490649065,0,0
613.01493596581,320.3654584019,11.310921092109,1381636.1817251,4102.8520537919,2828758.1923652,16.510921092109,0,0
613.01493627645,320.16366935582,11.315351535154,1381636.1817251,4102.8520537919,2828758.1923652,16.515351535154,0,0
613.01493658708,319.96188030973,11.319781978198,1381636.1817251,4102.8520537919,2828758.1923652,16.519781978198,0,0
613.01493689771,319.76009126364,11.324212421242,1381636.1817251,4102.8520537919,2828758.1923652,16.524212421242,0,0
613.01493720835,319.55830221756,11.328642864286,1381636.1817251,4102.8520537919,2828758.1923652,16.528642864286,0,0
613.01493751898,319.35651317147,11.333073307331,1381636.1817251,4102.8520537919,2828758.1923652,16.533073307331,0,0
613.01493782962,319.15472412539,11.337503750375,1381636.1817251,4102.8520537919,2828758.1923652,16.537503750375,0,0
613.01493814025,318.9529350793,11.341934193419,1381636.1817251,4102.8520537919,2828758.1923652,16.541934193419,0,0
613.01493845088,318.75114603321,11.346364636464,1381636.1817251,4102.8520537919,2828758.1923652,16.546364636464,0,0
613.01493876152,318.54935698713,11.350795079508,1381636.1817251,4102.8520537919,2828758.1923652,16.550795079508,0,0
613.01493907215,318.34756794104,11.355225522552,1381636.1817251,4102.8520537919,2828758.1923652,16.555225522552,0,0
613.01493938279,318.14577889496,11.359655965597,1381636.1817251,4102.8520537919,2828758.1923652,16.559655965597,0,0
613.01493969342,317.94398984887,11.364086408641,1381636.1817251,4102.8520537919,2828758.1923652,16.564086408641,0,0
613.01494000405,317.74220080278,11.368516851685,1381636.1817251,4102.8520537919,2828758.1923652,16.568516851685,0,0
613.01494031469,317.5404117567,11.372947294729,1381636.1817251,4102.8520537919,2828758.1923652,16.572947294729,0,0
613.01494062532,317.33862271061,11.377377737774,1381636.1817251,4102.8520537919,2828758.1923652,16.577377737774,0,0
613.01494093596,317.13683366453,11.381808180818,1381636.1817251,4102.8520537919,2828758.1923652,16.581808180818,0,0
613.01494124659,316.93504461844,11.386238623862,1381636.1817251,4102.8520537919,2828758.1923652,16.586238623862,0,0
613.01494155722,316.73325557235,11.390669066907,1381636.1817251,4102.8520537919,2828758.1923652,16.590669066907,0,0
613.01494186786,316.53146652627,11.395099509951,1381636.1817251,4102.8520537919,2828758.1923652,16.595099509951,0,0
613.01494217849,316.32967748018,11.399529952995,1381636.1817251,4102.8520537919,2828758.1923652,16.599529952995,0,0
613.01494248913,316.1278884341,11.40396039604,1381636.1817251,4102.8520537919,2828758.1923652,16.60396039604,0,0
613.01494279976,315.92609938801,11.408390839084,1381636.1817251,4102.8520537919,2828758.1923652,16.608390839084,0,0
613.01494311039,315.72431034192,11.412821282128,1381636.1817251,4102.8520537919,2828758.1923652,16.612821282128,0,0
613.01494342103,315.52252129584,11.417251725173,1381636.1817251,4102.8520537919,2828758.1923652,16.617251725173,0,0
613.01494373166,315.32073224975,11.421682168217,1381636.1817251,4102.8520537919,2828758.1923652,16.621682168217,0,0
613.0149440423,315.11894320366,11.426112611261,1381636.1817251,4102.8520537919,2828758.1923652,16.626112611261,0,0
613.01494435293,314.91715415758,11.430543054305,1381636.1817251,4102.8520537919,2828758.1923652,16.630543054305,0,0
613.01494466356,314.71536511149,11.43497349735,1381636.1817251,4102.8520537919,2828758.1923652,16.63497349735,0,0
613.0149449742,314.51357606541,11.439403940394,1381636.1817251,4102.8520537919,2828758.1923652,16.639403940394,0,0
613.01494528483,314.31178701932,11.443834383438,1381636.1817251,4102.8520537919,2828758.1923652,16.643834383438,0,0
613.01494559547,314.10999797323,11.448264826483,1381636.1817251,4102.8520537919,2828758.1923652,16.648264826483,0,0
613.0149459061,313.90820892715,11.452695269527,1381636.1817251,4102.8520537919,2828758.1923652,16.652695269527,0,0
613.01494621673,313.70641988106,11.457125712571,1381636.1817251,4102.8520537919,2828758.1923652,16.657125712571,0,0
613.01494652737,313.50463083498,11.461556155616,1381636.1817251,4102.8520537919,2828758.1923652,16.661556155616,0,0
613.014946838,313.30284178889,11.46598659866,1381636.1817251,4102.8520537919,2828758.1923652,16.66598659866,0,0
613.01494714864,313.1010527428,11.470417041704,1381636.1817251,4102.8520537919,2828758.1923652,16.670417041704,0,0
613.01494745927,312.89926369672,11.474847484748,1381636.1817251,4102.8520537919,2828758.1923652,16.674847484748,0,0
613.01494776991,312.69747465063,11.479277927793,1381636.1817251,4102.8520537919,2828758.1923652,16.679277927793,0,0
613.01494808054,312.49568560455,11.483708370837,1381636.1817251,4102.8520537919,2828758.1923652,16.683708370837,0,0
613.01494839117,312.29389655846,11.488138813881,1381636.1817251,4102.8520537919,2828758.1923652,16.688138813881,0,0
613.01494870181,312.09210751237,11.492569256926,1381636.1817251,4102.8520537919,2828758.1923652,16.692569256926,0,0
613.01494901244,311.89031846629,11.49699969997,1381636.1817251,4102.8520537919,2828758.1923652,16.69699969997,0,0
613.01494932308,311.6885294202,11.501430143014,1381636.1817251,4102.8520537919,2828758.1923652,16.701430143014,0,0
613.01494963371,311.48674037412,11.505860586059,1381636.1817251,4102.8520537919,2828758.1923652,16.705860586059,0,0
613.01494994434,311.28495132803,11.510291029103,1381636.1817251,4102.8520537919,2828758.1923652,16.710291029103,0,0
613.01495025498,311.08316228194,11.514721472147,1381636.1817251,4102.8520537919,2828758.1923652,16.714721472147,0,0
613.01495056561,310.88137323586,11.519151915192,1381636.1817251,4102.8520537919,2828758.1923652,16.719151915192,0,0
613.01495087625,310.67958418977,11.523582358236,1381636.1817251,4102.8520537919,2828758.1923652,16.723582358236,0,0
613.01495118688,310.47779514369,11.52801280128,1381636.1817251,4102.8520537919,2828758.1923652,16.72801280128,0,0
613.01495149759,310.27600609717,11.532443244324,1382164.3581648,-4903.3382488083,2812208.7592055,16.732443244324,0,0
613.01495180907,310.07421704643,11.536873687369,1382164.3581648,-4903.3382488083,2812208.7592055,16.736873687369,0,0
613.01495212055,309.87242799569,11.541304130413,1382164.3581648,-4903.3382488083,2812208.7592055,16.741304130413,0,0
613.01495243202,309.67063894494,11.545734573457,1382164.3581648,-4903.3382488083,2812208.7592055,16.745734573457,0,0
613.0149527435,309.4688498942,11.550165016502,1382164.3581648,-4903.3382488083,2812208.7592055,16.750165016502,0,0
613.01495305498,309.26706084346,11.554595459546,1382164.3581648,-4903.3382488083,2812208.7592055,16.754595459546,0,0
613.01495336645,309.06527179272,11.55902590259,1382164.3581648,-4903.3382488083,2812208.7592055,16.75902590259,0,0
613.01495367793,308.86348274198,11.563456345635,1382164.3581648,-4903.3382488083,2812208.7592055,16.763456345635,0,0
613.01495398941,308.66169369124,11.567886788679,1382164.3581648,-4903.3382488083,2812208.7592055,16.767886788679,0,0
613.01495430088,308.4599046405,11.572317231723,1382164.3581648,-4903.3382488083,2812208.7592055,16.772317231723,0,0
613.01495461236,308.25811558976,11.576747674767,1382164.3581648,-4903.3382488083,2812208.7592055,16.776747674767,0,0
613.01495492384,308.05632653902,11.581178117812,1382164.3581648,-4903.3382488083,2812208.7592055,16.781178117812,0,0
613.01495523532,307.85453748828,11.585608560856,1382164.3581648,-4903.3382488083,2812208.7592055,16.785608560856,0,0
613.01495554679,307.65274843753,11.5900390039,1382164.3581648,-4903.3382488083,2812208.7592055,16.7900390039,0,0
613.01495585827,307.45095938679,11.594469446945,1382164.3581648,-4903.3382488083,2812208.7592055,16.794469446945,0,0
613.01495616975,307.24917033605,11.598899889989,1382164.3581648,-4903.3382488083,2812208.7592055,16.798899889989,0,0
613.01495648122,307.04738128531,11.603330333033,1382164.3581648,-4903.3382488083,2812208.7592055,16.803330333033,0,0
613.0149567927,306.84559223457,11.607760776078,1382164.3581648,-4903.3382488083,2812208.7592055,16.807760776078,0,0
613.01495710418,306.64380318383,11.612191219122,1382164.3581648,-4903.3382488083,2812208.7592055,16.812191219122,0,0
613.01495741565,306.44201413309,11.616621662166,1382164.3581648,-4903.3382488083,2812208.7592055,16.816621662166,0,0
613.01495772713,306.24022508235,11.621052105211,1382164.3581648,-4903.3382488083,2812208.7592055,16.821052105211,0,0
613.01495803861,306.03843603161,11.625482548255,1382164.3581648,-4903.3382488083,2812208.7592055,16.825482548255,0,0
613.01495835008,305.83664698086,11.629912991299,1382164.3581648,-4903.3382488083,2812208.7592055,16.829912991299,0,0
613.01495866156,305.63485793012,11.634343434343,1382164.3581648,-4903.3382488083,2812208.7592055,16.834343434343,0,0
613.01495897304,305.43306887938,11.638773877388,1382164.3581648,-4903.3382488083,2812208.7592055,16.838773877388,0,0
613.01495928452,305.23127982864,11.643204320432,1382164.3581648,-4903.3382488083,2812208.7592055,16.843204320432,0,0
613.01495959599,305.0294907779,11.647634763476,1382164.3581648,-4903.3382488083,2812208.7592055,16.847634763476,0,0
613.01495990747,304.82770172716,11.652065206521,1382164.3581648,-4903.3382488083,2812208.7592055,16.852065206521,0,0
613.01496021895,304.62591267642,11.656495649565,1382164.3581648,-4903.3382488083,2812208.7592055,16.856495649565,0,0
613.01496053042,304.42412362568,11.660926092609,1382164.3581648,-4903.3382488083,2812208.7592055,16.860926092609,0,0
613.0149608419,304.22233457494,11.665356535654,1382164.3581648,-4903.3382488083,2812208.7592055,16.865356535654,0,0
613.01496115338,304.0205455242,11.669786978698,1382164.3581648,-4903.3382488083,2812208.7592055,16.869786978698,0,0
613.01496146485,303.81875647345,11.674217421742,1382164.3581648,-4903.3382488083,2812208.7592055,16.874217421742,0,0
613.01496177633,303.61696742271,11.678647864786,1382164.3581648,-4903.3382488083,2812208.7592055,16.878647864786,0,0
613.01496208781,303.41517837197,11.683078307831,1382164.3581648,-4903.3382488083,2812208.7592055,16.883078307831,0,0
613.01496239928,303.21338932123,11.687508750875,1382164.3581648,-4903.3382488083,2812208.7592055,16.887508750875,0,0
613.01496271076,303.01160027049,11.691939193919,1382164.3581648,-4903.3382488083,2812208.7592055,16.891939193919,0,0
613.01496302224,302.80981121975,11.696369636964,1382164.3581648,-4903.3382488083,2812208.7592055,16.896369636964,0,0
613.01496333372,302.60802216901,11.700800080008,1382164.3581648,-4903.3382488083,2812208.7592055,16.900800080008,0,0
613.01496364519,302.40623311827,11.705230523052,1382164.3581648,-4903.3382488083,2812208.7592055,16.905230523052,0,0
613.01496395667,302.20444406753,11.709660966097,1382164.3581648,-4903.3382488083,2812208.7592055,16.909660966097,0,0
613.01496426815,302.00265501679,11.714091409141,1382164.3581648,-4903.3382488083,2812208.7592055,16.914091409141,0,0
613.01496457962,301.80086596604,11.718521852185,1382164.3581648,-4903.3382488083,2812208.7592055,16.918521852185,0,0
613.0149648911,301.5990769153,11.72295229523,1382164.3581648,-4903.3382488083,2812208.7592055,16.92295229523,0,0
613.01496520258,301.39728786456,11.727382738274,1382164.3581648,-4903.3382488083,2812208.7592055,16.927382738274,0,0
613.01496551405,301.19549881382,11.731813181318,1382164.3581648,-4903.3382488083,2812208.7592055,16.931813181318,0,0
613.01496582553,300.99370976308,11.736243624362,1382164.3581648,-4903.3382488083,2812208.7592055,16.936243624362,0,0
613.01496613701,300.79192071234,11.740674067407,1382164.3581648,-4903.3382488083,2812208.7592055,16.940674067407,0,0
613.01496644849,300.5901316616,11.745104510451,1382164.3581648,-4903.3382488083,2812208.7592055,16.945104510451,0,0
613.01496675996,300.38834261086,11.749534953495,1382164.3581648,-4903.3382488083,2812208.7592055,16.949534953495,0,0
613.01496707144,300.18655356012,11.75396539654,1382164.3581648,-4903.3382488083,2812208.7592055,16.95396539654,0,0
613.01496738292,299.98476450938,11.758395839584,1382164.3581648,-4903.3382488083,2812208.7592055,16.958395839584,0,0
613.01496769439,299.78297545863,11.762826282628,1382164.3581648,-4903.3382488083,2812208.7592055,16.962826282628,0,0
613.01496800587,299.58118640789,11.767256725673,1382164.3581648,-4903.3382488083,2812208.7592055,16.967256725673,0,0
613.01496831735,299.37939735715,11.771687168717,1382164.3581648,-4903.3382488083,2812208.7592055,16.971687168717,0,0
613.01496862882,299.17760830641,11.776117611761,1382164.3581648,-4903.3382488083,2812208.7592055,16.976117611761,0,0
613.0149689403,298.97581925567,11.780548054805,1382164.3581648,-4903.3382488083,2812208.7592055,16.980548054805,0,0
613.01496925178,298.77403020493,11.78497849785,1382164.3581648,-4903.3382488083,2812208.7592055,16.98497849785,0,0
613.01496956326,298.57224115419,11.789408940894,1382164.3581648,-4903.3382488083,2812208.7592055,16.989408940894,0,0
613.01496987473,298.37045210345,11.793839383938,1382164.3581648,-4903.3382488083,2812208.7592055,16.993839383938,0,0
613.01497018621,298.16866305271,11.798269826983,1382164.3581648,-4903.3382488083,2812208.7592055,16.998269826983,0,0
613.01497049769,297.96687400197,11.802700270027,1382164.3581648,-4903.3382488083,2812208.7592055,17.002700270027,0,0
613.01497080916,297.76508495122,11.807130713071,1382164.3581648,-4903.3382488083,2812208.7592055,17.007130713071,0,0
613.01497112064,297.56329590048,11.811561156116,1382164.3581648,-4903.3382488083,2812208.7592055,17.011561156116,0,0
613.01497143212,297.36150684974,11.81599159916,1382164.3581648,-4903.3382488083,2812208.7592055,17.01599159916,0,0
613.01497174359,297.159717799,11.820422042204,1382164.3581648,-4903.3382488083,2812208.7592055,17.020422042204,0,0
613.01497205507,296.95792874826,11.824852485249,1382164.3581648,-4903.3382488083,2812208.7592055,17.024852485249,0,0
613.01497236655,296.75613969752,11.829282928293,1382164.3581648,-4903.3382488083,2812208.7592055,17.029282928293,0,0
613.01497267802,296.55435064678,11.833713371337,1382164.3581648,-4903.3382488083,2812208.7592055,17.033713371337,0,0
613.0149729895,296.35256159604,11.838143814381,1382164.3581648,-4903.3382488083,2812208.7592055,17.038143814381,0,0
613.01497330098,296.1507725453,11.842574257426,1382164.3581648,-4903.3382488083,2812208.7592055,17.042574257426,0,0
613.01497361246,295.94898349456,11.84700470047,1382164.3581648,-4903.3382488083,2812208.7592055,17.04700470047,0,0
613.01497392393,295.74719444381,11.851435143514,1382164.3581648,-4903.3382488083,2812208.7592055,17.051435143514,0,0
613.01497423541,295.54540539307,11.855865586559,1382164.3581648,-4903.3382488083,2812208.7592055,17.055865586559,0,0
613.01497454689,295.34361634233,11.860296029603,1382164.3581648,-4903.3382488083,2812208.7592055,17.060296029603,0,0
613.01497485836,295.14182729159,11.864726472647,1382164.3581648,-4903.3382488083,2812208.7592055,17.064726472647,0,0
613.01497516984,294.94003824085,11.869156915692,1382164.3581648,-4903.3382488083,2812208.7592055,17.069156915692,0,0
613.01497548132,294.73824919011,11.873587358736,1382164.3581648,-4903.3382488083,2812208.7592055,17.073587358736,0,0
613.01497579279,294.53646013937,11.87801780178,1382164.3581648,-4903.3382488083,2812208.7592055,17.07801780178,0,0
613.01497610427,294.33467108863,11.882448244824,1382164.3581648,-4903.3382488083,2812208.7592055,17.082448244824,0,0
613.01497641575,294.13288203789,11.886878687869,1382164.3581648,-4903.3382488083,2812208.7592055,17.086878687869,0,0
613.01497672722,293.93109298715,11.891309130913,1382164.3581648,-4903.3382488083,2812208.7592055,17.091309130913,0,0
613.0149770387,293.7293039364,11.895739573957,1382164.3581648,-4903.3382488083,2812208.7592055,17.095739573957,0,0
613.01497735018,293.52751488566,11.900170017002,1382164.3581648,-4903.3382488083,2812208.7592055,17.100170017002,0,0
613.01497766166,293.32572583492,11.904600460046,1382164.3581648,-4903.3382488083,2812208.7592055,17.104600460046,0,0
613.01497797313,293.12393678418,11.90903090309,1382164.3581648,-4903.3382488083,2812208.7592055,17.10903090309,0,0
613.01497828461,292.92214773344,11.913461346135,1382164.3581648,-4903.3382488083,2812208.7592055,17.113461346135,0,0
613.01497859609,292.7203586827,11.917891789179,1382164.3581648,-4903.3382488083,2812208.7592055,17.117891789179,0,0
613.01497890756,292.51856963196,11.922322232223,1382164.3581648,-4903.3382488083,2812208.7592055,17.122322232223,0,0
613.01497921904,292.31678058122,11.926752675268,1382164.3581648,-4903.3382488083,2812208.7592055,17.126752675268,0,0
613.01497953052,292.11499153048,11.931183118312,1382164.3581648,-4903.3382488083,2812208.7592055,17.131183118312,0,0
613.01497984199,291.91320247973,11.935613561356,1382164.3581648,-4903.3382488083,2812208.7592055,17.135613561356,0,0
613.01498015347,291.71141342899,11.9400440044,1382164.3581648,-4903.3382488083,2812208.7592055,17.1400440044,0,0
613.01498046495,291.50962437825,11.944474447445,1382164.3581648,-4903.3382488083,2812208.7592055,17.144474447445,0,0
613.01498077643,291.30783532751,11.948904890489,1382164.3581648,-4903.3382488083,2812208.7592055,17.148904890489,0,0
613.0149810879,291.10604627677,11.953335333533,1382164.3581648,-4903.3382488083,2812208.7592055,17.153335333533,0,0
613.01498139938,290.90425722603,11.957765776578,1382164.3581648,-4903.3382488083,2812208.7592055,17.157765776578,0,0
613.01498171086,290.70246817529,11.962196219622,1382164.3581648,-4903.3382488083,2812208.7592055,17.162196219622,0,0
613.01498202233,290.50067912455,11.966626662666,1382164.3581648,-4903.3382488083,2812208.7592055,17.166626662666,0,0
613.01498233381,290.29889007381,11.971057105711,1382164.3581648,-4903.3382488083,2812208.7592055,17.171057105711,0,0
613.01498264529,290.09710102307,11.975487548755,1382164.3581648,-4903.3382488083,2812208.7592055,17.175487548755,0,0
613.01498295676,289.89531197232,11.979917991799,1382164.3581648,-4903.3382488083,2812208.7592055,17.179917991799,0,0
613.01498326824,289.69352292158,11.984348434843,1382164.3581648,-4903.3382488083,2812208.7592055,17.184348434843,0,0
613.01498357972,289.49173387084,11.988778877888,1382164.3581648,-4903.3382488083,2812208.7592055,17.188778877888,0,0
613.01498389119,289.2899448201,11.993209320932,1382164.3581648,-4903.3382488083,2812208.7592055,17.193209320932,0,0
613.01498420267,289.08815576936,11.997639763976,1382164.3581648,-4903.3382488083,2812208.7592055,17.197639763976,0,0
613.01498451415,288.88636671862,12.002070207021,1382164.3581648,-4903.3382488083,2812208.7592055,17.202070207021,0,0
613.01498482563,288.68457766788,12.006500650065,1382164.3581648,-4903.3382488083,2812208.7592055,17.206500650065,0,0
613.0149851371,288.48278861714,12.010931093109,1382164.3581648,-4903.3382488083,2812208.7592055,17.210931093109,0,0
613.01498544858,288.2809995664,12.015361536154,1382164.3581648,-4903.3382488083,2812208.7592055,17.215361536154,0,0
613.01498576006,288.07921051566,12.019791979198,1382164.3581648,-4903.3382488083,2812208.7592055,17.219791979198,0,0
613.01498607153,287.87742146491,12.024222422242,1382164.3581648,-4903.3382488083,2812208.7592055,17.224222422242,0,0
613.01498638301,287.67563241417,12.028652865287,1382164.3581648,-4903.3382488083,2812208.7592055,17.228652865287,0,0
613.01498669449,287.47384336343,12.033083308331,1382164.3581648,-4903.3382488083,2812208.7592055,17.233083308331,0,0
613.01498700596,287.27205431269,12.037513751375,1382164.3581648,-4903.3382488083,2812208.7592055,17.237513751375,0,0
613.01498731744,287.07026526195,12.041944194419,1382164.3581648,-4903.3382488083,2812208.7592055,17.241944194419,0,0
613.01498762892,286.86847621121,12.046374637464,1382164.3581648,-4903.3382488083,2812208.7592055,17.246374637464,0,0
613.0149879404,286.66668716047,12.050805080508,1382164.3581648,-4903.3382488083,2812208.7592055,17.250805080508,0,0
613.01498825187,286.46489810973,12.055235523552,1382164.3581648,-4903.3382488083,2812208.7592055,17.255235523552,0,0
613.01498856335,286.26310905899,12.059665966597,1382164.3581648,-4903.3382488083,2812208.7592055,17.259665966597,0,0
613.01498887483,286.06132000825,12.064096409641,1382164.3581648,-4903.3382488083,2812208.7592055,17.264096409641,0,0
613.0149891863,285.8595309575,12.068526852685,1382164.3581648,-4903.3382488083,2812208.7592055,17.268526852685,0,0
613.01498949778,285.65774190676,12.07295729573,1382164.3581648,-4903.3382488083,2812208.7592055,17.27295729573,0,0
613.01498980926,285.45595285602,12.077387738774,1382164.3581648,-4903.3382488083,2812208.7592055,17.277387738774,0,0
613.01499012073,285.25416380528,12.081818181818,1382164.3581648,-4903.3382488083,2812208.7592055,17.281818181818,0,0
613.01499043221,285.05237475454,12.086248624862,1382164.3581648,-4903.3382488083,2812208.7592055,17.286248624862,0,0
613.01499074369,284.8505857038,12.090679067907,1382164.3581648,-4903.3382488083,2812208.7592055,17.290679067907,0,0
613.01499105516,284.64879665306,12.095109510951,1382164.3581648,-4903.3382488083,2812208.7592055,17.295109510951,0,0
613.01499136664,284.44700760232,12.099539953995,1382164.3581648,-4903.3382488083,2812208.7592055,17.299539953995,0,0
613.01499167812,284.24521855158,12.10397039704,1382164.3581648,-4903.3382488083,2812208.7592055,17.30397039704,0,0
613.0149919896,284.04342950084,12.108400840084,1382164.3581648,-4903.3382488083,2812208.7592055,17.308400840084,0,0
613.01499230107,283.84164045009,12.112831283128,1382164.3581648,-4903.3382488083,2812208.7592055,17.312831283128,0,0
613.01499261255,283.63985139935,12.117261726173,1382164.3581648,-4903.3382488083,2812208.7592055,17.317261726173,0,0
613.01499292403,283.43806234861,12.121692169217,1382164.3581648,-4903.3382488083,2812208.7592055,17.321692169217,0,0
613.0149932355,283.23627329787,12.126122612261,1382164.3581648,-4903.3382488083,2812208.7592055,17.326122612261,0,0
613.01499354698,283.03448424713,12.130553055306,1382164.3581648,-4903.3382488083,2812208.7592055,17.330553055306,0,0
613.01499385846,282.83269519639,12.13498349835,1382164.3581648,-4903.3382488083,2812208.7592055,17.33498349835,0,0
613.01499416993,282.63090614565,12.139413941394,1382164.3581648,-4903.3382488083,2812208.7592055,17.339413941394,0,0
613.01499448141,282.42911709491,12.143844384438,1382164.3581648,-4903.3382488083,2812208.7592055,17.343844384438,0,0
613.01499479289,282.22732804417,12.148274827483,1382164.3581648,-4903.3382488083,2812208.7592055,17.348274827483,0,0
613.01499510437,282.02553899343,12.152705270527,1382164.3581648,-4903.3382488083,2812208.7592055,17.352705270527,0,0
613.01499541584,281.82374994268,12.157135713571,1382164.3581648,-4903.3382488083,2812208.7592055,17.357135713571,0,0
613.01499572732,281.62196089194,12.161566156616,1382164.3581648,-4903.3382488083,2812208.7592055,17.361566156616,0,0
613.0149960388,281.4201718412,12.16599659966,1382164.3581648,-4903.3382488083,2812208.7592055,17.36599659966,0,0
613.01499635027,281.21838279046,12.170427042704,1382164.3581648,-4903.3382488083,2812208.7592055,17.370427042704,0,0
613.01499666175,281.01659373972,12.174857485749,1382164.3581648,-4903.3382488083,2812208.7592055,17.374857485749,0,0
613.01499697323,280.81480468898,12.179287928793,1382164.3581648,-4903.3382488083,2812208.7592055,17.379287928793,0,0
613.0149972847,280.61301563824,12.183718371837,1382164.3581648,-4903.3382488083,2812208.7592055,17.383718371837,0,0
613.01499759618,280.4112265875,12.188148814881,1382164.3581648,-4903.3382488083,2812208.7592055,17.388148814881,0,0
613.01499790766,280.20943753676,12.192579257926,1382164.3581648,-4903.3382488083,2812208.7592055,17.392579257926,0,0
613.01499821913,280.00764848602,12.19700970097,1382164.3581648,-4903.3382488083,2812208.7592055,17.39700970097,0,0
613.01499853061,279.80585943527,12.201440144014,1382164.3581648,-4903.3382488083,2812208.7592055,17.401440144014,0,0
613.01499884209,279.60407038453,12.205870587059,1382164.3581648,-4903.3382488083,2812208.7592055,17.405870587059,0,0
613.01499915357,279.40228133379,12.210301030103,1382164.3581648,-4903.3382488083,2812208.7592055,17.410301030103,0,0
613.01499946504,279.20049228305,12.214731473147,1382164.3581648,-4903.3382488083,2812208.7592055,17.414731473147,0,0
613.01499977652,278.99870323231,12.219161916192,1382164.3581648,-4903.3382488083,2812208.7592055,17.419161916192,0,0
613.015000088,278.79691418157,12.223592359236,1382164.3581648,-4903.3382488083,2812208.7592055,17.423592359236,0,0
613.01500039947,278.59512513083,12.22802280228,1382164.3581648,-4903.3382488083,2812208.7592055,17.42802280228,0,0
613.01500071095,278.39333608009,12.232453245325,1382164.3581648,-4903.3382488083,2812208.7592055,17.432453245325,0,0
613.01500102243,278.19154702935,12.236883688369,1382164.3581648,-4903.3382488083,2812208.7592055,17.436883688369,0,0
613.0150013339,277.9897579786,12.241314131413,1382164.3581648,-4903.3382488083,2812208.7592055,17.441314131413,0,0
613.01500164538,277.78796892786,12.245744574457,1382164.3581648,-4903.3382488083,2812208.7592055,17.445744574457,0,0
613.01500195686,277.58617987712,12.250175017502,1382164.3581648,-4903.3382488083,2812208.7592055,17.450175017502,0,0
613.01500226834,277.38439082638,12.254605460546,1382164.3581648,-4903.3382488083,2812208.7592055,17.454605460546,0,0
613.01500257981,277.18260177564,12.25903590359,1382164.3581648,-4903.3382488083,2812208.7592055,17.45903590359,0,0
613.01500289129,276.9808127249,12.263466346635,1382164.3581648,-4903.3382488083,2812208.7592055,17.463466346635,0,0
613.01500320277,276.77902367416,12.267896789679,1382164.3581648,-4903.3382488083,2812208.7592055,17.467896789679,0,0
613.01500351424,276.57723462342,12.272327232723,1382164.3581648,-4903.3382488083,2812208.7592055,17.472327232723,0,0
613.01500382572,276.37544557268,12.276757675768,1382164.3581648,-4903.3382488083,2812208.7592055,17.476757675768,0,0
613.0150041372,276.17365652194,12.281188118812,1382164.3581648,-4903.3382488083,2812208.7592055,17.481188118812,0,0
613.01500444867,275.97186747119,12.285618561856,1382164.3581648,-4903.3382488083,2812208.7592055,17.485618561856,0,0
613.01500476015,275.77007842045,12.2900490049,1382164.3581648,-4903.3382488083,2812208.7592055,17.4900490049,0,0
613.01500507163,275.56828936971,12.294479447945,1382164.3581648,-4903.3382488083,2812208.7592055,17.494479447945,0,0
613.0150053831,275.36650031897,12.298909890989,1382164.3581648,-4903.3382488083,2812208.7592055,17.498909890989,0,0
613.01500569458,275.16471126823,12.303340334033,1382164.3581648,-4903.3382488083,2812208.7592055,17.503340334033,0,0
613.01500600606,274.96292221749,12.307770777078,1382164.3581648,-4903.3382488083,2812208.7592055,17.507770777078,0,0
613.01500631754,274.76113316675,12.312201220122,1382164.3581648,-4903.3382488083,2812208.7592055,17.512201220122,0,0
613.01500662901,274.55934411601,12.316631663166,1382164.3581648,-4903.3382488083,2812208.7592055,17.516631663166,0,0
613.01500694048,274.35755506642,12.321062106211,1379316.8114905,3685.3452014034,2801231.408188,17.521062106211,0,0
613.01500725193,274.15576601958,12.325492549255,1379316.8114905,3685.3452014034,2801231.408188,17.525492549255,0,0
613.01500756339,273.95397697274,12.329922992299,1379316.8114905,3685.3452014034,2801231.408188,17.529922992299,0,0
613.01500787484,273.7521879259,12.334353435344,1379316.8114905,3685.3452014034,2801231.408188,17.534353435344,0,0
613.01500818629,273.55039887906,12.338783878388,1379316.8114905,3685.3452014034,2801231.408188,17.538783878388,0,0
613.01500849774,273.34860983222,12.343214321432,1379316.8114905,3685.3452014034,2801231.408188,17.543214321432,0,0
613.01500880919,273.14682078538,12.347644764476,1379316.8114905,3685.3452014034,2801231.408188,17.547644764476,0,0
613.01500912065,272.94503173854,12.352075207521,1379316.8114905,3685.3452014034,2801231.408188,17.552075207521,0,0
613.0150094321,272.7432426917,12.356505650565,1379316.8114905,3685.3452014034,2801231.408188,17.556505650565,0,0
613.01500974355,272.54145364486,12.360936093609,1379316.8114905,3685.3452014034,2801231.408188,17.560936093609,0,0
613.015010055,272.33966459802,12.365366536654,1379316.8114905,3685.3452014034,2801231.408188,17.565366536654,0,0
613.01501036645,272.13787555118,12.369796979698,1379316.8114905,3685.3452014034,2801231.408188,17.569796979698,0,0
613.0150106779,271.93608650434,12.374227422742,1379316.8114905,3685.3452014034,2801231.408188,17.574227422742,0,0
613.01501098936,271.7342974575,12.378657865787,1379316.8114905,3685.3452014034,2801231.408188,17.578657865787,0,0
613.01501130081,271.53250841066,12.383088308831,1379316.8114905,3685.3452014034,2801231.408188,17.583088308831,0,0
613.01501161226,271.33071936382,12.387518751875,1379316.8114905,3685.3452014034,2801231.408188,17.587518751875,0,0
613.01501192371,271.12893031698,12.391949194919,1379316.8114905,3685.3452014034,2801231.408188,17.591949194919,0,0
613.01501223516,270.92714127014,12.396379637964,1379316.8114905,3685.3452014034,2801231.408188,17.596379637964,0,0
613.01501254662,270.7253522233,12.400810081008,1379316.8114905,3685.3452014034,2801231.408188,17.600810081008,0,0
613.01501285807,270.52356317646,12.405240524052,1379316.8114905,3685.3452014034,2801231.408188,17.605240524052,0,0
613.01501316952,270.32177412962,12.409670967097,1379316.8114905,3685.3452014034,2801231.408188,17.609670967097,0,0
613.01501348097,270.11998508278,12.414101410141,1379316.8114905,3685.3452014034,2801231.408188,17.614101410141,0,0
613.01501379242,269.91819603594,12.418531853185,1379316.8114905,3685.3452014034,2801231.408188,17.618531853185,0,0
613.01501410387,269.7164069891,12.42296229623,1379316.8114905,3685.3452014034,2801231.408188,17.62296229623,0,0
613.01501441533,269.51461794226,12.427392739274,1379316.8114905,3685.3452014034,2801231.408188,17.627392739274,0,0
613.01501472678,269.31282889542,12.431823182318,1379316.8114905,3685.3452014034,2801231.408188,17.631823182318,0,0
613.01501503823,269.11103984858,12.436253625363,1379316.8114905,3685.3452014034,2801231.408188,17.636253625363,0,0
613.01501534968,268.90925080174,12.440684068407,1379316.8114905,3685.3452014034,2801231.408188,17.640684068407,0,0
613.01501566113,268.7074617549,12.445114511451,1379316.8114905,3685.3452014034,2801231.408188,17.645114511451,0,0
613.01501597259,268.50567270806,12.449544954495,1379316.8114905,3685.3452014034,2801231.408188,17.649544954495,0,0
613.01501628404,268.30388366122,12.45397539754,1379316.8114905,3685.3452014034,2801231.408188,17.65397539754,0,0
613.01501659549,268.10209461438,12.458405840584,1379316.8114905,3685.3452014034,2801231.408188,17.658405840584,0,0
613.01501690694,267.90030556754,12.462836283628,1379316.8114905,3685.3452014034,2801231.408188,17.662836283628,0,0
613.01501721839,267.6985165207,12.467266726673,1379316.8114905,3685.3452014034,2801231.408188,17.667266726673,0,0
613.01501752984,267.49672747385,12.471697169717,1379316.8114905,3685.3452014034,2801231.408188,17.671697169717,0,0
613.0150178413,267.29493842701,12.476127612761,1379316.8114905,3685.3452014034,2801231.408188,17.676127612761,0,0
613.01501815275,267.09314938017,12.480558055806,1379316.8114905,3685.3452014034,2801231.408188,17.680558055806,0,0
613.0150184642,266.89136033333,12.48498849885,1379316.8114905,3685.3452014034,2801231.408188,17.68498849885,0,0
613.01501877565,266.68957128649,12.489418941894,1379316.8114905,3685.3452014034,2801231.408188,17.689418941894,0,0
613.0150190871,266.48778223965,12.493849384938,1379316.8114905,3685.3452014034,2801231.408188,17.693849384938,0,0
613.01501939856,266.28599319281,12.498279827983,1379316.8114905,3685.3452014034,2801231.408188,17.698279827983,0,0
613.01501971001,266.08420414597,12.502710271027,1379316.8114905,3685.3452014034,2801231.408188,17.702710271027,0,0
613.01502002146,265.88241509913,12.507140714071,1379316.8114905,3685.3452014034,2801231.408188,17.707140714071,0,0
613.01502033291,265.68062605229,12.511571157116,1379316.8114905,3685.3452014034,2801231.408188,17.711571157116,0,0
613.01502064436,265.47883700545,12.51600160016,1379316.8114905,3685.3452014034,2801231.408188,17.71600160016,0,0
613.01502095582,265.27704795861,12.520432043204,1379316.8114905,3685.3452014034,2801231.408188,17.720432043204,0,0
613.01502126727,265.07525891177,12.524862486249,1379316.8114905,3685.3452014034,2801231.408188,17.724862486249,0,0
613.01502157872,264.87346986493,12.529292929293,1379316.8114905,3685.3452014034,2801231.408188,17.729292929293,0,0
613.01502189017,264.67168081809,12.533723372337,1379316.8114905,3685.3452014034,2801231.408188,17.733723372337,0,0
613.01502220162,264.46989177125,12.538153815382,1379316.8114905,3685.3452014034,2801231.408188,17.738153815382,0,0
613.01502251307,264.26810272441,12.542584258426,1379316.8114905,3685.3452014034,2801231.408188,17.742584258426,0,0
613.01502282453,264.06631367757,12.54701470147,1379316.8114905,3685.3452014034,2801231.408188,17.74701470147,0,0
613.01502313598,263.86452463073,12.551445144514,1379316.8114905,3685.3452014034,2801231.408188,17.751445144514,0,0
613.01502344743,263.66273558389,12.555875587559,1379316.8114905,3685.3452014034,2801231.408188,17.755875587559,0,0
613.01502375888,263.46094653705,12.560306030603,1379316.8114905,3685.3452014034,2801231.408188,17.760306030603,0,0
613.01502407033,263.25915749021,12.564736473647,1379316.8114905,3685.3452014034,2801231.408188,17.764736473647,0,0
613.01502438179,263.05736844337,12.569166916692,1379316.8114905,3685.3452014034,2801231.408188,17.769166916692,0,0
613.01502469324,262.85557939653,12.573597359736,1379316.8114905,3685.3452014034,2801231.408188,17.773597359736,0,0
613.01502500469,262.65379034969,12.57802780278,1379316.8114905,3685.3452014034,2801231.408188,17.77802780278,0,0
613.01502531614,262.45200130285,12.582458245825,1379316.8114905,3685.3452014034,2801231.408188,17.782458245825,0,0
613.01502562759,262.25021225601,12.586888688869,1379316.8114905,3685.3452014034,2801231.408188,17.786888688869,0,0
613.01502593904,262.04842320917,12.591319131913,1379316.8114905,3685.3452014034,2801231.408188,17.791319131913,0,0
613.0150262505,261.84663416233,12.595749574957,1379316.8114905,3685.3452014034,2801231.408188,17.795749574957,0,0
613.01502656195,261.64484511549,12.600180018002,1379316.8114905,3685.3452014034,2801231.408188,17.800180018002,0,0
613.0150268734,261.44305606865,12.604610461046,1379316.8114905,3685.3452014034,2801231.408188,17.804610461046,0,0
613.01502718485,261.24126702181,12.60904090409,1379316.8114905,3685.3452014034,2801231.408188,17.80904090409,0,0
613.0150274963,261.03947797497,12.613471347135,1379316.8114905,3685.3452014034,2801231.408188,17.813471347135,0,0
613.01502780776,260.83768892813,12.617901790179,1379316.8114905,3685.3452014034,2801231.408188,17.817901790179,0,0
613.01502811921,260.63589988129,12.622332233223,1379316.8114905,3685.3452014034,2801231.408188,17.822332233223,0,0
613.01502843066,260.43411083445,12.626762676268,1379316.8114905,3685.3452014034,2801231.408188,17.826762676268,0,0
613.01502874211,260.23232178761,12.631193119312,1379316.8114905,3685.3452014034,2801231.408188,17.831193119312,0,0
613.01502905356,260.03053274077,12.635623562356,1379316.8114905,3685.3452014034,2801231.408188,17.835623562356,0,0
613.01502936502,259.82874369393,12.640054005401,1379316.8114905,3685.3452014034,2801231.408188,17.840054005401,0,0
613.01502967647,259.62695464709,12.644484448445,1379316.8114905,3685.3452014034,2801231.408188,17.844484448445,0,0
613.01502998792,259.42516560025,12.648914891489,1379316.8114905,3685.3452014034,2801231.408188,17.848914891489,0,0
613.01503029937,259.22337655341,12.653345334533,1379316.8114905,3685.3452014034,2801231.408188,17.853345334533,0,0
613.01503061082,259.02158750657,12.657775777578,1379316.8114905,3685.3452014034,2801231.408188,17.857775777578,0,0
613.01503092227,258.81979845973,12.662206220622,1379316.8114905,3685.3452014034,2801231.408188,17.862206220622,0,0
613.01503123373,258.61800941289,12.666636663666,1379316.8114905,3685.3452014034,2801231.408188,17.866636663666,0,0
613.01503154518,258.41622036605,12.671067106711,1379316.8114905,3685.3452014034,2801231.408188,17.871067106711,0,0
613.01503185663,258.21443131921,12.675497549755,1379316.8114905,3685.3452014034,2801231.408188,17.875497549755,0,0
613.01503216808,258.01264227237,12.679927992799,1379316.8114905,3685.3452014034,2801231.408188,17.879927992799,0,0
613.01503247953,257.81085322553,12.684358435844,1379316.8114905,3685.3452014034,2801231.408188,17.884358435844,0,0
613.01503279099,257.60906417869,12.688788878888,1379316.8114905,3685.3452014034,2801231.408188,17.888788878888,0,0
613.01503310244,257.40727513185,12.693219321932,1379316.8114905,3685.3452014034,2801231.408188,17.893219321932,0,0
613.01503341389,257.20548608501,12.697649764976,1379316.8114905,3685.3452014034,2801231.408188,17.897649764976,0,0
613.01503372534,257.00369703817,12.702080208021,1379316.8114905,3685.3452014034,2801231.408188,17.902080208021,0,0
613.01503403679,256.80190799133,12.706510651065,1379316.8114905,3685.3452014034,2801231.408188,17.906510651065,0,0
613.01503434824,256.60011894449,12.710941094109,1379316.8114905,3685.3452014034,2801231.408188,17.910941094109,0,0
613.0150346597,256.39832989765,12.715371537154,1379316.8114905,3685.3452014034,2801231.408188,17.915371537154,0,0
613.01503497115,256.19654085081,12.719801980198,1379316.8114905,3685.3452014034,2801231.408188,17.919801980198,0,0
613.0150352826,255.99475180397,12.724232423242,1379316.8114905,3685.3452014034,2801231.408188,17.924232423242,0,0
613.01503559405,255.79296275713,12.728662866287,1379316.8114905,3685.3452014034,2801231.408188,17.928662866287,0,0
613.0150359055,255.59117371029,12.733093309331,1379316.8114905,3685.3452014034,2801231.408188,17.933093309331,0,0
613.01503621696,255.38938466345,12.737523752375,1379316.8114905,3685.3452014034,2801231.408188,17.937523752375,0,0
613.01503652865,255.187595615,12.74195419542,1379069.1540329,-4069.2877564756,2786940.6149366,17.94195419542,0,0
613.0150368407,254.98580656423,12.746384638464,1379069.1540329,-4069.2877564756,2786940.6149366,17.946384638464,0,0
613.01503715276,254.78401751346,12.750815081508,1379069.1540329,-4069.2877564756,2786940.6149366,17.950815081508,0,0
613.01503746481,254.58222846269,12.755245524552,1379069.1540329,-4069.2877564756,2786940.6149366,17.955245524552,0,0
613.01503777686,254.38043941192,12.759675967597,1379069.1540329,-4069.2877564756,2786940.6149366,17.959675967597,0,0
613.01503808891,254.17865036115,12.764106410641,1379069.1540329,-4069.2877564756,2786940.6149366,17.964106410641,0,0
613.01503840096,253.97686131038,12.768536853685,1379069.1540329,-4069.2877564756,2786940.6149366,17.968536853685,0,0
613.01503871301,253.77507225961,12.77296729673,1379069.1540329,-4069.2877564756,2786940.6149366,17.97296729673,0,0
613.01503902506,253.57328320884,12.777397739774,1379069.1540329,-4069.2877564756,2786940.6149366,17.977397739774,0,0
613.01503933711,253.37149415807,12.781828182818,1379069.1540329,-4069.2877564756,2786940.6149366,17.981828182818,0,0
613.01503964917,253.1697051073,12.786258625863,1379069.1540329,-4069.2877564756,2786940.6149366,17.986258625863,0,0
613.01503996122,252.96791605653,12.790689068907,1379069.1540329,-4069.2877564756,2786940.6149366,17.990689068907,0,0
613.01504027327,252.76612700576,12.795119511951,1379069.1540329,-4069.2877564756,2786940.6149366,17.995119511951,0,0
613.01504058532,252.56433795499,12.799549954995,1379069.1540329,-4069.2877564756,2786940.6149366,17.999549954995,0,0
613.01504089737,252.36254890422,12.80398039804,1379069.1540329,-4069.2877564756,2786940.6149366,18.00398039804,0,0
613.01504120942,252.16075985345,12.808410841084,1379069.1540329,-4069.2877564756,2786940.6149366,18.008410841084,0,0
613.01504152147,251.95897080268,12.812841284128,1379069.1540329,-4069.2877564756,2786940.6149366,18.012841284128,0,0
613.01504183352,251.75718175191,12.817271727173,1379069.1540329,-4069.2877564756,2786940.6149366,18.017271727173,0,0
613.01504214557,251.55539270114,12.821702170217,1379069.1540329,-4069.2877564756,2786940.6149366,18.021702170217,0,0
613.01504245763,251.35360365037,12.826132613261,1379069.1540329,-4069.2877564756,2786940.6149366,18.026132613261,0,0
613.01504276968,251.1518145996,12.830563056306,1379069.1540329,-4069.2877564756,2786940.6149366,18.030563056306,0,0
613.01504308173,250.95002554883,12.83499349935,1379069.1540329,-4069.2877564756,2786940.6149366,18.03499349935,0,0
613.01504339378,250.74823649806,12.839423942394,1379069.1540329,-4069.2877564756,2786940.6149366,18.039423942394,0,0
613.01504370583,250.54644744729,12.843854385439,1379069.1540329,-4069.2877564756,2786940.6149366,18.043854385439,0,0
613.01504401788,250.34465839652,12.848284828483,1379069.1540329,-4069.2877564756,2786940.6149366,18.048284828483,0,0
613.01504432993,250.14286934575,12.852715271527,1379069.1540329,-4069.2877564756,2786940.6149366,18.052715271527,0,0
613.01504464198,249.94108029499,12.857145714571,1379069.1540329,-4069.2877564756,2786940.6149366,18.057145714571,0,0
613.01504495404,249.73929124422,12.861576157616,1379069.1540329,-4069.2877564756,2786940.6149366,18.061576157616,0,0
613.01504526609,249.53750219345,12.86600660066,1379069.1540329,-4069.2877564756,2786940.6149366,18.06600660066,0,0
613.01504557814,249.33571314268,12.870437043704,1379069.1540329,-4069.2877564756,2786940.6149366,18.070437043704,0,0
613.01504589019,249.13392409191,12.874867486749,1379069.1540329,-4069.2877564756,2786940.6149366,18.074867486749,0,0
613.01504620224,248.93213504114,12.879297929793,1379069.1540329,-4069.2877564756,2786940.6149366,18.079297929793,0,0
613.01504651429,248.73034599037,12.883728372837,1379069.1540329,-4069.2877564756,2786940.6149366,18.083728372837,0,0
613.01504682634,248.5285569396,12.888158815882,1379069.1540329,-4069.2877564756,2786940.6149366,18.088158815882,0,0
613.01504713839,248.32676788883,12.892589258926,1379069.1540329,-4069.2877564756,2786940.6149366,18.092589258926,0,0
613.01504745044,248.12497883806,12.89701970197,1379069.1540329,-4069.2877564756,2786940.6149366,18.09701970197,0,0
613.0150477625,247.92318978729,12.901450145015,1379069.1540329,-4069.2877564756,2786940.6149366,18.101450145014,0,0
613.01504807455,247.72140073652,12.905880588059,1379069.1540329,-4069.2877564756,2786940.6149366,18.105880588059,0,0
613.0150483866,247.51961168575,12.910311031103,1379069.1540329,-4069.2877564756,2786940.6149366,18.110311031103,0,0
613.01504869865,247.31782263498,12.914741474147,1379069.1540329,-4069.2877564756,2786940.6149366,18.114741474147,0,0
613.0150490107,247.11603358421,12.919171917192,1379069.1540329,-4069.2877564756,2786940.6149366,18.119171917192,0,0
613.01504932275,246.91424453344,12.923602360236,1379069.1540329,-4069.2877564756,2786940.6149366,18.123602360236,0,0
613.0150496348,246.71245548267,12.92803280328,1379069.1540329,-4069.2877564756,2786940.6149366,18.12803280328,0,0
613.01504994685,246.5106664319,12.932463246325,1379069.1540329,-4069.2877564756,2786940.6149366,18.132463246325,0,0
613.01505025891,246.30887738113,12.936893689369,1379069.1540329,-4069.2877564756,2786940.6149366,18.136893689369,0,0
613.01505057096,246.10708833036,12.941324132413,1379069.1540329,-4069.2877564756,2786940.6149366,18.141324132413,0,0
613.01505088301,245.90529927959,12.945754575458,1379069.1540329,-4069.2877564756,2786940.6149366,18.145754575458,0,0
613.01505119506,245.70351022882,12.950185018502,1379069.1540329,-4069.2877564756,2786940.6149366,18.150185018502,0,0
613.01505150711,245.50172117805,12.954615461546,1379069.1540329,-4069.2877564756,2786940.6149366,18.154615461546,0,0
613.01505181916,245.29993212728,12.95904590459,1379069.1540329,-4069.2877564756,2786940.6149366,18.15904590459,0,0
613.01505213121,245.09814307651,12.963476347635,1379069.1540329,-4069.2877564756,2786940.6149366,18.163476347635,0,0
613.01505244326,244.89635402575,12.967906790679,1379069.1540329,-4069.2877564756,2786940.6149366,18.167906790679,0,0
613.01505275531,244.69456497498,12.972337233723,1379069.1540329,-4069.2877564756,2786940.6149366,18.172337233723,0,0
613.01505306737,244.49277592421,12.976767676768,1379069.1540329,-4069.2877564756,2786940.6149366,18.176767676768,0,0
613.01505337942,244.29098687344,12.981198119812,1379069.1540329,-4069.2877564756,2786940.6149366,18.181198119812,0,0
613.01505369147,244.08919782267,12.985628562856,1379069.1540329,-4069.2877564756,2786940.6149366,18.185628562856,0,0
613.01505400352,243.8874087719,12.990059005901,1379069.1540329,-4069.2877564756,2786940.6149366,18.190059005901,0,0
613.01505431557,243.68561972113,12.994489448945,1379069.1540329,-4069.2877564756,2786940.6149366,18.194489448945,0,0
613.01505462762,243.48383067036,12.998919891989,1379069.1540329,-4069.2877564756,2786940.6149366,18.198919891989,0,0
613.01505493967,243.28204161959,13.003350335034,1379069.1540329,-4069.2877564756,2786940.6149366,18.203350335034,0,0
613.01505525172,243.08025256882,13.007780778078,1379069.1540329,-4069.2877564756,2786940.6149366,18.207780778078,0,0
613.01505556377,242.87846351805,13.012211221122,1379069.1540329,-4069.2877564756,2786940.6149366,18.212211221122,0,0
613.01505587583,242.67667446728,13.016641664166,1379069.1540329,-4069.2877564756,2786940.6149366,18.216641664166,0,0
613.01505618788,242.47488541651,13.021072107211,1379069.1540329,-4069.2877564756,2786940.6149366,18.221072107211,0,0
613.01505649993,242.27309636574,13.025502550255,1379069.1540329,-4069.2877564756,2786940.6149366,18.225502550255,0,0
613.01505681198,242.07130731497,13.029932993299,1379069.1540329,-4069.2877564756,2786940.6149366,18.229932993299,0,0
613.01505712403,241.8695182642,13.034363436344,1379069.1540329,-4069.2877564756,2786940.6149366,18.234363436344,0,0
613.01505743608,241.66772921343,13.038793879388,1379069.1540329,-4069.2877564756,2786940.6149366,18.238793879388,0,0
613.01505774813,241.46594016266,13.043224322432,1379069.1540329,-4069.2877564756,2786940.6149366,18.243224322432,0,0
613.01505806018,241.26415111189,13.047654765477,1379069.1540329,-4069.2877564756,2786940.6149366,18.247654765477,0,0
613.01505837224,241.06236206112,13.052085208521,1379069.1540329,-4069.2877564756,2786940.6149366,18.252085208521,0,0
613.01505868429,240.86057301035,13.056515651565,1379069.1540329,-4069.2877564756,2786940.6149366,18.256515651565,0,0
613.01505899634,240.65878395958,13.060946094609,1379069.1540329,-4069.2877564756,2786940.6149366,18.260946094609,0,0
613.01505930839,240.45699490881,13.065376537654,1379069.1540329,-4069.2877564756,2786940.6149366,18.265376537654,0,0
613.01505962044,240.25520585804,13.069806980698,1379069.1540329,-4069.2877564756,2786940.6149366,18.269806980698,0,0
613.01505993249,240.05341680727,13.074237423742,1379069.1540329,-4069.2877564756,2786940.6149366,18.274237423742,0,0
613.01506024454,239.85162775651,13.078667866787,1379069.1540329,-4069.2877564756,2786940.6149366,18.278667866787,0,0
613.01506055659,239.64983870574,13.083098309831,1379069.1540329,-4069.2877564756,2786940.6149366,18.283098309831,0,0
613.01506086864,239.44804965497,13.087528752875,1379069.1540329,-4069.2877564756,2786940.6149366,18.287528752875,0,0
613.0150611807,239.2462606042,13.09195919592,1379069.1540329,-4069.2877564756,2786940.6149366,18.29195919592,0,0
613.01506149275,239.04447155343,13.096389638964,1379069.1540329,-4069.2877564756,2786940.6149366,18.296389638964,0,0
613.0150618048,238.84268250266,13.100820082008,1379069.1540329,-4069.2877564756,2786940.6149366,18.300820082008,0,0
613.01506211685,238.64089345189,13.105250525053,1379069.1540329,-4069.2877564756,2786940.6149366,18.305250525053,0,0
613.0150624289,238.43910440112,13.109680968097,1379069.1540329,-4069.2877564756,2786940.6149366,18.309680968097,0,0
613.01506274095,238.23731535035,13.114111411141,1379069.1540329,-4069.2877564756,2786940.6149366,18.314111411141,0,0
613.015063053,238.03552629958,13.118541854185,1379069.1540329,-4069.2877564756,2786940.6149366,18.318541854185,0,0
613.01506336505,237.83373724881,13.12297229723,1379069.1540329,-4069.2877564756,2786940.6149366,18.32297229723,0,0
613.01506367711,237.63194819804,13.127402740274,1379069.1540329,-4069.2877564756,2786940.6149366,18.327402740274,0,0
613.01506398916,237.43015914727,13.131833183318,1379069.1540329,-4069.2877564756,2786940.6149366,18.331833183318,0,0
613.01506430121,237.2283700965,13.136263626363,1379069.1540329,-4069.2877564756,2786940.6149366,18.336263626363,0,0
613.01506461326,237.02658104573,13.140694069407,1379069.1540329,-4069.2877564756,2786940.6149366,18.340694069407,0,0
613.01506492531,236.82479199496,13.145124512451,1379069.1540329,-4069.2877564756,2786940.6149366,18.345124512451,0,0
613.01506523736,236.62300294419,13.149554955496,1379069.1540329,-4069.2877564756,2786940.6149366,18.349554955496,0,0
613.01506554941,236.42121389342,13.15398539854,1379069.1540329,-4069.2877564756,2786940.6149366,18.35398539854,0,0
613.01506586146,236.21942484265,13.158415841584,1379069.1540329,-4069.2877564756,2786940.6149366,18.358415841584,0,0
613.01506617351,236.01763579188,13.162846284628,1379069.1540329,-4069.2877564756,2786940.6149366,18.362846284628,0,0
613.01506648557,235.81584674111,13.167276727673,1379069.1540329,-4069.2877564756,2786940.6149366,18.367276727673,0,0
613.01506679762,235.61405769034,13.171707170717,1379069.1540329,-4069.2877564756,2786940.6149366,18.371707170717,0,0
613.01506710967,235.41226863957,13.176137613761,1379069.1540329,-4069.2877564756,2786940.6149366,18.376137613761,0,0
613.01506742172,235.2104795888,13.180568056806,1379069.1540329,-4069.2877564756,2786940.6149366,18.380568056806,0,0
613.01506773377,235.00869053803,13.18499849985,1379069.1540329,-4069.2877564756,2786940.6149366,18.38499849985,0,0
613.01506804582,234.80690148726,13.189428942894,1379069.1540329,-4069.2877564756,2786940.6149366,18.389428942894,0,0
613.01506835787,234.6051124365,13.193859385939,1379069.1540329,-4069.2877564756,2786940.6149366,18.393859385939,0,0
613.01506866992,234.40332338573,13.198289828983,1379069.1540329,-4069.2877564756,2786940.6149366,18.398289828983,0,0
613.01506898198,234.20153433496,13.202720272027,1379069.1540329,-4069.2877564756,2786940.6149366,18.402720272027,0,0
613.01506929403,233.99974528419,13.207150715072,1379069.1540329,-4069.2877564756,2786940.6149366,18.407150715072,0,0
613.01506960608,233.79795623342,13.211581158116,1379069.1540329,-4069.2877564756,2786940.6149366,18.411581158116,0,0
613.01506991813,233.59616718265,13.21601160116,1379069.1540329,-4069.2877564756,2786940.6149366,18.41601160116,0,0
613.01507023018,233.39437813188,13.220442044204,1379069.1540329,-4069.2877564756,2786940.6149366,18.420442044204,0,0
613.01507054223,233.19258908111,13.224872487249,1379069.1540329,-4069.2877564756,2786940.6149366,18.424872487249,0,0
613.01507085428,232.99080003034,13.229302930293,1379069.1540329,-4069.2877564756,2786940.6149366,18.429302930293,0,0
613.01507116633,232.78901097957,13.233733373337,1379069.1540329,-4069.2877564756,2786940.6149366,18.433733373337,0,0
613.01507147838,232.5872219288,13.238163816382,1379069.1540329,-4069.2877564756,2786940.6149366,18.438163816382,0,0
613.01507179044,232.38543287803,13.242594259426,1379069.1540329,-4069.2877564756,2786940.6149366,18.442594259426,0,0
613.01507210249,232.18364382726,13.24702470247,1379069.1540329,-4069.2877564756,2786940.6149366,18.44702470247,0,0
613.01507241454,231.98185477649,13.251455145515,1379069.1540329,-4069.2877564756,2786940.6149366,18.451455145515,0,0
613.01507272659,231.78006572572,13.255885588559,1379069.1540329,-4069.2877564756,2786940.6149366,18.455885588559,0,0
613.01507303864,231.57827667495,13.260316031603,1379069.1540329,-4069.2877564756,2786940.6149366,18.460316031603,0,0
613.01507335069,231.37648762418,13.264746474647,1379069.1540329,-4069.2877564756,2786940.6149366,18.464746474647,0,0
613.01507366274,231.17469857341,13.269176917692,1379069.1540329,-4069.2877564756,2786940.6149366,18.469176917692,0,0
613.01507397479,230.97290952264,13.273607360736,1379069.1540329,-4069.2877564756,2786940.6149366,18.473607360736,0,0
613.01507428685,230.77112047187,13.27803780378,1379069.1540329,-4069.2877564756,2786940.6149366,18.47803780378,0,0
613.0150745989,230.5693314211,13.282468246825,1379069.1540329,-4069.2877564756,2786940.6149366,18.482468246825,0,0
613.01507491095,230.36754237033,13.286898689869,1379069.1540329,-4069.2877564756,2786940.6149366,18.486898689869,0,0
613.015075223,230.16575331956,13.291329132913,1379069.1540329,-4069.2877564756,2786940.6149366,18.491329132913,0,0
613.01507553505,229.96396426879,13.295759575958,1379069.1540329,-4069.2877564756,2786940.6149366,18.495759575958,0,0
613.0150758471,229.76217521802,13.300190019002,1379069.1540329,-4069.2877564756,2786940.6149366,18.500190019002,0,0
613.01507615915,229.56038616725,13.304620462046,1379069.1540329,-4069.2877564756,2786940.6149366,18.504620462046,0,0
613.0150764712,229.35859711649,13.309050905091,1379069.1540329,-4069.2877564756,2786940.6149366,18.509050905091,0,0
613.01507678325,229.15680806572,13.313481348135,1379069.1540329,-4069.2877564756,2786940.6149366,18.513481348135,0,0
613.01507709531,228.95501901495,13.317911791179,1379069.1540329,-4069.2877564756,2786940.6149366,18.517911791179,0,0
613.01507740736,228.75322996418,13.322342234223,1379069.1540329,-4069.2877564756,2786940.6149366,18.522342234223,0,0
613.01507771941,228.55144091341,13.326772677268,1379069.1540329,-4069.2877564756,2786940.6149366,18.526772677268,0,0
613.01507803146,228.34965186264,13.331203120312,1379069.1540329,-4069.2877564756,2786940.6149366,18.531203120312,0,0
613.01507834351,228.14786281187,13.335633563356,1379069.1540329,-4069.2877564756,2786940.6149366,18.535633563356,0,0
613.01507865556,227.9460737611,13.340064006401,1379069.1540329,-4069.2877564756,2786940.6149366,18.540064006401,0,0
613.01507896761,227.74428471033,13.344494449445,1379069.1540329,-4069.2877564756,2786940.6149366,18.544494449445,0,0
613.01507927966,227.54249565956,13.348924892489,1379069.1540329,-4069.2877564756,2786940.6149366,18.548924892489,0,0
613.01507959172,227.34070660879,13.353355335534,1379069.1540329,-4069.2877564756,2786940.6149366,18.553355335534,0,0
613.01507990377,227.13891755802,13.357785778578,1379069.1540329,-4069.2877564756,2786940.6149366,18.557785778578,0,0
613.01508021582,226.93712850725,13.362216221622,1379069.1540329,-4069.2877564756,2786940.6149366,18.562216221622,0,0
613.01508052787,226.73533945648,13.366646664666,1379069.1540329,-4069.2877564756,2786940.6149366,18.566646664666,0,0
613.01508083992,226.53355040571,13.371077107711,1379069.1540329,-4069.2877564756,2786940.6149366,18.571077107711,0,0
613.01508115197,226.33176135494,13.375507550755,1379069.1540329,-4069.2877564756,2786940.6149366,18.575507550755,0,0
613.01508146402,226.12997230417,13.379937993799,1379069.1540329,-4069.2877564756,2786940.6149366,18.579937993799,0,0
613.01508177607,225.9281832534,13.384368436844,1379069.1540329,-4069.2877564756,2786940.6149366,18.584368436844,0,0
613.01508208812,225.72639420263,13.388798879888,1379069.1540329,-4069.2877564756,2786940.6149366,18.588798879888,0,0
613.01508240018,225.52460515186,13.393229322932,1379069.1540329,-4069.2877564756,2786940.6149366,18.593229322932,0,0
613.01508271223,225.32281610109,13.397659765977,1379069.1540329,-4069.2877564756,2786940.6149366,18.597659765977,0,0
613.01508302428,225.12102705032,13.402090209021,1379069.1540329,-4069.2877564756,2786940.6149366,18.602090209021,0,0
613.01508333633,224.91923799955,13.406520652065,1379069.1540329,-4069.2877564756,2786940.6149366,18.606520652065,0,0
613.01508364838,224.71744894878,13.41095109511,1379069.1540329,-4069.2877564756,2786940.6149366,18.61095109511,0,0
613.01508396043,224.51565989801,13.415381538154,1379069.1540329,-4069.2877564756,2786940.6149366,18.615381538154,0,0
613.01508427248,224.31387084725,13.419811981198,1379069.1540329,-4069.2877564756,2786940.6149366,18.619811981198,0,0
613.01508458453,224.11208179648,13.424242424242,1379069.1540329,-4069.2877564756,2786940.6149366,18.624242424242,0,0
613.01508489659,223.91029274571,13.428672867287,1379069.1540329,-4069.2877564756,2786940.6149366,18.628672867287,0,0
613.01508520864,223.70850369494,13.433103310331,1379069.1540329,-4069.2877564756,2786940.6149366,18.633103310331,0,0
613.01508552069,223.50671464417,13.437533753375,1379069.1540329,-4069.2877564756,2786940.6149366,18.637533753375,0,0
613.01508583274,223.3049255934,13.44196419642,1379069.1540329,-4069.2877564756,2786940.6149366,18.64196419642,0,0
613.01508614479,223.10313654263,13.446394639464,1379069.1540329,-4069.2877564756,2786940.6149366,18.646394639464,0,0
613.01508645684,222.90134749186,13.450825082508,1379069.1540329,-4069.2877564756,2786940.6149366,18.650825082508,0,0
613.01508676889,222.69955844109,13.455255525553,1379069.1540329,-4069.2877564756,2786940.6149366,18.655255525553,0,0
613.01508708094,222.49776939032,13.459685968597,1379069.1540329,-4069.2877564756,2786940.6149366,18.659685968597,0,0
613.01508739299,222.29598033955,13.464116411641,1379069.1540329,-4069.2877564756,2786940.6149366,18.664116411641,0,0
613.01508770505,222.09419128878,13.468546854685,1379069.1540329,-4069.2877564756,2786940.6149366,18.668546854685,0,0
613.0150880171,221.89240223801,13.47297729773,1379069.1540329,-4069.2877564756,2786940.6149366,18.67297729773,0,0
613.01508832915,221.69061318724,13.477407740774,1379069.1540329,-4069.2877564756,2786940.6149366,18.677407740774,0,0
613.01508864117,221.48882413853,13.481838183818,1376468.8882448,3170.2726672709,2777581.7480605,18.681838183818,0,0
613.01508895316,221.28703509103,13.486268626863,1376468.8882448,3170.2726672709,2777581.7480605,18.686268626863,0,0
613.01508926516,221.08524604354,13.490699069907,1376468.8882448,3170.2726672709,2777581.7480605,18.690699069907,0,0
613.01508957716,220.88345699604,13.495129512951,1376468.8882448,3170.2726672709,2777581.7480605,18.695129512951,0,0
613.01508988916,220.68166794854,13.499559955996,1376468.8882448,3170.2726672709,2777581.7480605,18.699559955996,0,0
613.01509020116,220.47987890104,13.50399039904,1376468.8882448,3170.2726672709,2777581.7480605,18.70399039904,0,0
613.01509051316,220.27808985355,13.508420842084,1376468.8882448,3170.2726672709,2777581.7480605,18.708420842084,0,0
613.01509082515,220.07630080605,13.512851285129,1376468.8882448,3170.2726672709,2777581.7480605,18.712851285129,0,0
613.01509113715,219.87451175855,13.517281728173,1376468.8882448,3170.2726672709,2777581.7480605,18.717281728173,0,0
613.01509144915,219.67272271106,13.521712171217,1376468.8882448,3170.2726672709,2777581.7480605,18.721712171217,0,0
613.01509176115,219.47093366356,13.526142614261,1376468.8882448,3170.2726672709,2777581.7480605,18.726142614261,0,0
613.01509207315,219.26914461606,13.530573057306,1376468.8882448,3170.2726672709,2777581.7480605,18.730573057306,0,0
613.01509238514,219.06735556856,13.53500350035,1376468.8882448,3170.2726672709,2777581.7480605,18.73500350035,0,0
613.01509269714,218.86556652107,13.539433943394,1376468.8882448,3170.2726672709,2777581.7480605,18.739433943394,0,0
613.01509300914,218.66377747357,13.543864386439,1376468.8882448,3170.2726672709,2777581.7480605,18.743864386439,0,0
613.01509332114,218.46198842607,13.548294829483,1376468.8882448,3170.2726672709,2777581.7480605,18.748294829483,0,0
613.01509363314,218.26019937858,13.552725272527,1376468.8882448,3170.2726672709,2777581.7480605,18.752725272527,0,0
613.01509394514,218.05841033108,13.557155715572,1376468.8882448,3170.2726672709,2777581.7480605,18.757155715572,0,0
613.01509425713,217.85662128358,13.561586158616,1376468.8882448,3170.2726672709,2777581.7480605,18.761586158616,0,0
613.01509456913,217.65483223609,13.56601660166,1376468.8882448,3170.2726672709,2777581.7480605,18.76601660166,0,0
613.01509488113,217.45304318859,13.570447044704,1376468.8882448,3170.2726672709,2777581.7480605,18.770447044704,0,0
613.01509519313,217.25125414109,13.574877487749,1376468.8882448,3170.2726672709,2777581.7480605,18.774877487749,0,0
613.01509550513,217.04946509359,13.579307930793,1376468.8882448,3170.2726672709,2777581.7480605,18.779307930793,0,0
613.01509581713,216.8476760461,13.583738373837,1376468.8882448,3170.2726672709,2777581.7480605,18.783738373837,0,0
613.01509612912,216.6458869986,13.588168816882,1376468.8882448,3170.2726672709,2777581.7480605,18.788168816882,0,0
613.01509644112,216.4440979511,13.592599259926,1376468.8882448,3170.2726672709,2777581.7480605,18.792599259926,0,0
613.01509675312,216.24230890361,13.59702970297,1376468.8882448,3170.2726672709,2777581.7480605,18.79702970297,0,0
613.01509706512,216.04051985611,13.601460146015,1376468.8882448,3170.2726672709,2777581.7480605,18.801460146015,0,0
613.01509737712,215.83873080861,13.605890589059,1376468.8882448,3170.2726672709,2777581.7480605,18.805890589059,0,0
613.01509768912,215.63694176111,13.610321032103,1376468.8882448,3170.2726672709,2777581.7480605,18.810321032103,0,0
613.01509800111,215.43515271362,13.614751475148,1376468.8882448,3170.2726672709,2777581.7480605,18.814751475148,0,0
613.01509831311,215.23336366612,13.619181918192,1376468.8882448,3170.2726672709,2777581.7480605,18.819181918192,0,0
613.01509862511,215.03157461862,13.623612361236,1376468.8882448,3170.2726672709,2777581.7480605,18.823612361236,0,0
613.01509893711,214.82978557113,13.62804280428,1376468.8882448,3170.2726672709,2777581.7480605,18.82804280428,0,0
613.01509924911,214.62799652363,13.632473247325,1376468.8882448,3170.2726672709,2777581.7480605,18.832473247325,0,0
613.0150995611,214.42620747613,13.636903690369,1376468.8882448,3170.2726672709,2777581.7480605,18.836903690369,0,0
613.0150998731,214.22441842864,13.641334133413,1376468.8882448,3170.2726672709,2777581.7480605,18.841334133413,0,0
613.0151001851,214.02262938114,13.645764576458,1376468.8882448,3170.2726672709,2777581.7480605,18.845764576458,0,0
613.0151004971,213.82084033364,13.650195019502,1376468.8882448,3170.2726672709,2777581.7480605,18.850195019502,0,0
613.0151008091,213.61905128614,13.654625462546,1376468.8882448,3170.2726672709,2777581.7480605,18.854625462546,0,0
613.0151011211,213.41726223865,13.659055905591,1376468.8882448,3170.2726672709,2777581.7480605,18.859055905591,0,0
613.01510143309,213.21547319115,13.663486348635,1376468.8882448,3170.2726672709,2777581.7480605,18.863486348635,0,0
613.01510174509,213.01368414365,13.667916791679,1376468.8882448,3170.2726672709,2777581.7480605,18.867916791679,0,0
613.01510205709,212.81189509616,13.672347234723,1376468.8882448,3170.2726672709,2777581.7480605,18.872347234723,0,0
613.01510236909,212.61010604866,13.676777677768,1376468.8882448,3170.2726672709,2777581.7480605,18.876777677768,0,0
613.01510268109,212.40831700116,13.681208120812,1376468.8882448,3170.2726672709,2777581.7480605,18.881208120812,0,0
613.01510299309,212.20652795366,13.685638563856,1376468.8882448,3170.2726672709,2777581.7480605,18.885638563856,0,0
613.01510330508,212.00473890617,13.690069006901,1376468.8882448,3170.2726672709,2777581.7480605,18.890069006901,0,0
613.01510361708,211.80294985867,13.694499449945,1376468.8882448,3170.2726672709,2777581.7480605,18.894499449945,0,0
613.01510392908,211.60116081117,13.698929892989,1376468.8882448,3170.2726672709,2777581.7480605,18.898929892989,0,0
613.01510424108,211.39937176368,13.703360336034,1376468.8882448,3170.2726672709,2777581.7480605,18.903360336034,0,0
613.01510455308,211.19758271618,13.707790779078,1376468.8882448,3170.2726672709,2777581.7480605,18.907790779078,0,0
613.01510486507,210.99579366868,13.712221222122,1376468.8882448,3170.2726672709,2777581.7480605,18.912221222122,0,0
613.01510517707,210.79400462119,13.716651665167,1376468.8882448,3170.2726672709,2777581.7480605,18.916651665167,0,0
613.01510548907,210.59221557369,13.721082108211,1376468.8882448,3170.2726672709,2777581.7480605,18.921082108211,0,0
613.01510580107,210.39042652619,13.725512551255,1376468.8882448,3170.2726672709,2777581.7480605,18.925512551255,0,0
613.01510611307,210.18863747869,13.729942994299,1376468.8882448,3170.2726672709,2777581.7480605,18.929942994299,0,0
613.01510642507,209.9868484312,13.734373437344,1376468.8882448,3170.2726672709,2777581.7480605,18.934373437344,0,0
613.01510673706,209.7850593837,13.738803880388,1376468.8882448,3170.2726672709,2777581.7480605,18.938803880388,0,0
613.01510704906,209.5832703362,13.743234323432,1376468.8882448,3170.2726672709,2777581.7480605,18.943234323432,0,0
613.01510736106,209.38148128871,13.747664766477,1376468.8882448,3170.2726672709,2777581.7480605,18.947664766477,0,0
613.01510767306,209.17969224121,13.752095209521,1376468.8882448,3170.2726672709,2777581.7480605,18.952095209521,0,0
613.01510798506,208.97790319371,13.756525652565,1376468.8882448,3170.2726672709,2777581.7480605,18.956525652565,0,0
613.01510829706,208.77611414621,13.76095609561,1376468.8882448,3170.2726672709,2777581.7480605,18.96095609561,0,0
613.01510860905,208.57432509872,13.765386538654,1376468.8882448,3170.2726672709,2777581.7480605,18.965386538654,0,0
613.01510892105,208.37253605122,13.769816981698,1376468.8882448,3170.2726672709,2777581.7480605,18.969816981698,0,0
613.01510923305,208.17074700372,13.774247424742,1376468.8882448,3170.2726672709,2777581.7480605,18.974247424742,0,0
613.01510954505,207.96895795623,13.778677867787,1376468.8882448,3170.2726672709,2777581.7480605,18.978677867787,0,0
613.01510985705,207.76716890873,13.783108310831,1376468.8882448,3170.2726672709,2777581.7480605,18.983108310831,0,0
613.01511016904,207.56537986123,13.787538753875,1376468.8882448,3170.2726672709,2777581.7480605,18.987538753875,0,0
613.01511048104,207.36359081374,13.79196919692,1376468.8882448,3170.2726672709,2777581.7480605,18.99196919692,0,0
613.01511079304,207.16180176624,13.796399639964,1376468.8882448,3170.2726672709,2777581.7480605,18.996399639964,0,0
613.01511110504,206.96001271874,13.800830083008,1376468.8882448,3170.2726672709,2777581.7480605,19.000830083008,0,0
613.01511141704,206.75822367124,13.805260526053,1376468.8882448,3170.2726672709,2777581.7480605,19.005260526053,0,0
613.01511172904,206.55643462375,13.809690969097,1376468.8882448,3170.2726672709,2777581.7480605,19.009690969097,0,0
613.01511204103,206.35464557625,13.814121412141,1376468.8882448,3170.2726672709,2777581.7480605,19.014121412141,0,0
613.01511235303,206.15285652875,13.818551855186,1376468.8882448,3170.2726672709,2777581.7480605,19.018551855186,0,0
613.01511266503,205.95106748126,13.82298229823,1376468.8882448,3170.2726672709,2777581.7480605,19.02298229823,0,0
613.01511297703,205.74927843376,13.827412741274,1376468.8882448,3170.2726672709,2777581.7480605,19.027412741274,0,0
613.01511328903,205.54748938626,13.831843184318,1376468.8882448,3170.2726672709,2777581.7480605,19.031843184318,0,0
613.01511360103,205.34570033876,13.836273627363,1376468.8882448,3170.2726672709,2777581.7480605,19.036273627363,0,0
613.01511391302,205.14391129127,13.840704070407,1376468.8882448,3170.2726672709,2777581.7480605,19.040704070407,0,0
613.01511422502,204.94212224377,13.845134513451,1376468.8882448,3170.2726672709,2777581.7480605,19.045134513451,0,0
613.01511453702,204.74033319627,13.849564956496,1376468.8882448,3170.2726672709,2777581.7480605,19.049564956496,0,0
613.01511484902,204.53854414878,13.85399539954,1376468.8882448,3170.2726672709,2777581.7480605,19.05399539954,0,0
613.01511516102,204.33675510128,13.858425842584,1376468.8882448,3170.2726672709,2777581.7480605,19.058425842584,0,0
613.01511547301,204.13496605378,13.862856285629,1376468.8882448,3170.2726672709,2777581.7480605,19.062856285629,0,0
613.01511578501,203.93317700628,13.867286728673,1376468.8882448,3170.2726672709,2777581.7480605,19.067286728673,0,0
613.01511609701,203.73138795879,13.871717171717,1376468.8882448,3170.2726672709,2777581.7480605,19.071717171717,0,0
613.01511640901,203.52959891129,13.876147614761,1376468.8882448,3170.2726672709,2777581.7480605,19.076147614761,0,0
613.01511672101,203.32780986379,13.880578057806,1376468.8882448,3170.2726672709,2777581.7480605,19.080578057806,0,0
613.01511703301,203.1260208163,13.88500850085,1376468.8882448,3170.2726672709,2777581.7480605,19.08500850085,0,0
613.015117345,202.9242317688,13.889438943894,1376468.8882448,3170.2726672709,2777581.7480605,19.089438943894,0,0
613.015117657,202.7224427213,13.893869386939,1376468.8882448,3170.2726672709,2777581.7480605,19.093869386939,0,0
613.015117969,202.52065367381,13.898299829983,1376468.8882448,3170.2726672709,2777581.7480605,19.098299829983,0,0
613.015118281,202.31886462631,13.902730273027,1376468.8882448,3170.2726672709,2777581.7480605,19.102730273027,0,0
613.015118593,202.11707557881,13.907160716072,1376468.8882448,3170.2726672709,2777581.7480605,19.107160716072,0,0
613.015118905,201.91528653131,13.911591159116,1376468.8882448,3170.2726672709,2777581.7480605,19.111591159116,0,0
613.01511921699,201.71349748382,13.91602160216,1376468.8882448,3170.2726672709,2777581.7480605,19.11602160216,0,0
613.01511952899,201.51170843632,13.920452045205,1376468.8882448,3170.2726672709,2777581.7480605,19.120452045205,0,0
613.01511984099,201.30991938882,13.924882488249,1376468.8882448,3170.2726672709,2777581.7480605,19.124882488249,0,0
613.01512015299,201.10813034133,13.929312931293,1376468.8882448,3170.2726672709,2777581.7480605,19.129312931293,0,0
613.01512046499,200.90634129383,13.933743374337,1376468.8882448,3170.2726672709,2777581.7480605,19.133743374337,0,0
613.01512077698,200.70455224633,13.938173817382,1376468.8882448,3170.2726672709,2777581.7480605,19.138173817382,0,0
613.01512108898,200.50276319883,13.942604260426,1376468.8882448,3170.2726672709,2777581.7480605,19.142604260426,0,0
613.01512140098,200.30097415134,13.94703470347,1376468.8882448,3170.2726672709,2777581.7480605,19.14703470347,0,0
613.01512171298,200.09918510384,13.951465146515,1376468.8882448,3170.2726672709,2777581.7480605,19.151465146515,0,0
613.01512202498,199.89739605634,13.955895589559,1376468.8882448,3170.2726672709,2777581.7480605,19.155895589559,0,0
613.01512233698,199.69560700885,13.960326032603,1376468.8882448,3170.2726672709,2777581.7480605,19.160326032603,0,0
613.01512264897,199.49381796135,13.964756475648,1376468.8882448,3170.2726672709,2777581.7480605,19.164756475648,0,0
613.01512296097,199.29202891385,13.969186918692,1376468.8882448,3170.2726672709,2777581.7480605,19.169186918692,0,0
613.01512327297,199.09023986636,13.973617361736,1376468.8882448,3170.2726672709,2777581.7480605,19.173617361736,0,0
613.01512358497,198.88845081886,13.97804780478,1376468.8882448,3170.2726672709,2777581.7480605,19.17804780478,0,0
613.01512389697,198.68666177136,13.982478247825,1376468.8882448,3170.2726672709,2777581.7480605,19.182478247825,0,0
613.01512420897,198.48487272386,13.986908690869,1376468.8882448,3170.2726672709,2777581.7480605,19.186908690869,0,0
613.01512452096,198.28308367637,13.991339133913,1376468.8882448,3170.2726672709,2777581.7480605,19.191339133913,0,0
613.01512483296,198.08129462887,13.995769576958,1376468.8882448,3170.2726672709,2777581.7480605,19.195769576958,0,0
613.01512514496,197.87950558137,14.000200020002,1376468.8882448,3170.2726672709,2777581.7480605,19.200200020002,0,0
613.01512545696,197.67771653388,14.004630463046,1376468.8882448,3170.2726672709,2777581.7480605,19.204630463046,0,0
613.01512576896,197.47592748638,14.009060906091,1376468.8882448,3170.2726672709,2777581.7480605,19.209060906091,0,0
613.01512608095,197.27413843888,14.013491349135,1376468.8882448,3170.2726672709,2777581.7480605,19.213491349135,0,0
613.01512639298,197.07234939119,14.017921792179,1376211.2329455,-3171.9655384619,2765287.3981387,19.217921792179,0,0
613.01512670549,196.87056034045,14.022352235224,1376211.2329455,-3171.9655384619,2765287.3981387,19.222352235224,0,0
613.015127018,196.66877128971,14.026782678268,1376211.2329455,-3171.9655384619,2765287.3981387,19.226782678268,0,0
613.0151273305,196.46698223898,14.031213121312,1376211.2329455,-3171.9655384619,2765287.3981387,19.231213121312,0,0
613.01512764301,196.26519318824,14.035643564356,1376211.2329455,-3171.9655384619,2765287.3981387,19.235643564356,0,0
613.01512795551,196.0634041375,14.040074007401,1376211.2329455,-3171.9655384619,2765287.3981387,19.240074007401,0,0
613.01512826802,195.86161508677,14.044504450445,1376211.2329455,-3171.9655384619,2765287.3981387,19.244504450445,0,0
613.01512858052,195.65982603603,14.048934893489,1376211.2329455,-3171.9655384619,2765287.3981387,19.248934893489,0,0
613.01512889303,195.45803698529,14.053365336534,1376211.2329455,-3171.9655384619,2765287.3981387,19.253365336534,0,0
613.01512920554,195.25624793456,14.057795779578,1376211.2329455,-3171.9655384619,2765287.3981387,19.257795779578,0,0
613.01512951804,195.05445888382,14.062226222622,1376211.2329455,-3171.9655384619,2765287.3981387,19.262226222622,0,0
613.01512983055,194.85266983309,14.066656665667,1376211.2329455,-3171.9655384619,2765287.3981387,19.266656665667,0,0
613.01513014305,194.65088078235,14.071087108711,1376211.2329455,-3171.9655384619,2765287.3981387,19.271087108711,0,0
613.01513045556,194.44909173161,14.075517551755,1376211.2329455,-3171.9655384619,2765287.3981387,19.275517551755,0,0
613.01513076806,194.24730268088,14.079947994799,1376211.2329455,-3171.9655384619,2765287.3981387,19.279947994799,0,0
613.01513108057,194.04551363014,14.084378437844,1376211.2329455,-3171.9655384619,2765287.3981387,19.284378437844,0,0
613.01513139308,193.8437245794,14.088808880888,1376211.2329455,-3171.9655384619,2765287.3981387,19.288808880888,0,0
613.01513170558,193.64193552867,14.093239323932,1376211.2329455,-3171.9655384619,2765287.3981387,19.293239323932,0,0
613.01513201809,193.44014647793,14.097669766977,1376211.2329455,-3171.9655384619,2765287.3981387,19.297669766977,0,0
613.01513233059,193.23835742719,14.102100210021,1376211.2329455,-3171.9655384619,2765287.3981387,19.302100210021,0,0
613.0151326431,193.03656837646,14.106530653065,1376211.2329455,-3171.9655384619,2765287.3981387,19.306530653065,0,0
613.0151329556,192.83477932572,14.11096109611,1376211.2329455,-3171.9655384619,2765287.3981387,19.31096109611,0,0
613.01513326811,192.63299027498,14.115391539154,1376211.2329455,-3171.9655384619,2765287.3981387,19.315391539154,0,0
613.01513358061,192.43120122425,14.119821982198,1376211.2329455,-3171.9655384619,2765287.3981387,19.319821982198,0,0
613.01513389312,192.22941217351,14.124252425243,1376211.2329455,-3171.9655384619,2765287.3981387,19.324252425243,0,0
613.01513420563,192.02762312277,14.128682868287,1376211.2329455,-3171.9655384619,2765287.3981387,19.328682868287,0,0
613.01513451813,191.82583407204,14.133113311331,1376211.2329455,-3171.9655384619,2765287.3981387,19.333113311331,0,0
613.01513483064,191.6240450213,14.137543754375,1376211.2329455,-3171.9655384619,2765287.3981387,19.337543754375,0,0
613.01513514314,191.42225597056,14.14197419742,1376211.2329455,-3171.9655384619,2765287.3981387,19.34197419742,0,0
613.01513545565,191.22046691983,14.146404640464,1376211.2329455,-3171.9655384619,2765287.3981387,19.346404640464,0,0
613.01513576815,191.01867786909,14.150835083508,1376211.2329455,-3171.9655384619,2765287.3981387,19.350835083508,0,0
613.01513608066,190.81688881835,14.155265526553,1376211.2329455,-3171.9655384619,2765287.3981387,19.355265526553,0,0
613.01513639317,190.61509976762,14.159695969597,1376211.2329455,-3171.9655384619,2765287.3981387,19.359695969597,0,0
613.01513670567,190.41331071688,14.164126412641,1376211.2329455,-3171.9655384619,2765287.3981387,19.364126412641,0,0
613.01513701818,190.21152166614,14.168556855686,1376211.2329455,-3171.9655384619,2765287.3981387,19.368556855686,0,0
613.01513733068,190.00973261541,14.17298729873,1376211.2329455,-3171.9655384619,2765287.3981387,19.37298729873,0,0
613.01513764319,189.80794356467,14.177417741774,1376211.2329455,-3171.9655384619,2765287.3981387,19.377417741774,0,0
613.01513795569,189.60615451393,14.181848184818,1376211.2329455,-3171.9655384619,2765287.3981387,19.381848184818,0,0
613.0151382682,189.4043654632,14.186278627863,1376211.2329455,-3171.9655384619,2765287.3981387,19.386278627863,0,0
613.01513858071,189.20257641246,14.190709070907,1376211.2329455,-3171.9655384619,2765287.3981387,19.390709070907,0,0
613.01513889321,189.00078736172,14.195139513951,1376211.2329455,-3171.9655384619,2765287.3981387,19.395139513951,0,0
613.01513920572,188.79899831099,14.199569956996,1376211.2329455,-3171.9655384619,2765287.3981387,19.399569956996,0,0
613.01513951822,188.59720926025,14.20400040004,1376211.2329455,-3171.9655384619,2765287.3981387,19.40400040004,0,0
613.01513983073,188.39542020951,14.208430843084,1376211.2329455,-3171.9655384619,2765287.3981387,19.408430843084,0,0
613.01514014323,188.19363115878,14.212861286129,1376211.2329455,-3171.9655384619,2765287.3981387,19.412861286129,0,0
613.01514045574,187.99184210804,14.217291729173,1376211.2329455,-3171.9655384619,2765287.3981387,19.417291729173,0,0
613.01514076825,187.79005305731,14.221722172217,1376211.2329455,-3171.9655384619,2765287.3981387,19.421722172217,0,0
613.01514108075,187.58826400657,14.226152615262,1376211.2329455,-3171.9655384619,2765287.3981387,19.426152615262,0,0
613.01514139326,187.38647495583,14.230583058306,1376211.2329455,-3171.9655384619,2765287.3981387,19.430583058306,0,0
613.01514170576,187.1846859051,14.23501350135,1376211.2329455,-3171.9655384619,2765287.3981387,19.43501350135,0,0
613.01514201827,186.98289685436,14.239443944394,1376211.2329455,-3171.9655384619,2765287.3981387,19.439443944394,0,0
613.01514233077,186.78110780362,14.243874387439,1376211.2329455,-3171.9655384619,2765287.3981387,19.443874387439,0,0
613.01514264328,186.57931875289,14.248304830483,1376211.2329455,-3171.9655384619,2765287.3981387,19.448304830483,0,0
613.01514295579,186.37752970215,14.252735273527,1376211.2329455,-3171.9655384619,2765287.3981387,19.452735273527,0,0
613.01514326829,186.17574065141,14.257165716572,1376211.2329455,-3171.9655384619,2765287.3981387,19.457165716572,0,0
613.0151435808,185.97395160068,14.261596159616,1376211.2329455,-3171.9655384619,2765287.3981387,19.461596159616,0,0
613.0151438933,185.77216254994,14.26602660266,1376211.2329455,-3171.9655384619,2765287.3981387,19.46602660266,0,0
613.01514420581,185.5703734992,14.270457045705,1376211.2329455,-3171.9655384619,2765287.3981387,19.470457045705,0,0
613.01514451831,185.36858444847,14.274887488749,1376211.2329455,-3171.9655384619,2765287.3981387,19.474887488749,0,0
613.01514483082,185.16679539773,14.279317931793,1376211.2329455,-3171.9655384619,2765287.3981387,19.479317931793,0,0
613.01514514333,184.96500634699,14.283748374837,1376211.2329455,-3171.9655384619,2765287.3981387,19.483748374837,0,0
613.01514545583,184.76321729626,14.288178817882,1376211.2329455,-3171.9655384619,2765287.3981387,19.488178817882,0,0
613.01514576834,184.56142824552,14.292609260926,1376211.2329455,-3171.9655384619,2765287.3981387,19.492609260926,0,0
613.01514608084,184.35963919478,14.29703970397,1376211.2329455,-3171.9655384619,2765287.3981387,19.49703970397,0,0
613.01514639335,184.15785014405,14.301470147015,1376211.2329455,-3171.9655384619,2765287.3981387,19.501470147015,0,0
613.01514670585,183.95606109331,14.305900590059,1376211.2329455,-3171.9655384619,2765287.3981387,19.505900590059,0,0
613.01514701836,183.75427204257,14.310331033103,1376211.2329455,-3171.9655384619,2765287.3981387,19.510331033103,0,0
613.01514733087,183.55248299184,14.314761476148,1376211.2329455,-3171.9655384619,2765287.3981387,19.514761476148,0,0
613.01514764337,183.3506939411,14.319191919192,1376211.2329455,-3171.9655384619,2765287.3981387,19.519191919192,0,0
613.01514795588,183.14890489036,14.323622362236,1376211.2329455,-3171.9655384619,2765287.3981387,19.523622362236,0,0
613.01514826838,182.94711583963,14.328052805281,1376211.2329455,-3171.9655384619,2765287.3981387,19.528052805281,0,0
613.01514858089,182.74532678889,14.332483248325,1376211.2329455,-3171.9655384619,2765287.3981387,19.532483248325,0,0
613.01514889339,182.54353773815,14.336913691369,1376211.2329455,-3171.9655384619,2765287.3981387,19.536913691369,0,0
613.0151492059,182.34174868742,14.341344134413,1376211.2329455,-3171.9655384619,2765287.3981387,19.541344134413,0,0
613.01514951841,182.13995963668,14.345774577458,1376211.2329455,-3171.9655384619,2765287.3981387,19.545774577458,0,0
613.01514983091,181.93817058594,14.350205020502,1376211.2329455,-3171.9655384619,2765287.3981387,19.550205020502,0,0
613.01515014342,181.73638153521,14.354635463546,1376211.2329455,-3171.9655384619,2765287.3981387,19.554635463546,0,0
613.01515045592,181.53459248447,14.359065906591,1376211.2329455,-3171.9655384619,2765287.3981387,19.559065906591,0,0
613.01515076843,181.33280343373,14.363496349635,1376211.2329455,-3171.9655384619,2765287.3981387,19.563496349635,0,0
613.01515108093,181.131014383,14.367926792679,1376211.2329455,-3171.9655384619,2765287.3981387,19.567926792679,0,0
613.01515139344,180.92922533226,14.372357235724,1376211.2329455,-3171.9655384619,2765287.3981387,19.572357235724,0,0
613.01515170595,180.72743628153,14.376787678768,1376211.2329455,-3171.9655384619,2765287.3981387,19.576787678768,0,0
613.01515201845,180.52564723079,14.381218121812,1376211.2329455,-3171.9655384619,2765287.3981387,19.581218121812,0,0
613.01515233096,180.32385818005,14.385648564856,1376211.2329455,-3171.9655384619,2765287.3981387,19.585648564856,0,0
613.01515264346,180.12206912932,14.390079007901,1376211.2329455,-3171.9655384619,2765287.3981387,19.590079007901,0,0
613.01515295597,179.92028007858,14.394509450945,1376211.2329455,-3171.9655384619,2765287.3981387,19.594509450945,0,0
613.01515326847,179.71849102784,14.398939893989,1376211.2329455,-3171.9655384619,2765287.3981387,19.598939893989,0,0
613.01515358098,179.51670197711,14.403370337034,1376211.2329455,-3171.9655384619,2765287.3981387,19.603370337034,0,0
613.01515389349,179.31491292637,14.407800780078,1376211.2329455,-3171.9655384619,2765287.3981387,19.607800780078,0,0
613.01515420599,179.11312387563,14.412231223122,1376211.2329455,-3171.9655384619,2765287.3981387,19.612231223122,0,0
613.0151545185,178.9113348249,14.416661666167,1376211.2329455,-3171.9655384619,2765287.3981387,19.616661666167,0,0
613.015154831,178.70954577416,14.421092109211,1376211.2329455,-3171.9655384619,2765287.3981387,19.621092109211,0,0
613.01515514351,178.50775672342,14.425522552255,1376211.2329455,-3171.9655384619,2765287.3981387,19.625522552255,0,0
613.01515545601,178.30596767269,14.4299529953,1376211.2329455,-3171.9655384619,2765287.3981387,19.6299529953,0,0
613.01515576852,178.10417862195,14.434383438344,1376211.2329455,-3171.9655384619,2765287.3981387,19.634383438344,0,0
613.01515608102,177.90238957121,14.438813881388,1376211.2329455,-3171.9655384619,2765287.3981387,19.638813881388,0,0
613.01515639353,177.70060052048,14.443244324432,1376211.2329455,-3171.9655384619,2765287.3981387,19.643244324432,0,0
613.01515670604,177.49881146974,14.447674767477,1376211.2329455,-3171.9655384619,2765287.3981387,19.647674767477,0,0
613.01515701854,177.297022419,14.452105210521,1376211.2329455,-3171.9655384619,2765287.3981387,19.652105210521,0,0
613.01515733105,177.09523336827,14.456535653565,1376211.2329455,-3171.9655384619,2765287.3981387,19.656535653565,0,0
613.01515764355,176.89344431753,14.46096609661,1376211.2329455,-3171.9655384619,2765287.3981387,19.66096609661,0,0
613.01515795606,176.69165526679,14.465396539654,1376211.2329455,-3171.9655384619,2765287.3981387,19.665396539654,0,0
613.01515826856,176.48986621606,14.469826982698,1376211.2329455,-3171.9655384619,2765287.3981387,19.669826982698,0,0
613.01515858107,176.28807716532,14.474257425743,1376211.2329455,-3171.9655384619,2765287.3981387,19.674257425743,0,0
613.01515889358,176.08628811458,14.478687868787,1376211.2329455,-3171.9655384619,2765287.3981387,19.678687868787,0,0
613.01515920608,175.88449906385,14.483118311831,1376211.2329455,-3171.9655384619,2765287.3981387,19.683118311831,0,0
613.01515951859,175.68271001311,14.487548754875,1376211.2329455,-3171.9655384619,2765287.3981387,19.687548754875,0,0
613.01515983109,175.48092096237,14.49197919792,1376211.2329455,-3171.9655384619,2765287.3981387,19.69197919792,0,0
613.0151601436,175.27913191164,14.496409640964,1376211.2329455,-3171.9655384619,2765287.3981387,19.696409640964,0,0
613.0151604561,175.0773428609,14.500840084008,1376211.2329455,-3171.9655384619,2765287.3981387,19.700840084008,0,0
613.01516076861,174.87555381016,14.505270527053,1376211.2329455,-3171.9655384619,2765287.3981387,19.705270527053,0,0
613.01516108112,174.67376475943,14.509700970097,1376211.2329455,-3171.9655384619,2765287.3981387,19.709700970097,0,0
613.01516139362,174.47197570869,14.514131413141,1376211.2329455,-3171.9655384619,2765287.3981387,19.714131413141,0,0
613.01516170613,174.27018665796,14.518561856186,1376211.2329455,-3171.9655384619,2765287.3981387,19.718561856186,0,0
613.01516201863,174.06839760722,14.52299229923,1376211.2329455,-3171.9655384619,2765287.3981387,19.72299229923,0,0
613.01516233114,173.86660855648,14.527422742274,1376211.2329455,-3171.9655384619,2765287.3981387,19.727422742274,0,0
613.01516264364,173.66481950575,14.531853185319,1376211.2329455,-3171.9655384619,2765287.3981387,19.731853185319,0,0
613.01516295615,173.46303045501,14.536283628363,1376211.2329455,-3171.9655384619,2765287.3981387,19.736283628363,0,0
613.01516326866,173.26124140427,14.540714071407,1376211.2329455,-3171.9655384619,2765287.3981387,19.740714071407,0,0
613.01516358116,173.05945235354,14.545144514451,1376211.2329455,-3171.9655384619,2765287.3981387,19.745144514451,0,0
613.01516389367,172.8576633028,14.549574957496,1376211.2329455,-3171.9655384619,2765287.3981387,19.749574957496,0,0
613.01516420617,172.65587425206,14.55400540054,1376211.2329455,-3171.9655384619,2765287.3981387,19.75400540054,0,0
613.01516451868,172.45408520133,14.558435843584,1376211.2329455,-3171.9655384619,2765287.3981387,19.758435843584,0,0
613.01516483118,172.25229615059,14.562866286629,1376211.2329455,-3171.9655384619,2765287.3981387,19.762866286629,0,0
613.01516514369,172.05050709985,14.567296729673,1376211.2329455,-3171.9655384619,2765287.3981387,19.767296729673,0,0
613.0151654562,171.84871804912,14.571727172717,1376211.2329455,-3171.9655384619,2765287.3981387,19.771727172717,0,0
613.0151657687,171.64692899838,14.576157615762,1376211.2329455,-3171.9655384619,2765287.3981387,19.776157615762,0,0
613.01516608121,171.44513994764,14.580588058806,1376211.2329455,-3171.9655384619,2765287.3981387,19.780588058806,0,0
613.01516639371,171.24335089691,14.58501850185,1376211.2329455,-3171.9655384619,2765287.3981387,19.78501850185,0,0
613.01516670622,171.04156184617,14.589448944894,1376211.2329455,-3171.9655384619,2765287.3981387,19.789448944894,0,0
613.01516701872,170.83977279543,14.593879387939,1376211.2329455,-3171.9655384619,2765287.3981387,19.793879387939,0,0
613.01516733123,170.6379837447,14.598309830983,1376211.2329455,-3171.9655384619,2765287.3981387,19.798309830983,0,0
613.01516764374,170.43619469396,14.602740274027,1376211.2329455,-3171.9655384619,2765287.3981387,19.802740274027,0,0
613.01516795624,170.23440564322,14.607170717072,1376211.2329455,-3171.9655384619,2765287.3981387,19.807170717072,0,0
613.01516826875,170.03261659249,14.611601160116,1376211.2329455,-3171.9655384619,2765287.3981387,19.811601160116,0,0
613.01516858125,169.83082754175,14.61603160316,1376211.2329455,-3171.9655384619,2765287.3981387,19.81603160316,0,0
613.01516889376,169.62903849101,14.620462046205,1376211.2329455,-3171.9655384619,2765287.3981387,19.820462046205,0,0
613.01516920626,169.42724944028,14.624892489249,1376211.2329455,-3171.9655384619,2765287.3981387,19.824892489249,0,0
613.01516951877,169.22546038954,14.629322932293,1376211.2329455,-3171.9655384619,2765287.3981387,19.829322932293,0,0
613.01516983128,169.0236713388,14.633753375338,1376211.2329455,-3171.9655384619,2765287.3981387,19.833753375338,0,0
613.01517014378,168.82188228807,14.638183818382,1376211.2329455,-3171.9655384619,2765287.3981387,19.838183818382,0,0
613.01517045629,168.62009323733,14.642614261426,1376211.2329455,-3171.9655384619,2765287.3981387,19.842614261426,0,0
613.01517076879,168.41830418659,14.64704470447,1376211.2329455,-3171.9655384619,2765287.3981387,19.84704470447,0,0
613.0151710813,168.21651513586,14.651475147515,1376211.2329455,-3171.9655384619,2765287.3981387,19.851475147515,0,0
613.0151713938,168.01472608512,14.655905590559,1376211.2329455,-3171.9655384619,2765287.3981387,19.855905590559,0,0
613.01517170631,167.81293703438,14.660336033603,1376211.2329455,-3171.9655384619,2765287.3981387,19.860336033603,0,0
613.01517201882,167.61114798365,14.664766476648,1376211.2329455,-3171.9655384619,2765287.3981387,19.864766476648,0,0
613.01517233132,167.40935893291,14.669196919692,1376211.2329455,-3171.9655384619,2765287.3981387,19.869196919692,0,0
613.01517264383,167.20756988218,14.673627362736,1376211.2329455,-3171.9655384619,2765287.3981387,19.873627362736,0,0
613.01517295633,167.00578083144,14.678057805781,1376211.2329455,-3171.9655384619,2765287.3981387,19.878057805781,0,0
613.01517326884,166.8039917807,14.682488248825,1376211.2329455,-3171.9655384619,2765287.3981387,19.882488248825,0,0
613.01517358134,166.60220272997,14.686918691869,1376211.2329455,-3171.9655384619,2765287.3981387,19.886918691869,0,0
613.01517389383,166.40041368183,14.691349134913,1374098.1981217,2765.6653991583,2757169.7578805,19.891349134913,0,0
613.01517420632,166.19862463379,14.695779577958,1374098.1981217,2765.6653991583,2757169.7578805,19.895779577958,0,0
613.0151745188,165.99683558575,14.700210021002,1374098.1981217,2765.6653991583,2757169.7578805,19.900210021002,0,0
613.01517483129,165.7950465377,14.704640464046,1374098.1981217,2765.6653991583,2757169.7578805,19.904640464046,0,0
613.01517514377,165.59325748966,14.709070907091,1374098.1981217,2765.6653991583,2757169.7578805,19.909070907091,0,0
613.01517545626,165.39146844162,14.713501350135,1374098.1981217,2765.6653991583,2757169.7578805,19.913501350135,0,0
613.01517576874,165.18967939358,14.717931793179,1374098.1981217,2765.6653991583,2757169.7578805,19.917931793179,0,0
613.01517608123,164.98789034554,14.722362236224,1374098.1981217,2765.6653991583,2757169.7578805,19.922362236224,0,0
613.01517639372,164.7861012975,14.726792679268,1374098.1981217,2765.6653991583,2757169.7578805,19.926792679268,0,0
613.0151767062,164.58431224945,14.731223122312,1374098.1981217,2765.6653991583,2757169.7578805,19.931223122312,0,0
613.01517701869,164.38252320141,14.735653565357,1374098.1981217,2765.6653991583,2757169.7578805,19.935653565357,0,0
613.01517733117,164.18073415337,14.740084008401,1374098.1981217,2765.6653991583,2757169.7578805,19.940084008401,0,0
613.01517764366,163.97894510533,14.744514451445,1374098.1981217,2765.6653991583,2757169.7578805,19.944514451445,0,0
613.01517795615,163.77715605729,14.748944894489,1374098.1981217,2765.6653991583,2757169.7578805,19.948944894489,0,0
613.01517826863,163.57536700925,14.753375337534,1374098.1981217,2765.6653991583,2757169.7578805,19.953375337534,0,0
613.01517858112,163.3735779612,14.757805780578,1374098.1981217,2765.6653991583,2757169.7578805,19.957805780578,0,0
613.0151788936,163.17178891316,14.762236223622,1374098.1981217,2765.6653991583,2757169.7578805,19.962236223622,0,0
613.01517920609,162.96999986512,14.766666666667,1374098.1981217,2765.6653991583,2757169.7578805,19.966666666667,0,0
613.01517951857,162.76821081708,14.771097109711,1374098.1981217,2765.6653991583,2757169.7578805,19.971097109711,0,0
613.01517983106,162.56642176904,14.775527552755,1374098.1981217,2765.6653991583,2757169.7578805,19.975527552755,0,0
613.01518014355,162.364632721,14.7799579958,1374098.1981217,2765.6653991583,2757169.7578805,19.9799579958,0,0
613.01518045603,162.16284367295,14.784388438844,1374098.1981217,2765.6653991583,2757169.7578805,19.984388438844,0,0
613.01518076852,161.96105462491,14.788818881888,1374098.1981217,2765.6653991583,2757169.7578805,19.988818881888,0,0
613.015181081,161.75926557687,14.793249324932,1374098.1981217,2765.6653991583,2757169.7578805,19.993249324932,0,0
613.01518139349,161.55747652883,14.797679767977,1374098.1981217,2765.6653991583,2757169.7578805,19.997679767977,0,0
613.01518170597,161.35568748079,14.802110211021,1374098.1981217,2765.6653991583,2757169.7578805,20.002110211021,0,0
613.01518201846,161.15389843275,14.806540654065,1374098.1981217,2765.6653991583,2757169.7578805,20.006540654065,0,0
613.01518233095,160.9521093847,14.81097109711,1374098.1981217,2765.6653991583,2757169.7578805,20.01097109711,0,0
613.01518264343,160.75032033666,14.815401540154,1374098.1981217,2765.6653991583,2757169.7578805,20.015401540154,0,0
613.01518295592,160.54853128862,14.819831983198,1374098.1981217,2765.6653991583,2757169.7578805,20.019831983198,0,0
613.0151832684,160.34674224058,14.824262426243,1374098.1981217,2765.6653991583,2757169.7578805,20.024262426243,0,0
613.01518358089,160.14495319254,14.828692869287,1374098.1981217,2765.6653991583,2757169.7578805,20.028692869287,0,0
613.01518389338,159.9431641445,14.833123312331,1374098.1981217,2765.6653991583,2757169.7578805,20.033123312331,0,0
613.01518420586,159.74137509645,14.837553755376,1374098.1981217,2765.6653991583,2757169.7578805,20.037553755376,0,0
613.01518451835,159.53958604841,14.84198419842,1374098.1981217,2765.6653991583,2757169.7578805,20.04198419842,0,0
613.01518483083,159.33779700037,14.846414641464,1374098.1981217,2765.6653991583,2757169.7578805,20.046414641464,0,0
613.01518514332,159.13600795233,14.850845084508,1374098.1981217,2765.6653991583,2757169.7578805,20.050845084508,0,0
613.0151854558,158.93421890429,14.855275527553,1374098.1981217,2765.6653991583,2757169.7578805,20.055275527553,0,0
613.01518576829,158.73242985625,14.859705970597,1374098.1981217,2765.6653991583,2757169.7578805,20.059705970597,0,0
613.01518608078,158.5306408082,14.864136413641,1374098.1981217,2765.6653991583,2757169.7578805,20.064136413641,0,0
613.01518639326,158.32885176016,14.868566856686,1374098.1981217,2765.6653991583,2757169.7578805,20.068566856686,0,0
613.01518670575,158.12706271212,14.87299729973,1374098.1981217,2765.6653991583,2757169.7578805,20.07299729973,0,0
613.01518701823,157.92527366408,14.877427742774,1374098.1981217,2765.6653991583,2757169.7578805,20.077427742774,0,0
613.01518733072,157.72348461604,14.881858185819,1374098.1981217,2765.6653991583,2757169.7578805,20.081858185819,0,0
613.0151876432,157.521695568,14.886288628863,1374098.1981217,2765.6653991583,2757169.7578805,20.086288628863,0,0
613.01518795569,157.31990651995,14.890719071907,1374098.1981217,2765.6653991583,2757169.7578805,20.090719071907,0,0
613.01518826818,157.11811747191,14.895149514951,1374098.1981217,2765.6653991583,2757169.7578805,20.095149514951,0,0
613.01518858066,156.91632842387,14.899579957996,1374098.1981217,2765.6653991583,2757169.7578805,20.099579957996,0,0
613.01518889315,156.71453937583,14.90401040104,1374098.1981217,2765.6653991583,2757169.7578805,20.10401040104,0,0
613.01518920563,156.51275032779,14.908440844084,1374098.1981217,2765.6653991583,2757169.7578805,20.108440844084,0,0
613.01518951812,156.31096127975,14.912871287129,1374098.1981217,2765.6653991583,2757169.7578805,20.112871287129,0,0
613.01518983061,156.1091722317,14.917301730173,1374098.1981217,2765.6653991583,2757169.7578805,20.117301730173,0,0
613.01519014309,155.90738318366,14.921732173217,1374098.1981217,2765.6653991583,2757169.7578805,20.121732173217,0,0
613.01519045558,155.70559413562,14.926162616262,1374098.1981217,2765.6653991583,2757169.7578805,20.126162616262,0,0
613.01519076806,155.50380508758,14.930593059306,1374098.1981217,2765.6653991583,2757169.7578805,20.130593059306,0,0
613.01519108055,155.30201603954,14.93502350235,1374098.1981217,2765.6653991583,2757169.7578805,20.13502350235,0,0
613.01519139303,155.1002269915,14.939453945395,1374098.1981217,2765.6653991583,2757169.7578805,20.139453945395,0,0
613.01519170552,154.89843794345,14.943884388439,1374098.1981217,2765.6653991583,2757169.7578805,20.143884388439,0,0
613.01519201801,154.69664889541,14.948314831483,1374098.1981217,2765.6653991583,2757169.7578805,20.148314831483,0,0
613.01519233049,154.49485984737,14.952745274527,1374098.1981217,2765.6653991583,2757169.7578805,20.152745274527,0,0
613.01519264298,154.29307079933,14.957175717572,1374098.1981217,2765.6653991583,2757169.7578805,20.157175717572,0,0
613.01519295546,154.09128175129,14.961606160616,1374098.1981217,2765.6653991583,2757169.7578805,20.161606160616,0,0
613.01519326795,153.88949270325,14.96603660366,1374098.1981217,2765.6653991583,2757169.7578805,20.16603660366,0,0
613.01519358043,153.6877036552,14.970467046705,1374098.1981217,2765.6653991583,2757169.7578805,20.170467046705,0,0
613.01519389292,153.48591460716,14.974897489749,1374098.1981217,2765.6653991583,2757169.7578805,20.174897489749,0,0
613.01519420541,153.28412555912,14.979327932793,1374098.1981217,2765.6653991583,2757169.7578805,20.179327932793,0,0
613.01519451789,153.08233651108,14.983758375838,1374098.1981217,2765.6653991583,2757169.7578805,20.183758375838,0,0
613.01519483038,152.88054746304,14.988188818882,1374098.1981217,2765.6653991583,2757169.7578805,20.188188818882,0,0
613.01519514286,152.678758415,14.992619261926,1374098.1981217,2765.6653991583,2757169.7578805,20.192619261926,0,0
613.01519545535,152.47696936695,14.99704970497,1374098.1981217,2765.6653991583,2757169.7578805,20.19704970497,0,0
613.01519576784,152.27518031891,15.001480148015,1374098.1981217,2765.6653991583,2757169.7578805,20.201480148015,0,0
613.01519608032,152.07339127087,15.005910591059,1374098.1981217,2765.6653991583,2757169.7578805,20.205910591059,0,0
613.01519639281,151.87160222283,15.010341034103,1374098.1981217,2765.6653991583,2757169.7578805,20.210341034103,0,0
613.01519670529,151.66981317479,15.014771477148,1374098.1981217,2765.6653991583,2757169.7578805,20.214771477148,0,0
613.01519701778,151.46802412675,15.019201920192,1374098.1981217,2765.6653991583,2757169.7578805,20.219201920192,0,0
613.01519733026,151.2662350787,15.023632363236,1374098.1981217,2765.6653991583,2757169.7578805,20.223632363236,0,0
613.01519764275,151.06444603066,15.028062806281,1374098.1981217,2765.6653991583,2757169.7578805,20.228062806281,0,0
613.01519795524,150.86265698262,15.032493249325,1374098.1981217,2765.6653991583,2757169.7578805,20.232493249325,0,0
613.01519826772,150.66086793458,15.036923692369,1374098.1981217,2765.6653991583,2757169.7578805,20.236923692369,0,0
613.01519858021,150.45907888654,15.041354135414,1374098.1981217,2765.6653991583,2757169.7578805,20.241354135414,0,0
613.01519889269,150.2572898385,15.045784578458,1374098.1981217,2765.6653991583,2757169.7578805,20.245784578458,0,0
613.01519920518,150.05550079045,15.050215021502,1374098.1981217,2765.6653991583,2757169.7578805,20.250215021502,0,0
613.01519951766,149.85371174241,15.054645464546,1374098.1981217,2765.6653991583,2757169.7578805,20.254645464546,0,0
613.01519983015,149.65192269437,15.059075907591,1374098.1981217,2765.6653991583,2757169.7578805,20.259075907591,0,0
613.01520014264,149.45013364633,15.063506350635,1374098.1981217,2765.6653991583,2757169.7578805,20.263506350635,0,0
613.01520045512,149.24834459829,15.067936793679,1374098.1981217,2765.6653991583,2757169.7578805,20.267936793679,0,0
613.01520076761,149.04655555025,15.072367236724,1374098.1981217,2765.6653991583,2757169.7578805,20.272367236724,0,0
613.01520108009,148.8447665022,15.076797679768,1374098.1981217,2765.6653991583,2757169.7578805,20.276797679768,0,0
613.01520139258,148.64297745416,15.081228122812,1374098.1981217,2765.6653991583,2757169.7578805,20.281228122812,0,0
613.01520170507,148.44118840612,15.085658565857,1374098.1981217,2765.6653991583,2757169.7578805,20.285658565857,0,0
613.01520201755,148.23939935808,15.090089008901,1374098.1981217,2765.6653991583,2757169.7578805,20.290089008901,0,0
613.01520233004,148.03761031004,15.094519451945,1374098.1981217,2765.6653991583,2757169.7578805,20.294519451945,0,0
613.01520264252,147.835821262,15.098949894989,1374098.1981217,2765.6653991583,2757169.7578805,20.298949894989,0,0
613.01520295501,147.63403221395,15.103380338034,1374098.1981217,2765.6653991583,2757169.7578805,20.303380338034,0,0
613.01520326749,147.43224316591,15.107810781078,1374098.1981217,2765.6653991583,2757169.7578805,20.307810781078,0,0
613.01520357998,147.23045411787,15.112241224122,1374098.1981217,2765.6653991583,2757169.7578805,20.312241224122,0,0
613.01520389247,147.02866506983,15.116671667167,1374098.1981217,2765.6653991583,2757169.7578805,20.316671667167,0,0
613.01520420495,146.82687602179,15.121102110211,1374098.1981217,2765.6653991583,2757169.7578805,20.321102110211,0,0
613.01520451744,146.62508697375,15.125532553255,1374098.1981217,2765.6653991583,2757169.7578805,20.325532553255,0,0
613.01520482992,146.4232979257,15.1299629963,1374098.1981217,2765.6653991583,2757169.7578805,20.3299629963,0,0
613.01520514241,146.22150887766,15.134393439344,1374098.1981217,2765.6653991583,2757169.7578805,20.334393439344,0,0
613.01520545489,146.01971982962,15.138823882388,1374098.1981217,2765.6653991583,2757169.7578805,20.338823882388,0,0
613.01520576738,145.81793078158,15.143254325433,1374098.1981217,2765.6653991583,2757169.7578805,20.343254325433,0,0
613.01520607987,145.61614173354,15.147684768477,1374098.1981217,2765.6653991583,2757169.7578805,20.347684768477,0,0
613.01520639235,145.4143526855,15.152115211521,1374098.1981217,2765.6653991583,2757169.7578805,20.352115211521,0,0
613.01520670484,145.21256363745,15.156545654565,1374098.1981217,2765.6653991583,2757169.7578805,20.356545654565,0,0
613.01520701732,145.01077458941,15.16097609761,1374098.1981217,2765.6653991583,2757169.7578805,20.36097609761,0,0
613.01520732981,144.80898554137,15.165406540654,1374098.1981217,2765.6653991583,2757169.7578805,20.365406540654,0,0
613.0152076423,144.60719649333,15.169836983698,1374098.1981217,2765.6653991583,2757169.7578805,20.369836983698,0,0
613.01520795478,144.40540744529,15.174267426743,1374098.1981217,2765.6653991583,2757169.7578805,20.374267426743,0,0
613.01520826727,144.20361839725,15.178697869787,1374098.1981217,2765.6653991583,2757169.7578805,20.378697869787,0,0
613.01520857975,144.0018293492,15.183128312831,1374098.1981217,2765.6653991583,2757169.7578805,20.383128312831,0,0
613.01520889224,143.80004030116,15.187558755876,1374098.1981217,2765.6653991583,2757169.7578805,20.387558755876,0,0
613.01520920472,143.59825125312,15.19198919892,1374098.1981217,2765.6653991583,2757169.7578805,20.39198919892,0,0
613.01520951721,143.39646220508,15.196419641964,1374098.1981217,2765.6653991583,2757169.7578805,20.396419641964,0,0
613.0152098297,143.19467315704,15.200850085009,1374098.1981217,2765.6653991583,2757169.7578805,20.400850085008,0,0
613.01521014218,142.992884109,15.205280528053,1374098.1981217,2765.6653991583,2757169.7578805,20.405280528053,0,0
613.01521045467,142.79109506095,15.209710971097,1374098.1981217,2765.6653991583,2757169.7578805,20.409710971097,0,0
613.01521076715,142.58930601291,15.214141414141,1374098.1981217,2765.6653991583,2757169.7578805,20.414141414141,0,0
613.01521107964,142.38751696487,15.218571857186,1374098.1981217,2765.6653991583,2757169.7578805,20.418571857186,0,0
613.01521139213,142.18572791683,15.22300230023,1374098.1981217,2765.6653991583,2757169.7578805,20.42300230023,0,0
613.01521170461,141.98393886879,15.227432743274,1374098.1981217,2765.6653991583,2757169.7578805,20.427432743274,0,0
613.0152120171,141.78214982075,15.231863186319,1374098.1981217,2765.6653991583,2757169.7578805,20.431863186319,0,0
613.01521232958,141.5803607727,15.236293629363,1374098.1981217,2765.6653991583,2757169.7578805,20.436293629363,0,0
613.01521264207,141.37857172466,15.240724072407,1374098.1981217,2765.6653991583,2757169.7578805,20.440724072407,0,0
613.01521295455,141.17678267662,15.245154515452,1374098.1981217,2765.6653991583,2757169.7578805,20.445154515452,0,0
613.01521326704,140.97499362858,15.249584958496,1374098.1981217,2765.6653991583,2757169.7578805,20.449584958496,0,0
613.01521357953,140.77320458054,15.25401540154,1374098.1981217,2765.6653991583,2757169.7578805,20.45401540154,0,0
613.01521389201,140.5714155325,15.258445844584,1374098.1981217,2765.6653991583,2757169.7578805,20.458445844584,0,0
613.0152142045,140.36962648445,15.262876287629,1374098.1981217,2765.6653991583,2757169.7578805,20.462876287629,0,0
613.01521451698,140.16783743641,15.267306730673,1374098.1981217,2765.6653991583,2757169.7578805,20.467306730673,0,0
613.01521482947,139.96604838837,15.271737173717,1374098.1981217,2765.6653991583,2757169.7578805,20.471737173717,0,0
613.01521514195,139.76425934033,15.276167616762,1374098.1981217,2765.6653991583,2757169.7578805,20.476167616762,0,0
613.01521545444,139.56247029229,15.280598059806,1374098.1981217,2765.6653991583,2757169.7578805,20.480598059806,0,0
613.01521576693,139.36068124425,15.28502850285,1374098.1981217,2765.6653991583,2757169.7578805,20.48502850285,0,0
613.01521607941,139.1588921962,15.289458945895,1374098.1981217,2765.6653991583,2757169.7578805,20.489458945895,0,0
613.0152163919,138.95710314816,15.293889388939,1374098.1981217,2765.6653991583,2757169.7578805,20.493889388939,0,0
613.01521670438,138.75531410012,15.298319831983,1374098.1981217,2765.6653991583,2757169.7578805,20.498319831983,0,0
613.01521701687,138.55352505208,15.302750275028,1374098.1981217,2765.6653991583,2757169.7578805,20.502750275028,0,0
613.01521732935,138.35173600404,15.307180718072,1374098.1981217,2765.6653991583,2757169.7578805,20.507180718072,0,0
613.01521764184,138.149946956,15.311611161116,1374098.1981217,2765.6653991583,2757169.7578805,20.511611161116,0,0
613.01521795433,137.94815790795,15.31604160416,1374098.1981217,2765.6653991583,2757169.7578805,20.51604160416,0,0
613.01521826681,137.74636885991,15.320472047205,1374098.1981217,2765.6653991583,2757169.7578805,20.520472047205,0,0
613.0152185793,137.54457981187,15.324902490249,1374098.1981217,2765.6653991583,2757169.7578805,20.524902490249,0,0
613.01521889178,137.34279076383,15.329332933293,1374098.1981217,2765.6653991583,2757169.7578805,20.529332933293,0,0
613.01521920427,137.14100171579,15.333763376338,1374098.1981217,2765.6653991583,2757169.7578805,20.533763376338,0,0
613.01521951676,136.93921266775,15.338193819382,1374098.1981217,2765.6653991583,2757169.7578805,20.538193819382,0,0
613.01521982924,136.7374236197,15.342624262426,1374098.1981217,2765.6653991583,2757169.7578805,20.542624262426,0,0
613.01522014173,136.53563457166,15.347054705471,1374098.1981217,2765.6653991583,2757169.7578805,20.547054705471,0,0
613.01522045421,136.33384552362,15.351485148515,1374098.1981217,2765.6653991583,2757169.7578805,20.551485148515,0,0
613.01522076695,136.13205647377,15.355915591559,1373563.1609923,-2509.071125978,2746731.5463913,20.555915591559,0,0
613.01522107981,135.93026742306,15.360346034603,1373563.1609923,-2509.071125978,2746731.5463913,20.560346034603,0,0
613.01522139267,135.72847837235,15.364776477648,1373563.1609923,-2509.071125978,2746731.5463913,20.564776477648,0,0
613.01522170553,135.52668932164,15.369206920692,1373563.1609923,-2509.071125978,2746731.5463913,20.569206920692,0,0
613.01522201839,135.32490027094,15.373637363736,1373563.1609923,-2509.071125978,2746731.5463913,20.573637363736,0,0
613.01522233125,135.12311122023,15.378067806781,1373563.1609923,-2509.071125978,2746731.5463913,20.578067806781,0,0
613.01522264411,134.92132216952,15.382498249825,1373563.1609923,-2509.071125978,2746731.5463913,20.582498249825,0,0
613.01522295696,134.71953311881,15.386928692869,1373563.1609923,-2509.071125978,2746731.5463913,20.586928692869,0,0
613.01522326982,134.5177440681,15.391359135914,1373563.1609923,-2509.071125978,2746731.5463913,20.591359135914,0,0
613.01522358268,134.31595501739,15.395789578958,1373563.1609923,-2509.071125978,2746731.5463913,20.595789578958,0,0
613.01522389554,134.11416596669,15.400220022002,1373563.1609923,-2509.071125978,2746731.5463913,20.600220022002,0,0
613.0152242084,133.91237691598,15.404650465047,1373563.1609923,-2509.071125978,2746731.5463913,20.604650465047,0,0
613.01522452126,133.71058786527,15.409080908091,1373563.1609923,-2509.071125978,2746731.5463913,20.609080908091,0,0
613.01522483412,133.50879881456,15.413511351135,1373563.1609923,-2509.071125978,2746731.5463913,20.613511351135,0,0
613.01522514698,133.30700976385,15.417941794179,1373563.1609923,-2509.071125978,2746731.5463913,20.617941794179,0,0
613.01522545983,133.10522071314,15.422372237224,1373563.1609923,-2509.071125978,2746731.5463913,20.622372237224,0,0
613.01522577269,132.90343166244,15.426802680268,1373563.1609923,-2509.071125978,2746731.5463913,20.626802680268,0,0
613.01522608555,132.70164261173,15.431233123312,1373563.1609923,-2509.071125978,2746731.5463913,20.631233123312,0,0
613.01522639841,132.49985356102,15.435663566357,1373563.1609923,-2509.071125978,2746731.5463913,20.635663566357,0,0
613.01522671127,132.29806451031,15.440094009401,1373563.1609923,-2509.071125978,2746731.5463913,20.640094009401,0,0
613.01522702413,132.0962754596,15.444524452445,1373563.1609923,-2509.071125978,2746731.5463913,20.644524452445,0,0
613.01522733699,131.8944864089,15.44895489549,1373563.1609923,-2509.071125978,2746731.5463913,20.64895489549,0,0
613.01522764985,131.69269735819,15.453385338534,1373563.1609923,-2509.071125978,2746731.5463913,20.653385338534,0,0
613.01522796271,131.49090830748,15.457815781578,1373563.1609923,-2509.071125978,2746731.5463913,20.657815781578,0,0
613.01522827556,131.28911925677,15.462246224622,1373563.1609923,-2509.071125978,2746731.5463913,20.662246224622,0,0
613.01522858842,131.08733020606,15.466676667667,1373563.1609923,-2509.071125978,2746731.5463913,20.666676667667,0,0
613.01522890128,130.88554115535,15.471107110711,1373563.1609923,-2509.071125978,2746731.5463913,20.671107110711,0,0
613.01522921414,130.68375210465,15.475537553755,1373563.1609923,-2509.071125978,2746731.5463913,20.675537553755,0,0
613.015229527,130.48196305394,15.4799679968,1373563.1609923,-2509.071125978,2746731.5463913,20.6799679968,0,0
613.01522983986,130.28017400323,15.484398439844,1373563.1609923,-2509.071125978,2746731.5463913,20.684398439844,0,0
613.01523015272,130.07838495252,15.488828882888,1373563.1609923,-2509.071125978,2746731.5463913,20.688828882888,0,0
613.01523046558,129.87659590181,15.493259325933,1373563.1609923,-2509.071125978,2746731.5463913,20.693259325933,0,0
613.01523077844,129.6748068511,15.497689768977,1373563.1609923,-2509.071125978,2746731.5463913,20.697689768977,0,0
613.01523109129,129.4730178004,15.502120212021,1373563.1609923,-2509.071125978,2746731.5463913,20.702120212021,0,0
613.01523140415,129.27122874969,15.506550655066,1373563.1609923,-2509.071125978,2746731.5463913,20.706550655066,0,0
613.01523171701,129.06943969898,15.51098109811,1373563.1609923,-2509.071125978,2746731.5463913,20.71098109811,0,0
613.01523202987,128.86765064827,15.515411541154,1373563.1609923,-2509.071125978,2746731.5463913,20.715411541154,0,0
613.01523234273,128.66586159756,15.519841984198,1373563.1609923,-2509.071125978,2746731.5463913,20.719841984198,0,0
613.01523265559,128.46407254686,15.524272427243,1373563.1609923,-2509.071125978,2746731.5463913,20.724272427243,0,0
613.01523296845,128.26228349615,15.528702870287,1373563.1609923,-2509.071125978,2746731.5463913,20.728702870287,0,0
613.01523328131,128.06049444544,15.533133313331,1373563.1609923,-2509.071125978,2746731.5463913,20.733133313331,0,0
613.01523359416,127.85870539473,15.537563756376,1373563.1609923,-2509.071125978,2746731.5463913,20.737563756376,0,0
613.01523390702,127.65691634402,15.54199419942,1373563.1609923,-2509.071125978,2746731.5463913,20.74199419942,0,0
613.01523421988,127.45512729331,15.546424642464,1373563.1609923,-2509.071125978,2746731.5463913,20.746424642464,0,0
613.01523453274,127.25333824261,15.550855085509,1373563.1609923,-2509.071125978,2746731.5463913,20.750855085509,0,0
613.0152348456,127.0515491919,15.555285528553,1373563.1609923,-2509.071125978,2746731.5463913,20.755285528553,0,0
613.01523515846,126.84976014119,15.559715971597,1373563.1609923,-2509.071125978,2746731.5463913,20.759715971597,0,0
613.01523547132,126.64797109048,15.564146414641,1373563.1609923,-2509.071125978,2746731.5463913,20.764146414641,0,0
613.01523578418,126.44618203977,15.568576857686,1373563.1609923,-2509.071125978,2746731.5463913,20.768576857686,0,0
613.01523609704,126.24439298907,15.57300730073,1373563.1609923,-2509.071125978,2746731.5463913,20.77300730073,0,0
613.01523640989,126.04260393836,15.577437743774,1373563.1609923,-2509.071125978,2746731.5463913,20.777437743774,0,0
613.01523672275,125.84081488765,15.581868186819,1373563.1609923,-2509.071125978,2746731.5463913,20.781868186819,0,0
613.01523703561,125.63902583694,15.586298629863,1373563.1609923,-2509.071125978,2746731.5463913,20.786298629863,0,0
613.01523734847,125.43723678623,15.590729072907,1373563.1609923,-2509.071125978,2746731.5463913,20.790729072907,0,0
613.01523766133,125.23544773552,15.595159515952,1373563.1609923,-2509.071125978,2746731.5463913,20.795159515952,0,0
613.01523797419,125.03365868482,15.599589958996,1373563.1609923,-2509.071125978,2746731.5463913,20.799589958996,0,0
613.01523828705,124.83186963411,15.60402040204,1373563.1609923,-2509.071125978,2746731.5463913,20.80402040204,0,0
613.01523859991,124.6300805834,15.608450845085,1373563.1609923,-2509.071125978,2746731.5463913,20.808450845085,0,0
613.01523891277,124.42829153269,15.612881288129,1373563.1609923,-2509.071125978,2746731.5463913,20.812881288129,0,0
613.01523922562,124.22650248198,15.617311731173,1373563.1609923,-2509.071125978,2746731.5463913,20.817311731173,0,0
613.01523953848,124.02471343127,15.621742174217,1373563.1609923,-2509.071125978,2746731.5463913,20.821742174217,0,0
613.01523985134,123.82292438057,15.626172617262,1373563.1609923,-2509.071125978,2746731.5463913,20.826172617262,0,0
613.0152401642,123.62113532986,15.630603060306,1373563.1609923,-2509.071125978,2746731.5463913,20.830603060306,0,0
613.01524047706,123.41934627915,15.63503350335,1373563.1609923,-2509.071125978,2746731.5463913,20.83503350335,0,0
613.01524078992,123.21755722844,15.639463946395,1373563.1609923,-2509.071125978,2746731.5463913,20.839463946395,0,0
613.01524110278,123.01576817773,15.643894389439,1373563.1609923,-2509.071125978,2746731.5463913,20.843894389439,0,0
613.01524141564,122.81397912703,15.648324832483,1373563.1609923,-2509.071125978,2746731.5463913,20.848324832483,0,0
613.01524172849,122.61219007632,15.652755275528,1373563.1609923,-2509.071125978,2746731.5463913,20.852755275528,0,0
613.01524204135,122.41040102561,15.657185718572,1373563.1609923,-2509.071125978,2746731.5463913,20.857185718572,0,0
613.01524235421,122.2086119749,15.661616161616,1373563.1609923,-2509.071125978,2746731.5463913,20.861616161616,0,0
613.01524266707,122.00682292419,15.66604660466,1373563.1609923,-2509.071125978,2746731.5463913,20.86604660466,0,0
613.01524297993,121.80503387348,15.670477047705,1373563.1609923,-2509.071125978,2746731.5463913,20.870477047705,0,0
613.01524329279,121.60324482278,15.674907490749,1373563.1609923,-2509.071125978,2746731.5463913,20.874907490749,0,0
613.01524360565,121.40145577207,15.679337933793,1373563.1609923,-2509.071125978,2746731.5463913,20.879337933793,0,0
613.01524391851,121.19966672136,15.683768376838,1373563.1609923,-2509.071125978,2746731.5463913,20.883768376838,0,0
613.01524423137,120.99787767065,15.688198819882,1373563.1609923,-2509.071125978,2746731.5463913,20.888198819882,0,0
613.01524454422,120.79608861994,15.692629262926,1373563.1609923,-2509.071125978,2746731.5463913,20.892629262926,0,0
613.01524485708,120.59429956923,15.697059705971,1373563.1609923,-2509.071125978,2746731.5463913,20.897059705971,0,0
613.01524516994,120.39251051853,15.701490149015,1373563.1609923,-2509.071125978,2746731.5463913,20.901490149015,0,0
613.0152454828,120.19072146782,15.705920592059,1373563.1609923,-2509.071125978,2746731.5463913,20.905920592059,0,0
613.01524579566,119.98893241711,15.710351035104,1373563.1609923,-2509.071125978,2746731.5463913,20.910351035104,0,0
613.01524610852,119.7871433664,15.714781478148,1373563.1609923,-2509.071125978,2746731.5463913,20.914781478148,0,0
613.01524642138,119.58535431569,15.719211921192,1373563.1609923,-2509.071125978,2746731.5463913,20.919211921192,0,0
613.01524673424,119.38356526499,15.723642364236,1373563.1609923,-2509.071125978,2746731.5463913,20.923642364236,0,0
613.0152470471,119.18177621428,15.728072807281,1373563.1609923,-2509.071125978,2746731.5463913,20.928072807281,0,0
613.01524735995,118.97998716357,15.732503250325,1373563.1609923,-2509.071125978,2746731.5463913,20.932503250325,0,0
613.01524767281,118.77819811286,15.736933693369,1373563.1609923,-2509.071125978,2746731.5463913,20.936933693369,0,0
613.01524798567,118.57640906215,15.741364136414,1373563.1609923,-2509.071125978,2746731.5463913,20.941364136414,0,0
613.01524829853,118.37462001144,15.745794579458,1373563.1609923,-2509.071125978,2746731.5463913,20.945794579458,0,0
613.01524861139,118.17283096074,15.750225022502,1373563.1609923,-2509.071125978,2746731.5463913,20.950225022502,0,0
613.01524892425,117.97104191003,15.754655465547,1373563.1609923,-2509.071125978,2746731.5463913,20.954655465547,0,0
613.01524923711,117.76925285932,15.759085908591,1373563.1609923,-2509.071125978,2746731.5463913,20.959085908591,0,0
613.01524954997,117.56746380861,15.763516351635,1373563.1609923,-2509.071125978,2746731.5463913,20.963516351635,0,0
613.01524986282,117.3656747579,15.767946794679,1373563.1609923,-2509.071125978,2746731.5463913,20.967946794679,0,0
613.01525017568,117.1638857072,15.772377237724,1373563.1609923,-2509.071125978,2746731.5463913,20.972377237724,0,0
613.01525048854,116.96209665649,15.776807680768,1373563.1609923,-2509.071125978,2746731.5463913,20.976807680768,0,0
613.0152508014,116.76030760578,15.781238123812,1373563.1609923,-2509.071125978,2746731.5463913,20.981238123812,0,0
613.01525111426,116.55851855507,15.785668566857,1373563.1609923,-2509.071125978,2746731.5463913,20.985668566857,0,0
613.01525142712,116.35672950436,15.790099009901,1373563.1609923,-2509.071125978,2746731.5463913,20.990099009901,0,0
613.01525173998,116.15494045365,15.794529452945,1373563.1609923,-2509.071125978,2746731.5463913,20.994529452945,0,0
613.01525205284,115.95315140295,15.79895989599,1373563.1609923,-2509.071125978,2746731.5463913,20.99895989599,0,0
613.0152523657,115.75136235224,15.803390339034,1373563.1609923,-2509.071125978,2746731.5463913,21.003390339034,0,0
613.01525267855,115.54957330153,15.807820782078,1373563.1609923,-2509.071125978,2746731.5463913,21.007820782078,0,0
613.01525299141,115.34778425082,15.812251225123,1373563.1609923,-2509.071125978,2746731.5463913,21.012251225123,0,0
613.01525330427,115.14599520011,15.816681668167,1373563.1609923,-2509.071125978,2746731.5463913,21.016681668167,0,0
613.01525361713,114.9442061494,15.821112111211,1373563.1609923,-2509.071125978,2746731.5463913,21.021112111211,0,0
613.01525392999,114.7424170987,15.825542554255,1373563.1609923,-2509.071125978,2746731.5463913,21.025542554255,0,0
613.01525424285,114.54062804799,15.8299729973,1373563.1609923,-2509.071125978,2746731.5463913,21.0299729973,0,0
613.01525455571,114.33883899728,15.834403440344,1373563.1609923,-2509.071125978,2746731.5463913,21.034403440344,0,0
613.01525486857,114.13704994657,15.838833883388,1373563.1609923,-2509.071125978,2746731.5463913,21.038833883388,0,0
613.01525518143,113.93526089586,15.843264326433,1373563.1609923,-2509.071125978,2746731.5463913,21.043264326433,0,0
613.01525549428,113.73347184516,15.847694769477,1373563.1609923,-2509.071125978,2746731.5463913,21.047694769477,0,0
613.01525580714,113.53168279445,15.852125212521,1373563.1609923,-2509.071125978,2746731.5463913,21.052125212521,0,0
613.01525612,113.32989374374,15.856555655566,1373563.1609923,-2509.071125978,2746731.5463913,21.056555655566,0,0
613.01525643286,113.12810469303,15.86098609861,1373563.1609923,-2509.071125978,2746731.5463913,21.06098609861,0,0
613.01525674572,112.92631564232,15.865416541654,1373563.1609923,-2509.071125978,2746731.5463913,21.065416541654,0,0
613.01525705858,112.72452659161,15.869846984698,1373563.1609923,-2509.071125978,2746731.5463913,21.069846984698,0,0
613.01525737144,112.52273754091,15.874277427743,1373563.1609923,-2509.071125978,2746731.5463913,21.074277427743,0,0
613.0152576843,112.3209484902,15.878707870787,1373563.1609923,-2509.071125978,2746731.5463913,21.078707870787,0,0
613.01525799715,112.11915943949,15.883138313831,1373563.1609923,-2509.071125978,2746731.5463913,21.083138313831,0,0
613.01525831001,111.91737038878,15.887568756876,1373563.1609923,-2509.071125978,2746731.5463913,21.087568756876,0,0
613.01525862287,111.71558133807,15.89199919992,1373563.1609923,-2509.071125978,2746731.5463913,21.09199919992,0,0
613.01525893573,111.51379228736,15.896429642964,1373563.1609923,-2509.071125978,2746731.5463913,21.096429642964,0,0
613.01525924859,111.31200323666,15.900860086009,1373563.1609923,-2509.071125978,2746731.5463913,21.100860086009,0,0
613.01525956145,111.11021418595,15.905290529053,1373563.1609923,-2509.071125978,2746731.5463913,21.105290529053,0,0
613.01525987431,110.90842513524,15.909720972097,1373563.1609923,-2509.071125978,2746731.5463913,21.109720972097,0,0
613.01526018717,110.70663608453,15.914151415142,1373563.1609923,-2509.071125978,2746731.5463913,21.114151415142,0,0
613.01526050003,110.50484703382,15.918581858186,1373563.1609923,-2509.071125978,2746731.5463913,21.118581858186,0,0
613.01526081288,110.30305798312,15.92301230123,1373563.1609923,-2509.071125978,2746731.5463913,21.12301230123,0,0
613.01526112574,110.10126893241,15.927442744274,1373563.1609923,-2509.071125978,2746731.5463913,21.127442744274,0,0
613.0152614386,109.8994798817,15.931873187319,1373563.1609923,-2509.071125978,2746731.5463913,21.131873187319,0,0
613.01526175142,109.69769083263,15.936303630363,1371521.275271,2288.9740479544,2739688.5393573,21.136303630363,0,0
613.01526206422,109.49590178408,15.940734073407,1371521.275271,2288.9740479544,2739688.5393573,21.140734073407,0,0
613.01526237703,109.29411273552,15.945164516452,1371521.275271,2288.9740479544,2739688.5393573,21.145164516452,0,0
613.01526268983,109.09232368697,15.949594959496,1371521.275271,2288.9740479544,2739688.5393573,21.149594959496,0,0
613.01526300263,108.89053463842,15.95402540254,1371521.275271,2288.9740479544,2739688.5393573,21.15402540254,0,0
613.01526331544,108.68874558987,15.958455845585,1371521.275271,2288.9740479544,2739688.5393573,21.158455845585,0,0
613.01526362824,108.48695654131,15.962886288629,1371521.275271,2288.9740479544,2739688.5393573,21.162886288629,0,0
613.01526394104,108.28516749276,15.967316731673,1371521.275271,2288.9740479544,2739688.5393573,21.167316731673,0,0
613.01526425385,108.08337844421,15.971747174717,1371521.275271,2288.9740479544,2739688.5393573,21.171747174717,0,0
613.01526456665,107.88158939565,15.976177617762,1371521.275271,2288.9740479544,2739688.5393573,21.176177617762,0,0
613.01526487945,107.6798003471,15.980608060806,1371521.275271,2288.9740479544,2739688.5393573,21.180608060806,0,0
613.01526519226,107.47801129855,15.98503850385,1371521.275271,2288.9740479544,2739688.5393573,21.18503850385,0,0
613.01526550506,107.27622225,15.989468946895,1371521.275271,2288.9740479544,2739688.5393573,21.189468946895,0,0
613.01526581786,107.07443320144,15.993899389939,1371521.275271,2288.9740479544,2739688.5393573,21.193899389939,0,0
613.01526613067,106.87264415289,15.998329832983,1371521.275271,2288.9740479544,2739688.5393573,21.198329832983,0,0
613.01526644347,106.67085510434,16.002760276028,1371521.275271,2288.9740479544,2739688.5393573,21.202760276028,0,0
613.01526675627,106.46906605578,16.007190719072,1371521.275271,2288.9740479544,2739688.5393573,21.207190719072,0,0
613.01526706908,106.26727700723,16.011621162116,1371521.275271,2288.9740479544,2739688.5393573,21.211621162116,0,0
613.01526738188,106.06548795868,16.016051605161,1371521.275271,2288.9740479544,2739688.5393573,21.216051605161,0,0
613.01526769468,105.86369891012,16.020482048205,1371521.275271,2288.9740479544,2739688.5393573,21.220482048205,0,0
613.01526800749,105.66190986157,16.024912491249,1371521.275271,2288.9740479544,2739688.5393573,21.224912491249,0,0
613.01526832029,105.46012081302,16.029342934293,1371521.275271,2288.9740479544,2739688.5393573,21.229342934293,0,0
613.0152686331,105.25833176447,16.033773377338,1371521.275271,2288.9740479544,2739688.5393573,21.233773377338,0,0
613.0152689459,105.05654271591,16.038203820382,1371521.275271,2288.9740479544,2739688.5393573,21.238203820382,0,0
613.0152692587,104.85475366736,16.042634263426,1371521.275271,2288.9740479544,2739688.5393573,21.242634263426,0,0
613.01526957151,104.65296461881,16.047064706471,1371521.275271,2288.9740479544,2739688.5393573,21.247064706471,0,0
613.01526988431,104.45117557025,16.051495149515,1371521.275271,2288.9740479544,2739688.5393573,21.251495149515,0,0
613.01527019711,104.2493865217,16.055925592559,1371521.275271,2288.9740479544,2739688.5393573,21.255925592559,0,0
613.01527050992,104.04759747315,16.060356035604,1371521.275271,2288.9740479544,2739688.5393573,21.260356035604,0,0
613.01527082272,103.84580842459,16.064786478648,1371521.275271,2288.9740479544,2739688.5393573,21.264786478648,0,0
613.01527113552,103.64401937604,16.069216921692,1371521.275271,2288.9740479544,2739688.5393573,21.269216921692,0,0
613.01527144833,103.44223032749,16.073647364736,1371521.275271,2288.9740479544,2739688.5393573,21.273647364736,0,0
613.01527176113,103.24044127894,16.078077807781,1371521.275271,2288.9740479544,2739688.5393573,21.278077807781,0,0
613.01527207393,103.03865223038,16.082508250825,1371521.275271,2288.9740479544,2739688.5393573,21.282508250825,0,0
613.01527238674,102.83686318183,16.086938693869,1371521.275271,2288.9740479544,2739688.5393573,21.286938693869,0,0
613.01527269954,102.63507413328,16.091369136914,1371521.275271,2288.9740479544,2739688.5393573,21.291369136914,0,0
613.01527301234,102.43328508472,16.095799579958,1371521.275271,2288.9740479544,2739688.5393573,21.295799579958,0,0
613.01527332515,102.23149603617,16.100230023002,1371521.275271,2288.9740479544,2739688.5393573,21.300230023002,0,0
613.01527363795,102.02970698762,16.104660466047,1371521.275271,2288.9740479544,2739688.5393573,21.304660466047,0,0
613.01527395075,101.82791793907,16.109090909091,1371521.275271,2288.9740479544,2739688.5393573,21.309090909091,0,0
613.01527426356,101.62612889051,16.113521352135,1371521.275271,2288.9740479544,2739688.5393573,21.313521352135,0,0
613.01527457636,101.42433984196,16.11795179518,1371521.275271,2288.9740479544,2739688.5393573,21.31795179518,0,0
613.01527488916,101.22255079341,16.122382238224,1371521.275271,2288.9740479544,2739688.5393573,21.322382238224,0,0
613.01527520197,101.02076174485,16.126812681268,1371521.275271,2288.9740479544,2739688.5393573,21.326812681268,0,0
613.01527551477,100.8189726963,16.131243124312,1371521.275271,2288.9740479544,2739688.5393573,21.331243124312,0,0
613.01527582758,100.61718364775,16.135673567357,1371521.275271,2288.9740479544,2739688.5393573,21.335673567357,0,0
613.01527614038,100.41539459919,16.140104010401,1371521.275271,2288.9740479544,2739688.5393573,21.340104010401,0,0
613.01527645318,100.21360555064,16.144534453445,1371521.275271,2288.9740479544,2739688.5393573,21.344534453445,0,0
613.01527676599,100.01181650209,16.14896489649,1371521.275271,2288.9740479544,2739688.5393573,21.34896489649,0,0
613.01527707879,99.810027453536,16.153395339534,1371521.275271,2288.9740479544,2739688.5393573,21.353395339534,0,0
613.01527739159,99.608238404983,16.157825782578,1371521.275271,2288.9740479544,2739688.5393573,21.357825782578,0,0
613.0152777044,99.40644935643,16.162256225623,1371521.275271,2288.9740479544,2739688.5393573,21.362256225623,0,0
613.0152780172,99.204660307877,16.166686668667,1371521.275271,2288.9740479544,2739688.5393573,21.366686668667,0,0
613.01527833,99.002871259324,16.171117111711,1371521.275271,2288.9740479544,2739688.5393573,21.371117111711,0,0
613.01527864281,98.801082210771,16.175547554755,1371521.275271,2288.9740479544,2739688.5393573,21.375547554755,0,0
613.01527895561,98.599293162218,16.1799779978,1371521.275271,2288.9740479544,2739688.5393573,21.3799779978,0,0
613.01527926841,98.397504113665,16.184408440844,1371521.275271,2288.9740479544,2739688.5393573,21.384408440844,0,0
613.01527958122,98.195715065113,16.188838883888,1371521.275271,2288.9740479544,2739688.5393573,21.388838883888,0,0
613.01527989402,97.993926016559,16.193269326933,1371521.275271,2288.9740479544,2739688.5393573,21.393269326933,0,0
613.01528020682,97.792136968006,16.197699769977,1371521.275271,2288.9740479544,2739688.5393573,21.397699769977,0,0
613.01528051963,97.590347919453,16.202130213021,1371521.275271,2288.9740479544,2739688.5393573,21.402130213021,0,0
613.01528083243,97.388558870901,16.206560656066,1371521.275271,2288.9740479544,2739688.5393573,21.406560656066,0,0
613.01528114523,97.186769822348,16.21099109911,1371521.275271,2288.9740479544,2739688.5393573,21.41099109911,0,0
613.01528145804,96.984980773795,16.215421542154,1371521.275271,2288.9740479544,2739688.5393573,21.415421542154,0,0
613.01528177084,96.783191725242,16.219851985199,1371521.275271,2288.9740479544,2739688.5393573,21.419851985199,0,0
613.01528208364,96.581402676689,16.224282428243,1371521.275271,2288.9740479544,2739688.5393573,21.424282428243,0,0
613.01528239645,96.379613628136,16.228712871287,1371521.275271,2288.9740479544,2739688.5393573,21.428712871287,0,0
613.01528270925,96.177824579583,16.233143314331,1371521.275271,2288.9740479544,2739688.5393573,21.433143314331,0,0
613.01528302206,95.97603553103,16.237573757376,1371521.275271,2288.9740479544,2739688.5393573,21.437573757376,0,0
613.01528333486,95.774246482477,16.24200420042,1371521.275271,2288.9740479544,2739688.5393573,21.44200420042,0,0
613.01528364766,95.572457433924,16.246434643464,1371521.275271,2288.9740479544,2739688.5393573,21.446434643464,0,0
613.01528396047,95.370668385371,16.250865086509,1371521.275271,2288.9740479544,2739688.5393573,21.450865086509,0,0
613.01528427327,95.168879336818,16.255295529553,1371521.275271,2288.9740479544,2739688.5393573,21.455295529553,0,0
613.01528458607,94.967090288265,16.259725972597,1371521.275271,2288.9740479544,2739688.5393573,21.459725972597,0,0
613.01528489888,94.765301239712,16.264156415642,1371521.275271,2288.9740479544,2739688.5393573,21.464156415642,0,0
613.01528521168,94.563512191159,16.268586858686,1371521.275271,2288.9740479544,2739688.5393573,21.468586858686,0,0
613.01528552448,94.361723142606,16.27301730173,1371521.275271,2288.9740479544,2739688.5393573,21.47301730173,0,0
613.01528583729,94.159934094053,16.277447744774,1371521.275271,2288.9740479544,2739688.5393573,21.477447744774,0,0
613.01528615009,93.9581450455,16.281878187819,1371521.275271,2288.9740479544,2739688.5393573,21.481878187819,0,0
613.01528646289,93.756355996947,16.286308630863,1371521.275271,2288.9740479544,2739688.5393573,21.486308630863,0,0
613.0152867757,93.554566948394,16.290739073907,1371521.275271,2288.9740479544,2739688.5393573,21.490739073907,0,0
613.0152870885,93.352777899842,16.295169516952,1371521.275271,2288.9740479544,2739688.5393573,21.495169516952,0,0
613.0152874013,93.150988851289,16.299599959996,1371521.275271,2288.9740479544,2739688.5393573,21.499599959996,0,0
613.01528771411,92.949199802736,16.30403040304,1371521.275271,2288.9740479544,2739688.5393573,21.50403040304,0,0
613.01528802691,92.747410754183,16.308460846085,1371521.275271,2288.9740479544,2739688.5393573,21.508460846085,0,0
613.01528833971,92.54562170563,16.312891289129,1371521.275271,2288.9740479544,2739688.5393573,21.512891289129,0,0
613.01528865252,92.343832657077,16.317321732173,1371521.275271,2288.9740479544,2739688.5393573,21.517321732173,0,0
613.01528896532,92.142043608524,16.321752175218,1371521.275271,2288.9740479544,2739688.5393573,21.521752175218,0,0
613.01528927812,91.940254559971,16.326182618262,1371521.275271,2288.9740479544,2739688.5393573,21.526182618262,0,0
613.01528959093,91.738465511418,16.330613061306,1371521.275271,2288.9740479544,2739688.5393573,21.530613061306,0,0
613.01528990373,91.536676462865,16.33504350435,1371521.275271,2288.9740479544,2739688.5393573,21.53504350435,0,0
613.01529021654,91.334887414312,16.339473947395,1371521.275271,2288.9740479544,2739688.5393573,21.539473947395,0,0
613.01529052934,91.133098365759,16.343904390439,1371521.275271,2288.9740479544,2739688.5393573,21.543904390439,0,0
613.01529084214,90.931309317206,16.348334833483,1371521.275271,2288.9740479544,2739688.5393573,21.548334833483,0,0
613.01529115495,90.729520268653,16.352765276528,1371521.275271,2288.9740479544,2739688.5393573,21.552765276528,0,0
613.01529146775,90.5277312201,16.357195719572,1371521.275271,2288.9740479544,2739688.5393573,21.557195719572,0,0
613.01529178055,90.325942171547,16.361626162616,1371521.275271,2288.9740479544,2739688.5393573,21.561626162616,0,0
613.01529209336,90.124153122994,16.366056605661,1371521.275271,2288.9740479544,2739688.5393573,21.566056605661,0,0
613.01529240616,89.922364074441,16.370487048705,1371521.275271,2288.9740479544,2739688.5393573,21.570487048705,0,0
613.01529271896,89.720575025888,16.374917491749,1371521.275271,2288.9740479544,2739688.5393573,21.574917491749,0,0
613.01529303177,89.518785977335,16.379347934793,1371521.275271,2288.9740479544,2739688.5393573,21.579347934793,0,0
613.01529334457,89.316996928782,16.383778377838,1371521.275271,2288.9740479544,2739688.5393573,21.583778377838,0,0
613.01529365737,89.115207880229,16.388208820882,1371521.275271,2288.9740479544,2739688.5393573,21.588208820882,0,0
613.01529397018,88.913418831677,16.392639263926,1371521.275271,2288.9740479544,2739688.5393573,21.592639263926,0,0
613.01529428298,88.711629783124,16.397069706971,1371521.275271,2288.9740479544,2739688.5393573,21.597069706971,0,0
613.01529459578,88.509840734571,16.401500150015,1371521.275271,2288.9740479544,2739688.5393573,21.601500150015,0,0
613.01529490859,88.308051686018,16.405930593059,1371521.275271,2288.9740479544,2739688.5393573,21.605930593059,0,0
613.01529522139,88.106262637465,16.410361036104,1371521.275271,2288.9740479544,2739688.5393573,21.610361036104,0,0
613.01529553419,87.904473588912,16.414791479148,1371521.275271,2288.9740479544,2739688.5393573,21.614791479148,0,0
613.015295847,87.702684540359,16.419221922192,1371521.275271,2288.9740479544,2739688.5393573,21.619221922192,0,0
613.0152961598,87.500895491806,16.423652365237,1371521.275271,2288.9740479544,2739688.5393573,21.623652365237,0,0
613.0152964726,87.299106443253,16.428082808281,1371521.275271,2288.9740479544,2739688.5393573,21.628082808281,0,0
613.01529678541,87.0973173947,16.432513251325,1371521.275271,2288.9740479544,2739688.5393573,21.632513251325,0,0
613.01529709821,86.895528346147,16.436943694369,1371521.275271,2288.9740479544,2739688.5393573,21.636943694369,0,0
613.01529741102,86.693739297594,16.441374137414,1371521.275271,2288.9740479544,2739688.5393573,21.641374137414,0,0
613.01529772382,86.491950249041,16.445804580458,1371521.275271,2288.9740479544,2739688.5393573,21.645804580458,0,0
613.01529803662,86.290161200488,16.450235023502,1371521.275271,2288.9740479544,2739688.5393573,21.650235023502,0,0
613.01529834943,86.088372151935,16.454665466547,1371521.275271,2288.9740479544,2739688.5393573,21.654665466547,0,0
613.01529866223,85.886583103382,16.459095909591,1371521.275271,2288.9740479544,2739688.5393573,21.659095909591,0,0
613.01529897503,85.684794054829,16.463526352635,1371521.275271,2288.9740479544,2739688.5393573,21.663526352635,0,0
613.01529928784,85.483005006276,16.46795679568,1371521.275271,2288.9740479544,2739688.5393573,21.66795679568,0,0
613.01529960064,85.281215957723,16.472387238724,1371521.275271,2288.9740479544,2739688.5393573,21.672387238724,0,0
613.01529991344,85.07942690917,16.476817681768,1371521.275271,2288.9740479544,2739688.5393573,21.676817681768,0,0
613.01530022625,84.877637860617,16.481248124812,1371521.275271,2288.9740479544,2739688.5393573,21.681248124812,0,0
613.01530053905,84.675848812065,16.485678567857,1371521.275271,2288.9740479544,2739688.5393573,21.685678567857,0,0
613.01530085185,84.474059763512,16.490109010901,1371521.275271,2288.9740479544,2739688.5393573,21.690109010901,0,0
613.01530116466,84.272270714959,16.494539453945,1371521.275271,2288.9740479544,2739688.5393573,21.694539453945,0,0
613.01530147746,84.070481666406,16.49896989699,1371521.275271,2288.9740479544,2739688.5393573,21.69896989699,0,0
613.01530179026,83.868692617853,16.503400340034,1371521.275271,2288.9740479544,2739688.5393573,21.703400340034,0,0
613.01530210307,83.6669035693,16.507830783078,1371521.275271,2288.9740479544,2739688.5393573,21.707830783078,0,0
613.01530241587,83.465114520747,16.512261226123,1371521.275271,2288.9740479544,2739688.5393573,21.712261226123,0,0
613.01530272867,83.263325472194,16.516691669167,1371521.275271,2288.9740479544,2739688.5393573,21.716691669167,0,0
613.01530304148,83.061536423641,16.521122112211,1371521.275271,2288.9740479544,2739688.5393573,21.721122112211,0,0
613.01530335428,82.859747375088,16.525552555256,1371521.275271,2288.9740479544,2739688.5393573,21.725552555256,0,0
613.01530366708,82.657958326535,16.5299829983,1371521.275271,2288.9740479544,2739688.5393573,21.7299829983,0,0
613.01530397989,82.456169277982,16.534413441344,1371521.275271,2288.9740479544,2739688.5393573,21.734413441344,0,0
613.01530429269,82.254380229429,16.538843884388,1371521.275271,2288.9740479544,2739688.5393573,21.738843884388,0,0
613.01530460549,82.052591180876,16.543274327433,1371521.275271,2288.9740479544,2739688.5393573,21.743274327433,0,0
613.0153049183,81.850802132323,16.547704770477,1371521.275271,2288.9740479544,2739688.5393573,21.747704770477,0,0
613.0153052311,81.64901308377,16.552135213521,1371521.275271,2288.9740479544,2739688.5393573,21.752135213521,0,0
613.01530554391,81.447224035217,16.556565656566,1371521.275271,2288.9740479544,2739688.5393573,21.756565656566,0,0
613.01530585671,81.245434986664,16.56099609961,1371521.275271,2288.9740479544,2739688.5393573,21.76099609961,0,0
613.01530616951,81.043645938111,16.565426542654,1371521.275271,2288.9740479544,2739688.5393573,21.765426542654,0,0
613.01530648232,80.841856889558,16.569856985699,1371521.275271,2288.9740479544,2739688.5393573,21.769856985699,0,0
613.01530679512,80.640067841005,16.574287428743,1371521.275271,2288.9740479544,2739688.5393573,21.774287428743,0,0
613.01530710792,80.438278792453,16.578717871787,1371521.275271,2288.9740479544,2739688.5393573,21.778717871787,0,0
613.01530742073,80.2364897439,16.583148314831,1371521.275271,2288.9740479544,2739688.5393573,21.783148314831,0,0
613.01530773353,80.034700695347,16.587578757876,1371521.275271,2288.9740479544,2739688.5393573,21.787578757876,0,0
613.01530804633,79.832911646794,16.59200920092,1371521.275271,2288.9740479544,2739688.5393573,21.79200920092,0,0
613.01530835914,79.631122598241,16.596439643964,1371521.275271,2288.9740479544,2739688.5393573,21.796439643964,0,0
613.01530867194,79.429333549688,16.600870087009,1371521.275271,2288.9740479544,2739688.5393573,21.800870087009,0,0
613.01530898474,79.227544501135,16.605300530053,1371521.275271,2288.9740479544,2739688.5393573,21.805300530053,0,0
613.01530929755,79.025755452582,16.609730973097,1371521.275271,2288.9740479544,2739688.5393573,21.809730973097,0,0
613.01530961035,78.823966404029,16.614161416142,1371521.275271,2288.9740479544,2739688.5393573,21.814161416142,0,0
613.01530992315,78.622177355476,16.618591859186,1371521.275271,2288.9740479544,2739688.5393573,21.818591859186,0,0
613.01531023596,78.420388306923,16.62302230223,1371521.275271,2288.9740479544,2739688.5393573,21.82302230223,0,0
613.01531054876,78.21859925837,16.627452745275,1371521.275271,2288.9740479544,2739688.5393573,21.827452745275,0,0
613.01531086156,78.016810209817,16.631883188319,1371521.275271,2288.9740479544,2739688.5393573,21.831883188319,0,0
613.01531117437,77.815021161264,16.636313631363,1371521.275271,2288.9740479544,2739688.5393573,21.836313631363,0,0
613.01531148717,77.613232112711,16.640744074407,1371521.275271,2288.9740479544,2739688.5393573,21.840744074407,0,0
613.01531179997,77.411443064158,16.645174517452,1371521.275271,2288.9740479544,2739688.5393573,21.845174517452,0,0
613.01531211278,77.209654015605,16.649604960496,1371521.275271,2288.9740479544,2739688.5393573,21.849604960496,0,0
613.01531242558,77.007864967052,16.65403540354,1371521.275271,2288.9740479544,2739688.5393573,21.85403540354,0,0
613.01531273839,76.806075918499,16.658465846585,1371521.275271,2288.9740479544,2739688.5393573,21.858465846585,0,0
613.01531305119,76.604286869946,16.662896289629,1371521.275271,2288.9740479544,2739688.5393573,21.862896289629,0,0
613.01531336399,76.402497821393,16.667326732673,1371521.275271,2288.9740479544,2739688.5393573,21.867326732673,0,0
613.0153136768,76.200708772841,16.671757175718,1371521.275271,2288.9740479544,2739688.5393573,21.871757175718,0,0
613.0153139896,75.998919724288,16.676187618762,1371521.275271,2288.9740479544,2739688.5393573,21.876187618762,0,0
613.0153143024,75.797130675735,16.680618061806,1371521.275271,2288.9740479544,2739688.5393573,21.880618061806,0,0
613.01531461521,75.595341627182,16.68504850485,1371521.275271,2288.9740479544,2739688.5393573,21.88504850485,0,0
613.01531492801,75.393552578629,16.689478947895,1371521.275271,2288.9740479544,2739688.5393573,21.889478947895,0,0
613.01531524081,75.191763530076,16.693909390939,1371521.275271,2288.9740479544,2739688.5393573,21.893909390939,0,0
613.01531555362,74.989974481523,16.698339833983,1371521.275271,2288.9740479544,2739688.5393573,21.898339833983,0,0
613.01531586642,74.78818543297,16.702770277028,1371521.275271,2288.9740479544,2739688.5393573,21.902770277028,0,0
613.01531617922,74.586396384417,16.707200720072,1371521.275271,2288.9740479544,2739688.5393573,21.907200720072,0,0
613.01531649203,74.384607335864,16.711631163116,1371521.275271,2288.9740479544,2739688.5393573,21.911631163116,0,0
613.01531680483,74.182818287311,16.716061606161,1371521.275271,2288.9740479544,2739688.5393573,21.916061606161,0,0
613.01531711763,73.981029238758,16.720492049205,1371521.275271,2288.9740479544,2739688.5393573,21.920492049205,0,0
613.01531743044,73.779240190205,16.724922492249,1371521.275271,2288.9740479544,2739688.5393573,21.924922492249,0,0
613.01531774324,73.577451141652,16.729352935294,1371521.275271,2288.9740479544,2739688.5393573,21.929352935294,0,0
613.01531805604,73.375662093099,16.733783378338,1371521.275271,2288.9740479544,2739688.5393573,21.933783378338,0,0
613.01531836885,73.173873044546,16.738213821382,1371521.275271,2288.9740479544,2739688.5393573,21.938213821382,0,0
613.01531868165,72.972083995993,16.742644264426,1371521.275271,2288.9740479544,2739688.5393573,21.942644264426,0,0
613.01531899445,72.77029494744,16.747074707471,1371521.275271,2288.9740479544,2739688.5393573,21.947074707471,0,0
613.01531930726,72.568505898887,16.751505150515,1371521.275271,2288.9740479544,2739688.5393573,21.951505150515,0,0
613.01531962006,72.366716850334,16.755935593559,1371521.275271,2288.9740479544,2739688.5393573,21.955935593559,0,0
613.01531993287,72.164927801781,16.760366036604,1371521.275271,2288.9740479544,2739688.5393573,21.960366036604,0,0
613.01532024567,71.963138753229,16.764796479648,1371521.275271,2288.9740479544,2739688.5393573,21.964796479648,0,0
613.01532055847,71.761349704676,16.769226922692,1371521.275271,2288.9740479544,2739688.5393573,21.969226922692,0,0
613.01532087128,71.559560656123,16.773657365737,1371521.275271,2288.9740479544,2739688.5393573,21.973657365737,0,0
613.01532118408,71.35777160757,16.778087808781,1371521.275271,2288.9740479544,2739688.5393573,21.978087808781,0,0
613.01532149688,71.155982559017,16.782518251825,1371521.275271,2288.9740479544,2739688.5393573,21.982518251825,0,0
613.01532180983,70.954193509603,16.786948694869,1371180.1613728,-1631.1686251435,2730497.4004309,21.986948694869,0,0
613.01532212299,70.75240445898,16.791379137914,1371180.1613728,-1631.1686251435,2730497.4004309,21.991379137914,0,0
613.01532243614,70.550615408358,16.795809580958,1371180.1613728,-1631.1686251435,2730497.4004309,21.995809580958,0,0
613.0153227493,70.348826357736,16.800240024002,1371180.1613728,-1631.1686251435,2730497.4004309,22.000240024002,0,0
613.01532306246,70.147037307114,16.804670467047,1371180.1613728,-1631.1686251435,2730497.4004309,22.004670467047,0,0
613.01532337561,69.945248256492,16.809100910091,1371180.1613728,-1631.1686251435,2730497.4004309,22.009100910091,0,0
613.01532368877,69.743459205869,16.813531353135,1371180.1613728,-1631.1686251435,2730497.4004309,22.013531353135,0,0
613.01532400192,69.541670155247,16.81796179618,1371180.1613728,-1631.1686251435,2730497.4004309,22.01796179618,0,0
613.01532431508,69.339881104625,16.822392239224,1371180.1613728,-1631.1686251435,2730497.4004309,22.022392239224,0,0
613.01532462823,69.138092054003,16.826822682268,1371180.1613728,-1631.1686251435,2730497.4004309,22.026822682268,0,0
613.01532494139,68.936303003381,16.831253125313,1371180.1613728,-1631.1686251435,2730497.4004309,22.031253125313,0,0
613.01532525455,68.734513952759,16.835683568357,1371180.1613728,-1631.1686251435,2730497.4004309,22.035683568357,0,0
613.0153255677,68.532724902136,16.840114011401,1371180.1613728,-1631.1686251435,2730497.4004309,22.040114011401,0,0
613.01532588086,68.330935851514,16.844544454445,1371180.1613728,-1631.1686251435,2730497.4004309,22.044544454445,0,0
613.01532619401,68.129146800892,16.84897489749,1371180.1613728,-1631.1686251435,2730497.4004309,22.04897489749,0,0
613.01532650717,67.92735775027,16.853405340534,1371180.1613728,-1631.1686251435,2730497.4004309,22.053405340534,0,0
613.01532682032,67.725568699648,16.857835783578,1371180.1613728,-1631.1686251435,2730497.4004309,22.057835783578,0,0
613.01532713348,67.523779649026,16.862266226623,1371180.1613728,-1631.1686251435,2730497.4004309,22.062266226623,0,0
613.01532744664,67.321990598403,16.866696669667,1371180.1613728,-1631.1686251435,2730497.4004309,22.066696669667,0,0
613.01532775979,67.120201547781,16.871127112711,1371180.1613728,-1631.1686251435,2730497.4004309,22.071127112711,0,0
613.01532807295,66.918412497159,16.875557555756,1371180.1613728,-1631.1686251435,2730497.4004309,22.075557555756,0,0
613.0153283861,66.716623446537,16.8799879988,1371180.1613728,-1631.1686251435,2730497.4004309,22.0799879988,0,0
613.01532869926,66.514834395915,16.884418441844,1371180.1613728,-1631.1686251435,2730497.4004309,22.084418441844,0,0
613.01532901241,66.313045345293,16.888848884888,1371180.1613728,-1631.1686251435,2730497.4004309,22.088848884888,0,0
613.01532932557,66.11125629467,16.893279327933,1371180.1613728,-1631.1686251435,2730497.4004309,22.093279327933,0,0
613.01532963873,65.909467244048,16.897709770977,1371180.1613728,-1631.1686251435,2730497.4004309,22.097709770977,0,0
613.01532995188,65.707678193426,16.902140214021,1371180.1613728,-1631.1686251435,2730497.4004309,22.102140214021,0,0
613.01533026504,65.505889142804,16.906570657066,1371180.1613728,-1631.1686251435,2730497.4004309,22.106570657066,0,0
613.01533057819,65.304100092182,16.91100110011,1371180.1613728,-1631.1686251435,2730497.4004309,22.11100110011,0,0
613.01533089135,65.10231104156,16.915431543154,1371180.1613728,-1631.1686251435,2730497.4004309,22.115431543154,0,0
613.0153312045,64.900521990937,16.919861986199,1371180.1613728,-1631.1686251435,2730497.4004309,22.119861986199,0,0
613.01533151766,64.698732940316,16.924292429243,1371180.1613728,-1631.1686251435,2730497.4004309,22.124292429243,0,0
613.01533183082,64.496943889693,16.928722872287,1371180.1613728,-1631.1686251435,2730497.4004309,22.128722872287,0,0
613.01533214397,64.295154839071,16.933153315332,1371180.1613728,-1631.1686251435,2730497.4004309,22.133153315332,0,0
613.01533245713,64.093365788449,16.937583758376,1371180.1613728,-1631.1686251435,2730497.4004309,22.137583758376,0,0
613.01533277028,63.891576737827,16.94201420142,1371180.1613728,-1631.1686251435,2730497.4004309,22.14201420142,0,0
613.01533308344,63.689787687204,16.946444644464,1371180.1613728,-1631.1686251435,2730497.4004309,22.146444644464,0,0
613.01533339659,63.487998636582,16.950875087509,1371180.1613728,-1631.1686251435,2730497.4004309,22.150875087509,0,0
613.01533370975,63.28620958596,16.955305530553,1371180.1613728,-1631.1686251435,2730497.4004309,22.155305530553,0,0
613.01533402291,63.084420535338,16.959735973597,1371180.1613728,-1631.1686251435,2730497.4004309,22.159735973597,0,0
613.01533433606,62.882631484716,16.964166416642,1371180.1613728,-1631.1686251435,2730497.4004309,22.164166416642,0,0
613.01533464922,62.680842434094,16.968596859686,1371180.1613728,-1631.1686251435,2730497.4004309,22.168596859686,0,0
613.01533496237,62.479053383471,16.97302730273,1371180.1613728,-1631.1686251435,2730497.4004309,22.17302730273,0,0
613.01533527553,62.277264332849,16.977457745775,1371180.1613728,-1631.1686251435,2730497.4004309,22.177457745775,0,0
613.01533558868,62.075475282227,16.981888188819,1371180.1613728,-1631.1686251435,2730497.4004309,22.181888188819,0,0
613.01533590184,61.873686231605,16.986318631863,1371180.1613728,-1631.1686251435,2730497.4004309,22.186318631863,0,0
613.015336215,61.671897180983,16.990749074907,1371180.1613728,-1631.1686251435,2730497.4004309,22.190749074907,0,0
613.01533652815,61.470108130361,16.995179517952,1371180.1613728,-1631.1686251435,2730497.4004309,22.195179517952,0,0
613.01533684131,61.268319079739,16.999609960996,1371180.1613728,-1631.1686251435,2730497.4004309,22.199609960996,0,0
613.01533715446,61.066530029116,17.00404040404,1371180.1613728,-1631.1686251435,2730497.4004309,22.20404040404,0,0
613.01533746762,60.864740978494,17.008470847085,1371180.1613728,-1631.1686251435,2730497.4004309,22.208470847085,0,0
613.01533778077,60.662951927872,17.012901290129,1371180.1613728,-1631.1686251435,2730497.4004309,22.212901290129,0,0
613.01533809393,60.46116287725,17.017331733173,1371180.1613728,-1631.1686251435,2730497.4004309,22.217331733173,0,0
613.01533840709,60.259373826628,17.021762176218,1371180.1613728,-1631.1686251435,2730497.4004309,22.221762176218,0,0
613.01533872024,60.057584776006,17.026192619262,1371180.1613728,-1631.1686251435,2730497.4004309,22.226192619262,0,0
613.0153390334,59.855795725383,17.030623062306,1371180.1613728,-1631.1686251435,2730497.4004309,22.230623062306,0,0
613.01533934655,59.654006674761,17.035053505351,1371180.1613728,-1631.1686251435,2730497.4004309,22.235053505351,0,0
613.01533965971,59.452217624139,17.039483948395,1371180.1613728,-1631.1686251435,2730497.4004309,22.239483948395,0,0
613.01533997286,59.250428573517,17.043914391439,1371180.1613728,-1631.1686251435,2730497.4004309,22.243914391439,0,0
613.01534028602,59.048639522895,17.048344834483,1371180.1613728,-1631.1686251435,2730497.4004309,22.248344834483,0,0
613.01534059918,58.846850472273,17.052775277528,1371180.1613728,-1631.1686251435,2730497.4004309,22.252775277528,0,0
613.01534091233,58.64506142165,17.057205720572,1371180.1613728,-1631.1686251435,2730497.4004309,22.257205720572,0,0
613.01534122549,58.443272371028,17.061636163616,1371180.1613728,-1631.1686251435,2730497.4004309,22.261636163616,0,0
613.01534153864,58.241483320406,17.066066606661,1371180.1613728,-1631.1686251435,2730497.4004309,22.266066606661,0,0
613.0153418518,58.039694269784,17.070497049705,1371180.1613728,-1631.1686251435,2730497.4004309,22.270497049705,0,0
613.01534216495,57.837905219162,17.074927492749,1371180.1613728,-1631.1686251435,2730497.4004309,22.274927492749,0,0
613.01534247811,57.63611616854,17.079357935794,1371180.1613728,-1631.1686251435,2730497.4004309,22.279357935794,0,0
613.01534279127,57.434327117917,17.083788378838,1371180.1613728,-1631.1686251435,2730497.4004309,22.283788378838,0,0
613.01534310442,57.232538067295,17.088218821882,1371180.1613728,-1631.1686251435,2730497.4004309,22.288218821882,0,0
613.01534341758,57.030749016673,17.092649264926,1371180.1613728,-1631.1686251435,2730497.4004309,22.292649264926,0,0
613.01534373073,56.828959966051,17.097079707971,1371180.1613728,-1631.1686251435,2730497.4004309,22.297079707971,0,0
613.01534404389,56.627170915429,17.101510151015,1371180.1613728,-1631.1686251435,2730497.4004309,22.301510151015,0,0
613.01534435704,56.425381864806,17.105940594059,1371180.1613728,-1631.1686251435,2730497.4004309,22.305940594059,0,0
613.0153446702,56.223592814184,17.110371037104,1371180.1613728,-1631.1686251435,2730497.4004309,22.310371037104,0,0
613.01534498336,56.021803763562,17.114801480148,1371180.1613728,-1631.1686251435,2730497.4004309,22.314801480148,0,0
613.01534529651,55.82001471294,17.119231923192,1371180.1613728,-1631.1686251435,2730497.4004309,22.319231923192,0,0
613.01534560967,55.618225662318,17.123662366237,1371180.1613728,-1631.1686251435,2730497.4004309,22.323662366237,0,0
613.01534592282,55.416436611696,17.128092809281,1371180.1613728,-1631.1686251435,2730497.4004309,22.328092809281,0,0
613.01534623598,55.214647561073,17.132523252325,1371180.1613728,-1631.1686251435,2730497.4004309,22.332523252325,0,0
613.01534654913,55.012858510451,17.13695369537,1371180.1613728,-1631.1686251435,2730497.4004309,22.33695369537,0,0
613.01534686229,54.811069459829,17.141384138414,1371180.1613728,-1631.1686251435,2730497.4004309,22.341384138414,0,0
613.01534717545,54.609280409207,17.145814581458,1371180.1613728,-1631.1686251435,2730497.4004309,22.345814581458,0,0
613.0153474886,54.407491358585,17.150245024502,1371180.1613728,-1631.1686251435,2730497.4004309,22.350245024502,0,0
613.01534780176,54.205702307963,17.154675467547,1371180.1613728,-1631.1686251435,2730497.4004309,22.354675467547,0,0
613.01534811491,54.00391325734,17.159105910591,1371180.1613728,-1631.1686251435,2730497.4004309,22.359105910591,0,0
613.01534842807,53.802124206718,17.163536353635,1371180.1613728,-1631.1686251435,2730497.4004309,22.363536353635,0,0
613.01534874122,53.600335156096,17.16796679668,1371180.1613728,-1631.1686251435,2730497.4004309,22.36796679668,0,0
613.01534905438,53.398546105474,17.172397239724,1371180.1613728,-1631.1686251435,2730497.4004309,22.372397239724,0,0
613.01534936754,53.196757054852,17.176827682768,1371180.1613728,-1631.1686251435,2730497.4004309,22.376827682768,0,0
613.01534968069,52.99496800423,17.181258125813,1371180.1613728,-1631.1686251435,2730497.4004309,22.381258125813,0,0
613.01534999385,52.793178953608,17.185688568857,1371180.1613728,-1631.1686251435,2730497.4004309,22.385688568857,0,0
613.01535030695,52.591389904459,17.190119011901,1369357.8881046,2119.4668993662,2724505.8227811,22.390119011901,0,0
613.01535062004,52.389600855508,17.194549454945,1369357.8881046,2119.4668993662,2724505.8227811,22.394549454945,0,0
613.01535093313,52.187811806556,17.19897989799,1369357.8881046,2119.4668993662,2724505.8227811,22.39897989799,0,0
613.01535124623,51.986022757605,17.203410341034,1369357.8881046,2119.4668993662,2724505.8227811,22.403410341034,0,0
613.01535155932,51.784233708653,17.207840784078,1369357.8881046,2119.4668993662,2724505.8227811,22.407840784078,0,0
613.01535187241,51.582444659702,17.212271227123,1369357.8881046,2119.4668993662,2724505.8227811,22.412271227123,0,0
613.01535218551,51.380655610751,17.216701670167,1369357.8881046,2119.4668993662,2724505.8227811,22.416701670167,0,0
613.0153524986,51.178866561799,17.221132113211,1369357.8881046,2119.4668993662,2724505.8227811,22.421132113211,0,0
613.01535281169,50.977077512848,17.225562556256,1369357.8881046,2119.4668993662,2724505.8227811,22.425562556256,0,0
613.01535312478,50.775288463897,17.2299929993,1369357.8881046,2119.4668993662,2724505.8227811,22.4299929993,0,0
613.01535343788,50.573499414945,17.234423442344,1369357.8881046,2119.4668993662,2724505.8227811,22.434423442344,0,0
613.01535375097,50.371710365994,17.238853885389,1369357.8881046,2119.4668993662,2724505.8227811,22.438853885389,0,0
613.01535406406,50.169921317043,17.243284328433,1369357.8881046,2119.4668993662,2724505.8227811,22.443284328433,0,0
613.01535437716,49.968132268091,17.247714771477,1369357.8881046,2119.4668993662,2724505.8227811,22.447714771477,0,0
613.01535469025,49.76634321914,17.252145214521,1369357.8881046,2119.4668993662,2724505.8227811,22.452145214521,0,0
613.01535500334,49.564554170188,17.256575657566,1369357.8881046,2119.4668993662,2724505.8227811,22.456575657566,0,0
613.01535531644,49.362765121237,17.26100610061,1369357.8881046,2119.4668993662,2724505.8227811,22.46100610061,0,0
613.01535562953,49.160976072286,17.265436543654,1369357.8881046,2119.4668993662,2724505.8227811,22.465436543654,0,0
613.01535594262,48.959187023334,17.269866986699,1369357.8881046,2119.4668993662,2724505.8227811,22.469866986699,0,0
613.01535625571,48.757397974383,17.274297429743,1369357.8881046,2119.4668993662,2724505.8227811,22.474297429743,0,0
613.01535656881,48.555608925432,17.278727872787,1369357.8881046,2119.4668993662,2724505.8227811,22.478727872787,0,0
613.0153568819,48.35381987648,17.283158315832,1369357.8881046,2119.4668993662,2724505.8227811,22.483158315832,0,0
613.01535719499,48.152030827529,17.287588758876,1369357.8881046,2119.4668993662,2724505.8227811,22.487588758876,0,0
613.01535750809,47.950241778577,17.29201920192,1369357.8881046,2119.4668993662,2724505.8227811,22.49201920192,0,0
613.01535782118,47.748452729626,17.296449644964,1369357.8881046,2119.4668993662,2724505.8227811,22.496449644964,0,0
613.01535813427,47.546663680675,17.300880088009,1369357.8881046,2119.4668993662,2724505.8227811,22.500880088009,0,0
613.01535844737,47.344874631723,17.305310531053,1369357.8881046,2119.4668993662,2724505.8227811,22.505310531053,0,0
613.01535876046,47.143085582772,17.309740974097,1369357.8881046,2119.4668993662,2724505.8227811,22.509740974097,0,0
613.01535907355,46.941296533821,17.314171417142,1369357.8881046,2119.4668993662,2724505.8227811,22.514171417142,0,0
613.01535938665,46.739507484869,17.318601860186,1369357.8881046,2119.4668993662,2724505.8227811,22.518601860186,0,0
613.01535969974,46.537718435918,17.32303230323,1369357.8881046,2119.4668993662,2724505.8227811,22.52303230323,0,0
613.01536001283,46.335929386966,17.327462746275,1369357.8881046,2119.4668993662,2724505.8227811,22.527462746275,0,0
613.01536032592,46.134140338015,17.331893189319,1369357.8881046,2119.4668993662,2724505.8227811,22.531893189319,0,0
613.01536063902,45.932351289064,17.336323632363,1369357.8881046,2119.4668993662,2724505.8227811,22.536323632363,0,0
613.01536095211,45.730562240112,17.340754075408,1369357.8881046,2119.4668993662,2724505.8227811,22.540754075408,0,0
613.0153612652,45.528773191161,17.345184518452,1369357.8881046,2119.4668993662,2724505.8227811,22.545184518452,0,0
613.0153615783,45.326984142209,17.349614961496,1369357.8881046,2119.4668993662,2724505.8227811,22.549614961496,0,0
613.01536189139,45.125195093258,17.35404540454,1369357.8881046,2119.4668993662,2724505.8227811,22.55404540454,0,0
613.01536220448,44.923406044307,17.358475847585,1369357.8881046,2119.4668993662,2724505.8227811,22.558475847585,0,0
613.01536251758,44.721616995355,17.362906290629,1369357.8881046,2119.4668993662,2724505.8227811,22.562906290629,0,0
613.01536283067,44.519827946404,17.367336733673,1369357.8881046,2119.4668993662,2724505.8227811,22.567336733673,0,0
613.01536314376,44.318038897453,17.371767176718,1369357.8881046,2119.4668993662,2724505.8227811,22.571767176718,0,0
613.01536345685,44.116249848501,17.376197619762,1369357.8881046,2119.4668993662,2724505.8227811,22.576197619762,0,0
613.01536376995,43.91446079955,17.380628062806,1369357.8881046,2119.4668993662,2724505.8227811,22.580628062806,0,0
613.01536408304,43.712671750598,17.385058505851,1369357.8881046,2119.4668993662,2724505.8227811,22.585058505851,0,0
613.01536439613,43.510882701647,17.389488948895,1369357.8881046,2119.4668993662,2724505.8227811,22.589488948895,0,0
613.01536470923,43.309093652696,17.393919391939,1369357.8881046,2119.4668993662,2724505.8227811,22.593919391939,0,0
613.01536502232,43.107304603744,17.398349834983,1369357.8881046,2119.4668993662,2724505.8227811,22.598349834983,0,0
613.01536533541,42.905515554793,17.402780278028,1369357.8881046,2119.4668993662,2724505.8227811,22.602780278028,0,0
613.01536564851,42.703726505842,17.407210721072,1369357.8881046,2119.4668993662,2724505.8227811,22.607210721072,0,0
613.0153659616,42.50193745689,17.411641164116,1369357.8881046,2119.4668993662,2724505.8227811,22.611641164116,0,0
613.01536627469,42.300148407939,17.416071607161,1369357.8881046,2119.4668993662,2724505.8227811,22.616071607161,0,0
613.01536658778,42.098359358987,17.420502050205,1369357.8881046,2119.4668993662,2724505.8227811,22.620502050205,0,0
613.01536690088,41.896570310036,17.424932493249,1369357.8881046,2119.4668993662,2724505.8227811,22.624932493249,0,0
613.01536721397,41.694781261085,17.429362936294,1369357.8881046,2119.4668993662,2724505.8227811,22.629362936294,0,0
613.01536752706,41.492992212133,17.433793379338,1369357.8881046,2119.4668993662,2724505.8227811,22.633793379338,0,0
613.01536784016,41.291203163182,17.438223822382,1369357.8881046,2119.4668993662,2724505.8227811,22.638223822382,0,0
613.01536815325,41.089414114231,17.442654265427,1369357.8881046,2119.4668993662,2724505.8227811,22.642654265427,0,0
613.01536846634,40.887625065279,17.447084708471,1369357.8881046,2119.4668993662,2724505.8227811,22.647084708471,0,0
613.01536877944,40.685836016328,17.451515151515,1369357.8881046,2119.4668993662,2724505.8227811,22.651515151515,0,0
613.01536909253,40.484046967376,17.455945594559,1369357.8881046,2119.4668993662,2724505.8227811,22.655945594559,0,0
613.01536940562,40.282257918425,17.460376037604,1369357.8881046,2119.4668993662,2724505.8227811,22.660376037604,0,0
613.01536971872,40.080468869474,17.464806480648,1369357.8881046,2119.4668993662,2724505.8227811,22.664806480648,0,0
613.01537003181,39.878679820522,17.469236923692,1369357.8881046,2119.4668993662,2724505.8227811,22.669236923692,0,0
613.0153703449,39.676890771571,17.473667366737,1369357.8881046,2119.4668993662,2724505.8227811,22.673667366737,0,0
613.01537065799,39.475101722619,17.478097809781,1369357.8881046,2119.4668993662,2724505.8227811,22.678097809781,0,0
613.01537097109,39.273312673668,17.482528252825,1369357.8881046,2119.4668993662,2724505.8227811,22.682528252825,0,0
613.01537128418,39.071523624717,17.48695869587,1369357.8881046,2119.4668993662,2724505.8227811,22.68695869587,0,0
613.01537159727,38.869734575766,17.491389138914,1369357.8881046,2119.4668993662,2724505.8227811,22.691389138914,0,0
613.01537191037,38.667945526814,17.495819581958,1369357.8881046,2119.4668993662,2724505.8227811,22.695819581958,0,0
613.01537222346,38.466156477863,17.500250025002,1369357.8881046,2119.4668993662,2724505.8227811,22.700250025002,0,0
613.01537253655,38.264367428911,17.504680468047,1369357.8881046,2119.4668993662,2724505.8227811,22.704680468047,0,0
613.01537284965,38.06257837996,17.509110911091,1369357.8881046,2119.4668993662,2724505.8227811,22.709110911091,0,0
613.01537316274,37.860789331009,17.513541354135,1369357.8881046,2119.4668993662,2724505.8227811,22.713541354135,0,0
613.01537347583,37.659000282057,17.51797179718,1369357.8881046,2119.4668993662,2724505.8227811,22.71797179718,0,0
613.01537378892,37.457211233106,17.522402240224,1369357.8881046,2119.4668993662,2724505.8227811,22.722402240224,0,0
613.01537410202,37.255422184154,17.526832683268,1369357.8881046,2119.4668993662,2724505.8227811,22.726832683268,0,0
613.01537441511,37.053633135203,17.531263126313,1369357.8881046,2119.4668993662,2724505.8227811,22.731263126313,0,0
613.0153747282,36.851844086252,17.535693569357,1369357.8881046,2119.4668993662,2724505.8227811,22.735693569357,0,0
613.0153750413,36.6500550373,17.540124012401,1369357.8881046,2119.4668993662,2724505.8227811,22.740124012401,0,0
613.01537535439,36.448265988349,17.544554455446,1369357.8881046,2119.4668993662,2724505.8227811,22.744554455446,0,0
613.01537566748,36.246476939397,17.54898489849,1369357.8881046,2119.4668993662,2724505.8227811,22.74898489849,0,0
613.01537598058,36.044687890446,17.553415341534,1369357.8881046,2119.4668993662,2724505.8227811,22.753415341534,0,0
613.01537629367,35.842898841494,17.557845784578,1369357.8881046,2119.4668993662,2724505.8227811,22.757845784578,0,0
613.01537660676,35.641109792543,17.562276227623,1369357.8881046,2119.4668993662,2724505.8227811,22.762276227623,0,0
613.01537691986,35.439320743592,17.566706670667,1369357.8881046,2119.4668993662,2724505.8227811,22.766706670667,0,0
613.01537723295,35.237531694641,17.571137113711,1369357.8881046,2119.4668993662,2724505.8227811,22.771137113711,0,0
613.01537754604,35.035742645689,17.575567556756,1369357.8881046,2119.4668993662,2724505.8227811,22.775567556756,0,0
613.01537785913,34.833953596738,17.5799979998,1369357.8881046,2119.4668993662,2724505.8227811,22.7799979998,0,0
613.01537817223,34.632164547787,17.584428442844,1369357.8881046,2119.4668993662,2724505.8227811,22.784428442844,0,0
613.01537848532,34.430375498835,17.588858885889,1369357.8881046,2119.4668993662,2724505.8227811,22.788858885889,0,0
613.01537879841,34.228586449884,17.593289328933,1369357.8881046,2119.4668993662,2724505.8227811,22.793289328933,0,0
613.01537911151,34.026797400932,17.597719771977,1369357.8881046,2119.4668993662,2724505.8227811,22.797719771977,0,0
613.0153794246,33.825008351981,17.602150215021,1369357.8881046,2119.4668993662,2724505.8227811,22.802150215021,0,0
613.01537973769,33.623219303029,17.606580658066,1369357.8881046,2119.4668993662,2724505.8227811,22.806580658066,0,0
613.01538005079,33.421430254078,17.61101110111,1369357.8881046,2119.4668993662,2724505.8227811,22.81101110111,0,0
613.01538036388,33.219641205127,17.615441544154,1369357.8881046,2119.4668993662,2724505.8227811,22.815441544154,0,0
613.01538067697,33.017852156175,17.619871987199,1369357.8881046,2119.4668993662,2724505.8227811,22.819871987199,0,0
613.01538099006,32.816063107224,17.624302430243,1369357.8881046,2119.4668993662,2724505.8227811,22.824302430243,0,0
613.01538130316,32.614274058273,17.628732873287,1369357.8881046,2119.4668993662,2724505.8227811,22.828732873287,0,0
613.01538161625,32.412485009321,17.633163316332,1369357.8881046,2119.4668993662,2724505.8227811,22.833163316332,0,0
613.01538192934,32.21069596037,17.637593759376,1369357.8881046,2119.4668993662,2724505.8227811,22.837593759376,0,0
613.01538224244,32.008906911419,17.64202420242,1369357.8881046,2119.4668993662,2724505.8227811,22.84202420242,0,0
613.01538255553,31.807117862467,17.646454645465,1369357.8881046,2119.4668993662,2724505.8227811,22.846454645465,0,0
613.01538286862,31.605328813516,17.650885088509,1369357.8881046,2119.4668993662,2724505.8227811,22.850885088509,0,0
613.01538318172,31.403539764564,17.655315531553,1369357.8881046,2119.4668993662,2724505.8227811,22.855315531553,0,0
613.01538349481,31.201750715613,17.659745974597,1369357.8881046,2119.4668993662,2724505.8227811,22.859745974597,0,0
613.0153838079,30.999961666662,17.664176417642,1369357.8881046,2119.4668993662,2724505.8227811,22.864176417642,0,0
613.015384121,30.79817261771,17.668606860686,1369357.8881046,2119.4668993662,2724505.8227811,22.868606860686,0,0
613.01538443409,30.596383568759,17.67303730373,1369357.8881046,2119.4668993662,2724505.8227811,22.87303730373,0,0
613.01538474718,30.394594519808,17.677467746775,1369357.8881046,2119.4668993662,2724505.8227811,22.877467746775,0,0
613.01538506027,30.192805470856,17.681898189819,1369357.8881046,2119.4668993662,2724505.8227811,22.881898189819,0,0
613.01538537337,29.991016421905,17.686328632863,1369357.8881046,2119.4668993662,2724505.8227811,22.886328632863,0,0
613.01538568646,29.789227372953,17.690759075908,1369357.8881046,2119.4668993662,2724505.8227811,22.890759075908,0,0
613.01538599955,29.587438324002,17.695189518952,1369357.8881046,2119.4668993662,2724505.8227811,22.895189518952,0,0
613.01538631265,29.385649275051,17.699619961996,1369357.8881046,2119.4668993662,2724505.8227811,22.899619961996,0,0
613.01538662574,29.183860226099,17.704050405041,1369357.8881046,2119.4668993662,2724505.8227811,22.904050405041,0,0
613.01538693883,28.982071177148,17.708480848085,1369357.8881046,2119.4668993662,2724505.8227811,22.908480848085,0,0
613.01538725193,28.780282128197,17.712911291129,1369357.8881046,2119.4668993662,2724505.8227811,22.912911291129,0,0
613.01538756502,28.578493079245,17.717341734173,1369357.8881046,2119.4668993662,2724505.8227811,22.917341734173,0,0
613.01538787811,28.376704030294,17.721772177218,1369357.8881046,2119.4668993662,2724505.8227811,22.921772177218,0,0
613.0153881912,28.174914981342,17.726202620262,1369357.8881046,2119.4668993662,2724505.8227811,22.926202620262,0,0
613.0153885043,27.973125932391,17.730633063306,1369357.8881046,2119.4668993662,2724505.8227811,22.930633063306,0,0
613.01538881739,27.771336883439,17.735063506351,1369357.8881046,2119.4668993662,2724505.8227811,22.935063506351,0,0
613.01538913048,27.569547834488,17.739493949395,1369357.8881046,2119.4668993662,2724505.8227811,22.939493949395,0,0
613.01538944358,27.367758785537,17.743924392439,1369357.8881046,2119.4668993662,2724505.8227811,22.943924392439,0,0
613.01538975667,27.165969736586,17.748354835484,1369357.8881046,2119.4668993662,2724505.8227811,22.948354835484,0,0
613.01539006976,26.964180687634,17.752785278528,1369357.8881046,2119.4668993662,2724505.8227811,22.952785278528,0,0
613.01539038286,26.762391638683,17.757215721572,1369357.8881046,2119.4668993662,2724505.8227811,22.957215721572,0,0
613.01539069595,26.560602589731,17.761646164616,1369357.8881046,2119.4668993662,2724505.8227811,22.961646164616,0,0
613.01539100904,26.35881354078,17.766076607661,1369357.8881046,2119.4668993662,2724505.8227811,22.966076607661,0,0
613.01539132213,26.157024491829,17.770507050705,1369357.8881046,2119.4668993662,2724505.8227811,22.970507050705,0,0
613.01539163523,25.955235442877,17.774937493749,1369357.8881046,2119.4668993662,2724505.8227811,22.974937493749,0,0
613.01539194832,25.753446393926,17.779367936794,1369357.8881046,2119.4668993662,2724505.8227811,22.979367936794,0,0
613.01539226141,25.551657344975,17.783798379838,1369357.8881046,2119.4668993662,2724505.8227811,22.983798379838,0,0
613.01539257451,25.349868296023,17.788228822882,1369357.8881046,2119.4668993662,2724505.8227811,22.988228822882,0,0
613.0153928876,25.148079247072,17.792659265927,1369357.8881046,2119.4668993662,2724505.8227811,22.992659265927,0,0
613.01539320069,24.94629019812,17.797089708971,1369357.8881046,2119.4668993662,2724505.8227811,22.997089708971,0,0
613.01539351379,24.744501149169,17.801520152015,1369357.8881046,2119.4668993662,2724505.8227811,23.001520152015,0,0
613.01539382688,24.542712100218,17.80595059506,1369357.8881046,2119.4668993662,2724505.8227811,23.00595059506,0,0
613.01539413997,24.340923051266,17.810381038104,1369357.8881046,2119.4668993662,2724505.8227811,23.010381038104,0,0
613.01539445307,24.139134002315,17.814811481148,1369357.8881046,2119.4668993662,2724505.8227811,23.014811481148,0,0
613.01539476616,23.937344953363,17.819241924192,1369357.8881046,2119.4668993662,2724505.8227811,23.019241924192,0,0
613.01539507925,23.735555904412,17.823672367237,1369357.8881046,2119.4668993662,2724505.8227811,23.023672367237,0,0
613.01539539234,23.533766855461,17.828102810281,1369357.8881046,2119.4668993662,2724505.8227811,23.028102810281,0,0
613.01539570544,23.33197780651,17.832533253325,1369357.8881046,2119.4668993662,2724505.8227811,23.032533253325,0,0
613.01539601853,23.130188757558,17.83696369637,1369357.8881046,2119.4668993662,2724505.8227811,23.03696369637,0,0
613.01539633162,22.928399708607,17.841394139414,1369357.8881046,2119.4668993662,2724505.8227811,23.041394139414,0,0
613.01539664472,22.726610659655,17.845824582458,1369357.8881046,2119.4668993662,2724505.8227811,23.045824582458,0,0
613.01539695781,22.524821610704,17.850255025503,1369357.8881046,2119.4668993662,2724505.8227811,23.050255025503,0,0
613.0153972709,22.323032561752,17.854685468547,1369357.8881046,2119.4668993662,2724505.8227811,23.054685468547,0,0
613.015397584,22.121243512801,17.859115911591,1369357.8881046,2119.4668993662,2724505.8227811,23.059115911591,0,0
613.01539789709,21.91945446385,17.863546354635,1369357.8881046,2119.4668993662,2724505.8227811,23.063546354635,0,0
613.01539821018,21.717665414898,17.86797679768,1369357.8881046,2119.4668993662,2724505.8227811,23.06797679768,0,0
613.01539852327,21.515876365947,17.872407240724,1369357.8881046,2119.4668993662,2724505.8227811,23.072407240724,0,0
613.01539883637,21.314087316996,17.876837683768,1369357.8881046,2119.4668993662,2724505.8227811,23.076837683768,0,0
613.01539914946,21.112298268044,17.881268126813,1369357.8881046,2119.4668993662,2724505.8227811,23.081268126813,0,0
613.01539946255,20.910509219093,17.885698569857,1369357.8881046,2119.4668993662,2724505.8227811,23.085698569857,0,0
613.01539977565,20.708720170142,17.890129012901,1369357.8881046,2119.4668993662,2724505.8227811,23.090129012901,0,0
613.01540008874,20.50693112119,17.894559455946,1369357.8881046,2119.4668993662,2724505.8227811,23.094559455946,0,0
613.01540040183,20.305142072239,17.89898989899,1369357.8881046,2119.4668993662,2724505.8227811,23.09898989899,0,0
613.01540071493,20.103353023287,17.903420342034,1369357.8881046,2119.4668993662,2724505.8227811,23.103420342034,0,0
613.01540102802,19.901563974336,17.907850785079,1369357.8881046,2119.4668993662,2724505.8227811,23.107850785079,0,0
613.01540134111,19.699774925385,17.912281228123,1369357.8881046,2119.4668993662,2724505.8227811,23.112281228123,0,0
613.01540165421,19.497985876433,17.916711671167,1369357.8881046,2119.4668993662,2724505.8227811,23.116711671167,0,0
613.0154019673,19.296196827482,17.921142114211,1369357.8881046,2119.4668993662,2724505.8227811,23.121142114211,0,0
613.01540228039,19.09440777853,17.925572557256,1369357.8881046,2119.4668993662,2724505.8227811,23.125572557256,0,0
613.01540259348,18.892618729579,17.9300030003,1369357.8881046,2119.4668993662,2724505.8227811,23.1300030003,0,0
613.01540290658,18.690829680628,17.934433443344,1369357.8881046,2119.4668993662,2724505.8227811,23.134433443344,0,0
613.01540321967,18.489040631676,17.938863886389,1369357.8881046,2119.4668993662,2724505.8227811,23.138863886389,0,0
613.01540353276,18.287251582725,17.943294329433,1369357.8881046,2119.4668993662,2724505.8227811,23.143294329433,0,0
613.01540384586,18.085462533773,17.947724772477,1369357.8881045,2119.4668993662,2724505.8227811,23.147724772477,0,0
613.01540415895,17.883673484822,17.952155215522,1369357.8881045,2119.4668993662,2724505.8227811,23.152155215522,0,0
613.01540447204,17.681884435871,17.956585658566,1369357.8881045,2119.4668993662,2724505.8227811,23.156585658566,0,0
613.01540478514,17.480095386919,17.96101610161,1369357.8881045,2119.4668993662,2724505.8227811,23.16101610161,0,0
613.01540509823,17.278306337968,17.965446544654,1369357.8881045,2119.4668993662,2724505.8227811,23.165446544654,0,0
613.01540541132,17.076517289017,17.969876987699,1369357.8881045,2119.4668993662,2724505.8227811,23.169876987699,0,0
613.01540572441,16.874728240065,17.974307430743,1369357.8881045,2119.4668993662,2724505.8227811,23.174307430743,0,0
613.01540603751,16.672939191114,17.978737873787,1369357.8881045,2119.4668993662,2724505.8227811,23.178737873787,0,0
613.0154063506,16.471150142163,17.983168316832,1369357.8881045,2119.4668993662,2724505.8227811,23.183168316832,0,0
613.01540666369,16.269361093211,17.987598759876,1369357.8881045,2119.4668993662,2724505.8227811,23.187598759876,0,0
613.01540697679,16.06757204426,17.99202920292,1369357.8881045,2119.4668993662,2724505.8227811,23.19202920292,0,0
613.01540728988,15.865782995308,17.996459645965,1369357.8881045,2119.4668993662,2724505.8227811,23.196459645965,0,0
613.01540760297,15.663993946357,18.000890089009,1369357.8881045,2119.4668993662,2724505.8227811,23.200890089009,0,0
613.01540791607,15.462204897405,18.005320532053,1369357.8881045,2119.4668993662,2724505.8227811,23.205320532053,0,0
613.01540822916,15.260415848454,18.009750975098,1369357.8881045,2119.4668993662,2724505.8227811,23.209750975098,0,0
613.01540854225,15.058626799503,18.014181418142,1369357.8881045,2119.4668993662,2724505.8227811,23.214181418142,0,0
613.01540885534,14.856837750552,18.018611861186,1369357.8881045,2119.4668993662,2724505.8227811,23.218611861186,0,0
613.01540916844,14.6550487016,18.02304230423,1369357.8881045,2119.4668993662,2724505.8227811,23.22304230423,0,0
613.01540948153,14.453259652649,18.027472747275,1369357.8881045,2119.4668993662,2724505.8227811,23.227472747275,0,0
613.01540979462,14.251470603697,18.031903190319,1369357.8881045,2119.4668993662,2724505.8227811,23.231903190319,0,0
613.01541010772,14.049681554746,18.036333633363,1369357.8881045,2119.4668993662,2724505.8227811,23.236333633363,0,0
613.01541042081,13.847892505795,18.040764076408,1369357.8881045,2119.4668993662,2724505.8227811,23.240764076408,0,0
613.0154107339,13.646103456843,18.045194519452,1369357.8881045,2119.4668993662,2724505.8227811,23.245194519452,0,0
613.015411047,13.444314407892,18.049624962496,1369357.8881045,2119.4668993662,2724505.8227811,23.249624962496,0,0
613.01541136009,13.242525358941,18.054055405541,1369357.8881045,2119.4668993662,2724505.8227811,23.254055405541,0,0
613.01541167318,13.040736309989,18.058485848585,1369357.8881045,2119.4668993662,2724505.8227811,23.258485848585,0,0
613.01541198628,12.838947261038,18.062916291629,1369357.8881045,2119.4668993662,2724505.8227811,23.262916291629,0,0
613.01541229937,12.637158212086,18.067346734673,1369357.8881045,2119.4668993662,2724505.8227811,23.267346734673,0,0
613.01541261246,12.435369163135,18.071777177718,1369357.8881045,2119.4668993662,2724505.8227811,23.271777177718,0,0
613.01541292555,12.233580114184,18.076207620762,1369357.8881045,2119.4668993662,2724505.8227811,23.276207620762,0,0
613.01541323865,12.031791065232,18.080638063806,1369357.8881045,2119.4668993662,2724505.8227811,23.280638063806,0,0
613.01541355174,11.830002016281,18.085068506851,1369357.8881045,2119.4668993662,2724505.8227811,23.285068506851,0,0
613.01541386483,11.628212967329,18.089498949895,1369357.8881045,2119.4668993662,2724505.8227811,23.289498949895,0,0
613.01541417793,11.426423918378,18.093929392939,1369357.8881045,2119.4668993662,2724505.8227811,23.293929392939,0,0
613.01541449102,11.224634869427,18.098359835984,1369357.8881045,2119.4668993662,2724505.8227811,23.298359835984,0,0
613.01541480411,11.022845820475,18.102790279028,1369357.8881045,2119.4668993662,2724505.8227811,23.302790279028,0,0
613.01541511721,10.821056771524,18.107220722072,1369357.8881045,2119.4668993662,2724505.8227811,23.307220722072,0,0
613.0154154303,10.619267722573,18.111651165117,1369357.8881045,2119.4668993662,2724505.8227811,23.311651165117,0,0
613.01541574339,10.417478673621,18.116081608161,1369357.8881045,2119.4668993662,2724505.8227811,23.316081608161,0,0
613.01541605648,10.21568962467,18.120512051205,1369357.8881045,2119.4668993662,2724505.8227811,23.320512051205,0,0
613.01541636958,10.013900575718,18.124942494249,1369357.8881045,2119.4668993662,2724505.8227811,23.324942494249,0,0
613.01541668267,9.8121115267672,18.129372937294,1369357.8881045,2119.4668993662,2724505.8227811,23.329372937294,0,0
613.01541699576,9.6103224778157,18.133803380338,1369357.8881045,2119.4668993662,2724505.8227811,23.333803380338,0,0
613.01541730886,9.4085334288644,18.138233823382,1369357.8881045,2119.4668993662,2724505.8227811,23.338233823382,0,0
613.01541762195,9.2067443799128,18.142664266427,1369357.8881045,2119.4668993662,2724505.8227811,23.342664266427,0,0
613.01541793504,9.0049553309616,18.147094709471,1369357.8881045,2119.4668993662,2724505.8227811,23.347094709471,0,0
613.01541824814,8.8031662820103,18.151525152515,1369357.8881045,2119.4668993662,2724505.8227811,23.351525152515,0,0
613.01541856123,8.6013772330588,18.15595559556,1369357.8881045,2119.4668993662,2724505.8227811,23.35595559556,0,0
613.01541887432,8.3995881841074,18.160386038604,1369357.8881045,2119.4668993662,2724505.8227811,23.360386038604,0,0
613.01541918742,8.1977991351561,18.164816481648,1369357.8881045,2119.4668993662,2724505.8227811,23.364816481648,0,0
613.01541950051,7.9960100862048,18.169246924692,1369357.8881045,2119.4668993662,2724505.8227811,23.369246924692,0,0
613.0154198136,7.7942210372533,18.173677367737,1369357.8881045,2119.4668993662,2724505.8227811,23.373677367737,0,0
613.01542012669,7.592431988302,18.178107810781,1369357.8881045,2119.4668993662,2724505.8227811,23.378107810781,0,0
613.01542043979,7.3906429393506,18.182538253825,1369357.8881045,2119.4668993662,2724505.8227811,23.382538253825,0,0
613.01542075288,7.1888538903991,18.18696869687,1369357.8881045,2119.4668993662,2724505.8227811,23.38696869687,0,0
613.01542106597,6.9870648414476,18.191399139914,1369357.8881045,2119.4668993662,2724505.8227811,23.391399139914,0,0
613.01542137907,6.7852757924965,18.195829582958,1369357.8881045,2119.4668993662,2724505.8227811,23.395829582958,0,0
613.01542169216,6.5834867435451,18.200260026003,1369357.8881045,2119.4668993662,2724505.8227811,23.400260026003,0,0
613.01542200525,6.3816976945938,18.204690469047,1369357.8881045,2119.4668993662,2724505.8227811,23.404690469047,0,0
613.01542231835,6.1799086456423,18.209120912091,1369357.8881045,2119.4668993662,2724505.8227811,23.409120912091,0,0
613.01542263144,5.9781195966908,18.213551355136,1369357.8881045,2119.4668993662,2724505.8227811,23.413551355136,0,0
613.01542294453,5.7763305477395,18.21798179818,1369357.8881045,2119.4668993662,2724505.8227811,23.41798179818,0,0
613.01542325762,5.5745414987881,18.222412241224,1369357.8881045,2119.4668993662,2724505.8227811,23.422412241224,0,0
613.01542357072,5.3727524498368,18.226842684268,1369357.8881045,2119.4668993662,2724505.8227811,23.426842684268,0,0
613.01542388381,5.1709634008855,18.231273127313,1369357.8881045,2119.4668993662,2724505.8227811,23.431273127313,0,0
613.0154241969,4.9691743519342,18.235703570357,1369357.8881045,2119.4668993662,2724505.8227811,23.435703570357,0,0
613.01542451,4.7673853029827,18.240134013401,1369357.8881045,2119.4668993662,2724505.8227811,23.440134013401,0,0
613.01542482309,4.5655962540312,18.244564456446,1369357.8881045,2119.4668993662,2724505.8227811,23.444564456446,0,0
613.01542513618,4.3638072050799,18.24899489949,1369357.8881045,2119.4668993662,2724505.8227811,23.44899489949,0,0
613.01542544928,4.1620181561285,18.253425342534,1369357.8881045,2119.4668993662,2724505.8227811,23.453425342534,0,0
613.01542576237,3.9602291071774,18.257855785579,1369357.8881045,2119.4668993662,2724505.8227811,23.457855785579,0,0
613.01542607546,3.7584400582259,18.262286228623,1369357.8881045,2119.4668993662,2724505.8227811,23.462286228623,0,0
613.01542638856,3.5566510092744,18.266716671667,1369357.8881045,2119.4668993662,2724505.8227811,23.466716671667,0,0
613.01542670165,3.354861960323,18.271147114711,1369357.8881045,2119.4668993662,2724505.8227811,23.471147114711,0,0
613.01542701474,3.1530729113715,18.275577557756,1369357.8881045,2119.4668993662,2724505.8227811,23.475577557756,0,0
613.01542732783,2.9512838624204,18.2800080008,1369357.8881045,2119.4668993662,2724505.8227811,23.4800080008,0,0
613.01542764093,2.7494948134689,18.284438443844,1369357.8881045,2119.4668993662,2724505.8227811,23.484438443844,0,0
613.01542795402,2.5477057645176,18.288868886889,1369357.8881045,2119.4668993662,2724505.8227811,23.488868886889,0,0
613.01542826711,2.3459167155661,18.293299329933,1369357.8881045,2119.4668993662,2724505.8227811,23.493299329933,0,0
613.01542858021,2.1441276666148,18.297729772977,1369357.8881045,2119.4668993662,2724505.8227811,23.497729772977,0,0
613.0154288933,1.9423386176635,18.302160216022,1369357.8881045,2119.4668993662,2724505.8227811,23.502160216022,0,0
613.01542920639,1.7405495687121,18.306590659066,1369357.8881045,2119.4668993662,2724505.8227811,23.506590659066,0,0
613.01542951949,1.5387605197606,18.31102110211,1369357.8881045,2119.4668993662,2724505.8227811,23.51102110211,0,0
613.01542983258,1.3369714708093,18.315451545155,1369357.8881045,2119.4668993662,2724505.8227811,23.515451545155,0,0
613.01543014567,1.1351824218579,18.319881988199,1369357.8881045,2119.4668993662,2724505.8227811,23.519881988199,0,0
613.01543045876,0.9333933729064,18.324312431243,1369357.8881045,2119.4668993662,2724505.8227811,23.524312431243,0,0
613.01543077205,0.7316043235269,18.328742874287,1371040.8025582,325.93375069471,2715488.4728186,23.528742874287,0,0
613.01543108586,0.52981527298497,18.333173317332,1371040.8025582,325.93375069471,2715488.4728186,23.533173317332,0,0
613.01543139966,0.32802622244255,18.337603760376,1371040.8025582,325.93375069471,2715488.4728186,23.537603760376,0,0
613.01543171347,0.1262371719003,18.34203420342,1371040.8025582,325.93375069471,2715488.4728186,23.54203420342,0,0
613.01543202728,-0.075551878641628,18.346464646465,1371040.8025582,325.93375069471,2715488.4728186,23.546464646465,0,0
613.01543234109,-0.27734092918388,18.350895089509,1371040.8025582,325.93375069471,2715488.4728186,23.550895089509,0,0
613.01543265489,-0.47912997972597,18.355325532553,1371040.8025582,325.93375069471,2715488.4728186,23.555325532553,0,0
613.0154329687,-0.68091903026839,18.359755975598,1371040.8025582,325.93375069471,2715488.4728186,23.559755975598,0,0
613.01543328251,-0.88270808081016,18.364186418642,1371040.8025582,325.93375069471,2715488.4728186,23.564186418642,0,0
613.01543359631,-1.0844971313526,18.368616861686,1371040.8025582,325.93375069471,2715488.4728186,23.568616861686,0,0
613.01543391012,-1.2862861818948,18.37304730473,1371040.8025582,325.93375069471,2715488.4728186,23.57304730473,0,0
613.01543422393,-1.4880752324369,18.377477747775,1371040.8025582,325.93375069471,2715488.4728186,23.577477747775,0,0
613.01543453774,-1.689864282979,18.381908190819,1371040.8025582,325.93375069471,2715488.4728186,23.581908190819,0,0
613.01543485154,-1.8916533335214,18.386338633863,1371040.8025582,325.93375069471,2715488.4728186,23.586338633863,0,0
613.01543516535,-2.0934423840635,18.390769076908,1371040.8025582,325.93375069471,2715488.4728186,23.590769076908,0,0
613.01543547916,-2.2952314346056,18.395199519952,1371040.8025582,325.93375069471,2715488.4728186,23.595199519952,0,0
613.01543579297,-2.4970204851477,18.399629962996,1371040.8025582,325.93375069471,2715488.4728186,23.599629962996,0,0
613.01543610677,-2.6988095356899,18.404060406041,1371040.8025582,325.93375069471,2715488.4728186,23.604060406041,0,0
613.01543642058,-2.900598586232,18.408490849085,1371040.8025582,325.93375069471,2715488.4728186,23.608490849085,0,0
613.01543673439,-3.1023876367743,18.412921292129,1371040.8025582,325.93375069471,2715488.4728186,23.612921292129,0,0
613.01543704819,-3.3041766873164,18.417351735174,1371040.8025582,325.93375069471,2715488.4728186,23.617351735174,0,0
613.015437362,-3.5059657378586,18.421782178218,1371040.8025582,325.93375069471,2715488.4728186,23.621782178218,0,0
613.01543767581,-3.7077547884009,18.426212621262,1371040.8025582,325.93375069471,2715488.4728186,23.626212621262,0,0
613.01543798962,-3.909543838943,18.430643064306,1371040.8025582,325.93375069471,2715488.4728186,23.630643064306,0,0
613.01543830342,-4.1113328894851,18.435073507351,1371040.8025582,325.93375069471,2715488.4728186,23.635073507351,0,0
613.01543861723,-4.3131219400272,18.439503950395,1371040.8025582,325.93375069471,2715488.4728186,23.639503950395,0,0
613.01543893104,-4.5149109905694,18.443934393439,1371040.8025582,325.93375069471,2715488.4728186,23.643934393439,0,0
613.01543924406,-4.7167000403906,18.448364836484,1366275.8116565,2058.672854591,2714068.6093727,23.648364836484,0,0
613.01543955706,-4.918489090192,18.452795279528,1366275.8116565,2058.672854591,2714068.6093727,23.652795279528,0,0
613.01543987006,-5.1202781399929,18.457225722572,1366275.8116565,2058.672854591,2714068.6093727,23.657225722572,0,0
613.01544018306,-5.3220671897942,18.461656165617,1366275.8116565,2058.672854591,2714068.6093727,23.661656165617,0,0
613.01544049606,-5.5238562395952,18.466086608661,1366275.8116565,2058.672854591,2714068.6093727,23.666086608661,0,0
613.01544080906,-5.7256452893965,18.470517051705,1366275.8116565,2058.672854591,2714068.6093727,23.670517051705,0,0
613.01544112206,-5.9274343391977,18.474947494749,1366275.8116565,2058.672854591,2714068.6093727,23.674947494749,0,0
613.01544143506,-6.1292233889988,18.479377937794,1366275.8116565,2058.672854591,2714068.6093727,23.679377937794,0,0
613.01544174807,-6.3310124387999,18.483808380838,1366275.8116565,2058.672854591,2714068.6093727,23.683808380838,0,0
613.01544206107,-6.5328014886011,18.488238823882,1366275.8116565,2058.672854591,2714068.6093727,23.688238823882,0,0
613.01544237407,-6.7345905384022,18.492669266927,1366275.8116565,2058.672854591,2714068.6093727,23.692669266927,0,0
613.01544268707,-6.9363795882033,18.497099709971,1366275.8116565,2058.672854591,2714068.6093727,23.697099709971,0,0
613.01544300007,-7.1381686380045,18.501530153015,1366275.8116565,2058.672854591,2714068.6093727,23.701530153015,0,0
613.01544331307,-7.3399576878056,18.50596059606,1366275.8116565,2058.672854591,2714068.6093727,23.70596059606,0,0
613.01544362607,-7.541746737607,18.510391039104,1366275.8116565,2058.672854591,2714068.6093727,23.710391039104,0,0
613.01544393907,-7.7435357874081,18.514821482148,1366275.8116565,2058.672854591,2714068.6093727,23.714821482148,0,0
613.01544425207,-7.9453248372091,18.519251925193,1366275.8116565,2058.672854591,2714068.6093727,23.719251925193,0,0
613.01544456507,-8.1471138870104,18.523682368237,1366275.8116565,2058.672854591,2714068.6093727,23.723682368237,0,0
613.01544487807,-8.3489029368114,18.528112811281,1366275.8116565,2058.672854591,2714068.6093727,23.728112811281,0,0
613.01544519107,-8.5506919866125,18.532543254325,1366275.8116565,2058.672854591,2714068.6093727,23.732543254325,0,0
613.01544550407,-8.7524810364139,18.53697369737,1366275.8116565,2058.672854591,2714068.6093727,23.73697369737,0,0
613.01544581707,-8.9542700862148,18.541404140414,1366275.8116565,2058.672854591,2714068.6093727,23.741404140414,0,0
613.01544613008,-9.1560591360161,18.545834583458,1366275.8116565,2058.672854591,2714068.6093727,23.745834583458,0,0
613.01544644308,-9.3578481858171,18.550265026503,1366275.8116565,2058.672854591,2714068.6093727,23.750265026503,0,0
613.01544675608,-9.5596372356184,18.554695469547,1366275.8116565,2058.672854591,2714068.6093727,23.754695469547,0,0
613.01544706908,-9.7614262854196,18.559125912591,1366275.8116565,2058.672854591,2714068.6093727,23.759125912591,0,0
613.01544738208,-9.9632153352207,18.563556355636,1366275.8116565,2058.672854591,2714068.6093727,23.763556355636,0,0
613.01544769508,-10.165004385022,18.56798679868,1366275.8116565,2058.672854591,2714068.6093727,23.76798679868,0,0
613.01544800808,-10.366793434823,18.572417241724,1366275.8116565,2058.672854591,2714068.6093727,23.772417241724,0,0
613.01544832108,-10.568582484624,18.576847684768,1366275.8116565,2058.672854591,2714068.6093727,23.776847684768,0,0
613.01544863408,-10.770371534425,18.581278127813,1366275.8116565,2058.672854591,2714068.6093727,23.781278127813,0,0
613.01544894708,-10.972160584227,18.585708570857,1366275.8116565,2058.672854591,2714068.6093727,23.785708570857,0,0
613.01544926008,-11.173949634028,18.590139013901,1366275.8116565,2058.672854591,2714068.6093727,23.790139013901,0,0
613.01544957308,-11.375738683829,18.594569456946,1366275.8116565,2058.672854591,2714068.6093727,23.794569456946,0,0
613.01544988608,-11.57752773363,18.59899989999,1366275.8116565,2058.672854591,2714068.6093727,23.79899989999,0,0
613.01545019909,-11.779316783431,18.603430343034,1366275.8116565,2058.672854591,2714068.6093727,23.803430343034,0,0
613.01545051209,-11.981105833232,18.607860786079,1366275.8116565,2058.672854591,2714068.6093727,23.807860786079,0,0
613.01545082509,-12.182894883034,18.612291229123,1366275.8116565,2058.672854591,2714068.6093727,23.812291229123,0,0
613.01545113809,-12.384683932835,18.616721672167,1366275.8116565,2058.672854591,2714068.6093727,23.816721672167,0,0
613.01545145109,-12.586472982636,18.621152115212,1366275.8116565,2058.672854591,2714068.6093727,23.821152115212,0,0
613.01545176409,-12.788262032437,18.625582558256,1366275.8116565,2058.672854591,2714068.6093727,23.825582558256,0,0
613.01545207709,-12.990051082238,18.6300130013,1366275.8116565,2058.672854591,2714068.6093727,23.8300130013,0,0
613.01545239009,-13.191840132039,18.634443444344,1366275.8116565,2058.672854591,2714068.6093727,23.834443444344,0,0
613.01545270309,-13.39362918184,18.638873887389,1366275.8116565,2058.672854591,2714068.6093727,23.838873887389,0,0
613.01545301609,-13.595418231641,18.643304330433,1366275.8116565,2058.672854591,2714068.6093727,23.843304330433,0,0
613.01545332909,-13.797207281443,18.647734773477,1366275.8116565,2058.672854591,2714068.6093727,23.847734773477,0,0
613.01545364209,-13.998996331244,18.652165216522,1366275.8116565,2058.672854591,2714068.6093727,23.852165216522,0,0
613.01545395509,-14.200785381045,18.656595659566,1366275.8116565,2058.672854591,2714068.6093727,23.856595659566,0,0
613.01545426809,-14.402574430846,18.66102610261,1366275.8116565,2058.672854591,2714068.6093727,23.86102610261,0,0
613.0154545811,-14.604363480647,18.665456545655,1366275.8116565,2058.672854591,2714068.6093727,23.865456545655,0,0
613.0154548941,-14.806152530448,18.669886988699,1366275.8116565,2058.672854591,2714068.6093727,23.869886988699,0,0
613.0154552071,-15.00794158025,18.674317431743,1366275.8116565,2058.672854591,2714068.6093727,23.874317431743,0,0
613.0154555201,-15.209730630051,18.678747874787,1366275.8116565,2058.672854591,2714068.6093727,23.878747874787,0,0
613.0154558331,-15.411519679852,18.683178317832,1366275.8116565,2058.672854591,2714068.6093727,23.883178317832,0,0
613.0154561461,-15.613308729653,18.687608760876,1366275.8116565,2058.672854591,2714068.6093727,23.887608760876,0,0
613.0154564591,-15.815097779454,18.69203920392,1366275.8116565,2058.672854591,2714068.6093727,23.89203920392,0,0
613.0154567721,-16.016886829255,18.696469646965,1366275.8116565,2058.672854591,2714068.6093727,23.896469646965,0,0
613.0154570851,-16.218675879056,18.700900090009,1366275.8116565,2058.672854591,2714068.6093727,23.900900090009,0,0
613.0154573981,-16.420464928857,18.705330533053,1366275.8116565,2058.672854591,2714068.6093727,23.905330533053,0,0
613.0154577111,-16.622253978659,18.709760976098,1366275.8116565,2058.672854591,2714068.6093727,23.909760976098,0,0
613.0154580241,-16.82404302846,18.714191419142,1366275.8116565,2058.672854591,2714068.6093727,23.914191419142,0,0
613.0154583371,-17.025832078261,18.718621862186,1366275.8116565,2058.672854591,2714068.6093727,23.918621862186,0,0
613.0154586501,-17.227621128062,18.723052305231,1366275.8116565,2058.672854591,2714068.6093727,23.923052305231,0,0
613.01545896311,-17.429410177863,18.727482748275,1366275.8116565,2058.672854591,2714068.6093727,23.927482748275,0,0
613.01545927611,-17.631199227665,18.731913191319,1366275.8116565,2058.672854591,2714068.6093727,23.931913191319,0,0
613.01545958911,-17.832988277466,18.736343634363,1366275.8116565,2058.672854591,2714068.6093727,23.936343634363,0,0
613.01545990211,-18.034777327267,18.740774077408,1366275.8116565,2058.672854591,2714068.6093727,23.940774077408,0,0
613.01546021511,-18.236566377068,18.745204520452,1366275.8116565,2058.672854591,2714068.6093727,23.945204520452,0,0
613.01546052811,-18.438355426869,18.749634963496,1366275.8116565,2058.672854591,2714068.6093727,23.949634963496,0,0
613.01546084111,-18.64014447667,18.754065406541,1366275.8116565,2058.672854591,2714068.6093727,23.954065406541,0,0
613.01546115411,-18.841933526471,18.758495849585,1366275.8116565,2058.672854591,2714068.6093727,23.958495849585,0,0
613.01546146711,-19.043722576273,18.762926292629,1366275.8116565,2058.672854591,2714068.6093727,23.962926292629,0,0
613.01546178011,-19.245511626074,18.767356735674,1366275.8116565,2058.672854591,2714068.6093727,23.967356735674,0,0
613.01546209335,-19.447300675775,18.771787178718,1369382.6686956,-2976.0181391799,2708759.1611173,23.971787178718,0,0
613.01546240716,-19.649089725236,18.776217621762,1369382.6686956,-2976.0181391799,2708759.1611173,23.976217621762,0,0
613.01546272096,-19.850878774697,18.780648064806,1369382.6686956,-2976.0181391799,2708759.1611173,23.980648064806,0,0
613.01546303477,-20.052667824158,18.785078507851,1369382.6686956,-2976.0181391799,2708759.1611173,23.985078507851,0,0
613.01546334858,-20.254456873619,18.789508950895,1369382.6686956,-2976.0181391799,2708759.1611173,23.989508950895,0,0
613.01546366239,-20.45624592308,18.793939393939,1369382.6686956,-2976.0181391799,2708759.1611173,23.993939393939,0,0
613.0154639762,-20.658034972541,18.798369836984,1369382.6686956,-2976.0181391799,2708759.1611173,23.998369836984,0,0
613.01546429,-20.859824022002,18.802800280028,1369382.6686956,-2976.0181391799,2708759.1611173,24.002800280028,0,0
613.01546460381,-21.061613071463,18.807230723072,1369382.6686956,-2976.0181391799,2708759.1611173,24.007230723072,0,0
613.01546491762,-21.263402120924,18.811661166117,1369382.6686956,-2976.0181391799,2708759.1611173,24.011661166117,0,0
613.01546523143,-21.465191170385,18.816091609161,1369382.6686956,-2976.0181391799,2708759.1611173,24.016091609161,0,0
613.01546554523,-21.666980219846,18.820522052205,1369382.6686956,-2976.0181391799,2708759.1611173,24.020522052205,0,0
613.01546585904,-21.868769269307,18.82495249525,1369382.6686956,-2976.0181391799,2708759.1611173,24.02495249525,0,0
613.01546617285,-22.070558318768,18.829382938294,1369382.6686956,-2976.0181391799,2708759.1611173,24.029382938294,0,0
613.01546648666,-22.272347368229,18.833813381338,1369382.6686956,-2976.0181391799,2708759.1611173,24.033813381338,0,0
613.01546680047,-22.47413641769,18.838243824382,1369382.6686956,-2976.0181391799,2708759.1611173,24.038243824382,0,0
613.01546711427,-22.675925467151,18.842674267427,1369382.6686956,-2976.0181391799,2708759.1611173,24.042674267427,0,0
613.01546742808,-22.877714516612,18.847104710471,1369382.6686956,-2976.0181391799,2708759.1611173,24.047104710471,0,0
613.01546774189,-23.079503566073,18.851535153515,1369382.6686956,-2976.0181391799,2708759.1611173,24.051535153515,0,0
613.0154680557,-23.281292615534,18.85596559656,1369382.6686956,-2976.0181391799,2708759.1611173,24.05596559656,0,0
613.0154683695,-23.483081664995,18.860396039604,1369382.6686956,-2976.0181391799,2708759.1611173,24.060396039604,0,0
613.01546868331,-23.684870714456,18.864826482648,1369382.6686956,-2976.0181391799,2708759.1611173,24.064826482648,0,0
613.01546899712,-23.886659763917,18.869256925693,1369382.6686956,-2976.0181391799,2708759.1611173,24.069256925693,0,0
613.01546931093,-24.088448813378,18.873687368737,1369382.6686956,-2976.0181391799,2708759.1611173,24.073687368737,0,0
613.01546962474,-24.290237862839,18.878117811781,1369382.6686956,-2976.0181391799,2708759.1611173,24.078117811781,0,0
613.01546993854,-24.4920269123,18.882548254825,1369382.6686956,-2976.0181391799,2708759.1611173,24.082548254825,0,0
613.01547025235,-24.693815961761,18.88697869787,1369382.6686956,-2976.0181391799,2708759.1611173,24.08697869787,0,0
613.01547056616,-24.895605011222,18.891409140914,1369382.6686956,-2976.0181391799,2708759.1611173,24.091409140914,0,0
613.01547087997,-25.097394060683,18.895839583958,1369382.6686956,-2976.0181391799,2708759.1611173,24.095839583958,0,0
613.01547119377,-25.299183110144,18.900270027003,1369382.6686956,-2976.0181391799,2708759.1611173,24.100270027003,0,0
613.01547150758,-25.500972159605,18.904700470047,1369382.6686956,-2976.0181391799,2708759.1611173,24.104700470047,0,0
613.01547182139,-25.702761209066,18.909130913091,1369382.6686956,-2976.0181391799,2708759.1611173,24.109130913091,0,0
613.0154721352,-25.904550258527,18.913561356136,1369382.6686956,-2976.0181391799,2708759.1611173,24.113561356136,0,0
613.01547244901,-26.106339307988,18.91799179918,1369382.6686956,-2976.0181391799,2708759.1611173,24.11799179918,0,0
613.01547276281,-26.308128357449,18.922422242224,1369382.6686956,-2976.0181391799,2708759.1611173,24.122422242224,0,0
613.01547307662,-26.50991740691,18.926852685269,1369382.6686956,-2976.0181391799,2708759.1611173,24.126852685269,0,0
613.01547339043,-26.711706456371,18.931283128313,1369382.6686956,-2976.0181391799,2708759.1611173,24.131283128313,0,0
613.01547370424,-26.913495505832,18.935713571357,1369382.6686956,-2976.0181391799,2708759.1611173,24.135713571357,0,0
613.01547401804,-27.115284555293,18.940144014401,1369382.6686956,-2976.0181391799,2708759.1611173,24.140144014401,0,0
613.01547433185,-27.317073604754,18.944574457446,1369382.6686956,-2976.0181391799,2708759.1611173,24.144574457446,0,0
613.01547464566,-27.518862654215,18.94900490049,1369382.6686956,-2976.0181391799,2708759.1611173,24.14900490049,0,0
613.01547495947,-27.720651703676,18.953435343534,1369382.6686956,-2976.0181391799,2708759.1611173,24.153435343534,0,0
613.01547527328,-27.922440753137,18.957865786579,1369382.6686956,-2976.0181391799,2708759.1611173,24.157865786579,0,0
613.01547558708,-28.124229802598,18.962296229623,1369382.6686956,-2976.0181391799,2708759.1611173,24.162296229623,0,0
613.01547590089,-28.326018852059,18.966726672667,1369382.6686956,-2976.0181391799,2708759.1611173,24.166726672667,0,0
613.0154762147,-28.52780790152,18.971157115712,1369382.6686956,-2976.0181391799,2708759.1611173,24.171157115712,0,0
613.01547652851,-28.729596950981,18.975587558756,1369382.6686956,-2976.0181391799,2708759.1611173,24.175587558756,0,0
613.01547684232,-28.931386000442,18.9800180018,1369382.6686956,-2976.0181391799,2708759.1611173,24.1800180018,0,0
613.01547715612,-29.133175049903,18.984448444844,1369382.6686956,-2976.0181391799,2708759.1611173,24.184448444844,0,0
613.01547746993,-29.334964099364,18.988878887889,1369382.6686956,-2976.0181391799,2708759.1611173,24.188878887889,0,0
613.01547778374,-29.536753148825,18.993309330933,1369382.6686956,-2976.0181391799,2708759.1611173,24.193309330933,0,0
613.01547809755,-29.738542198286,18.997739773977,1369382.6686956,-2976.0181391799,2708759.1611173,24.197739773977,0,0
613.01547841135,-29.940331247747,19.002170217022,1369382.6686956,-2976.0181391799,2708759.1611173,24.202170217022,0,0
613.01547872516,-30.142120297208,19.006600660066,1369382.6686956,-2976.0181391799,2708759.1611173,24.206600660066,0,0
613.01547903897,-30.343909346669,19.01103110311,1369382.6686956,-2976.0181391799,2708759.1611173,24.21103110311,0,0
613.01547935278,-30.54569839613,19.015461546155,1369382.6686956,-2976.0181391799,2708759.1611173,24.215461546155,0,0
613.01547966659,-30.747487445591,19.019891989199,1369382.6686956,-2976.0181391799,2708759.1611173,24.219891989199,0,0
613.01547998039,-30.949276495052,19.024322432243,1369382.6686956,-2976.0181391799,2708759.1611173,24.224322432243,0,0
613.0154802942,-31.151065544513,19.028752875288,1369382.6686956,-2976.0181391799,2708759.1611173,24.228752875288,0,0
613.01548060801,-31.352854593974,19.033183318332,1369382.6686956,-2976.0181391799,2708759.1611173,24.233183318332,0,0
613.01548092182,-31.554643643435,19.037613761376,1369382.6686956,-2976.0181391799,2708759.1611173,24.237613761376,0,0
613.01548123562,-31.756432692896,19.04204420442,1369382.6686956,-2976.0181391799,2708759.1611173,24.24204420442,0,0
613.01548154943,-31.958221742357,19.046474647465,1369382.6686956,-2976.0181391799,2708759.1611173,24.246474647465,0,0
613.01548186324,-32.160010791818,19.050905090509,1369382.6686956,-2976.0181391799,2708759.1611173,24.250905090509,0,0
613.01548217705,-32.361799841279,19.055335533553,1369382.6686956,-2976.0181391799,2708759.1611173,24.255335533553,0,0
613.01548249086,-32.56358889074,19.059765976598,1369382.6686956,-2976.0181391799,2708759.1611173,24.259765976598,0,0
613.01548280466,-32.765377940201,19.064196419642,1369382.6686956,-2976.0181391799,2708759.1611173,24.264196419642,0,0
613.01548311847,-32.967166989662,19.068626862686,1369382.6686956,-2976.0181391799,2708759.1611173,24.268626862686,0,0
613.01548343228,-33.168956039123,19.073057305731,1369382.6686956,-2976.0181391799,2708759.1611173,24.273057305731,0,0
613.01548374609,-33.370745088584,19.077487748775,1369382.6686956,-2976.0181391799,2708759.1611173,24.277487748775,0,0
613.01548405989,-33.572534138045,19.081918191819,1369382.6686956,-2976.0181391799,2708759.1611173,24.281918191819,0,0
613.0154843737,-33.774323187506,19.086348634863,1369382.6686956,-2976.0181391799,2708759.1611173,24.286348634863,0,0
613.01548468751,-33.976112236967,19.090779077908,1369382.6686956,-2976.0181391799,2708759.1611173,24.290779077908,0,0
613.01548500132,-34.177901286428,19.095209520952,1369382.6686956,-2976.0181391799,2708759.1611173,24.295209520952,0,0
613.01548531513,-34.379690335889,19.099639963996,1369382.6686956,-2976.0181391799,2708759.1611173,24.299639963996,0,0
613.01548562893,-34.58147938535,19.104070407041,1369382.6686956,-2976.0181391799,2708759.1611173,24.304070407041,0,0
613.01548594274,-34.783268434811,19.108500850085,1369382.6686956,-2976.0181391799,2708759.1611173,24.308500850085,0,0
613.01548625655,-34.985057484272,19.112931293129,1369382.6686956,-2976.0181391799,2708759.1611173,24.312931293129,0,0
613.01548657036,-35.186846533733,19.117361736174,1369382.6686956,-2976.0181391799,2708759.1611173,24.317361736174,0,0
613.01548688416,-35.388635583194,19.121792179218,1369382.6686956,-2976.0181391799,2708759.1611173,24.321792179218,0,0
613.01548719797,-35.590424632655,19.126222622262,1369382.6686956,-2976.0181391799,2708759.1611173,24.326222622262,0,0
613.01548751178,-35.792213682116,19.130653065307,1369382.6686956,-2976.0181391799,2708759.1611173,24.330653065307,0,0
613.01548782559,-35.994002731577,19.135083508351,1369382.6686956,-2976.0181391799,2708759.1611173,24.335083508351,0,0
613.0154881394,-36.195791781038,19.139513951395,1369382.6686956,-2976.0181391799,2708759.1611173,24.339513951395,0,0
613.0154884532,-36.397580830499,19.143944394439,1369382.6686956,-2976.0181391799,2708759.1611173,24.343944394439,0,0
613.01548876701,-36.59936987996,19.148374837484,1369382.6686956,-2976.0181391799,2708759.1611173,24.348374837484,0,0
613.01548908082,-36.801158929421,19.152805280528,1369382.6686956,-2976.0181391799,2708759.1611173,24.352805280528,0,0
613.01548939463,-37.002947978882,19.157235723572,1369382.6686956,-2976.0181391799,2708759.1611173,24.357235723572,0,0
613.01548970843,-37.204737028343,19.161666166617,1369382.6686956,-2976.0181391799,2708759.1611173,24.361666166617,0,0
613.01549002224,-37.406526077804,19.166096609661,1369382.6686956,-2976.0181391799,2708759.1611173,24.366096609661,0,0
613.01549033605,-37.608315127265,19.170527052705,1369382.6686956,-2976.0181391799,2708759.1611173,24.370527052705,0,0
613.01549064986,-37.810104176726,19.17495749575,1369382.6686956,-2976.0181391799,2708759.1611173,24.37495749575,0,0
613.01549096367,-38.011893226187,19.179387938794,1369382.6686956,-2976.0181391799,2708759.1611173,24.379387938794,0,0
613.01549127747,-38.213682275648,19.183818381838,1369382.6686956,-2976.0181391799,2708759.1611173,24.383818381838,0,0
613.01549159128,-38.415471325108,19.188248824882,1369382.6686956,-2976.0181391799,2708759.1611173,24.388248824882,0,0
613.01549190509,-38.61726037457,19.192679267927,1369382.6686956,-2976.0181391799,2708759.1611173,24.392679267927,0,0
613.0154922189,-38.819049424031,19.197109710971,1369382.6686956,-2976.0181391799,2708759.1611173,24.397109710971,0,0
613.01549253271,-39.020838473492,19.201540154015,1369382.6686956,-2976.0181391799,2708759.1611173,24.401540154015,0,0
613.01549284651,-39.222627522953,19.20597059706,1369382.6686956,-2976.0181391799,2708759.1611173,24.40597059706,0,0
613.01549316032,-39.424416572414,19.210401040104,1369382.6686956,-2976.0181391799,2708759.1611173,24.410401040104,0,0
613.01549347413,-39.626205621875,19.214831483148,1369382.6686956,-2976.0181391799,2708759.1611173,24.414831483148,0,0
613.01549378794,-39.827994671336,19.219261926193,1369382.6686956,-2976.0181391799,2708759.1611173,24.419261926193,0,0
613.01549410174,-40.029783720797,19.223692369237,1369382.6686956,-2976.0181391799,2708759.1611173,24.423692369237,0,0
613.01549441555,-40.231572770257,19.228122812281,1369382.6686956,-2976.0181391799,2708759.1611173,24.428122812281,0,0
613.01549472936,-40.433361819719,19.232553255326,1369382.6686956,-2976.0181391799,2708759.1611173,24.432553255326,0,0
613.01549504317,-40.635150869179,19.23698369837,1369382.6686956,-2976.0181391799,2708759.1611173,24.43698369837,0,0
613.01549535698,-40.83693991864,19.241414141414,1369382.6686956,-2976.0181391799,2708759.1611173,24.441414141414,0,0
613.01549567078,-41.038728968101,19.245844584458,1369382.6686956,-2976.0181391799,2708759.1611173,24.445844584458,0,0
613.01549598459,-41.240518017563,19.250275027503,1369382.6686956,-2976.0181391799,2708759.1611173,24.450275027503,0,0
613.0154962984,-41.442307067023,19.254705470547,1369382.6686956,-2976.0181391799,2708759.1611173,24.454705470547,0,0
613.01549661221,-41.644096116485,19.259135913591,1369382.6686956,-2976.0181391799,2708759.1611173,24.459135913591,0,0
613.01549692601,-41.845885165945,19.263566356636,1369382.6686956,-2976.0181391799,2708759.1611173,24.463566356636,0,0
613.01549723982,-42.047674215407,19.26799679968,1369382.6686956,-2976.0181391799,2708759.1611173,24.46799679968,0,0
613.01549755363,-42.249463264868,19.272427242724,1369382.6686956,-2976.0181391799,2708759.1611173,24.472427242724,0,0
613.01549786744,-42.451252314328,19.276857685769,1369382.6686956,-2976.0181391799,2708759.1611173,24.476857685769,0,0
613.01549818125,-42.653041363789,19.281288128813,1369382.6686956,-2976.0181391799,2708759.1611173,24.481288128813,0,0
613.01549849505,-42.85483041325,19.285718571857,1369382.6686956,-2976.0181391799,2708759.1611173,24.485718571857,0,0
613.01549880886,-43.056619462712,19.290149014901,1369382.6686956,-2976.0181391799,2708759.1611173,24.490149014901,0,0
613.01549912267,-43.258408512173,19.294579457946,1369382.6686956,-2976.0181391799,2708759.1611173,24.494579457946,0,0
613.01549943648,-43.460197561633,19.29900990099,1369382.6686956,-2976.0181391799,2708759.1611173,24.49900990099,0,0
613.01549975028,-43.661986611094,19.303440344034,1369382.6686956,-2976.0181391799,2708759.1611173,24.503440344034,0,0
613.01550006409,-43.863775660555,19.307870787079,1369382.6686956,-2976.0181391799,2708759.1611173,24.507870787079,0,0
613.0155003779,-44.065564710016,19.312301230123,1369382.6686956,-2976.0181391799,2708759.1611173,24.512301230123,0,0
613.01550069171,-44.267353759477,19.316731673167,1369382.6686956,-2976.0181391799,2708759.1611173,24.516731673167,0,0
613.01550100552,-44.469142808938,19.321162116212,1369382.6686956,-2976.0181391799,2708759.1611173,24.521162116212,0,0
613.01550131932,-44.670931858399,19.325592559256,1369382.6686956,-2976.0181391799,2708759.1611173,24.525592559256,0,0
613.01550163313,-44.87272090786,19.3300230023,1369382.6686956,-2976.0181391799,2708759.1611173,24.5300230023,0,0
613.01550194694,-45.074509957321,19.334453445345,1369382.6686956,-2976.0181391799,2708759.1611173,24.534453445345,0,0
613.01550226075,-45.276299006782,19.338883888389,1369382.6686956,-2976.0181391799,2708759.1611173,24.538883888389,0,0
613.01550257455,-45.478088056244,19.343314331433,1369382.6686956,-2976.0181391799,2708759.1611173,24.543314331433,0,0
613.01550288836,-45.679877105704,19.347744774477,1369382.6686956,-2976.0181391799,2708759.1611173,24.547744774477,0,0
613.01550320217,-45.881666155165,19.352175217522,1369382.6686956,-2976.0181391799,2708759.1611173,24.552175217522,0,0
613.01550351598,-46.083455204626,19.356605660566,1369382.6686956,-2976.0181391799,2708759.1611173,24.556605660566,0,0
613.01550382979,-46.285244254087,19.36103610361,1369382.6686956,-2976.0181391799,2708759.1611173,24.56103610361,0,0
613.01550414359,-46.487033303548,19.365466546655,1369382.6686956,-2976.0181391799,2708759.1611173,24.565466546655,0,0
613.0155044574,-46.688822353009,19.369896989699,1369382.6686956,-2976.0181391799,2708759.1611173,24.569896989699,0,0
613.01550477121,-46.89061140247,19.374327432743,1369382.6686956,-2976.0181391799,2708759.1611173,24.574327432743,0,0
613.01550508502,-47.092400451931,19.378757875788,1369382.6686956,-2976.0181391799,2708759.1611173,24.578757875788,0,0
613.01550539882,-47.294189501392,19.383188318832,1369382.6686956,-2976.0181391799,2708759.1611173,24.583188318832,0,0
613.01550571263,-47.495978550853,19.387618761876,1369382.6686956,-2976.0181391799,2708759.1611173,24.587618761876,0,0
613.01550602644,-47.697767600314,19.39204920492,1369382.6686956,-2976.0181391799,2708759.1611173,24.59204920492,0,0
613.01550634025,-47.899556649775,19.396479647965,1369382.6686956,-2976.0181391799,2708759.1611173,24.596479647965,0,0
613.01550665406,-48.101345699236,19.400910091009,1369382.6686956,-2976.0181391799,2708759.1611173,24.600910091009,0,0
613.01550696786,-48.303134748697,19.405340534053,1369382.6686956,-2976.0181391799,2708759.1611173,24.605340534053,0,0
613.01550728167,-48.504923798158,19.409770977098,1369382.6686956,-2976.0181391799,2708759.1611173,24.609770977098,0,0
613.01550759548,-48.706712847619,19.414201420142,1369382.6686956,-2976.0181391799,2708759.1611173,24.614201420142,0,0
613.01550790929,-48.90850189708,19.418631863186,1369382.6686956,-2976.0181391799,2708759.1611173,24.618631863186,0,0
613.0155082231,-49.110290946541,19.423062306231,1369382.6686956,-2976.0181391799,2708759.1611173,24.623062306231,0,0
613.0155085369,-49.312079996002,19.427492749275,1369382.6686956,-2976.0181391799,2708759.1611173,24.627492749275,0,0
613.01550885071,-49.513869045463,19.431923192319,1369382.6686956,-2976.0181391799,2708759.1611173,24.631923192319,0,0
613.01550916452,-49.715658094924,19.436353635364,1369382.6686956,-2976.0181391799,2708759.1611173,24.636353635364,0,0
613.01550947833,-49.917447144385,19.440784078408,1369382.6686956,-2976.0181391799,2708759.1611173,24.640784078408,0,0
613.01550979213,-50.119236193846,19.445214521452,1369382.6686956,-2976.0181391799,2708759.1611173,24.645214521452,0,0
613.01551010594,-50.321025243307,19.449644964496,1369382.6686956,-2976.0181391799,2708759.1611173,24.649644964496,0,0
613.01551041975,-50.522814292768,19.454075407541,1369382.6686956,-2976.0181391799,2708759.1611173,24.654075407541,0,0
613.01551073356,-50.724603342229,19.458505850585,1369382.6686956,-2976.0181391799,2708759.1611173,24.658505850585,0,0
613.01551104737,-50.92639239169,19.462936293629,1369382.6686956,-2976.0181391799,2708759.1611173,24.662936293629,0,0
613.01551136117,-51.128181441151,19.467366736674,1369382.6686956,-2976.0181391799,2708759.1611173,24.667366736674,0,0
613.01551167498,-51.329970490612,19.471797179718,1369382.6686956,-2976.0181391799,2708759.1611173,24.671797179718,0,0
613.01551198879,-51.531759540073,19.476227622762,1369382.6686956,-2976.0181391799,2708759.1611173,24.676227622762,0,0
613.0155123026,-51.733548589534,19.480658065807,1369382.6686956,-2976.0181391799,2708759.1611173,24.680658065807,0,0
613.0155126164,-51.935337638995,19.485088508851,1369382.6686956,-2976.0181391799,2708759.1611173,24.685088508851,0,0
613.01551293021,-52.137126688456,19.489518951895,1369382.6686956,-2976.0181391799,2708759.1611173,24.689518951895,0,0
613.01551324402,-52.338915737917,19.493949394939,1369382.6686956,-2976.0181391799,2708759.1611173,24.693949394939,0,0
613.01551355783,-52.540704787378,19.498379837984,1369382.6686956,-2976.0181391799,2708759.1611173,24.698379837984,0,0
613.01551387164,-52.742493836839,19.502810281028,1369382.6686956,-2976.0181391799,2708759.1611173,24.702810281028,0,0
613.01551418544,-52.9442828863,19.507240724072,1369382.6686956,-2976.0181391799,2708759.1611173,24.707240724072,0,0
613.01551449925,-53.146071935761,19.511671167117,1369382.6686956,-2976.0181391799,2708759.1611173,24.711671167117,0,0
613.01551481306,-53.347860985222,19.516101610161,1369382.6686956,-2976.0181391799,2708759.1611173,24.716101610161,0,0
613.01551512687,-53.549650034683,19.520532053205,1369382.6686956,-2976.0181391799,2708759.1611173,24.720532053205,0,0
613.01551544067,-53.751439084144,19.52496249625,1369382.6686956,-2976.0181391799,2708759.1611173,24.72496249625,0,0
613.01551575448,-53.953228133605,19.529392939294,1369382.6686956,-2976.0181391799,2708759.1611173,24.729392939294,0,0
613.01551606829,-54.155017183066,19.533823382338,1369382.6686956,-2976.0181391799,2708759.1611173,24.733823382338,0,0
613.0155163821,-54.356806232527,19.538253825383,1369382.6686956,-2976.0181391799,2708759.1611173,24.738253825383,0,0
613.01551669591,-54.558595281988,19.542684268427,1369382.6686956,-2976.0181391799,2708759.1611173,24.742684268427,0,0
613.01551700971,-54.760384331449,19.547114711471,1369382.6686956,-2976.0181391799,2708759.1611173,24.747114711471,0,0
613.01551732352,-54.96217338091,19.551545154515,1369382.6686956,-2976.0181391799,2708759.1611173,24.751545154515,0,0
613.01551763733,-55.163962430371,19.55597559756,1369382.6686956,-2976.0181391799,2708759.1611173,24.75597559756,0,0
613.01551795114,-55.365751479832,19.560406040604,1369382.6686956,-2976.0181391799,2708759.1611173,24.760406040604,0,0
613.01551826494,-55.567540529293,19.564836483648,1369382.6686956,-2976.0181391799,2708759.1611173,24.764836483648,0,0
613.01551857875,-55.769329578754,19.569266926693,1369382.6686956,-2976.0181391799,2708759.1611173,24.769266926693,0,0
613.01551889214,-55.971118626591,19.573697369737,1365843.3066802,1316.9256150383,2704743.793815,24.773697369737,0,0
613.01551920548,-56.172907674244,19.578127812781,1365843.3066802,1316.9256150383,2704743.793815,24.778127812781,0,0
613.01551951883,-56.374696721897,19.582558255826,1365843.3066802,1316.9256150383,2704743.793815,24.782558255826,0,0
613.01551983217,-56.57648576955,19.58698869887,1365843.3066802,1316.9256150383,2704743.793815,24.78698869887,0,0
613.01552014551,-56.778274817202,19.591419141914,1365843.3066802,1316.9256150383,2704743.793815,24.791419141914,0,0
613.01552045885,-56.980063864855,19.595849584958,1365843.3066802,1316.9256150383,2704743.793815,24.795849584958,0,0
613.0155207722,-57.181852912508,19.600280028003,1365843.3066802,1316.9256150383,2704743.793815,24.800280028003,0,0
613.01552108554,-57.383641960161,19.604710471047,1365843.3066802,1316.9256150383,2704743.793815,24.804710471047,0,0
613.01552139888,-57.585431007814,19.609140914091,1365843.3066802,1316.9256150383,2704743.793815,24.809140914091,0,0
613.01552171222,-57.787220055467,19.613571357136,1365843.3066802,1316.9256150383,2704743.793815,24.813571357136,0,0
613.01552202556,-57.98900910312,19.61800180018,1365843.3066802,1316.9256150383,2704743.793815,24.81800180018,0,0
613.01552233891,-58.190798150773,19.622432243224,1365843.3066802,1316.9256150383,2704743.793815,24.822432243224,0,0
613.01552265225,-58.392587198425,19.626862686269,1365843.3066802,1316.9256150383,2704743.793815,24.826862686269,0,0
613.01552296559,-58.594376246079,19.631293129313,1365843.3066802,1316.9256150383,2704743.793815,24.831293129313,0,0
613.01552327893,-58.796165293731,19.635723572357,1365843.3066802,1316.9256150383,2704743.793815,24.835723572357,0,0
613.01552359228,-58.997954341384,19.640154015402,1365843.3066802,1316.9256150383,2704743.793815,24.840154015402,0,0
613.01552390562,-59.199743389037,19.644584458446,1365843.3066802,1316.9256150383,2704743.793815,24.844584458446,0,0
613.01552421896,-59.40153243669,19.64901490149,1365843.3066802,1316.9256150383,2704743.793815,24.84901490149,0,0
613.0155245323,-59.603321484343,19.653445344534,1365843.3066802,1316.9256150383,2704743.793815,24.853445344534,0,0
613.01552484565,-59.805110531996,19.657875787579,1365843.3066802,1316.9256150383,2704743.793815,24.857875787579,0,0
613.01552515899,-60.006899579649,19.662306230623,1365843.3066802,1316.9256150383,2704743.793815,24.862306230623,0,0
613.01552547233,-60.208688627302,19.666736673667,1365843.3066802,1316.9256150383,2704743.793815,24.866736673667,0,0
613.01552578567,-60.410477674955,19.671167116712,1365843.3066802,1316.9256150383,2704743.793815,24.871167116712,0,0
613.01552609901,-60.612266722608,19.675597559756,1365843.3066802,1316.9256150383,2704743.793815,24.875597559756,0,0
613.01552641236,-60.814055770261,19.6800280028,1365843.3066802,1316.9256150383,2704743.793815,24.8800280028,0,0
613.0155267257,-61.015844817914,19.684458445845,1365843.3066802,1316.9256150383,2704743.793815,24.884458445845,0,0
613.01552703904,-61.217633865567,19.688888888889,1365843.3066802,1316.9256150383,2704743.793815,24.888888888889,0,0
613.01552735238,-61.419422913219,19.693319331933,1365843.3066802,1316.9256150383,2704743.793815,24.893319331933,0,0
613.01552766573,-61.621211960872,19.697749774977,1365843.3066802,1316.9256150383,2704743.793815,24.897749774977,0,0
613.01552797907,-61.823001008526,19.702180218022,1365843.3066802,1316.9256150383,2704743.793815,24.902180218022,0,0
613.01552829241,-62.024790056178,19.706610661066,1365843.3066802,1316.9256150383,2704743.793815,24.906610661066,0,0
613.01552860575,-62.226579103831,19.71104110411,1365843.3066802,1316.9256150383,2704743.793815,24.91104110411,0,0
613.0155289191,-62.428368151484,19.715471547155,1365843.3066802,1316.9256150383,2704743.793815,24.915471547155,0,0
613.01552923244,-62.630157199137,19.719901990199,1365843.3066802,1316.9256150383,2704743.793815,24.919901990199,0,0
613.01552954578,-62.83194624679,19.724332433243,1365843.3066802,1316.9256150383,2704743.793815,24.924332433243,0,0
613.01552985912,-63.033735294443,19.728762876288,1365843.3066802,1316.9256150383,2704743.793815,24.928762876288,0,0
613.01553017246,-63.235524342096,19.733193319332,1365843.3066802,1316.9256150383,2704743.793815,24.933193319332,0,0
613.01553048581,-63.437313389749,19.737623762376,1365843.3066802,1316.9256150383,2704743.793815,24.937623762376,0,0
613.01553079915,-63.639102437402,19.742054205421,1365843.3066802,1316.9256150383,2704743.793815,24.942054205421,0,0
613.01553111249,-63.840891485055,19.746484648465,1365843.3066802,1316.9256150383,2704743.793815,24.946484648465,0,0
613.01553142583,-64.042680532707,19.750915091509,1365843.3066802,1316.9256150383,2704743.793815,24.950915091509,0,0
613.01553173918,-64.24446958036,19.755345534553,1365843.3066802,1316.9256150383,2704743.793815,24.955345534553,0,0
613.01553205252,-64.446258628013,19.759775977598,1365843.3066802,1316.9256150383,2704743.793815,24.959775977598,0,0
613.01553236586,-64.648047675666,19.764206420642,1365843.3066802,1316.9256150383,2704743.793815,24.964206420642,0,0
613.0155326792,-64.849836723319,19.768636863686,1365843.3066802,1316.9256150383,2704743.793815,24.968636863686,0,0
613.01553299254,-65.051625770972,19.773067306731,1365843.3066802,1316.9256150383,2704743.793815,24.973067306731,0,0
613.01553330589,-65.253414818625,19.777497749775,1365843.3066802,1316.9256150383,2704743.793815,24.977497749775,0,0
613.01553361923,-65.455203866278,19.781928192819,1365843.3066802,1316.9256150383,2704743.793815,24.981928192819,0,0
613.01553393257,-65.656992913931,19.786358635864,1365843.3066802,1316.9256150383,2704743.793815,24.986358635864,0,0
613.01553424591,-65.858781961584,19.790789078908,1365843.3066802,1316.9256150383,2704743.793815,24.990789078908,0,0
613.01553455926,-66.060571009237,19.795219521952,1365843.3066802,1316.9256150383,2704743.793815,24.995219521952,0,0
613.0155348726,-66.26236005689,19.799649964996,1365843.3066802,1316.9256150383,2704743.793815,24.999649964996,0,0
613.01553518594,-66.464149104543,19.804080408041,1365843.3066802,1316.9256150383,2704743.793815,25.004080408041,0,0
613.01553549928,-66.665938152195,19.808510851085,1365843.3066802,1316.9256150383,2704743.793815,25.008510851085,0,0
613.01553581263,-66.867727199848,19.812941294129,1365843.3066802,1316.9256150383,2704743.793815,25.012941294129,0,0
613.01553612597,-67.069516247501,19.817371737174,1365843.3066802,1316.9256150383,2704743.793815,25.017371737174,0,0
613.01553643938,-67.271305295832,19.821802180218,1365394.1292719,-2677.6230773762,2698163.1668107,25.021802180218,0,0
613.01553675294,-67.473094345435,19.826232623262,1365394.1292719,-2677.6230773762,2698163.1668107,25.026232623262,0,0
613.0155370665,-67.674883395038,19.830663066307,1365394.1292719,-2677.6230773762,2698163.1668107,25.030663066307,0,0
613.01553738006,-67.876672444641,19.835093509351,1365394.1292719,-2677.6230773762,2698163.1668107,25.035093509351,0,0
613.01553769361,-68.078461494244,19.839523952395,1365394.1292719,-2677.6230773762,2698163.1668107,25.039523952395,0,0
613.01553800717,-68.280250543847,19.84395439544,1365394.1292719,-2677.6230773762,2698163.1668107,25.04395439544,0,0
613.01553832073,-68.48203959345,19.848384838484,1365394.1292719,-2677.6230773762,2698163.1668107,25.048384838484,0,0
613.01553863428,-68.683828643053,19.852815281528,1365394.1292719,-2677.6230773762,2698163.1668107,25.052815281528,0,0
613.01553894784,-68.885617692656,19.857245724572,1365394.1292719,-2677.6230773762,2698163.1668107,25.057245724572,0,0
613.0155392614,-69.087406742259,19.861676167617,1365394.1292719,-2677.6230773762,2698163.1668107,25.061676167617,0,0
613.01553957496,-69.289195791862,19.866106610661,1365394.1292719,-2677.6230773762,2698163.1668107,25.066106610661,0,0
613.01553988851,-69.490984841465,19.870537053705,1365394.1292719,-2677.6230773762,2698163.1668107,25.070537053705,0,0
613.01554020207,-69.692773891068,19.87496749675,1365394.1292719,-2677.6230773762,2698163.1668107,25.07496749675,0,0
613.01554051563,-69.894562940671,19.879397939794,1365394.1292719,-2677.6230773762,2698163.1668107,25.079397939794,0,0
613.01554082918,-70.096351990274,19.883828382838,1365394.1292719,-2677.6230773762,2698163.1668107,25.083828382838,0,0
613.01554114274,-70.298141039877,19.888258825883,1365394.1292719,-2677.6230773762,2698163.1668107,25.088258825883,0,0
613.0155414563,-70.49993008948,19.892689268927,1365394.1292719,-2677.6230773762,2698163.1668107,25.092689268927,0,0
613.01554176985,-70.701719139083,19.897119711971,1365394.1292719,-2677.6230773762,2698163.1668107,25.097119711971,0,0
613.01554208341,-70.903508188686,19.901550155015,1365394.1292719,-2677.6230773762,2698163.1668107,25.101550155015,0,0
613.01554239697,-71.105297238289,19.90598059806,1365394.1292719,-2677.6230773762,2698163.1668107,25.10598059806,0,0
613.01554271053,-71.307086287892,19.910411041104,1365394.1292719,-2677.6230773762,2698163.1668107,25.110411041104,0,0
613.01554302408,-71.508875337495,19.914841484148,1365394.1292719,-2677.6230773762,2698163.1668107,25.114841484148,0,0
613.01554333764,-71.710664387098,19.919271927193,1365394.1292719,-2677.6230773762,2698163.1668107,25.119271927193,0,0
613.0155436512,-71.912453436701,19.923702370237,1365394.1292719,-2677.6230773762,2698163.1668107,25.123702370237,0,0
613.01554396475,-72.114242486304,19.928132813281,1365394.1292719,-2677.6230773762,2698163.1668107,25.128132813281,0,0
613.01554427831,-72.316031535907,19.932563256326,1365394.1292719,-2677.6230773762,2698163.1668107,25.132563256326,0,0
613.01554459187,-72.51782058551,19.93699369937,1365394.1292719,-2677.6230773762,2698163.1668107,25.13699369937,0,0
613.01554490542,-72.719609635113,19.941424142414,1365394.1292719,-2677.6230773762,2698163.1668107,25.141424142414,0,0
613.01554521898,-72.921398684716,19.945854585459,1365394.1292719,-2677.6230773762,2698163.1668107,25.145854585459,0,0
613.01554553254,-73.123187734319,19.950285028503,1365394.1292719,-2677.6230773762,2698163.1668107,25.150285028503,0,0
613.0155458461,-73.324976783922,19.954715471547,1365394.1292719,-2677.6230773762,2698163.1668107,25.154715471547,0,0
613.01554615965,-73.526765833525,19.959145914591,1365394.1292719,-2677.6230773762,2698163.1668107,25.159145914591,0,0
613.01554647321,-73.728554883128,19.963576357636,1365394.1292719,-2677.6230773762,2698163.1668107,25.163576357636,0,0
613.01554678677,-73.930343932731,19.96800680068,1365394.1292719,-2677.6230773762,2698163.1668107,25.16800680068,0,0
613.01554710032,-74.132132982334,19.972437243724,1365394.1292719,-2677.6230773762,2698163.1668107,25.172437243724,0,0
613.01554741388,-74.333922031937,19.976867686769,1365394.1292719,-2677.6230773762,2698163.1668107,25.176867686769,0,0
613.01554772744,-74.53571108154,19.981298129813,1365394.1292719,-2677.6230773762,2698163.1668107,25.181298129813,0,0
613.015548041,-74.737500131143,19.985728572857,1365394.1292719,-2677.6230773762,2698163.1668107,25.185728572857,0,0
613.01554835455,-74.939289180746,19.990159015902,1365394.1292719,-2677.6230773762,2698163.1668107,25.190159015902,0,0
613.01554866811,-75.141078230349,19.994589458946,1365394.1292719,-2677.6230773762,2698163.1668107,25.194589458946,0,0
613.01554898167,-75.342867279952,19.99901990199,1365394.1292719,-2677.6230773762,2698163.1668107,25.19901990199,0,0
613.01554929522,-75.544656329555,20.003450345035,1365394.1292719,-2677.6230773762,2698163.1668107,25.203450345035,0,0
613.01554960878,-75.746445379157,20.007880788079,1365394.1292719,-2677.6230773762,2698163.1668107,25.207880788079,0,0
613.01554992234,-75.94823442876,20.012311231123,1365394.1292719,-2677.6230773762,2698163.1668107,25.212311231123,0,0
613.01555023589,-76.150023478363,20.016741674167,1365394.1292719,-2677.6230773762,2698163.1668107,25.216741674167,0,0
613.01555054945,-76.351812527966,20.021172117212,1365394.1292719,-2677.6230773762,2698163.1668107,25.221172117212,0,0
613.01555086301,-76.553601577569,20.025602560256,1365394.1292719,-2677.6230773762,2698163.1668107,25.225602560256,0,0
613.01555117657,-76.755390627172,20.0300330033,1365394.1292719,-2677.6230773762,2698163.1668107,25.2300330033,0,0
613.01555149012,-76.957179676775,20.034463446345,1365394.1292719,-2677.6230773762,2698163.1668107,25.234463446345,0,0
613.01555180368,-77.158968726378,20.038893889389,1365394.1292719,-2677.6230773762,2698163.1668107,25.238893889389,0,0
613.01555211724,-77.360757775981,20.043324332433,1365394.1292719,-2677.6230773762,2698163.1668107,25.243324332433,0,0
613.01555243079,-77.562546825584,20.047754775478,1365394.1292719,-2677.6230773762,2698163.1668107,25.247754775478,0,0
613.01555274435,-77.764335875187,20.052185218522,1365394.1292719,-2677.6230773762,2698163.1668107,25.252185218522,0,0
613.01555305791,-77.96612492479,20.056615661566,1365394.1292719,-2677.6230773762,2698163.1668107,25.256615661566,0,0
613.01555337146,-78.167913974393,20.06104610461,1365394.1292719,-2677.6230773762,2698163.1668107,25.26104610461,0,0
613.01555368502,-78.369703023996,20.065476547655,1365394.1292719,-2677.6230773762,2698163.1668107,25.265476547655,0,0
613.01555399858,-78.571492073599,20.069906990699,1365394.1292719,-2677.6230773762,2698163.1668107,25.269906990699,0,0
613.01555431214,-78.773281123202,20.074337433743,1365394.1292719,-2677.6230773762,2698163.1668107,25.274337433743,0,0
613.01555462569,-78.975070172805,20.078767876788,1365394.1292719,-2677.6230773762,2698163.1668107,25.278767876788,0,0
613.01555493925,-79.176859222408,20.083198319832,1365394.1292719,-2677.6230773762,2698163.1668107,25.283198319832,0,0
613.01555525281,-79.378648272011,20.087628762876,1365394.1292719,-2677.6230773762,2698163.1668107,25.287628762876,0,0
613.01555556636,-79.580437321614,20.092059205921,1365394.1292719,-2677.6230773762,2698163.1668107,25.292059205921,0,0
613.01555587992,-79.782226371217,20.096489648965,1365394.1292719,-2677.6230773762,2698163.1668107,25.296489648965,0,0
613.01555619348,-79.98401542082,20.100920092009,1365394.1292719,-2677.6230773762,2698163.1668107,25.300920092009,0,0
613.01555650704,-80.185804470423,20.105350535054,1365394.1292719,-2677.6230773762,2698163.1668107,25.305350535054,0,0
613.01555682059,-80.387593520026,20.109780978098,1365394.1292719,-2677.6230773762,2698163.1668107,25.309780978098,0,0
613.01555713415,-80.589382569629,20.114211421142,1365394.1292719,-2677.6230773762,2698163.1668107,25.314211421142,0,0
613.01555744771,-80.791171619232,20.118641864186,1365394.1292719,-2677.6230773762,2698163.1668107,25.318641864186,0,0
613.01555776126,-80.992960668835,20.123072307231,1365394.1292719,-2677.6230773762,2698163.1668107,25.323072307231,0,0
613.01555807482,-81.194749718438,20.127502750275,1365394.1292719,-2677.6230773762,2698163.1668107,25.327502750275,0,0
613.01555838838,-81.396538768041,20.131933193319,1365394.1292719,-2677.6230773762,2698163.1668107,25.331933193319,0,0
613.01555870193,-81.598327817644,20.136363636364,1365394.1292719,-2677.6230773762,2698163.1668107,25.336363636364,0,0
613.01555901549,-81.800116867247,20.140794079408,1365394.1292719,-2677.6230773762,2698163.1668107,25.340794079408,0,0
613.01555932905,-82.00190591685,20.145224522452,1365394.1292719,-2677.6230773762,2698163.1668107,25.345224522452,0,0
613.01555964261,-82.203694966453,20.149654965497,1365394.1292719,-2677.6230773762,2698163.1668107,25.349654965497,0,0
613.01555995616,-82.405484016056,20.154085408541,1365394.1292719,-2677.6230773762,2698163.1668107,25.354085408541,0,0
613.01556026972,-82.607273065659,20.158515851585,1365394.1292719,-2677.6230773762,2698163.1668107,25.358515851585,0,0
613.01556058328,-82.809062115262,20.162946294629,1365394.1292719,-2677.6230773762,2698163.1668107,25.362946294629,0,0
613.01556089683,-83.010851164865,20.167376737674,1365394.1292719,-2677.6230773762,2698163.1668107,25.367376737674,0,0
613.01556121039,-83.212640214468,20.171807180718,1365394.1292719,-2677.6230773762,2698163.1668107,25.371807180718,0,0
613.01556152395,-83.414429264071,20.176237623762,1365394.1292719,-2677.6230773762,2698163.1668107,25.376237623762,0,0
613.01556183751,-83.616218313674,20.180668066807,1365394.1292719,-2677.6230773762,2698163.1668107,25.380668066807,0,0
613.01556215106,-83.818007363277,20.185098509851,1365394.1292719,-2677.6230773762,2698163.1668107,25.385098509851,0,0
613.01556246462,-84.01979641288,20.189528952895,1365394.1292719,-2677.6230773762,2698163.1668107,25.389528952895,0,0
613.01556277818,-84.221585462483,20.19395939594,1365394.1292719,-2677.6230773762,2698163.1668107,25.39395939594,0,0
613.01556309173,-84.423374512086,20.198389838984,1365394.1292719,-2677.6230773762,2698163.1668107,25.398389838984,0,0
613.01556340529,-84.625163561688,20.202820282028,1365394.1292719,-2677.6230773762,2698163.1668107,25.402820282028,0,0
613.01556371885,-84.826952611292,20.207250725073,1365394.1292719,-2677.6230773762,2698163.1668107,25.407250725073,0,0
613.0155640324,-85.028741660894,20.211681168117,1365394.1292719,-2677.6230773762,2698163.1668107,25.411681168117,0,0
613.01556434596,-85.230530710497,20.216111611161,1365394.1292719,-2677.6230773762,2698163.1668107,25.416111611161,0,0
613.01556465952,-85.4323197601,20.220542054205,1365394.1292719,-2677.6230773762,2698163.1668107,25.420542054205,0,0
613.01556497308,-85.634108809703,20.22497249725,1365394.1292719,-2677.6230773762,2698163.1668107,25.42497249725,0,0
613.01556528663,-85.835897859306,20.229402940294,1365394.1292719,-2677.6230773762,2698163.1668107,25.429402940294,0,0
613.01556560019,-86.037686908909,20.233833383338,1365394.1292719,-2677.6230773762,2698163.1668107,25.433833383338,0,0
613.01556591375,-86.239475958512,20.238263826383,1365394.1292719,-2677.6230773762,2698163.1668107,25.438263826383,0,0
613.0155662273,-86.441265008115,20.242694269427,1365394.1292719,-2677.6230773762,2698163.1668107,25.442694269427,0,0
613.01556654086,-86.643054057718,20.247124712471,1365394.1292719,-2677.6230773762,2698163.1668107,25.447124712471,0,0
613.01556685442,-86.844843107321,20.251555155516,1365394.1292719,-2677.6230773762,2698163.1668107,25.451555155516,0,0
613.01556716797,-87.046632156924,20.25598559856,1365394.1292719,-2677.6230773762,2698163.1668107,25.45598559856,0,0
613.01556748153,-87.248421206527,20.260416041604,1365394.1292719,-2677.6230773762,2698163.1668107,25.460416041604,0,0
613.01556779509,-87.45021025613,20.264846484648,1365394.1292719,-2677.6230773762,2698163.1668107,25.464846484648,0,0
613.01556810865,-87.651999305733,20.269276927693,1365394.1292719,-2677.6230773762,2698163.1668107,25.469276927693,0,0
613.0155684222,-87.853788355336,20.273707370737,1365394.1292719,-2677.6230773762,2698163.1668107,25.473707370737,0,0
613.01556873576,-88.055577404939,20.278137813781,1365394.1292719,-2677.6230773762,2698163.1668107,25.478137813781,0,0
613.01556904932,-88.257366454542,20.282568256826,1365394.1292719,-2677.6230773762,2698163.1668107,25.482568256826,0,0
613.01556936287,-88.459155504145,20.28699869987,1365394.1292719,-2677.6230773762,2698163.1668107,25.48699869987,0,0
613.01556967643,-88.660944553748,20.291429142914,1365394.1292719,-2677.6230773762,2698163.1668107,25.491429142914,0,0
613.01556998999,-88.862733603351,20.295859585959,1365394.1292719,-2677.6230773762,2698163.1668107,25.495859585959,0,0
613.01557030355,-89.064522652954,20.300290029003,1365394.1292719,-2677.6230773762,2698163.1668107,25.500290029003,0,0
613.0155706171,-89.266311702557,20.304720472047,1365394.1292719,-2677.6230773762,2698163.1668107,25.504720472047,0,0
613.01557093066,-89.46810075216,20.309150915092,1365394.1292719,-2677.6230773762,2698163.1668107,25.509150915092,0,0
613.01557124422,-89.669889801763,20.313581358136,1365394.1292719,-2677.6230773762,2698163.1668107,25.513581358136,0,0
613.01557155777,-89.871678851366,20.31801180118,1365394.1292719,-2677.6230773762,2698163.1668107,25.51801180118,0,0
613.01557187133,-90.073467900969,20.322442244224,1365394.1292719,-2677.6230773762,2698163.1668107,25.522442244224,0,0
613.01557218489,-90.275256950572,20.326872687269,1365394.1292719,-2677.6230773762,2698163.1668107,25.526872687269,0,0
613.01557249844,-90.477046000175,20.331303130313,1365394.1292719,-2677.6230773762,2698163.1668107,25.531303130313,0,0
613.015572812,-90.678835049778,20.335733573357,1365394.1292719,-2677.6230773762,2698163.1668107,25.535733573357,0,0
613.01557312556,-90.880624099381,20.340164016402,1365394.1292719,-2677.6230773762,2698163.1668107,25.540164016402,0,0
613.01557343912,-91.082413148984,20.344594459446,1365394.1292719,-2677.6230773762,2698163.1668107,25.544594459446,0,0
613.01557375267,-91.284202198587,20.34902490249,1365394.1292719,-2677.6230773762,2698163.1668107,25.54902490249,0,0
613.01557406623,-91.48599124819,20.353455345535,1365394.1292719,-2677.6230773762,2698163.1668107,25.553455345535,0,0
613.01557437979,-91.687780297793,20.357885788579,1365394.1292719,-2677.6230773762,2698163.1668107,25.557885788579,0,0
613.01557469334,-91.889569347396,20.362316231623,1365394.1292719,-2677.6230773762,2698163.1668107,25.562316231623,0,0
613.0155750069,-92.091358396999,20.366746674667,1365394.1292719,-2677.6230773762,2698163.1668107,25.566746674667,0,0
613.01557532046,-92.293147446602,20.371177117712,1365394.1292719,-2677.6230773762,2698163.1668107,25.571177117712,0,0
613.01557563401,-92.494936496205,20.375607560756,1365394.1292719,-2677.6230773762,2698163.1668107,25.575607560756,0,0
613.01557594757,-92.696725545808,20.3800380038,1365394.1292719,-2677.6230773762,2698163.1668107,25.5800380038,0,0
613.01557626113,-92.898514595411,20.384468446845,1365394.1292719,-2677.6230773762,2698163.1668107,25.584468446845,0,0
613.01557657469,-93.100303645014,20.388898889889,1365394.1292719,-2677.6230773762,2698163.1668107,25.588898889889,0,0
613.01557688824,-93.302092694617,20.393329332933,1365394.1292719,-2677.6230773762,2698163.1668107,25.593329332933,0,0
613.0155772018,-93.503881744219,20.397759775978,1365394.1292719,-2677.6230773762,2698163.1668107,25.597759775978,0,0
613.01557751536,-93.705670793823,20.402190219022,1365394.1292719,-2677.6230773762,2698163.1668107,25.602190219022,0,0
613.01557782891,-93.907459843425,20.406620662066,1365394.1292719,-2677.6230773762,2698163.1668107,25.606620662066,0,0
613.01557814247,-94.109248893029,20.411051105111,1365394.1292719,-2677.6230773762,2698163.1668107,25.611051105111,0,0
613.01557845603,-94.311037942631,20.415481548155,1365394.1292719,-2677.6230773762,2698163.1668107,25.615481548155,0,0
613.01557876959,-94.512826992234,20.419911991199,1365394.1292719,-2677.6230773762,2698163.1668107,25.619911991199,0,0
613.01557908314,-94.714616041837,20.424342434243,1365394.1292719,-2677.6230773762,2698163.1668107,25.624342434243,0,0
613.0155793967,-94.91640509144,20.428772877288,1365394.1292719,-2677.6230773762,2698163.1668107,25.628772877288,0,0
613.01557971026,-95.118194141043,20.433203320332,1365394.1292719,-2677.6230773762,2698163.1668107,25.633203320332,0,0
613.01558002381,-95.319983190646,20.437633763376,1365394.1292719,-2677.6230773762,2698163.1668107,25.637633763376,0,0
613.01558033737,-95.521772240249,20.442064206421,1365394.1292719,-2677.6230773762,2698163.1668107,25.642064206421,0,0
613.01558065093,-95.723561289852,20.446494649465,1365394.1292719,-2677.6230773762,2698163.1668107,25.646494649465,0,0
613.01558096448,-95.925350339455,20.450925092509,1365394.1292719,-2677.6230773762,2698163.1668107,25.650925092509,0,0
613.01558127804,-96.127139389058,20.455355535554,1365394.1292719,-2677.6230773762,2698163.1668107,25.655355535554,0,0
613.0155815916,-96.328928438661,20.459785978598,1365394.1292719,-2677.6230773762,2698163.1668107,25.659785978598,0,0
613.01558190516,-96.530717488264,20.464216421642,1365394.1292719,-2677.6230773762,2698163.1668107,25.664216421642,0,0
613.01558221871,-96.732506537867,20.468646864686,1365394.1292719,-2677.6230773762,2698163.1668107,25.668646864686,0,0
613.01558253227,-96.93429558747,20.473077307731,1365394.1292719,-2677.6230773762,2698163.1668107,25.673077307731,0,0
613.01558284583,-97.136084637073,20.477507750775,1365394.1292719,-2677.6230773762,2698163.1668107,25.677507750775,0,0
613.01558315938,-97.337873686676,20.481938193819,1365394.1292719,-2677.6230773762,2698163.1668107,25.681938193819,0,0
613.01558347294,-97.539662736279,20.486368636864,1365394.1292719,-2677.6230773762,2698163.1668107,25.686368636864,0,0
613.0155837865,-97.741451785882,20.490799079908,1365394.1292719,-2677.6230773762,2698163.1668107,25.690799079908,0,0
613.01558410005,-97.943240835485,20.495229522952,1365394.1292719,-2677.6230773762,2698163.1668107,25.695229522952,0,0
613.01558441361,-98.145029885088,20.499659965997,1365394.1292719,-2677.6230773762,2698163.1668107,25.699659965997,0,0
613.01558472717,-98.346818934691,20.504090409041,1365394.1292719,-2677.6230773762,2698163.1668107,25.704090409041,0,0
613.01558504073,-98.548607984294,20.508520852085,1365394.1292719,-2677.6230773762,2698163.1668107,25.708520852085,0,0
613.01558535428,-98.750397033897,20.51295129513,1365394.1292719,-2677.6230773762,2698163.1668107,25.71295129513,0,0
613.01558566784,-98.9521860835,20.517381738174,1365394.1292719,-2677.6230773762,2698163.1668107,25.717381738174,0,0
613.0155859814,-99.153975133103,20.521812181218,1365394.1292719,-2677.6230773762,2698163.1668107,25.721812181218,0,0
613.01558629495,-99.355764182706,20.526242624262,1365394.1292719,-2677.6230773762,2698163.1668107,25.726242624262,0,0
613.01558660851,-99.557553232309,20.530673067307,1365394.1292719,-2677.6230773762,2698163.1668107,25.730673067307,0,0
613.01558692207,-99.759342281912,20.535103510351,1365394.1292719,-2677.6230773762,2698163.1668107,25.735103510351,0,0
613.01558723563,-99.961131331515,20.539533953395,1365394.1292719,-2677.6230773762,2698163.1668107,25.739533953395,0,0
613.01558754918,-100.16292038112,20.54396439644,1365394.1292719,-2677.6230773762,2698163.1668107,25.74396439644,0,0
613.01558786274,-100.36470943072,20.548394839484,1365394.1292719,-2677.6230773762,2698163.1668107,25.748394839484,0,0
613.0155881763,-100.56649848032,20.552825282528,1365394.1292719,-2677.6230773762,2698163.1668107,25.752825282528,0,0
613.01558848985,-100.76828752993,20.557255725573,1365394.1292719,-2677.6230773762,2698163.1668107,25.757255725573,0,0
613.01558880341,-100.97007657953,20.561686168617,1365394.1292719,-2677.6230773762,2698163.1668107,25.761686168617,0,0
613.01558911697,-101.17186562913,20.566116611661,1365394.1292719,-2677.6230773762,2698163.1668107,25.766116611661,0,0
613.01558943052,-101.37365467874,20.570547054705,1365394.1292719,-2677.6230773762,2698163.1668107,25.770547054705,0,0
613.01558974408,-101.57544372834,20.57497749775,1365394.1292719,-2677.6230773762,2698163.1668107,25.77497749775,0,0
613.01559005764,-101.77723277794,20.579407940794,1365394.1292719,-2677.6230773762,2698163.1668107,25.779407940794,0,0
613.0155903712,-101.97902182754,20.583838383838,1365394.1292719,-2677.6230773762,2698163.1668107,25.783838383838,0,0
613.01559068475,-102.18081087715,20.588268826883,1365394.1292719,-2677.6230773762,2698163.1668107,25.788268826883,0,0
613.01559099831,-102.38259992675,20.592699269927,1365394.1292719,-2677.6230773762,2698163.1668107,25.792699269927,0,0
613.01559131187,-102.58438897635,20.597129712971,1365394.1292719,-2677.6230773762,2698163.1668107,25.797129712971,0,0
613.01559162542,-102.78617802596,20.601560156016,1365394.1292719,-2677.6230773762,2698163.1668107,25.801560156016,0,0
613.01559193898,-102.98796707556,20.60599059906,1365394.1292719,-2677.6230773762,2698163.1668107,25.80599059906,0,0
613.01559225254,-103.18975612516,20.610421042104,1365394.1292719,-2677.6230773762,2698163.1668107,25.810421042104,0,0
613.01559256609,-103.39154517477,20.614851485149,1365394.1292719,-2677.6230773762,2698163.1668107,25.814851485149,0,0
613.01559287965,-103.59333422437,20.619281928193,1365394.1292719,-2677.6230773762,2698163.1668107,25.819281928193,0,0
613.01559319321,-103.79512327397,20.623712371237,1365394.1292719,-2677.6230773762,2698163.1668107,25.823712371237,0,0
613.01559350677,-103.99691232357,20.628142814281,1365394.1292719,-2677.6230773762,2698163.1668107,25.828142814281,0,0
613.01559382032,-104.19870137318,20.632573257326,1365394.1292719,-2677.6230773762,2698163.1668107,25.832573257326,0,0
613.01559413388,-104.40049042278,20.63700370037,1365394.1292719,-2677.6230773762,2698163.1668107,25.83700370037,0,0
613.01559444744,-104.60227947238,20.641434143414,1365394.1292719,-2677.6230773762,2698163.1668107,25.841434143414,0,0
613.01559476099,-104.80406852199,20.645864586459,1365394.1292719,-2677.6230773762,2698163.1668107,25.845864586459,0,0
613.01559507455,-105.00585757159,20.650295029503,1365394.1292719,-2677.6230773762,2698163.1668107,25.850295029503,0,0
613.01559538811,-105.20764662119,20.654725472547,1365394.1292719,-2677.6230773762,2698163.1668107,25.854725472547,0,0
613.01559570167,-105.4094356708,20.659155915592,1365394.1292719,-2677.6230773762,2698163.1668107,25.859155915592,0,0
613.01559601522,-105.6112247204,20.663586358636,1365394.1292719,-2677.6230773762,2698163.1668107,25.863586358636,0,0
613.01559632878,-105.81301377,20.66801680168,1365394.1292719,-2677.6230773762,2698163.1668107,25.86801680168,0,0
613.01559664234,-106.0148028196,20.672447244724,1365394.1292719,-2677.6230773762,2698163.1668107,25.872447244724,0,0
613.01559695589,-106.21659186921,20.676877687769,1365394.1292719,-2677.6230773762,2698163.1668107,25.876877687769,0,0
613.01559726945,-106.41838091881,20.681308130813,1365394.1292719,-2677.6230773762,2698163.1668107,25.881308130813,0,0
613.01559758301,-106.62016996841,20.685738573857,1365394.1292719,-2677.6230773762,2698163.1668107,25.885738573857,0,0
613.01559789656,-106.82195901802,20.690169016902,1365394.1292719,-2677.6230773762,2698163.1668107,25.890169016902,0,0
613.01559821012,-107.02374806762,20.694599459946,1365394.1292719,-2677.6230773762,2698163.1668107,25.894599459946,0,0
613.01559852368,-107.22553711722,20.69902990299,1365394.1292719,-2677.6230773762,2698163.1668107,25.89902990299,0,0
613.01559883724,-107.42732616682,20.703460346035,1365394.1292719,-2677.6230773762,2698163.1668107,25.903460346035,0,0
613.01559915079,-107.62911521643,20.707890789079,1365394.1292719,-2677.6230773762,2698163.1668107,25.907890789079,0,0
613.01559946435,-107.83090426603,20.712321232123,1365394.1292719,-2677.6230773762,2698163.1668107,25.912321232123,0,0
613.01559977791,-108.03269331563,20.716751675168,1365394.1292719,-2677.6230773762,2698163.1668107,25.916751675168,0,0
613.01560009146,-108.23448236524,20.721182118212,1365394.1292719,-2677.6230773762,2698163.1668107,25.921182118212,0,0
613.01560040502,-108.43627141484,20.725612561256,1365394.1292719,-2677.6230773762,2698163.1668107,25.925612561256,0,0
613.01560071858,-108.63806046444,20.7300430043,1365394.1292719,-2677.6230773762,2698163.1668107,25.9300430043,0,0
613.01560103213,-108.83984951405,20.734473447345,1365394.1292719,-2677.6230773762,2698163.1668107,25.934473447345,0,0
613.01560134569,-109.04163856365,20.738903890389,1365394.1292719,-2677.6230773762,2698163.1668107,25.938903890389,0,0
613.01560165925,-109.24342761325,20.743334333433,1365394.1292719,-2677.6230773762,2698163.1668107,25.943334333433,0,0
613.01560197281,-109.44521666285,20.747764776478,1365394.1292719,-2677.6230773762,2698163.1668107,25.947764776478,0,0
613.01560228636,-109.64700571246,20.752195219522,1365394.1292719,-2677.6230773762,2698163.1668107,25.952195219522,0,0
613.01560259992,-109.84879476206,20.756625662566,1365394.1292719,-2677.6230773762,2698163.1668107,25.956625662566,0,0
613.01560291348,-110.05058381166,20.761056105611,1365394.1292719,-2677.6230773762,2698163.1668107,25.961056105611,0,0
613.01560322703,-110.25237286127,20.765486548655,1365394.1292719,-2677.6230773762,2698163.1668107,25.965486548655,0,0
613.01560354059,-110.45416191087,20.769916991699,1365394.1292719,-2677.6230773762,2698163.1668107,25.969916991699,0,0
613.01560385415,-110.65595096047,20.774347434743,1365394.1292719,-2677.6230773762,2698163.1668107,25.974347434743,0,0
613.01560416771,-110.85774001008,20.778777877788,1365394.1292719,-2677.6230773762,2698163.1668107,25.978777877788,0,0
613.01560448126,-111.05952905968,20.783208320832,1365394.1292719,-2677.6230773762,2698163.1668107,25.983208320832,0,0
613.01560479482,-111.26131810928,20.787638763876,1365394.1292719,-2677.6230773762,2698163.1668107,25.987638763876,0,0
613.01560510838,-111.46310715888,20.792069206921,1365394.1292719,-2677.6230773762,2698163.1668107,25.992069206921,0,0
613.01560542193,-111.66489620849,20.796499649965,1365394.1292719,-2677.6230773762,2698163.1668107,25.996499649965,0,0
613.01560573549,-111.86668525809,20.800930093009,1365394.1292719,-2677.6230773762,2698163.1668107,26.000930093009,0,0
613.01560604905,-112.06847430769,20.805360536054,1365394.1292719,-2677.6230773762,2698163.1668107,26.005360536054,0,0
613.0156063626,-112.2702633573,20.809790979098,1365394.1292719,-2677.6230773762,2698163.1668107,26.009790979098,0,0
613.01560667616,-112.4720524069,20.814221422142,1365394.1292719,-2677.6230773762,2698163.1668107,26.014221422142,0,0
613.01560698972,-112.6738414565,20.818651865187,1365394.1292719,-2677.6230773762,2698163.1668107,26.018651865187,0,0
613.01560730328,-112.87563050611,20.823082308231,1365394.1292719,-2677.6230773762,2698163.1668107,26.023082308231,0,0
613.01560761683,-113.07741955571,20.827512751275,1365394.1292719,-2677.6230773762,2698163.1668107,26.027512751275,0,0
613.01560793039,-113.27920860531,20.831943194319,1365394.1292719,-2677.6230773762,2698163.1668107,26.031943194319,0,0
613.01560824395,-113.48099765491,20.836373637364,1365394.1292719,-2677.6230773762,2698163.1668107,26.036373637364,0,0
613.0156085575,-113.68278670452,20.840804080408,1365394.1292719,-2677.6230773762,2698163.1668107,26.040804080408,0,0
613.01560887106,-113.88457575412,20.845234523452,1365394.1292719,-2677.6230773762,2698163.1668107,26.045234523452,0,0
613.01560918462,-114.08636480372,20.849664966497,1365394.1292719,-2677.6230773762,2698163.1668107,26.049664966497,0,0
613.01560949818,-114.28815385333,20.854095409541,1365394.1292719,-2677.6230773762,2698163.1668107,26.054095409541,0,0
613.01560981173,-114.48994290293,20.858525852585,1365394.1292719,-2677.6230773762,2698163.1668107,26.058525852585,0,0
613.01561012529,-114.69173195253,20.86295629563,1365394.1292719,-2677.6230773762,2698163.1668107,26.06295629563,0,0
613.01561043885,-114.89352100214,20.867386738674,1365394.1292719,-2677.6230773762,2698163.1668107,26.067386738674,0,0
613.0156107524,-115.09531005174,20.871817181718,1365394.1292719,-2677.6230773762,2698163.1668107,26.071817181718,0,0
613.01561106596,-115.29709910134,20.876247624762,1365394.1292719,-2677.6230773762,2698163.1668107,26.076247624762,0,0
613.01561137952,-115.49888815094,20.880678067807,1365394.1292719,-2677.6230773762,2698163.1668107,26.080678067807,0,0
613.01561169307,-115.70067720055,20.885108510851,1365394.1292719,-2677.6230773762,2698163.1668107,26.085108510851,0,0
613.01561200663,-115.90246625015,20.889538953895,1365394.1292719,-2677.6230773762,2698163.1668107,26.089538953895,0,0
613.01561232019,-116.10425529975,20.89396939694,1365394.1292719,-2677.6230773762,2698163.1668107,26.09396939694,0,0
613.01561263375,-116.30604434936,20.898399839984,1365394.1292719,-2677.6230773762,2698163.1668107,26.098399839984,0,0
613.0156129473,-116.50783339896,20.902830283028,1365394.1292719,-2677.6230773762,2698163.1668107,26.102830283028,0,0
613.01561326086,-116.70962244856,20.907260726073,1365394.1292719,-2677.6230773762,2698163.1668107,26.107260726073,0,0
613.01561357442,-116.91141149817,20.911691169117,1365394.1292719,-2677.6230773762,2698163.1668107,26.111691169117,0,0
613.01561388797,-117.11320054777,20.916121612161,1365394.1292719,-2677.6230773762,2698163.1668107,26.116121612161,0,0
613.01561420153,-117.31498959737,20.920552055206,1365394.1292719,-2677.6230773762,2698163.1668107,26.120552055206,0,0
613.01561451509,-117.51677864697,20.92498249825,1365394.1292719,-2677.6230773762,2698163.1668107,26.12498249825,0,0
613.01561482864,-117.71856769658,20.929412941294,1365394.1292719,-2677.6230773762,2698163.1668107,26.129412941294,0,0
613.0156151422,-117.92035674618,20.933843384338,1365394.1292719,-2677.6230773762,2698163.1668107,26.133843384338,0,0
613.01561545576,-118.12214579578,20.938273827383,1365394.1292719,-2677.6230773762,2698163.1668107,26.138273827383,0,0
613.01561576932,-118.32393484539,20.942704270427,1365394.1292719,-2677.6230773762,2698163.1668107,26.142704270427,0,0
613.01561608287,-118.52572389499,20.947134713471,1365394.1292719,-2677.6230773762,2698163.1668107,26.147134713471,0,0
613.01561639643,-118.72751294459,20.951565156516,1365394.1292719,-2677.6230773762,2698163.1668107,26.151565156516,0,0
613.01561670999,-118.92930199419,20.95599559956,1365394.1292719,-2677.6230773762,2698163.1668107,26.15599559956,0,0
613.01561702354,-119.1310910438,20.960426042604,1365394.1292719,-2677.6230773762,2698163.1668107,26.160426042604,0,0
613.0156173371,-119.3328800934,20.964856485649,1365394.1292719,-2677.6230773762,2698163.1668107,26.164856485649,0,0
613.01561765066,-119.534669143,20.969286928693,1365394.1292719,-2677.6230773762,2698163.1668107,26.169286928693,0,0
613.01561796422,-119.73645819261,20.973717371737,1365394.1292719,-2677.6230773762,2698163.1668107,26.173717371737,0,0
613.01561827777,-119.93824724221,20.978147814781,1365394.1292719,-2677.6230773762,2698163.1668107,26.178147814781,0,0
613.01561859133,-120.14003629179,20.982578257826,1364952.6479936,1377.098754001,2694259.3698261,26.182578257826,0,0
613.01561890498,-120.34182533951,20.98700870087,1364952.6479936,1377.098754001,2694259.3698261,26.18700870087,0,0
613.01561921864,-120.54361438723,20.991439143914,1364952.6479936,1377.098754001,2694259.3698261,26.191439143914,0,0
613.01561953229,-120.74540343495,20.995869586959,1364952.6479936,1377.098754001,2694259.3698261,26.195869586959,0,0
613.01561984594,-120.94719248267,21.000300030003,1364952.6479936,1377.098754001,2694259.3698261,26.200300030003,0,0
613.01562015959,-121.14898153039,21.004730473047,1364952.6479936,1377.098754001,2694259.3698261,26.204730473047,0,0
613.01562047325,-121.35077057811,21.009160916092,1364952.6479936,1377.098754001,2694259.3698261,26.209160916092,0,0
613.0156207869,-121.55255962584,21.013591359136,1364952.6479936,1377.098754001,2694259.3698261,26.213591359136,0,0
613.01562110055,-121.75434867356,21.01802180218,1364952.6479936,1377.098754001,2694259.3698261,26.21802180218,0,0
613.0156214142,-121.95613772128,21.022452245225,1364952.6479936,1377.098754001,2694259.3698261,26.222452245225,0,0
613.01562172785,-122.157926769,21.026882688269,1364952.6479936,1377.098754001,2694259.3698261,26.226882688269,0,0
613.01562204151,-122.35971581672,21.031313131313,1364952.6479936,1377.098754001,2694259.3698261,26.231313131313,0,0
613.01562235516,-122.56150486444,21.035743574357,1364952.6479936,1377.098754001,2694259.3698261,26.235743574357,0,0
613.01562266881,-122.76329391216,21.040174017402,1364952.6479936,1377.098754001,2694259.3698261,26.240174017402,0,0
613.01562298246,-122.96508295988,21.044604460446,1364952.6479936,1377.098754001,2694259.3698261,26.244604460446,0,0
613.01562329612,-123.1668720076,21.04903490349,1364952.6479936,1377.098754001,2694259.3698261,26.24903490349,0,0
613.01562360977,-123.36866105532,21.053465346535,1364952.6479936,1377.098754001,2694259.3698261,26.253465346535,0,0
613.01562392342,-123.57045010304,21.057895789579,1364952.6479936,1377.098754001,2694259.3698261,26.257895789579,0,0
613.01562423707,-123.77223915076,21.062326232623,1364952.6479936,1377.098754001,2694259.3698261,26.262326232623,0,0
613.01562455073,-123.97402819848,21.066756675668,1364952.6479936,1377.098754001,2694259.3698261,26.266756675668,0,0
613.01562486438,-124.1758172462,21.071187118712,1364952.6479936,1377.098754001,2694259.3698261,26.271187118712,0,0
613.01562517803,-124.37760629392,21.075617561756,1364952.6479936,1377.098754001,2694259.3698261,26.275617561756,0,0
613.01562549168,-124.57939534164,21.0800480048,1364952.6479936,1377.098754001,2694259.3698261,26.2800480048,0,0
613.01562580534,-124.78118438936,21.084478447845,1364952.6479936,1377.098754001,2694259.3698261,26.284478447845,0,0
613.01562611899,-124.98297343708,21.088908890889,1364952.6479936,1377.098754001,2694259.3698261,26.288908890889,0,0
613.01562643264,-125.1847624848,21.093339333933,1364952.6479936,1377.098754001,2694259.3698261,26.293339333933,0,0
613.01562674629,-125.38655153253,21.097769776978,1364952.6479936,1377.098754001,2694259.3698261,26.297769776978,0,0
613.01562705995,-125.58834058025,21.102200220022,1364952.6479936,1377.098754001,2694259.3698261,26.302200220022,0,0
613.0156273736,-125.79012962797,21.106630663066,1364952.6479936,1377.098754001,2694259.3698261,26.306630663066,0,0
613.01562768725,-125.99191867569,21.111061106111,1364952.6479936,1377.098754001,2694259.3698261,26.311061106111,0,0
613.0156280009,-126.19370772341,21.115491549155,1364952.6479936,1377.098754001,2694259.3698261,26.315491549155,0,0
613.01562831456,-126.39549677113,21.119921992199,1364952.6479936,1377.098754001,2694259.3698261,26.319921992199,0,0
613.01562862821,-126.59728581885,21.124352435244,1364952.6479936,1377.098754001,2694259.3698261,26.324352435244,0,0
613.01562894186,-126.79907486657,21.128782878288,1364952.6479936,1377.098754001,2694259.3698261,26.328782878288,0,0
613.01562925551,-127.00086391429,21.133213321332,1364952.6479936,1377.098754001,2694259.3698261,26.333213321332,0,0
613.01562956917,-127.20265296201,21.137643764376,1364952.6479936,1377.098754001,2694259.3698261,26.337643764376,0,0
613.01562988282,-127.40444200973,21.142074207421,1364952.6479936,1377.098754001,2694259.3698261,26.342074207421,0,0
613.01563019647,-127.60623105745,21.146504650465,1364952.6479936,1377.098754001,2694259.3698261,26.346504650465,0,0
613.01563051012,-127.80802010517,21.150935093509,1364952.6479936,1377.098754001,2694259.3698261,26.350935093509,0,0
613.01563082378,-128.00980915289,21.155365536554,1364952.6479936,1377.098754001,2694259.3698261,26.355365536554,0,0
613.01563113743,-128.21159820061,21.159795979598,1364952.6479936,1377.098754001,2694259.3698261,26.359795979598,0,0
613.01563145108,-128.41338724833,21.164226422642,1364952.6479936,1377.098754001,2694259.3698261,26.364226422642,0,0
613.01563176485,-128.61517629732,21.168656865687,1364352.134789,-2319.5404904589,2688168.6645357,26.368656865687,0,0
613.01563207867,-128.81696534682,21.173087308731,1364352.134789,-2319.5404904589,2688168.6645357,26.373087308731,0,0
613.01563239249,-129.01875439633,21.177517751775,1364352.134789,-2319.5404904589,2688168.6645357,26.377517751775,0,0
613.0156327063,-129.22054344583,21.181948194819,1364352.134789,-2319.5404904589,2688168.6645357,26.381948194819,0,0
613.01563302012,-129.42233249534,21.186378637864,1364352.134789,-2319.5404904589,2688168.6645357,26.386378637864,0,0
613.01563333394,-129.62412154484,21.190809080908,1364352.134789,-2319.5404904589,2688168.6645357,26.390809080908,0,0
613.01563364775,-129.82591059435,21.195239523952,1364352.134789,-2319.5404904589,2688168.6645357,26.395239523952,0,0
613.01563396157,-130.02769964385,21.199669966997,1364352.134789,-2319.5404904589,2688168.6645357,26.399669966997,0,0
613.01563427539,-130.22948869336,21.204100410041,1364352.134789,-2319.5404904589,2688168.6645357,26.404100410041,0,0
613.01563458921,-130.43127774286,21.208530853085,1364352.134789,-2319.5404904589,2688168.6645357,26.408530853085,0,0
613.01563490302,-130.63306679237,21.21296129613,1364352.134789,-2319.5404904589,2688168.6645357,26.41296129613,0,0
613.01563521684,-130.83485584187,21.217391739174,1364352.134789,-2319.5404904589,2688168.6645357,26.417391739174,0,0
613.01563553066,-131.03664489138,21.221822182218,1364352.134789,-2319.5404904589,2688168.6645357,26.421822182218,0,0
613.01563584448,-131.23843394088,21.226252625263,1364352.134789,-2319.5404904589,2688168.6645357,26.426252625263,0,0
613.01563615829,-131.44022299039,21.230683068307,1364352.134789,-2319.5404904589,2688168.6645357,26.430683068307,0,0
613.01563647211,-131.64201203989,21.235113511351,1364352.134789,-2319.5404904589,2688168.6645357,26.435113511351,0,0
613.01563678593,-131.8438010894,21.239543954395,1364352.134789,-2319.5404904589,2688168.6645357,26.439543954395,0,0
613.01563709975,-132.0455901389,21.24397439744,1364352.134789,-2319.5404904589,2688168.6645357,26.44397439744,0,0
613.01563741356,-132.24737918841,21.248404840484,1364352.134789,-2319.5404904589,2688168.6645357,26.448404840484,0,0
613.01563772738,-132.44916823791,21.252835283528,1364352.134789,-2319.5404904589,2688168.6645357,26.452835283528,0,0
613.0156380412,-132.65095728742,21.257265726573,1364352.134789,-2319.5404904589,2688168.6645357,26.457265726573,0,0
613.01563835502,-132.85274633692,21.261696169617,1364352.134789,-2319.5404904589,2688168.6645357,26.461696169617,0,0
613.01563866883,-133.05453538643,21.266126612661,1364352.134789,-2319.5404904589,2688168.6645357,26.466126612661,0,0
613.01563898265,-133.25632443593,21.270557055706,1364352.134789,-2319.5404904589,2688168.6645357,26.470557055706,0,0
613.01563929647,-133.45811348544,21.27498749875,1364352.134789,-2319.5404904589,2688168.6645357,26.47498749875,0,0
613.01563961029,-133.65990253494,21.279417941794,1364352.134789,-2319.5404904589,2688168.6645357,26.479417941794,0,0
613.0156399241,-133.86169158445,21.283848384838,1364352.134789,-2319.5404904589,2688168.6645357,26.483848384838,0,0
613.01564023792,-134.06348063395,21.288278827883,1364352.134789,-2319.5404904589,2688168.6645357,26.488278827883,0,0
613.01564055174,-134.26526968346,21.292709270927,1364352.134789,-2319.5404904589,2688168.6645357,26.492709270927,0,0
613.01564086556,-134.46705873296,21.297139713971,1364352.134789,-2319.5404904589,2688168.6645357,26.497139713971,0,0
613.01564117937,-134.66884778247,21.301570157016,1364352.134789,-2319.5404904589,2688168.6645357,26.501570157016,0,0
613.01564149319,-134.87063683197,21.30600060006,1364352.134789,-2319.5404904589,2688168.6645357,26.50600060006,0,0
613.01564180701,-135.07242588148,21.310431043104,1364352.134789,-2319.5404904589,2688168.6645357,26.510431043104,0,0
613.01564212083,-135.27421493098,21.314861486149,1364352.134789,-2319.5404904589,2688168.6645357,26.514861486149,0,0
613.01564243464,-135.47600398049,21.319291929193,1364352.134789,-2319.5404904589,2688168.6645357,26.519291929193,0,0
613.01564274846,-135.67779302999,21.323722372237,1364352.134789,-2319.5404904589,2688168.6645357,26.523722372237,0,0
613.01564306228,-135.8795820795,21.328152815282,1364352.134789,-2319.5404904589,2688168.6645357,26.528152815282,0,0
613.0156433761,-136.081371129,21.332583258326,1364352.134789,-2319.5404904589,2688168.6645357,26.532583258326,0,0
613.01564368991,-136.28316017851,21.33701370137,1364352.134789,-2319.5404904589,2688168.6645357,26.53701370137,0,0
613.01564400373,-136.48494922801,21.341444144414,1364352.134789,-2319.5404904589,2688168.6645357,26.541444144414,0,0
613.01564431755,-136.68673827752,21.345874587459,1364352.134789,-2319.5404904589,2688168.6645357,26.545874587459,0,0
613.01564463137,-136.88852732702,21.350305030503,1364352.134789,-2319.5404904589,2688168.6645357,26.550305030503,0,0
613.01564494518,-137.09031637653,21.354735473547,1364352.134789,-2319.5404904589,2688168.6645357,26.554735473547,0,0
613.015645259,-137.29210542603,21.359165916592,1364352.134789,-2319.5404904589,2688168.6645357,26.559165916592,0,0
613.01564557282,-137.49389447554,21.363596359636,1364352.134789,-2319.5404904589,2688168.6645357,26.563596359636,0,0
613.01564588664,-137.69568352504,21.36802680268,1364352.134789,-2319.5404904589,2688168.6645357,26.56802680268,0,0
613.01564620045,-137.89747257455,21.372457245725,1364352.134789,-2319.5404904589,2688168.6645357,26.572457245725,0,0
613.01564651427,-138.09926162405,21.376887688769,1364352.134789,-2319.5404904589,2688168.6645357,26.576887688769,0,0
613.01564682809,-138.30105067356,21.381318131813,1364352.134789,-2319.5404904589,2688168.6645357,26.581318131813,0,0
613.01564714191,-138.50283972306,21.385748574857,1364352.134789,-2319.5404904589,2688168.6645357,26.585748574857,0,0
613.01564745572,-138.70462877257,21.390179017902,1364352.134789,-2319.5404904589,2688168.6645357,26.590179017902,0,0
613.01564776954,-138.90641782207,21.394609460946,1364352.134789,-2319.5404904589,2688168.6645357,26.594609460946,0,0
613.01564808336,-139.10820687158,21.39903990399,1364352.134789,-2319.5404904589,2688168.6645357,26.59903990399,0,0
613.01564839718,-139.30999592108,21.403470347035,1364352.134789,-2319.5404904589,2688168.6645357,26.603470347035,0,0
613.01564871099,-139.51178497059,21.407900790079,1364352.134789,-2319.5404904589,2688168.6645357,26.607900790079,0,0
613.01564902481,-139.71357402009,21.412331233123,1364352.134789,-2319.5404904589,2688168.6645357,26.612331233123,0,0
613.01564933863,-139.9153630696,21.416761676168,1364352.134789,-2319.5404904589,2688168.6645357,26.616761676168,0,0
613.01564965245,-140.1171521191,21.421192119212,1364352.134789,-2319.5404904589,2688168.6645357,26.621192119212,0,0
613.01564996626,-140.31894116861,21.425622562256,1364352.134789,-2319.5404904589,2688168.6645357,26.625622562256,0,0
613.01565028008,-140.52073021812,21.430053005301,1364352.134789,-2319.5404904589,2688168.6645357,26.630053005301,0,0
613.0156505939,-140.72251926762,21.434483448345,1364352.134789,-2319.5404904589,2688168.6645357,26.634483448345,0,0
613.01565090772,-140.92430831713,21.438913891389,1364352.134789,-2319.5404904589,2688168.6645357,26.638913891389,0,0
613.01565122153,-141.12609736663,21.443344334433,1364352.134789,-2319.5404904589,2688168.6645357,26.643344334433,0,0
613.01565153535,-141.32788641614,21.447774777478,1364352.134789,-2319.5404904589,2688168.6645357,26.647774777478,0,0
613.01565184917,-141.52967546564,21.452205220522,1364352.134789,-2319.5404904589,2688168.6645357,26.652205220522,0,0
613.01565216299,-141.73146451515,21.456635663566,1364352.134789,-2319.5404904589,2688168.6645357,26.656635663566,0,0
613.0156524768,-141.93325356465,21.461066106611,1364352.134789,-2319.5404904589,2688168.6645357,26.661066106611,0,0
613.01565279062,-142.13504261416,21.465496549655,1364352.134789,-2319.5404904589,2688168.6645357,26.665496549655,0,0
613.01565310444,-142.33683166366,21.469926992699,1364352.134789,-2319.5404904589,2688168.6645357,26.669926992699,0,0
613.01565341826,-142.53862071317,21.474357435744,1364352.134789,-2319.5404904589,2688168.6645357,26.674357435744,0,0
613.01565373207,-142.74040976267,21.478787878788,1364352.134789,-2319.5404904589,2688168.6645357,26.678787878788,0,0
613.01565404589,-142.94219881218,21.483218321832,1364352.134789,-2319.5404904589,2688168.6645357,26.683218321832,0,0
613.01565435971,-143.14398786168,21.487648764876,1364352.134789,-2319.5404904589,2688168.6645357,26.687648764876,0,0
613.01565467353,-143.34577691119,21.492079207921,1364352.134789,-2319.5404904589,2688168.6645357,26.692079207921,0,0
613.01565498734,-143.54756596069,21.496509650965,1364352.134789,-2319.5404904589,2688168.6645357,26.696509650965,0,0
613.01565530116,-143.7493550102,21.500940094009,1364352.134789,-2319.5404904589,2688168.6645357,26.700940094009,0,0
613.01565561498,-143.9511440597,21.505370537054,1364352.134789,-2319.5404904589,2688168.6645357,26.705370537054,0,0
613.01565592879,-144.15293310921,21.509800980098,1364352.134789,-2319.5404904589,2688168.6645357,26.709800980098,0,0
613.01565624261,-144.35472215871,21.514231423142,1364352.134789,-2319.5404904589,2688168.6645357,26.714231423142,0,0
613.01565655643,-144.55651120822,21.518661866187,1364352.134789,-2319.5404904589,2688168.6645357,26.718661866187,0,0
613.01565687025,-144.75830025772,21.523092309231,1364352.134789,-2319.5404904589,2688168.6645357,26.723092309231,0,0
613.01565718406,-144.96008930723,21.527522752275,1364352.134789,-2319.5404904589,2688168.6645357,26.727522752275,0,0
613.01565749788,-145.16187835673,21.53195319532,1364352.134789,-2319.5404904589,2688168.6645357,26.73195319532,0,0
613.0156578117,-145.36366740624,21.536383638364,1364352.134789,-2319.5404904589,2688168.6645357,26.736383638364,0,0
613.01565812552,-145.56545645574,21.540814081408,1364352.134789,-2319.5404904589,2688168.6645357,26.740814081408,0,0
613.01565843933,-145.76724550525,21.545244524452,1364352.134789,-2319.5404904589,2688168.6645357,26.745244524452,0,0
613.01565875315,-145.96903455475,21.549674967497,1364352.134789,-2319.5404904589,2688168.6645357,26.749674967497,0,0
613.01565906697,-146.17082360426,21.554105410541,1364352.134789,-2319.5404904589,2688168.6645357,26.754105410541,0,0
613.01565938079,-146.37261265376,21.558535853585,1364352.134789,-2319.5404904589,2688168.6645357,26.758535853585,0,0
613.0156596946,-146.57440170327,21.56296629663,1364352.134789,-2319.5404904589,2688168.6645357,26.76296629663,0,0
613.01566000842,-146.77619075277,21.567396739674,1364352.134789,-2319.5404904589,2688168.6645357,26.767396739674,0,0
613.01566032224,-146.97797980228,21.571827182718,1364352.134789,-2319.5404904589,2688168.6645357,26.771827182718,0,0
613.01566063606,-147.17976885178,21.576257625763,1364352.134789,-2319.5404904589,2688168.6645357,26.776257625763,0,0
613.01566094987,-147.38155790129,21.580688068807,1364352.134789,-2319.5404904589,2688168.6645357,26.780688068807,0,0
613.01566126369,-147.58334695079,21.585118511851,1364352.134789,-2319.5404904589,2688168.6645357,26.785118511851,0,0
613.01566157751,-147.7851360003,21.589548954895,1364352.134789,-2319.5404904589,2688168.6645357,26.789548954895,0,0
613.01566189133,-147.9869250498,21.59397939794,1364352.134789,-2319.5404904589,2688168.6645357,26.79397939794,0,0
613.01566220514,-148.18871409931,21.598409840984,1364352.134789,-2319.5404904589,2688168.6645357,26.798409840984,0,0
613.01566251896,-148.39050314881,21.602840284028,1364352.134789,-2319.5404904589,2688168.6645357,26.802840284028,0,0
613.01566283278,-148.59229219832,21.607270727073,1364352.134789,-2319.5404904589,2688168.6645357,26.807270727073,0,0
613.0156631466,-148.79408124782,21.611701170117,1364352.134789,-2319.5404904589,2688168.6645357,26.811701170117,0,0
613.01566346041,-148.99587029733,21.616131613161,1364352.134789,-2319.5404904589,2688168.6645357,26.816131613161,0,0
613.01566377423,-149.19765934683,21.620562056206,1364352.134789,-2319.5404904589,2688168.6645357,26.820562056206,0,0
613.01566408805,-149.39944839634,21.62499249925,1364352.134789,-2319.5404904589,2688168.6645357,26.82499249925,0,0
613.01566440187,-149.60123744584,21.629422942294,1364352.134789,-2319.5404904589,2688168.6645357,26.829422942294,0,0
613.01566471568,-149.80302649535,21.633853385339,1364352.134789,-2319.5404904589,2688168.6645357,26.833853385339,0,0
613.0156650295,-150.00481554485,21.638283828383,1364352.134789,-2319.5404904589,2688168.6645357,26.838283828383,0,0
613.01566534332,-150.20660459436,21.642714271427,1364352.134789,-2319.5404904589,2688168.6645357,26.842714271427,0,0
613.01566565714,-150.40839364386,21.647144714471,1364352.134789,-2319.5404904589,2688168.6645357,26.847144714471,0,0
613.01566597095,-150.61018269337,21.651575157516,1364352.134789,-2319.5404904589,2688168.6645357,26.851575157516,0,0
613.01566628477,-150.81197174287,21.65600560056,1364352.134789,-2319.5404904589,2688168.6645357,26.85600560056,0,0
613.01566659859,-151.01376079238,21.660436043604,1364352.134789,-2319.5404904589,2688168.6645357,26.860436043604,0,0
613.01566691241,-151.21554984188,21.664866486649,1364352.134789,-2319.5404904589,2688168.6645357,26.864866486649,0,0
613.01566722622,-151.41733889139,21.669296929693,1364352.134789,-2319.5404904589,2688168.6645357,26.869296929693,0,0
613.01566754004,-151.61912794089,21.673727372737,1364352.134789,-2319.5404904589,2688168.6645357,26.873727372737,0,0
613.01566785386,-151.8209169904,21.678157815782,1364352.134789,-2319.5404904589,2688168.6645357,26.878157815782,0,0
613.01566816768,-152.0227060399,21.682588258826,1364352.134789,-2319.5404904589,2688168.6645357,26.882588258826,0,0
613.01566848149,-152.22449508941,21.68701870187,1364352.134789,-2319.5404904589,2688168.6645357,26.88701870187,0,0
613.01566879531,-152.42628413891,21.691449144914,1364352.134789,-2319.5404904589,2688168.6645357,26.891449144914,0,0
613.01566910913,-152.62807318842,21.695879587959,1364352.134789,-2319.5404904589,2688168.6645357,26.895879587959,0,0
613.01566942295,-152.82986223792,21.700310031003,1364352.134789,-2319.5404904589,2688168.6645357,26.900310031003,0,0
613.01566973676,-153.03165128743,21.704740474047,1364352.134789,-2319.5404904589,2688168.6645357,26.904740474047,0,0
613.01567005058,-153.23344033693,21.709170917092,1364352.134789,-2319.5404904589,2688168.6645357,26.909170917092,0,0
613.0156703644,-153.43522938644,21.713601360136,1364352.134789,-2319.5404904589,2688168.6645357,26.913601360136,0,0
613.01567067822,-153.63701843595,21.71803180318,1364352.134789,-2319.5404904589,2688168.6645357,26.91803180318,0,0
613.01567099203,-153.83880748545,21.722462246225,1364352.134789,-2319.5404904589,2688168.6645357,26.922462246225,0,0
613.01567130585,-154.04059653496,21.726892689269,1364352.134789,-2319.5404904589,2688168.6645357,26.926892689269,0,0
613.01567161967,-154.24238558446,21.731323132313,1364352.134789,-2319.5404904589,2688168.6645357,26.931323132313,0,0
613.01567193349,-154.44417463397,21.735753575358,1364352.134789,-2319.5404904589,2688168.6645357,26.935753575358,0,0
613.0156722473,-154.64596368347,21.740184018402,1364352.134789,-2319.5404904589,2688168.6645357,26.940184018402,0,0
613.01567256112,-154.84775273298,21.744614461446,1364352.134789,-2319.5404904589,2688168.6645357,26.944614461446,0,0
613.01567287494,-155.04954178248,21.74904490449,1364352.134789,-2319.5404904589,2688168.6645357,26.94904490449,0,0
613.01567318876,-155.25133083199,21.753475347535,1364352.134789,-2319.5404904589,2688168.6645357,26.953475347535,0,0
613.01567350257,-155.45311988149,21.757905790579,1364352.134789,-2319.5404904589,2688168.6645357,26.957905790579,0,0
613.01567381639,-155.654908931,21.762336233623,1364352.134789,-2319.5404904589,2688168.6645357,26.962336233623,0,0
613.01567413021,-155.8566979805,21.766766676668,1364352.134789,-2319.5404904589,2688168.6645357,26.966766676668,0,0
613.01567444403,-156.05848703001,21.771197119712,1364352.134789,-2319.5404904589,2688168.6645357,26.971197119712,0,0
613.01567475784,-156.26027607951,21.775627562756,1364352.134789,-2319.5404904589,2688168.6645357,26.975627562756,0,0
613.01567507166,-156.46206512902,21.780058005801,1364352.134789,-2319.5404904589,2688168.6645357,26.980058005801,0,0
613.01567538548,-156.66385417852,21.784488448845,1364352.134789,-2319.5404904589,2688168.6645357,26.984488448845,0,0
613.0156756993,-156.86564322803,21.788918891889,1364352.134789,-2319.5404904589,2688168.6645357,26.988918891889,0,0
613.01567601311,-157.06743227753,21.793349334933,1364352.134789,-2319.5404904589,2688168.6645357,26.993349334933,0,0
613.01567632693,-157.26922132704,21.797779777978,1364352.134789,-2319.5404904589,2688168.6645357,26.997779777978,0,0
613.01567664075,-157.47101037654,21.802210221022,1364352.134789,-2319.5404904589,2688168.6645357,27.002210221022,0,0
613.01567695457,-157.67279942605,21.806640664066,1364352.134789,-2319.5404904589,2688168.6645357,27.006640664066,0,0
613.01567726838,-157.87458847555,21.811071107111,1364352.134789,-2319.5404904589,2688168.6645357,27.011071107111,0,0
613.0156775822,-158.07637752506,21.815501550155,1364352.134789,-2319.5404904589,2688168.6645357,27.015501550155,0,0
613.01567789602,-158.27816657456,21.819931993199,1364352.134789,-2319.5404904589,2688168.6645357,27.019931993199,0,0
613.01567820983,-158.47995562407,21.824362436244,1364352.134789,-2319.5404904589,2688168.6645357,27.024362436244,0,0
613.01567852365,-158.68174467357,21.828792879288,1364352.134789,-2319.5404904589,2688168.6645357,27.028792879288,0,0
613.01567883747,-158.88353372308,21.833223322332,1364352.134789,-2319.5404904589,2688168.6645357,27.033223322332,0,0
613.01567915129,-159.08532277258,21.837653765377,1364352.134789,-2319.5404904589,2688168.6645357,27.037653765377,0,0
613.0156794651,-159.28711182209,21.842084208421,1364352.134789,-2319.5404904589,2688168.6645357,27.042084208421,0,0
613.01567977892,-159.48890087159,21.846514651465,1364352.134789,-2319.5404904589,2688168.6645357,27.046514651465,0,0
613.01568009274,-159.6906899211,21.850945094509,1364352.134789,-2319.5404904589,2688168.6645357,27.050945094509,0,0
613.01568040656,-159.8924789706,21.855375537554,1364352.134789,-2319.5404904589,2688168.6645357,27.055375537554,0,0
613.01568072037,-160.09426802011,21.859805980598,1364352.134789,-2319.5404904589,2688168.6645357,27.059805980598,0,0
613.01568103419,-160.29605706961,21.864236423642,1364352.134789,-2319.5404904589,2688168.6645357,27.064236423642,0,0
613.01568134801,-160.49784611912,21.868666866687,1364352.134789,-2319.5404904589,2688168.6645357,27.068666866687,0,0
613.01568166183,-160.69963516862,21.873097309731,1364352.134789,-2319.5404904589,2688168.6645357,27.073097309731,0,0
613.01568197564,-160.90142421813,21.877527752775,1364352.134789,-2319.5404904589,2688168.6645357,27.077527752775,0,0
613.01568228946,-161.10321326763,21.88195819582,1364352.134789,-2319.5404904589,2688168.6645357,27.08195819582,0,0
613.01568260328,-161.30500231714,21.886388638864,1364352.134789,-2319.5404904589,2688168.6645357,27.086388638864,0,0
613.0156829171,-161.50679136664,21.890819081908,1364352.134789,-2319.5404904589,2688168.6645357,27.090819081908,0,0
613.01568323091,-161.70858041615,21.895249524952,1364352.134789,-2319.5404904589,2688168.6645357,27.095249524952,0,0
613.01568354473,-161.91036946565,21.899679967997,1364352.134789,-2319.5404904589,2688168.6645357,27.099679967997,0,0
613.01568385855,-162.11215851516,21.904110411041,1364352.134789,-2319.5404904589,2688168.6645357,27.104110411041,0,0
613.01568417237,-162.31394756466,21.908540854085,1364352.134789,-2319.5404904589,2688168.6645357,27.108540854085,0,0
613.01568448618,-162.51573661417,21.91297129713,1364352.134789,-2319.5404904589,2688168.6645357,27.11297129713,0,0
613.0156848,-162.71752566367,21.917401740174,1364352.134789,-2319.5404904589,2688168.6645357,27.117401740174,0,0
613.01568511382,-162.91931471318,21.921832183218,1364352.134789,-2319.5404904589,2688168.6645357,27.121832183218,0,0
613.01568542764,-163.12110376268,21.926262626263,1364352.134789,-2319.5404904589,2688168.6645357,27.126262626263,0,0
613.01568574145,-163.32289281219,21.930693069307,1364352.134789,-2319.5404904589,2688168.6645357,27.130693069307,0,0
613.01568605527,-163.52468186169,21.935123512351,1364352.134789,-2319.5404904589,2688168.6645357,27.135123512351,0,0
613.01568636909,-163.7264709112,21.939553955396,1364352.134789,-2319.5404904589,2688168.6645357,27.139553955396,0,0
613.01568668291,-163.9282599607,21.94398439844,1364352.134789,-2319.5404904589,2688168.6645357,27.14398439844,0,0
613.01568699672,-164.13004901021,21.948414841484,1364352.134789,-2319.5404904589,2688168.6645357,27.148414841484,0,0
613.01568731054,-164.33183805971,21.952845284528,1364352.134789,-2319.5404904589,2688168.6645357,27.152845284528,0,0
613.01568762436,-164.53362710922,21.957275727573,1364352.134789,-2319.5404904589,2688168.6645357,27.157275727573,0,0
613.01568793818,-164.73541615872,21.961706170617,1364352.134789,-2319.5404904589,2688168.6645357,27.161706170617,0,0
613.01568825199,-164.93720520823,21.966136613661,1364352.134789,-2319.5404904589,2688168.6645357,27.166136613661,0,0
613.01568856581,-165.13899425773,21.970567056706,1364352.134789,-2319.5404904589,2688168.6645357,27.170567056706,0,0
613.01568887963,-165.34078330724,21.97499749975,1364352.134789,-2319.5404904589,2688168.6645357,27.17499749975,0,0
613.01568919345,-165.54257235674,21.979427942794,1364352.134789,-2319.5404904589,2688168.6645357,27.179427942794,0,0
613.01568950726,-165.74436140625,21.983858385839,1364352.134789,-2319.5404904589,2688168.6645357,27.183858385839,0,0
613.01568982108,-165.94615045575,21.988288828883,1364352.134789,-2319.5404904589,2688168.6645357,27.188288828883,0,0
613.0156901349,-166.14793950526,21.992719271927,1364352.134789,-2319.5404904589,2688168.6645357,27.192719271927,0,0
613.01569044872,-166.34972855476,21.997149714971,1364352.134789,-2319.5404904589,2688168.6645357,27.197149714971,0,0
613.01569076253,-166.55151760427,22.001580158016,1364352.134789,-2319.5404904589,2688168.6645357,27.201580158016,0,0
613.01569107635,-166.75330665378,22.00601060106,1364352.134789,-2319.5404904589,2688168.6645357,27.20601060106,0,0
613.01569139017,-166.95509570328,22.010441044104,1364352.134789,-2319.5404904589,2688168.6645357,27.210441044104,0,0
613.01569170399,-167.15688475279,22.014871487149,1364352.134789,-2319.5404904589,2688168.6645357,27.214871487149,0,0
613.0156920178,-167.35867380229,22.019301930193,1364352.134789,-2319.5404904589,2688168.6645357,27.219301930193,0,0
613.01569233162,-167.5604628518,22.023732373237,1364352.134789,-2319.5404904589,2688168.6645357,27.223732373237,0,0
613.01569264544,-167.7622519013,22.028162816282,1364352.134789,-2319.5404904589,2688168.6645357,27.228162816282,0,0
613.01569295926,-167.96404095081,22.032593259326,1364352.134789,-2319.5404904589,2688168.6645357,27.232593259326,0,0
613.01569327307,-168.16583000031,22.03702370237,1364352.134789,-2319.5404904589,2688168.6645357,27.23702370237,0,0
613.01569358689,-168.36761904982,22.041454145415,1364352.134789,-2319.5404904589,2688168.6645357,27.241454145415,0,0
613.01569390071,-168.56940809932,22.045884588459,1364352.134789,-2319.5404904589,2688168.6645357,27.245884588459,0,0
613.01569421453,-168.77119714883,22.050315031503,1364352.134789,-2319.5404904589,2688168.6645357,27.250315031503,0,0
613.01569452834,-168.97298619833,22.054745474547,1364352.134789,-2319.5404904589,2688168.6645357,27.254745474547,0,0
613.01569484216,-169.17477524784,22.059175917592,1364352.134789,-2319.5404904589,2688168.6645357,27.259175917592,0,0
613.01569515598,-169.37656429734,22.063606360636,1364352.134789,-2319.5404904589,2688168.6645357,27.263606360636,0,0
613.0156954698,-169.57835334685,22.06803680368,1364352.134789,-2319.5404904589,2688168.6645357,27.26803680368,0,0
613.01569578361,-169.78014239635,22.072467246725,1364352.134789,-2319.5404904589,2688168.6645357,27.272467246725,0,0
613.01569609743,-169.98193144586,22.076897689769,1364352.134789,-2319.5404904589,2688168.6645357,27.276897689769,0,0
613.01569641125,-170.18372049536,22.081328132813,1364352.134789,-2319.5404904589,2688168.6645357,27.281328132813,0,0
613.01569672507,-170.38550954487,22.085758575858,1364352.134789,-2319.5404904589,2688168.6645357,27.285758575858,0,0
613.01569703888,-170.58729859437,22.090189018902,1364352.134789,-2319.5404904589,2688168.6645357,27.290189018902,0,0
613.0156973527,-170.78908764388,22.094619461946,1364352.134789,-2319.5404904589,2688168.6645357,27.294619461946,0,0
613.01569766652,-170.99087669338,22.09904990499,1364352.134789,-2319.5404904589,2688168.6645357,27.29904990499,0,0
613.01569798034,-171.19266574289,22.103480348035,1364352.134789,-2319.5404904589,2688168.6645357,27.303480348035,0,0
613.01569829415,-171.39445479239,22.107910791079,1364352.134789,-2319.5404904589,2688168.6645357,27.307910791079,0,0
613.01569860797,-171.5962438419,22.112341234123,1364352.134789,-2319.5404904589,2688168.6645357,27.312341234123,0,0
613.01569892179,-171.7980328914,22.116771677168,1364352.134789,-2319.5404904589,2688168.6645357,27.316771677168,0,0
613.0156992356,-171.99982194091,22.121202120212,1364352.134789,-2319.5404904589,2688168.6645357,27.321202120212,0,0
613.01569954942,-172.20161099041,22.125632563256,1364352.134789,-2319.5404904589,2688168.6645357,27.325632563256,0,0
613.01569986324,-172.40340003992,22.130063006301,1364352.134789,-2319.5404904589,2688168.6645357,27.330063006301,0,0
613.01570017706,-172.60518908942,22.134493449345,1364352.134789,-2319.5404904589,2688168.6645357,27.334493449345,0,0
613.01570049087,-172.80697813893,22.138923892389,1364352.134789,-2319.5404904589,2688168.6645357,27.338923892389,0,0
613.01570080469,-173.00876718843,22.143354335434,1364352.134789,-2319.5404904589,2688168.6645357,27.343354335434,0,0
613.01570111851,-173.21055623794,22.147784778478,1364352.134789,-2319.5404904589,2688168.6645357,27.347784778478,0,0
613.01570143233,-173.41234528744,22.152215221522,1364352.134789,-2319.5404904589,2688168.6645357,27.352215221522,0,0
613.01570174614,-173.61413433695,22.156645664566,1364352.134789,-2319.5404904589,2688168.6645357,27.356645664566,0,0
613.01570205996,-173.81592338645,22.161076107611,1364352.134789,-2319.5404904589,2688168.6645357,27.361076107611,0,0
613.01570237378,-174.01771243596,22.165506550655,1364352.134789,-2319.5404904589,2688168.6645357,27.365506550655,0,0
613.0157026876,-174.21950148546,22.169936993699,1364352.134789,-2319.5404904589,2688168.6645357,27.369936993699,0,0
613.01570300141,-174.42129053497,22.174367436744,1364352.134789,-2319.5404904589,2688168.6645357,27.374367436744,0,0
613.01570331523,-174.62307958447,22.178797879788,1364352.134789,-2319.5404904589,2688168.6645357,27.378797879788,0,0
613.01570362905,-174.82486863398,22.183228322832,1364352.134789,-2319.5404904589,2688168.6645357,27.383228322832,0,0
613.01570394287,-175.02665768348,22.187658765877,1364352.134789,-2319.5404904589,2688168.6645357,27.387658765877,0,0
613.01570425668,-175.22844673299,22.192089208921,1364352.134789,-2319.5404904589,2688168.6645357,27.392089208921,0,0
613.0157045705,-175.43023578249,22.196519651965,1364352.134789,-2319.5404904589,2688168.6645357,27.396519651965,0,0
613.01570488432,-175.632024832,22.200950095009,1364352.134789,-2319.5404904589,2688168.6645357,27.400950095009,0,0
613.01570519814,-175.8338138815,22.205380538054,1364352.134789,-2319.5404904589,2688168.6645357,27.405380538054,0,0
613.01570551195,-176.03560293101,22.209810981098,1364352.134789,-2319.5404904589,2688168.6645357,27.409810981098,0,0
613.01570582577,-176.23739198051,22.214241424142,1364352.134789,-2319.5404904589,2688168.6645357,27.414241424142,0,0
613.01570613959,-176.43918103002,22.218671867187,1364352.134789,-2319.5404904589,2688168.6645357,27.418671867187,0,0
613.01570645341,-176.64097007952,22.223102310231,1364352.134789,-2319.5404904589,2688168.6645357,27.423102310231,0,0
613.01570676722,-176.84275912903,22.227532753275,1364352.134789,-2319.5404904589,2688168.6645357,27.427532753275,0,0
613.01570708104,-177.04454817853,22.23196319632,1364352.134789,-2319.5404904589,2688168.6645357,27.43196319632,0,0
613.01570739486,-177.24633722804,22.236393639364,1364352.134789,-2319.5404904589,2688168.6645357,27.436393639364,0,0
613.01570770868,-177.44812627754,22.240824082408,1364352.134789,-2319.5404904589,2688168.6645357,27.440824082408,0,0
613.01570802249,-177.64991532705,22.245254525453,1364352.134789,-2319.5404904589,2688168.6645357,27.445254525453,0,0
613.01570833631,-177.85170437655,22.249684968497,1364352.134789,-2319.5404904589,2688168.6645357,27.449684968497,0,0
613.01570865013,-178.05349342606,22.254115411541,1364352.134789,-2319.5404904589,2688168.6645357,27.454115411541,0,0
613.01570896395,-178.25528247556,22.258545854585,1364352.134789,-2319.5404904589,2688168.6645357,27.458545854585,0,0
613.01570927776,-178.45707152507,22.26297629763,1364352.134789,-2319.5404904589,2688168.6645357,27.46297629763,0,0
613.01570959158,-178.65886057457,22.267406740674,1364352.134789,-2319.5404904589,2688168.6645357,27.467406740674,0,0
613.0157099054,-178.86064962408,22.271837183718,1364352.134789,-2319.5404904589,2688168.6645357,27.471837183718,0,0
613.01571021922,-179.06243867358,22.276267626763,1364352.134789,-2319.5404904589,2688168.6645357,27.476267626763,0,0
613.01571053303,-179.26422772309,22.280698069807,1364352.134789,-2319.5404904589,2688168.6645357,27.480698069807,0,0
613.01571084685,-179.46601677259,22.285128512851,1364352.134789,-2319.5404904589,2688168.6645357,27.485128512851,0,0
613.01571116067,-179.6678058221,22.289558955896,1364352.134789,-2319.5404904589,2688168.6645357,27.489558955896,0,0
613.01571147449,-179.86959487161,22.29398939894,1364352.134789,-2319.5404904589,2688168.6645357,27.49398939894,0,0
613.0157117883,-180.07138392111,22.298419841984,1364352.134789,-2319.5404904589,2688168.6645357,27.498419841984,0,0
613.01571210212,-180.27317297062,22.302850285029,1364352.134789,-2319.5404904589,2688168.6645357,27.502850285029,0,0
613.01571241594,-180.47496202012,22.307280728073,1364352.134789,-2319.5404904589,2688168.6645357,27.507280728073,0,0
613.01571272976,-180.67675106963,22.311711171117,1364352.134789,-2319.5404904589,2688168.6645357,27.511711171117,0,0
613.01571304357,-180.87854011913,22.316141614161,1364352.134789,-2319.5404904589,2688168.6645357,27.516141614161,0,0
613.01571335739,-181.08032916864,22.320572057206,1364352.134789,-2319.5404904589,2688168.6645357,27.520572057206,0,0
613.01571367121,-181.28211821814,22.32500250025,1364352.134789,-2319.5404904589,2688168.6645357,27.52500250025,0,0
613.01571398503,-181.48390726765,22.329432943294,1364352.134789,-2319.5404904589,2688168.6645357,27.529432943294,0,0
613.01571429884,-181.68569631715,22.333863386339,1364352.134789,-2319.5404904589,2688168.6645357,27.533863386339,0,0
613.01571461266,-181.88748536666,22.338293829383,1364352.134789,-2319.5404904589,2688168.6645357,27.538293829383,0,0
613.01571492648,-182.08927441616,22.342724272427,1364352.134789,-2319.5404904589,2688168.6645357,27.542724272427,0,0
613.0157152403,-182.29106346567,22.347154715472,1364352.134789,-2319.5404904589,2688168.6645357,27.547154715472,0,0
613.01571555411,-182.49285251517,22.351585158516,1364352.134789,-2319.5404904589,2688168.6645357,27.551585158516,0,0
613.01571586793,-182.69464156468,22.35601560156,1364352.134789,-2319.5404904589,2688168.6645357,27.55601560156,0,0
613.01571618175,-182.89643061418,22.360446044604,1364352.134789,-2319.5404904589,2688168.6645357,27.560446044604,0,0
613.01571649557,-183.09821966369,22.364876487649,1364352.134789,-2319.5404904589,2688168.6645357,27.564876487649,0,0
613.01571680938,-183.30000871319,22.369306930693,1364352.134789,-2319.5404904589,2688168.6645357,27.569306930693,0,0
613.0157171232,-183.5017977627,22.373737373737,1364352.134789,-2319.5404904589,2688168.6645357,27.573737373737,0,0
613.01571743702,-183.7035868122,22.378167816782,1364352.134789,-2319.5404904589,2688168.6645357,27.578167816782,0,0
613.01571775084,-183.90537586171,22.382598259826,1364352.134789,-2319.5404904589,2688168.6645357,27.582598259826,0,0
613.01571806465,-184.10716491121,22.38702870287,1364352.134789,-2319.5404904589,2688168.6645357,27.58702870287,0,0
613.01571837847,-184.30895396072,22.391459145915,1364352.134789,-2319.5404904589,2688168.6645357,27.591459145915,0,0
613.01571869229,-184.51074301022,22.395889588959,1364352.134789,-2319.5404904589,2688168.6645357,27.595889588959,0,0
613.01571900611,-184.71253205973,22.400320032003,1364352.134789,-2319.5404904589,2688168.6645357,27.600320032003,0,0
613.01571931992,-184.91432110923,22.404750475048,1364352.134789,-2319.5404904589,2688168.6645357,27.604750475048,0,0
613.01571963374,-185.11611015874,22.409180918092,1364352.134789,-2319.5404904589,2688168.6645357,27.609180918092,0,0
613.01571994756,-185.31789920824,22.413611361136,1364352.134789,-2319.5404904589,2688168.6645357,27.613611361136,0,0
613.01572026138,-185.51968825775,22.41804180418,1364352.134789,-2319.5404904589,2688168.6645357,27.61804180418,0,0
613.01572057519,-185.72147730725,22.422472247225,1364352.134789,-2319.5404904589,2688168.6645357,27.622472247225,0,0
613.01572088901,-185.92326635676,22.426902690269,1364352.134789,-2319.5404904589,2688168.6645357,27.626902690269,0,0
613.01572120283,-186.12505540626,22.431333133313,1364352.134789,-2319.5404904589,2688168.6645357,27.631333133313,0,0
613.01572151664,-186.32684445577,22.435763576358,1364352.134789,-2319.5404904589,2688168.6645357,27.635763576358,0,0
613.01572183046,-186.52863350527,22.440194019402,1364352.134789,-2319.5404904589,2688168.6645357,27.640194019402,0,0
613.01572214428,-186.73042255478,22.444624462446,1364352.134789,-2319.5404904589,2688168.6645357,27.644624462446,0,0
613.0157224581,-186.93221160428,22.449054905491,1364352.134789,-2319.5404904589,2688168.6645357,27.649054905491,0,0
613.01572277191,-187.13400065379,22.453485348535,1364352.134789,-2319.5404904589,2688168.6645357,27.653485348535,0,0
613.01572308573,-187.33578970329,22.457915791579,1364352.134789,-2319.5404904589,2688168.6645357,27.657915791579,0,0
613.01572339955,-187.5375787528,22.462346234623,1364352.134789,-2319.5404904589,2688168.6645357,27.662346234623,0,0
613.01572371337,-187.7393678023,22.466776677668,1364352.134789,-2319.5404904589,2688168.6645357,27.666776677668,0,0
613.01572402718,-187.94115685181,22.471207120712,1364352.134789,-2319.5404904589,2688168.6645357,27.671207120712,0,0
613.015724341,-188.14294590131,22.475637563756,1364352.134789,-2319.5404904589,2688168.6645357,27.675637563756,0,0
613.01572465482,-188.34473495082,22.480068006801,1364352.134789,-2319.5404904589,2688168.6645357,27.680068006801,0,0
613.01572496864,-188.54652400032,22.484498449845,1364352.134789,-2319.5404904589,2688168.6645357,27.684498449845,0,0
613.01572528245,-188.74831304983,22.488928892889,1364352.134789,-2319.5404904589,2688168.6645357,27.688928892889,0,0
613.01572559627,-188.95010209933,22.493359335934,1364352.134789,-2319.5404904589,2688168.6645357,27.693359335934,0,0
613.01572591009,-189.15189114884,22.497789778978,1364352.134789,-2319.5404904589,2688168.6645357,27.697789778978,0,0
613.01572622391,-189.35368019834,22.502220222022,1364352.134789,-2319.5404904589,2688168.6645357,27.702220222022,0,0
613.01572653772,-189.55546924785,22.506650665067,1364352.134789,-2319.5404904589,2688168.6645357,27.706650665067,0,0
613.01572685154,-189.75725829735,22.511081108111,1364352.134789,-2319.5404904589,2688168.6645357,27.711081108111,0,0
613.01572716536,-189.95904734686,22.515511551155,1364352.134789,-2319.5404904589,2688168.6645357,27.715511551155,0,0
613.01572747918,-190.16083639636,22.519941994199,1364352.134789,-2319.5404904589,2688168.6645357,27.719941994199,0,0
613.01572779299,-190.36262544587,22.524372437244,1364352.134789,-2319.5404904589,2688168.6645357,27.724372437244,0,0
613.01572810681,-190.56441449537,22.528802880288,1364352.134789,-2319.5404904589,2688168.6645357,27.728802880288,0,0
613.01572842063,-190.76620354488,22.533233323332,1364352.134789,-2319.5404904589,2688168.6645357,27.733233323332,0,0
613.01572873445,-190.96799259438,22.537663766377,1364352.134789,-2319.5404904589,2688168.6645357,27.737663766377,0,0
613.01572904826,-191.16978164389,22.542094209421,1364352.134789,-2319.5404904589,2688168.6645357,27.742094209421,0,0
613.01572936208,-191.37157069339,22.546524652465,1364352.134789,-2319.5404904589,2688168.6645357,27.746524652465,0,0
613.0157296759,-191.5733597429,22.55095509551,1364352.134789,-2319.5404904589,2688168.6645357,27.75095509551,0,0
613.01572998972,-191.7751487924,22.555385538554,1364352.134789,-2319.5404904589,2688168.6645357,27.755385538554,0,0
613.01573030353,-191.97693784191,22.559815981598,1364352.134789,-2319.5404904589,2688168.6645357,27.759815981598,0,0
613.01573061735,-192.17872689142,22.564246424642,1364352.134789,-2319.5404904589,2688168.6645357,27.764246424642,0,0
613.01573093112,-192.38051594005,22.568676867687,1362723.0718139,1263.4681535425,2683542.2528924,27.768676867687,0,0
613.01573124485,-192.58230498796,22.573107310731,1362723.0718139,1263.4681535425,2683542.2528924,27.773107310731,0,0
613.01573155858,-192.78409403588,22.577537753775,1362723.0718139,1263.4681535425,2683542.2528924,27.777537753775,0,0
613.01573187231,-192.98588308379,22.58196819682,1362723.0718139,1263.4681535425,2683542.2528924,27.78196819682,0,0
613.01573218603,-193.18767213171,22.586398639864,1362723.0718139,1263.4681535425,2683542.2528924,27.786398639864,0,0
613.01573249976,-193.38946117963,22.590829082908,1362723.0718139,1263.4681535425,2683542.2528924,27.790829082908,0,0
613.01573281349,-193.59125022754,22.595259525953,1362723.0718139,1263.4681535425,2683542.2528924,27.795259525953,0,0
613.01573312722,-193.79303927546,22.599689968997,1362723.0718139,1263.4681535425,2683542.2528924,27.799689968997,0,0
613.01573344095,-193.99482832337,22.604120412041,1362723.0718139,1263.4681535425,2683542.2528924,27.804120412041,0,0
613.01573375468,-194.19661737129,22.608550855086,1362723.0718139,1263.4681535425,2683542.2528924,27.808550855086,0,0
613.0157340684,-194.39840641921,22.61298129813,1362723.0718139,1263.4681535425,2683542.2528924,27.81298129813,0,0
613.01573438213,-194.60019546712,22.617411741174,1362723.0718139,1263.4681535425,2683542.2528924,27.817411741174,0,0
613.01573469586,-194.80198451504,22.621842184218,1362723.0718139,1263.4681535425,2683542.2528924,27.821842184218,0,0
613.01573500959,-195.00377356295,22.626272627263,1362723.0718139,1263.4681535425,2683542.2528924,27.826272627263,0,0
613.01573532332,-195.20556261087,22.630703070307,1362723.0718139,1263.4681535425,2683542.2528924,27.830703070307,0,0
613.01573563705,-195.40735165878,22.635133513351,1362723.0718139,1263.4681535425,2683542.2528924,27.835133513351,0,0
613.01573595078,-195.6091407067,22.639563956396,1362723.0718139,1263.4681535425,2683542.2528924,27.839563956396,0,0
613.0157362645,-195.81092975462,22.64399439944,1362723.0718139,1263.4681535425,2683542.2528924,27.84399439944,0,0
613.01573657823,-196.01271880253,22.648424842484,1362723.0718139,1263.4681535425,2683542.2528924,27.848424842484,0,0
613.01573689196,-196.21450785045,22.652855285529,1362723.0718139,1263.4681535425,2683542.2528924,27.852855285529,0,0
613.01573720569,-196.41629689836,22.657285728573,1362723.0718139,1263.4681535425,2683542.2528924,27.857285728573,0,0
613.01573751942,-196.61808594628,22.661716171617,1362723.0718139,1263.4681535425,2683542.2528924,27.861716171617,0,0
613.01573783315,-196.8198749942,22.666146614661,1362723.0718139,1263.4681535425,2683542.2528924,27.866146614661,0,0
613.01573814688,-197.02166404211,22.670577057706,1362723.0718139,1263.4681535425,2683542.2528924,27.870577057706,0,0
613.0157384606,-197.22345309003,22.67500750075,1362723.0718139,1263.4681535425,2683542.2528924,27.87500750075,0,0
613.01573877433,-197.42524213794,22.679437943794,1362723.0718139,1263.4681535425,2683542.2528924,27.879437943794,0,0
613.01573908806,-197.62703118586,22.683868386839,1362723.0718139,1263.4681535425,2683542.2528924,27.883868386839,0,0
613.01573940179,-197.82882023378,22.688298829883,1362723.0718139,1263.4681535425,2683542.2528924,27.888298829883,0,0
613.01573971552,-198.03060928169,22.692729272927,1362723.0718139,1263.4681535425,2683542.2528924,27.892729272927,0,0
613.01574002925,-198.23239832961,22.697159715972,1362723.0718139,1263.4681535425,2683542.2528924,27.897159715972,0,0
613.01574034298,-198.43418737752,22.701590159016,1362723.0718139,1263.4681535425,2683542.2528924,27.901590159016,0,0
613.0157406567,-198.63597642544,22.70602060206,1362723.0718139,1263.4681535425,2683542.2528924,27.90602060206,0,0
613.01574097043,-198.83776547335,22.710451045105,1362723.0718139,1263.4681535425,2683542.2528924,27.910451045105,0,0
613.01574128416,-199.03955452127,22.714881488149,1362723.0718139,1263.4681535425,2683542.2528924,27.914881488149,0,0
613.01574159789,-199.24134356919,22.719311931193,1362723.0718139,1263.4681535425,2683542.2528924,27.919311931193,0,0
613.01574191162,-199.4431326171,22.723742374237,1362723.0718139,1263.4681535425,2683542.2528924,27.923742374237,0,0
613.01574222535,-199.64492166502,22.728172817282,1362723.0718139,1263.4681535425,2683542.2528924,27.928172817282,0,0
613.01574253908,-199.84671071293,22.732603260326,1362723.0718139,1263.4681535425,2683542.2528924,27.932603260326,0,0
613.0157428528,-200.04849976085,22.73703370337,1362723.0718139,1263.4681535425,2683542.2528924,27.93703370337,0,0
613.01574316653,-200.25028880877,22.741464146415,1362723.0718139,1263.4681535425,2683542.2528924,27.941464146415,0,0
613.01574348026,-200.45207785668,22.745894589459,1362723.0718139,1263.4681535425,2683542.2528924,27.945894589459,0,0
613.01574379399,-200.6538669046,22.750325032503,1362723.0718139,1263.4681535425,2683542.2528924,27.950325032503,0,0
613.01574410772,-200.85565595251,22.754755475548,1362723.0718139,1263.4681535425,2683542.2528924,27.954755475548,0,0
613.01574442145,-201.05744500043,22.759185918592,1362723.0718139,1263.4681535425,2683542.2528924,27.959185918592,0,0
613.01574473517,-201.25923404834,22.763616361636,1362723.0718139,1263.4681535425,2683542.2528924,27.963616361636,0,0
613.0157450489,-201.46102309626,22.76804680468,1362723.0718139,1263.4681535425,2683542.2528924,27.96804680468,0,0
613.01574536263,-201.66281214418,22.772477247725,1362723.0718139,1263.4681535425,2683542.2528924,27.972477247725,0,0
613.01574567636,-201.86460119209,22.776907690769,1362723.0718139,1263.4681535425,2683542.2528924,27.976907690769,0,0
613.01574599009,-202.06639024001,22.781338133813,1362723.0718139,1263.4681535425,2683542.2528924,27.981338133813,0,0
613.01574630382,-202.26817928792,22.785768576858,1362723.0718139,1263.4681535425,2683542.2528924,27.985768576858,0,0
613.01574661755,-202.46996833584,22.790199019902,1362723.0718139,1263.4681535425,2683542.2528924,27.990199019902,0,0
613.01574693127,-202.67175738376,22.794629462946,1362723.0718139,1263.4681535425,2683542.2528924,27.994629462946,0,0
613.015747245,-202.87354643167,22.799059905991,1362723.0718139,1263.4681535425,2683542.2528924,27.999059905991,0,0
613.01574755873,-203.07533547959,22.803490349035,1362723.0718139,1263.4681535425,2683542.2528924,28.003490349035,0,0
613.01574787246,-203.2771245275,22.807920792079,1362723.0718139,1263.4681535425,2683542.2528924,28.007920792079,0,0
613.01574818619,-203.47891357542,22.812351235124,1362723.0718139,1263.4681535425,2683542.2528924,28.012351235124,0,0
613.01574849992,-203.68070262334,22.816781678168,1362723.0718139,1263.4681535425,2683542.2528924,28.016781678168,0,0
613.01574881365,-203.88249167125,22.821212121212,1362723.0718139,1263.4681535425,2683542.2528924,28.021212121212,0,0
613.01574912737,-204.08428071917,22.825642564256,1362723.0718139,1263.4681535425,2683542.2528924,28.025642564256,0,0
613.01574944125,-204.286069768,22.830073007301,1362735.206065,-2101.9448569422,2677329.6605796,28.030073007301,0,0
613.01574975526,-204.48785881763,22.834503450345,1362735.206065,-2101.9448569422,2677329.6605796,28.034503450345,0,0
613.01575006927,-204.68964786727,22.838933893389,1362735.206065,-2101.9448569422,2677329.6605796,28.038933893389,0,0
613.01575038329,-204.8914369169,22.843364336434,1362735.206065,-2101.9448569422,2677329.6605796,28.043364336434,0,0
613.0157506973,-205.09322596654,22.847794779478,1362735.206065,-2101.9448569422,2677329.6605796,28.047794779478,0,0
613.01575101131,-205.29501501617,22.852225222522,1362735.206065,-2101.9448569422,2677329.6605796,28.052225222522,0,0
613.01575132532,-205.49680406581,22.856655665567,1362735.206065,-2101.9448569422,2677329.6605796,28.056655665567,0,0
613.01575163933,-205.69859311545,22.861086108611,1362735.206065,-2101.9448569422,2677329.6605796,28.061086108611,0,0
613.01575195334,-205.90038216508,22.865516551655,1362735.206065,-2101.9448569422,2677329.6605796,28.065516551655,0,0
613.01575226735,-206.10217121472,22.869946994699,1362735.206065,-2101.9448569422,2677329.6605796,28.069946994699,0,0
613.01575258136,-206.30396026435,22.874377437744,1362735.206065,-2101.9448569422,2677329.6605796,28.074377437744,0,0
613.01575289537,-206.50574931399,22.878807880788,1362735.206065,-2101.9448569422,2677329.6605796,28.078807880788,0,0
613.01575320938,-206.70753836362,22.883238323832,1362735.206065,-2101.9448569422,2677329.6605796,28.083238323832,0,0
613.01575352339,-206.90932741326,22.887668766877,1362735.206065,-2101.9448569422,2677329.6605796,28.087668766877,0,0
613.01575383741,-207.1111164629,22.892099209921,1362735.206065,-2101.9448569422,2677329.6605796,28.092099209921,0,0
613.01575415142,-207.31290551253,22.896529652965,1362735.206065,-2101.9448569422,2677329.6605796,28.096529652965,0,0
613.01575446543,-207.51469456217,22.90096009601,1362735.206065,-2101.9448569422,2677329.6605796,28.10096009601,0,0
613.01575477944,-207.7164836118,22.905390539054,1362735.206065,-2101.9448569422,2677329.6605796,28.105390539054,0,0
613.01575509345,-207.91827266144,22.909820982098,1362735.206065,-2101.9448569422,2677329.6605796,28.109820982098,0,0
613.01575540746,-208.12006171107,22.914251425143,1362735.206065,-2101.9448569422,2677329.6605796,28.114251425143,0,0
613.01575572147,-208.32185076071,22.918681868187,1362735.206065,-2101.9448569422,2677329.6605796,28.118681868187,0,0
613.01575603548,-208.52363981034,22.923112311231,1362735.206065,-2101.9448569422,2677329.6605796,28.123112311231,0,0
613.01575634949,-208.72542885998,22.927542754275,1362735.206065,-2101.9448569422,2677329.6605796,28.127542754275,0,0
613.0157566635,-208.92721790962,22.93197319732,1362735.206065,-2101.9448569422,2677329.6605796,28.13197319732,0,0
613.01575697751,-209.12900695925,22.936403640364,1362735.206065,-2101.9448569422,2677329.6605796,28.136403640364,0,0
613.01575729153,-209.33079600889,22.940834083408,1362735.206065,-2101.9448569422,2677329.6605796,28.140834083408,0,0
613.01575760554,-209.53258505852,22.945264526453,1362735.206065,-2101.9448569422,2677329.6605796,28.145264526453,0,0
613.01575791955,-209.73437410816,22.949694969497,1362735.206065,-2101.9448569422,2677329.6605796,28.149694969497,0,0
613.01575823356,-209.93616315779,22.954125412541,1362735.206065,-2101.9448569422,2677329.6605796,28.154125412541,0,0
613.01575854757,-210.13795220743,22.958555855586,1362735.206065,-2101.9448569422,2677329.6605796,28.158555855586,0,0
613.01575886158,-210.33974125707,22.96298629863,1362735.206065,-2101.9448569422,2677329.6605796,28.16298629863,0,0
613.01575917559,-210.5415303067,22.967416741674,1362735.206065,-2101.9448569422,2677329.6605796,28.167416741674,0,0
613.0157594896,-210.74331935634,22.971847184718,1362735.206065,-2101.9448569422,2677329.6605796,28.171847184718,0,0
613.01575980361,-210.94510840597,22.976277627763,1362735.206065,-2101.9448569422,2677329.6605796,28.176277627763,0,0
613.01576011762,-211.14689745561,22.980708070807,1362735.206065,-2101.9448569422,2677329.6605796,28.180708070807,0,0
613.01576043164,-211.34868650524,22.985138513851,1362735.206065,-2101.9448569422,2677329.6605796,28.185138513851,0,0
613.01576074565,-211.55047555488,22.989568956896,1362735.206065,-2101.9448569422,2677329.6605796,28.189568956896,0,0
613.01576105966,-211.75226460451,22.99399939994,1362735.206065,-2101.9448569422,2677329.6605796,28.19399939994,0,0
613.01576137367,-211.95405365415,22.998429842984,1362735.206065,-2101.9448569422,2677329.6605796,28.198429842984,0,0
613.01576168768,-212.15584270379,23.002860286029,1362735.206065,-2101.9448569422,2677329.6605796,28.202860286029,0,0
613.01576200169,-212.35763175342,23.007290729073,1362735.206065,-2101.9448569422,2677329.6605796,28.207290729073,0,0
613.0157623157,-212.55942080306,23.011721172117,1362735.206065,-2101.9448569422,2677329.6605796,28.211721172117,0,0
613.01576262971,-212.76120985269,23.016151615162,1362735.206065,-2101.9448569422,2677329.6605796,28.216151615162,0,0
613.01576294372,-212.96299890233,23.020582058206,1362735.206065,-2101.9448569422,2677329.6605796,28.220582058206,0,0
613.01576325773,-213.16478795196,23.02501250125,1362735.206065,-2101.9448569422,2677329.6605796,28.22501250125,0,0
613.01576357174,-213.3665770016,23.029442944294,1362735.206065,-2101.9448569422,2677329.6605796,28.229442944294,0,0
613.01576388576,-213.56836605124,23.033873387339,1362735.206065,-2101.9448569422,2677329.6605796,28.233873387339,0,0
613.01576419977,-213.77015510087,23.038303830383,1362735.206065,-2101.9448569422,2677329.6605796,28.238303830383,0,0
613.01576451378,-213.97194415051,23.042734273427,1362735.206065,-2101.9448569422,2677329.6605796,28.242734273427,0,0
613.01576482779,-214.17373320014,23.047164716472,1362735.206065,-2101.9448569422,2677329.6605796,28.247164716472,0,0
613.0157651418,-214.37552224978,23.051595159516,1362735.206065,-2101.9448569422,2677329.6605796,28.251595159516,0,0
613.01576545581,-214.57731129941,23.05602560256,1362735.206065,-2101.9448569422,2677329.6605796,28.25602560256,0,0
613.01576576982,-214.77910034905,23.060456045605,1362735.206065,-2101.9448569422,2677329.6605796,28.260456045605,0,0
613.01576608383,-214.98088939868,23.064886488649,1362735.206065,-2101.9448569422,2677329.6605796,28.264886488649,0,0
613.01576639784,-215.18267844832,23.069316931693,1362735.206065,-2101.9448569422,2677329.6605796,28.269316931693,0,0
613.01576671185,-215.38446749796,23.073747374737,1362735.206065,-2101.9448569422,2677329.6605796,28.273747374737,0,0
613.01576702586,-215.58625654759,23.078177817782,1362735.206065,-2101.9448569422,2677329.6605796,28.278177817782,0,0
613.01576733988,-215.78804559723,23.082608260826,1362735.206065,-2101.9448569422,2677329.6605796,28.282608260826,0,0
613.01576765389,-215.98983464686,23.08703870387,1362735.206065,-2101.9448569422,2677329.6605796,28.28703870387,0,0
613.0157679679,-216.1916236965,23.091469146915,1362735.206065,-2101.9448569422,2677329.6605796,28.291469146915,0,0
613.01576828191,-216.39341274613,23.095899589959,1362735.206065,-2101.9448569422,2677329.6605796,28.295899589959,0,0
613.01576859592,-216.59520179577,23.100330033003,1362735.206065,-2101.9448569422,2677329.6605796,28.300330033003,0,0
613.01576890993,-216.79699084541,23.104760476048,1362735.206065,-2101.9448569422,2677329.6605796,28.304760476048,0,0
613.01576922394,-216.99877989504,23.109190919092,1362735.206065,-2101.9448569422,2677329.6605796,28.309190919092,0,0
613.01576953795,-217.20056894468,23.113621362136,1362735.206065,-2101.9448569422,2677329.6605796,28.313621362136,0,0
613.01576985196,-217.40235799431,23.118051805181,1362735.206065,-2101.9448569422,2677329.6605796,28.318051805181,0,0
613.01577016597,-217.60414704395,23.122482248225,1362735.206065,-2101.9448569422,2677329.6605796,28.322482248225,0,0
613.01577047999,-217.80593609358,23.126912691269,1362735.206065,-2101.9448569422,2677329.6605796,28.326912691269,0,0
613.015770794,-218.00772514322,23.131343134313,1362735.206065,-2101.9448569422,2677329.6605796,28.331343134313,0,0
613.01577110801,-218.20951419285,23.135773577358,1362735.206065,-2101.9448569422,2677329.6605796,28.335773577358,0,0
613.01577142202,-218.41130324249,23.140204020402,1362735.206065,-2101.9448569422,2677329.6605796,28.340204020402,0,0
613.01577173603,-218.61309229213,23.144634463446,1362735.206065,-2101.9448569422,2677329.6605796,28.344634463446,0,0
613.01577205004,-218.81488134176,23.149064906491,1362735.206065,-2101.9448569422,2677329.6605796,28.349064906491,0,0
613.01577236405,-219.0166703914,23.153495349535,1362735.206065,-2101.9448569422,2677329.6605796,28.353495349535,0,0
613.01577267806,-219.21845944103,23.157925792579,1362735.206065,-2101.9448569422,2677329.6605796,28.357925792579,0,0
613.01577299207,-219.42024849067,23.162356235624,1362735.206065,-2101.9448569422,2677329.6605796,28.362356235624,0,0
613.01577330608,-219.6220375403,23.166786678668,1362735.206065,-2101.9448569422,2677329.6605796,28.366786678668,0,0
613.01577362009,-219.82382658994,23.171217121712,1362735.206065,-2101.9448569422,2677329.6605796,28.371217121712,0,0
613.01577393411,-220.02561563958,23.175647564756,1362735.206065,-2101.9448569422,2677329.6605796,28.375647564756,0,0
613.01577424812,-220.22740468921,23.180078007801,1362735.206065,-2101.9448569422,2677329.6605796,28.380078007801,0,0
613.01577456213,-220.42919373885,23.184508450845,1362735.206065,-2101.9448569422,2677329.6605796,28.384508450845,0,0
613.01577487614,-220.63098278848,23.188938893889,1362735.206065,-2101.9448569422,2677329.6605796,28.388938893889,0,0
613.01577519015,-220.83277183812,23.193369336934,1362735.206065,-2101.9448569422,2677329.6605796,28.393369336934,0,0
613.01577550416,-221.03456088775,23.197799779978,1362735.206065,-2101.9448569422,2677329.6605796,28.397799779978,0,0
613.01577581817,-221.23634993739,23.202230223022,1362735.206065,-2101.9448569422,2677329.6605796,28.402230223022,0,0
613.01577613218,-221.43813898702,23.206660666067,1362735.206065,-2101.9448569422,2677329.6605796,28.406660666067,0,0
613.01577644619,-221.63992803666,23.211091109111,1362735.206065,-2101.9448569422,2677329.6605796,28.411091109111,0,0
613.0157767602,-221.8417170863,23.215521552155,1362735.206065,-2101.9448569422,2677329.6605796,28.415521552155,0,0
613.01577707422,-222.04350613593,23.2199519952,1362735.206065,-2101.9448569422,2677329.6605796,28.4199519952,0,0
613.01577738823,-222.24529518557,23.224382438244,1362735.206065,-2101.9448569422,2677329.6605796,28.424382438244,0,0
613.01577770224,-222.4470842352,23.228812881288,1362735.206065,-2101.9448569422,2677329.6605796,28.428812881288,0,0
613.01577801625,-222.64887328484,23.233243324332,1362735.206065,-2101.9448569422,2677329.6605796,28.433243324332,0,0
613.01577833026,-222.85066233447,23.237673767377,1362735.206065,-2101.9448569422,2677329.6605796,28.437673767377,0,0
613.01577864427,-223.05245138411,23.242104210421,1362735.206065,-2101.9448569422,2677329.6605796,28.442104210421,0,0
613.01577895828,-223.25424043375,23.246534653465,1362735.206065,-2101.9448569422,2677329.6605796,28.446534653465,0,0
613.01577927229,-223.45602948338,23.25096509651,1362735.206065,-2101.9448569422,2677329.6605796,28.45096509651,0,0
613.0157795863,-223.65781853302,23.255395539554,1362735.206065,-2101.9448569422,2677329.6605796,28.455395539554,0,0
613.01577990031,-223.85960758265,23.259825982598,1362735.206065,-2101.9448569422,2677329.6605796,28.459825982598,0,0
613.01578021432,-224.06139663229,23.264256425643,1362735.206065,-2101.9448569422,2677329.6605796,28.464256425643,0,0
613.01578052834,-224.26318568192,23.268686868687,1362735.206065,-2101.9448569422,2677329.6605796,28.468686868687,0,0
613.01578084235,-224.46497473156,23.273117311731,1362735.206065,-2101.9448569422,2677329.6605796,28.473117311731,0,0
613.01578115636,-224.66676378119,23.277547754775,1362735.206065,-2101.9448569422,2677329.6605796,28.477547754775,0,0
613.01578147037,-224.86855283083,23.28197819782,1362735.206065,-2101.9448569422,2677329.6605796,28.48197819782,0,0
613.01578178438,-225.07034188047,23.286408640864,1362735.206065,-2101.9448569422,2677329.6605796,28.486408640864,0,0
613.01578209839,-225.2721309301,23.290839083908,1362735.206065,-2101.9448569422,2677329.6605796,28.490839083908,0,0
613.0157824124,-225.47391997974,23.295269526953,1362735.206065,-2101.9448569422,2677329.6605796,28.495269526953,0,0
613.01578272641,-225.67570902937,23.299699969997,1362735.206065,-2101.9448569422,2677329.6605796,28.499699969997,0,0
613.01578304042,-225.87749807901,23.304130413041,1362735.206065,-2101.9448569422,2677329.6605796,28.504130413041,0,0
613.01578335443,-226.07928712864,23.308560856086,1362735.206065,-2101.9448569422,2677329.6605796,28.508560856086,0,0
613.01578366845,-226.28107617828,23.31299129913,1362735.206065,-2101.9448569422,2677329.6605796,28.51299129913,0,0
613.01578398246,-226.48286522792,23.317421742174,1362735.206065,-2101.9448569422,2677329.6605796,28.517421742174,0,0
613.01578429647,-226.68465427755,23.321852185219,1362735.206065,-2101.9448569422,2677329.6605796,28.521852185219,0,0
613.01578461048,-226.88644332719,23.326282628263,1362735.206065,-2101.9448569422,2677329.6605796,28.526282628263,0,0
613.01578492449,-227.08823237682,23.330713071307,1362735.206065,-2101.9448569422,2677329.6605796,28.530713071307,0,0
613.0157852385,-227.29002142646,23.335143514351,1362735.206065,-2101.9448569422,2677329.6605796,28.535143514351,0,0
613.01578555251,-227.49181047609,23.339573957396,1362735.206065,-2101.9448569422,2677329.6605796,28.539573957396,0,0
613.01578586652,-227.69359952573,23.34400440044,1362735.206065,-2101.9448569422,2677329.6605796,28.54400440044,0,0
613.01578618053,-227.89538857536,23.348434843484,1362735.206065,-2101.9448569422,2677329.6605796,28.548434843484,0,0
613.01578649454,-228.097177625,23.352865286529,1362735.206065,-2101.9448569422,2677329.6605796,28.552865286529,0,0
613.01578680855,-228.29896667464,23.357295729573,1362735.206065,-2101.9448569422,2677329.6605796,28.557295729573,0,0
613.01578712257,-228.50075572427,23.361726172617,1362735.206065,-2101.9448569422,2677329.6605796,28.561726172617,0,0
613.01578743658,-228.70254477391,23.366156615662,1362735.206065,-2101.9448569422,2677329.6605796,28.566156615662,0,0
613.01578775059,-228.90433382354,23.370587058706,1362735.206065,-2101.9448569422,2677329.6605796,28.570587058706,0,0
613.0157880646,-229.10612287318,23.37501750175,1362735.206065,-2101.9448569422,2677329.6605796,28.57501750175,0,0
613.01578837861,-229.30791192281,23.379447944794,1362735.206065,-2101.9448569422,2677329.6605796,28.579447944794,0,0
613.01578869262,-229.50970097245,23.383878387839,1362735.206065,-2101.9448569422,2677329.6605796,28.583878387839,0,0
613.01578900663,-229.71149002209,23.388308830883,1362735.206065,-2101.9448569422,2677329.6605796,28.588308830883,0,0
613.01578932064,-229.91327907172,23.392739273927,1362735.206065,-2101.9448569422,2677329.6605796,28.592739273927,0,0
613.01578963465,-230.11506812136,23.397169716972,1362735.206065,-2101.9448569422,2677329.6605796,28.597169716972,0,0
613.01578994866,-230.31685717099,23.401600160016,1362735.206065,-2101.9448569422,2677329.6605796,28.601600160016,0,0
613.01579026267,-230.51864622063,23.40603060306,1362735.206065,-2101.9448569422,2677329.6605796,28.60603060306,0,0
613.01579057669,-230.72043527026,23.410461046105,1362735.206065,-2101.9448569422,2677329.6605796,28.610461046105,0,0
613.0157908907,-230.9222243199,23.414891489149,1362735.206065,-2101.9448569422,2677329.6605796,28.614891489149,0,0
613.01579120471,-231.12401336953,23.419321932193,1362735.206065,-2101.9448569422,2677329.6605796,28.619321932193,0,0
613.01579151872,-231.32580241917,23.423752375238,1362735.206065,-2101.9448569422,2677329.6605796,28.623752375238,0,0
613.01579183273,-231.52759146881,23.428182818282,1362735.206065,-2101.9448569422,2677329.6605796,28.628182818282,0,0
613.01579214674,-231.72938051844,23.432613261326,1362735.206065,-2101.9448569422,2677329.6605796,28.632613261326,0,0
613.01579246075,-231.93116956808,23.43704370437,1362735.206065,-2101.9448569422,2677329.6605796,28.63704370437,0,0
613.01579277476,-232.13295861771,23.441474147415,1362735.206065,-2101.9448569422,2677329.6605796,28.641474147415,0,0
613.01579308877,-232.33474766735,23.445904590459,1362735.206065,-2101.9448569422,2677329.6605796,28.645904590459,0,0
613.01579340278,-232.53653671698,23.450335033503,1362735.206065,-2101.9448569422,2677329.6605796,28.650335033503,0,0
613.0157937168,-232.73832576662,23.454765476548,1362735.206065,-2101.9448569422,2677329.6605796,28.654765476548,0,0
613.01579403081,-232.94011481626,23.459195919592,1362735.206065,-2101.9448569422,2677329.6605796,28.659195919592,0,0
613.01579434482,-233.14190386589,23.463626362636,1362735.206065,-2101.9448569422,2677329.6605796,28.663626362636,0,0
613.01579465883,-233.34369291553,23.468056805681,1362735.206065,-2101.9448569422,2677329.6605796,28.668056805681,0,0
613.01579497284,-233.54548196516,23.472487248725,1362735.206065,-2101.9448569422,2677329.6605796,28.672487248725,0,0
613.01579528685,-233.7472710148,23.476917691769,1362735.206065,-2101.9448569422,2677329.6605796,28.676917691769,0,0
613.01579560086,-233.94906006443,23.481348134813,1362735.206065,-2101.9448569422,2677329.6605796,28.681348134813,0,0
613.01579591487,-234.15084911407,23.485778577858,1362735.206065,-2101.9448569422,2677329.6605796,28.685778577858,0,0
613.01579622888,-234.3526381637,23.490209020902,1362735.206065,-2101.9448569422,2677329.6605796,28.690209020902,0,0
613.01579654289,-234.55442721334,23.494639463946,1362735.206065,-2101.9448569422,2677329.6605796,28.694639463946,0,0
613.0157968569,-234.75621626298,23.499069906991,1362735.206065,-2101.9448569422,2677329.6605796,28.699069906991,0,0
613.01579717092,-234.95800531261,23.503500350035,1362735.206065,-2101.9448569422,2677329.6605796,28.703500350035,0,0
613.01579748493,-235.15979436225,23.507930793079,1362735.206065,-2101.9448569422,2677329.6605796,28.707930793079,0,0
613.01579779894,-235.36158341188,23.512361236124,1362735.206065,-2101.9448569422,2677329.6605796,28.712361236124,0,0
613.01579811295,-235.56337246152,23.516791679168,1362735.206065,-2101.9448569422,2677329.6605796,28.716791679168,0,0
613.01579842696,-235.76516151115,23.521222122212,1362735.206065,-2101.9448569422,2677329.6605796,28.721222122212,0,0
613.01579874097,-235.96695056079,23.525652565257,1362735.206065,-2101.9448569422,2677329.6605796,28.725652565257,0,0
613.01579905498,-236.16873961043,23.530083008301,1362735.206065,-2101.9448569422,2677329.6605796,28.730083008301,0,0
613.01579936899,-236.37052866006,23.534513451345,1362735.206065,-2101.9448569422,2677329.6605796,28.734513451345,0,0
613.015799683,-236.5723177097,23.538943894389,1362735.206065,-2101.9448569422,2677329.6605796,28.738943894389,0,0
613.01579999701,-236.77410675933,23.543374337434,1362735.206065,-2101.9448569422,2677329.6605796,28.743374337434,0,0
613.01580031102,-236.97589580897,23.547804780478,1362735.206065,-2101.9448569422,2677329.6605796,28.747804780478,0,0
613.01580062504,-237.1776848586,23.552235223522,1362735.206065,-2101.9448569422,2677329.6605796,28.752235223522,0,0
613.01580093905,-237.37947390824,23.556665666567,1362735.206065,-2101.9448569422,2677329.6605796,28.756665666567,0,0
613.01580125306,-237.58126295787,23.561096109611,1362735.206065,-2101.9448569422,2677329.6605796,28.761096109611,0,0
613.01580156707,-237.78305200751,23.565526552655,1362735.206065,-2101.9448569422,2677329.6605796,28.765526552655,0,0
613.01580188108,-237.98484105715,23.5699569957,1362735.206065,-2101.9448569422,2677329.6605796,28.7699569957,0,0
613.01580219509,-238.18663010678,23.574387438744,1362735.206065,-2101.9448569422,2677329.6605796,28.774387438744,0,0
613.0158025091,-238.38841915642,23.578817881788,1362735.206065,-2101.9448569422,2677329.6605796,28.778817881788,0,0
613.01580282311,-238.59020820605,23.583248324832,1362735.206065,-2101.9448569422,2677329.6605796,28.783248324832,0,0
613.01580313712,-238.79199725569,23.587678767877,1362735.206065,-2101.9448569422,2677329.6605796,28.787678767877,0,0
613.01580345113,-238.99378630532,23.592109210921,1362735.206065,-2101.9448569422,2677329.6605796,28.792109210921,0,0
613.01580376515,-239.19557535496,23.596539653965,1362735.206065,-2101.9448569422,2677329.6605796,28.796539653965,0,0
613.01580407916,-239.3973644046,23.60097009701,1362735.206065,-2101.9448569422,2677329.6605796,28.80097009701,0,0
613.01580439317,-239.59915345423,23.605400540054,1362735.206065,-2101.9448569422,2677329.6605796,28.805400540054,0,0
613.01580470718,-239.80094250387,23.609830983098,1362735.206065,-2101.9448569422,2677329.6605796,28.809830983098,0,0
613.01580502119,-240.0027315535,23.614261426143,1362735.206065,-2101.9448569422,2677329.6605796,28.814261426143,0,0
613.0158053352,-240.20452060314,23.618691869187,1362735.206065,-2101.9448569422,2677329.6605796,28.818691869187,0,0
613.01580564921,-240.40630965277,23.623122312231,1362735.206065,-2101.9448569422,2677329.6605796,28.823122312231,0,0
613.01580596322,-240.60809870241,23.627552755276,1362735.206065,-2101.9448569422,2677329.6605796,28.827552755276,0,0
613.01580627723,-240.80988775204,23.63198319832,1362735.206065,-2101.9448569422,2677329.6605796,28.83198319832,0,0
613.01580659124,-241.01167680168,23.636413641364,1362735.206065,-2101.9448569422,2677329.6605796,28.836413641364,0,0
613.01580690525,-241.21346585132,23.640844084408,1362735.206065,-2101.9448569422,2677329.6605796,28.840844084408,0,0
613.01580721927,-241.41525490095,23.645274527453,1362735.206065,-2101.9448569422,2677329.6605796,28.845274527453,0,0
613.01580753328,-241.61704395059,23.649704970497,1362735.206065,-2101.9448569422,2677329.6605796,28.849704970497,0,0
613.01580784729,-241.81883300022,23.654135413541,1362735.206065,-2101.9448569422,2677329.6605796,28.854135413541,0,0
613.0158081613,-242.02062204986,23.658565856586,1362735.206065,-2101.9448569422,2677329.6605796,28.858565856586,0,0
613.01580847531,-242.22241109949,23.66299629963,1362735.206065,-2101.9448569422,2677329.6605796,28.86299629963,0,0
613.01580878932,-242.42420014913,23.667426742674,1362735.206065,-2101.9448569422,2677329.6605796,28.867426742674,0,0
613.01580910333,-242.62598919877,23.671857185719,1362735.206065,-2101.9448569422,2677329.6605796,28.871857185719,0,0
613.01580941734,-242.8277782484,23.676287628763,1362735.206065,-2101.9448569422,2677329.6605796,28.876287628763,0,0
613.01580973135,-243.02956729804,23.680718071807,1362735.206065,-2101.9448569422,2677329.6605796,28.880718071807,0,0
613.01581004536,-243.23135634767,23.685148514851,1362735.206065,-2101.9448569422,2677329.6605796,28.885148514851,0,0
613.01581035938,-243.43314539731,23.689578957896,1362735.206065,-2101.9448569422,2677329.6605796,28.889578957896,0,0
613.01581067339,-243.63493444694,23.69400940094,1362735.206065,-2101.9448569422,2677329.6605796,28.89400940094,0,0
613.0158109874,-243.83672349658,23.698439843984,1362735.206065,-2101.9448569422,2677329.6605796,28.898439843984,0,0
613.01581130141,-244.03851254621,23.702870287029,1362735.206065,-2101.9448569422,2677329.6605796,28.902870287029,0,0
613.01581161542,-244.24030159585,23.707300730073,1362735.206065,-2101.9448569422,2677329.6605796,28.907300730073,0,0
613.01581192943,-244.44209064549,23.711731173117,1362735.206065,-2101.9448569422,2677329.6605796,28.911731173117,0,0
613.01581224344,-244.64387969512,23.716161616162,1362735.206065,-2101.9448569422,2677329.6605796,28.916161616162,0,0
613.01581255745,-244.84566874476,23.720592059206,1362735.206065,-2101.9448569422,2677329.6605796,28.920592059206,0,0
613.01581287146,-245.04745779439,23.72502250225,1362735.206065,-2101.9448569422,2677329.6605796,28.92502250225,0,0
613.01581318547,-245.24924684403,23.729452945295,1362735.206065,-2101.9448569422,2677329.6605796,28.929452945295,0,0
613.01581349948,-245.45103589366,23.733883388339,1362735.206065,-2101.9448569422,2677329.6605796,28.933883388339,0,0
613.0158138135,-245.6528249433,23.738313831383,1362735.206065,-2101.9448569422,2677329.6605796,28.938313831383,0,0
613.01581412751,-245.85461399294,23.742744274427,1362735.206065,-2101.9448569422,2677329.6605796,28.942744274427,0,0
613.01581444152,-246.05640304257,23.747174717472,1362735.206065,-2101.9448569422,2677329.6605796,28.947174717472,0,0
613.01581475553,-246.25819209221,23.751605160516,1362735.206065,-2101.9448569422,2677329.6605796,28.951605160516,0,0
613.01581506954,-246.45998114184,23.75603560356,1362735.206065,-2101.9448569422,2677329.6605796,28.95603560356,0,0
613.01581538355,-246.66177019148,23.760466046605,1362735.206065,-2101.9448569422,2677329.6605796,28.960466046605,0,0
613.01581569756,-246.86355924111,23.764896489649,1362735.206065,-2101.9448569422,2677329.6605796,28.964896489649,0,0
613.01581601157,-247.06534829075,23.769326932693,1362735.206065,-2101.9448569422,2677329.6605796,28.969326932693,0,0
613.01581632558,-247.26713734038,23.773757375738,1362735.206065,-2101.9448569422,2677329.6605796,28.973757375738,0,0
613.01581663959,-247.46892639002,23.778187818782,1362735.206065,-2101.9448569422,2677329.6605796,28.978187818782,0,0
613.0158169536,-247.67071543966,23.782618261826,1362735.206065,-2101.9448569422,2677329.6605796,28.982618261826,0,0
613.01581726762,-247.87250448929,23.78704870487,1362735.206065,-2101.9448569422,2677329.6605796,28.98704870487,0,0
613.01581758163,-248.07429353893,23.791479147915,1362735.206065,-2101.9448569422,2677329.6605796,28.991479147915,0,0
613.01581789564,-248.27608258856,23.795909590959,1362735.206065,-2101.9448569422,2677329.6605796,28.995909590959,0,0
613.01581820965,-248.4778716382,23.800340034003,1362735.206065,-2101.9448569422,2677329.6605796,29.000340034003,0,0
613.01581852366,-248.67966068783,23.804770477048,1362735.206065,-2101.9448569422,2677329.6605796,29.004770477048,0,0
613.01581883767,-248.88144973747,23.809200920092,1362735.206065,-2101.9448569422,2677329.6605796,29.009200920092,0,0
613.01581915168,-249.08323878711,23.813631363136,1362735.206065,-2101.9448569422,2677329.6605796,29.013631363136,0,0
613.01581946569,-249.28502783674,23.818061806181,1362735.206065,-2101.9448569422,2677329.6605796,29.018061806181,0,0
613.0158197797,-249.48681688638,23.822492249225,1362735.206065,-2101.9448569422,2677329.6605796,29.022492249225,0,0
613.01582009371,-249.68860593601,23.826922692269,1362735.206065,-2101.9448569422,2677329.6605796,29.026922692269,0,0
613.01582040773,-249.89039498565,23.831353135314,1362735.206065,-2101.9448569422,2677329.6605796,29.031353135314,0,0
613.01582072174,-250.09218403528,23.835783578358,1362735.206065,-2101.9448569422,2677329.6605796,29.035783578358,0,0
613.01582103575,-250.29397308492,23.840214021402,1362735.206065,-2101.9448569422,2677329.6605796,29.040214021402,0,0
613.01582134976,-250.49576213455,23.844644464446,1362735.206065,-2101.9448569422,2677329.6605796,29.044644464446,0,0
613.01582166377,-250.69755118419,23.849074907491,1362735.206065,-2101.9448569422,2677329.6605796,29.049074907491,0,0
613.01582197778,-250.89934023383,23.853505350535,1362735.206065,-2101.9448569422,2677329.6605796,29.053505350535,0,0
613.01582229179,-251.10112928346,23.857935793579,1362735.206065,-2101.9448569422,2677329.6605796,29.057935793579,0,0
613.0158226058,-251.3029183331,23.862366236624,1362735.206065,-2101.9448569422,2677329.6605796,29.062366236624,0,0
613.01582291981,-251.50470738273,23.866796679668,1362735.206065,-2101.9448569422,2677329.6605796,29.066796679668,0,0
613.01582323382,-251.70649643237,23.871227122712,1362735.206065,-2101.9448569422,2677329.6605796,29.071227122712,0,0
613.01582354783,-251.908285482,23.875657565757,1362735.206065,-2101.9448569422,2677329.6605796,29.075657565757,0,0
613.01582386185,-252.11007453164,23.880088008801,1362735.206065,-2101.9448569422,2677329.6605796,29.080088008801,0,0
613.01582417586,-252.31186358128,23.884518451845,1362735.206065,-2101.9448569422,2677329.6605796,29.084518451845,0,0
613.01582448987,-252.51365263091,23.888948894889,1362735.206065,-2101.9448569422,2677329.6605796,29.088948894889,0,0
613.01582480388,-252.71544168055,23.893379337934,1362735.206065,-2101.9448569422,2677329.6605796,29.093379337934,0,0
613.01582511789,-252.91723073018,23.897809780978,1362735.206065,-2101.9448569422,2677329.6605796,29.097809780978,0,0
613.0158254319,-253.11901977982,23.902240224022,1362735.206065,-2101.9448569422,2677329.6605796,29.102240224022,0,0
613.01582574591,-253.32080882945,23.906670667067,1362735.206065,-2101.9448569422,2677329.6605796,29.106670667067,0,0
613.01582605992,-253.52259787909,23.911101110111,1362735.206065,-2101.9448569422,2677329.6605796,29.111101110111,0,0
613.01582637393,-253.72438692872,23.915531553155,1362735.206065,-2101.9448569422,2677329.6605796,29.115531553155,0,0
613.01582668794,-253.92617597836,23.9199619962,1362735.206065,-2101.9448569422,2677329.6605796,29.1199619962,0,0
613.01582700195,-254.127965028,23.924392439244,1362735.206065,-2101.9448569422,2677329.6605796,29.124392439244,0,0
613.01582731597,-254.32975407763,23.928822882288,1362735.206065,-2101.9448569422,2677329.6605796,29.128822882288,0,0
613.01582762998,-254.53154312727,23.933253325333,1362735.206065,-2101.9448569422,2677329.6605796,29.133253325333,0,0
613.01582794399,-254.7333321769,23.937683768377,1362735.206065,-2101.9448569422,2677329.6605796,29.137683768377,0,0
613.015828258,-254.93512122654,23.942114211421,1362735.206065,-2101.9448569422,2677329.6605796,29.142114211421,0,0
613.01582857201,-255.13691027617,23.946544654465,1362735.206065,-2101.9448569422,2677329.6605796,29.146544654465,0,0
613.01582888602,-255.33869932581,23.95097509751,1362735.206065,-2101.9448569422,2677329.6605796,29.15097509751,0,0
613.01582920003,-255.54048837545,23.955405540554,1362735.206065,-2101.9448569422,2677329.6605796,29.155405540554,0,0
613.01582951404,-255.74227742508,23.959835983598,1362735.206065,-2101.9448569422,2677329.6605796,29.159835983598,0,0
613.01582982805,-255.94406647472,23.964266426643,1362735.206065,-2101.9448569422,2677329.6605796,29.164266426643,0,0
613.01583014206,-256.14585552435,23.968696869687,1362735.206065,-2101.9448569422,2677329.6605796,29.168696869687,0,0
613.01583045608,-256.34764457399,23.973127312731,1362735.206065,-2101.9448569422,2677329.6605796,29.173127312731,0,0
613.01583077009,-256.54943362362,23.977557755776,1362735.206065,-2101.9448569422,2677329.6605796,29.177557755776,0,0
613.0158310841,-256.75122267326,23.98198819882,1362735.206065,-2101.9448569422,2677329.6605796,29.18198819882,0,0
613.01583139811,-256.95301172289,23.986418641864,1362735.206065,-2101.9448569422,2677329.6605796,29.186418641864,0,0
613.01583171212,-257.15480077253,23.990849084908,1362735.206065,-2101.9448569422,2677329.6605796,29.190849084908,0,0
613.01583202613,-257.35658982217,23.995279527953,1362735.206065,-2101.9448569422,2677329.6605796,29.195279527953,0,0
613.01583234014,-257.5583788718,23.999709970997,1362735.206065,-2101.9448569422,2677329.6605796,29.199709970997,0,0
613.01583265415,-257.76016792144,24.004140414041,1362735.206065,-2101.9448569422,2677329.6605796,29.204140414041,0,0
613.01583296816,-257.96195697107,24.008570857086,1362735.206065,-2101.9448569422,2677329.6605796,29.208570857086,0,0
613.01583328217,-258.16374602071,24.01300130013,1362735.206065,-2101.9448569422,2677329.6605796,29.21300130013,0,0
613.01583359618,-258.36553507034,24.017431743174,1362735.206065,-2101.9448569422,2677329.6605796,29.217431743174,0,0
613.0158339102,-258.56732411998,24.021862186219,1362735.206065,-2101.9448569422,2677329.6605796,29.221862186219,0,0
613.01583422421,-258.76911316962,24.026292629263,1362735.206065,-2101.9448569422,2677329.6605796,29.226292629263,0,0
613.01583453822,-258.97090221925,24.030723072307,1362735.206065,-2101.9448569422,2677329.6605796,29.230723072307,0,0
613.01583485223,-259.17269126889,24.035153515352,1362735.206065,-2101.9448569422,2677329.6605796,29.235153515352,0,0
613.01583516624,-259.37448031852,24.039583958396,1362735.206065,-2101.9448569422,2677329.6605796,29.239583958396,0,0
613.01583548025,-259.57626936816,24.04401440144,1362735.206065,-2101.9448569422,2677329.6605796,29.24401440144,0,0
613.01583579426,-259.77805841779,24.048444844484,1362735.206065,-2101.9448569422,2677329.6605796,29.248444844484,0,0
613.01583610827,-259.97984746743,24.052875287529,1362735.206065,-2101.9448569422,2677329.6605796,29.252875287529,0,0
613.01583642228,-260.18163651706,24.057305730573,1362735.206065,-2101.9448569422,2677329.6605796,29.257305730573,0,0
613.01583673629,-260.3834255667,24.061736173617,1362735.206065,-2101.9448569422,2677329.6605796,29.261736173617,0,0
613.01583705031,-260.58521461634,24.066166616662,1362735.206065,-2101.9448569422,2677329.6605796,29.266166616662,0,0
613.01583736432,-260.78700366597,24.070597059706,1362735.206065,-2101.9448569422,2677329.6605796,29.270597059706,0,0
613.01583767833,-260.98879271561,24.07502750275,1362735.206065,-2101.9448569422,2677329.6605796,29.27502750275,0,0
613.01583799234,-261.19058176524,24.079457945795,1362735.206065,-2101.9448569422,2677329.6605796,29.279457945795,0,0
613.01583830635,-261.39237081488,24.083888388839,1362735.206065,-2101.9448569422,2677329.6605796,29.283888388839,0,0
613.01583862036,-261.59415986451,24.088318831883,1362735.206065,-2101.9448569422,2677329.6605796,29.288318831883,0,0
613.01583893437,-261.79594891415,24.092749274927,1362735.206065,-2101.9448569422,2677329.6605796,29.292749274927,0,0
613.01583924838,-261.99773796379,24.097179717972,1362735.206065,-2101.9448569422,2677329.6605796,29.297179717972,0,0
613.01583956239,-262.19952701342,24.101610161016,1362735.206065,-2101.9448569422,2677329.6605796,29.301610161016,0,0
613.0158398764,-262.40131606306,24.10604060406,1362735.206065,-2101.9448569422,2677329.6605796,29.30604060406,0,0
613.01584019041,-262.60310511269,24.110471047105,1362735.206065,-2101.9448569422,2677329.6605796,29.310471047105,0,0
613.01584050443,-262.80489416233,24.114901490149,1362735.206065,-2101.9448569422,2677329.6605796,29.314901490149,0,0
613.01584081844,-263.00668321196,24.119331933193,1362735.206065,-2101.9448569422,2677329.6605796,29.319331933193,0,0
613.01584113245,-263.2084722616,24.123762376238,1362735.206065,-2101.9448569422,2677329.6605796,29.323762376238,0,0
613.01584144646,-263.41026131123,24.128192819282,1362735.206065,-2101.9448569422,2677329.6605796,29.328192819282,0,0
613.01584176047,-263.61205036087,24.132623262326,1362735.206065,-2101.9448569422,2677329.6605796,29.332623262326,0,0
613.01584207448,-263.81383941051,24.137053705371,1362735.206065,-2101.9448569422,2677329.6605796,29.337053705371,0,0
613.01584238849,-264.01562846014,24.141484148415,1362735.206065,-2101.9448569422,2677329.6605796,29.341484148415,0,0
613.0158427025,-264.21741750978,24.145914591459,1362735.206065,-2101.9448569422,2677329.6605796,29.345914591459,0,0
613.01584301651,-264.41920655941,24.150345034503,1362735.206065,-2101.9448569422,2677329.6605796,29.350345034503,0,0
613.01584333052,-264.62099560905,24.154775477548,1362735.206065,-2101.9448569422,2677329.6605796,29.354775477548,0,0
613.01584364453,-264.82278465868,24.159205920592,1362735.206065,-2101.9448569422,2677329.6605796,29.359205920592,0,0
613.01584395855,-265.02457370832,24.163636363636,1362735.206065,-2101.9448569422,2677329.6605796,29.363636363636,0,0
613.01584427256,-265.22636275796,24.168066806681,1362735.206065,-2101.9448569422,2677329.6605796,29.368066806681,0,0
613.01584458657,-265.42815180759,24.172497249725,1362735.206065,-2101.9448569422,2677329.6605796,29.372497249725,0,0
613.01584490058,-265.62994085723,24.176927692769,1362735.206065,-2101.9448569422,2677329.6605796,29.376927692769,0,0
613.01584521459,-265.83172990686,24.181358135814,1362735.206065,-2101.9448569422,2677329.6605796,29.381358135814,0,0
613.0158455286,-266.0335189565,24.185788578858,1362735.206065,-2101.9448569422,2677329.6605796,29.385788578858,0,0
613.01584584261,-266.23530800613,24.190219021902,1362735.206065,-2101.9448569422,2677329.6605796,29.390219021902,0,0
613.01584615662,-266.43709705577,24.194649464946,1362735.206065,-2101.9448569422,2677329.6605796,29.394649464946,0,0
613.01584647063,-266.6388861054,24.199079907991,1362735.206065,-2101.9448569422,2677329.6605796,29.399079907991,0,0
613.01584678464,-266.84067515504,24.203510351035,1362735.206065,-2101.9448569422,2677329.6605796,29.403510351035,0,0
613.01584709866,-267.04246420468,24.207940794079,1362735.206065,-2101.9448569422,2677329.6605796,29.407940794079,0,0
613.01584741267,-267.24425325431,24.212371237124,1362735.206065,-2101.9448569422,2677329.6605796,29.412371237124,0,0
613.01584772668,-267.44604230395,24.216801680168,1362735.206065,-2101.9448569422,2677329.6605796,29.416801680168,0,0
613.01584804069,-267.64783135358,24.221232123212,1362735.206065,-2101.9448569422,2677329.6605796,29.421232123212,0,0
613.0158483547,-267.84962040322,24.225662566257,1362735.206065,-2101.9448569422,2677329.6605796,29.425662566257,0,0
613.01584866871,-268.05140945285,24.230093009301,1362735.206065,-2101.9448569422,2677329.6605796,29.430093009301,0,0
613.01584898272,-268.25319850249,24.234523452345,1362735.206065,-2101.9448569422,2677329.6605796,29.434523452345,0,0
613.01584929673,-268.45498755213,24.23895389539,1362735.206065,-2101.9448569422,2677329.6605796,29.43895389539,0,0
613.01584961074,-268.65677660176,24.243384338434,1362735.206065,-2101.9448569422,2677329.6605796,29.443384338434,0,0
613.01584992475,-268.8585656514,24.247814781478,1362735.206065,-2101.9448569422,2677329.6605796,29.447814781478,0,0
613.01585023876,-269.06035470103,24.252245224522,1362735.206065,-2101.9448569422,2677329.6605796,29.452245224522,0,0
613.01585055278,-269.26214375067,24.256675667567,1362735.206065,-2101.9448569422,2677329.6605796,29.456675667567,0,0
613.01585086679,-269.4639328003,24.261106110611,1362735.206065,-2101.9448569422,2677329.6605796,29.461106110611,0,0
613.0158511808,-269.66572184994,24.265536553655,1362735.206065,-2101.9448569422,2677329.6605796,29.465536553655,0,0
613.01585149481,-269.86751089957,24.2699669967,1362735.206065,-2101.9448569422,2677329.6605796,29.4699669967,0,0
613.01585180882,-270.06929994921,24.274397439744,1362735.206065,-2101.9448569422,2677329.6605796,29.474397439744,0,0
613.01585212283,-270.27108899885,24.278827882788,1362735.206065,-2101.9448569422,2677329.6605796,29.478827882788,0,0
613.01585243684,-270.47287804848,24.283258325833,1362735.206065,-2101.9448569422,2677329.6605796,29.483258325833,0,0
613.01585275085,-270.67466709812,24.287688768877,1362735.206065,-2101.9448569422,2677329.6605796,29.487688768877,0,0
613.01585306486,-270.87645614775,24.292119211921,1362735.206065,-2101.9448569422,2677329.6605796,29.492119211921,0,0
613.01585337887,-271.07824519739,24.296549654965,1362735.206065,-2101.9448569422,2677329.6605796,29.496549654965,0,0
613.01585369289,-271.28003424702,24.30098009801,1362735.206065,-2101.9448569422,2677329.6605796,29.50098009801,0,0
613.0158540069,-271.48182329666,24.305410541054,1362735.206065,-2101.9448569422,2677329.6605796,29.505410541054,0,0
613.01585432091,-271.6836123463,24.309840984098,1362735.206065,-2101.9448569422,2677329.6605796,29.509840984098,0,0
613.01585463492,-271.88540139593,24.314271427143,1362735.206065,-2101.9448569422,2677329.6605796,29.514271427143,0,0
613.01585494893,-272.08719044557,24.318701870187,1362735.206065,-2101.9448569422,2677329.6605796,29.518701870187,0,0
613.01585526292,-272.28897949481,24.323132313231,1361199.9043397,1120.4096854843,2672614.1851398,29.523132313231,0,0
613.01585557686,-272.49076854302,24.327562756276,1361199.9043397,1120.4096854843,2672614.1851398,29.527562756276,0,0
613.01585589081,-272.69255759122,24.33199319932,1361199.9043397,1120.4096854843,2672614.1851398,29.53199319932,0,0
613.01585620475,-272.89434663943,24.336423642364,1361199.9043397,1120.4096854843,2672614.1851398,29.536423642364,0,0
613.01585651869,-273.09613568763,24.340854085409,1361199.9043397,1120.4096854843,2672614.1851398,29.540854085409,0,0
613.01585683264,-273.29792473584,24.345284528453,1361199.9043397,1120.4096854843,2672614.1851398,29.545284528453,0,0
613.01585714658,-273.49971378404,24.349714971497,1361199.9043397,1120.4096854843,2672614.1851398,29.549714971497,0,0
613.01585746052,-273.70150283225,24.354145414541,1361199.9043397,1120.4096854843,2672614.1851398,29.554145414541,0,0
613.01585777447,-273.90329188045,24.358575857586,1361199.9043397,1120.4096854843,2672614.1851398,29.558575857586,0,0
613.01585808841,-274.10508092866,24.36300630063,1361199.9043397,1120.4096854843,2672614.1851398,29.56300630063,0,0
613.01585840235,-274.30686997686,24.367436743674,1361199.9043397,1120.4096854843,2672614.1851398,29.567436743674,0,0
613.0158587163,-274.50865902507,24.371867186719,1361199.9043397,1120.4096854843,2672614.1851398,29.571867186719,0,0
613.01585903024,-274.71044807327,24.376297629763,1361199.9043397,1120.4096854843,2672614.1851398,29.576297629763,0,0
613.01585934418,-274.91223712148,24.380728072807,1361199.9043397,1120.4096854843,2672614.1851398,29.580728072807,0,0
613.01585965813,-275.11402616968,24.385158515852,1361199.9043397,1120.4096854843,2672614.1851398,29.585158515852,0,0
613.01585997207,-275.31581521789,24.389588958896,1361199.9043397,1120.4096854843,2672614.1851398,29.589588958896,0,0
613.01586028601,-275.51760426609,24.39401940194,1361199.9043397,1120.4096854843,2672614.1851398,29.59401940194,0,0
613.01586059995,-275.7193933143,24.398449844984,1361199.9043397,1120.4096854843,2672614.1851398,29.598449844984,0,0
613.0158609139,-275.9211823625,24.402880288029,1361199.9043397,1120.4096854843,2672614.1851398,29.602880288029,0,0
613.01586122784,-276.12297141071,24.407310731073,1361199.9043397,1120.4096854843,2672614.1851398,29.607310731073,0,0
613.01586154178,-276.32476045891,24.411741174117,1361199.9043397,1120.4096854843,2672614.1851398,29.611741174117,0,0
613.01586185573,-276.52654950712,24.416171617162,1361199.9043397,1120.4096854843,2672614.1851398,29.616171617162,0,0
613.01586216967,-276.72833855532,24.420602060206,1361199.9043397,1120.4096854843,2672614.1851398,29.620602060206,0,0
613.01586248361,-276.93012760353,24.42503250325,1361199.9043397,1120.4096854843,2672614.1851398,29.62503250325,0,0
613.01586279756,-277.13191665173,24.429462946295,1361199.9043397,1120.4096854843,2672614.1851398,29.629462946295,0,0
613.0158631115,-277.33370569994,24.433893389339,1361199.9043397,1120.4096854843,2672614.1851398,29.633893389339,0,0
613.01586342544,-277.53549474814,24.438323832383,1361199.9043397,1120.4096854843,2672614.1851398,29.638323832383,0,0
613.01586373939,-277.73728379635,24.442754275428,1361199.9043397,1120.4096854843,2672614.1851398,29.642754275428,0,0
613.01586405333,-277.93907284455,24.447184718472,1361199.9043397,1120.4096854843,2672614.1851398,29.647184718472,0,0
613.01586436727,-278.14086189276,24.451615161516,1361199.9043397,1120.4096854843,2672614.1851398,29.651615161516,0,0
613.01586468122,-278.34265094096,24.45604560456,1361199.9043397,1120.4096854843,2672614.1851398,29.65604560456,0,0
613.01586499516,-278.54443998917,24.460476047605,1361199.9043397,1120.4096854843,2672614.1851398,29.660476047605,0,0
613.0158653091,-278.74622903737,24.464906490649,1361199.9043397,1120.4096854843,2672614.1851398,29.664906490649,0,0
613.01586562304,-278.94801808558,24.469336933693,1361199.9043397,1120.4096854843,2672614.1851398,29.669336933693,0,0
613.01586593699,-279.14980713378,24.473767376738,1361199.9043397,1120.4096854843,2672614.1851398,29.673767376738,0,0
613.01586625093,-279.35159618199,24.478197819782,1361199.9043397,1120.4096854843,2672614.1851398,29.678197819782,0,0
613.01586656487,-279.55338523019,24.482628262826,1361199.9043397,1120.4096854843,2672614.1851398,29.682628262826,0,0
613.01586687882,-279.7551742784,24.487058705871,1361199.9043397,1120.4096854843,2672614.1851398,29.687058705871,0,0
613.01586719276,-279.9569633266,24.491489148915,1361199.9043397,1120.4096854843,2672614.1851398,29.691489148915,0,0
613.0158675067,-280.15875237481,24.495919591959,1361199.9043397,1120.4096854843,2672614.1851398,29.695919591959,0,0
613.01586782065,-280.36054142301,24.500350035003,1361199.9043397,1120.4096854843,2672614.1851398,29.700350035003,0,0
613.01586813459,-280.56233047122,24.504780478048,1361199.9043397,1120.4096854843,2672614.1851398,29.704780478048,0,0
613.01586844853,-280.76411951942,24.509210921092,1361199.9043397,1120.4096854843,2672614.1851398,29.709210921092,0,0
613.01586876248,-280.96590856763,24.513641364136,1361199.9043397,1120.4096854843,2672614.1851398,29.713641364136,0,0
613.01586907642,-281.16769761583,24.518071807181,1361199.9043397,1120.4096854843,2672614.1851398,29.718071807181,0,0
613.01586939036,-281.36948666404,24.522502250225,1361199.9043397,1120.4096854843,2672614.1851398,29.722502250225,0,0
613.01586970431,-281.57127571225,24.526932693269,1361199.9043397,1120.4096854843,2672614.1851398,29.726932693269,0,0
613.01587001825,-281.77306476045,24.531363136314,1361199.9043397,1120.4096854843,2672614.1851398,29.731363136314,0,0
613.01587033219,-281.97485380866,24.535793579358,1361199.9043397,1120.4096854843,2672614.1851398,29.735793579358,0,0
613.01587064613,-282.17664285686,24.540224022402,1361199.9043397,1120.4096854843,2672614.1851398,29.740224022402,0,0
613.01587096008,-282.37843190507,24.544654465447,1361199.9043397,1120.4096854843,2672614.1851398,29.744654465447,0,0
613.01587127402,-282.58022095327,24.549084908491,1361199.9043397,1120.4096854843,2672614.1851398,29.749084908491,0,0
613.01587158796,-282.78201000148,24.553515351535,1361199.9043397,1120.4096854843,2672614.1851398,29.753515351535,0,0
613.01587190191,-282.98379904968,24.557945794579,1361199.9043397,1120.4096854843,2672614.1851398,29.757945794579,0,0
613.01587221585,-283.18558809789,24.562376237624,1361199.9043397,1120.4096854843,2672614.1851398,29.762376237624,0,0
613.01587252979,-283.38737714609,24.566806680668,1361199.9043397,1120.4096854843,2672614.1851398,29.766806680668,0,0
613.01587284374,-283.5891661943,24.571237123712,1361199.9043397,1120.4096854843,2672614.1851398,29.771237123712,0,0
613.01587315768,-283.7909552425,24.575667566757,1361199.9043397,1120.4096854843,2672614.1851398,29.775667566757,0,0
613.01587347162,-283.99274429071,24.580098009801,1361199.9043397,1120.4096854843,2672614.1851398,29.780098009801,0,0
613.01587378557,-284.19453333891,24.584528452845,1361199.9043397,1120.4096854843,2672614.1851398,29.784528452845,0,0
613.01587409951,-284.39632238712,24.58895889589,1361199.9043397,1120.4096854843,2672614.1851398,29.78895889589,0,0
613.01587441345,-284.59811143532,24.593389338934,1361199.9043397,1120.4096854843,2672614.1851398,29.793389338934,0,0
613.0158747274,-284.79990048353,24.597819781978,1361199.9043397,1120.4096854843,2672614.1851398,29.797819781978,0,0
613.01587504134,-285.00168953173,24.602250225022,1361199.9043397,1120.4096854843,2672614.1851398,29.802250225022,0,0
613.01587535528,-285.20347857994,24.606680668067,1361199.9043397,1120.4096854843,2672614.1851398,29.806680668067,0,0
613.01587566923,-285.40526762814,24.611111111111,1361199.9043397,1120.4096854843,2672614.1851398,29.811111111111,0,0
613.01587598317,-285.60705667635,24.615541554155,1361199.9043397,1120.4096854843,2672614.1851398,29.815541554155,0,0
613.01587629711,-285.80884572455,24.6199719972,1361199.9043397,1120.4096854843,2672614.1851398,29.8199719972,0,0
613.01587661105,-286.01063477276,24.624402440244,1361199.9043397,1120.4096854843,2672614.1851398,29.824402440244,0,0
613.015876925,-286.21242382096,24.628832883288,1361199.9043397,1120.4096854843,2672614.1851398,29.828832883288,0,0
613.01587723894,-286.41421286917,24.633263326333,1361199.9043397,1120.4096854843,2672614.1851398,29.833263326333,0,0
613.01587755288,-286.61600191737,24.637693769377,1361199.9043397,1120.4096854843,2672614.1851398,29.837693769377,0,0
613.01587786683,-286.81779096558,24.642124212421,1361199.9043397,1120.4096854843,2672614.1851398,29.842124212421,0,0
613.01587818077,-287.01958001378,24.646554655466,1361199.9043397,1120.4096854843,2672614.1851398,29.846554655466,0,0
613.01587849471,-287.22136906199,24.65098509851,1361199.9043397,1120.4096854843,2672614.1851398,29.85098509851,0,0
613.01587880866,-287.42315811019,24.655415541554,1361199.9043397,1120.4096854843,2672614.1851398,29.855415541554,0,0
613.0158791226,-287.6249471584,24.659845984598,1361199.9043397,1120.4096854843,2672614.1851398,29.859845984598,0,0
613.01587943654,-287.8267362066,24.664276427643,1361199.9043397,1120.4096854843,2672614.1851398,29.864276427643,0,0
613.01587975049,-288.02852525481,24.668706870687,1361199.9043397,1120.4096854843,2672614.1851398,29.868706870687,0,0
613.01588006443,-288.23031430301,24.673137313731,1361199.9043397,1120.4096854843,2672614.1851398,29.873137313731,0,0
613.01588037837,-288.43210335122,24.677567756776,1361199.9043397,1120.4096854843,2672614.1851398,29.877567756776,0,0
613.01588069232,-288.63389239942,24.68199819982,1361199.9043397,1120.4096854843,2672614.1851398,29.88199819982,0,0
613.01588100626,-288.83568144763,24.686428642864,1361199.9043397,1120.4096854843,2672614.1851398,29.886428642864,0,0
613.0158813202,-289.03747049583,24.690859085909,1361199.9043397,1120.4096854843,2672614.1851398,29.890859085909,0,0
613.01588163414,-289.23925954404,24.695289528953,1361199.9043397,1120.4096854843,2672614.1851398,29.895289528953,0,0
613.01588194809,-289.44104859224,24.699719971997,1361199.9043397,1120.4096854843,2672614.1851398,29.899719971997,0,0
613.01588226203,-289.64283764045,24.704150415042,1361199.9043397,1120.4096854843,2672614.1851398,29.904150415041,0,0
613.01588257597,-289.84462668865,24.708580858086,1361199.9043397,1120.4096854843,2672614.1851398,29.908580858086,0,0
613.01588288992,-290.04641573686,24.71301130113,1361199.9043397,1120.4096854843,2672614.1851398,29.91301130113,0,0
613.01588320386,-290.24820478506,24.717441744174,1361199.9043397,1120.4096854843,2672614.1851398,29.917441744174,0,0
613.0158835178,-290.44999383327,24.721872187219,1361199.9043397,1120.4096854843,2672614.1851398,29.921872187219,0,0
613.01588383175,-290.65178288147,24.726302630263,1361199.9043397,1120.4096854843,2672614.1851398,29.926302630263,0,0
613.01588414569,-290.85357192968,24.730733073307,1361199.9043397,1120.4096854843,2672614.1851398,29.930733073307,0,0
613.01588445963,-291.05536097788,24.735163516352,1361199.9043397,1120.4096854843,2672614.1851398,29.935163516352,0,0
613.01588477358,-291.25715002609,24.739593959396,1361199.9043397,1120.4096854843,2672614.1851398,29.939593959396,0,0
613.01588508752,-291.45893907429,24.74402440244,1361199.9043397,1120.4096854843,2672614.1851398,29.94402440244,0,0
613.01588540146,-291.6607281225,24.748454845485,1361199.9043397,1120.4096854843,2672614.1851398,29.948454845485,0,0
613.01588571541,-291.8625171707,24.752885288529,1361199.9043397,1120.4096854843,2672614.1851398,29.952885288529,0,0
613.01588602935,-292.06430621891,24.757315731573,1361199.9043397,1120.4096854843,2672614.1851398,29.957315731573,0,0
613.01588634329,-292.26609526712,24.761746174617,1361199.9043397,1120.4096854843,2672614.1851398,29.961746174617,0,0
613.01588665724,-292.46788431532,24.766176617662,1361199.9043397,1120.4096854843,2672614.1851398,29.966176617662,0,0
613.01588697118,-292.66967336352,24.770607060706,1361199.9043397,1120.4096854843,2672614.1851398,29.970607060706,0,0
613.01588728512,-292.87146241173,24.77503750375,1361199.9043397,1120.4096854843,2672614.1851398,29.97503750375,0,0
613.01588759906,-293.07325145994,24.779467946795,1361199.9043397,1120.4096854843,2672614.1851398,29.979467946795,0,0
613.01588791301,-293.27504050814,24.783898389839,1361199.9043397,1120.4096854843,2672614.1851398,29.983898389839,0,0
613.01588822695,-293.47682955635,24.788328832883,1361199.9043397,1120.4096854843,2672614.1851398,29.988328832883,0,0
613.01588854089,-293.67861860455,24.792759275928,1361199.9043397,1120.4096854843,2672614.1851398,29.992759275928,0,0
613.01588885484,-293.88040765276,24.797189718972,1361199.9043397,1120.4096854843,2672614.1851398,29.997189718972,0,0
613.01588916878,-294.08219670096,24.801620162016,1361199.9043397,1120.4096854843,2672614.1851398,30.001620162016,0,0
613.0158894828,-294.28398575032,24.806050605061,1360640.9025283,-1758.4015265608,2668362.5197882,30.006050605061,0,0
613.01588979683,-294.48577479988,24.810481048105,1360640.9025283,-1758.4015265608,2668362.5197882,30.010481048105,0,0
613.01589011086,-294.68756384945,24.814911491149,1360640.9025283,-1758.4015265608,2668362.5197882,30.014911491149,0,0
613.0158904249,-294.88935289901,24.819341934193,1360640.9025283,-1758.4015265608,2668362.5197882,30.019341934193,0,0
613.01589073893,-295.09114194858,24.823772377238,1360640.9025283,-1758.4015265608,2668362.5197882,30.023772377238,0,0
613.01589105296,-295.29293099815,24.828202820282,1360640.9025283,-1758.4015265608,2668362.5197882,30.028202820282,0,0
613.015891367,-295.49472004771,24.832633263326,1360640.9025283,-1758.4015265608,2668362.5197882,30.032633263326,0,0
613.01589168103,-295.69650909728,24.837063706371,1360640.9025283,-1758.4015265608,2668362.5197882,30.037063706371,0,0
613.01589199506,-295.89829814684,24.841494149415,1360640.9025283,-1758.4015265608,2668362.5197882,30.041494149415,0,0
613.01589230909,-296.10008719641,24.845924592459,1360640.9025283,-1758.4015265608,2668362.5197882,30.045924592459,0,0
613.01589262313,-296.30187624598,24.850355035504,1360640.9025283,-1758.4015265608,2668362.5197882,30.050355035504,0,0
613.01589293716,-296.50366529554,24.854785478548,1360640.9025283,-1758.4015265608,2668362.5197882,30.054785478548,0,0
613.01589325119,-296.70545434511,24.859215921592,1360640.9025283,-1758.4015265608,2668362.5197882,30.059215921592,0,0
613.01589356523,-296.90724339468,24.863646364636,1360640.9025283,-1758.4015265608,2668362.5197882,30.063646364636,0,0
613.01589387926,-297.10903244424,24.868076807681,1360640.9025283,-1758.4015265608,2668362.5197882,30.068076807681,0,0
613.01589419329,-297.31082149381,24.872507250725,1360640.9025283,-1758.4015265608,2668362.5197882,30.072507250725,0,0
613.01589450732,-297.51261054337,24.876937693769,1360640.9025283,-1758.4015265608,2668362.5197882,30.076937693769,0,0
613.01589482136,-297.71439959294,24.881368136814,1360640.9025283,-1758.4015265608,2668362.5197882,30.081368136814,0,0
613.01589513539,-297.91618864251,24.885798579858,1360640.9025283,-1758.4015265608,2668362.5197882,30.085798579858,0,0
613.01589544942,-298.11797769207,24.890229022902,1360640.9025283,-1758.4015265608,2668362.5197882,30.090229022902,0,0
613.01589576345,-298.31976674164,24.894659465947,1360640.9025283,-1758.4015265608,2668362.5197882,30.094659465947,0,0
613.01589607749,-298.5215557912,24.899089908991,1360640.9025283,-1758.4015265608,2668362.5197882,30.099089908991,0,0
613.01589639152,-298.72334484077,24.903520352035,1360640.9025283,-1758.4015265608,2668362.5197882,30.103520352035,0,0
613.01589670555,-298.92513389034,24.90795079508,1360640.9025283,-1758.4015265608,2668362.5197882,30.10795079508,0,0
613.01589701959,-299.1269229399,24.912381238124,1360640.9025283,-1758.4015265608,2668362.5197882,30.112381238124,0,0
613.01589733362,-299.32871198947,24.916811681168,1360640.9025283,-1758.4015265608,2668362.5197882,30.116811681168,0,0
613.01589764765,-299.53050103904,24.921242124212,1360640.9025283,-1758.4015265608,2668362.5197882,30.121242124212,0,0
613.01589796168,-299.7322900886,24.925672567257,1360640.9025283,-1758.4015265608,2668362.5197882,30.125672567257,0,0
613.01589827572,-299.93407913817,24.930103010301,1360640.9025283,-1758.4015265608,2668362.5197882,30.130103010301,0,0
613.01589858975,-300.13586818773,24.934533453345,1360640.9025283,-1758.4015265608,2668362.5197882,30.134533453345,0,0
613.01589890378,-300.3376572373,24.93896389639,1360640.9025283,-1758.4015265608,2668362.5197882,30.13896389639,0,0
613.01589921782,-300.53944628687,24.943394339434,1360640.9025283,-1758.4015265608,2668362.5197882,30.143394339434,0,0
613.01589953185,-300.74123533643,24.947824782478,1360640.9025283,-1758.4015265608,2668362.5197882,30.147824782478,0,0
613.01589984588,-300.943024386,24.952255225523,1360640.9025283,-1758.4015265608,2668362.5197882,30.152255225523,0,0
613.01590015991,-301.14481343556,24.956685668567,1360640.9025283,-1758.4015265608,2668362.5197882,30.156685668567,0,0
613.01590047395,-301.34660248513,24.961116111611,1360640.9025283,-1758.4015265608,2668362.5197882,30.161116111611,0,0
613.01590078798,-301.5483915347,24.965546554655,1360640.9025283,-1758.4015265608,2668362.5197882,30.165546554655,0,0
613.01590110201,-301.75018058426,24.9699769977,1360640.9025283,-1758.4015265608,2668362.5197882,30.1699769977,0,0
613.01590141604,-301.95196963383,24.974407440744,1360640.9025283,-1758.4015265608,2668362.5197882,30.174407440744,0,0
613.01590173008,-302.1537586834,24.978837883788,1360640.9025283,-1758.4015265608,2668362.5197882,30.178837883788,0,0
613.01590204411,-302.35554773296,24.983268326833,1360640.9025283,-1758.4015265608,2668362.5197882,30.183268326833,0,0
613.01590235814,-302.55733678253,24.987698769877,1360640.9025283,-1758.4015265608,2668362.5197882,30.187698769877,0,0
613.01590267218,-302.75912583209,24.992129212921,1360640.9025283,-1758.4015265608,2668362.5197882,30.192129212921,0,0
613.01590298621,-302.96091488166,24.996559655966,1360640.9025283,-1758.4015265608,2668362.5197882,30.196559655966,0,0
613.01590330024,-303.16270393123,25.00099009901,1360640.9025283,-1758.4015265608,2668362.5197882,30.20099009901,0,0
613.01590361427,-303.36449298079,25.005420542054,1360640.9025283,-1758.4015265608,2668362.5197882,30.205420542054,0,0
613.01590392831,-303.56628203036,25.009850985099,1360640.9025283,-1758.4015265608,2668362.5197882,30.209850985099,0,0
613.01590424234,-303.76807107993,25.014281428143,1360640.9025283,-1758.4015265608,2668362.5197882,30.214281428143,0,0
613.01590455637,-303.96986012949,25.018711871187,1360640.9025283,-1758.4015265608,2668362.5197882,30.218711871187,0,0
613.01590487041,-304.17164917906,25.023142314231,1360640.9025283,-1758.4015265608,2668362.5197882,30.223142314231,0,0
613.01590518444,-304.37343822862,25.027572757276,1360640.9025283,-1758.4015265608,2668362.5197882,30.227572757276,0,0
613.01590549847,-304.57522727819,25.03200320032,1360640.9025283,-1758.4015265608,2668362.5197882,30.23200320032,0,0
613.0159058125,-304.77701632776,25.036433643364,1360640.9025283,-1758.4015265608,2668362.5197882,30.236433643364,0,0
613.01590612654,-304.97880537732,25.040864086409,1360640.9025283,-1758.4015265608,2668362.5197882,30.240864086409,0,0
613.01590644057,-305.18059442689,25.045294529453,1360640.9025283,-1758.4015265608,2668362.5197882,30.245294529453,0,0
613.0159067546,-305.38238347645,25.049724972497,1360640.9025283,-1758.4015265608,2668362.5197882,30.249724972497,0,0
613.01590706863,-305.58417252602,25.054155415542,1360640.9025283,-1758.4015265608,2668362.5197882,30.254155415542,0,0
613.01590738267,-305.78596157559,25.058585858586,1360640.9025283,-1758.4015265608,2668362.5197882,30.258585858586,0,0
613.0159076967,-305.98775062515,25.06301630163,1360640.9025283,-1758.4015265608,2668362.5197882,30.26301630163,0,0
613.01590801073,-306.18953967472,25.067446744674,1360640.9025283,-1758.4015265608,2668362.5197882,30.267446744674,0,0
613.01590832477,-306.39132872428,25.071877187719,1360640.9025283,-1758.4015265608,2668362.5197882,30.271877187719,0,0
613.0159086388,-306.59311777385,25.076307630763,1360640.9025283,-1758.4015265608,2668362.5197882,30.276307630763,0,0
613.01590895283,-306.79490682342,25.080738073807,1360640.9025283,-1758.4015265608,2668362.5197882,30.280738073807,0,0
613.01590926686,-306.99669587298,25.085168516852,1360640.9025283,-1758.4015265608,2668362.5197882,30.285168516852,0,0
613.0159095809,-307.19848492255,25.089598959896,1360640.9025283,-1758.4015265608,2668362.5197882,30.289598959896,0,0
613.01590989493,-307.40027397212,25.09402940294,1360640.9025283,-1758.4015265608,2668362.5197882,30.29402940294,0,0
613.01591020896,-307.60206302168,25.098459845985,1360640.9025283,-1758.4015265608,2668362.5197882,30.298459845985,0,0
613.015910523,-307.80385207125,25.102890289029,1360640.9025283,-1758.4015265608,2668362.5197882,30.302890289029,0,0
613.01591083703,-308.00564112081,25.107320732073,1360640.9025283,-1758.4015265608,2668362.5197882,30.307320732073,0,0
613.01591115106,-308.20743017038,25.111751175118,1360640.9025283,-1758.4015265608,2668362.5197882,30.311751175118,0,0
613.01591146509,-308.40921921995,25.116181618162,1360640.9025283,-1758.4015265608,2668362.5197882,30.316181618162,0,0
613.01591177913,-308.61100826951,25.120612061206,1360640.9025283,-1758.4015265608,2668362.5197882,30.320612061206,0,0
613.01591209316,-308.81279731908,25.12504250425,1360640.9025283,-1758.4015265608,2668362.5197882,30.32504250425,0,0
613.01591240719,-309.01458636864,25.129472947295,1360640.9025283,-1758.4015265608,2668362.5197882,30.329472947295,0,0
613.01591272122,-309.21637541821,25.133903390339,1360640.9025283,-1758.4015265608,2668362.5197882,30.333903390339,0,0
613.01591303526,-309.41816446778,25.138333833383,1360640.9025283,-1758.4015265608,2668362.5197882,30.338333833383,0,0
613.01591334929,-309.61995351734,25.142764276428,1360640.9025283,-1758.4015265608,2668362.5197882,30.342764276428,0,0
613.01591366332,-309.82174256691,25.147194719472,1360640.9025283,-1758.4015265608,2668362.5197882,30.347194719472,0,0
613.01591397736,-310.02353161648,25.151625162516,1360640.9025283,-1758.4015265608,2668362.5197882,30.351625162516,0,0
613.01591429139,-310.22532066604,25.156055605561,1360640.9025283,-1758.4015265608,2668362.5197882,30.356055605561,0,0
613.01591460542,-310.42710971561,25.160486048605,1360640.9025283,-1758.4015265608,2668362.5197882,30.360486048605,0,0
613.01591491945,-310.62889876517,25.164916491649,1360640.9025283,-1758.4015265608,2668362.5197882,30.364916491649,0,0
613.01591523349,-310.83068781474,25.169346934693,1360640.9025283,-1758.4015265608,2668362.5197882,30.369346934693,0,0
613.01591554752,-311.03247686431,25.173777377738,1360640.9025283,-1758.4015265608,2668362.5197882,30.373777377738,0,0
613.01591586155,-311.23426591387,25.178207820782,1360640.9025283,-1758.4015265608,2668362.5197882,30.378207820782,0,0
613.01591617559,-311.43605496344,25.182638263826,1360640.9025283,-1758.4015265608,2668362.5197882,30.382638263826,0,0
613.01591648962,-311.637844013,25.187068706871,1360640.9025283,-1758.4015265608,2668362.5197882,30.387068706871,0,0
613.01591680365,-311.83963306257,25.191499149915,1360640.9025283,-1758.4015265608,2668362.5197882,30.391499149915,0,0
613.01591711768,-312.04142211214,25.195929592959,1360640.9025283,-1758.4015265608,2668362.5197882,30.395929592959,0,0
613.01591743172,-312.2432111617,25.200360036004,1360640.9025283,-1758.4015265608,2668362.5197882,30.400360036004,0,0
613.01591774575,-312.44500021127,25.204790479048,1360640.9025283,-1758.4015265608,2668362.5197882,30.404790479048,0,0
613.01591805978,-312.64678926084,25.209220922092,1360640.9025283,-1758.4015265608,2668362.5197882,30.409220922092,0,0
613.01591837381,-312.8485783104,25.213651365137,1360640.9025283,-1758.4015265608,2668362.5197882,30.413651365137,0,0
613.01591868785,-313.05036735997,25.218081808181,1360640.9025283,-1758.4015265608,2668362.5197882,30.418081808181,0,0
613.01591900188,-313.25215640953,25.222512251225,1360640.9025283,-1758.4015265608,2668362.5197882,30.422512251225,0,0
613.01591931591,-313.4539454591,25.226942694269,1360640.9025283,-1758.4015265608,2668362.5197882,30.426942694269,0,0
613.01591962995,-313.65573450867,25.231373137314,1360640.9025283,-1758.4015265608,2668362.5197882,30.431373137314,0,0
613.01591994398,-313.85752355823,25.235803580358,1360640.9025283,-1758.4015265608,2668362.5197882,30.435803580358,0,0
613.01592025801,-314.0593126078,25.240234023402,1360640.9025283,-1758.4015265608,2668362.5197882,30.440234023402,0,0
613.01592057204,-314.26110165737,25.244664466447,1360640.9025283,-1758.4015265608,2668362.5197882,30.444664466447,0,0
613.01592088608,-314.46289070693,25.249094909491,1360640.9025283,-1758.4015265608,2668362.5197882,30.449094909491,0,0
613.01592120011,-314.6646797565,25.253525352535,1360640.9025283,-1758.4015265608,2668362.5197882,30.453525352535,0,0
613.01592151414,-314.86646880606,25.25795579558,1360640.9025283,-1758.4015265608,2668362.5197882,30.45795579558,0,0
613.01592182818,-315.06825785563,25.262386238624,1360640.9025283,-1758.4015265608,2668362.5197882,30.462386238624,0,0
613.01592214221,-315.2700469052,25.266816681668,1360640.9025283,-1758.4015265608,2668362.5197882,30.466816681668,0,0
613.01592245624,-315.47183595476,25.271247124712,1360640.9025283,-1758.4015265608,2668362.5197882,30.471247124712,0,0
613.01592277027,-315.67362500433,25.275677567757,1360640.9025283,-1758.4015265608,2668362.5197882,30.475677567757,0,0
613.01592308431,-315.87541405389,25.280108010801,1360640.9025283,-1758.4015265608,2668362.5197882,30.480108010801,0,0
613.01592339834,-316.07720310346,25.284538453845,1360640.9025283,-1758.4015265608,2668362.5197882,30.484538453845,0,0
613.01592371237,-316.27899215303,25.28896889689,1360640.9025283,-1758.4015265608,2668362.5197882,30.48896889689,0,0
613.0159240264,-316.48078120259,25.293399339934,1360640.9025283,-1758.4015265608,2668362.5197882,30.493399339934,0,0
613.01592434044,-316.68257025216,25.297829782978,1360640.9025283,-1758.4015265608,2668362.5197882,30.497829782978,0,0
613.01592465447,-316.88435930172,25.302260226023,1360640.9025283,-1758.4015265608,2668362.5197882,30.502260226023,0,0
613.0159249685,-317.08614835129,25.306690669067,1360640.9025283,-1758.4015265608,2668362.5197882,30.506690669067,0,0
613.01592528254,-317.28793740086,25.311121112111,1360640.9025283,-1758.4015265608,2668362.5197882,30.511121112111,0,0
613.01592559657,-317.48972645042,25.315551555156,1360640.9025283,-1758.4015265608,2668362.5197882,30.515551555156,0,0
613.0159259106,-317.69151549999,25.3199819982,1360640.9025283,-1758.4015265608,2668362.5197882,30.5199819982,0,0
613.01592622463,-317.89330454956,25.324412441244,1360640.9025283,-1758.4015265608,2668362.5197882,30.524412441244,0,0
613.01592653867,-318.09509359912,25.328842884288,1360640.9025283,-1758.4015265608,2668362.5197882,30.528842884288,0,0
613.0159268527,-318.29688264869,25.333273327333,1360640.9025283,-1758.4015265608,2668362.5197882,30.533273327333,0,0
613.01592716673,-318.49867169825,25.337703770377,1360640.9025283,-1758.4015265608,2668362.5197882,30.537703770377,0,0
613.01592748077,-318.70046074782,25.342134213421,1360640.9025283,-1758.4015265608,2668362.5197882,30.542134213421,0,0
613.0159277948,-318.90224979739,25.346564656466,1360640.9025283,-1758.4015265608,2668362.5197882,30.546564656466,0,0
613.01592810883,-319.10403884695,25.35099509951,1360640.9025283,-1758.4015265608,2668362.5197882,30.55099509951,0,0
613.01592842286,-319.30582789652,25.355425542554,1360640.9025283,-1758.4015265608,2668362.5197882,30.555425542554,0,0
613.0159287369,-319.50761694609,25.359855985599,1360640.9025283,-1758.4015265608,2668362.5197882,30.559855985599,0,0
613.01592905093,-319.70940599565,25.364286428643,1360640.9025283,-1758.4015265608,2668362.5197882,30.564286428643,0,0
613.01592936496,-319.91119504522,25.368716871687,1360640.9025283,-1758.4015265608,2668362.5197882,30.568716871687,0,0
613.015929679,-320.11298409478,25.373147314731,1360640.9025283,-1758.4015265608,2668362.5197882,30.573147314731,0,0
613.01592999303,-320.31477314435,25.377577757776,1360640.9025283,-1758.4015265608,2668362.5197882,30.577577757776,0,0
613.01593030706,-320.51656219392,25.38200820082,1360640.9025283,-1758.4015265608,2668362.5197882,30.58200820082,0,0
613.01593062109,-320.71835124348,25.386438643864,1360640.9025283,-1758.4015265608,2668362.5197882,30.586438643864,0,0
613.01593093513,-320.92014029305,25.390869086909,1360640.9025283,-1758.4015265608,2668362.5197882,30.590869086909,0,0
613.01593124916,-321.12192934261,25.395299529953,1360640.9025283,-1758.4015265608,2668362.5197882,30.595299529953,0,0
613.01593156319,-321.32371839218,25.399729972997,1360640.9025283,-1758.4015265608,2668362.5197882,30.599729972997,0,0
613.01593187722,-321.52550744175,25.404160416042,1360640.9025283,-1758.4015265608,2668362.5197882,30.604160416042,0,0
613.01593219126,-321.72729649131,25.408590859086,1360640.9025283,-1758.4015265608,2668362.5197882,30.608590859086,0,0
613.01593250529,-321.92908554088,25.41302130213,1360640.9025283,-1758.4015265608,2668362.5197882,30.61302130213,0,0
613.01593281932,-322.13087459044,25.417451745175,1360640.9025283,-1758.4015265608,2668362.5197882,30.617451745175,0,0
613.01593313336,-322.33266364001,25.421882188219,1360640.9025283,-1758.4015265608,2668362.5197882,30.621882188219,0,0
613.01593344739,-322.53445268958,25.426312631263,1360640.9025283,-1758.4015265608,2668362.5197882,30.626312631263,0,0
613.01593376142,-322.73624173914,25.430743074307,1360640.9025283,-1758.4015265608,2668362.5197882,30.630743074307,0,0
613.01593407545,-322.93803078871,25.435173517352,1360640.9025283,-1758.4015265608,2668362.5197882,30.635173517352,0,0
613.01593438949,-323.13981983828,25.439603960396,1360640.9025283,-1758.4015265608,2668362.5197882,30.639603960396,0,0
613.01593470352,-323.34160888784,25.44403440344,1360640.9025283,-1758.4015265608,2668362.5197882,30.64403440344,0,0
613.01593501755,-323.54339793741,25.448464846485,1360640.9025283,-1758.4015265608,2668362.5197882,30.648464846485,0,0
613.01593533158,-323.74518698697,25.452895289529,1360640.9025283,-1758.4015265608,2668362.5197882,30.652895289529,0,0
613.01593564562,-323.94697603654,25.457325732573,1360640.9025283,-1758.4015265608,2668362.5197882,30.657325732573,0,0
613.01593595965,-324.14876508611,25.461756175618,1360640.9025283,-1758.4015265608,2668362.5197882,30.661756175618,0,0
613.01593627368,-324.35055413567,25.466186618662,1360640.9025283,-1758.4015265608,2668362.5197882,30.666186618662,0,0
613.01593658772,-324.55234318524,25.470617061706,1360640.9025283,-1758.4015265608,2668362.5197882,30.670617061706,0,0
613.01593690175,-324.75413223481,25.47504750475,1360640.9025283,-1758.4015265608,2668362.5197882,30.67504750475,0,0
613.01593721578,-324.95592128437,25.479477947795,1360640.9025283,-1758.4015265608,2668362.5197882,30.679477947795,0,0
613.01593752981,-325.15771033394,25.483908390839,1360640.9025283,-1758.4015265608,2668362.5197882,30.683908390839,0,0
613.01593784385,-325.3594993835,25.488338833883,1360640.9025283,-1758.4015265608,2668362.5197882,30.688338833883,0,0
613.01593815788,-325.56128843307,25.492769276928,1360640.9025283,-1758.4015265608,2668362.5197882,30.692769276928,0,0
613.01593847191,-325.76307748264,25.497199719972,1360640.9025283,-1758.4015265608,2668362.5197882,30.697199719972,0,0
613.01593878595,-325.9648665322,25.501630163016,1360640.9025283,-1758.4015265608,2668362.5197882,30.701630163016,0,0
613.01593909998,-326.16665558177,25.506060606061,1360640.9025283,-1758.4015265608,2668362.5197882,30.706060606061,0,0
613.01593941401,-326.36844463133,25.510491049105,1360640.9025283,-1758.4015265608,2668362.5197882,30.710491049105,0,0
613.01593972804,-326.5702336809,25.514921492149,1360640.9025283,-1758.4015265608,2668362.5197882,30.714921492149,0,0
613.01594004208,-326.77202273047,25.519351935194,1360640.9025283,-1758.4015265608,2668362.5197882,30.719351935194,0,0
613.01594035611,-326.97381178003,25.523782378238,1360640.9025283,-1758.4015265608,2668362.5197882,30.723782378238,0,0
613.01594067014,-327.1756008296,25.528212821282,1360640.9025283,-1758.4015265608,2668362.5197882,30.728212821282,0,0
613.01594098418,-327.37738987916,25.532643264326,1360640.9025283,-1758.4015265608,2668362.5197882,30.732643264326,0,0
613.01594129821,-327.57917892873,25.537073707371,1360640.9025283,-1758.4015265608,2668362.5197882,30.737073707371,0,0
613.01594161224,-327.7809679783,25.541504150415,1360640.9025283,-1758.4015265608,2668362.5197882,30.741504150415,0,0
613.01594192627,-327.98275702786,25.545934593459,1360640.9025283,-1758.4015265608,2668362.5197882,30.745934593459,0,0
613.01594224031,-328.18454607743,25.550365036504,1360640.9025283,-1758.4015265608,2668362.5197882,30.750365036504,0,0
613.01594255434,-328.386335127,25.554795479548,1360640.9025283,-1758.4015265608,2668362.5197882,30.754795479548,0,0
613.01594286837,-328.58812417656,25.559225922592,1360640.9025283,-1758.4015265608,2668362.5197882,30.759225922592,0,0
613.0159431824,-328.78991322613,25.563656365637,1360640.9025283,-1758.4015265608,2668362.5197882,30.763656365637,0,0
613.01594349644,-328.99170227569,25.568086808681,1360640.9025283,-1758.4015265608,2668362.5197882,30.768086808681,0,0
613.01594381047,-329.19349132526,25.572517251725,1360640.9025283,-1758.4015265608,2668362.5197882,30.772517251725,0,0
613.0159441245,-329.39528037483,25.576947694769,1360640.9025283,-1758.4015265608,2668362.5197882,30.776947694769,0,0
613.01594443854,-329.59706942439,25.581378137814,1360640.9025283,-1758.4015265608,2668362.5197882,30.781378137814,0,0
613.01594475257,-329.79885847396,25.585808580858,1360640.9025283,-1758.4015265608,2668362.5197882,30.785808580858,0,0
613.0159450666,-330.00064752353,25.590239023902,1360640.9025283,-1758.4015265608,2668362.5197882,30.790239023902,0,0
613.01594538063,-330.20243657309,25.594669466947,1360640.9025283,-1758.4015265608,2668362.5197882,30.794669466947,0,0
613.01594569467,-330.40422562266,25.599099909991,1360640.9025283,-1758.4015265608,2668362.5197882,30.799099909991,0,0
613.0159460087,-330.60601467222,25.603530353035,1360640.9025283,-1758.4015265608,2668362.5197882,30.803530353035,0,0
613.01594632273,-330.80780372179,25.60796079608,1360640.9025283,-1758.4015265608,2668362.5197882,30.80796079608,0,0
613.01594663676,-331.00959277136,25.612391239124,1360640.9025283,-1758.4015265608,2668362.5197882,30.812391239124,0,0
613.0159469508,-331.21138182092,25.616821682168,1360640.9025283,-1758.4015265608,2668362.5197882,30.816821682168,0,0
613.01594726483,-331.41317087049,25.621252125213,1360640.9025283,-1758.4015265608,2668362.5197882,30.821252125213,0,0
613.01594757886,-331.61495992005,25.625682568257,1360640.9025283,-1758.4015265608,2668362.5197882,30.825682568257,0,0
613.0159478929,-331.81674896962,25.630113011301,1360640.9025283,-1758.4015265608,2668362.5197882,30.830113011301,0,0
613.01594820693,-332.01853801919,25.634543454345,1360640.9025283,-1758.4015265608,2668362.5197882,30.834543454345,0,0
613.01594852096,-332.22032706875,25.63897389739,1360640.9025283,-1758.4015265608,2668362.5197882,30.83897389739,0,0
613.01594883499,-332.42211611832,25.643404340434,1360640.9025283,-1758.4015265608,2668362.5197882,30.843404340434,0,0
613.01594914903,-332.62390516789,25.647834783478,1360640.9025283,-1758.4015265608,2668362.5197882,30.847834783478,0,0
613.01594946306,-332.82569421745,25.652265226523,1360640.9025283,-1758.4015265608,2668362.5197882,30.852265226523,0,0
613.01594977709,-333.02748326702,25.656695669567,1360640.9025283,-1758.4015265608,2668362.5197882,30.856695669567,0,0
613.01595009113,-333.22927231658,25.661126112611,1360640.9025283,-1758.4015265608,2668362.5197882,30.861126112611,0,0
613.01595040516,-333.43106136615,25.665556555656,1360640.9025283,-1758.4015265608,2668362.5197882,30.865556555656,0,0
613.01595071919,-333.63285041572,25.6699869987,1360640.9025283,-1758.4015265608,2668362.5197882,30.8699869987,0,0
613.01595103322,-333.83463946528,25.674417441744,1360640.9025283,-1758.4015265608,2668362.5197882,30.874417441744,0,0
613.01595134726,-334.03642851485,25.678847884788,1360640.9025283,-1758.4015265608,2668362.5197882,30.878847884788,0,0
613.01595166129,-334.23821756441,25.683278327833,1360640.9025283,-1758.4015265608,2668362.5197882,30.883278327833,0,0
613.01595197532,-334.44000661398,25.687708770877,1360640.9025283,-1758.4015265608,2668362.5197882,30.887708770877,0,0
613.01595228936,-334.64179566355,25.692139213921,1360640.9025283,-1758.4015265608,2668362.5197882,30.892139213921,0,0
613.01595260339,-334.84358471311,25.696569656966,1360640.9025283,-1758.4015265608,2668362.5197882,30.896569656966,0,0
613.01595291742,-335.04537376268,25.70100010001,1360640.9025283,-1758.4015265608,2668362.5197882,30.90100010001,0,0
613.01595323145,-335.24716281224,25.705430543054,1360640.9025283,-1758.4015265608,2668362.5197882,30.905430543054,0,0
613.01595354549,-335.44895186181,25.709860986099,1360640.9025283,-1758.4015265608,2668362.5197882,30.909860986099,0,0
613.01595385952,-335.65074091138,25.714291429143,1360640.9025283,-1758.4015265608,2668362.5197882,30.914291429143,0,0
613.01595417355,-335.85252996094,25.718721872187,1360640.9025283,-1758.4015265608,2668362.5197882,30.918721872187,0,0
613.01595448758,-336.05431901051,25.723152315232,1360640.9025283,-1758.4015265608,2668362.5197882,30.923152315232,0,0
613.01595480162,-336.25610806008,25.727582758276,1360640.9025283,-1758.4015265608,2668362.5197882,30.927582758276,0,0
613.01595511565,-336.45789710964,25.73201320132,1360640.9025283,-1758.4015265608,2668362.5197882,30.93201320132,0,0
613.01595542968,-336.65968615921,25.736443644364,1360640.9025283,-1758.4015265608,2668362.5197882,30.936443644364,0,0
613.01595574372,-336.86147520877,25.740874087409,1360640.9025283,-1758.4015265608,2668362.5197882,30.940874087409,0,0
613.01595605775,-337.06326425834,25.745304530453,1360640.9025283,-1758.4015265608,2668362.5197882,30.945304530453,0,0
613.01595637178,-337.26505330791,25.749734973497,1360640.9025283,-1758.4015265608,2668362.5197882,30.949734973497,0,0
613.01595668581,-337.46684235747,25.754165416542,1360640.9025283,-1758.4015265608,2668362.5197882,30.954165416542,0,0
613.01595699985,-337.66863140704,25.758595859586,1360640.9025283,-1758.4015265608,2668362.5197882,30.958595859586,0,0
613.01595731388,-337.87042045661,25.76302630263,1360640.9025283,-1758.4015265608,2668362.5197882,30.96302630263,0,0
613.01595762791,-338.07220950617,25.767456745675,1360640.9025283,-1758.4015265608,2668362.5197882,30.967456745675,0,0
613.01595794195,-338.27399855574,25.771887188719,1360640.9025283,-1758.4015265608,2668362.5197882,30.971887188719,0,0
613.01595825598,-338.4757876053,25.776317631763,1360640.9025283,-1758.4015265608,2668362.5197882,30.976317631763,0,0
613.01595857001,-338.67757665487,25.780748074807,1360640.9025283,-1758.4015265608,2668362.5197882,30.980748074807,0,0
613.01595888404,-338.87936570444,25.785178517852,1360640.9025283,-1758.4015265608,2668362.5197882,30.985178517852,0,0
613.01595919808,-339.081154754,25.789608960896,1360640.9025283,-1758.4015265608,2668362.5197882,30.989608960896,0,0
613.01595951211,-339.28294380357,25.79403940394,1360640.9025283,-1758.4015265608,2668362.5197882,30.99403940394,0,0
613.01595982614,-339.48473285313,25.798469846985,1360640.9025283,-1758.4015265608,2668362.5197882,30.998469846985,0,0
613.01596014017,-339.6865219027,25.802900290029,1360640.9025283,-1758.4015265608,2668362.5197882,31.002900290029,0,0
613.01596045421,-339.88831095227,25.807330733073,1360640.9025283,-1758.4015265608,2668362.5197882,31.007330733073,0,0
613.01596076824,-340.09010000183,25.811761176118,1360640.9025283,-1758.4015265608,2668362.5197882,31.011761176118,0,0
613.01596108227,-340.2918890514,25.816191619162,1360640.9025283,-1758.4015265608,2668362.5197882,31.016191619162,0,0
613.01596139631,-340.49367810097,25.820622062206,1360640.9025283,-1758.4015265608,2668362.5197882,31.020622062206,0,0
613.01596171034,-340.69546715053,25.825052505251,1360640.9025283,-1758.4015265608,2668362.5197882,31.025052505251,0,0
613.01596202437,-340.8972562001,25.829482948295,1360640.9025283,-1758.4015265608,2668362.5197882,31.029482948295,0,0
613.0159623384,-341.09904524966,25.833913391339,1360640.9025283,-1758.4015265608,2668362.5197882,31.033913391339,0,0
613.01596265244,-341.30083429923,25.838343834383,1360640.9025283,-1758.4015265608,2668362.5197882,31.038343834383,0,0
613.01596296647,-341.5026233488,25.842774277428,1360640.9025283,-1758.4015265608,2668362.5197882,31.042774277428,0,0
613.0159632805,-341.70441239836,25.847204720472,1360640.9025283,-1758.4015265608,2668362.5197882,31.047204720472,0,0
613.01596359454,-341.90620144793,25.851635163516,1360640.9025283,-1758.4015265608,2668362.5197882,31.051635163516,0,0
613.01596390857,-342.10799049749,25.856065606561,1360640.9025283,-1758.4015265608,2668362.5197882,31.056065606561,0,0
613.0159642226,-342.30977954706,25.860496049605,1360640.9025283,-1758.4015265608,2668362.5197882,31.060496049605,0,0
613.01596453663,-342.51156859663,25.864926492649,1360640.9025283,-1758.4015265608,2668362.5197882,31.064926492649,0,0
613.01596485067,-342.71335764619,25.869356935694,1360640.9025283,-1758.4015265608,2668362.5197882,31.069356935694,0,0
613.0159651647,-342.91514669576,25.873787378738,1360640.9025283,-1758.4015265608,2668362.5197882,31.073787378738,0,0
613.01596547873,-343.11693574533,25.878217821782,1360640.9025283,-1758.4015265608,2668362.5197882,31.078217821782,0,0
613.01596579276,-343.31872479489,25.882648264826,1360640.9025283,-1758.4015265608,2668362.5197882,31.082648264826,0,0
613.0159661068,-343.52051384446,25.887078707871,1360640.9025283,-1758.4015265608,2668362.5197882,31.087078707871,0,0
613.01596642083,-343.72230289402,25.891509150915,1360640.9025283,-1758.4015265608,2668362.5197882,31.091509150915,0,0
613.01596673486,-343.92409194359,25.895939593959,1360640.9025283,-1758.4015265608,2668362.5197882,31.095939593959,0,0
613.0159670489,-344.12588099316,25.900370037004,1360640.9025283,-1758.4015265608,2668362.5197882,31.100370037004,0,0
613.01596736293,-344.32767004272,25.904800480048,1360640.9025283,-1758.4015265608,2668362.5197882,31.104800480048,0,0
613.01596767696,-344.52945909229,25.909230923092,1360640.9025283,-1758.4015265608,2668362.5197882,31.109230923092,0,0
613.01596799099,-344.73124814185,25.913661366137,1360640.9025283,-1758.4015265608,2668362.5197882,31.113661366137,0,0
613.01596830503,-344.93303719142,25.918091809181,1360640.9025283,-1758.4015265608,2668362.5197882,31.118091809181,0,0
613.01596861906,-345.13482624099,25.922522252225,1360640.9025283,-1758.4015265608,2668362.5197882,31.122522252225,0,0
613.01596893309,-345.33661529055,25.92695269527,1360640.9025283,-1758.4015265608,2668362.5197882,31.12695269527,0,0
613.01596924713,-345.53840434012,25.931383138314,1360640.9025283,-1758.4015265608,2668362.5197882,31.131383138314,0,0
613.01596956116,-345.74019338969,25.935813581358,1360640.9025283,-1758.4015265608,2668362.5197882,31.135813581358,0,0
613.01596987519,-345.94198243925,25.940244024402,1360640.9025283,-1758.4015265608,2668362.5197882,31.140244024402,0,0
613.01597018922,-346.14377148882,25.944674467447,1360640.9025283,-1758.4015265608,2668362.5197882,31.144674467447,0,0
613.01597050326,-346.34556053838,25.949104910491,1360640.9025283,-1758.4015265608,2668362.5197882,31.149104910491,0,0
613.01597081729,-346.54734958795,25.953535353535,1360640.9025283,-1758.4015265608,2668362.5197882,31.153535353535,0,0
613.01597113132,-346.74913863752,25.95796579658,1360640.9025283,-1758.4015265608,2668362.5197882,31.15796579658,0,0
613.01597144535,-346.95092768708,25.962396239624,1360640.9025283,-1758.4015265608,2668362.5197882,31.162396239624,0,0
613.01597175939,-347.15271673665,25.966826682668,1360640.9025283,-1758.4015265608,2668362.5197882,31.166826682668,0,0
613.01597207342,-347.35450578621,25.971257125713,1360640.9025283,-1758.4015265608,2668362.5197882,31.171257125713,0,0
613.01597238745,-347.55629483578,25.975687568757,1360640.9025283,-1758.4015265608,2668362.5197882,31.175687568757,0,0
613.01597270149,-347.75808388535,25.980118011801,1360640.9025283,-1758.4015265608,2668362.5197882,31.180118011801,0,0
613.01597301552,-347.95987293491,25.984548454845,1360640.9025283,-1758.4015265608,2668362.5197882,31.184548454845,0,0
613.01597332955,-348.16166198448,25.98897889789,1360640.9025283,-1758.4015265608,2668362.5197882,31.18897889789,0,0
613.01597364358,-348.36345103405,25.993409340934,1360640.9025283,-1758.4015265608,2668362.5197882,31.193409340934,0,0
613.01597395762,-348.56524008361,25.997839783978,1360640.9025283,-1758.4015265608,2668362.5197882,31.197839783978,0,0
613.01597427165,-348.76702913318,26.002270227023,1360640.9025283,-1758.4015265608,2668362.5197882,31.202270227023,0,0
613.01597458568,-348.96881818274,26.006700670067,1360640.9025283,-1758.4015265608,2668362.5197882,31.206700670067,0,0
613.01597489972,-349.17060723231,26.011131113111,1360640.9025283,-1758.4015265608,2668362.5197882,31.211131113111,0,0
613.01597521375,-349.37239628188,26.015561556156,1360640.9025283,-1758.4015265608,2668362.5197882,31.215561556156,0,0
613.01597552778,-349.57418533144,26.0199919992,1360640.9025283,-1758.4015265608,2668362.5197882,31.2199919992,0,0
613.01597584181,-349.77597438101,26.024422442244,1360640.9025283,-1758.4015265608,2668362.5197882,31.224422442244,0,0
613.0159761558,-349.97776342981,26.028852885289,1359467.9598977,694.58071903504,2665023.5666474,31.228852885289,0,0
613.01597646977,-350.17955247829,26.033283328333,1359467.9598977,694.58071903504,2665023.5666474,31.233283328333,0,0
613.01597678374,-350.38134152677,26.037713771377,1359467.9598977,694.58071903504,2665023.5666474,31.237713771377,0,0
613.01597709771,-350.58313057525,26.042144214421,1359467.9598977,694.58071903504,2665023.5666474,31.242144214421,0,0
613.01597741168,-350.78491962373,26.046574657466,1359467.9598977,694.58071903504,2665023.5666474,31.246574657466,0,0
613.01597772565,-350.98670867221,26.05100510051,1359467.9598977,694.58071903504,2665023.5666474,31.25100510051,0,0
613.01597803962,-351.18849772069,26.055435543554,1359467.9598977,694.58071903504,2665023.5666474,31.255435543554,0,0
613.01597835358,-351.39028676918,26.059865986599,1359467.9598977,694.58071903504,2665023.5666474,31.259865986599,0,0
613.01597866755,-351.59207581766,26.064296429643,1359467.9598977,694.58071903504,2665023.5666474,31.264296429643,0,0
613.01597898152,-351.79386486614,26.068726872687,1359467.9598977,694.58071903504,2665023.5666474,31.268726872687,0,0
613.01597929549,-351.99565391462,26.073157315732,1359467.9598977,694.58071903504,2665023.5666474,31.273157315732,0,0
613.01597960946,-352.1974429631,26.077587758776,1359467.9598977,694.58071903504,2665023.5666474,31.277587758776,0,0
613.01597992343,-352.39923201158,26.08201820182,1359467.9598977,694.58071903504,2665023.5666474,31.28201820182,0,0
613.0159802374,-352.60102106006,26.086448644864,1359467.9598977,694.58071903504,2665023.5666474,31.286448644864,0,0
613.01598055137,-352.80281010855,26.090879087909,1359467.9598977,694.58071903504,2665023.5666474,31.290879087909,0,0
613.01598086534,-353.00459915703,26.095309530953,1359467.9598977,694.58071903504,2665023.5666474,31.295309530953,0,0
613.01598117931,-353.20638820551,26.099739973997,1359467.9598977,694.58071903504,2665023.5666474,31.299739973997,0,0
613.01598149328,-353.40817725399,26.104170417042,1359467.9598977,694.58071903504,2665023.5666474,31.304170417042,0,0
613.01598180724,-353.60996630247,26.108600860086,1359467.9598977,694.58071903504,2665023.5666474,31.308600860086,0,0
613.01598212121,-353.81175535095,26.11303130313,1359467.9598977,694.58071903504,2665023.5666474,31.31303130313,0,0
613.01598243518,-354.01354439943,26.117461746175,1359467.9598977,694.58071903504,2665023.5666474,31.317461746175,0,0
613.01598274915,-354.21533344791,26.121892189219,1359467.9598977,694.58071903504,2665023.5666474,31.321892189219,0,0
613.01598306312,-354.4171224964,26.126322632263,1359467.9598977,694.58071903504,2665023.5666474,31.326322632263,0,0
613.01598337709,-354.61891154488,26.130753075308,1359467.9598977,694.58071903504,2665023.5666474,31.330753075308,0,0
613.01598369106,-354.82070059336,26.135183518352,1359467.9598977,694.58071903504,2665023.5666474,31.335183518352,0,0
613.01598400503,-355.02248964184,26.139613961396,1359467.9598977,694.58071903504,2665023.5666474,31.339613961396,0,0
613.015984319,-355.22427869032,26.14404440444,1359467.9598977,694.58071903504,2665023.5666474,31.34404440444,0,0
613.01598463297,-355.4260677388,26.148474847485,1359467.9598977,694.58071903504,2665023.5666474,31.348474847485,0,0
613.01598494694,-355.62785678728,26.152905290529,1359467.9598977,694.58071903504,2665023.5666474,31.352905290529,0,0
613.0159852609,-355.82964583576,26.157335733573,1359467.9598977,694.58071903504,2665023.5666474,31.357335733573,0,0
613.01598557487,-356.03143488425,26.161766176618,1359467.9598977,694.58071903504,2665023.5666474,31.361766176618,0,0
613.01598588884,-356.23322393273,26.166196619662,1359467.9598977,694.58071903504,2665023.5666474,31.366196619662,0,0
613.01598620281,-356.43501298121,26.170627062706,1359467.9598977,694.58071903504,2665023.5666474,31.370627062706,0,0
613.01598651678,-356.63680202969,26.175057505751,1359467.9598977,694.58071903504,2665023.5666474,31.375057505751,0,0
613.01598683075,-356.83859107817,26.179487948795,1359467.9598977,694.58071903504,2665023.5666474,31.379487948795,0,0
613.01598714472,-357.04038012665,26.183918391839,1359467.9598977,694.58071903504,2665023.5666474,31.383918391839,0,0
613.01598745869,-357.24216917513,26.188348834883,1359467.9598977,694.58071903504,2665023.5666474,31.388348834883,0,0
613.01598777266,-357.44395822362,26.192779277928,1359467.9598977,694.58071903504,2665023.5666474,31.392779277928,0,0
613.01598808663,-357.6457472721,26.197209720972,1359467.9598977,694.58071903504,2665023.5666474,31.397209720972,0,0
613.0159884006,-357.84753632058,26.201640164016,1359467.9598977,694.58071903504,2665023.5666474,31.401640164016,0,0
613.01598871456,-358.04932536906,26.206070607061,1359467.9598977,694.58071903504,2665023.5666474,31.406070607061,0,0
613.01598902853,-358.25111441754,26.210501050105,1359467.9598977,694.58071903504,2665023.5666474,31.410501050105,0,0
613.0159893425,-358.45290346602,26.214931493149,1359467.9598977,694.58071903504,2665023.5666474,31.414931493149,0,0
613.01598965647,-358.6546925145,26.219361936194,1359467.9598977,694.58071903504,2665023.5666474,31.419361936194,0,0
613.01598997044,-358.85648156298,26.223792379238,1359467.9598977,694.58071903504,2665023.5666474,31.423792379238,0,0
613.01599028441,-359.05827061147,26.228222822282,1359467.9598977,694.58071903504,2665023.5666474,31.428222822282,0,0
613.01599059838,-359.26005965995,26.232653265327,1359467.9598977,694.58071903504,2665023.5666474,31.432653265327,0,0
613.01599091235,-359.46184870843,26.237083708371,1359467.9598977,694.58071903504,2665023.5666474,31.437083708371,0,0
613.01599122632,-359.66363775691,26.241514151415,1359467.9598977,694.58071903504,2665023.5666474,31.441514151415,0,0
613.01599154029,-359.86542680539,26.245944594459,1359467.9598977,694.58071903504,2665023.5666474,31.445944594459,0,0
613.01599185438,-360.06721585418,26.250375037504,1360320.525889,-622.89428351425,2658050.1423602,31.450375037504,0,0
613.01599216882,-360.2690049038,26.254805480548,1360320.525889,-622.89428351425,2658050.1423602,31.454805480548,0,0
613.01599248326,-360.47079395343,26.259235923592,1360320.525889,-622.89428351425,2658050.1423602,31.459235923592,0,0
613.0159927977,-360.67258300305,26.263666366637,1360320.525889,-622.89428351425,2658050.1423602,31.463666366637,0,0
613.01599311214,-360.87437205267,26.268096809681,1360320.525889,-622.89428351425,2658050.1423602,31.468096809681,0,0
613.01599342658,-361.07616110229,26.272527252725,1360320.525889,-622.89428351425,2658050.1423602,31.472527252725,0,0
613.01599374102,-361.27795015192,26.27695769577,1360320.525889,-622.89428351425,2658050.1423602,31.47695769577,0,0
613.01599405546,-361.47973920154,26.281388138814,1360320.525889,-622.89428351425,2658050.1423602,31.481388138814,0,0
613.0159943699,-361.68152825116,26.285818581858,1360320.525889,-622.89428351425,2658050.1423602,31.485818581858,0,0
613.01599468434,-361.88331730078,26.290249024902,1360320.525889,-622.89428351425,2658050.1423602,31.490249024902,0,0
613.01599499878,-362.08510635041,26.294679467947,1360320.525889,-622.89428351425,2658050.1423602,31.494679467947,0,0
613.01599531322,-362.28689540003,26.299109910991,1360320.525889,-622.89428351425,2658050.1423602,31.499109910991,0,0
613.01599562766,-362.48868444965,26.303540354035,1360320.525889,-622.89428351425,2658050.1423602,31.503540354035,0,0
613.01599594209,-362.69047349927,26.30797079708,1360320.525889,-622.89428351425,2658050.1423602,31.50797079708,0,0
613.01599625653,-362.89226254889,26.312401240124,1360320.525889,-622.89428351425,2658050.1423602,31.512401240124,0,0
613.01599657097,-363.09405159852,26.316831683168,1360320.525889,-622.89428351425,2658050.1423602,31.516831683168,0,0
613.01599688541,-363.29584064814,26.321262126213,1360320.525889,-622.89428351425,2658050.1423602,31.521262126213,0,0
613.01599719985,-363.49762969776,26.325692569257,1360320.525889,-622.89428351425,2658050.1423602,31.525692569257,0,0
613.01599751429,-363.69941874738,26.330123012301,1360320.525889,-622.89428351425,2658050.1423602,31.530123012301,0,0
613.01599782873,-363.90120779701,26.334553455346,1360320.525889,-622.89428351425,2658050.1423602,31.534553455346,0,0
613.01599814317,-364.10299684663,26.33898389839,1360320.525889,-622.89428351425,2658050.1423602,31.53898389839,0,0
613.01599845761,-364.30478589625,26.343414341434,1360320.525889,-622.89428351425,2658050.1423602,31.543414341434,0,0
613.01599877205,-364.50657494587,26.347844784478,1360320.525889,-622.89428351425,2658050.1423602,31.547844784478,0,0
613.01599908649,-364.7083639955,26.352275227523,1360320.525889,-622.89428351425,2658050.1423602,31.552275227523,0,0
613.01599940093,-364.91015304512,26.356705670567,1360320.525889,-622.89428351425,2658050.1423602,31.556705670567,0,0
613.01599971537,-365.11194209474,26.361136113611,1360320.525889,-622.89428351425,2658050.1423602,31.561136113611,0,0
613.01600002981,-365.31373114436,26.365566556656,1360320.525889,-622.89428351425,2658050.1423602,31.565566556656,0,0
613.01600034425,-365.51552019399,26.3699969997,1360320.525889,-622.89428351425,2658050.1423602,31.5699969997,0,0
613.01600065869,-365.71730924361,26.374427442744,1360320.525889,-622.89428351425,2658050.1423602,31.574427442744,0,0
613.01600097312,-365.91909829323,26.378857885789,1360320.525889,-622.89428351425,2658050.1423602,31.578857885789,0,0
613.01600128756,-366.12088734285,26.383288328833,1360320.525889,-622.89428351425,2658050.1423602,31.583288328833,0,0
613.016001602,-366.32267639248,26.387718771877,1360320.525889,-622.89428351425,2658050.1423602,31.587718771877,0,0
613.01600191644,-366.5244654421,26.392149214921,1360320.525889,-622.89428351425,2658050.1423602,31.592149214921,0,0
613.01600223088,-366.72625449172,26.396579657966,1360320.525889,-622.89428351425,2658050.1423602,31.596579657966,0,0
613.01600254532,-366.92804354134,26.40101010101,1360320.525889,-622.89428351425,2658050.1423602,31.60101010101,0,0
613.01600285976,-367.12983259097,26.405440544054,1360320.525889,-622.89428351425,2658050.1423602,31.605440544054,0,0
613.0160031742,-367.33162164059,26.409870987099,1360320.525889,-622.89428351425,2658050.1423602,31.609870987099,0,0
613.01600348864,-367.53341069021,26.414301430143,1360320.525889,-622.89428351425,2658050.1423602,31.614301430143,0,0
613.01600380308,-367.73519973983,26.418731873187,1360320.525889,-622.89428351425,2658050.1423602,31.618731873187,0,0
613.01600411752,-367.93698878946,26.423162316232,1360320.525889,-622.89428351425,2658050.1423602,31.623162316232,0,0
613.01600443196,-368.13877783908,26.427592759276,1360320.525889,-622.89428351425,2658050.1423602,31.627592759276,0,0
613.0160047464,-368.3405668887,26.43202320232,1360320.525889,-622.89428351425,2658050.1423602,31.63202320232,0,0
613.01600506084,-368.54235593832,26.436453645365,1360320.525889,-622.89428351425,2658050.1423602,31.636453645365,0,0
613.01600537528,-368.74414498794,26.440884088409,1360320.525889,-622.89428351425,2658050.1423602,31.640884088409,0,0
613.01600568972,-368.94593403757,26.445314531453,1360320.525889,-622.89428351425,2658050.1423602,31.645314531453,0,0
613.01600600415,-369.14772308719,26.449744974497,1360320.525889,-622.89428351425,2658050.1423602,31.649744974497,0,0
613.01600631859,-369.34951213681,26.454175417542,1360320.525889,-622.89428351425,2658050.1423602,31.654175417542,0,0
613.01600663303,-369.55130118643,26.458605860586,1360320.525889,-622.89428351425,2658050.1423602,31.658605860586,0,0
613.01600694747,-369.75309023606,26.46303630363,1360320.525889,-622.89428351425,2658050.1423602,31.66303630363,0,0
613.01600726191,-369.95487928568,26.467466746675,1360320.525889,-622.89428351425,2658050.1423602,31.667466746675,0,0
613.01600757635,-370.1566683353,26.471897189719,1360320.525889,-622.89428351425,2658050.1423602,31.671897189719,0,0
613.01600789079,-370.35845738492,26.476327632763,1360320.525889,-622.89428351425,2658050.1423602,31.676327632763,0,0
613.01600820523,-370.56024643455,26.480758075808,1360320.525889,-622.89428351425,2658050.1423602,31.680758075808,0,0
613.01600851967,-370.76203548417,26.485188518852,1360320.525889,-622.89428351425,2658050.1423602,31.685188518852,0,0
613.01600883411,-370.96382453379,26.489618961896,1360320.525889,-622.89428351425,2658050.1423602,31.689618961896,0,0
613.01600914855,-371.16561358341,26.49404940494,1360320.525889,-622.89428351425,2658050.1423602,31.69404940494,0,0
613.01600946299,-371.36740263304,26.498479847985,1360320.525889,-622.89428351425,2658050.1423602,31.698479847985,0,0
613.01600977743,-371.56919168266,26.502910291029,1360320.525889,-622.89428351425,2658050.1423602,31.702910291029,0,0
613.01601009187,-371.77098073228,26.507340734073,1360320.525889,-622.89428351425,2658050.1423602,31.707340734073,0,0
613.01601040631,-371.9727697819,26.511771177118,1360320.525889,-622.89428351425,2658050.1423602,31.711771177118,0,0
613.01601072075,-372.17455883153,26.516201620162,1360320.525889,-622.89428351425,2658050.1423602,31.716201620162,0,0
613.01601103518,-372.37634788115,26.520632063206,1360320.525889,-622.89428351425,2658050.1423602,31.720632063206,0,0
613.01601134962,-372.57813693077,26.525062506251,1360320.525889,-622.89428351425,2658050.1423602,31.725062506251,0,0
613.01601166406,-372.77992598039,26.529492949295,1360320.525889,-622.89428351425,2658050.1423602,31.729492949295,0,0
613.0160119785,-372.98171503002,26.533923392339,1360320.525889,-622.89428351425,2658050.1423602,31.733923392339,0,0
613.01601229294,-373.18350407964,26.538353835384,1360320.525889,-622.89428351425,2658050.1423602,31.738353835384,0,0
613.01601260738,-373.38529312926,26.542784278428,1360320.525889,-622.89428351425,2658050.1423602,31.742784278428,0,0
613.01601292182,-373.58708217888,26.547214721472,1360320.525889,-622.89428351425,2658050.1423602,31.747214721472,0,0
613.01601323626,-373.78887122851,26.551645164516,1360320.525889,-622.89428351425,2658050.1423602,31.751645164516,0,0
613.0160135507,-373.99066027813,26.556075607561,1360320.525889,-622.89428351425,2658050.1423602,31.756075607561,0,0
613.01601386514,-374.19244932775,26.560506050605,1360320.525889,-622.89428351425,2658050.1423602,31.760506050605,0,0
613.01601417958,-374.39423837737,26.564936493649,1360320.525889,-622.89428351425,2658050.1423602,31.764936493649,0,0
613.01601449402,-374.596027427,26.569366936694,1360320.525889,-622.89428351425,2658050.1423602,31.769366936694,0,0
613.01601480846,-374.79781647662,26.573797379738,1360320.525889,-622.89428351425,2658050.1423602,31.773797379738,0,0
613.0160151229,-374.99960552624,26.578227822782,1360320.525889,-622.89428351425,2658050.1423602,31.778227822782,0,0
613.01601543734,-375.20139457586,26.582658265827,1360320.525889,-622.89428351425,2658050.1423602,31.782658265827,0,0
613.01601575178,-375.40318362548,26.587088708871,1360320.525889,-622.89428351425,2658050.1423602,31.787088708871,0,0
613.01601606621,-375.60497267511,26.591519151915,1360320.525889,-622.89428351425,2658050.1423602,31.791519151915,0,0
613.01601638065,-375.80676172473,26.595949594959,1360320.525889,-622.89428351425,2658050.1423602,31.795949594959,0,0
613.01601669509,-376.00855077435,26.600380038004,1360320.525889,-622.89428351425,2658050.1423602,31.800380038004,0,0
613.01601700953,-376.21033982397,26.604810481048,1360320.525889,-622.89428351425,2658050.1423602,31.804810481048,0,0
613.01601732397,-376.4121288736,26.609240924092,1360320.525889,-622.89428351425,2658050.1423602,31.809240924092,0,0
613.01601763841,-376.61391792322,26.613671367137,1360320.525889,-622.89428351425,2658050.1423602,31.813671367137,0,0
613.01601795285,-376.81570697284,26.618101810181,1360320.525889,-622.89428351425,2658050.1423602,31.818101810181,0,0
613.01601826729,-377.01749602246,26.622532253225,1360320.525889,-622.89428351425,2658050.1423602,31.822532253225,0,0
613.01601858173,-377.21928507209,26.62696269627,1360320.525889,-622.89428351425,2658050.1423602,31.82696269627,0,0
613.01601889617,-377.42107412171,26.631393139314,1360320.525889,-622.89428351425,2658050.1423602,31.831393139314,0,0
613.01601921061,-377.62286317133,26.635823582358,1360320.525889,-622.89428351425,2658050.1423602,31.835823582358,0,0
613.01601952505,-377.82465222095,26.640254025403,1360320.525889,-622.89428351425,2658050.1423602,31.840254025403,0,0
613.01601983949,-378.02644127058,26.644684468447,1360320.525889,-622.89428351425,2658050.1423602,31.844684468447,0,0
613.01602015393,-378.2282303202,26.649114911491,1360320.525889,-622.89428351425,2658050.1423602,31.849114911491,0,0
613.01602046837,-378.43001936982,26.653545354535,1360320.525889,-622.89428351425,2658050.1423602,31.853545354535,0,0
613.01602078281,-378.63180841944,26.65797579758,1360320.525889,-622.89428351425,2658050.1423602,31.85797579758,0,0
613.01602109725,-378.83359746907,26.662406240624,1360320.525889,-622.89428351425,2658050.1423602,31.862406240624,0,0
613.01602141168,-379.03538651869,26.666836683668,1360320.525889,-622.89428351425,2658050.1423602,31.866836683668,0,0
613.01602172612,-379.23717556831,26.671267126713,1360320.525889,-622.89428351425,2658050.1423602,31.871267126713,0,0
613.01602204056,-379.43896461793,26.675697569757,1360320.525889,-622.89428351425,2658050.1423602,31.875697569757,0,0
613.016022355,-379.64075366756,26.680128012801,1360320.525889,-622.89428351425,2658050.1423602,31.880128012801,0,0
613.01602266944,-379.84254271718,26.684558455846,1360320.525889,-622.89428351425,2658050.1423602,31.884558455846,0,0
613.01602298388,-380.0443317668,26.68898889889,1360320.525889,-622.89428351425,2658050.1423602,31.88898889889,0,0
613.01602329832,-380.24612081642,26.693419341934,1360320.525889,-622.89428351425,2658050.1423602,31.893419341934,0,0
613.01602361276,-380.44790986605,26.697849784978,1360320.525889,-622.89428351425,2658050.1423602,31.897849784978,0,0
613.0160239272,-380.64969891567,26.702280228023,1360320.525889,-622.89428351425,2658050.1423602,31.902280228023,0,0
613.01602424164,-380.85148796529,26.706710671067,1360320.525889,-622.89428351425,2658050.1423602,31.906710671067,0,0
613.01602455608,-381.05327701491,26.711141114111,1360320.525889,-622.89428351425,2658050.1423602,31.911141114111,0,0
613.01602487052,-381.25506606454,26.715571557156,1360320.525889,-622.89428351425,2658050.1423602,31.915571557156,0,0
613.01602518496,-381.45685511416,26.7200020002,1360320.525889,-622.89428351425,2658050.1423602,31.9200020002,0,0
613.0160254994,-381.65864416378,26.724432443244,1360320.525889,-622.89428351425,2658050.1423602,31.924432443244,0,0
613.01602581384,-381.8604332134,26.728862886289,1360320.525889,-622.89428351425,2658050.1423602,31.928862886289,0,0
613.01602612827,-382.06222226302,26.733293329333,1360320.525889,-622.89428351425,2658050.1423602,31.933293329333,0,0
613.01602644271,-382.26401131265,26.737723772377,1360320.525889,-622.89428351425,2658050.1423602,31.937723772377,0,0
613.01602675715,-382.46580036227,26.742154215422,1360320.525889,-622.89428351425,2658050.1423602,31.942154215422,0,0
613.01602707159,-382.66758941189,26.746584658466,1360320.525889,-622.89428351425,2658050.1423602,31.946584658466,0,0
613.01602738603,-382.86937846151,26.75101510151,1360320.525889,-622.89428351425,2658050.1423602,31.95101510151,0,0
613.01602770047,-383.07116751114,26.755445544554,1360320.525889,-622.89428351425,2658050.1423602,31.955445544554,0,0
613.01602801491,-383.27295656076,26.759875987599,1360320.525889,-622.89428351425,2658050.1423602,31.959875987599,0,0
613.01602832935,-383.47474561038,26.764306430643,1360320.525889,-622.89428351425,2658050.1423602,31.964306430643,0,0
613.01602864379,-383.67653466,26.768736873687,1360320.525889,-622.89428351425,2658050.1423602,31.968736873687,0,0
613.01602895823,-383.87832370963,26.773167316732,1360320.525889,-622.89428351425,2658050.1423602,31.973167316732,0,0
613.01602927267,-384.08011275925,26.777597759776,1360320.525889,-622.89428351425,2658050.1423602,31.977597759776,0,0
613.01602958711,-384.28190180887,26.78202820282,1360320.525889,-622.89428351425,2658050.1423602,31.98202820282,0,0
613.01602990155,-384.48369085849,26.786458645865,1360320.525889,-622.89428351425,2658050.1423602,31.986458645865,0,0
613.01603021599,-384.68547990812,26.790889088909,1360320.525889,-622.89428351425,2658050.1423602,31.990889088909,0,0
613.01603053043,-384.88726895774,26.795319531953,1360320.525889,-622.89428351425,2658050.1423602,31.995319531953,0,0
613.01603084487,-385.08905800736,26.799749974997,1360320.525889,-622.89428351425,2658050.1423602,31.999749974997,0,0
613.0160311593,-385.29084705698,26.804180418042,1360320.525889,-622.89428351425,2658050.1423602,32.004180418042,0,0
613.01603147374,-385.49263610661,26.808610861086,1360320.525889,-622.89428351425,2658050.1423602,32.008610861086,0,0
613.01603178818,-385.69442515623,26.81304130413,1360320.525889,-622.89428351425,2658050.1423602,32.01304130413,0,0
613.01603210262,-385.89621420585,26.817471747175,1360320.525889,-622.89428351425,2658050.1423602,32.017471747175,0,0
613.01603241706,-386.09800325547,26.821902190219,1360320.525889,-622.89428351425,2658050.1423602,32.021902190219,0,0
613.0160327315,-386.2997923051,26.826332633263,1360320.525889,-622.89428351425,2658050.1423602,32.026332633263,0,0
613.01603304594,-386.50158135472,26.830763076308,1360320.525889,-622.89428351425,2658050.1423602,32.030763076308,0,0
613.01603336038,-386.70337040434,26.835193519352,1360320.525889,-622.89428351425,2658050.1423602,32.035193519352,0,0
613.01603367482,-386.90515945396,26.839623962396,1360320.525889,-622.89428351425,2658050.1423602,32.039623962396,0,0
613.01603398926,-387.10694850359,26.844054405441,1360320.525889,-622.89428351425,2658050.1423602,32.044054405441,0,0
613.0160343037,-387.30873755321,26.848484848485,1360320.525889,-622.89428351425,2658050.1423602,32.048484848485,0,0
613.01603461814,-387.51052660283,26.852915291529,1360320.525889,-622.89428351425,2658050.1423602,32.052915291529,0,0
613.01603493258,-387.71231565245,26.857345734573,1360320.525889,-622.89428351425,2658050.1423602,32.057345734573,0,0
613.01603524702,-387.91410470208,26.861776177618,1360320.525889,-622.89428351425,2658050.1423602,32.061776177618,0,0
613.01603556146,-388.1158937517,26.866206620662,1360320.525889,-622.89428351425,2658050.1423602,32.066206620662,0,0
613.0160358759,-388.31768280132,26.870637063706,1360320.525889,-622.89428351425,2658050.1423602,32.070637063706,0,0
613.01603619033,-388.51947185094,26.875067506751,1360320.525889,-622.89428351425,2658050.1423602,32.075067506751,0,0
613.01603650477,-388.72126090057,26.879497949795,1360320.525889,-622.89428351425,2658050.1423602,32.079497949795,0,0
613.01603681921,-388.92304995019,26.883928392839,1360320.525889,-622.89428351425,2658050.1423602,32.083928392839,0,0
613.01603713365,-389.12483899981,26.888358835884,1360320.525889,-622.89428351425,2658050.1423602,32.088358835884,0,0
613.01603744809,-389.32662804943,26.892789278928,1360320.525889,-622.89428351425,2658050.1423602,32.092789278928,0,0
613.01603776253,-389.52841709905,26.897219721972,1360320.525889,-622.89428351425,2658050.1423602,32.097219721972,0,0
613.01603807697,-389.73020614868,26.901650165017,1360320.525889,-622.89428351425,2658050.1423602,32.101650165017,0,0
613.01603839141,-389.9319951983,26.906080608061,1360320.525889,-622.89428351425,2658050.1423602,32.106080608061,0,0
613.01603870585,-390.13378424792,26.910511051105,1360320.525889,-622.89428351425,2658050.1423602,32.110511051105,0,0
613.01603902029,-390.33557329754,26.914941494149,1360320.525889,-622.89428351425,2658050.1423602,32.114941494149,0,0
613.01603933473,-390.53736234717,26.919371937194,1360320.525889,-622.89428351425,2658050.1423602,32.119371937194,0,0
613.01603964917,-390.73915139679,26.923802380238,1360320.525889,-622.89428351425,2658050.1423602,32.123802380238,0,0
613.01603996361,-390.94094044641,26.928232823282,1360320.525889,-622.89428351425,2658050.1423602,32.128232823282,0,0
613.01604027805,-391.14272949603,26.932663266327,1360320.525889,-622.89428351425,2658050.1423602,32.132663266327,0,0
613.01604059249,-391.34451854566,26.937093709371,1360320.525889,-622.89428351425,2658050.1423602,32.137093709371,0,0
613.01604090693,-391.54630759528,26.941524152415,1360320.525889,-622.89428351425,2658050.1423602,32.141524152415,0,0
613.01604122137,-391.7480966449,26.94595459546,1360320.525889,-622.89428351425,2658050.1423602,32.14595459546,0,0
613.0160415358,-391.94988569452,26.950385038504,1360320.525889,-622.89428351425,2658050.1423602,32.150385038504,0,0
613.01604185024,-392.15167474415,26.954815481548,1360320.525889,-622.89428351425,2658050.1423602,32.154815481548,0,0
613.01604216468,-392.35346379377,26.959245924592,1360320.525889,-622.89428351425,2658050.1423602,32.159245924592,0,0
613.01604247912,-392.55525284339,26.963676367637,1360320.525889,-622.89428351425,2658050.1423602,32.163676367637,0,0
613.01604279356,-392.75704189301,26.968106810681,1360320.525889,-622.89428351425,2658050.1423602,32.168106810681,0,0
613.016043108,-392.95883094264,26.972537253725,1360320.525889,-622.89428351425,2658050.1423602,32.172537253725,0,0
613.01604342244,-393.16061999226,26.97696769677,1360320.525889,-622.89428351425,2658050.1423602,32.17696769677,0,0
613.01604373688,-393.36240904188,26.981398139814,1360320.525889,-622.89428351425,2658050.1423602,32.181398139814,0,0
613.01604405132,-393.5641980915,26.985828582858,1360320.525889,-622.89428351425,2658050.1423602,32.185828582858,0,0
613.01604436576,-393.76598714113,26.990259025903,1360320.525889,-622.89428351425,2658050.1423602,32.190259025903,0,0
613.0160446802,-393.96777619075,26.994689468947,1360320.525889,-622.89428351425,2658050.1423602,32.194689468947,0,0
613.01604499464,-394.16956524037,26.999119911991,1360320.525889,-622.89428351425,2658050.1423602,32.199119911991,0,0
613.01604530908,-394.37135428999,27.003550355036,1360320.525889,-622.89428351425,2658050.1423602,32.203550355036,0,0
613.01604562352,-394.57314333962,27.00798079808,1360320.525889,-622.89428351425,2658050.1423602,32.20798079808,0,0
613.01604593796,-394.77493238924,27.012411241124,1360320.525889,-622.89428351425,2658050.1423602,32.212411241124,0,0
613.0160462524,-394.97672143886,27.016841684168,1360320.525889,-622.89428351425,2658050.1423602,32.216841684168,0,0
613.01604656683,-395.17851048848,27.021272127213,1360320.525889,-622.89428351425,2658050.1423602,32.221272127213,0,0
613.01604688127,-395.38029953811,27.025702570257,1360320.525889,-622.89428351425,2658050.1423602,32.225702570257,0,0
613.01604719571,-395.58208858773,27.030133013301,1360320.525889,-622.89428351425,2658050.1423602,32.230133013301,0,0
613.01604751015,-395.78387763735,27.034563456346,1360320.525889,-622.89428351425,2658050.1423602,32.234563456346,0,0
613.01604782459,-395.98566668697,27.03899389939,1360320.525889,-622.89428351425,2658050.1423602,32.23899389939,0,0
613.01604813903,-396.18745573659,27.043424342434,1360320.525889,-622.89428351425,2658050.1423602,32.243424342434,0,0
613.01604845347,-396.38924478622,27.047854785479,1360320.525889,-622.89428351425,2658050.1423602,32.247854785479,0,0
613.01604876791,-396.59103383584,27.052285228523,1360320.525889,-622.89428351425,2658050.1423602,32.252285228523,0,0
613.01604908235,-396.79282288546,27.056715671567,1360320.525889,-622.89428351425,2658050.1423602,32.256715671567,0,0
613.01604939679,-396.99461193508,27.061146114611,1360320.525889,-622.89428351425,2658050.1423602,32.261146114611,0,0
613.01604971123,-397.19640098471,27.065576557656,1360320.525889,-622.89428351425,2658050.1423602,32.265576557656,0,0
613.01605002567,-397.39819003433,27.0700070007,1360320.525889,-622.89428351425,2658050.1423602,32.2700070007,0,0
613.01605034011,-397.59997908395,27.074437443744,1360320.525889,-622.89428351425,2658050.1423602,32.274437443744,0,0
613.01605065455,-397.80176813357,27.078867886789,1360320.525889,-622.89428351425,2658050.1423602,32.278867886789,0,0
613.01605096899,-398.0035571832,27.083298329833,1360320.525889,-622.89428351425,2658050.1423602,32.283298329833,0,0
613.01605128342,-398.20534623282,27.087728772877,1360320.525889,-622.89428351425,2658050.1423602,32.287728772877,0,0
613.01605159786,-398.40713528244,27.092159215922,1360320.525889,-622.89428351425,2658050.1423602,32.292159215922,0,0
613.0160519123,-398.60892433206,27.096589658966,1360320.525889,-622.89428351425,2658050.1423602,32.296589658966,0,0
613.01605222674,-398.81071338169,27.10102010201,1360320.525889,-622.89428351425,2658050.1423602,32.30102010201,0,0
613.01605254118,-399.01250243131,27.105450545055,1360320.525889,-622.89428351425,2658050.1423602,32.305450545055,0,0
613.01605285562,-399.21429148093,27.109880988099,1360320.525889,-622.89428351425,2658050.1423602,32.309880988099,0,0
613.01605317006,-399.41608053055,27.114311431143,1360320.525889,-622.89428351425,2658050.1423602,32.314311431143,0,0
613.0160534845,-399.61786958018,27.118741874187,1360320.525889,-622.89428351425,2658050.1423602,32.318741874187,0,0
613.01605379894,-399.8196586298,27.123172317232,1360320.525889,-622.89428351425,2658050.1423602,32.323172317232,0,0
613.01605411338,-400.02144767942,27.127602760276,1360320.525889,-622.89428351425,2658050.1423602,32.327602760276,0,0
613.01605442782,-400.22323672904,27.13203320332,1360320.525889,-622.89428351425,2658050.1423602,32.33203320332,0,0
613.01605474226,-400.42502577867,27.136463646365,1360320.525889,-622.89428351425,2658050.1423602,32.336463646365,0,0
613.0160550567,-400.62681482829,27.140894089409,1360320.525889,-622.89428351425,2658050.1423602,32.340894089409,0,0
613.01605537114,-400.82860387791,27.145324532453,1360320.525889,-622.89428351425,2658050.1423602,32.345324532453,0,0
613.01605568558,-401.03039292753,27.149754975498,1360320.525889,-622.89428351425,2658050.1423602,32.349754975498,0,0
613.01605600002,-401.23218197716,27.154185418542,1360320.525889,-622.89428351425,2658050.1423602,32.354185418542,0,0
613.01605631446,-401.43397102678,27.158615861586,1360320.525889,-622.89428351425,2658050.1423602,32.358615861586,0,0
613.01605662889,-401.6357600764,27.16304630463,1360320.525889,-622.89428351425,2658050.1423602,32.36304630463,0,0
613.01605694333,-401.83754912602,27.167476747675,1360320.525889,-622.89428351425,2658050.1423602,32.367476747675,0,0
613.01605725777,-402.03933817564,27.171907190719,1360320.525889,-622.89428351425,2658050.1423602,32.371907190719,0,0
613.01605757221,-402.24112722527,27.176337633763,1360320.525889,-622.89428351425,2658050.1423602,32.376337633763,0,0
613.01605788665,-402.44291627489,27.180768076808,1360320.525889,-622.89428351425,2658050.1423602,32.380768076808,0,0
613.01605820109,-402.64470532451,27.185198519852,1360320.525889,-622.89428351425,2658050.1423602,32.385198519852,0,0
613.01605851553,-402.84649437413,27.189628962896,1360320.525889,-622.89428351425,2658050.1423602,32.389628962896,0,0
613.01605882997,-403.04828342376,27.194059405941,1360320.525889,-622.89428351425,2658050.1423602,32.394059405941,0,0
613.01605914441,-403.25007247338,27.198489848985,1360320.525889,-622.89428351425,2658050.1423602,32.398489848985,0,0
613.01605945885,-403.451861523,27.202920292029,1360320.525889,-622.89428351425,2658050.1423602,32.402920292029,0,0
613.01605977329,-403.65365057262,27.207350735074,1360320.525889,-622.89428351425,2658050.1423602,32.407350735074,0,0
613.01606008773,-403.85543962225,27.211781178118,1360320.525889,-622.89428351425,2658050.1423602,32.411781178118,0,0
613.01606040217,-404.05722867187,27.216211621162,1360320.525889,-622.89428351425,2658050.1423602,32.416211621162,0,0
613.01606071661,-404.25901772149,27.220642064206,1360320.525889,-622.89428351425,2658050.1423602,32.420642064206,0,0
613.01606103105,-404.46080677111,27.225072507251,1360320.525889,-622.89428351425,2658050.1423602,32.425072507251,0,0
613.01606134549,-404.66259582074,27.229502950295,1360320.525889,-622.89428351425,2658050.1423602,32.429502950295,0,0
613.01606165992,-404.86438487036,27.233933393339,1360320.525889,-622.89428351425,2658050.1423602,32.433933393339,0,0
613.01606197436,-405.06617391998,27.238363836384,1360320.525889,-622.89428351425,2658050.1423602,32.438363836384,0,0
613.0160622888,-405.2679629696,27.242794279428,1360320.525889,-622.89428351425,2658050.1423602,32.442794279428,0,0
613.01606260324,-405.46975201923,27.247224722472,1360320.525889,-622.89428351425,2658050.1423602,32.447224722472,0,0
613.01606291768,-405.67154106885,27.251655165517,1360320.525889,-622.89428351425,2658050.1423602,32.451655165517,0,0
613.01606323212,-405.87333011847,27.256085608561,1360320.525889,-622.89428351425,2658050.1423602,32.456085608561,0,0
613.01606354656,-406.07511916809,27.260516051605,1360320.525889,-622.89428351425,2658050.1423602,32.460516051605,0,0
613.016063861,-406.27690821772,27.264946494649,1360320.525889,-622.89428351425,2658050.1423602,32.464946494649,0,0
613.01606417544,-406.47869726734,27.269376937694,1360320.525889,-622.89428351425,2658050.1423602,32.469376937694,0,0
613.01606448988,-406.68048631696,27.273807380738,1360320.525889,-622.89428351425,2658050.1423602,32.473807380738,0,0
613.01606480432,-406.88227536658,27.278237823782,1360320.525889,-622.89428351425,2658050.1423602,32.478237823782,0,0
613.01606511876,-407.08406441621,27.282668266827,1360320.525889,-622.89428351425,2658050.1423602,32.482668266827,0,0
613.0160654332,-407.28585346583,27.287098709871,1360320.525889,-622.89428351425,2658050.1423602,32.487098709871,0,0
613.01606574764,-407.48764251545,27.291529152915,1360320.525889,-622.89428351425,2658050.1423602,32.491529152915,0,0
613.01606606208,-407.68943156507,27.29595959596,1360320.525889,-622.89428351425,2658050.1423602,32.49595959596,0,0
613.01606637652,-407.89122061469,27.300390039004,1360320.525889,-622.89428351425,2658050.1423602,32.500390039004,0,0
613.01606669095,-408.09300966432,27.304820482048,1360320.525889,-622.89428351425,2658050.1423602,32.504820482048,0,0
613.01606700539,-408.29479871394,27.309250925093,1360320.525889,-622.89428351425,2658050.1423602,32.509250925093,0,0
613.01606731983,-408.49658776356,27.313681368137,1360320.525889,-622.89428351425,2658050.1423602,32.513681368137,0,0
613.01606763427,-408.69837681318,27.318111811181,1360320.525889,-622.89428351425,2658050.1423602,32.518111811181,0,0
613.01606794871,-408.90016586281,27.322542254225,1360320.525889,-622.89428351425,2658050.1423602,32.522542254225,0,0
613.01606826315,-409.10195491243,27.32697269727,1360320.525889,-622.89428351425,2658050.1423602,32.52697269727,0,0
613.01606857759,-409.30374396205,27.331403140314,1360320.525889,-622.89428351425,2658050.1423602,32.531403140314,0,0
613.01606889203,-409.50553301167,27.335833583358,1360320.525889,-622.89428351425,2658050.1423602,32.535833583358,0,0
613.01606920647,-409.7073220613,27.340264026403,1360320.525889,-622.89428351425,2658050.1423602,32.540264026403,0,0
613.01606952091,-409.90911111092,27.344694469447,1360320.525889,-622.89428351425,2658050.1423602,32.544694469447,0,0
613.01606983535,-410.11090016054,27.349124912491,1360320.525889,-622.89428351425,2658050.1423602,32.549124912491,0,0
613.01607014979,-410.31268921016,27.353555355536,1360320.525889,-622.89428351425,2658050.1423602,32.553555355536,0,0
613.01607046423,-410.51447825979,27.35798579858,1360320.525889,-622.89428351425,2658050.1423602,32.55798579858,0,0
613.01607077867,-410.71626730941,27.362416241624,1360320.525889,-622.89428351425,2658050.1423602,32.562416241624,0,0
613.01607109311,-410.91805635903,27.366846684668,1360320.525889,-622.89428351425,2658050.1423602,32.566846684668,0,0
613.01607140755,-411.11984540865,27.371277127713,1360320.525889,-622.89428351425,2658050.1423602,32.571277127713,0,0
613.01607172198,-411.32163445828,27.375707570757,1360320.525889,-622.89428351425,2658050.1423602,32.575707570757,0,0
613.01607203642,-411.5234235079,27.380138013801,1360320.525889,-622.89428351425,2658050.1423602,32.580138013801,0,0
613.01607235086,-411.72521255752,27.384568456846,1360320.525889,-622.89428351425,2658050.1423602,32.584568456846,0,0
613.0160726653,-411.92700160714,27.38899889989,1360320.525889,-622.89428351425,2658050.1423602,32.58899889989,0,0
613.01607297974,-412.12879065677,27.393429342934,1360320.525889,-622.89428351425,2658050.1423602,32.593429342934,0,0
613.01607329418,-412.33057970639,27.397859785979,1360320.525889,-622.89428351425,2658050.1423602,32.597859785979,0,0
613.01607360862,-412.53236875601,27.402290229023,1360320.525889,-622.89428351425,2658050.1423602,32.602290229023,0,0
613.01607392306,-412.73415780563,27.406720672067,1360320.525889,-622.89428351425,2658050.1423602,32.606720672067,0,0
613.0160742375,-412.93594685526,27.411151115112,1360320.525889,-622.89428351425,2658050.1423602,32.611151115112,0,0
613.01607455194,-413.13773590488,27.415581558156,1360320.525889,-622.89428351425,2658050.1423602,32.615581558156,0,0
613.01607486638,-413.3395249545,27.4200120012,1360320.525889,-622.89428351425,2658050.1423602,32.6200120012,0,0
613.01607518082,-413.54131400412,27.424442444244,1360320.525889,-622.89428351425,2658050.1423602,32.624442444244,0,0
613.01607549526,-413.74310305375,27.428872887289,1360320.525889,-622.89428351425,2658050.1423602,32.628872887289,0,0
613.0160758097,-413.94489210337,27.433303330333,1360320.525889,-622.89428351425,2658050.1423602,32.633303330333,0,0
613.01607612414,-414.14668115299,27.437733773377,1360320.525889,-622.89428351425,2658050.1423602,32.637733773377,0,0
613.01607643858,-414.34847020261,27.442164216422,1360320.525889,-622.89428351425,2658050.1423602,32.642164216422,0,0
613.01607675301,-414.55025925224,27.446594659466,1360320.525889,-622.89428351425,2658050.1423602,32.646594659466,0,0
613.01607706745,-414.75204830186,27.45102510251,1360320.525889,-622.89428351425,2658050.1423602,32.65102510251,0,0
613.01607738189,-414.95383735148,27.455455545555,1360320.525889,-622.89428351425,2658050.1423602,32.655455545555,0,0
613.01607769633,-415.1556264011,27.459885988599,1360320.525889,-622.89428351425,2658050.1423602,32.659885988599,0,0
613.01607801077,-415.35741545073,27.464316431643,1360320.525889,-622.89428351425,2658050.1423602,32.664316431643,0,0
613.01607832521,-415.55920450035,27.468746874687,1360320.525889,-622.89428351425,2658050.1423602,32.668746874687,0,0
613.01607863965,-415.76099354997,27.473177317732,1360320.525889,-622.89428351425,2658050.1423602,32.673177317732,0,0
613.01607895409,-415.96278259959,27.477607760776,1360320.525889,-622.89428351425,2658050.1423602,32.677607760776,0,0
613.01607926853,-416.16457164921,27.48203820382,1360320.525889,-622.89428351425,2658050.1423602,32.68203820382,0,0
613.01607958297,-416.36636069884,27.486468646865,1360320.525889,-622.89428351425,2658050.1423602,32.686468646865,0,0
613.01607989741,-416.56814974846,27.490899089909,1360320.525889,-622.89428351425,2658050.1423602,32.690899089909,0,0
613.01608021185,-416.76993879808,27.495329532953,1360320.525889,-622.89428351425,2658050.1423602,32.695329532953,0,0
613.01608052629,-416.9717278477,27.499759975998,1360320.525889,-622.89428351425,2658050.1423602,32.699759975998,0,0
613.01608084073,-417.17351689733,27.504190419042,1360320.525889,-622.89428351425,2658050.1423602,32.704190419042,0,0
613.01608115517,-417.37530594695,27.508620862086,1360320.525889,-622.89428351425,2658050.1423602,32.708620862086,0,0
613.01608146961,-417.57709499657,27.513051305131,1360320.525889,-622.89428351425,2658050.1423602,32.713051305131,0,0
613.01608178404,-417.77888404619,27.517481748175,1360320.525889,-622.89428351425,2658050.1423602,32.717481748175,0,0
613.01608209848,-417.98067309582,27.521912191219,1360320.525889,-622.89428351425,2658050.1423602,32.721912191219,0,0
613.01608241292,-418.18246214544,27.526342634263,1360320.525889,-622.89428351425,2658050.1423602,32.726342634263,0,0
613.01608272736,-418.38425119506,27.530773077308,1360320.525889,-622.89428351425,2658050.1423602,32.730773077308,0,0
613.0160830418,-418.58604024468,27.535203520352,1360320.525889,-622.89428351425,2658050.1423602,32.735203520352,0,0
613.01608335624,-418.78782929431,27.539633963396,1360320.525889,-622.89428351425,2658050.1423602,32.739633963396,0,0
613.01608367068,-418.98961834393,27.544064406441,1360320.525889,-622.89428351425,2658050.1423602,32.744064406441,0,0
613.01608398494,-419.19140739317,27.548494849485,1357897.3189743,1282.8341132409,2656122.607886,32.748494849485,0,0
613.01608429903,-419.39319644204,27.552925292529,1357897.3189743,1282.8341132409,2656122.607886,32.752925292529,0,0
613.01608461311,-419.59498549091,27.557355735574,1357897.3189743,1282.8341132409,2656122.607886,32.757355735574,0,0
613.01608492719,-419.79677453978,27.561786178618,1357897.3189743,1282.8341132409,2656122.607886,32.761786178618,0,0
613.01608524128,-419.99856358865,27.566216621662,1357897.3189743,1282.8341132409,2656122.607886,32.766216621662,0,0
613.01608555536,-420.20035263752,27.570647064706,1357897.3189743,1282.8341132409,2656122.607886,32.770647064706,0,0
613.01608586944,-420.40214168639,27.575077507751,1357897.3189743,1282.8341132409,2656122.607886,32.775077507751,0,0
613.01608618353,-420.60393073526,27.579507950795,1357897.3189743,1282.8341132409,2656122.607886,32.779507950795,0,0
613.01608649761,-420.80571978412,27.583938393839,1357897.3189743,1282.8341132409,2656122.607886,32.783938393839,0,0
613.01608681169,-421.00750883299,27.588368836884,1357897.3189743,1282.8341132409,2656122.607886,32.788368836884,0,0
613.01608712578,-421.20929788186,27.592799279928,1357897.3189743,1282.8341132409,2656122.607886,32.792799279928,0,0
613.01608743986,-421.41108693073,27.597229722972,1357897.3189743,1282.8341132409,2656122.607886,32.797229722972,0,0
613.01608775395,-421.6128759796,27.601660166017,1357897.3189743,1282.8341132409,2656122.607886,32.801660166017,0,0
613.01608806803,-421.81466502847,27.606090609061,1357897.3189743,1282.8341132409,2656122.607886,32.806090609061,0,0
613.01608838211,-422.01645407734,27.610521052105,1357897.3189743,1282.8341132409,2656122.607886,32.810521052105,0,0
613.0160886962,-422.21824312621,27.61495149515,1357897.3189743,1282.8341132409,2656122.607886,32.81495149515,0,0
613.01608901028,-422.42003217508,27.619381938194,1357897.3189743,1282.8341132409,2656122.607886,32.819381938194,0,0
613.01608932436,-422.62182122394,27.623812381238,1357897.3189743,1282.8341132409,2656122.607886,32.823812381238,0,0
613.01608963845,-422.82361027281,27.628242824282,1357897.3189743,1282.8341132409,2656122.607886,32.828242824282,0,0
613.01608995253,-423.02539932168,27.632673267327,1357897.3189743,1282.8341132409,2656122.607886,32.832673267327,0,0
613.01609026661,-423.22718837055,27.637103710371,1357897.3189743,1282.8341132409,2656122.607886,32.837103710371,0,0
613.0160905807,-423.42897741942,27.641534153415,1357897.3189743,1282.8341132409,2656122.607886,32.841534153415,0,0
613.01609089478,-423.63076646829,27.64596459646,1357897.3189743,1282.8341132409,2656122.607886,32.84596459646,0,0
613.01609120887,-423.83255551716,27.650395039504,1357897.3189743,1282.8341132409,2656122.607886,32.850395039504,0,0
613.01609152295,-424.03434456603,27.654825482548,1357897.3189743,1282.8341132409,2656122.607886,32.854825482548,0,0
613.01609183703,-424.23613361489,27.659255925593,1357897.3189743,1282.8341132409,2656122.607886,32.859255925593,0,0
613.01609215112,-424.43792266376,27.663686368637,1357897.3189743,1282.8341132409,2656122.607886,32.863686368637,0,0
613.0160924652,-424.63971171263,27.668116811681,1357897.3189743,1282.8341132409,2656122.607886,32.868116811681,0,0
613.01609277928,-424.8415007615,27.672547254725,1357897.3189743,1282.8341132409,2656122.607886,32.872547254725,0,0
613.01609309337,-425.04328981037,27.67697769777,1357897.3189743,1282.8341132409,2656122.607886,32.87697769777,0,0
613.01609340745,-425.24507885924,27.681408140814,1357897.3189743,1282.8341132409,2656122.607886,32.881408140814,0,0
613.01609372153,-425.44686790811,27.685838583858,1357897.3189743,1282.8341132409,2656122.607886,32.885838583858,0,0
613.01609403562,-425.64865695698,27.690269026903,1357897.3189743,1282.8341132409,2656122.607886,32.890269026903,0,0
613.0160943497,-425.85044600585,27.694699469947,1357897.3189743,1282.8341132409,2656122.607886,32.894699469947,0,0
613.01609466379,-426.05223505471,27.699129912991,1357897.3189743,1282.8341132409,2656122.607886,32.899129912991,0,0
613.01609497787,-426.25402410358,27.703560356036,1357897.3189743,1282.8341132409,2656122.607886,32.903560356036,0,0
613.01609529195,-426.45581315245,27.70799079908,1357897.3189743,1282.8341132409,2656122.607886,32.90799079908,0,0
613.01609560604,-426.65760220132,27.712421242124,1357897.3189743,1282.8341132409,2656122.607886,32.912421242124,0,0
613.01609592012,-426.85939125019,27.716851685169,1357897.3189743,1282.8341132409,2656122.607886,32.916851685169,0,0
613.0160962342,-427.06118029906,27.721282128213,1357897.3189743,1282.8341132409,2656122.607886,32.921282128213,0,0
613.01609654829,-427.26296934793,27.725712571257,1357897.3189743,1282.8341132409,2656122.607886,32.925712571257,0,0
613.01609686237,-427.4647583968,27.730143014301,1357897.3189743,1282.8341132409,2656122.607886,32.930143014301,0,0
613.01609717645,-427.66654744567,27.734573457346,1357897.3189743,1282.8341132409,2656122.607886,32.934573457346,0,0
613.01609749054,-427.86833649453,27.73900390039,1357897.3189743,1282.8341132409,2656122.607886,32.93900390039,0,0
613.01609780462,-428.0701255434,27.743434343434,1357897.3189743,1282.8341132409,2656122.607886,32.943434343434,0,0
613.01609811871,-428.27191459227,27.747864786479,1357897.3189743,1282.8341132409,2656122.607886,32.947864786479,0,0
613.01609843279,-428.47370364114,27.752295229523,1357897.3189743,1282.8341132409,2656122.607886,32.952295229523,0,0
613.01609874687,-428.67549269001,27.756725672567,1357897.3189743,1282.8341132409,2656122.607886,32.956725672567,0,0
613.01609906096,-428.87728173888,27.761156115612,1357897.3189743,1282.8341132409,2656122.607886,32.961156115612,0,0
613.01609937504,-429.07907078775,27.765586558656,1357897.3189743,1282.8341132409,2656122.607886,32.965586558656,0,0
613.01609968912,-429.28085983662,27.7700170017,1357897.3189743,1282.8341132409,2656122.607886,32.9700170017,0,0
613.01610000321,-429.48264888548,27.774447444744,1357897.3189743,1282.8341132409,2656122.607886,32.974447444744,0,0
613.01610031729,-429.68443793435,27.778877887789,1357897.3189743,1282.8341132409,2656122.607886,32.978877887789,0,0
613.01610063137,-429.88622698322,27.783308330833,1357897.3189743,1282.8341132409,2656122.607886,32.983308330833,0,0
613.01610094546,-430.08801603209,27.787738773877,1357897.3189743,1282.8341132409,2656122.607886,32.987738773877,0,0
613.01610125954,-430.28980508096,27.792169216922,1357897.3189743,1282.8341132409,2656122.607886,32.992169216922,0,0
613.01610157362,-430.49159412983,27.796599659966,1357897.3189743,1282.8341132409,2656122.607886,32.996599659966,0,0
613.01610188771,-430.6933831787,27.80103010301,1357897.3189743,1282.8341132409,2656122.607886,33.00103010301,0,0
613.01610220179,-430.89517222757,27.805460546055,1357897.3189743,1282.8341132409,2656122.607886,33.005460546055,0,0
613.01610251588,-431.09696127644,27.809890989099,1357897.3189743,1282.8341132409,2656122.607886,33.009890989099,0,0
613.01610282996,-431.2987503253,27.814321432143,1357897.3189743,1282.8341132409,2656122.607886,33.014321432143,0,0
613.01610314404,-431.50053937417,27.818751875188,1357897.3189743,1282.8341132409,2656122.607886,33.018751875188,0,0
613.01610345813,-431.70232842304,27.823182318232,1357897.3189743,1282.8341132409,2656122.607886,33.023182318232,0,0
613.01610377221,-431.90411747191,27.827612761276,1357897.3189743,1282.8341132409,2656122.607886,33.027612761276,0,0
613.01610408629,-432.10590652078,27.83204320432,1357897.3189743,1282.8341132409,2656122.607886,33.03204320432,0,0
613.01610440038,-432.30769556965,27.836473647365,1357897.3189743,1282.8341132409,2656122.607886,33.036473647365,0,0
613.01610471446,-432.50948461852,27.840904090409,1357897.3189743,1282.8341132409,2656122.607886,33.040904090409,0,0
613.01610502854,-432.71127366739,27.845334533453,1357897.3189743,1282.8341132409,2656122.607886,33.045334533453,0,0
613.01610534263,-432.91306271625,27.849764976498,1357897.3189743,1282.8341132409,2656122.607886,33.049764976498,0,0
613.01610565671,-433.11485176512,27.854195419542,1357897.3189743,1282.8341132409,2656122.607886,33.054195419542,0,0
613.0161059708,-433.31664081399,27.858625862586,1357897.3189743,1282.8341132409,2656122.607886,33.058625862586,0,0
613.01610628488,-433.51842986286,27.863056305631,1357897.3189743,1282.8341132409,2656122.607886,33.063056305631,0,0
613.01610659896,-433.72021891173,27.867486748675,1357897.3189743,1282.8341132409,2656122.607886,33.067486748675,0,0
613.01610691305,-433.9220079606,27.871917191719,1357897.3189743,1282.8341132409,2656122.607886,33.071917191719,0,0
613.01610722713,-434.12379700947,27.876347634763,1357897.3189743,1282.8341132409,2656122.607886,33.076347634763,0,0
613.01610754121,-434.32558605834,27.880778077808,1357897.3189743,1282.8341132409,2656122.607886,33.080778077808,0,0
613.0161078553,-434.52737510721,27.885208520852,1357897.3189743,1282.8341132409,2656122.607886,33.085208520852,0,0
613.01610816938,-434.72916415607,27.889638963896,1357897.3189743,1282.8341132409,2656122.607886,33.089638963896,0,0
613.01610848346,-434.93095320494,27.894069406941,1357897.3189743,1282.8341132409,2656122.607886,33.094069406941,0,0
613.01610879755,-435.13274225381,27.898499849985,1357897.3189743,1282.8341132409,2656122.607886,33.098499849985,0,0
613.01610911163,-435.33453130268,27.902930293029,1357897.3189743,1282.8341132409,2656122.607886,33.102930293029,0,0
613.01610942572,-435.53632035155,27.907360736074,1357897.3189743,1282.8341132409,2656122.607886,33.107360736074,0,0
613.0161097398,-435.73810940042,27.911791179118,1357897.3189743,1282.8341132409,2656122.607886,33.111791179118,0,0
613.01611005388,-435.93989844929,27.916221622162,1357897.3189743,1282.8341132409,2656122.607886,33.116221622162,0,0
613.01611036797,-436.14168749816,27.920652065207,1357897.3189743,1282.8341132409,2656122.607886,33.120652065207,0,0
613.01611068205,-436.34347654702,27.925082508251,1357897.3189743,1282.8341132409,2656122.607886,33.125082508251,0,0
613.01611099613,-436.54526559589,27.929512951295,1357897.3189743,1282.8341132409,2656122.607886,33.129512951295,0,0
613.01611131022,-436.74705464476,27.933943394339,1357897.3189743,1282.8341132409,2656122.607886,33.133943394339,0,0
613.0161116243,-436.94884369363,27.938373837384,1357897.3189743,1282.8341132409,2656122.607886,33.138373837384,0,0
613.01611193838,-437.1506327425,27.942804280428,1357897.3189743,1282.8341132409,2656122.607886,33.142804280428,0,0
613.01611225247,-437.35242179137,27.947234723472,1357897.3189743,1282.8341132409,2656122.607886,33.147234723472,0,0
613.01611256655,-437.55421084024,27.951665166517,1357897.3189743,1282.8341132409,2656122.607886,33.151665166517,0,0
613.01611288063,-437.75599988911,27.956095609561,1357897.3189743,1282.8341132409,2656122.607886,33.156095609561,0,0
613.01611319472,-437.95778893798,27.960526052605,1357897.3189743,1282.8341132409,2656122.607886,33.160526052605,0,0
613.0161135088,-438.15957798684,27.96495649565,1357897.3189743,1282.8341132409,2656122.607886,33.16495649565,0,0
613.01611382289,-438.36136703571,27.969386938694,1357897.3189743,1282.8341132409,2656122.607886,33.169386938694,0,0
613.01611413697,-438.56315608458,27.973817381738,1357897.3189743,1282.8341132409,2656122.607886,33.173817381738,0,0
613.01611445105,-438.76494513345,27.978247824782,1357897.3189743,1282.8341132409,2656122.607886,33.178247824782,0,0
613.01611476514,-438.96673418232,27.982678267827,1357897.3189743,1282.8341132409,2656122.607886,33.182678267827,0,0
613.01611507922,-439.16852323119,27.987108710871,1357897.3189743,1282.8341132409,2656122.607886,33.187108710871,0,0
613.0161153933,-439.37031228006,27.991539153915,1357897.3189743,1282.8341132409,2656122.607886,33.191539153915,0,0
613.01611570739,-439.57210132893,27.99596959696,1357897.3189743,1282.8341132409,2656122.607886,33.19596959696,0,0
613.01611602147,-439.7738903778,28.000400040004,1357897.3189743,1282.8341132409,2656122.607886,33.200400040004,0,0
613.01611633555,-439.97567942666,28.004830483048,1357897.3189743,1282.8341132409,2656122.607886,33.204830483048,0,0
613.01611664964,-440.17746847553,28.009260926093,1357897.3189743,1282.8341132409,2656122.607886,33.209260926093,0,0
613.01611696372,-440.3792575244,28.013691369137,1357897.3189743,1282.8341132409,2656122.607886,33.213691369137,0,0
613.01611727781,-440.58104657327,28.018121812181,1357897.3189743,1282.8341132409,2656122.607886,33.218121812181,0,0
613.01611759189,-440.78283562214,28.022552255226,1357897.3189743,1282.8341132409,2656122.607886,33.222552255226,0,0
613.01611790597,-440.98462467101,28.02698269827,1357897.3189743,1282.8341132409,2656122.607886,33.22698269827,0,0
613.01611822006,-441.18641371988,28.031413141314,1357897.3189743,1282.8341132409,2656122.607886,33.231413141314,0,0
613.01611853414,-441.38820276875,28.035843584358,1357897.3189743,1282.8341132409,2656122.607886,33.235843584358,0,0
613.01611884822,-441.58999181761,28.040274027403,1357897.3189743,1282.8341132409,2656122.607886,33.240274027403,0,0
613.01611916231,-441.79178086648,28.044704470447,1357897.3189743,1282.8341132409,2656122.607886,33.244704470447,0,0
613.01611947639,-441.99356991535,28.049134913491,1357897.3189743,1282.8341132409,2656122.607886,33.249134913491,0,0
613.01611979047,-442.19535896422,28.053565356536,1357897.3189743,1282.8341132409,2656122.607886,33.253565356536,0,0
613.01612010456,-442.39714801309,28.05799579958,1357897.3189743,1282.8341132409,2656122.607886,33.25799579958,0,0
613.01612041864,-442.59893706196,28.062426242624,1357897.3189743,1282.8341132409,2656122.607886,33.262426242624,0,0
613.01612073272,-442.80072611083,28.066856685669,1357897.3189743,1282.8341132409,2656122.607886,33.266856685669,0,0
613.01612104681,-443.0025151597,28.071287128713,1357897.3189743,1282.8341132409,2656122.607886,33.271287128713,0,0
613.01612136089,-443.20430420857,28.075717571757,1357897.3189743,1282.8341132409,2656122.607886,33.275717571757,0,0
613.01612167498,-443.40609325743,28.080148014801,1357897.3189743,1282.8341132409,2656122.607886,33.280148014801,0,0
613.01612198906,-443.6078823063,28.084578457846,1357897.3189743,1282.8341132409,2656122.607886,33.284578457846,0,0
613.01612230314,-443.80967135517,28.08900890089,1357897.3189743,1282.8341132409,2656122.607886,33.28900890089,0,0
613.01612261723,-444.01146040404,28.093439343934,1357897.3189743,1282.8341132409,2656122.607886,33.293439343934,0,0
613.01612293131,-444.21324945291,28.097869786979,1357897.3189743,1282.8341132409,2656122.607886,33.297869786979,0,0
613.01612324539,-444.41503850178,28.102300230023,1357897.3189743,1282.8341132409,2656122.607886,33.302300230023,0,0
613.01612355948,-444.61682755065,28.106730673067,1357897.3189743,1282.8341132409,2656122.607886,33.306730673067,0,0
613.01612387356,-444.81861659952,28.111161116112,1357897.3189743,1282.8341132409,2656122.607886,33.311161116112,0,0
613.01612418764,-445.02040564838,28.115591559156,1357897.3189743,1282.8341132409,2656122.607886,33.315591559156,0,0
613.01612450173,-445.22219469725,28.1200220022,1357897.3189743,1282.8341132409,2656122.607886,33.3200220022,0,0
613.01612481581,-445.42398374612,28.124452445245,1357897.3189743,1282.8341132409,2656122.607886,33.324452445245,0,0
613.0161251299,-445.62577279499,28.128882888289,1357897.3189743,1282.8341132409,2656122.607886,33.328882888289,0,0
613.01612544398,-445.82756184386,28.133313331333,1357897.3189743,1282.8341132409,2656122.607886,33.333313331333,0,0
613.01612575806,-446.02935089273,28.137743774377,1357897.3189743,1282.8341132409,2656122.607886,33.337743774377,0,0
613.01612607215,-446.2311399416,28.142174217422,1357897.3189743,1282.8341132409,2656122.607886,33.342174217422,0,0
613.01612638623,-446.43292899047,28.146604660466,1357897.3189743,1282.8341132409,2656122.607886,33.346604660466,0,0
613.01612670031,-446.63471803934,28.15103510351,1357897.3189743,1282.8341132409,2656122.607886,33.35103510351,0,0
613.0161270144,-446.8365070882,28.155465546555,1357897.3189743,1282.8341132409,2656122.607886,33.355465546555,0,0
613.01612732848,-447.03829613707,28.159895989599,1357897.3189743,1282.8341132409,2656122.607886,33.359895989599,0,0
613.01612764256,-447.24008518594,28.164326432643,1357897.3189743,1282.8341132409,2656122.607886,33.364326432643,0,0
613.01612795665,-447.44187423481,28.168756875688,1357897.3189743,1282.8341132409,2656122.607886,33.368756875688,0,0
613.01612827073,-447.64366328368,28.173187318732,1357897.3189743,1282.8341132409,2656122.607886,33.373187318732,0,0
613.01612858482,-447.84545233255,28.177617761776,1357897.3189743,1282.8341132409,2656122.607886,33.377617761776,0,0
613.0161288989,-448.04724138142,28.18204820482,1357897.3189743,1282.8341132409,2656122.607886,33.38204820482,0,0
613.01612921298,-448.24903043029,28.186478647865,1357897.3189743,1282.8341132409,2656122.607886,33.386478647865,0,0
613.01612952707,-448.45081947916,28.190909090909,1357897.3189743,1282.8341132409,2656122.607886,33.390909090909,0,0
613.01612984115,-448.65260852802,28.195339533953,1357897.3189743,1282.8341132409,2656122.607886,33.395339533953,0,0
613.01613015523,-448.85439757689,28.199769976998,1357897.3189743,1282.8341132409,2656122.607886,33.399769976998,0,0
613.01613046932,-449.05618662576,28.204200420042,1357897.3189743,1282.8341132409,2656122.607886,33.404200420042,0,0
613.0161307834,-449.25797567463,28.208630863086,1357897.3189743,1282.8341132409,2656122.607886,33.408630863086,0,0
613.01613109748,-449.4597647235,28.213061306131,1357897.3189743,1282.8341132409,2656122.607886,33.413061306131,0,0
613.01613141157,-449.66155377237,28.217491749175,1357897.3189743,1282.8341132409,2656122.607886,33.417491749175,0,0
613.01613172565,-449.86334282124,28.221922192219,1357897.3189743,1282.8341132409,2656122.607886,33.421922192219,0,0
613.01613203974,-450.06513187011,28.226352635264,1357897.3189743,1282.8341132409,2656122.607886,33.426352635264,0,0
613.01613235382,-450.26692091897,28.230783078308,1357897.3189743,1282.8341132409,2656122.607886,33.430783078308,0,0
613.0161326679,-450.46870996784,28.235213521352,1357897.3189743,1282.8341132409,2656122.607886,33.435213521352,0,0
613.01613298199,-450.67049901671,28.239643964396,1357897.3189743,1282.8341132409,2656122.607886,33.439643964396,0,0
613.01613329607,-450.87228806558,28.244074407441,1357897.3189743,1282.8341132409,2656122.607886,33.444074407441,0,0
613.01613361015,-451.07407711445,28.248504850485,1357897.3189743,1282.8341132409,2656122.607886,33.448504850485,0,0
613.01613392424,-451.27586616332,28.252935293529,1357897.3189743,1282.8341132409,2656122.607886,33.452935293529,0,0
613.01613423832,-451.47765521219,28.257365736574,1357897.3189743,1282.8341132409,2656122.607886,33.457365736574,0,0
613.0161345524,-451.67944426106,28.261796179618,1357897.3189743,1282.8341132409,2656122.607886,33.461796179618,0,0
613.01613486649,-451.88123330992,28.266226622662,1357897.3189743,1282.8341132409,2656122.607886,33.466226622662,0,0
613.01613518057,-452.08302235879,28.270657065707,1357897.3189743,1282.8341132409,2656122.607886,33.470657065707,0,0
613.01613549465,-452.28481140766,28.275087508751,1357897.3189743,1282.8341132409,2656122.607886,33.475087508751,0,0
613.01613580874,-452.48660045653,28.279517951795,1357897.3189743,1282.8341132409,2656122.607886,33.479517951795,0,0
613.01613612282,-452.6883895054,28.283948394839,1357897.3189743,1282.8341132409,2656122.607886,33.483948394839,0,0
613.01613643691,-452.89017855427,28.288378837884,1357897.3189743,1282.8341132409,2656122.607886,33.488378837884,0,0
613.01613675099,-453.09196760314,28.292809280928,1357897.3189743,1282.8341132409,2656122.607886,33.492809280928,0,0
613.01613706507,-453.29375665201,28.297239723972,1357897.3189743,1282.8341132409,2656122.607886,33.497239723972,0,0
613.01613737916,-453.49554570088,28.301670167017,1357897.3189743,1282.8341132409,2656122.607886,33.501670167017,0,0
613.01613769324,-453.69733474974,28.306100610061,1357897.3189743,1282.8341132409,2656122.607886,33.506100610061,0,0
613.01613800732,-453.89912379861,28.310531053105,1357897.3189743,1282.8341132409,2656122.607886,33.510531053105,0,0
613.01613832141,-454.10091284748,28.31496149615,1357897.3189743,1282.8341132409,2656122.607886,33.51496149615,0,0
613.01613863549,-454.30270189635,28.319391939194,1357897.3189743,1282.8341132409,2656122.607886,33.519391939194,0,0
613.01613894957,-454.50449094522,28.323822382238,1357897.3189743,1282.8341132409,2656122.607886,33.523822382238,0,0
613.01613926366,-454.70627999409,28.328252825283,1357897.3189743,1282.8341132409,2656122.607886,33.528252825283,0,0
613.01613957774,-454.90806904296,28.332683268327,1357897.3189743,1282.8341132409,2656122.607886,33.532683268327,0,0
613.01613989183,-455.10985809183,28.337113711371,1357897.3189743,1282.8341132409,2656122.607886,33.537113711371,0,0
613.01614020591,-455.3116471407,28.341544154415,1357897.3189743,1282.8341132409,2656122.607886,33.541544154415,0,0
613.01614051999,-455.51343618956,28.34597459746,1357897.3189743,1282.8341132409,2656122.607886,33.54597459746,0,0
613.01614083408,-455.71522523843,28.350405040504,1357897.3189743,1282.8341132409,2656122.607886,33.550405040504,0,0
613.01614114816,-455.9170142873,28.354835483548,1357897.3189743,1282.8341132409,2656122.607886,33.554835483548,0,0
613.01614146224,-456.11880333617,28.359265926593,1357897.3189743,1282.8341132409,2656122.607886,33.559265926593,0,0
613.01614177633,-456.32059238504,28.363696369637,1357897.3189743,1282.8341132409,2656122.607886,33.563696369637,0,0
613.01614209041,-456.52238143391,28.368126812681,1357897.3189743,1282.8341132409,2656122.607886,33.568126812681,0,0
613.01614240449,-456.72417048278,28.372557255726,1357897.3189743,1282.8341132409,2656122.607886,33.572557255726,0,0
613.01614271858,-456.92595953165,28.37698769877,1357897.3189743,1282.8341132409,2656122.607886,33.57698769877,0,0
613.01614303266,-457.12774858051,28.381418141814,1357897.3189743,1282.8341132409,2656122.607886,33.581418141814,0,0
613.01614334675,-457.32953762938,28.385848584858,1357897.3189743,1282.8341132409,2656122.607886,33.585848584858,0,0
613.01614366083,-457.53132667825,28.390279027903,1357897.3189743,1282.8341132409,2656122.607886,33.590279027903,0,0
613.01614397491,-457.73311572712,28.394709470947,1357897.3189743,1282.8341132409,2656122.607886,33.594709470947,0,0
613.016144289,-457.93490477599,28.399139913991,1357897.3189743,1282.8341132409,2656122.607886,33.599139913991,0,0
613.01614460308,-458.13669382486,28.403570357036,1357897.3189743,1282.8341132409,2656122.607886,33.603570357036,0,0
613.01614491716,-458.33848287373,28.40800080008,1357897.3189743,1282.8341132409,2656122.607886,33.60800080008,0,0
613.01614523125,-458.5402719226,28.412431243124,1357897.3189743,1282.8341132409,2656122.607886,33.612431243124,0,0
613.01614554533,-458.74206097147,28.416861686169,1357897.3189743,1282.8341132409,2656122.607886,33.616861686169,0,0
613.01614585941,-458.94385002033,28.421292129213,1357897.3189743,1282.8341132409,2656122.607886,33.621292129213,0,0
613.0161461735,-459.1456390692,28.425722572257,1357897.3189743,1282.8341132409,2656122.607886,33.625722572257,0,0
613.01614648758,-459.34742811807,28.430153015302,1357897.3189743,1282.8341132409,2656122.607886,33.630153015302,0,0
613.01614680166,-459.54921716694,28.434583458346,1357897.3189743,1282.8341132409,2656122.607886,33.634583458346,0,0
613.01614711575,-459.75100621581,28.43901390139,1357897.3189743,1282.8341132409,2656122.607886,33.63901390139,0,0
613.01614742983,-459.95279526468,28.443444344434,1357897.3189743,1282.8341132409,2656122.607886,33.643444344434,0,0
613.01614774392,-460.15458431355,28.447874787479,1357897.3189743,1282.8341132409,2656122.607886,33.647874787479,0,0
613.016148058,-460.35637336242,28.452305230523,1357897.3189743,1282.8341132409,2656122.607886,33.652305230523,0,0
613.01614837208,-460.55816241128,28.456735673567,1357897.3189743,1282.8341132409,2656122.607886,33.656735673567,0,0
613.01614868617,-460.75995146015,28.461166116612,1357897.3189743,1282.8341132409,2656122.607886,33.661166116612,0,0
613.01614900025,-460.96174050902,28.465596559656,1357897.3189743,1282.8341132409,2656122.607886,33.665596559656,0,0
613.01614931433,-461.16352955789,28.4700270027,1357897.3189743,1282.8341132409,2656122.607886,33.6700270027,0,0
613.01614962842,-461.36531860676,28.474457445745,1357897.3189743,1282.8341132409,2656122.607886,33.674457445745,0,0
613.0161499425,-461.56710765563,28.478887888789,1357897.3189743,1282.8341132409,2656122.607886,33.678887888789,0,0
613.01615025658,-461.7688967045,28.483318331833,1357897.3189743,1282.8341132409,2656122.607886,33.683318331833,0,0
613.01615057067,-461.97068575337,28.487748774877,1357897.3189743,1282.8341132409,2656122.607886,33.687748774877,0,0
613.01615088475,-462.17247480224,28.492179217922,1357897.3189743,1282.8341132409,2656122.607886,33.692179217922,0,0
613.01615119884,-462.3742638511,28.496609660966,1357897.3189743,1282.8341132409,2656122.607886,33.696609660966,0,0
613.01615151292,-462.57605289997,28.50104010401,1357897.3189743,1282.8341132409,2656122.607886,33.70104010401,0,0
613.016151827,-462.77784194884,28.505470547055,1357897.3189743,1282.8341132409,2656122.607886,33.705470547055,0,0
613.01615214109,-462.97963099771,28.509900990099,1357897.3189743,1282.8341132409,2656122.607886,33.709900990099,0,0
613.01615245517,-463.18142004658,28.514331433143,1357897.3189743,1282.8341132409,2656122.607886,33.714331433143,0,0
613.01615276925,-463.38320909545,28.518761876188,1357897.3189743,1282.8341132409,2656122.607886,33.718761876188,0,0
613.01615308334,-463.58499814432,28.523192319232,1357897.3189743,1282.8341132409,2656122.607886,33.723192319232,0,0
613.01615339742,-463.78678719319,28.527622762276,1357897.3189743,1282.8341132409,2656122.607886,33.727622762276,0,0
613.0161537115,-463.98857624206,28.532053205321,1357897.3189743,1282.8341132409,2656122.607886,33.732053205321,0,0
613.01615402559,-464.19036529092,28.536483648365,1357897.3189743,1282.8341132409,2656122.607886,33.736483648365,0,0
613.01615433967,-464.39215433979,28.540914091409,1357897.3189743,1282.8341132409,2656122.607886,33.740914091409,0,0
613.01615465376,-464.59394338866,28.545344534453,1357897.3189743,1282.8341132409,2656122.607886,33.745344534453,0,0
613.01615496784,-464.79573243753,28.549774977498,1357897.3189743,1282.8341132409,2656122.607886,33.749774977498,0,0
613.01615528192,-464.9975214864,28.554205420542,1357897.3189743,1282.8341132409,2656122.607886,33.754205420542,0,0
613.01615559601,-465.19931053527,28.558635863586,1357897.3189743,1282.8341132409,2656122.607886,33.758635863586,0,0
613.01615591009,-465.40109958414,28.563066306631,1357897.3189743,1282.8341132409,2656122.607886,33.763066306631,0,0
613.01615622417,-465.60288863301,28.567496749675,1357897.3189743,1282.8341132409,2656122.607886,33.767496749675,0,0
613.01615653826,-465.80467768187,28.571927192719,1357897.3189743,1282.8341132409,2656122.607886,33.771927192719,0,0
613.01615685234,-466.00646673074,28.576357635764,1357897.3189743,1282.8341132409,2656122.607886,33.776357635764,0,0
613.01615716642,-466.20825577961,28.580788078808,1357897.3189743,1282.8341132409,2656122.607886,33.780788078808,0,0
613.01615748051,-466.41004482848,28.585218521852,1357897.3189743,1282.8341132409,2656122.607886,33.785218521852,0,0
613.01615779459,-466.61183387735,28.589648964896,1357897.3189743,1282.8341132409,2656122.607886,33.789648964896,0,0
613.01615810867,-466.81362292622,28.594079407941,1357897.3189743,1282.8341132409,2656122.607886,33.794079407941,0,0
613.01615842276,-467.01541197509,28.598509850985,1357897.3189743,1282.8341132409,2656122.607886,33.798509850985,0,0
613.01615873684,-467.21720102396,28.602940294029,1357897.3189743,1282.8341132409,2656122.607886,33.802940294029,0,0
613.01615905093,-467.41899007283,28.607370737074,1357897.3189743,1282.8341132409,2656122.607886,33.807370737074,0,0
613.01615936501,-467.62077912169,28.611801180118,1357897.3189743,1282.8341132409,2656122.607886,33.811801180118,0,0
613.01615967909,-467.82256817056,28.616231623162,1357897.3189743,1282.8341132409,2656122.607886,33.816231623162,0,0
613.01615999318,-468.02435721943,28.620662066207,1357897.3189743,1282.8341132409,2656122.607886,33.820662066207,0,0
613.01616030726,-468.2261462683,28.625092509251,1357897.3189743,1282.8341132409,2656122.607886,33.825092509251,0,0
613.01616062134,-468.42793531717,28.629522952295,1357897.3189743,1282.8341132409,2656122.607886,33.829522952295,0,0
613.01616093543,-468.62972436604,28.63395339534,1357897.3189743,1282.8341132409,2656122.607886,33.83395339534,0,0
613.01616124951,-468.83151341491,28.638383838384,1357897.3189743,1282.8341132409,2656122.607886,33.838383838384,0,0
613.01616156359,-469.03330246378,28.642814281428,1357897.3189743,1282.8341132409,2656122.607886,33.842814281428,0,0
613.01616187768,-469.23509151264,28.647244724472,1357897.3189743,1282.8341132409,2656122.607886,33.847244724472,0,0
613.01616219176,-469.43688056151,28.651675167517,1357897.3189743,1282.8341132409,2656122.607886,33.851675167517,0,0
613.01616250585,-469.63866961038,28.656105610561,1357897.3189743,1282.8341132409,2656122.607886,33.856105610561,0,0
613.01616281993,-469.84045865925,28.660536053605,1357897.3189743,1282.8341132409,2656122.607886,33.860536053605,0,0
613.01616313401,-470.04224770812,28.66496649665,1357897.3189743,1282.8341132409,2656122.607886,33.86496649665,0,0
613.0161634481,-470.24403675699,28.669396939694,1357897.3189743,1282.8341132409,2656122.607886,33.869396939694,0,0
613.01616376218,-470.44582580586,28.673827382738,1357897.3189743,1282.8341132409,2656122.607886,33.873827382738,0,0
613.01616407626,-470.64761485473,28.678257825783,1357897.3189743,1282.8341132409,2656122.607886,33.878257825783,0,0
613.01616439035,-470.8494039036,28.682688268827,1357897.3189743,1282.8341132409,2656122.607886,33.882688268827,0,0
613.01616470443,-471.05119295246,28.687118711871,1357897.3189743,1282.8341132409,2656122.607886,33.887118711871,0,0
613.01616501851,-471.25298200133,28.691549154915,1357897.3189743,1282.8341132409,2656122.607886,33.891549154915,0,0
613.0161653326,-471.4547710502,28.69597959796,1357897.3189743,1282.8341132409,2656122.607886,33.89597959796,0,0
613.01616564668,-471.65656009907,28.700410041004,1357897.3189743,1282.8341132409,2656122.607886,33.900410041004,0,0
613.01616596077,-471.85834914794,28.704840484048,1357897.3189743,1282.8341132409,2656122.607886,33.904840484048,0,0
613.01616627485,-472.06013819681,28.709270927093,1357897.3189743,1282.8341132409,2656122.607886,33.909270927093,0,0
613.01616658893,-472.26192724568,28.713701370137,1357897.3189743,1282.8341132409,2656122.607886,33.913701370137,0,0
613.01616690302,-472.46371629455,28.718131813181,1357897.3189743,1282.8341132409,2656122.607886,33.918131813181,0,0
613.0161672171,-472.66550534341,28.722562256226,1357897.3189743,1282.8341132409,2656122.607886,33.922562256226,0,0
613.01616753118,-472.86729439228,28.72699269927,1357897.3189743,1282.8341132409,2656122.607886,33.92699269927,0,0
613.01616784527,-473.06908344115,28.731423142314,1357897.3189743,1282.8341132409,2656122.607886,33.931423142314,0,0
613.01616815935,-473.27087249002,28.735853585359,1357897.3189743,1282.8341132409,2656122.607886,33.935853585359,0,0
613.01616847343,-473.47266153889,28.740284028403,1357897.3189743,1282.8341132409,2656122.607886,33.940284028403,0,0
613.01616878752,-473.67445058776,28.744714471447,1357897.3189743,1282.8341132409,2656122.607886,33.944714471447,0,0
613.0161691016,-473.87623963663,28.749144914491,1357897.3189743,1282.8341132409,2656122.607886,33.949144914491,0,0
613.01616941568,-474.0780286855,28.753575357536,1357897.3189743,1282.8341132409,2656122.607886,33.953575357536,0,0
613.01616972977,-474.27981773437,28.75800580058,1357897.3189743,1282.8341132409,2656122.607886,33.95800580058,0,0
613.01617004385,-474.48160678323,28.762436243624,1357897.3189743,1282.8341132409,2656122.607886,33.962436243624,0,0
613.01617035794,-474.6833958321,28.766866686669,1357897.3189743,1282.8341132409,2656122.607886,33.966866686669,0,0
613.01617067202,-474.88518488097,28.771297129713,1357897.3189743,1282.8341132409,2656122.607886,33.971297129713,0,0
613.0161709861,-475.08697392984,28.775727572757,1357897.3189743,1282.8341132409,2656122.607886,33.975727572757,0,0
613.01617130019,-475.28876297871,28.780158015802,1357897.3189743,1282.8341132409,2656122.607886,33.980158015802,0,0
613.01617161427,-475.49055202758,28.784588458846,1357897.3189743,1282.8341132409,2656122.607886,33.984588458846,0,0
613.01617192835,-475.69234107645,28.78901890189,1357897.3189743,1282.8341132409,2656122.607886,33.98901890189,0,0
613.01617224244,-475.89413012532,28.793449344934,1357897.3189743,1282.8341132409,2656122.607886,33.993449344934,0,0
613.01617255652,-476.09591917418,28.797879787979,1357897.3189743,1282.8341132409,2656122.607886,33.997879787979,0,0
613.0161728706,-476.29770822305,28.802310231023,1357897.3189743,1282.8341132409,2656122.607886,34.002310231023,0,0
613.01617318469,-476.49949727192,28.806740674067,1357897.3189743,1282.8341132409,2656122.607886,34.006740674067,0,0
613.01617349877,-476.70128632079,28.811171117112,1357897.3189743,1282.8341132409,2656122.607886,34.011171117112,0,0
613.01617381286,-476.90307536966,28.815601560156,1357897.3189743,1282.8341132409,2656122.607886,34.015601560156,0,0
613.01617412694,-477.10486441853,28.8200320032,1357897.3189743,1282.8341132409,2656122.607886,34.0200320032,0,0
613.01617444102,-477.3066534674,28.824462446245,1357897.3189743,1282.8341132409,2656122.607886,34.024462446245,0,0
613.01617475511,-477.50844251627,28.828892889289,1357897.3189743,1282.8341132409,2656122.607886,34.028892889289,0,0
613.01617506919,-477.71023156514,28.833323332333,1357897.3189743,1282.8341132409,2656122.607886,34.033323332333,0,0
613.01617538327,-477.912020614,28.837753775378,1357897.3189743,1282.8341132409,2656122.607886,34.037753775378,0,0
613.01617569736,-478.11380966287,28.842184218422,1357897.3189743,1282.8341132409,2656122.607886,34.042184218422,0,0
613.01617601144,-478.31559871174,28.846614661466,1357897.3189743,1282.8341132409,2656122.607886,34.046614661466,0,0
613.01617632552,-478.51738776061,28.85104510451,1357897.3189743,1282.8341132409,2656122.607886,34.05104510451,0,0
613.01617663961,-478.71917680948,28.855475547555,1357897.3189743,1282.8341132409,2656122.607886,34.055475547555,0,0
613.01617695369,-478.92096585835,28.859905990599,1357897.3189743,1282.8341132409,2656122.607886,34.059905990599,0,0
613.01617726778,-479.12275490722,28.864336433643,1357897.3189743,1282.8341132409,2656122.607886,34.064336433643,0,0
613.01617758186,-479.32454395609,28.868766876688,1357897.3189743,1282.8341132409,2656122.607886,34.068766876688,0,0
613.01617789594,-479.52633300496,28.873197319732,1357897.3189743,1282.8341132409,2656122.607886,34.073197319732,0,0
613.01617821003,-479.72812205382,28.877627762776,1357897.3189743,1282.8341132409,2656122.607886,34.077627762776,0,0
613.01617852411,-479.92991110269,28.882058205821,1357897.3189743,1282.8341132409,2656122.607886,34.082058205821,0,0
613.01617883819,-480.13170015156,28.886488648865,1357897.3189743,1282.8341132409,2656122.607886,34.086488648865,0,0
613.01617915228,-480.33348920043,28.890919091909,1357897.3189743,1282.8341132409,2656122.607886,34.090919091909,0,0
613.01617946636,-480.5352782493,28.895349534953,1357897.3189743,1282.8341132409,2656122.607886,34.095349534953,0,0
613.01617978044,-480.73706729817,28.899779977998,1357897.3189743,1282.8341132409,2656122.607886,34.099779977998,0,0
613.01618009453,-480.93885634704,28.904210421042,1357897.3189743,1282.8341132409,2656122.607886,34.104210421042,0,0
613.01618040885,-481.14064539697,28.908640864086,1358047.4004684,-1172.1401994117,2650007.5727065,34.108640864086,0,0
613.01618072323,-481.3424344472,28.913071307131,1358047.4004684,-1172.1401994117,2650007.5727065,34.113071307131,0,0
613.01618103762,-481.54422349744,28.917501750175,1358047.4004684,-1172.1401994117,2650007.5727065,34.117501750175,0,0
613.01618135201,-481.74601254768,28.921932193219,1358047.4004684,-1172.1401994117,2650007.5727065,34.121932193219,0,0
613.01618166639,-481.94780159791,28.926362636264,1358047.4004684,-1172.1401994117,2650007.5727065,34.126362636264,0,0
613.01618198078,-482.14959064815,28.930793079308,1358047.4004684,-1172.1401994117,2650007.5727065,34.130793079308,0,0
613.01618229517,-482.35137969839,28.935223522352,1358047.4004684,-1172.1401994117,2650007.5727065,34.135223522352,0,0
613.01618260955,-482.55316874862,28.939653965397,1358047.4004684,-1172.1401994117,2650007.5727065,34.139653965397,0,0
613.01618292394,-482.75495779886,28.944084408441,1358047.4004684,-1172.1401994117,2650007.5727065,34.144084408441,0,0
613.01618323833,-482.95674684909,28.948514851485,1358047.4004684,-1172.1401994117,2650007.5727065,34.148514851485,0,0
613.01618355271,-483.15853589933,28.952945294529,1358047.4004684,-1172.1401994117,2650007.5727065,34.152945294529,0,0
613.0161838671,-483.36032494957,28.957375737574,1358047.4004684,-1172.1401994117,2650007.5727065,34.157375737574,0,0
613.01618418149,-483.5621139998,28.961806180618,1358047.4004684,-1172.1401994117,2650007.5727065,34.161806180618,0,0
613.01618449588,-483.76390305004,28.966236623662,1358047.4004684,-1172.1401994117,2650007.5727065,34.166236623662,0,0
613.01618481026,-483.96569210028,28.970667066707,1358047.4004684,-1172.1401994117,2650007.5727065,34.170667066707,0,0
613.01618512465,-484.16748115051,28.975097509751,1358047.4004684,-1172.1401994117,2650007.5727065,34.175097509751,0,0
613.01618543904,-484.36927020075,28.979527952795,1358047.4004684,-1172.1401994117,2650007.5727065,34.179527952795,0,0
613.01618575342,-484.57105925099,28.98395839584,1358047.4004684,-1172.1401994117,2650007.5727065,34.18395839584,0,0
613.01618606781,-484.77284830122,28.988388838884,1358047.4004684,-1172.1401994117,2650007.5727065,34.188388838884,0,0
613.0161863822,-484.97463735146,28.992819281928,1358047.4004684,-1172.1401994117,2650007.5727065,34.192819281928,0,0
613.01618669658,-485.1764264017,28.997249724972,1358047.4004684,-1172.1401994117,2650007.5727065,34.197249724972,0,0
613.01618701097,-485.37821545193,29.001680168017,1358047.4004684,-1172.1401994117,2650007.5727065,34.201680168017,0,0
613.01618732536,-485.58000450217,29.006110611061,1358047.4004684,-1172.1401994117,2650007.5727065,34.206110611061,0,0
613.01618763974,-485.78179355241,29.010541054105,1358047.4004684,-1172.1401994117,2650007.5727065,34.210541054105,0,0
613.01618795413,-485.98358260264,29.01497149715,1358047.4004684,-1172.1401994117,2650007.5727065,34.21497149715,0,0
613.01618826852,-486.18537165288,29.019401940194,1358047.4004684,-1172.1401994117,2650007.5727065,34.219401940194,0,0
613.0161885829,-486.38716070312,29.023832383238,1358047.4004684,-1172.1401994117,2650007.5727065,34.223832383238,0,0
613.01618889729,-486.58894975335,29.028262826283,1358047.4004684,-1172.1401994117,2650007.5727065,34.228262826283,0,0
613.01618921168,-486.79073880359,29.032693269327,1358047.4004684,-1172.1401994117,2650007.5727065,34.232693269327,0,0
613.01618952606,-486.99252785382,29.037123712371,1358047.4004684,-1172.1401994117,2650007.5727065,34.237123712371,0,0
613.01618984045,-487.19431690406,29.041554155416,1358047.4004684,-1172.1401994117,2650007.5727065,34.241554155416,0,0
613.01619015484,-487.3961059543,29.04598459846,1358047.4004684,-1172.1401994117,2650007.5727065,34.24598459846,0,0
613.01619046923,-487.59789500453,29.050415041504,1358047.4004684,-1172.1401994117,2650007.5727065,34.250415041504,0,0
613.01619078361,-487.79968405477,29.054845484548,1358047.4004684,-1172.1401994117,2650007.5727065,34.254845484548,0,0
613.016191098,-488.00147310501,29.059275927593,1358047.4004684,-1172.1401994117,2650007.5727065,34.259275927593,0,0
613.01619141239,-488.20326215524,29.063706370637,1358047.4004684,-1172.1401994117,2650007.5727065,34.263706370637,0,0
613.01619172677,-488.40505120548,29.068136813681,1358047.4004684,-1172.1401994117,2650007.5727065,34.268136813681,0,0
613.01619204116,-488.60684025572,29.072567256726,1358047.4004684,-1172.1401994117,2650007.5727065,34.272567256726,0,0
613.01619235555,-488.80862930595,29.07699769977,1358047.4004684,-1172.1401994117,2650007.5727065,34.27699769977,0,0
613.01619266993,-489.01041835619,29.081428142814,1358047.4004684,-1172.1401994117,2650007.5727065,34.281428142814,0,0
613.01619298432,-489.21220740643,29.085858585859,1358047.4004684,-1172.1401994117,2650007.5727065,34.285858585859,0,0
613.01619329871,-489.41399645666,29.090289028903,1358047.4004684,-1172.1401994117,2650007.5727065,34.290289028903,0,0
613.01619361309,-489.6157855069,29.094719471947,1358047.4004684,-1172.1401994117,2650007.5727065,34.294719471947,0,0
613.01619392748,-489.81757455714,29.099149914991,1358047.4004684,-1172.1401994117,2650007.5727065,34.299149914991,0,0
613.01619424187,-490.01936360737,29.103580358036,1358047.4004684,-1172.1401994117,2650007.5727065,34.303580358036,0,0
613.01619455625,-490.22115265761,29.10801080108,1358047.4004684,-1172.1401994117,2650007.5727065,34.30801080108,0,0
613.01619487064,-490.42294170784,29.112441244124,1358047.4004684,-1172.1401994117,2650007.5727065,34.312441244124,0,0
613.01619518503,-490.62473075808,29.116871687169,1358047.4004684,-1172.1401994117,2650007.5727065,34.316871687169,0,0
613.01619549941,-490.82651980832,29.121302130213,1358047.4004684,-1172.1401994117,2650007.5727065,34.321302130213,0,0
613.0161958138,-491.02830885855,29.125732573257,1358047.4004684,-1172.1401994117,2650007.5727065,34.325732573257,0,0
613.01619612819,-491.23009790879,29.130163016302,1358047.4004684,-1172.1401994117,2650007.5727065,34.330163016302,0,0
613.01619644258,-491.43188695903,29.134593459346,1358047.4004684,-1172.1401994117,2650007.5727065,34.334593459346,0,0
613.01619675696,-491.63367600926,29.13902390239,1358047.4004684,-1172.1401994117,2650007.5727065,34.33902390239,0,0
613.01619707135,-491.8354650595,29.143454345435,1358047.4004684,-1172.1401994117,2650007.5727065,34.343454345435,0,0
613.01619738574,-492.03725410974,29.147884788479,1358047.4004684,-1172.1401994117,2650007.5727065,34.347884788479,0,0
613.01619770012,-492.23904315997,29.152315231523,1358047.4004684,-1172.1401994117,2650007.5727065,34.352315231523,0,0
613.01619801451,-492.44083221021,29.156745674567,1358047.4004684,-1172.1401994117,2650007.5727065,34.356745674567,0,0
613.0161983289,-492.64262126045,29.161176117612,1358047.4004684,-1172.1401994117,2650007.5727065,34.361176117612,0,0
613.01619864328,-492.84441031068,29.165606560656,1358047.4004684,-1172.1401994117,2650007.5727065,34.365606560656,0,0
613.01619895767,-493.04619936092,29.1700370037,1358047.4004684,-1172.1401994117,2650007.5727065,34.3700370037,0,0
613.01619927206,-493.24798841116,29.174467446745,1358047.4004684,-1172.1401994117,2650007.5727065,34.374467446745,0,0
613.01619958644,-493.44977746139,29.178897889789,1358047.4004684,-1172.1401994117,2650007.5727065,34.378897889789,0,0
613.01619990083,-493.65156651163,29.183328332833,1358047.4004684,-1172.1401994117,2650007.5727065,34.383328332833,0,0
613.01620021522,-493.85335556187,29.187758775878,1358047.4004684,-1172.1401994117,2650007.5727065,34.387758775878,0,0
613.0162005296,-494.0551446121,29.192189218922,1358047.4004684,-1172.1401994117,2650007.5727065,34.392189218922,0,0
613.01620084399,-494.25693366234,29.196619661966,1358047.4004684,-1172.1401994117,2650007.5727065,34.396619661966,0,0
613.01620115838,-494.45872271258,29.20105010501,1358047.4004684,-1172.1401994117,2650007.5727065,34.40105010501,0,0
613.01620147276,-494.66051176281,29.205480548055,1358047.4004684,-1172.1401994117,2650007.5727065,34.405480548055,0,0
613.01620178715,-494.86230081305,29.209910991099,1358047.4004684,-1172.1401994117,2650007.5727065,34.409910991099,0,0
613.01620210154,-495.06408986328,29.214341434143,1358047.4004684,-1172.1401994117,2650007.5727065,34.414341434143,0,0
613.01620241593,-495.26587891352,29.218771877188,1358047.4004684,-1172.1401994117,2650007.5727065,34.418771877188,0,0
613.01620273031,-495.46766796376,29.223202320232,1358047.4004684,-1172.1401994117,2650007.5727065,34.423202320232,0,0
613.0162030447,-495.66945701399,29.227632763276,1358047.4004684,-1172.1401994117,2650007.5727065,34.427632763276,0,0
613.01620335909,-495.87124606423,29.232063206321,1358047.4004684,-1172.1401994117,2650007.5727065,34.432063206321,0,0
613.01620367347,-496.07303511447,29.236493649365,1358047.4004684,-1172.1401994117,2650007.5727065,34.436493649365,0,0
613.01620398786,-496.2748241647,29.240924092409,1358047.4004684,-1172.1401994117,2650007.5727065,34.440924092409,0,0
613.01620430225,-496.47661321494,29.245354535454,1358047.4004684,-1172.1401994117,2650007.5727065,34.445354535454,0,0
613.01620461663,-496.67840226518,29.249784978498,1358047.4004684,-1172.1401994117,2650007.5727065,34.449784978498,0,0
613.01620493102,-496.88019131541,29.254215421542,1358047.4004684,-1172.1401994117,2650007.5727065,34.454215421542,0,0
613.01620524541,-497.08198036565,29.258645864586,1358047.4004684,-1172.1401994117,2650007.5727065,34.458645864586,0,0
613.01620555979,-497.28376941589,29.263076307631,1358047.4004684,-1172.1401994117,2650007.5727065,34.463076307631,0,0
613.01620587418,-497.48555846612,29.267506750675,1358047.4004684,-1172.1401994117,2650007.5727065,34.467506750675,0,0
613.01620618857,-497.68734751636,29.271937193719,1358047.4004684,-1172.1401994117,2650007.5727065,34.471937193719,0,0
613.01620650295,-497.8891365666,29.276367636764,1358047.4004684,-1172.1401994117,2650007.5727065,34.476367636764,0,0
613.01620681734,-498.09092561683,29.280798079808,1358047.4004684,-1172.1401994117,2650007.5727065,34.480798079808,0,0
613.01620713173,-498.29271466707,29.285228522852,1358047.4004684,-1172.1401994117,2650007.5727065,34.485228522852,0,0
613.01620744611,-498.49450371731,29.289658965897,1358047.4004684,-1172.1401994117,2650007.5727065,34.489658965897,0,0
613.0162077605,-498.69629276754,29.294089408941,1358047.4004684,-1172.1401994117,2650007.5727065,34.494089408941,0,0
613.01620807489,-498.89808181778,29.298519851985,1358047.4004684,-1172.1401994117,2650007.5727065,34.498519851985,0,0
613.01620838928,-499.09987086801,29.30295029503,1358047.4004684,-1172.1401994117,2650007.5727065,34.502950295029,0,0
613.01620870366,-499.30165991825,29.307380738074,1358047.4004684,-1172.1401994117,2650007.5727065,34.507380738074,0,0
613.01620901805,-499.50344896849,29.311811181118,1358047.4004684,-1172.1401994117,2650007.5727065,34.511811181118,0,0
613.01620933244,-499.70523801872,29.316241624162,1358047.4004684,-1172.1401994117,2650007.5727065,34.516241624162,0,0
613.01620964682,-499.90702706896,29.320672067207,1358047.4004684,-1172.1401994117,2650007.5727065,34.520672067207,0,0
613.01620996121,-500.1088161192,29.325102510251,1358047.4004684,-1172.1401994117,2650007.5727065,34.525102510251,0,0
613.0162102756,-500.31060516943,29.329532953295,1358047.4004684,-1172.1401994117,2650007.5727065,34.529532953295,0,0
613.01621058998,-500.51239421967,29.33396339634,1358047.4004684,-1172.1401994117,2650007.5727065,34.53396339634,0,0
613.01621090437,-500.71418326991,29.338393839384,1358047.4004684,-1172.1401994117,2650007.5727065,34.538393839384,0,0
613.01621121876,-500.91597232014,29.342824282428,1358047.4004684,-1172.1401994117,2650007.5727065,34.542824282428,0,0
613.01621153314,-501.11776137038,29.347254725473,1358047.4004684,-1172.1401994117,2650007.5727065,34.547254725473,0,0
613.01621184753,-501.31955042062,29.351685168517,1358047.4004684,-1172.1401994117,2650007.5727065,34.551685168517,0,0
613.01621216192,-501.52133947085,29.356115611561,1358047.4004684,-1172.1401994117,2650007.5727065,34.556115611561,0,0
613.0162124763,-501.72312852109,29.360546054605,1358047.4004684,-1172.1401994117,2650007.5727065,34.560546054605,0,0
613.01621279069,-501.92491757133,29.36497649765,1358047.4004684,-1172.1401994117,2650007.5727065,34.56497649765,0,0
613.01621310508,-502.12670662156,29.369406940694,1358047.4004684,-1172.1401994117,2650007.5727065,34.569406940694,0,0
613.01621341946,-502.3284956718,29.373837383738,1358047.4004684,-1172.1401994117,2650007.5727065,34.573837383738,0,0
613.01621373385,-502.53028472204,29.378267826783,1358047.4004684,-1172.1401994117,2650007.5727065,34.578267826783,0,0
613.01621404824,-502.73207377227,29.382698269827,1358047.4004684,-1172.1401994117,2650007.5727065,34.582698269827,0,0
613.01621436263,-502.93386282251,29.387128712871,1358047.4004684,-1172.1401994117,2650007.5727065,34.587128712871,0,0
613.01621467701,-503.13565187274,29.391559155916,1358047.4004684,-1172.1401994117,2650007.5727065,34.591559155916,0,0
613.0162149914,-503.33744092298,29.39598959896,1358047.4004684,-1172.1401994117,2650007.5727065,34.59598959896,0,0
613.01621530579,-503.53922997322,29.400420042004,1358047.4004684,-1172.1401994117,2650007.5727065,34.600420042004,0,0
613.01621562017,-503.74101902345,29.404850485049,1358047.4004684,-1172.1401994117,2650007.5727065,34.604850485049,0,0
613.01621593456,-503.94280807369,29.409280928093,1358047.4004684,-1172.1401994117,2650007.5727065,34.609280928093,0,0
613.01621624895,-504.14459712393,29.413711371137,1358047.4004684,-1172.1401994117,2650007.5727065,34.613711371137,0,0
613.01621656333,-504.34638617416,29.418141814181,1358047.4004684,-1172.1401994117,2650007.5727065,34.618141814181,0,0
613.01621687772,-504.5481752244,29.422572257226,1358047.4004684,-1172.1401994117,2650007.5727065,34.622572257226,0,0
613.01621719211,-504.74996427464,29.42700270027,1358047.4004684,-1172.1401994117,2650007.5727065,34.62700270027,0,0
613.01621750649,-504.95175332487,29.431433143314,1358047.4004684,-1172.1401994117,2650007.5727065,34.631433143314,0,0
613.01621782088,-505.15354237511,29.435863586359,1358047.4004684,-1172.1401994117,2650007.5727065,34.635863586359,0,0
613.01621813527,-505.35533142535,29.440294029403,1358047.4004684,-1172.1401994117,2650007.5727065,34.640294029403,0,0
613.01621844965,-505.55712047558,29.444724472447,1358047.4004684,-1172.1401994117,2650007.5727065,34.644724472447,0,0
613.01621876404,-505.75890952582,29.449154915492,1358047.4004684,-1172.1401994117,2650007.5727065,34.649154915492,0,0
613.01621907843,-505.96069857606,29.453585358536,1358047.4004684,-1172.1401994117,2650007.5727065,34.653585358536,0,0
613.01621939281,-506.16248762629,29.45801580158,1358047.4004684,-1172.1401994117,2650007.5727065,34.65801580158,0,0
613.0162197072,-506.36427667653,29.462446244624,1358047.4004684,-1172.1401994117,2650007.5727065,34.662446244624,0,0
613.01622002159,-506.56606572676,29.466876687669,1358047.4004684,-1172.1401994117,2650007.5727065,34.666876687669,0,0
613.01622033598,-506.767854777,29.471307130713,1358047.4004684,-1172.1401994117,2650007.5727065,34.671307130713,0,0
613.01622065036,-506.96964382724,29.475737573757,1358047.4004684,-1172.1401994117,2650007.5727065,34.675737573757,0,0
613.01622096475,-507.17143287747,29.480168016802,1358047.4004684,-1172.1401994117,2650007.5727065,34.680168016802,0,0
613.01622127914,-507.37322192771,29.484598459846,1358047.4004684,-1172.1401994117,2650007.5727065,34.684598459846,0,0
613.01622159352,-507.57501097795,29.48902890289,1358047.4004684,-1172.1401994117,2650007.5727065,34.68902890289,0,0
613.01622190791,-507.77680002818,29.493459345935,1358047.4004684,-1172.1401994117,2650007.5727065,34.693459345935,0,0
613.0162222223,-507.97858907842,29.497889788979,1358047.4004684,-1172.1401994117,2650007.5727065,34.697889788979,0,0
613.01622253668,-508.18037812866,29.502320232023,1358047.4004684,-1172.1401994117,2650007.5727065,34.702320232023,0,0
613.01622285107,-508.38216717889,29.506750675068,1358047.4004684,-1172.1401994117,2650007.5727065,34.706750675068,0,0
613.01622316546,-508.58395622913,29.511181118112,1358047.4004684,-1172.1401994117,2650007.5727065,34.711181118112,0,0
613.01622347984,-508.78574527937,29.515611561156,1358047.4004684,-1172.1401994117,2650007.5727065,34.715611561156,0,0
613.01622379423,-508.9875343296,29.5200420042,1358047.4004684,-1172.1401994117,2650007.5727065,34.7200420042,0,0
613.01622410862,-509.18932337984,29.524472447245,1358047.4004684,-1172.1401994117,2650007.5727065,34.724472447245,0,0
613.016224423,-509.39111243008,29.528902890289,1358047.4004684,-1172.1401994117,2650007.5727065,34.728902890289,0,0
613.01622473739,-509.59290148031,29.533333333333,1358047.4004684,-1172.1401994117,2650007.5727065,34.733333333333,0,0
613.01622505178,-509.79469053055,29.537763776378,1358047.4004684,-1172.1401994117,2650007.5727065,34.737763776378,0,0
613.01622536616,-509.99647958079,29.542194219422,1358047.4004684,-1172.1401994117,2650007.5727065,34.742194219422,0,0
613.01622568055,-510.19826863102,29.546624662466,1358047.4004684,-1172.1401994117,2650007.5727065,34.746624662466,0,0
613.01622599494,-510.40005768126,29.551055105511,1358047.4004684,-1172.1401994117,2650007.5727065,34.751055105511,0,0
613.01622630933,-510.60184673149,29.555485548555,1358047.4004684,-1172.1401994117,2650007.5727065,34.755485548555,0,0
613.01622662371,-510.80363578173,29.559915991599,1358047.4004684,-1172.1401994117,2650007.5727065,34.759915991599,0,0
613.0162269381,-511.00542483197,29.564346434643,1358047.4004684,-1172.1401994117,2650007.5727065,34.764346434643,0,0
613.01622725249,-511.2072138822,29.568776877688,1358047.4004684,-1172.1401994117,2650007.5727065,34.768776877688,0,0
613.01622756687,-511.40900293244,29.573207320732,1358047.4004684,-1172.1401994117,2650007.5727065,34.773207320732,0,0
613.01622788126,-511.61079198268,29.577637763776,1358047.4004684,-1172.1401994117,2650007.5727065,34.777637763776,0,0
613.01622819565,-511.81258103291,29.582068206821,1358047.4004684,-1172.1401994117,2650007.5727065,34.782068206821,0,0
613.01622851003,-512.01437008315,29.586498649865,1358047.4004684,-1172.1401994117,2650007.5727065,34.786498649865,0,0
613.01622882442,-512.21615913339,29.590929092909,1358047.4004684,-1172.1401994117,2650007.5727065,34.790929092909,0,0
613.01622913881,-512.41794818362,29.595359535954,1358047.4004684,-1172.1401994117,2650007.5727065,34.795359535954,0,0
613.01622945319,-512.61973723386,29.599789978998,1358047.4004684,-1172.1401994117,2650007.5727065,34.799789978998,0,0
613.01622976758,-512.8215262841,29.604220422042,1358047.4004684,-1172.1401994117,2650007.5727065,34.804220422042,0,0
613.01623008197,-513.02331533433,29.608650865087,1358047.4004684,-1172.1401994117,2650007.5727065,34.808650865087,0,0
613.01623039635,-513.22510438457,29.613081308131,1358047.4004684,-1172.1401994117,2650007.5727065,34.813081308131,0,0
613.01623071074,-513.42689343481,29.617511751175,1358047.4004684,-1172.1401994117,2650007.5727065,34.817511751175,0,0
613.01623102513,-513.62868248504,29.621942194219,1358047.4004684,-1172.1401994117,2650007.5727065,34.821942194219,0,0
613.01623133951,-513.83047153528,29.626372637264,1358047.4004684,-1172.1401994117,2650007.5727065,34.826372637264,0,0
613.0162316539,-514.03226058552,29.630803080308,1358047.4004684,-1172.1401994117,2650007.5727065,34.830803080308,0,0
613.01623196829,-514.23404963575,29.635233523352,1358047.4004684,-1172.1401994117,2650007.5727065,34.835233523352,0,0
613.01623228268,-514.43583868599,29.639663966397,1358047.4004684,-1172.1401994117,2650007.5727065,34.839663966397,0,0
613.01623259706,-514.63762773622,29.644094409441,1358047.4004684,-1172.1401994117,2650007.5727065,34.844094409441,0,0
613.01623291145,-514.83941678646,29.648524852485,1358047.4004684,-1172.1401994117,2650007.5727065,34.848524852485,0,0
613.01623322584,-515.0412058367,29.65295529553,1358047.4004684,-1172.1401994117,2650007.5727065,34.85295529553,0,0
613.01623354022,-515.24299488693,29.657385738574,1358047.4004684,-1172.1401994117,2650007.5727065,34.857385738574,0,0
613.01623385461,-515.44478393717,29.661816181618,1358047.4004684,-1172.1401994117,2650007.5727065,34.861816181618,0,0
613.016234169,-515.64657298741,29.666246624662,1358047.4004684,-1172.1401994117,2650007.5727065,34.866246624662,0,0
613.01623448338,-515.84836203753,29.670677067707,1356992.9155556,1639.2683216738,2645858.0309657,34.870677067707,0,0
613.01623479776,-516.05015108649,29.675107510751,1356992.9155556,1639.2683216738,2645858.0309657,34.875107510751,0,0
613.01623511215,-516.25194013545,29.679537953795,1356992.9155556,1639.2683216738,2645858.0309657,34.879537953795,0,0
613.01623542653,-516.45372918441,29.68396839684,1356992.9155556,1639.2683216738,2645858.0309657,34.88396839684,0,0
613.01623574091,-516.65551823337,29.688398839884,1356992.9155556,1639.2683216738,2645858.0309657,34.888398839884,0,0
613.01623605529,-516.85730728232,29.692829282928,1356992.9155556,1639.2683216738,2645858.0309657,34.892829282928,0,0
613.01623636967,-517.05909633128,29.697259725973,1356992.9155556,1639.2683216738,2645858.0309657,34.897259725973,0,0
613.01623668405,-517.26088538024,29.701690169017,1356992.9155556,1639.2683216738,2645858.0309657,34.901690169017,0,0
613.01623699843,-517.4626744292,29.706120612061,1356992.9155556,1639.2683216738,2645858.0309657,34.906120612061,0,0
613.01623731282,-517.66446347816,29.710551055106,1356992.9155556,1639.2683216738,2645858.0309657,34.910551055106,0,0
613.0162376272,-517.86625252712,29.71498149815,1356992.9155556,1639.2683216738,2645858.0309657,34.91498149815,0,0
613.01623794158,-518.06804157608,29.719411941194,1356992.9155556,1639.2683216738,2645858.0309657,34.919411941194,0,0
613.01623825596,-518.26983062504,29.723842384238,1356992.9155556,1639.2683216738,2645858.0309657,34.923842384238,0,0
613.01623857034,-518.47161967399,29.728272827283,1356992.9155556,1639.2683216738,2645858.0309657,34.928272827283,0,0
613.01623888472,-518.67340872295,29.732703270327,1356992.9155556,1639.2683216738,2645858.0309657,34.932703270327,0,0
613.0162391991,-518.87519777191,29.737133713371,1356992.9155556,1639.2683216738,2645858.0309657,34.937133713371,0,0
613.01623951348,-519.07698682087,29.741564156416,1356992.9155556,1639.2683216738,2645858.0309657,34.941564156416,0,0
613.01623982787,-519.27877586983,29.74599459946,1356992.9155556,1639.2683216738,2645858.0309657,34.94599459946,0,0
613.01624014225,-519.48056491879,29.750425042504,1356992.9155556,1639.2683216738,2645858.0309657,34.950425042504,0,0
613.01624045663,-519.68235396775,29.754855485549,1356992.9155556,1639.2683216738,2645858.0309657,34.954855485549,0,0
613.01624077101,-519.8841430167,29.759285928593,1356992.9155556,1639.2683216738,2645858.0309657,34.959285928593,0,0
613.01624108539,-520.08593206566,29.763716371637,1356992.9155556,1639.2683216738,2645858.0309657,34.963716371637,0,0
613.01624139977,-520.28772111462,29.768146814681,1356992.9155556,1639.2683216738,2645858.0309657,34.968146814681,0,0
613.01624171415,-520.48951016358,29.772577257726,1356992.9155556,1639.2683216738,2645858.0309657,34.972577257726,0,0
613.01624202854,-520.69129921254,29.77700770077,1356992.9155556,1639.2683216738,2645858.0309657,34.97700770077,0,0
613.01624234292,-520.8930882615,29.781438143814,1356992.9155556,1639.2683216738,2645858.0309657,34.981438143814,0,0
613.0162426573,-521.09487731046,29.785868586859,1356992.9155556,1639.2683216738,2645858.0309657,34.985868586859,0,0
613.01624297168,-521.29666635942,29.790299029903,1356992.9155556,1639.2683216738,2645858.0309657,34.990299029903,0,0
613.01624328606,-521.49845540837,29.794729472947,1356992.9155556,1639.2683216738,2645858.0309657,34.994729472947,0,0
613.01624360044,-521.70024445733,29.799159915992,1356992.9155556,1639.2683216738,2645858.0309657,34.999159915992,0,0
613.01624391482,-521.90203350629,29.803590359036,1356992.9155556,1639.2683216738,2645858.0309657,35.003590359036,0,0
613.0162442292,-522.10382255525,29.80802080208,1356992.9155556,1639.2683216738,2645858.0309657,35.00802080208,0,0
613.01624454359,-522.30561160421,29.812451245125,1356992.9155556,1639.2683216738,2645858.0309657,35.012451245125,0,0
613.01624485797,-522.50740065317,29.816881688169,1356992.9155556,1639.2683216738,2645858.0309657,35.016881688169,0,0
613.01624517235,-522.70918970213,29.821312131213,1356992.9155556,1639.2683216738,2645858.0309657,35.021312131213,0,0
613.01624548673,-522.91097875108,29.825742574257,1356992.9155556,1639.2683216738,2645858.0309657,35.025742574257,0,0
613.01624580111,-523.11276780004,29.830173017302,1356992.9155556,1639.2683216738,2645858.0309657,35.030173017302,0,0
613.01624611549,-523.314556849,29.834603460346,1356992.9155556,1639.2683216738,2645858.0309657,35.034603460346,0,0
613.01624642987,-523.51634589796,29.83903390339,1356992.9155556,1639.2683216738,2645858.0309657,35.03903390339,0,0
613.01624674426,-523.71813494692,29.843464346435,1356992.9155556,1639.2683216738,2645858.0309657,35.043464346435,0,0
613.01624705864,-523.91992399588,29.847894789479,1356992.9155556,1639.2683216738,2645858.0309657,35.047894789479,0,0
613.01624737302,-524.12171304484,29.852325232523,1356992.9155556,1639.2683216738,2645858.0309657,35.052325232523,0,0
613.0162476874,-524.3235020938,29.856755675568,1356992.9155556,1639.2683216738,2645858.0309657,35.056755675568,0,0
613.01624800178,-524.52529114275,29.861186118612,1356992.9155556,1639.2683216738,2645858.0309657,35.061186118612,0,0
613.01624831616,-524.72708019171,29.865616561656,1356992.9155556,1639.2683216738,2645858.0309657,35.065616561656,0,0
613.01624863054,-524.92886924067,29.8700470047,1356992.9155556,1639.2683216738,2645858.0309657,35.0700470047,0,0
613.01624894493,-525.13065828963,29.874477447745,1356992.9155556,1639.2683216738,2645858.0309657,35.074477447745,0,0
613.01624925931,-525.33244733859,29.878907890789,1356992.9155556,1639.2683216738,2645858.0309657,35.078907890789,0,0
613.01624957369,-525.53423638755,29.883338333833,1356992.9155556,1639.2683216738,2645858.0309657,35.083338333833,0,0
613.01624988807,-525.73602543651,29.887768776878,1356992.9155556,1639.2683216738,2645858.0309657,35.087768776878,0,0
613.01625020245,-525.93781448547,29.892199219922,1356992.9155556,1639.2683216738,2645858.0309657,35.092199219922,0,0
613.01625051683,-526.13960353442,29.896629662966,1356992.9155556,1639.2683216738,2645858.0309657,35.096629662966,0,0
613.01625083121,-526.34139258338,29.901060106011,1356992.9155556,1639.2683216738,2645858.0309657,35.101060106011,0,0
613.01625114559,-526.54318163234,29.905490549055,1356992.9155556,1639.2683216738,2645858.0309657,35.105490549055,0,0
613.01625145998,-526.7449706813,29.909920992099,1356992.9155556,1639.2683216738,2645858.0309657,35.109920992099,0,0
613.01625177436,-526.94675973026,29.914351435144,1356992.9155556,1639.2683216738,2645858.0309657,35.114351435144,0,0
613.01625208874,-527.14854877922,29.918781878188,1356992.9155556,1639.2683216738,2645858.0309657,35.118781878188,0,0
613.01625240312,-527.35033782818,29.923212321232,1356992.9155556,1639.2683216738,2645858.0309657,35.123212321232,0,0
613.0162527175,-527.55212687713,29.927642764276,1356992.9155556,1639.2683216738,2645858.0309657,35.127642764276,0,0
613.01625303188,-527.75391592609,29.932073207321,1356992.9155556,1639.2683216738,2645858.0309657,35.132073207321,0,0
613.01625334626,-527.95570497505,29.936503650365,1356992.9155556,1639.2683216738,2645858.0309657,35.136503650365,0,0
613.01625366065,-528.15749402401,29.940934093409,1356992.9155556,1639.2683216738,2645858.0309657,35.140934093409,0,0
613.01625397503,-528.35928307297,29.945364536454,1356992.9155556,1639.2683216738,2645858.0309657,35.145364536454,0,0
613.01625428941,-528.56107212193,29.949794979498,1356992.9155556,1639.2683216738,2645858.0309657,35.149794979498,0,0
613.01625460379,-528.76286117089,29.954225422542,1356992.9155556,1639.2683216738,2645858.0309657,35.154225422542,0,0
613.01625491817,-528.96465021985,29.958655865587,1356992.9155556,1639.2683216738,2645858.0309657,35.158655865587,0,0
613.01625523255,-529.1664392688,29.963086308631,1356992.9155556,1639.2683216738,2645858.0309657,35.163086308631,0,0
613.01625554693,-529.36822831776,29.967516751675,1356992.9155556,1639.2683216738,2645858.0309657,35.167516751675,0,0
613.01625586131,-529.57001736672,29.971947194719,1356992.9155556,1639.2683216738,2645858.0309657,35.171947194719,0,0
613.0162561757,-529.77180641568,29.976377637764,1356992.9155556,1639.2683216738,2645858.0309657,35.176377637764,0,0
613.01625649008,-529.97359546464,29.980808080808,1356992.9155556,1639.2683216738,2645858.0309657,35.180808080808,0,0
613.01625680446,-530.1753845136,29.985238523852,1356992.9155556,1639.2683216738,2645858.0309657,35.185238523852,0,0
613.01625711884,-530.37717356256,29.989668966897,1356992.9155556,1639.2683216738,2645858.0309657,35.189668966897,0,0
613.01625743322,-530.57896261152,29.994099409941,1356992.9155556,1639.2683216738,2645858.0309657,35.194099409941,0,0
613.0162577476,-530.78075166047,29.998529852985,1356992.9155556,1639.2683216738,2645858.0309657,35.198529852985,0,0
613.01625806198,-530.98254070943,30.00296029603,1356992.9155556,1639.2683216738,2645858.0309657,35.20296029603,0,0
613.01625837637,-531.18432975839,30.007390739074,1356992.9155556,1639.2683216738,2645858.0309657,35.207390739074,0,0
613.01625869075,-531.38611880735,30.011821182118,1356992.9155556,1639.2683216738,2645858.0309657,35.211821182118,0,0
613.01625900513,-531.58790785631,30.016251625163,1356992.9155556,1639.2683216738,2645858.0309657,35.216251625163,0,0
613.01625931951,-531.78969690527,30.020682068207,1356992.9155556,1639.2683216738,2645858.0309657,35.220682068207,0,0
613.01625963389,-531.99148595423,30.025112511251,1356992.9155556,1639.2683216738,2645858.0309657,35.225112511251,0,0
613.01625994827,-532.19327500318,30.029542954295,1356992.9155556,1639.2683216738,2645858.0309657,35.229542954295,0,0
613.01626026265,-532.39506405214,30.03397339734,1356992.9155556,1639.2683216738,2645858.0309657,35.23397339734,0,0
613.01626057704,-532.5968531011,30.038403840384,1356992.9155556,1639.2683216738,2645858.0309657,35.238403840384,0,0
613.01626089142,-532.79864215006,30.042834283428,1356992.9155556,1639.2683216738,2645858.0309657,35.242834283428,0,0
613.0162612058,-533.00043119902,30.047264726473,1356992.9155556,1639.2683216738,2645858.0309657,35.247264726473,0,0
613.01626152018,-533.20222024798,30.051695169517,1356992.9155556,1639.2683216738,2645858.0309657,35.251695169517,0,0
613.01626183456,-533.40400929694,30.056125612561,1356992.9155556,1639.2683216738,2645858.0309657,35.256125612561,0,0
613.01626214894,-533.6057983459,30.060556055606,1356992.9155556,1639.2683216738,2645858.0309657,35.260556055606,0,0
613.01626246332,-533.80758739485,30.06498649865,1356992.9155556,1639.2683216738,2645858.0309657,35.26498649865,0,0
613.0162627777,-534.00937644381,30.069416941694,1356992.9155556,1639.2683216738,2645858.0309657,35.269416941694,0,0
613.01626309209,-534.21116549277,30.073847384738,1356992.9155556,1639.2683216738,2645858.0309657,35.273847384738,0,0
613.01626340647,-534.41295454173,30.078277827783,1356992.9155556,1639.2683216738,2645858.0309657,35.278277827783,0,0
613.01626372085,-534.61474359069,30.082708270827,1356992.9155556,1639.2683216738,2645858.0309657,35.282708270827,0,0
613.01626403523,-534.81653263965,30.087138713871,1356992.9155556,1639.2683216738,2645858.0309657,35.287138713871,0,0
613.01626434961,-535.01832168861,30.091569156916,1356992.9155556,1639.2683216738,2645858.0309657,35.291569156916,0,0
613.01626466399,-535.22011073756,30.09599959996,1356992.9155556,1639.2683216738,2645858.0309657,35.29599959996,0,0
613.01626497837,-535.42189978652,30.100430043004,1356992.9155556,1639.2683216738,2645858.0309657,35.300430043004,0,0
613.01626529276,-535.62368883548,30.104860486049,1356992.9155556,1639.2683216738,2645858.0309657,35.304860486049,0,0
613.01626560714,-535.82547788444,30.109290929093,1356992.9155556,1639.2683216738,2645858.0309657,35.309290929093,0,0
613.01626592152,-536.0272669334,30.113721372137,1356992.9155556,1639.2683216738,2645858.0309657,35.313721372137,0,0
613.0162662359,-536.22905598236,30.118151815182,1356992.9155556,1639.2683216738,2645858.0309657,35.318151815182,0,0
613.01626655028,-536.43084503132,30.122582258226,1356992.9155556,1639.2683216738,2645858.0309657,35.322582258226,0,0
613.01626686466,-536.63263408028,30.12701270127,1356992.9155556,1639.2683216738,2645858.0309657,35.32701270127,0,0
613.01626717904,-536.83442312923,30.131443144314,1356992.9155556,1639.2683216738,2645858.0309657,35.331443144314,0,0
613.01626749343,-537.03621217819,30.135873587359,1356992.9155556,1639.2683216738,2645858.0309657,35.335873587359,0,0
613.01626780781,-537.23800122715,30.140304030403,1356992.9155556,1639.2683216738,2645858.0309657,35.340304030403,0,0
613.01626812219,-537.43979027611,30.144734473447,1356992.9155556,1639.2683216738,2645858.0309657,35.344734473447,0,0
613.01626843657,-537.64157932507,30.149164916492,1356992.9155556,1639.2683216738,2645858.0309657,35.349164916492,0,0
613.01626875095,-537.84336837403,30.153595359536,1356992.9155556,1639.2683216738,2645858.0309657,35.353595359536,0,0
613.01626906533,-538.04515742299,30.15802580258,1356992.9155556,1639.2683216738,2645858.0309657,35.35802580258,0,0
613.01626937971,-538.24694647195,30.162456245625,1356992.9155556,1639.2683216738,2645858.0309657,35.362456245625,0,0
613.01626969409,-538.4487355209,30.166886688669,1356992.9155556,1639.2683216738,2645858.0309657,35.366886688669,0,0
613.01627000848,-538.65052456986,30.171317131713,1356992.9155556,1639.2683216738,2645858.0309657,35.371317131713,0,0
613.01627032286,-538.85231361882,30.175747574757,1356992.9155556,1639.2683216738,2645858.0309657,35.375747574757,0,0
613.01627063724,-539.05410266778,30.180178017802,1356992.9155556,1639.2683216738,2645858.0309657,35.380178017802,0,0
613.01627095162,-539.25589171674,30.184608460846,1356992.9155556,1639.2683216738,2645858.0309657,35.384608460846,0,0
613.016271266,-539.4576807657,30.18903890389,1356992.9155556,1639.2683216738,2645858.0309657,35.38903890389,0,0
613.01627158038,-539.65946981466,30.193469346935,1356992.9155556,1639.2683216738,2645858.0309657,35.393469346935,0,0
613.01627189476,-539.86125886361,30.197899789979,1356992.9155556,1639.2683216738,2645858.0309657,35.397899789979,0,0
613.01627220915,-540.06304791257,30.202330233023,1356992.9155556,1639.2683216738,2645858.0309657,35.402330233023,0,0
613.01627252353,-540.26483696153,30.206760676068,1356992.9155556,1639.2683216738,2645858.0309657,35.406760676068,0,0
613.01627283791,-540.46662601049,30.211191119112,1356992.9155556,1639.2683216738,2645858.0309657,35.411191119112,0,0
613.01627315229,-540.66841505945,30.215621562156,1356992.9155556,1639.2683216738,2645858.0309657,35.415621562156,0,0
613.01627346667,-540.87020410841,30.220052005201,1356992.9155556,1639.2683216738,2645858.0309657,35.420052005201,0,0
613.01627378105,-541.07199315737,30.224482448245,1356992.9155556,1639.2683216738,2645858.0309657,35.424482448245,0,0
613.01627409543,-541.27378220633,30.228912891289,1356992.9155556,1639.2683216738,2645858.0309657,35.428912891289,0,0
613.01627440981,-541.47557125528,30.233343334333,1356992.9155556,1639.2683216738,2645858.0309657,35.433343334333,0,0
613.0162747242,-541.67736030424,30.237773777378,1356992.9155556,1639.2683216738,2645858.0309657,35.437773777378,0,0
613.01627503858,-541.8791493532,30.242204220422,1356992.9155556,1639.2683216738,2645858.0309657,35.442204220422,0,0
613.01627535296,-542.08093840216,30.246634663466,1356992.9155556,1639.2683216738,2645858.0309657,35.446634663466,0,0
613.01627566734,-542.28272745112,30.251065106511,1356992.9155556,1639.2683216738,2645858.0309657,35.451065106511,0,0
613.01627598172,-542.48451650008,30.255495549555,1356992.9155556,1639.2683216738,2645858.0309657,35.455495549555,0,0
613.0162762961,-542.68630554904,30.259925992599,1356992.9155556,1639.2683216738,2645858.0309657,35.459925992599,0,0
613.01627661048,-542.888094598,30.264356435644,1356992.9155556,1639.2683216738,2645858.0309657,35.464356435644,0,0
613.01627692487,-543.08988364695,30.268786878688,1356992.9155556,1639.2683216738,2645858.0309657,35.468786878688,0,0
613.01627723925,-543.29167269591,30.273217321732,1356992.9155556,1639.2683216738,2645858.0309657,35.473217321732,0,0
613.01627755363,-543.49346174487,30.277647764776,1356992.9155556,1639.2683216738,2645858.0309657,35.477647764776,0,0
613.01627786801,-543.69525079383,30.282078207821,1356992.9155556,1639.2683216738,2645858.0309657,35.482078207821,0,0
613.01627818239,-543.89703984279,30.286508650865,1356992.9155556,1639.2683216738,2645858.0309657,35.486508650865,0,0
613.01627849677,-544.09882889175,30.290939093909,1356992.9155556,1639.2683216738,2645858.0309657,35.490939093909,0,0
613.01627881115,-544.30061794071,30.295369536954,1356992.9155556,1639.2683216738,2645858.0309657,35.495369536954,0,0
613.01627912554,-544.50240698966,30.299799979998,1356992.9155556,1639.2683216738,2645858.0309657,35.499799979998,0,0
613.01627943992,-544.70419603862,30.304230423042,1356992.9155556,1639.2683216738,2645858.0309657,35.504230423042,0,0
613.0162797543,-544.90598508758,30.308660866087,1356992.9155556,1639.2683216738,2645858.0309657,35.508660866087,0,0
613.01628006868,-545.10777413654,30.313091309131,1356992.9155556,1639.2683216738,2645858.0309657,35.513091309131,0,0
613.01628038306,-545.3095631855,30.317521752175,1356992.9155556,1639.2683216738,2645858.0309657,35.517521752175,0,0
613.01628069744,-545.51135223446,30.32195219522,1356992.9155556,1639.2683216738,2645858.0309657,35.52195219522,0,0
613.01628101182,-545.71314128342,30.326382638264,1356992.9155556,1639.2683216738,2645858.0309657,35.526382638264,0,0
613.0162813262,-545.91493033238,30.330813081308,1356992.9155556,1639.2683216738,2645858.0309657,35.530813081308,0,0
613.01628164059,-546.11671938133,30.335243524352,1356992.9155556,1639.2683216738,2645858.0309657,35.535243524352,0,0
613.01628195497,-546.31850843029,30.339673967397,1356992.9155556,1639.2683216738,2645858.0309657,35.539673967397,0,0
613.01628226935,-546.52029747925,30.344104410441,1356992.9155556,1639.2683216738,2645858.0309657,35.544104410441,0,0
613.01628258373,-546.72208652821,30.348534853485,1356992.9155556,1639.2683216738,2645858.0309657,35.548534853485,0,0
613.01628289811,-546.92387557717,30.35296529653,1356992.9155556,1639.2683216738,2645858.0309657,35.55296529653,0,0
613.01628321249,-547.12566462613,30.357395739574,1356992.9155556,1639.2683216738,2645858.0309657,35.557395739574,0,0
613.01628352687,-547.32745367509,30.361826182618,1356992.9155556,1639.2683216738,2645858.0309657,35.561826182618,0,0
613.01628384126,-547.52924272404,30.366256625663,1356992.9155556,1639.2683216738,2645858.0309657,35.566256625663,0,0
613.01628415564,-547.731031773,30.370687068707,1356992.9155556,1639.2683216738,2645858.0309657,35.570687068707,0,0
613.01628447002,-547.93282082196,30.375117511751,1356992.9155556,1639.2683216738,2645858.0309657,35.575117511751,0,0
613.0162847844,-548.13460987092,30.379547954795,1356992.9155556,1639.2683216738,2645858.0309657,35.579547954795,0,0
613.01628509878,-548.33639891988,30.38397839784,1356992.9155556,1639.2683216738,2645858.0309657,35.58397839784,0,0
613.01628541316,-548.53818796884,30.388408840884,1356992.9155556,1639.2683216738,2645858.0309657,35.588408840884,0,0
613.01628572754,-548.7399770178,30.392839283928,1356992.9155556,1639.2683216738,2645858.0309657,35.592839283928,0,0
613.01628604193,-548.94176606676,30.397269726973,1356992.9155556,1639.2683216738,2645858.0309657,35.597269726973,0,0
613.01628635631,-549.14355511571,30.401700170017,1356992.9155556,1639.2683216738,2645858.0309657,35.601700170017,0,0
613.01628667069,-549.34534416467,30.406130613061,1356992.9155556,1639.2683216738,2645858.0309657,35.606130613061,0,0
613.01628698507,-549.54713321363,30.410561056106,1356992.9155556,1639.2683216738,2645858.0309657,35.610561056106,0,0
613.01628729945,-549.74892226259,30.41499149915,1356992.9155556,1639.2683216738,2645858.0309657,35.61499149915,0,0
613.01628761383,-549.95071131155,30.419421942194,1356992.9155556,1639.2683216738,2645858.0309657,35.619421942194,0,0
613.01628792821,-550.15250036051,30.423852385239,1356992.9155556,1639.2683216738,2645858.0309657,35.623852385239,0,0
613.01628824259,-550.35428940947,30.428282828283,1356992.9155556,1639.2683216738,2645858.0309657,35.628282828283,0,0
613.01628855698,-550.55607845843,30.432713271327,1356992.9155556,1639.2683216738,2645858.0309657,35.632713271327,0,0
613.01628887136,-550.75786750738,30.437143714371,1356992.9155556,1639.2683216738,2645858.0309657,35.637143714371,0,0
613.01628918574,-550.95965655634,30.441574157416,1356992.9155556,1639.2683216738,2645858.0309657,35.641574157416,0,0
613.01628950012,-551.1614456053,30.44600460046,1356992.9155556,1639.2683216738,2645858.0309657,35.64600460046,0,0
613.0162898145,-551.36323465426,30.450435043504,1356992.9155556,1639.2683216738,2645858.0309657,35.650435043504,0,0
613.01629012888,-551.56502370322,30.454865486549,1356992.9155556,1639.2683216738,2645858.0309657,35.654865486549,0,0
613.01629044326,-551.76681275218,30.459295929593,1356992.9155556,1639.2683216738,2645858.0309657,35.659295929593,0,0
613.01629075765,-551.96860180114,30.463726372637,1356992.9155556,1639.2683216738,2645858.0309657,35.663726372637,0,0
613.01629107203,-552.17039085009,30.468156815682,1356992.9155556,1639.2683216738,2645858.0309657,35.668156815682,0,0
613.01629138641,-552.37217989905,30.472587258726,1356992.9155556,1639.2683216738,2645858.0309657,35.672587258726,0,0
613.01629170079,-552.57396894801,30.47701770177,1356992.9155556,1639.2683216738,2645858.0309657,35.67701770177,0,0
613.01629201517,-552.77575799697,30.481448144814,1356992.9155556,1639.2683216738,2645858.0309657,35.681448144814,0,0
613.01629232955,-552.97754704593,30.485878587859,1356992.9155556,1639.2683216738,2645858.0309657,35.685878587859,0,0
613.01629264393,-553.17933609489,30.490309030903,1356992.9155556,1639.2683216738,2645858.0309657,35.690309030903,0,0
613.01629295831,-553.38112514385,30.494739473947,1356992.9155556,1639.2683216738,2645858.0309657,35.694739473947,0,0
613.0162932727,-553.58291419281,30.499169916992,1356992.9155556,1639.2683216738,2645858.0309657,35.699169916992,0,0
613.01629358708,-553.78470324176,30.503600360036,1356992.9155556,1639.2683216738,2645858.0309657,35.703600360036,0,0
613.01629390146,-553.98649229072,30.50803080308,1356992.9155556,1639.2683216738,2645858.0309657,35.70803080308,0,0
613.01629421584,-554.18828133968,30.512461246125,1356992.9155556,1639.2683216738,2645858.0309657,35.712461246125,0,0
613.01629453022,-554.39007038864,30.516891689169,1356992.9155556,1639.2683216738,2645858.0309657,35.716891689169,0,0
613.0162948446,-554.5918594376,30.521322132213,1356992.9155556,1639.2683216738,2645858.0309657,35.721322132213,0,0
613.01629515898,-554.79364848656,30.525752575258,1356992.9155556,1639.2683216738,2645858.0309657,35.725752575258,0,0
613.01629547337,-554.99543753552,30.530183018302,1356992.9155556,1639.2683216738,2645858.0309657,35.730183018302,0,0
613.01629578775,-555.19722658448,30.534613461346,1356992.9155556,1639.2683216738,2645858.0309657,35.734613461346,0,0
613.01629610213,-555.39901563343,30.53904390439,1356992.9155556,1639.2683216738,2645858.0309657,35.73904390439,0,0
613.01629641651,-555.60080468239,30.543474347435,1356992.9155556,1639.2683216738,2645858.0309657,35.743474347435,0,0
613.01629673089,-555.80259373135,30.547904790479,1356992.9155556,1639.2683216738,2645858.0309657,35.747904790479,0,0
613.01629704527,-556.00438278031,30.552335233523,1356992.9155556,1639.2683216738,2645858.0309657,35.752335233523,0,0
613.01629735965,-556.20617182927,30.556765676568,1356992.9155556,1639.2683216738,2645858.0309657,35.756765676568,0,0
613.01629767404,-556.40796087823,30.561196119612,1356992.9155556,1639.2683216738,2645858.0309657,35.761196119612,0,0
613.01629798842,-556.60974992719,30.565626562656,1356992.9155556,1639.2683216738,2645858.0309657,35.765626562656,0,0
613.0162983028,-556.81153897614,30.570057005701,1356992.9155556,1639.2683216738,2645858.0309657,35.770057005701,0,0
613.01629861718,-557.0133280251,30.574487448745,1356992.9155556,1639.2683216738,2645858.0309657,35.774487448745,0,0
613.01629893156,-557.21511707406,30.578917891789,1356992.9155556,1639.2683216738,2645858.0309657,35.778917891789,0,0
613.01629924594,-557.41690612302,30.583348334833,1356992.9155556,1639.2683216738,2645858.0309657,35.783348334833,0,0
613.01629956032,-557.61869517198,30.587778777878,1356992.9155556,1639.2683216738,2645858.0309657,35.787778777878,0,0
613.0162998747,-557.82048422094,30.592209220922,1356992.9155556,1639.2683216738,2645858.0309657,35.792209220922,0,0
613.01630018909,-558.0222732699,30.596639663966,1356992.9155556,1639.2683216738,2645858.0309657,35.796639663966,0,0
613.01630050347,-558.22406231886,30.601070107011,1356992.9155556,1639.2683216738,2645858.0309657,35.801070107011,0,0
613.01630081785,-558.42585136781,30.605500550055,1356992.9155556,1639.2683216738,2645858.0309657,35.805500550055,0,0
613.01630113223,-558.62764041677,30.609930993099,1356992.9155556,1639.2683216738,2645858.0309657,35.809930993099,0,0
613.01630144661,-558.82942946573,30.614361436144,1356992.9155556,1639.2683216738,2645858.0309657,35.814361436144,0,0
613.01630176099,-559.03121851469,30.618791879188,1356992.9155556,1639.2683216738,2645858.0309657,35.818791879188,0,0
613.01630207537,-559.23300756365,30.623222322232,1356992.9155556,1639.2683216738,2645858.0309657,35.823222322232,0,0
613.01630238976,-559.43479661261,30.627652765277,1356992.9155556,1639.2683216738,2645858.0309657,35.827652765277,0,0
613.01630270414,-559.63658566157,30.632083208321,1356992.9155556,1639.2683216738,2645858.0309657,35.832083208321,0,0
613.01630301852,-559.83837471052,30.636513651365,1356992.9155556,1639.2683216738,2645858.0309657,35.836513651365,0,0
613.0163033329,-560.04016375948,30.640944094409,1356992.9155556,1639.2683216738,2645858.0309657,35.840944094409,0,0
613.01630364728,-560.24195280844,30.645374537454,1356992.9155556,1639.2683216738,2645858.0309657,35.845374537454,0,0
613.01630396166,-560.4437418574,30.649804980498,1356992.9155556,1639.2683216738,2645858.0309657,35.849804980498,0,0
613.01630427604,-560.64553090636,30.654235423542,1356992.9155556,1639.2683216738,2645858.0309657,35.854235423542,0,0
613.01630459042,-560.84731995532,30.658665866587,1356992.9155556,1639.2683216738,2645858.0309657,35.858665866587,0,0
613.01630490481,-561.04910900428,30.663096309631,1356992.9155556,1639.2683216738,2645858.0309657,35.863096309631,0,0
613.01630521919,-561.25089805324,30.667526752675,1356992.9155556,1639.2683216738,2645858.0309657,35.867526752675,0,0
613.01630553357,-561.45268710219,30.67195719572,1356992.9155556,1639.2683216738,2645858.0309657,35.87195719572,0,0
613.01630584795,-561.65447615115,30.676387638764,1356992.9155556,1639.2683216738,2645858.0309657,35.876387638764,0,0
613.01630616233,-561.85626520011,30.680818081808,1356992.9155556,1639.2683216738,2645858.0309657,35.880818081808,0,0
613.01630647671,-562.05805424907,30.685248524852,1356992.9155556,1639.2683216738,2645858.0309657,35.885248524852,0,0
613.01630679109,-562.25984329803,30.689678967897,1356992.9155556,1639.2683216738,2645858.0309657,35.889678967897,0,0
613.01630710548,-562.46163234699,30.694109410941,1356992.9155556,1639.2683216738,2645858.0309657,35.894109410941,0,0
613.01630741986,-562.66342139595,30.698539853985,1356992.9155556,1639.2683216738,2645858.0309657,35.898539853985,0,0
613.01630773424,-562.86521044491,30.70297029703,1356992.9155556,1639.2683216738,2645858.0309657,35.90297029703,0,0
613.01630804862,-563.06699949386,30.707400740074,1356992.9155556,1639.2683216738,2645858.0309657,35.907400740074,0,0
613.016308363,-563.26878854282,30.711831183118,1356992.9155556,1639.2683216738,2645858.0309657,35.911831183118,0,0
613.01630867738,-563.47057759178,30.716261626163,1356992.9155556,1639.2683216738,2645858.0309657,35.916261626163,0,0
613.01630899176,-563.67236664074,30.720692069207,1356992.9155556,1639.2683216738,2645858.0309657,35.920692069207,0,0
613.01630930615,-563.8741556897,30.725122512251,1356992.9155556,1639.2683216738,2645858.0309657,35.925122512251,0,0
613.01630962053,-564.07594473866,30.729552955296,1356992.9155556,1639.2683216738,2645858.0309657,35.929552955296,0,0
613.01630993491,-564.27773378762,30.73398339834,1356992.9155556,1639.2683216738,2645858.0309657,35.93398339834,0,0
613.01631024929,-564.47952283657,30.738413841384,1356992.9155556,1639.2683216738,2645858.0309657,35.938413841384,0,0
613.01631056367,-564.68131188553,30.742844284428,1356992.9155556,1639.2683216738,2645858.0309657,35.942844284428,0,0
613.01631087805,-564.88310093449,30.747274727473,1356992.9155556,1639.2683216738,2645858.0309657,35.947274727473,0,0
613.01631119243,-565.08488998345,30.751705170517,1356992.9155556,1639.2683216738,2645858.0309657,35.951705170517,0,0
613.01631150681,-565.28667903241,30.756135613561,1356992.9155556,1639.2683216738,2645858.0309657,35.956135613561,0,0
613.0163118212,-565.48846808137,30.760566056606,1356992.9155556,1639.2683216738,2645858.0309657,35.960566056606,0,0
613.01631213558,-565.69025713033,30.76499649965,1356992.9155556,1639.2683216738,2645858.0309657,35.96499649965,0,0
613.01631244996,-565.89204617929,30.769426942694,1356992.9155556,1639.2683216738,2645858.0309657,35.969426942694,0,0
613.01631276434,-566.09383522824,30.773857385739,1356992.9155556,1639.2683216738,2645858.0309657,35.973857385739,0,0
613.01631307872,-566.2956242772,30.778287828783,1356992.9155556,1639.2683216738,2645858.0309657,35.978287828783,0,0
613.0163133931,-566.49741332616,30.782718271827,1356992.9155556,1639.2683216738,2645858.0309657,35.982718271827,0,0
613.01631370748,-566.69920237512,30.787148714871,1356992.9155556,1639.2683216738,2645858.0309657,35.987148714871,0,0
613.01631402187,-566.90099142408,30.791579157916,1356992.9155556,1639.2683216738,2645858.0309657,35.991579157916,0,0
613.01631433625,-567.10278047304,30.79600960096,1356992.9155556,1639.2683216738,2645858.0309657,35.99600960096,0,0
613.01631465063,-567.304569522,30.800440044004,1356992.9155556,1639.2683216738,2645858.0309657,36.000440044004,0,0
613.01631496501,-567.50635857096,30.804870487049,1356992.9155556,1639.2683216738,2645858.0309657,36.004870487049,0,0
613.01631527939,-567.70814761991,30.809300930093,1356992.9155556,1639.2683216738,2645858.0309657,36.009300930093,0,0
613.01631559377,-567.90993666887,30.813731373137,1356992.9155556,1639.2683216738,2645858.0309657,36.013731373137,0,0
613.01631590815,-568.11172571783,30.818161816182,1356992.9155556,1639.2683216738,2645858.0309657,36.018161816182,0,0
613.01631622254,-568.31351476679,30.822592259226,1356992.9155556,1639.2683216738,2645858.0309657,36.022592259226,0,0
613.01631653692,-568.51530381575,30.82702270227,1356992.9155556,1639.2683216738,2645858.0309657,36.02702270227,0,0
613.0163168513,-568.71709286471,30.831453145315,1356992.9155556,1639.2683216738,2645858.0309657,36.031453145315,0,0
613.01631716568,-568.91888191367,30.835883588359,1356992.9155556,1639.2683216738,2645858.0309657,36.035883588359,0,0
613.01631748006,-569.12067096262,30.840314031403,1356992.9155556,1639.2683216738,2645858.0309657,36.040314031403,0,0
613.01631779444,-569.32246001158,30.844744474447,1356992.9155556,1639.2683216738,2645858.0309657,36.044744474447,0,0
613.01631810882,-569.52424906054,30.849174917492,1356992.9155556,1639.2683216738,2645858.0309657,36.049174917492,0,0
613.0163184232,-569.7260381095,30.853605360536,1356992.9155556,1639.2683216738,2645858.0309657,36.053605360536,0,0
613.01631873759,-569.92782715846,30.85803580358,1356992.9155556,1639.2683216738,2645858.0309657,36.05803580358,0,0
613.01631905197,-570.12961620742,30.862466246625,1356992.9155556,1639.2683216738,2645858.0309657,36.062466246625,0,0
613.01631936635,-570.33140525638,30.866896689669,1356992.9155556,1639.2683216738,2645858.0309657,36.066896689669,0,0
613.01631968073,-570.53319430534,30.871327132713,1356992.9155556,1639.2683216738,2645858.0309657,36.071327132713,0,0
613.01631999511,-570.73498335429,30.875757575758,1356992.9155556,1639.2683216738,2645858.0309657,36.075757575758,0,0
613.01632030949,-570.93677240325,30.880188018802,1356992.9155556,1639.2683216738,2645858.0309657,36.080188018802,0,0
613.01632062387,-571.13856145221,30.884618461846,1356992.9155556,1639.2683216738,2645858.0309657,36.084618461846,0,0
613.01632093826,-571.34035050117,30.88904890489,1356992.9155556,1639.2683216738,2645858.0309657,36.08904890489,0,0
613.01632125264,-571.54213955013,30.893479347935,1356992.9155556,1639.2683216738,2645858.0309657,36.093479347935,0,0
613.01632156702,-571.74392859909,30.897909790979,1356992.9155556,1639.2683216738,2645858.0309657,36.097909790979,0,0
613.0163218814,-571.94571764805,30.902340234023,1356992.9155556,1639.2683216738,2645858.0309657,36.102340234023,0,0
613.01632219578,-572.14750669701,30.906770677068,1356992.9155556,1639.2683216738,2645858.0309657,36.106770677068,0,0
613.01632251016,-572.34929574596,30.911201120112,1356992.9155556,1639.2683216738,2645858.0309657,36.111201120112,0,0
613.01632282454,-572.55108479492,30.915631563156,1356992.9155556,1639.2683216738,2645858.0309657,36.115631563156,0,0
613.01632313892,-572.75287384388,30.920062006201,1356992.9155556,1639.2683216738,2645858.0309657,36.120062006201,0,0
613.01632345331,-572.95466289284,30.924492449245,1356992.9155556,1639.2683216738,2645858.0309657,36.124492449245,0,0
613.01632376769,-573.1564519418,30.928922892289,1356992.9155556,1639.2683216738,2645858.0309657,36.128922892289,0,0
613.01632408207,-573.35824099076,30.933353335334,1356992.9155556,1639.2683216738,2645858.0309657,36.133353335334,0,0
613.01632439645,-573.56003003972,30.937783778378,1356992.9155556,1639.2683216738,2645858.0309657,36.137783778378,0,0
613.01632471083,-573.76181908867,30.942214221422,1356992.9155556,1639.2683216738,2645858.0309657,36.142214221422,0,0
613.01632502521,-573.96360813763,30.946644664466,1356992.9155556,1639.2683216738,2645858.0309657,36.146644664466,0,0
613.01632533959,-574.16539718659,30.951075107511,1356992.9155556,1639.2683216738,2645858.0309657,36.151075107511,0,0
613.01632565398,-574.36718623555,30.955505550555,1356992.9155556,1639.2683216738,2645858.0309657,36.155505550555,0,0
613.01632596836,-574.56897528451,30.959935993599,1356992.9155556,1639.2683216738,2645858.0309657,36.159935993599,0,0
613.01632628274,-574.77076433347,30.964366436644,1356992.9155556,1639.2683216738,2645858.0309657,36.164366436644,0,0
613.01632659712,-574.97255338243,30.968796879688,1356992.9155556,1639.2683216738,2645858.0309657,36.168796879688,0,0
613.0163269115,-575.17434243139,30.973227322732,1356992.9155556,1639.2683216738,2645858.0309657,36.173227322732,0,0
613.01632722588,-575.37613148034,30.977657765777,1356992.9155556,1639.2683216738,2645858.0309657,36.177657765777,0,0
613.01632754026,-575.5779205293,30.982088208821,1356992.9155556,1639.2683216738,2645858.0309657,36.182088208821,0,0
613.01632785465,-575.77970957826,30.986518651865,1356992.9155556,1639.2683216738,2645858.0309657,36.186518651865,0,0
613.01632816903,-575.98149862722,30.990949094909,1356992.9155556,1639.2683216738,2645858.0309657,36.190949094909,0,0
613.01632848341,-576.18328767618,30.995379537954,1356992.9155556,1639.2683216738,2645858.0309657,36.195379537954,0,0
613.01632879779,-576.38507672514,30.999809980998,1356992.9155556,1639.2683216738,2645858.0309657,36.199809980998,0,0
613.01632911217,-576.5868657741,31.004240424042,1356992.9155556,1639.2683216738,2645858.0309657,36.204240424042,0,0
613.01632942655,-576.78865482306,31.008670867087,1356992.9155556,1639.2683216738,2645858.0309657,36.208670867087,0,0
613.01632974093,-576.99044387201,31.013101310131,1356992.9155556,1639.2683216738,2645858.0309657,36.213101310131,0,0
613.01633005531,-577.19223292097,31.017531753175,1356992.9155556,1639.2683216738,2645858.0309657,36.217531753175,0,0
613.0163303697,-577.39402196993,31.02196219622,1356992.9155556,1639.2683216738,2645858.0309657,36.22196219622,0,0
613.01633068408,-577.59581101889,31.026392639264,1356992.9155556,1639.2683216738,2645858.0309657,36.226392639264,0,0
613.01633099846,-577.79760006785,31.030823082308,1356992.9155556,1639.2683216738,2645858.0309657,36.230823082308,0,0
613.01633131284,-577.99938911681,31.035253525353,1356992.9155556,1639.2683216738,2645858.0309657,36.235253525353,0,0
613.01633162722,-578.20117816577,31.039683968397,1356992.9155556,1639.2683216738,2645858.0309657,36.239683968397,0,0
613.0163319416,-578.40296721472,31.044114411441,1356992.9155556,1639.2683216738,2645858.0309657,36.244114411441,0,0
613.01633225598,-578.60475626368,31.048544854485,1356992.9155556,1639.2683216738,2645858.0309657,36.248544854485,0,0
613.01633257037,-578.80654531264,31.05297529753,1356992.9155556,1639.2683216738,2645858.0309657,36.25297529753,0,0
613.01633288475,-579.0083343616,31.057405740574,1356992.9155556,1639.2683216738,2645858.0309657,36.257405740574,0,0
613.01633319913,-579.21012341056,31.061836183618,1356992.9155556,1639.2683216738,2645858.0309657,36.261836183618,0,0
613.01633351351,-579.41191245952,31.066266626663,1356992.9155556,1639.2683216738,2645858.0309657,36.266266626663,0,0
613.01633382789,-579.61370150848,31.070697069707,1356992.9155556,1639.2683216738,2645858.0309657,36.270697069707,0,0
613.01633414227,-579.81549055744,31.075127512751,1356992.9155556,1639.2683216738,2645858.0309657,36.275127512751,0,0
613.01633445665,-580.01727960639,31.079557955796,1356992.9155556,1639.2683216738,2645858.0309657,36.279557955796,0,0
613.01633477104,-580.21906865535,31.08398839884,1356992.9155556,1639.2683216738,2645858.0309657,36.28398839884,0,0
613.01633508542,-580.42085770431,31.088418841884,1356992.9155556,1639.2683216738,2645858.0309657,36.288418841884,0,0
613.0163353998,-580.62264675327,31.092849284928,1356992.9155556,1639.2683216738,2645858.0309657,36.292849284928,0,0
613.01633571418,-580.82443580223,31.097279727973,1356992.9155556,1639.2683216738,2645858.0309657,36.297279727973,0,0
613.01633602856,-581.02622485119,31.101710171017,1356992.9155556,1639.2683216738,2645858.0309657,36.301710171017,0,0
613.01633634294,-581.22801390015,31.106140614061,1356992.9155556,1639.2683216738,2645858.0309657,36.306140614061,0,0
613.01633665732,-581.4298029491,31.110571057106,1356992.9155556,1639.2683216738,2645858.0309657,36.310571057106,0,0
613.0163369717,-581.63159199806,31.11500150015,1356992.9155556,1639.2683216738,2645858.0309657,36.31500150015,0,0
613.01633728609,-581.83338104702,31.119431943194,1356992.9155556,1639.2683216738,2645858.0309657,36.319431943194,0,0
613.01633760047,-582.03517009598,31.123862386239,1356992.9155556,1639.2683216738,2645858.0309657,36.323862386239,0,0
613.01633791485,-582.23695914494,31.128292829283,1356992.9155556,1639.2683216738,2645858.0309657,36.328292829283,0,0
613.01633822923,-582.4387481939,31.132723272327,1356992.9155556,1639.2683216738,2645858.0309657,36.332723272327,0,0
613.01633854361,-582.64053724286,31.137153715372,1356992.9155556,1639.2683216738,2645858.0309657,36.337153715372,0,0
613.01633885799,-582.84232629182,31.141584158416,1356992.9155556,1639.2683216738,2645858.0309657,36.341584158416,0,0
613.01633917237,-583.04411534077,31.14601460146,1356992.9155556,1639.2683216738,2645858.0309657,36.34601460146,0,0
613.01633948676,-583.24590438973,31.150445044504,1356992.9155556,1639.2683216738,2645858.0309657,36.350445044504,0,0
613.01633980114,-583.44769343869,31.154875487549,1356992.9155556,1639.2683216738,2645858.0309657,36.354875487549,0,0
613.01634011552,-583.64948248765,31.159305930593,1356992.9155556,1639.2683216738,2645858.0309657,36.359305930593,0,0
613.0163404299,-583.85127153661,31.163736373637,1356992.9155556,1639.2683216738,2645858.0309657,36.363736373637,0,0
613.01634074428,-584.05306058557,31.168166816682,1356992.9155556,1639.2683216738,2645858.0309657,36.368166816682,0,0
613.01634105866,-584.25484963453,31.172597259726,1356992.9155556,1639.2683216738,2645858.0309657,36.372597259726,0,0
613.01634137304,-584.45663868349,31.17702770277,1356992.9155556,1639.2683216738,2645858.0309657,36.37702770277,0,0
613.01634168742,-584.65842773244,31.181458145815,1356992.9155556,1639.2683216738,2645858.0309657,36.381458145815,0,0
613.01634200181,-584.8602167814,31.185888588859,1356992.9155556,1639.2683216738,2645858.0309657,36.385888588859,0,0
613.01634231619,-585.06200583036,31.190319031903,1356992.9155556,1639.2683216738,2645858.0309657,36.390319031903,0,0
613.01634263057,-585.26379487932,31.194749474947,1356992.9155556,1639.2683216738,2645858.0309657,36.394749474947,0,0
613.01634294495,-585.46558392828,31.199179917992,1356992.9155556,1639.2683216738,2645858.0309657,36.399179917992,0,0
613.01634325933,-585.66737297724,31.203610361036,1356992.9155556,1639.2683216738,2645858.0309657,36.403610361036,0,0
613.01634357371,-585.8691620262,31.20804080408,1356992.9155556,1639.2683216738,2645858.0309657,36.40804080408,0,0
613.01634388809,-586.07095107515,31.212471247125,1356992.9155556,1639.2683216738,2645858.0309657,36.412471247125,0,0
613.01634420248,-586.27274012411,31.216901690169,1356992.9155556,1639.2683216738,2645858.0309657,36.416901690169,0,0
613.01634451686,-586.47452917307,31.221332133213,1356992.9155556,1639.2683216738,2645858.0309657,36.421332133213,0,0
613.01634483124,-586.67631822203,31.225762576258,1356992.9155556,1639.2683216738,2645858.0309657,36.425762576258,0,0
613.01634514562,-586.87810727099,31.230193019302,1356992.9155556,1639.2683216738,2645858.0309657,36.430193019302,0,0
613.01634546,-587.07989631995,31.234623462346,1356992.9155556,1639.2683216738,2645858.0309657,36.434623462346,0,0
613.01634577438,-587.28168536891,31.239053905391,1356992.9155556,1639.2683216738,2645858.0309657,36.439053905391,0,0
613.01634608876,-587.48347441787,31.243484348435,1356992.9155556,1639.2683216738,2645858.0309657,36.443484348435,0,0
613.01634640315,-587.68526346682,31.247914791479,1356992.9155556,1639.2683216738,2645858.0309657,36.447914791479,0,0
613.01634671753,-587.88705251578,31.252345234523,1356992.9155556,1639.2683216738,2645858.0309657,36.452345234523,0,0
613.01634703191,-588.08884156474,31.256775677568,1356992.9155556,1639.2683216738,2645858.0309657,36.456775677568,0,0
613.01634734629,-588.2906306137,31.261206120612,1356992.9155556,1639.2683216738,2645858.0309657,36.461206120612,0,0
613.01634766067,-588.49241966266,31.265636563656,1356992.9155556,1639.2683216738,2645858.0309657,36.465636563656,0,0
613.01634797505,-588.69420871162,31.270067006701,1356992.9155556,1639.2683216738,2645858.0309657,36.470067006701,0,0
613.01634828943,-588.89599776058,31.274497449745,1356992.9155556,1639.2683216738,2645858.0309657,36.474497449745,0,0
613.01634860381,-589.09778680954,31.278927892789,1356992.9155556,1639.2683216738,2645858.0309657,36.478927892789,0,0
613.0163489182,-589.29957585849,31.283358335834,1356992.9155556,1639.2683216738,2645858.0309657,36.483358335834,0,0
613.01634923258,-589.50136490745,31.287788778878,1356992.9155556,1639.2683216738,2645858.0309657,36.487788778878,0,0
613.01634954696,-589.70315395641,31.292219221922,1356992.9155556,1639.2683216738,2645858.0309657,36.492219221922,0,0
613.01634986137,-589.90494300621,31.296649664966,1356128.2301371,-1081.7091303605,2641306.3884534,36.496649664966,0,0
613.0163501758,-590.10673205643,31.301080108011,1356128.2301371,-1081.7091303605,2641306.3884534,36.501080108011,0,0
613.01635049023,-590.30852110666,31.305510551055,1356128.2301371,-1081.7091303605,2641306.3884534,36.505510551055,0,0
613.01635080466,-590.51031015689,31.309940994099,1356128.2301371,-1081.7091303605,2641306.3884534,36.509940994099,0,0
613.01635111909,-590.71209920712,31.314371437144,1356128.2301371,-1081.7091303605,2641306.3884534,36.514371437144,0,0
613.01635143351,-590.91388825735,31.318801880188,1356128.2301371,-1081.7091303605,2641306.3884534,36.518801880188,0,0
613.01635174794,-591.11567730757,31.323232323232,1356128.2301371,-1081.7091303605,2641306.3884534,36.523232323232,0,0
613.01635206237,-591.3174663578,31.327662766277,1356128.2301371,-1081.7091303605,2641306.3884534,36.527662766277,0,0
613.0163523768,-591.51925540803,31.332093209321,1356128.2301371,-1081.7091303605,2641306.3884534,36.532093209321,0,0
613.01635269123,-591.72104445826,31.336523652365,1356128.2301371,-1081.7091303605,2641306.3884534,36.536523652365,0,0
613.01635300566,-591.92283350849,31.34095409541,1356128.2301371,-1081.7091303605,2641306.3884534,36.54095409541,0,0
613.01635332009,-592.12462255871,31.345384538454,1356128.2301371,-1081.7091303605,2641306.3884534,36.545384538454,0,0
613.01635363452,-592.32641160894,31.349814981498,1356128.2301371,-1081.7091303605,2641306.3884534,36.549814981498,0,0
613.01635394894,-592.52820065917,31.354245424542,1356128.2301371,-1081.7091303605,2641306.3884534,36.554245424542,0,0
613.01635426337,-592.7299897094,31.358675867587,1356128.2301371,-1081.7091303605,2641306.3884534,36.558675867587,0,0
613.0163545778,-592.93177875963,31.363106310631,1356128.2301371,-1081.7091303605,2641306.3884534,36.563106310631,0,0
613.01635489223,-593.13356780985,31.367536753675,1356128.2301371,-1081.7091303605,2641306.3884534,36.567536753675,0,0
613.01635520666,-593.33535686008,31.37196719672,1356128.2301371,-1081.7091303605,2641306.3884534,36.57196719672,0,0
613.01635552109,-593.53714591031,31.376397639764,1356128.2301371,-1081.7091303605,2641306.3884534,36.576397639764,0,0
613.01635583552,-593.73893496054,31.380828082808,1356128.2301371,-1081.7091303605,2641306.3884534,36.580828082808,0,0
613.01635614994,-593.94072401076,31.385258525853,1356128.2301371,-1081.7091303605,2641306.3884534,36.585258525853,0,0
613.01635646437,-594.14251306099,31.389688968897,1356128.2301371,-1081.7091303605,2641306.3884534,36.589688968897,0,0
613.0163567788,-594.34430211122,31.394119411941,1356128.2301371,-1081.7091303605,2641306.3884534,36.594119411941,0,0
613.01635709323,-594.54609116145,31.398549854986,1356128.2301371,-1081.7091303605,2641306.3884534,36.598549854985,0,0
613.01635740766,-594.74788021168,31.40298029803,1356128.2301371,-1081.7091303605,2641306.3884534,36.60298029803,0,0
613.01635772209,-594.9496692619,31.407410741074,1356128.2301371,-1081.7091303605,2641306.3884534,36.607410741074,0,0
613.01635803652,-595.15145831213,31.411841184118,1356128.2301371,-1081.7091303605,2641306.3884534,36.611841184118,0,0
613.01635835095,-595.35324736236,31.416271627163,1356128.2301371,-1081.7091303605,2641306.3884534,36.616271627163,0,0
613.01635866537,-595.55503641259,31.420702070207,1356128.2301371,-1081.7091303605,2641306.3884534,36.620702070207,0,0
613.0163589798,-595.75682546282,31.425132513251,1356128.2301371,-1081.7091303605,2641306.3884534,36.625132513251,0,0
613.01635929423,-595.95861451304,31.429562956296,1356128.2301371,-1081.7091303605,2641306.3884534,36.629562956296,0,0
613.01635960866,-596.16040356327,31.43399339934,1356128.2301371,-1081.7091303605,2641306.3884534,36.63399339934,0,0
613.01635992309,-596.3621926135,31.438423842384,1356128.2301371,-1081.7091303605,2641306.3884534,36.638423842384,0,0
613.01636023752,-596.56398166373,31.442854285429,1356128.2301371,-1081.7091303605,2641306.3884534,36.642854285429,0,0
613.01636055195,-596.76577071396,31.447284728473,1356128.2301371,-1081.7091303605,2641306.3884534,36.647284728473,0,0
613.01636086638,-596.96755976418,31.451715171517,1356128.2301371,-1081.7091303605,2641306.3884534,36.651715171517,0,0
613.0163611808,-597.16934881441,31.456145614561,1356128.2301371,-1081.7091303605,2641306.3884534,36.656145614561,0,0
613.01636149523,-597.37113786464,31.460576057606,1356128.2301371,-1081.7091303605,2641306.3884534,36.660576057606,0,0
613.01636180966,-597.57292691487,31.46500650065,1356128.2301371,-1081.7091303605,2641306.3884534,36.66500650065,0,0
613.01636212409,-597.7747159651,31.469436943694,1356128.2301371,-1081.7091303605,2641306.3884534,36.669436943694,0,0
613.01636243852,-597.97650501532,31.473867386739,1356128.2301371,-1081.7091303605,2641306.3884534,36.673867386739,0,0
613.01636275295,-598.17829406555,31.478297829783,1356128.2301371,-1081.7091303605,2641306.3884534,36.678297829783,0,0
613.01636306738,-598.38008311578,31.482728272827,1356128.2301371,-1081.7091303605,2641306.3884534,36.682728272827,0,0
613.0163633818,-598.58187216601,31.487158715872,1356128.2301371,-1081.7091303605,2641306.3884534,36.687158715872,0,0
613.01636369623,-598.78366121623,31.491589158916,1356128.2301371,-1081.7091303605,2641306.3884534,36.691589158916,0,0
613.01636401066,-598.98545026646,31.49601960196,1356128.2301371,-1081.7091303605,2641306.3884534,36.69601960196,0,0
613.01636432509,-599.18723931669,31.500450045005,1356128.2301371,-1081.7091303605,2641306.3884534,36.700450045005,0,0
613.01636463952,-599.38902836692,31.504880488049,1356128.2301371,-1081.7091303605,2641306.3884534,36.704880488049,0,0
613.01636495395,-599.59081741715,31.509310931093,1356128.2301371,-1081.7091303605,2641306.3884534,36.709310931093,0,0
613.01636526838,-599.79260646737,31.513741374137,1356128.2301371,-1081.7091303605,2641306.3884534,36.713741374137,0,0
613.01636558281,-599.9943955176,31.518171817182,1356128.2301371,-1081.7091303605,2641306.3884534,36.718171817182,0,0
613.01636589723,-600.19618456783,31.522602260226,1356128.2301371,-1081.7091303605,2641306.3884534,36.722602260226,0,0
613.01636621166,-600.39797361806,31.52703270327,1356128.2301371,-1081.7091303605,2641306.3884534,36.72703270327,0,0
613.01636652609,-600.59976266829,31.531463146315,1356128.2301371,-1081.7091303605,2641306.3884534,36.731463146315,0,0
613.01636684052,-600.80155171851,31.535893589359,1356128.2301371,-1081.7091303605,2641306.3884534,36.735893589359,0,0
613.01636715495,-601.00334076874,31.540324032403,1356128.2301371,-1081.7091303605,2641306.3884534,36.740324032403,0,0
613.01636746938,-601.20512981897,31.544754475448,1356128.2301371,-1081.7091303605,2641306.3884534,36.744754475448,0,0
613.01636778381,-601.4069188692,31.549184918492,1356128.2301371,-1081.7091303605,2641306.3884534,36.749184918492,0,0
613.01636809823,-601.60870791943,31.553615361536,1356128.2301371,-1081.7091303605,2641306.3884534,36.753615361536,0,0
613.01636841266,-601.81049696965,31.55804580458,1356128.2301371,-1081.7091303605,2641306.3884534,36.75804580458,0,0
613.01636872709,-602.01228601988,31.562476247625,1356128.2301371,-1081.7091303605,2641306.3884534,36.762476247625,0,0
613.01636904152,-602.21407507011,31.566906690669,1356128.2301371,-1081.7091303605,2641306.3884534,36.766906690669,0,0
613.01636935595,-602.41586412034,31.571337133713,1356128.2301371,-1081.7091303605,2641306.3884534,36.771337133713,0,0
613.01636967038,-602.61765317056,31.575767576758,1356128.2301371,-1081.7091303605,2641306.3884534,36.775767576758,0,0
613.01636998481,-602.81944222079,31.580198019802,1356128.2301371,-1081.7091303605,2641306.3884534,36.780198019802,0,0
613.01637029924,-603.02123127102,31.584628462846,1356128.2301371,-1081.7091303605,2641306.3884534,36.784628462846,0,0
613.01637061366,-603.22302032125,31.589058905891,1356128.2301371,-1081.7091303605,2641306.3884534,36.789058905891,0,0
613.01637092809,-603.42480937148,31.593489348935,1356128.2301371,-1081.7091303605,2641306.3884534,36.793489348935,0,0
613.01637124252,-603.6265984217,31.597919791979,1356128.2301371,-1081.7091303605,2641306.3884534,36.797919791979,0,0
613.01637155695,-603.82838747193,31.602350235024,1356128.2301371,-1081.7091303605,2641306.3884534,36.802350235024,0,0
613.01637187138,-604.03017652216,31.606780678068,1356128.2301371,-1081.7091303605,2641306.3884534,36.806780678068,0,0
613.01637218581,-604.23196557239,31.611211121112,1356128.2301371,-1081.7091303605,2641306.3884534,36.811211121112,0,0
613.01637250024,-604.43375462262,31.615641564156,1356128.2301371,-1081.7091303605,2641306.3884534,36.815641564156,0,0
613.01637281466,-604.63554367284,31.620072007201,1356128.2301371,-1081.7091303605,2641306.3884534,36.820072007201,0,0
613.01637312909,-604.83733272307,31.624502450245,1356128.2301371,-1081.7091303605,2641306.3884534,36.824502450245,0,0
613.01637344352,-605.0391217733,31.628932893289,1356128.2301371,-1081.7091303605,2641306.3884534,36.828932893289,0,0
613.01637375795,-605.24091082353,31.633363336334,1356128.2301371,-1081.7091303605,2641306.3884534,36.833363336334,0,0
613.01637407238,-605.44269987376,31.637793779378,1356128.2301371,-1081.7091303605,2641306.3884534,36.837793779378,0,0
613.01637438681,-605.64448892398,31.642224222422,1356128.2301371,-1081.7091303605,2641306.3884534,36.842224222422,0,0
613.01637470124,-605.84627797421,31.646654665467,1356128.2301371,-1081.7091303605,2641306.3884534,36.846654665467,0,0
613.01637501567,-606.04806702444,31.651085108511,1356128.2301371,-1081.7091303605,2641306.3884534,36.851085108511,0,0
613.01637533009,-606.24985607467,31.655515551555,1356128.2301371,-1081.7091303605,2641306.3884534,36.855515551555,0,0
613.01637564452,-606.45164512489,31.659945994599,1356128.2301371,-1081.7091303605,2641306.3884534,36.859945994599,0,0
613.01637595895,-606.65343417512,31.664376437644,1356128.2301371,-1081.7091303605,2641306.3884534,36.864376437644,0,0
613.01637627338,-606.85522322535,31.668806880688,1356128.2301371,-1081.7091303605,2641306.3884534,36.868806880688,0,0
613.01637658781,-607.05701227558,31.673237323732,1356128.2301371,-1081.7091303605,2641306.3884534,36.873237323732,0,0
613.01637690224,-607.25880132581,31.677667766777,1356128.2301371,-1081.7091303605,2641306.3884534,36.877667766777,0,0
613.01637721667,-607.46059037603,31.682098209821,1356128.2301371,-1081.7091303605,2641306.3884534,36.882098209821,0,0
613.0163775311,-607.66237942626,31.686528652865,1356128.2301371,-1081.7091303605,2641306.3884534,36.886528652865,0,0
613.01637784552,-607.86416847649,31.69095909591,1356128.2301371,-1081.7091303605,2641306.3884534,36.89095909591,0,0
613.01637815995,-608.06595752672,31.695389538954,1356128.2301371,-1081.7091303605,2641306.3884534,36.895389538954,0,0
613.01637847438,-608.26774657695,31.699819981998,1356128.2301371,-1081.7091303605,2641306.3884534,36.899819981998,0,0
613.01637878881,-608.46953562717,31.704250425043,1356128.2301371,-1081.7091303605,2641306.3884534,36.904250425043,0,0
613.01637910324,-608.6713246774,31.708680868087,1356128.2301371,-1081.7091303605,2641306.3884534,36.908680868087,0,0
613.01637941767,-608.87311372763,31.713111311131,1356128.2301371,-1081.7091303605,2641306.3884534,36.913111311131,0,0
613.0163797321,-609.07490277786,31.717541754175,1356128.2301371,-1081.7091303605,2641306.3884534,36.917541754175,0,0
613.01638004652,-609.27669182809,31.72197219722,1356128.2301371,-1081.7091303605,2641306.3884534,36.92197219722,0,0
613.01638036095,-609.47848087831,31.726402640264,1356128.2301371,-1081.7091303605,2641306.3884534,36.926402640264,0,0
613.01638067538,-609.68026992854,31.730833083308,1356128.2301371,-1081.7091303605,2641306.3884534,36.930833083308,0,0
613.01638098981,-609.88205897877,31.735263526353,1356128.2301371,-1081.7091303605,2641306.3884534,36.935263526353,0,0
613.01638130424,-610.083848029,31.739693969397,1356128.2301371,-1081.7091303605,2641306.3884534,36.939693969397,0,0
613.01638161867,-610.28563707923,31.744124412441,1356128.2301371,-1081.7091303605,2641306.3884534,36.944124412441,0,0
613.0163819331,-610.48742612945,31.748554855486,1356128.2301371,-1081.7091303605,2641306.3884534,36.948554855486,0,0
613.01638224753,-610.68921517968,31.75298529853,1356128.2301371,-1081.7091303605,2641306.3884534,36.95298529853,0,0
613.01638256195,-610.89100422991,31.757415741574,1356128.2301371,-1081.7091303605,2641306.3884534,36.957415741574,0,0
613.01638287638,-611.09279328014,31.761846184618,1356128.2301371,-1081.7091303605,2641306.3884534,36.961846184618,0,0
613.01638319081,-611.29458233036,31.766276627663,1356128.2301371,-1081.7091303605,2641306.3884534,36.966276627663,0,0
613.01638350524,-611.49637138059,31.770707070707,1356128.2301371,-1081.7091303605,2641306.3884534,36.970707070707,0,0
613.01638381967,-611.69816043082,31.775137513751,1356128.2301371,-1081.7091303605,2641306.3884534,36.975137513751,0,0
613.0163841341,-611.89994948105,31.779567956796,1356128.2301371,-1081.7091303605,2641306.3884534,36.979567956796,0,0
613.01638444853,-612.10173853128,31.78399839984,1356128.2301371,-1081.7091303605,2641306.3884534,36.98399839984,0,0
613.01638476295,-612.3035275815,31.788428842884,1356128.2301371,-1081.7091303605,2641306.3884534,36.988428842884,0,0
613.01638507738,-612.50531663173,31.792859285929,1356128.2301371,-1081.7091303605,2641306.3884534,36.992859285929,0,0
613.01638539181,-612.70710568196,31.797289728973,1356128.2301371,-1081.7091303605,2641306.3884534,36.997289728973,0,0
613.01638570624,-612.90889473219,31.801720172017,1356128.2301371,-1081.7091303605,2641306.3884534,37.001720172017,0,0
613.01638602067,-613.11068378242,31.806150615062,1356128.2301371,-1081.7091303605,2641306.3884534,37.006150615062,0,0
613.0163863351,-613.31247283264,31.810581058106,1356128.2301371,-1081.7091303605,2641306.3884534,37.010581058106,0,0
613.01638664953,-613.51426188287,31.81501150115,1356128.2301371,-1081.7091303605,2641306.3884534,37.01501150115,0,0
613.01638696396,-613.7160509331,31.819441944194,1356128.2301371,-1081.7091303605,2641306.3884534,37.019441944194,0,0
613.01638727838,-613.91783998333,31.823872387239,1356128.2301371,-1081.7091303605,2641306.3884534,37.023872387239,0,0
613.01638759281,-614.11962903356,31.828302830283,1356128.2301371,-1081.7091303605,2641306.3884534,37.028302830283,0,0
613.01638790724,-614.32141808378,31.832733273327,1356128.2301371,-1081.7091303605,2641306.3884534,37.032733273327,0,0
613.01638822167,-614.52320713401,31.837163716372,1356128.2301371,-1081.7091303605,2641306.3884534,37.037163716372,0,0
613.0163885361,-614.72499618424,31.841594159416,1356128.2301371,-1081.7091303605,2641306.3884534,37.041594159416,0,0
613.01638885053,-614.92678523447,31.84602460246,1356128.2301371,-1081.7091303605,2641306.3884534,37.04602460246,0,0
613.01638916496,-615.12857428469,31.850455045505,1356128.2301371,-1081.7091303605,2641306.3884534,37.050455045505,0,0
613.01638947938,-615.33036333492,31.854885488549,1356128.2301371,-1081.7091303605,2641306.3884534,37.054885488549,0,0
613.01638979381,-615.53215238515,31.859315931593,1356128.2301371,-1081.7091303605,2641306.3884534,37.059315931593,0,0
613.01639010824,-615.73394143538,31.863746374637,1356128.2301371,-1081.7091303605,2641306.3884534,37.063746374637,0,0
613.01639042267,-615.93573048561,31.868176817682,1356128.2301371,-1081.7091303605,2641306.3884534,37.068176817682,0,0
613.0163907371,-616.13751953583,31.872607260726,1356128.2301371,-1081.7091303605,2641306.3884534,37.072607260726,0,0
613.01639105153,-616.33930858606,31.87703770377,1356128.2301371,-1081.7091303605,2641306.3884534,37.07703770377,0,0
613.01639136596,-616.54109763629,31.881468146815,1356128.2301371,-1081.7091303605,2641306.3884534,37.081468146815,0,0
613.01639168039,-616.74288668652,31.885898589859,1356128.2301371,-1081.7091303605,2641306.3884534,37.085898589859,0,0
613.01639199481,-616.94467573675,31.890329032903,1356128.2301371,-1081.7091303605,2641306.3884534,37.090329032903,0,0
613.01639230924,-617.14646478697,31.894759475948,1356128.2301371,-1081.7091303605,2641306.3884534,37.094759475948,0,0
613.01639262367,-617.3482538372,31.899189918992,1356128.2301371,-1081.7091303605,2641306.3884534,37.099189918992,0,0
613.0163929381,-617.55004288743,31.903620362036,1356128.2301371,-1081.7091303605,2641306.3884534,37.103620362036,0,0
613.01639325253,-617.75183193766,31.908050805081,1356128.2301371,-1081.7091303605,2641306.3884534,37.108050805081,0,0
613.01639356696,-617.95362098789,31.912481248125,1356128.2301371,-1081.7091303605,2641306.3884534,37.112481248125,0,0
613.01639388139,-618.15541003811,31.916911691169,1356128.2301371,-1081.7091303605,2641306.3884534,37.116911691169,0,0
613.01639419582,-618.35719908834,31.921342134213,1356128.2301371,-1081.7091303605,2641306.3884534,37.121342134213,0,0
613.01639451024,-618.55898813857,31.925772577258,1356128.2301371,-1081.7091303605,2641306.3884534,37.125772577258,0,0
613.01639482467,-618.7607771888,31.930203020302,1356128.2301371,-1081.7091303605,2641306.3884534,37.130203020302,0,0
613.0163951391,-618.96256623902,31.934633463346,1356128.2301371,-1081.7091303605,2641306.3884534,37.134633463346,0,0
613.01639545353,-619.16435528925,31.939063906391,1356128.2301371,-1081.7091303605,2641306.3884534,37.139063906391,0,0
613.01639576796,-619.36614433948,31.943494349435,1356128.2301371,-1081.7091303605,2641306.3884534,37.143494349435,0,0
613.0163960824,-619.56793338899,31.947924792479,1355328.6752071,1704.4917617524,2637444.539738,37.147924792479,0,0
613.01639639686,-619.76972243794,31.952355235524,1355328.6752071,1704.4917617524,2637444.539738,37.152355235524,0,0
613.01639671132,-619.97151148688,31.956785678568,1355328.6752071,1704.4917617524,2637444.539738,37.156785678568,0,0
613.01639702577,-620.17330053582,31.961216121612,1355328.6752071,1704.4917617524,2637444.539738,37.161216121612,0,0
613.01639734023,-620.37508958477,31.965646564656,1355328.6752071,1704.4917617524,2637444.539738,37.165646564656,0,0
613.01639765469,-620.57687863371,31.970077007701,1355328.6752071,1704.4917617524,2637444.539738,37.170077007701,0,0
613.01639796914,-620.77866768266,31.974507450745,1355328.6752071,1704.4917617524,2637444.539738,37.174507450745,0,0
613.0163982836,-620.9804567316,31.978937893789,1355328.6752071,1704.4917617524,2637444.539738,37.178937893789,0,0
613.01639859806,-621.18224578054,31.983368336834,1355328.6752071,1704.4917617524,2637444.539738,37.183368336834,0,0
613.01639891251,-621.38403482949,31.987798779878,1355328.6752071,1704.4917617524,2637444.539738,37.187798779878,0,0
613.01639922697,-621.58582387843,31.992229222922,1355328.6752071,1704.4917617524,2637444.539738,37.192229222922,0,0
613.01639954143,-621.78761292738,31.996659665967,1355328.6752071,1704.4917617524,2637444.539738,37.196659665967,0,0
613.01639985588,-621.98940197632,32.001090109011,1355328.6752071,1704.4917617524,2637444.539738,37.201090109011,0,0
613.01640017034,-622.19119102526,32.005520552055,1355328.6752071,1704.4917617524,2637444.539738,37.205520552055,0,0
613.0164004848,-622.39298007421,32.0099509951,1355328.6752071,1704.4917617524,2637444.539738,37.2099509951,0,0
613.01640079925,-622.59476912315,32.014381438144,1355328.6752071,1704.4917617524,2637444.539738,37.214381438144,0,0
613.01640111371,-622.79655817209,32.018811881188,1355328.6752071,1704.4917617524,2637444.539738,37.218811881188,0,0
613.01640142817,-622.99834722104,32.023242324232,1355328.6752071,1704.4917617524,2637444.539738,37.223242324232,0,0
613.01640174263,-623.20013626998,32.027672767277,1355328.6752071,1704.4917617524,2637444.539738,37.227672767277,0,0
613.01640205708,-623.40192531893,32.032103210321,1355328.6752071,1704.4917617524,2637444.539738,37.232103210321,0,0
613.01640237154,-623.60371436787,32.036533653365,1355328.6752071,1704.4917617524,2637444.539738,37.236533653365,0,0
613.016402686,-623.80550341681,32.04096409641,1355328.6752071,1704.4917617524,2637444.539738,37.24096409641,0,0
613.01640300045,-624.00729246576,32.045394539454,1355328.6752071,1704.4917617524,2637444.539738,37.245394539454,0,0
613.01640331491,-624.2090815147,32.049824982498,1355328.6752071,1704.4917617524,2637444.539738,37.249824982498,0,0
613.01640362937,-624.41087056365,32.054255425543,1355328.6752071,1704.4917617524,2637444.539738,37.254255425543,0,0
613.01640394382,-624.61265961259,32.058685868587,1355328.6752071,1704.4917617524,2637444.539738,37.258685868587,0,0
613.01640425828,-624.81444866153,32.063116311631,1355328.6752071,1704.4917617524,2637444.539738,37.263116311631,0,0
613.01640457274,-625.01623771048,32.067546754675,1355328.6752071,1704.4917617524,2637444.539738,37.267546754675,0,0
613.01640488719,-625.21802675942,32.07197719772,1355328.6752071,1704.4917617524,2637444.539738,37.27197719772,0,0
613.01640520165,-625.41981580837,32.076407640764,1355328.6752071,1704.4917617524,2637444.539738,37.276407640764,0,0
613.01640551611,-625.62160485731,32.080838083808,1355328.6752071,1704.4917617524,2637444.539738,37.280838083808,0,0
613.01640583056,-625.82339390625,32.085268526853,1355328.6752071,1704.4917617524,2637444.539738,37.285268526853,0,0
613.01640614502,-626.0251829552,32.089698969897,1355328.6752071,1704.4917617524,2637444.539738,37.289698969897,0,0
613.01640645948,-626.22697200414,32.094129412941,1355328.6752071,1704.4917617524,2637444.539738,37.294129412941,0,0
613.01640677393,-626.42876105308,32.098559855986,1355328.6752071,1704.4917617524,2637444.539738,37.298559855986,0,0
613.01640708839,-626.63055010203,32.10299029903,1355328.6752071,1704.4917617524,2637444.539738,37.30299029903,0,0
613.01640740285,-626.83233915097,32.107420742074,1355328.6752071,1704.4917617524,2637444.539738,37.307420742074,0,0
613.0164077173,-627.03412819992,32.111851185119,1355328.6752071,1704.4917617524,2637444.539738,37.311851185119,0,0
613.01640803176,-627.23591724886,32.116281628163,1355328.6752071,1704.4917617524,2637444.539738,37.316281628163,0,0
613.01640834622,-627.4377062978,32.120712071207,1355328.6752071,1704.4917617524,2637444.539738,37.320712071207,0,0
613.01640866067,-627.63949534675,32.125142514251,1355328.6752071,1704.4917617524,2637444.539738,37.325142514251,0,0
613.01640897513,-627.84128439569,32.129572957296,1355328.6752071,1704.4917617524,2637444.539738,37.329572957296,0,0
613.01640928959,-628.04307344464,32.13400340034,1355328.6752071,1704.4917617524,2637444.539738,37.33400340034,0,0
613.01640960404,-628.24486249358,32.138433843384,1355328.6752071,1704.4917617524,2637444.539738,37.338433843384,0,0
613.0164099185,-628.44665154252,32.142864286429,1355328.6752071,1704.4917617524,2637444.539738,37.342864286429,0,0
613.01641023296,-628.64844059147,32.147294729473,1355328.6752071,1704.4917617524,2637444.539738,37.347294729473,0,0
613.01641054742,-628.85022964041,32.151725172517,1355328.6752071,1704.4917617524,2637444.539738,37.351725172517,0,0
613.01641086187,-629.05201868935,32.156155615562,1355328.6752071,1704.4917617524,2637444.539738,37.356155615562,0,0
613.01641117633,-629.2538077383,32.160586058606,1355328.6752071,1704.4917617524,2637444.539738,37.360586058606,0,0
613.01641149079,-629.45559678724,32.16501650165,1355328.6752071,1704.4917617524,2637444.539738,37.36501650165,0,0
613.01641180524,-629.65738583619,32.169446944694,1355328.6752071,1704.4917617524,2637444.539738,37.369446944694,0,0
613.0164121197,-629.85917488513,32.173877387739,1355328.6752071,1704.4917617524,2637444.539738,37.373877387739,0,0
613.01641243416,-630.06096393407,32.178307830783,1355328.6752071,1704.4917617524,2637444.539738,37.378307830783,0,0
613.01641274861,-630.26275298302,32.182738273827,1355328.6752071,1704.4917617524,2637444.539738,37.382738273827,0,0
613.01641306307,-630.46454203196,32.187168716872,1355328.6752071,1704.4917617524,2637444.539738,37.387168716872,0,0
613.01641337753,-630.66633108091,32.191599159916,1355328.6752071,1704.4917617524,2637444.539738,37.391599159916,0,0
613.01641369198,-630.86812012985,32.19602960296,1355328.6752071,1704.4917617524,2637444.539738,37.39602960296,0,0
613.01641400644,-631.06990917879,32.200460046005,1355328.6752071,1704.4917617524,2637444.539738,37.400460046005,0,0
613.0164143209,-631.27169822774,32.204890489049,1355328.6752071,1704.4917617524,2637444.539738,37.404890489049,0,0
613.01641463535,-631.47348727668,32.209320932093,1355328.6752071,1704.4917617524,2637444.539738,37.409320932093,0,0
613.01641494981,-631.67527632563,32.213751375138,1355328.6752071,1704.4917617524,2637444.539738,37.413751375138,0,0
613.01641526427,-631.87706537457,32.218181818182,1355328.6752071,1704.4917617524,2637444.539738,37.418181818182,0,0
613.01641557872,-632.07885442351,32.222612261226,1355328.6752071,1704.4917617524,2637444.539738,37.422612261226,0,0
613.01641589318,-632.28064347246,32.22704270427,1355328.6752071,1704.4917617524,2637444.539738,37.42704270427,0,0
613.01641620764,-632.4824325214,32.231473147315,1355328.6752071,1704.4917617524,2637444.539738,37.431473147315,0,0
613.01641652209,-632.68422157034,32.235903590359,1355328.6752071,1704.4917617524,2637444.539738,37.435903590359,0,0
613.01641683655,-632.88601061929,32.240334033403,1355328.6752071,1704.4917617524,2637444.539738,37.440334033403,0,0
613.01641715101,-633.08779966823,32.244764476448,1355328.6752071,1704.4917617524,2637444.539738,37.444764476448,0,0
613.01641746546,-633.28958871718,32.249194919492,1355328.6752071,1704.4917617524,2637444.539738,37.449194919492,0,0
613.01641777992,-633.49137776612,32.253625362536,1355328.6752071,1704.4917617524,2637444.539738,37.453625362536,0,0
613.01641809438,-633.69316681506,32.258055805581,1355328.6752071,1704.4917617524,2637444.539738,37.458055805581,0,0
613.01641840884,-633.89495586401,32.262486248625,1355328.6752071,1704.4917617524,2637444.539738,37.462486248625,0,0
613.01641872329,-634.09674491295,32.266916691669,1355328.6752071,1704.4917617524,2637444.539738,37.466916691669,0,0
613.01641903775,-634.2985339619,32.271347134713,1355328.6752071,1704.4917617524,2637444.539738,37.471347134713,0,0
613.01641935221,-634.50032301084,32.275777577758,1355328.6752071,1704.4917617524,2637444.539738,37.475777577758,0,0
613.01641966666,-634.70211205978,32.280208020802,1355328.6752071,1704.4917617524,2637444.539738,37.480208020802,0,0
613.01641998112,-634.90390110873,32.284638463846,1355328.6752071,1704.4917617524,2637444.539738,37.484638463846,0,0
613.01642029558,-635.10569015767,32.289068906891,1355328.6752071,1704.4917617524,2637444.539738,37.489068906891,0,0
613.01642061003,-635.30747920661,32.293499349935,1355328.6752071,1704.4917617524,2637444.539738,37.493499349935,0,0
613.01642092449,-635.50926825556,32.297929792979,1355328.6752071,1704.4917617524,2637444.539738,37.497929792979,0,0
613.01642123895,-635.7110573045,32.302360236024,1355328.6752071,1704.4917617524,2637444.539738,37.502360236024,0,0
613.0164215534,-635.91284635345,32.306790679068,1355328.6752071,1704.4917617524,2637444.539738,37.506790679068,0,0
613.01642186786,-636.11463540239,32.311221122112,1355328.6752071,1704.4917617524,2637444.539738,37.511221122112,0,0
613.01642218232,-636.31642445133,32.315651565157,1355328.6752071,1704.4917617524,2637444.539738,37.515651565157,0,0
613.01642249677,-636.51821350028,32.320082008201,1355328.6752071,1704.4917617524,2637444.539738,37.520082008201,0,0
613.01642281123,-636.72000254922,32.324512451245,1355328.6752071,1704.4917617524,2637444.539738,37.524512451245,0,0
613.01642312569,-636.92179159817,32.328942894289,1355328.6752071,1704.4917617524,2637444.539738,37.528942894289,0,0
613.01642344014,-637.12358064711,32.333373337334,1355328.6752071,1704.4917617524,2637444.539738,37.533373337334,0,0
613.0164237546,-637.32536969605,32.337803780378,1355328.6752071,1704.4917617524,2637444.539738,37.537803780378,0,0
613.01642406906,-637.527158745,32.342234223422,1355328.6752071,1704.4917617524,2637444.539738,37.542234223422,0,0
613.01642438351,-637.72894779394,32.346664666467,1355328.6752071,1704.4917617524,2637444.539738,37.546664666467,0,0
613.01642469797,-637.93073684289,32.351095109511,1355328.6752071,1704.4917617524,2637444.539738,37.551095109511,0,0
613.01642501243,-638.13252589183,32.355525552555,1355328.6752071,1704.4917617524,2637444.539738,37.555525552555,0,0
613.01642532688,-638.33431494077,32.3599559956,1355328.6752071,1704.4917617524,2637444.539738,37.5599559956,0,0
613.01642564134,-638.53610398972,32.364386438644,1355328.6752071,1704.4917617524,2637444.539738,37.564386438644,0,0
613.0164259558,-638.73789303866,32.368816881688,1355328.6752071,1704.4917617524,2637444.539738,37.568816881688,0,0
613.01642627025,-638.9396820876,32.373247324732,1355328.6752071,1704.4917617524,2637444.539738,37.573247324732,0,0
613.01642658471,-639.14147113655,32.377677767777,1355328.6752071,1704.4917617524,2637444.539738,37.577677767777,0,0
613.01642689917,-639.34326018549,32.382108210821,1355328.6752071,1704.4917617524,2637444.539738,37.582108210821,0,0
613.01642721363,-639.54504923444,32.386538653865,1355328.6752071,1704.4917617524,2637444.539738,37.586538653865,0,0
613.01642752808,-639.74683828338,32.39096909691,1355328.6752071,1704.4917617524,2637444.539738,37.59096909691,0,0
613.01642784254,-639.94862733232,32.395399539954,1355328.6752071,1704.4917617524,2637444.539738,37.595399539954,0,0
613.016428157,-640.15041638127,32.399829982998,1355328.6752071,1704.4917617524,2637444.539738,37.599829982998,0,0
613.01642847145,-640.35220543021,32.404260426043,1355328.6752071,1704.4917617524,2637444.539738,37.604260426043,0,0
613.01642878591,-640.55399447916,32.408690869087,1355328.6752071,1704.4917617524,2637444.539738,37.608690869087,0,0
613.01642910037,-640.7557835281,32.413121312131,1355328.6752071,1704.4917617524,2637444.539738,37.613121312131,0,0
613.01642941482,-640.95757257704,32.417551755176,1355328.6752071,1704.4917617524,2637444.539738,37.617551755176,0,0
613.01642972928,-641.15936162599,32.42198219822,1355328.6752071,1704.4917617524,2637444.539738,37.62198219822,0,0
613.01643004374,-641.36115067493,32.426412641264,1355328.6752071,1704.4917617524,2637444.539738,37.626412641264,0,0
613.01643035819,-641.56293972388,32.430843084308,1355328.6752071,1704.4917617524,2637444.539738,37.630843084308,0,0
613.01643067265,-641.76472877282,32.435273527353,1355328.6752071,1704.4917617524,2637444.539738,37.635273527353,0,0
613.01643098711,-641.96651782176,32.439703970397,1355328.6752071,1704.4917617524,2637444.539738,37.639703970397,0,0
613.01643130156,-642.16830687071,32.444134413441,1355328.6752071,1704.4917617524,2637444.539738,37.644134413441,0,0
613.01643161602,-642.37009591965,32.448564856486,1355328.6752071,1704.4917617524,2637444.539738,37.648564856486,0,0
613.01643193048,-642.57188496859,32.45299529953,1355328.6752071,1704.4917617524,2637444.539738,37.65299529953,0,0
613.01643224493,-642.77367401754,32.457425742574,1355328.6752071,1704.4917617524,2637444.539738,37.657425742574,0,0
613.01643255939,-642.97546306648,32.461856185619,1355328.6752071,1704.4917617524,2637444.539738,37.661856185619,0,0
613.01643287385,-643.17725211543,32.466286628663,1355328.6752071,1704.4917617524,2637444.539738,37.666286628663,0,0
613.0164331883,-643.37904116437,32.470717071707,1355328.6752071,1704.4917617524,2637444.539738,37.670717071707,0,0
613.01643350276,-643.58083021331,32.475147514751,1355328.6752071,1704.4917617524,2637444.539738,37.675147514751,0,0
613.01643381722,-643.78261926226,32.479577957796,1355328.6752071,1704.4917617524,2637444.539738,37.679577957796,0,0
613.01643413167,-643.9844083112,32.48400840084,1355328.6752071,1704.4917617524,2637444.539738,37.68400840084,0,0
613.01643444613,-644.18619736015,32.488438843884,1355328.6752071,1704.4917617524,2637444.539738,37.688438843884,0,0
613.01643476059,-644.38798640909,32.492869286929,1355328.6752071,1704.4917617524,2637444.539738,37.692869286929,0,0
613.01643507504,-644.58977545803,32.497299729973,1355328.6752071,1704.4917617524,2637444.539738,37.697299729973,0,0
613.0164353895,-644.79156450698,32.501730173017,1355328.6752071,1704.4917617524,2637444.539738,37.701730173017,0,0
613.01643570396,-644.99335355592,32.506160616062,1355328.6752071,1704.4917617524,2637444.539738,37.706160616062,0,0
613.01643601842,-645.19514260486,32.510591059106,1355328.6752071,1704.4917617524,2637444.539738,37.710591059106,0,0
613.01643633287,-645.39693165381,32.51502150215,1355328.6752071,1704.4917617524,2637444.539738,37.71502150215,0,0
613.01643664733,-645.59872070275,32.519451945195,1355328.6752071,1704.4917617524,2637444.539738,37.719451945195,0,0
613.01643696179,-645.8005097517,32.523882388239,1355328.6752071,1704.4917617524,2637444.539738,37.723882388239,0,0
613.01643727624,-646.00229880064,32.528312831283,1355328.6752071,1704.4917617524,2637444.539738,37.728312831283,0,0
613.0164375907,-646.20408784958,32.532743274327,1355328.6752071,1704.4917617524,2637444.539738,37.732743274327,0,0
613.01643790516,-646.40587689853,32.537173717372,1355328.6752071,1704.4917617524,2637444.539738,37.737173717372,0,0
613.01643821961,-646.60766594747,32.541604160416,1355328.6752071,1704.4917617524,2637444.539738,37.741604160416,0,0
613.01643853407,-646.80945499642,32.54603460346,1355328.6752071,1704.4917617524,2637444.539738,37.74603460346,0,0
613.01643884853,-647.01124404536,32.550465046505,1355328.6752071,1704.4917617524,2637444.539738,37.750465046505,0,0
613.01643916298,-647.2130330943,32.554895489549,1355328.6752071,1704.4917617524,2637444.539738,37.754895489549,0,0
613.01643947744,-647.41482214325,32.559325932593,1355328.6752071,1704.4917617524,2637444.539738,37.759325932593,0,0
613.0164397919,-647.61661119219,32.563756375638,1355328.6752071,1704.4917617524,2637444.539738,37.763756375638,0,0
613.01644010635,-647.81840024113,32.568186818682,1355328.6752071,1704.4917617524,2637444.539738,37.768186818682,0,0
613.01644042081,-648.02018929008,32.572617261726,1355328.6752071,1704.4917617524,2637444.539738,37.772617261726,0,0
613.01644073527,-648.22197833902,32.57704770477,1355328.6752071,1704.4917617524,2637444.539738,37.77704770477,0,0
613.01644104972,-648.42376738797,32.581478147815,1355328.6752071,1704.4917617524,2637444.539738,37.781478147815,0,0
613.01644136418,-648.62555643691,32.585908590859,1355328.6752071,1704.4917617524,2637444.539738,37.785908590859,0,0
613.01644167864,-648.82734548585,32.590339033903,1355328.6752071,1704.4917617524,2637444.539738,37.790339033903,0,0
613.01644199309,-649.0291345348,32.594769476948,1355328.6752071,1704.4917617524,2637444.539738,37.794769476948,0,0
613.01644230755,-649.23092358374,32.599199919992,1355328.6752071,1704.4917617524,2637444.539738,37.799199919992,0,0
613.01644262201,-649.43271263269,32.603630363036,1355328.6752071,1704.4917617524,2637444.539738,37.803630363036,0,0
613.01644293646,-649.63450168163,32.608060806081,1355328.6752071,1704.4917617524,2637444.539738,37.808060806081,0,0
613.01644325092,-649.83629073057,32.612491249125,1355328.6752071,1704.4917617524,2637444.539738,37.812491249125,0,0
613.01644356538,-650.03807977952,32.616921692169,1355328.6752071,1704.4917617524,2637444.539738,37.816921692169,0,0
613.01644387984,-650.23986882846,32.621352135214,1355328.6752071,1704.4917617524,2637444.539738,37.821352135214,0,0
613.01644419429,-650.4416578774,32.625782578258,1355328.6752071,1704.4917617524,2637444.539738,37.825782578258,0,0
613.01644450875,-650.64344692635,32.630213021302,1355328.6752071,1704.4917617524,2637444.539738,37.830213021302,0,0
613.01644482321,-650.84523597529,32.634643464346,1355328.6752071,1704.4917617524,2637444.539738,37.834643464346,0,0
613.01644513766,-651.04702502424,32.639073907391,1355328.6752071,1704.4917617524,2637444.539738,37.839073907391,0,0
613.01644545212,-651.24881407318,32.643504350435,1355328.6752071,1704.4917617524,2637444.539738,37.843504350435,0,0
613.01644576658,-651.45060312212,32.647934793479,1355328.6752071,1704.4917617524,2637444.539738,37.847934793479,0,0
613.01644608103,-651.65239217107,32.652365236524,1355328.6752071,1704.4917617524,2637444.539738,37.852365236524,0,0
613.01644639549,-651.85418122001,32.656795679568,1355328.6752071,1704.4917617524,2637444.539738,37.856795679568,0,0
613.01644670995,-652.05597026896,32.661226122612,1355328.6752071,1704.4917617524,2637444.539738,37.861226122612,0,0
613.0164470244,-652.2577593179,32.665656565657,1355328.6752071,1704.4917617524,2637444.539738,37.865656565657,0,0
613.01644733886,-652.45954836684,32.670087008701,1355328.6752071,1704.4917617524,2637444.539738,37.870087008701,0,0
613.01644765332,-652.66133741579,32.674517451745,1355328.6752071,1704.4917617524,2637444.539738,37.874517451745,0,0
613.01644796777,-652.86312646473,32.678947894789,1355328.6752071,1704.4917617524,2637444.539738,37.878947894789,0,0
613.01644828223,-653.06491551368,32.683378337834,1355328.6752071,1704.4917617524,2637444.539738,37.883378337834,0,0
613.01644859669,-653.26670456262,32.687808780878,1355328.6752071,1704.4917617524,2637444.539738,37.887808780878,0,0
613.01644891114,-653.46849361156,32.692239223922,1355328.6752071,1704.4917617524,2637444.539738,37.892239223922,0,0
613.0164492256,-653.67028266051,32.696669666967,1355328.6752071,1704.4917617524,2637444.539738,37.896669666967,0,0
613.01644954006,-653.87207170945,32.701100110011,1355328.6752071,1704.4917617524,2637444.539738,37.901100110011,0,0
613.01644985451,-654.07386075839,32.705530553055,1355328.6752071,1704.4917617524,2637444.539738,37.905530553055,0,0
613.01645016897,-654.27564980734,32.7099609961,1355328.6752071,1704.4917617524,2637444.539738,37.9099609961,0,0
613.01645048343,-654.47743885628,32.714391439144,1355328.6752071,1704.4917617524,2637444.539738,37.914391439144,0,0
613.01645079788,-654.67922790523,32.718821882188,1355328.6752071,1704.4917617524,2637444.539738,37.918821882188,0,0
613.01645111234,-654.88101695417,32.723252325233,1355328.6752071,1704.4917617524,2637444.539738,37.923252325233,0,0
613.0164514268,-655.08280600311,32.727682768277,1355328.6752071,1704.4917617524,2637444.539738,37.927682768277,0,0
613.01645174125,-655.28459505206,32.732113211321,1355328.6752071,1704.4917617524,2637444.539738,37.932113211321,0,0
613.01645205571,-655.486384101,32.736543654365,1355328.6752071,1704.4917617524,2637444.539738,37.936543654365,0,0
613.01645237017,-655.68817314995,32.74097409741,1355328.6752071,1704.4917617524,2637444.539738,37.94097409741,0,0
613.01645268463,-655.88996219889,32.745404540454,1355328.6752071,1704.4917617524,2637444.539738,37.945404540454,0,0
613.01645299908,-656.09175124783,32.749834983498,1355328.6752071,1704.4917617524,2637444.539738,37.949834983498,0,0
613.01645331354,-656.29354029678,32.754265426543,1355328.6752071,1704.4917617524,2637444.539738,37.954265426543,0,0
613.016453628,-656.49532934572,32.758695869587,1355328.6752071,1704.4917617524,2637444.539738,37.958695869587,0,0
613.01645394245,-656.69711839466,32.763126312631,1355328.6752071,1704.4917617524,2637444.539738,37.963126312631,0,0
613.01645425691,-656.89890744361,32.767556755676,1355328.6752071,1704.4917617524,2637444.539738,37.967556755676,0,0
613.01645457137,-657.10069649255,32.77198719872,1355328.6752071,1704.4917617524,2637444.539738,37.97198719872,0,0
613.01645488582,-657.3024855415,32.776417641764,1355328.6752071,1704.4917617524,2637444.539738,37.976417641764,0,0
613.01645520028,-657.50427459044,32.780848084808,1355328.6752071,1704.4917617524,2637444.539738,37.980848084808,0,0
613.01645551474,-657.70606363938,32.785278527853,1355328.6752071,1704.4917617524,2637444.539738,37.985278527853,0,0
613.01645582919,-657.90785268833,32.789708970897,1355328.6752071,1704.4917617524,2637444.539738,37.989708970897,0,0
613.01645614365,-658.10964173727,32.794139413941,1355328.6752071,1704.4917617524,2637444.539738,37.994139413941,0,0
613.01645645811,-658.31143078622,32.798569856986,1355328.6752071,1704.4917617524,2637444.539738,37.998569856986,0,0
613.01645677256,-658.51321983516,32.80300030003,1355328.6752071,1704.4917617524,2637444.539738,38.00300030003,0,0
613.01645708702,-658.7150088841,32.807430743074,1355328.6752071,1704.4917617524,2637444.539738,38.007430743074,0,0
613.01645740148,-658.91679793305,32.811861186119,1355328.6752071,1704.4917617524,2637444.539738,38.011861186119,0,0
613.01645771593,-659.11858698199,32.816291629163,1355328.6752071,1704.4917617524,2637444.539738,38.016291629163,0,0
613.01645803039,-659.32037603094,32.820722072207,1355328.6752071,1704.4917617524,2637444.539738,38.020722072207,0,0
613.01645834485,-659.52216507988,32.825152515252,1355328.6752071,1704.4917617524,2637444.539738,38.025152515252,0,0
613.0164586593,-659.72395412882,32.829582958296,1355328.6752071,1704.4917617524,2637444.539738,38.029582958296,0,0
613.01645897376,-659.92574317777,32.83401340134,1355328.6752071,1704.4917617524,2637444.539738,38.03401340134,0,0
613.01645928822,-660.12753222671,32.838443844384,1355328.6752071,1704.4917617524,2637444.539738,38.038443844384,0,0
613.01645960267,-660.32932127565,32.842874287429,1355328.6752071,1704.4917617524,2637444.539738,38.042874287429,0,0
613.01645991713,-660.5311103246,32.847304730473,1355328.6752071,1704.4917617524,2637444.539738,38.047304730473,0,0
613.01646023159,-660.73289937354,32.851735173517,1355328.6752071,1704.4917617524,2637444.539738,38.051735173517,0,0
613.01646054604,-660.93468842249,32.856165616562,1355328.6752071,1704.4917617524,2637444.539738,38.056165616562,0,0
613.0164608605,-661.13647747143,32.860596059606,1355328.6752071,1704.4917617524,2637444.539738,38.060596059606,0,0
613.01646117496,-661.33826652037,32.86502650265,1355328.6752071,1704.4917617524,2637444.539738,38.06502650265,0,0
613.01646148942,-661.54005556932,32.869456945695,1355328.6752071,1704.4917617524,2637444.539738,38.069456945695,0,0
613.01646180387,-661.74184461826,32.873887388739,1355328.6752071,1704.4917617524,2637444.539738,38.073887388739,0,0
613.01646211833,-661.94363366721,32.878317831783,1355328.6752071,1704.4917617524,2637444.539738,38.078317831783,0,0
613.01646243279,-662.14542271615,32.882748274827,1355328.6752071,1704.4917617524,2637444.539738,38.082748274827,0,0
613.01646274724,-662.34721176509,32.887178717872,1355328.6752071,1704.4917617524,2637444.539738,38.087178717872,0,0
613.0164630617,-662.54900081404,32.891609160916,1355328.6752071,1704.4917617524,2637444.539738,38.091609160916,0,0
613.01646337616,-662.75078986298,32.89603960396,1355328.6752071,1704.4917617524,2637444.539738,38.09603960396,0,0
613.01646369061,-662.95257891192,32.900470047005,1355328.6752071,1704.4917617524,2637444.539738,38.100470047005,0,0
613.01646400507,-663.15436796087,32.904900490049,1355328.6752071,1704.4917617524,2637444.539738,38.104900490049,0,0
613.01646431953,-663.35615700981,32.909330933093,1355328.6752071,1704.4917617524,2637444.539738,38.109330933093,0,0
613.01646463398,-663.55794605876,32.913761376138,1355328.6752071,1704.4917617524,2637444.539738,38.113761376138,0,0
613.01646494844,-663.7597351077,32.918191819182,1355328.6752071,1704.4917617524,2637444.539738,38.118191819182,0,0
613.0164652629,-663.96152415664,32.922622262226,1355328.6752071,1704.4917617524,2637444.539738,38.122622262226,0,0
613.01646557735,-664.16331320559,32.927052705271,1355328.6752071,1704.4917617524,2637444.539738,38.127052705271,0,0
613.01646589181,-664.36510225453,32.931483148315,1355328.6752071,1704.4917617524,2637444.539738,38.131483148315,0,0
613.01646620627,-664.56689130348,32.935913591359,1355328.6752071,1704.4917617524,2637444.539738,38.135913591359,0,0
613.01646652072,-664.76868035242,32.940344034403,1355328.6752071,1704.4917617524,2637444.539738,38.140344034403,0,0
613.01646683518,-664.97046940136,32.944774477448,1355328.6752071,1704.4917617524,2637444.539738,38.144774477448,0,0
613.01646714964,-665.17225845031,32.949204920492,1355328.6752071,1704.4917617524,2637444.539738,38.149204920492,0,0
613.01646746409,-665.37404749925,32.953635363536,1355328.6752071,1704.4917617524,2637444.539738,38.153635363536,0,0
613.01646777855,-665.5758365482,32.958065806581,1355328.6752071,1704.4917617524,2637444.539738,38.158065806581,0,0
613.01646809301,-665.77762559714,32.962496249625,1355328.6752071,1704.4917617524,2637444.539738,38.162496249625,0,0
613.01646840746,-665.97941464608,32.966926692669,1355328.6752071,1704.4917617524,2637444.539738,38.166926692669,0,0
613.01646872192,-666.18120369503,32.971357135714,1355328.6752071,1704.4917617524,2637444.539738,38.171357135714,0,0
613.01646903638,-666.38299274397,32.975787578758,1355328.6752071,1704.4917617524,2637444.539738,38.175787578758,0,0
613.01646935084,-666.58478179291,32.980218021802,1355328.6752071,1704.4917617524,2637444.539738,38.180218021802,0,0
613.01646966529,-666.78657084186,32.984648464846,1355328.6752071,1704.4917617524,2637444.539738,38.184648464846,0,0
613.01646997975,-666.9883598908,32.989078907891,1355328.6752071,1704.4917617524,2637444.539738,38.189078907891,0,0
613.01647029421,-667.19014893975,32.993509350935,1355328.6752071,1704.4917617524,2637444.539738,38.193509350935,0,0
613.01647060866,-667.39193798869,32.997939793979,1355328.6752071,1704.4917617524,2637444.539738,38.197939793979,0,0
613.01647092312,-667.59372703763,33.002370237024,1355328.6752071,1704.4917617524,2637444.539738,38.202370237024,0,0
613.01647123758,-667.79551608658,33.006800680068,1355328.6752071,1704.4917617524,2637444.539738,38.206800680068,0,0
613.01647155203,-667.99730513552,33.011231123112,1355328.6752071,1704.4917617524,2637444.539738,38.211231123112,0,0
613.01647186649,-668.19909418447,33.015661566157,1355328.6752071,1704.4917617524,2637444.539738,38.215661566157,0,0
613.01647218095,-668.40088323341,33.020092009201,1355328.6752071,1704.4917617524,2637444.539738,38.220092009201,0,0
613.0164724954,-668.60267228235,33.024522452245,1355328.6752071,1704.4917617524,2637444.539738,38.224522452245,0,0
613.01647280986,-668.8044613313,33.02895289529,1355328.6752071,1704.4917617524,2637444.539738,38.22895289529,0,0
613.01647312432,-669.00625038024,33.033383338334,1355328.6752071,1704.4917617524,2637444.539738,38.233383338334,0,0
613.01647343877,-669.20803942918,33.037813781378,1355328.6752071,1704.4917617524,2637444.539738,38.237813781378,0,0
613.01647375323,-669.40982847813,33.042244224422,1355328.6752071,1704.4917617524,2637444.539738,38.242244224422,0,0
613.01647406769,-669.61161752707,33.046674667467,1355328.6752071,1704.4917617524,2637444.539738,38.246674667467,0,0
613.01647438214,-669.81340657602,33.051105110511,1355328.6752071,1704.4917617524,2637444.539738,38.251105110511,0,0
613.0164746966,-670.01519562496,33.055535553555,1355328.6752071,1704.4917617524,2637444.539738,38.255535553555,0,0
613.01647501106,-670.2169846739,33.0599659966,1355328.6752071,1704.4917617524,2637444.539738,38.2599659966,0,0
613.01647532551,-670.41877372285,33.064396439644,1355328.6752071,1704.4917617524,2637444.539738,38.264396439644,0,0
613.01647563997,-670.62056277179,33.068826882688,1355328.6752071,1704.4917617524,2637444.539738,38.268826882688,0,0
613.01647595443,-670.82235182074,33.073257325733,1355328.6752071,1704.4917617524,2637444.539738,38.273257325733,0,0
613.01647626888,-671.02414086968,33.077687768777,1355328.6752071,1704.4917617524,2637444.539738,38.277687768777,0,0
613.01647658334,-671.22592991862,33.082118211821,1355328.6752071,1704.4917617524,2637444.539738,38.282118211821,0,0
613.0164768978,-671.42771896757,33.086548654865,1355328.6752071,1704.4917617524,2637444.539738,38.286548654865,0,0
613.01647721225,-671.62950801651,33.09097909791,1355328.6752071,1704.4917617524,2637444.539738,38.29097909791,0,0
613.01647752671,-671.83129706546,33.095409540954,1355328.6752071,1704.4917617524,2637444.539738,38.295409540954,0,0
613.01647784117,-672.0330861144,33.099839983998,1355328.6752071,1704.4917617524,2637444.539738,38.299839983998,0,0
613.01647815563,-672.23487516334,33.104270427043,1355328.6752071,1704.4917617524,2637444.539738,38.304270427043,0,0
613.01647847008,-672.43666421229,33.108700870087,1355328.6752071,1704.4917617524,2637444.539738,38.308700870087,0,0
613.01647878454,-672.63845326123,33.113131313131,1355328.6752071,1704.4917617524,2637444.539738,38.313131313131,0,0
613.016479099,-672.84024231017,33.117561756176,1355328.6752071,1704.4917617524,2637444.539738,38.317561756176,0,0
613.01647941345,-673.04203135912,33.12199219922,1355328.6752071,1704.4917617524,2637444.539738,38.32199219922,0,0
613.01647972791,-673.24382040806,33.126422642264,1355328.6752071,1704.4917617524,2637444.539738,38.326422642264,0,0
613.01648004237,-673.44560945701,33.130853085309,1355328.6752071,1704.4917617524,2637444.539738,38.330853085309,0,0
613.01648035682,-673.64739850595,33.135283528353,1355328.6752071,1704.4917617524,2637444.539738,38.335283528353,0,0
613.01648067128,-673.84918755489,33.139713971397,1355328.6752071,1704.4917617524,2637444.539738,38.339713971397,0,0
613.01648098574,-674.05097660384,33.144144414441,1355328.6752071,1704.4917617524,2637444.539738,38.344144414441,0,0
613.01648130019,-674.25276565278,33.148574857486,1355328.6752071,1704.4917617524,2637444.539738,38.348574857486,0,0
613.01648161465,-674.45455470173,33.15300530053,1355328.6752071,1704.4917617524,2637444.539738,38.35300530053,0,0
613.01648192911,-674.65634375067,33.157435743574,1355328.6752071,1704.4917617524,2637444.539738,38.357435743574,0,0
613.01648224356,-674.85813279961,33.161866186619,1355328.6752071,1704.4917617524,2637444.539738,38.361866186619,0,0
613.01648255802,-675.05992184856,33.166296629663,1355328.6752071,1704.4917617524,2637444.539738,38.366296629663,0,0
613.01648287248,-675.2617108975,33.170727072707,1355328.6752071,1704.4917617524,2637444.539738,38.370727072707,0,0
613.01648318693,-675.46349994644,33.175157515752,1355328.6752071,1704.4917617524,2637444.539738,38.375157515752,0,0
613.01648350139,-675.66528899539,33.179587958796,1355328.6752071,1704.4917617524,2637444.539738,38.379587958796,0,0
613.01648381585,-675.86707804433,33.18401840184,1355328.6752071,1704.4917617524,2637444.539738,38.38401840184,0,0
613.0164841303,-676.06886709328,33.188448844884,1355328.6752071,1704.4917617524,2637444.539738,38.388448844884,0,0
613.01648444476,-676.27065614222,33.192879287929,1355328.6752071,1704.4917617524,2637444.539738,38.392879287929,0,0
613.01648475922,-676.47244519116,33.197309730973,1355328.6752071,1704.4917617524,2637444.539738,38.397309730973,0,0
613.01648507367,-676.67423424011,33.201740174017,1355328.6752071,1704.4917617524,2637444.539738,38.401740174017,0,0
613.01648538813,-676.87602328905,33.206170617062,1355328.6752071,1704.4917617524,2637444.539738,38.406170617062,0,0
613.01648570259,-677.077812338,33.210601060106,1355328.6752071,1704.4917617524,2637444.539738,38.410601060106,0,0
613.01648601705,-677.27960138694,33.21503150315,1355328.6752071,1704.4917617524,2637444.539738,38.41503150315,0,0
613.0164863315,-677.48139043588,33.219461946195,1355328.6752071,1704.4917617524,2637444.539738,38.419461946195,0,0
613.01648664596,-677.68317948483,33.223892389239,1355328.6752071,1704.4917617524,2637444.539738,38.423892389239,0,0
613.01648696042,-677.88496853377,33.228322832283,1355328.6752071,1704.4917617524,2637444.539738,38.428322832283,0,0
613.01648727487,-678.08675758272,33.232753275328,1355328.6752071,1704.4917617524,2637444.539738,38.432753275328,0,0
613.01648758933,-678.28854663166,33.237183718372,1355328.6752071,1704.4917617524,2637444.539738,38.437183718372,0,0
613.01648790379,-678.4903356806,33.241614161416,1355328.6752071,1704.4917617524,2637444.539738,38.441614161416,0,0
613.01648821824,-678.69212472955,33.24604460446,1355328.6752071,1704.4917617524,2637444.539738,38.44604460446,0,0
613.0164885327,-678.89391377849,33.250475047505,1355328.6752071,1704.4917617524,2637444.539738,38.450475047505,0,0
613.01648884716,-679.09570282743,33.254905490549,1355328.6752071,1704.4917617524,2637444.539738,38.454905490549,0,0
613.01648916161,-679.29749187638,33.259335933593,1355328.6752071,1704.4917617524,2637444.539738,38.459335933593,0,0
613.01648947607,-679.49928092532,33.263766376638,1355328.6752071,1704.4917617524,2637444.539738,38.463766376638,0,0
613.01648979053,-679.70106997427,33.268196819682,1355328.6752071,1704.4917617524,2637444.539738,38.468196819682,0,0
613.01649010498,-679.90285902321,33.272627262726,1355328.6752071,1704.4917617524,2637444.539738,38.472627262726,0,0
613.01649041944,-680.10464807215,33.277057705771,1355328.6752071,1704.4917617524,2637444.539738,38.477057705771,0,0
613.0164907339,-680.3064371211,33.281488148815,1355328.6752071,1704.4917617524,2637444.539738,38.481488148815,0,0
613.01649104835,-680.50822617004,33.285918591859,1355328.6752071,1704.4917617524,2637444.539738,38.485918591859,0,0
613.01649136281,-680.71001521899,33.290349034903,1355328.6752071,1704.4917617524,2637444.539738,38.490349034903,0,0
613.01649167727,-680.91180426793,33.294779477948,1355328.6752071,1704.4917617524,2637444.539738,38.494779477948,0,0
613.01649199172,-681.11359331687,33.299209920992,1355328.6752071,1704.4917617524,2637444.539738,38.499209920992,0,0
613.01649230618,-681.31538236582,33.303640364036,1355328.6752071,1704.4917617524,2637444.539738,38.503640364036,0,0
613.01649262064,-681.51717141476,33.308070807081,1355328.6752071,1704.4917617524,2637444.539738,38.508070807081,0,0
613.01649293509,-681.7189604637,33.312501250125,1355328.6752071,1704.4917617524,2637444.539738,38.512501250125,0,0
613.01649324955,-681.92074951265,33.316931693169,1355328.6752071,1704.4917617524,2637444.539738,38.516931693169,0,0
613.01649356401,-682.12253856159,33.321362136214,1355328.6752071,1704.4917617524,2637444.539738,38.521362136214,0,0
613.01649387846,-682.32432761054,33.325792579258,1355328.6752071,1704.4917617524,2637444.539738,38.525792579258,0,0
613.01649419292,-682.52611665948,33.330223022302,1355328.6752071,1704.4917617524,2637444.539738,38.530223022302,0,0
613.01649450738,-682.72790570842,33.334653465347,1355328.6752071,1704.4917617524,2637444.539738,38.534653465347,0,0
613.01649482184,-682.92969475737,33.339083908391,1355328.6752071,1704.4917617524,2637444.539738,38.539083908391,0,0
613.01649513629,-683.13148380631,33.343514351435,1355328.6752071,1704.4917617524,2637444.539738,38.543514351435,0,0
613.01649545075,-683.33327285526,33.347944794479,1355328.6752071,1704.4917617524,2637444.539738,38.547944794479,0,0
613.01649576521,-683.5350619042,33.352375237524,1355328.6752071,1704.4917617524,2637444.539738,38.552375237524,0,0
613.01649607966,-683.73685095314,33.356805680568,1355328.6752071,1704.4917617524,2637444.539738,38.556805680568,0,0
613.01649639412,-683.93864000209,33.361236123612,1355328.6752071,1704.4917617524,2637444.539738,38.561236123612,0,0
613.01649670858,-684.14042905103,33.365666566657,1355328.6752071,1704.4917617524,2637444.539738,38.565666566657,0,0
613.01649702303,-684.34221809997,33.370097009701,1355328.6752071,1704.4917617524,2637444.539738,38.570097009701,0,0
613.01649733749,-684.54400714892,33.374527452745,1355328.6752071,1704.4917617524,2637444.539738,38.574527452745,0,0
613.01649765195,-684.74579619786,33.37895789579,1355328.6752071,1704.4917617524,2637444.539738,38.57895789579,0,0
613.0164979664,-684.94758524681,33.383388338834,1355328.6752071,1704.4917617524,2637444.539738,38.583388338834,0,0
613.01649828086,-685.14937429575,33.387818781878,1355328.6752071,1704.4917617524,2637444.539738,38.587818781878,0,0
613.01649859532,-685.35116334469,33.392249224922,1355328.6752071,1704.4917617524,2637444.539738,38.592249224922,0,0
613.01649890977,-685.55295239364,33.396679667967,1355328.6752071,1704.4917617524,2637444.539738,38.596679667967,0,0
613.01649922423,-685.75474144258,33.401110111011,1355328.6752071,1704.4917617524,2637444.539738,38.601110111011,0,0
613.01649953869,-685.95653049153,33.405540554055,1355328.6752071,1704.4917617524,2637444.539738,38.605540554055,0,0
613.01649985314,-686.15831954047,33.4099709971,1355328.6752071,1704.4917617524,2637444.539738,38.6099709971,0,0
613.0165001676,-686.36010858941,33.414401440144,1355328.6752071,1704.4917617524,2637444.539738,38.614401440144,0,0
613.01650048206,-686.56189763836,33.418831883188,1355328.6752071,1704.4917617524,2637444.539738,38.618831883188,0,0
613.01650079651,-686.7636866873,33.423262326233,1355328.6752071,1704.4917617524,2637444.539738,38.623262326233,0,0
613.01650111097,-686.96547573625,33.427692769277,1355328.6752071,1704.4917617524,2637444.539738,38.627692769277,0,0
613.01650142543,-687.16726478519,33.432123212321,1355328.6752071,1704.4917617524,2637444.539738,38.632123212321,0,0
613.01650173988,-687.36905383413,33.436553655366,1355328.6752071,1704.4917617524,2637444.539738,38.636553655366,0,0
613.01650205434,-687.57084288308,33.44098409841,1355328.6752071,1704.4917617524,2637444.539738,38.64098409841,0,0
613.0165023688,-687.77263193202,33.445414541454,1355328.6752071,1704.4917617524,2637444.539738,38.645414541454,0,0
613.01650268325,-687.97442098096,33.449844984498,1355328.6752071,1704.4917617524,2637444.539738,38.649844984498,0,0
613.01650299771,-688.17621002991,33.454275427543,1355328.6752071,1704.4917617524,2637444.539738,38.654275427543,0,0
613.01650331217,-688.37799907885,33.458705870587,1355328.6752071,1704.4917617524,2637444.539738,38.658705870587,0,0
613.01650362663,-688.5797881278,33.463136313631,1355328.6752071,1704.4917617524,2637444.539738,38.663136313631,0,0
613.01650394108,-688.78157717674,33.467566756676,1355328.6752071,1704.4917617524,2637444.539738,38.667566756676,0,0
613.01650425554,-688.98336622568,33.47199719972,1355328.6752071,1704.4917617524,2637444.539738,38.67199719972,0,0
613.01650457,-689.18515527463,33.476427642764,1355328.6752071,1704.4917617524,2637444.539738,38.676427642764,0,0
613.01650488445,-689.38694432357,33.480858085809,1355328.6752071,1704.4917617524,2637444.539738,38.680858085809,0,0
613.01650519891,-689.58873337252,33.485288528853,1355328.6752071,1704.4917617524,2637444.539738,38.685288528853,0,0
613.01650551337,-689.79052242146,33.489718971897,1355328.6752071,1704.4917617524,2637444.539738,38.689718971897,0,0
613.01650582782,-689.9923114704,33.494149414941,1355328.6752071,1704.4917617524,2637444.539738,38.694149414941,0,0
613.01650614228,-690.19410051935,33.498579857986,1355328.6752071,1704.4917617524,2637444.539738,38.698579857986,0,0
613.01650645674,-690.39588956829,33.50301030103,1355328.6752071,1704.4917617524,2637444.539738,38.70301030103,0,0
613.01650677119,-690.59767861723,33.507440744074,1355328.6752071,1704.4917617524,2637444.539738,38.707440744074,0,0
613.01650708565,-690.79946766618,33.511871187119,1355328.6752071,1704.4917617524,2637444.539738,38.711871187119,0,0
613.01650740011,-691.00125671512,33.516301630163,1355328.6752071,1704.4917617524,2637444.539738,38.716301630163,0,0
613.01650771456,-691.20304576407,33.520732073207,1355328.6752071,1704.4917617524,2637444.539738,38.720732073207,0,0
613.01650802902,-691.40483481301,33.525162516252,1355328.6752071,1704.4917617524,2637444.539738,38.725162516252,0,0
613.01650834348,-691.60662386195,33.529592959296,1355328.6752071,1704.4917617524,2637444.539738,38.729592959296,0,0
613.01650865793,-691.8084129109,33.53402340234,1355328.6752071,1704.4917617524,2637444.539738,38.73402340234,0,0
613.01650897239,-692.01020195984,33.538453845385,1355328.6752071,1704.4917617524,2637444.539738,38.738453845385,0,0
613.01650928685,-692.21199100879,33.542884288429,1355328.6752071,1704.4917617524,2637444.539738,38.742884288429,0,0
613.0165096013,-692.41378005773,33.547314731473,1355328.6752071,1704.4917617524,2637444.539738,38.747314731473,0,0
613.01650991576,-692.61556910667,33.551745174517,1355328.6752071,1704.4917617524,2637444.539738,38.751745174517,0,0
613.01651023022,-692.81735815562,33.556175617562,1355328.6752071,1704.4917617524,2637444.539738,38.756175617562,0,0
613.01651054467,-693.01914720456,33.560606060606,1355328.6752071,1704.4917617524,2637444.539738,38.760606060606,0,0
613.01651085913,-693.22093625351,33.56503650365,1355328.6752071,1704.4917617524,2637444.539738,38.76503650365,0,0
613.01651117359,-693.42272530245,33.569466946695,1355328.6752071,1704.4917617524,2637444.539738,38.769466946695,0,0
613.01651148805,-693.62451435139,33.573897389739,1355328.6752071,1704.4917617524,2637444.539738,38.773897389739,0,0
613.0165118025,-693.82630340034,33.578327832783,1355328.6752071,1704.4917617524,2637444.539738,38.778327832783,0,0
613.01651211696,-694.02809244928,33.582758275828,1355328.6752071,1704.4917617524,2637444.539738,38.782758275828,0,0
613.01651243142,-694.22988149822,33.587188718872,1355328.6752071,1704.4917617524,2637444.539738,38.787188718872,0,0
613.01651274587,-694.43167054717,33.591619161916,1355328.6752071,1704.4917617524,2637444.539738,38.791619161916,0,0
613.01651306033,-694.63345959611,33.59604960496,1355328.6752071,1704.4917617524,2637444.539738,38.79604960496,0,0
613.01651337479,-694.83524864506,33.600480048005,1355328.6752071,1704.4917617524,2637444.539738,38.800480048005,0,0
613.01651368924,-695.037037694,33.604910491049,1355328.6752071,1704.4917617524,2637444.539738,38.804910491049,0,0
613.0165140037,-695.23882674294,33.609340934093,1355328.6752071,1704.4917617524,2637444.539738,38.809340934093,0,0
613.01651431816,-695.44061579189,33.613771377138,1355328.6752071,1704.4917617524,2637444.539738,38.813771377138,0,0
613.01651463261,-695.64240484083,33.618201820182,1355328.6752071,1704.4917617524,2637444.539738,38.818201820182,0,0
613.01651494707,-695.84419388978,33.622632263226,1355328.6752071,1704.4917617524,2637444.539738,38.822632263226,0,0
613.01651526153,-696.04598293872,33.627062706271,1355328.6752071,1704.4917617524,2637444.539738,38.827062706271,0,0
613.01651557598,-696.24777198766,33.631493149315,1355328.6752071,1704.4917617524,2637444.539738,38.831493149315,0,0
613.01651589044,-696.44956103661,33.635923592359,1355328.6752071,1704.4917617524,2637444.539738,38.835923592359,0,0
613.0165162049,-696.65135008555,33.640354035404,1355328.6752071,1704.4917617524,2637444.539738,38.840354035404,0,0
613.01651651935,-696.85313913449,33.644784478448,1355328.6752071,1704.4917617524,2637444.539738,38.844784478448,0,0
613.01651683381,-697.05492818344,33.649214921492,1355328.6752071,1704.4917617524,2637444.539738,38.849214921492,0,0
613.01651714827,-697.25671723238,33.653645364536,1355328.6752071,1704.4917617524,2637444.539738,38.853645364536,0,0
613.01651746272,-697.45850628133,33.658075807581,1355328.6752071,1704.4917617524,2637444.539738,38.858075807581,0,0
613.01651777718,-697.66029533027,33.662506250625,1355328.6752071,1704.4917617524,2637444.539738,38.862506250625,0,0
613.01651809164,-697.86208437921,33.666936693669,1355328.6752071,1704.4917617524,2637444.539738,38.866936693669,0,0
613.01651840611,-698.06387342834,33.671367136714,1354911.1353817,-926.0528247082,2632719.4344,38.871367136714,0,0
613.01651872071,-698.26566247857,33.675797579758,1354911.1353817,-926.0528247082,2632719.4344,38.875797579758,0,0
613.0165190353,-698.4674515288,33.680228022802,1354911.1353817,-926.0528247082,2632719.4344,38.880228022802,0,0
613.01651934989,-698.66924057904,33.684658465847,1354911.1353817,-926.0528247082,2632719.4344,38.884658465847,0,0
613.01651966449,-698.87102962927,33.689088908891,1354911.1353817,-926.0528247082,2632719.4344,38.889088908891,0,0
613.01651997908,-699.0728186795,33.693519351935,1354911.1353817,-926.0528247082,2632719.4344,38.893519351935,0,0
613.01652029368,-699.27460772973,33.697949794979,1354911.1353817,-926.0528247082,2632719.4344,38.897949794979,0,0
613.01652060827,-699.47639677996,33.702380238024,1354911.1353817,-926.0528247082,2632719.4344,38.902380238024,0,0
613.01652092286,-699.6781858302,33.706810681068,1354911.1353817,-926.0528247082,2632719.4344,38.906810681068,0,0
613.01652123746,-699.87997488043,33.711241124112,1354911.1353817,-926.0528247082,2632719.4344,38.911241124112,0,0
613.01652155205,-700.08176393066,33.715671567157,1354911.1353817,-926.0528247082,2632719.4344,38.915671567157,0,0
613.01652186664,-700.28355298089,33.720102010201,1354911.1353817,-926.0528247082,2632719.4344,38.920102010201,0,0
613.01652218124,-700.48534203113,33.724532453245,1354911.1353817,-926.0528247082,2632719.4344,38.924532453245,0,0
613.01652249583,-700.68713108136,33.72896289629,1354911.1353817,-926.0528247082,2632719.4344,38.92896289629,0,0
613.01652281042,-700.88892013159,33.733393339334,1354911.1353817,-926.0528247082,2632719.4344,38.933393339334,0,0
613.01652312502,-701.09070918182,33.737823782378,1354911.1353817,-926.0528247082,2632719.4344,38.937823782378,0,0
613.01652343961,-701.29249823205,33.742254225423,1354911.1353817,-926.0528247082,2632719.4344,38.942254225423,0,0
613.01652375421,-701.49428728228,33.746684668467,1354911.1353817,-926.0528247082,2632719.4344,38.946684668467,0,0
613.0165240688,-701.69607633252,33.751115111511,1354911.1353817,-926.0528247082,2632719.4344,38.951115111511,0,0
613.01652438339,-701.89786538275,33.755545554555,1354911.1353817,-926.0528247082,2632719.4344,38.955545554555,0,0
613.01652469799,-702.09965443298,33.7599759976,1354911.1353817,-926.0528247082,2632719.4344,38.9599759976,0,0
613.01652501258,-702.30144348321,33.764406440644,1354911.1353817,-926.0528247082,2632719.4344,38.964406440644,0,0
613.01652532717,-702.50323253345,33.768836883688,1354911.1353817,-926.0528247082,2632719.4344,38.968836883688,0,0
613.01652564177,-702.70502158368,33.773267326733,1354911.1353817,-926.0528247082,2632719.4344,38.973267326733,0,0
613.01652595636,-702.90681063391,33.777697769777,1354911.1353817,-926.0528247082,2632719.4344,38.977697769777,0,0
613.01652627095,-703.10859968414,33.782128212821,1354911.1353817,-926.0528247082,2632719.4344,38.982128212821,0,0
613.01652658555,-703.31038873437,33.786558655866,1354911.1353817,-926.0528247082,2632719.4344,38.986558655866,0,0
613.01652690014,-703.51217778461,33.79098909891,1354911.1353817,-926.0528247082,2632719.4344,38.99098909891,0,0
613.01652721474,-703.71396683484,33.795419541954,1354911.1353817,-926.0528247082,2632719.4344,38.995419541954,0,0
613.01652752933,-703.91575588507,33.799849984998,1354911.1353817,-926.0528247082,2632719.4344,38.999849984998,0,0
613.01652784392,-704.1175449353,33.804280428043,1354911.1353817,-926.0528247082,2632719.4344,39.004280428043,0,0
613.01652815852,-704.31933398553,33.808710871087,1354911.1353817,-926.0528247082,2632719.4344,39.008710871087,0,0
613.01652847311,-704.52112303577,33.813141314131,1354911.1353817,-926.0528247082,2632719.4344,39.013141314131,0,0
613.0165287877,-704.722912086,33.817571757176,1354911.1353817,-926.0528247082,2632719.4344,39.017571757176,0,0
613.0165291023,-704.92470113623,33.82200220022,1354911.1353817,-926.0528247082,2632719.4344,39.02200220022,0,0
613.01652941689,-705.12649018646,33.826432643264,1354911.1353817,-926.0528247082,2632719.4344,39.026432643264,0,0
613.01652973148,-705.32827923669,33.830863086309,1354911.1353817,-926.0528247082,2632719.4344,39.030863086309,0,0
613.01653004608,-705.53006828693,33.835293529353,1354911.1353817,-926.0528247082,2632719.4344,39.035293529353,0,0
613.01653036067,-705.73185733716,33.839723972397,1354911.1353817,-926.0528247082,2632719.4344,39.039723972397,0,0
613.01653067527,-705.93364638739,33.844154415442,1354911.1353817,-926.0528247082,2632719.4344,39.044154415442,0,0
613.01653098986,-706.13543543762,33.848584858486,1354911.1353817,-926.0528247082,2632719.4344,39.048584858486,0,0
613.01653130445,-706.33722448785,33.85301530153,1354911.1353817,-926.0528247082,2632719.4344,39.05301530153,0,0
613.01653161905,-706.53901353809,33.857445744574,1354911.1353817,-926.0528247082,2632719.4344,39.057445744574,0,0
613.01653193364,-706.74080258832,33.861876187619,1354911.1353817,-926.0528247082,2632719.4344,39.061876187619,0,0
613.01653224823,-706.94259163855,33.866306630663,1354911.1353817,-926.0528247082,2632719.4344,39.066306630663,0,0
613.01653256283,-707.14438068878,33.870737073707,1354911.1353817,-926.0528247082,2632719.4344,39.070737073707,0,0
613.01653287742,-707.34616973901,33.875167516752,1354911.1353817,-926.0528247082,2632719.4344,39.075167516752,0,0
613.01653319201,-707.54795878925,33.879597959796,1354911.1353817,-926.0528247082,2632719.4344,39.079597959796,0,0
613.01653350661,-707.74974783948,33.88402840284,1354911.1353817,-926.0528247082,2632719.4344,39.08402840284,0,0
613.0165338212,-707.95153688971,33.888458845885,1354911.1353817,-926.0528247082,2632719.4344,39.088458845885,0,0
613.0165341358,-708.15332593994,33.892889288929,1354911.1353817,-926.0528247082,2632719.4344,39.092889288929,0,0
613.01653445039,-708.35511499017,33.897319731973,1354911.1353817,-926.0528247082,2632719.4344,39.097319731973,0,0
613.01653476498,-708.55690404041,33.901750175017,1354911.1353817,-926.0528247082,2632719.4344,39.101750175018,0,0
613.01653507958,-708.75869309064,33.906180618062,1354911.1353817,-926.0528247082,2632719.4344,39.106180618062,0,0
613.01653539417,-708.96048214087,33.910611061106,1354911.1353817,-926.0528247082,2632719.4344,39.110611061106,0,0
613.01653570876,-709.1622711911,33.91504150415,1354911.1353817,-926.0528247082,2632719.4344,39.11504150415,0,0
613.01653602336,-709.36406024133,33.919471947195,1354911.1353817,-926.0528247082,2632719.4344,39.119471947195,0,0
613.01653633795,-709.56584929157,33.923902390239,1354911.1353817,-926.0528247082,2632719.4344,39.123902390239,0,0
613.01653665254,-709.7676383418,33.928332833283,1354911.1353817,-926.0528247082,2632719.4344,39.128332833283,0,0
613.01653696714,-709.96942739203,33.932763276328,1354911.1353817,-926.0528247082,2632719.4344,39.132763276328,0,0
613.01653728173,-710.17121644226,33.937193719372,1354911.1353817,-926.0528247082,2632719.4344,39.137193719372,0,0
613.01653759633,-710.37300549249,33.941624162416,1354911.1353817,-926.0528247082,2632719.4344,39.141624162416,0,0
613.01653791092,-710.57479454273,33.946054605461,1354911.1353817,-926.0528247082,2632719.4344,39.146054605461,0,0
613.01653822551,-710.77658359296,33.950485048505,1354911.1353817,-926.0528247082,2632719.4344,39.150485048505,0,0
613.01653854011,-710.97837264319,33.954915491549,1354911.1353817,-926.0528247082,2632719.4344,39.154915491549,0,0
613.0165388547,-711.18016169342,33.959345934593,1354911.1353817,-926.0528247082,2632719.4344,39.159345934593,0,0
613.01653916929,-711.38195074365,33.963776377638,1354911.1353817,-926.0528247082,2632719.4344,39.163776377638,0,0
613.01653948389,-711.58373979389,33.968206820682,1354911.1353817,-926.0528247082,2632719.4344,39.168206820682,0,0
613.01653979848,-711.78552884412,33.972637263726,1354911.1353817,-926.0528247082,2632719.4344,39.172637263726,0,0
613.01654011307,-711.98731789435,33.977067706771,1354911.1353817,-926.0528247082,2632719.4344,39.177067706771,0,0
613.01654042767,-712.18910694458,33.981498149815,1354911.1353817,-926.0528247082,2632719.4344,39.181498149815,0,0
613.01654074226,-712.39089599481,33.985928592859,1354911.1353817,-926.0528247082,2632719.4344,39.185928592859,0,0
613.01654105686,-712.59268504505,33.990359035904,1354911.1353817,-926.0528247082,2632719.4344,39.190359035904,0,0
613.01654137145,-712.79447409528,33.994789478948,1354911.1353817,-926.0528247082,2632719.4344,39.194789478948,0,0
613.01654168604,-712.99626314551,33.999219921992,1354911.1353817,-926.0528247082,2632719.4344,39.199219921992,0,0
613.01654200064,-713.19805219574,34.003650365036,1354911.1353817,-926.0528247082,2632719.4344,39.203650365037,0,0
613.01654231523,-713.39984124597,34.008080808081,1354911.1353817,-926.0528247082,2632719.4344,39.208080808081,0,0
613.01654262982,-713.60163029621,34.012511251125,1354911.1353817,-926.0528247082,2632719.4344,39.212511251125,0,0
613.01654294442,-713.80341934644,34.016941694169,1354911.1353817,-926.0528247082,2632719.4344,39.216941694169,0,0
613.01654325901,-714.00520839667,34.021372137214,1354911.1353817,-926.0528247082,2632719.4344,39.221372137214,0,0
613.0165435736,-714.2069974469,34.025802580258,1354911.1353817,-926.0528247082,2632719.4344,39.225802580258,0,0
613.0165438882,-714.40878649714,34.030233023302,1354911.1353817,-926.0528247082,2632719.4344,39.230233023302,0,0
613.01654420279,-714.61057554737,34.034663466347,1354911.1353817,-926.0528247082,2632719.4344,39.234663466347,0,0
613.01654451739,-714.8123645976,34.039093909391,1354911.1353817,-926.0528247082,2632719.4344,39.239093909391,0,0
613.01654483198,-715.01415364783,34.043524352435,1354911.1353817,-926.0528247082,2632719.4344,39.243524352435,0,0
613.01654514657,-715.21594269806,34.04795479548,1354911.1353817,-926.0528247082,2632719.4344,39.24795479548,0,0
613.01654546117,-715.41773174829,34.052385238524,1354911.1353817,-926.0528247082,2632719.4344,39.252385238524,0,0
613.01654577576,-715.61952079853,34.056815681568,1354911.1353817,-926.0528247082,2632719.4344,39.256815681568,0,0
613.01654609035,-715.82130984876,34.061246124612,1354911.1353817,-926.0528247082,2632719.4344,39.261246124612,0,0
613.01654640495,-716.02309889899,34.065676567657,1354911.1353817,-926.0528247082,2632719.4344,39.265676567657,0,0
613.01654671954,-716.22488794922,34.070107010701,1354911.1353817,-926.0528247082,2632719.4344,39.270107010701,0,0
613.01654703413,-716.42667699946,34.074537453745,1354911.1353817,-926.0528247082,2632719.4344,39.274537453745,0,0
613.01654734873,-716.62846604969,34.07896789679,1354911.1353817,-926.0528247082,2632719.4344,39.27896789679,0,0
613.01654766332,-716.83025509992,34.083398339834,1354911.1353817,-926.0528247082,2632719.4344,39.283398339834,0,0
613.01654797792,-717.03204415015,34.087828782878,1354911.1353817,-926.0528247082,2632719.4344,39.287828782878,0,0
613.01654829251,-717.23383320038,34.092259225923,1354911.1353817,-926.0528247082,2632719.4344,39.292259225923,0,0
613.0165486071,-717.43562225062,34.096689668967,1354911.1353817,-926.0528247082,2632719.4344,39.296689668967,0,0
613.0165489217,-717.63741130085,34.101120112011,1354911.1353817,-926.0528247082,2632719.4344,39.301120112011,0,0
613.01654923629,-717.83920035108,34.105550555056,1354911.1353817,-926.0528247082,2632719.4344,39.305550555056,0,0
613.01654955088,-718.04098940131,34.1099809981,1354911.1353817,-926.0528247082,2632719.4344,39.3099809981,0,0
613.01654986548,-718.24277845154,34.114411441144,1354911.1353817,-926.0528247082,2632719.4344,39.314411441144,0,0
613.01655018007,-718.44456750178,34.118841884188,1354911.1353817,-926.0528247082,2632719.4344,39.318841884188,0,0
613.01655049466,-718.64635655201,34.123272327233,1354911.1353817,-926.0528247082,2632719.4344,39.323272327233,0,0
613.01655080926,-718.84814560224,34.127702770277,1354911.1353817,-926.0528247082,2632719.4344,39.327702770277,0,0
613.01655112385,-719.04993465247,34.132133213321,1354911.1353817,-926.0528247082,2632719.4344,39.332133213321,0,0
613.01655143844,-719.2517237027,34.136563656366,1354911.1353817,-926.0528247082,2632719.4344,39.336563656366,0,0
613.01655175304,-719.45351275294,34.14099409941,1354911.1353817,-926.0528247082,2632719.4344,39.34099409941,0,0
613.01655206763,-719.65530180317,34.145424542454,1354911.1353817,-926.0528247082,2632719.4344,39.345424542454,0,0
613.01655238223,-719.8570908534,34.149854985499,1354911.1353817,-926.0528247082,2632719.4344,39.349854985499,0,0
613.01655269682,-720.05887990363,34.154285428543,1354911.1353817,-926.0528247082,2632719.4344,39.354285428543,0,0
613.01655301141,-720.26066895386,34.158715871587,1354911.1353817,-926.0528247082,2632719.4344,39.358715871587,0,0
613.01655332601,-720.4624580041,34.163146314631,1354911.1353817,-926.0528247082,2632719.4344,39.363146314631,0,0
613.0165536406,-720.66424705433,34.167576757676,1354911.1353817,-926.0528247082,2632719.4344,39.367576757676,0,0
613.01655395519,-720.86603610456,34.17200720072,1354911.1353817,-926.0528247082,2632719.4344,39.37200720072,0,0
613.01655426979,-721.06782515479,34.176437643764,1354911.1353817,-926.0528247082,2632719.4344,39.376437643764,0,0
613.01655458438,-721.26961420502,34.180868086809,1354911.1353817,-926.0528247082,2632719.4344,39.380868086809,0,0
613.01655489897,-721.47140325526,34.185298529853,1354911.1353817,-926.0528247082,2632719.4344,39.385298529853,0,0
613.01655521357,-721.67319230549,34.189728972897,1354911.1353817,-926.0528247082,2632719.4344,39.389728972897,0,0
613.01655552816,-721.87498135572,34.194159415942,1354911.1353817,-926.0528247082,2632719.4344,39.394159415942,0,0
613.01655584276,-722.07677040595,34.198589858986,1354911.1353817,-926.0528247082,2632719.4344,39.398589858986,0,0
613.01655615735,-722.27855945618,34.20302030203,1354911.1353817,-926.0528247082,2632719.4344,39.40302030203,0,0
613.01655647194,-722.48034850642,34.207450745075,1354911.1353817,-926.0528247082,2632719.4344,39.407450745075,0,0
613.01655678654,-722.68213755665,34.211881188119,1354911.1353817,-926.0528247082,2632719.4344,39.411881188119,0,0
613.01655710113,-722.88392660688,34.216311631163,1354911.1353817,-926.0528247082,2632719.4344,39.416311631163,0,0
613.01655741572,-723.08571565711,34.220742074207,1354911.1353817,-926.0528247082,2632719.4344,39.420742074207,0,0
613.01655773032,-723.28750470734,34.225172517252,1354911.1353817,-926.0528247082,2632719.4344,39.425172517252,0,0
613.01655804491,-723.48929375758,34.229602960296,1354911.1353817,-926.0528247082,2632719.4344,39.429602960296,0,0
613.0165583595,-723.69108280781,34.23403340334,1354911.1353817,-926.0528247082,2632719.4344,39.43403340334,0,0
613.0165586741,-723.89287185804,34.238463846385,1354911.1353817,-926.0528247082,2632719.4344,39.438463846385,0,0
613.01655898869,-724.09466090827,34.242894289429,1354911.1353817,-926.0528247082,2632719.4344,39.442894289429,0,0
613.01655930329,-724.2964499585,34.247324732473,1354911.1353817,-926.0528247082,2632719.4344,39.447324732473,0,0
613.01655961788,-724.49823900874,34.251755175518,1354911.1353817,-926.0528247082,2632719.4344,39.451755175518,0,0
613.01655993247,-724.70002805864,34.256185618562,1354035.0638645,1688.237931788,2629299.4388029,39.456185618562,0,0
613.01656024706,-724.90181710768,34.260616061606,1354035.0638645,1688.237931788,2629299.4388029,39.460616061606,0,0
613.01656056165,-725.10360615673,34.26504650465,1354035.0638645,1688.237931788,2629299.4388029,39.46504650465,0,0
613.01656087623,-725.30539520577,34.269476947695,1354035.0638645,1688.237931788,2629299.4388029,39.469476947695,0,0
613.01656119082,-725.50718425482,34.273907390739,1354035.0638645,1688.237931788,2629299.4388029,39.473907390739,0,0
613.01656150541,-725.70897330386,34.278337833783,1354035.0638645,1688.237931788,2629299.4388029,39.478337833783,0,0
613.01656182,-725.9107623529,34.282768276828,1354035.0638645,1688.237931788,2629299.4388029,39.482768276828,0,0
613.01656213459,-726.11255140195,34.287198719872,1354035.0638645,1688.237931788,2629299.4388029,39.487198719872,0,0
613.01656244917,-726.31434045099,34.291629162916,1354035.0638645,1688.237931788,2629299.4388029,39.491629162916,0,0
613.01656276376,-726.51612950003,34.296059605961,1354035.0638645,1688.237931788,2629299.4388029,39.496059605961,0,0
613.01656307835,-726.71791854908,34.300490049005,1354035.0638645,1688.237931788,2629299.4388029,39.500490049005,0,0
613.01656339294,-726.91970759812,34.304920492049,1354035.0638645,1688.237931788,2629299.4388029,39.504920492049,0,0
613.01656370753,-727.12149664717,34.309350935094,1354035.0638645,1688.237931788,2629299.4388029,39.509350935094,0,0
613.01656402211,-727.32328569621,34.313781378138,1354035.0638645,1688.237931788,2629299.4388029,39.513781378138,0,0
613.0165643367,-727.52507474525,34.318211821182,1354035.0638645,1688.237931788,2629299.4388029,39.518211821182,0,0
613.01656465129,-727.7268637943,34.322642264226,1354035.0638645,1688.237931788,2629299.4388029,39.522642264226,0,0
613.01656496588,-727.92865284334,34.327072707271,1354035.0638645,1688.237931788,2629299.4388029,39.527072707271,0,0
613.01656528046,-728.13044189239,34.331503150315,1354035.0638645,1688.237931788,2629299.4388029,39.531503150315,0,0
613.01656559505,-728.33223094143,34.335933593359,1354035.0638645,1688.237931788,2629299.4388029,39.535933593359,0,0
613.01656590964,-728.53401999047,34.340364036404,1354035.0638645,1688.237931788,2629299.4388029,39.540364036404,0,0
613.01656622423,-728.73580903952,34.344794479448,1354035.0638645,1688.237931788,2629299.4388029,39.544794479448,0,0
613.01656653882,-728.93759808856,34.349224922492,1354035.0638645,1688.237931788,2629299.4388029,39.549224922492,0,0
613.0165668534,-729.1393871376,34.353655365537,1354035.0638645,1688.237931788,2629299.4388029,39.553655365537,0,0
613.01656716799,-729.34117618665,34.358085808581,1354035.0638645,1688.237931788,2629299.4388029,39.558085808581,0,0
613.01656748258,-729.54296523569,34.362516251625,1354035.0638645,1688.237931788,2629299.4388029,39.562516251625,0,0
613.01656779717,-729.74475428474,34.366946694669,1354035.0638645,1688.237931788,2629299.4388029,39.566946694669,0,0
613.01656811175,-729.94654333378,34.371377137714,1354035.0638645,1688.237931788,2629299.4388029,39.571377137714,0,0
613.01656842634,-730.14833238282,34.375807580758,1354035.0638645,1688.237931788,2629299.4388029,39.575807580758,0,0
613.01656874093,-730.35012143187,34.380238023802,1354035.0638645,1688.237931788,2629299.4388029,39.580238023802,0,0
613.01656905552,-730.55191048091,34.384668466847,1354035.0638645,1688.237931788,2629299.4388029,39.584668466847,0,0
613.01656937011,-730.75369952996,34.389098909891,1354035.0638645,1688.237931788,2629299.4388029,39.589098909891,0,0
613.01656968469,-730.955488579,34.393529352935,1354035.0638645,1688.237931788,2629299.4388029,39.593529352935,0,0
613.01656999928,-731.15727762804,34.39795979598,1354035.0638645,1688.237931788,2629299.4388029,39.59795979598,0,0
613.01657031387,-731.35906667709,34.402390239024,1354035.0638645,1688.237931788,2629299.4388029,39.602390239024,0,0
613.01657062846,-731.56085572613,34.406820682068,1354035.0638645,1688.237931788,2629299.4388029,39.606820682068,0,0
613.01657094305,-731.76264477517,34.411251125113,1354035.0638645,1688.237931788,2629299.4388029,39.611251125113,0,0
613.01657125763,-731.96443382422,34.415681568157,1354035.0638645,1688.237931788,2629299.4388029,39.615681568157,0,0
613.01657157222,-732.16622287326,34.420112011201,1354035.0638645,1688.237931788,2629299.4388029,39.620112011201,0,0
613.01657188681,-732.36801192231,34.424542454245,1354035.0638645,1688.237931788,2629299.4388029,39.624542454245,0,0
613.0165722014,-732.56980097135,34.42897289729,1354035.0638645,1688.237931788,2629299.4388029,39.62897289729,0,0
613.01657251598,-732.77159002039,34.433403340334,1354035.0638645,1688.237931788,2629299.4388029,39.633403340334,0,0
613.01657283057,-732.97337906944,34.437833783378,1354035.0638645,1688.237931788,2629299.4388029,39.637833783378,0,0
613.01657314516,-733.17516811848,34.442264226423,1354035.0638645,1688.237931788,2629299.4388029,39.642264226423,0,0
613.01657345975,-733.37695716752,34.446694669467,1354035.0638645,1688.237931788,2629299.4388029,39.646694669467,0,0
613.01657377434,-733.57874621657,34.451125112511,1354035.0638645,1688.237931788,2629299.4388029,39.651125112511,0,0
613.01657408892,-733.78053526561,34.455555555556,1354035.0638645,1688.237931788,2629299.4388029,39.655555555556,0,0
613.01657440351,-733.98232431466,34.4599859986,1354035.0638645,1688.237931788,2629299.4388029,39.6599859986,0,0
613.0165747181,-734.1841133637,34.464416441644,1354035.0638645,1688.237931788,2629299.4388029,39.664416441644,0,0
613.01657503269,-734.38590241274,34.468846884688,1354035.0638645,1688.237931788,2629299.4388029,39.668846884688,0,0
613.01657534728,-734.58769146179,34.473277327733,1354035.0638645,1688.237931788,2629299.4388029,39.673277327733,0,0
613.01657566186,-734.78948051083,34.477707770777,1354035.0638645,1688.237931788,2629299.4388029,39.677707770777,0,0
613.01657597645,-734.99126955988,34.482138213821,1354035.0638645,1688.237931788,2629299.4388029,39.682138213821,0,0
613.01657629104,-735.19305860892,34.486568656866,1354035.0638645,1688.237931788,2629299.4388029,39.686568656866,0,0
613.01657660563,-735.39484765796,34.49099909991,1354035.0638645,1688.237931788,2629299.4388029,39.69099909991,0,0
613.01657692021,-735.59663670701,34.495429542954,1354035.0638645,1688.237931788,2629299.4388029,39.695429542954,0,0
613.0165772348,-735.79842575605,34.499859985999,1354035.0638645,1688.237931788,2629299.4388029,39.699859985999,0,0
613.01657754939,-736.00021480509,34.504290429043,1354035.0638645,1688.237931788,2629299.4388029,39.704290429043,0,0
613.01657786398,-736.20200385414,34.508720872087,1354035.0638645,1688.237931788,2629299.4388029,39.708720872087,0,0
613.01657817857,-736.40379290318,34.513151315132,1354035.0638645,1688.237931788,2629299.4388029,39.713151315132,0,0
613.01657849315,-736.60558195223,34.517581758176,1354035.0638645,1688.237931788,2629299.4388029,39.717581758176,0,0
613.01657880774,-736.80737100127,34.52201220122,1354035.0638645,1688.237931788,2629299.4388029,39.72201220122,0,0
613.01657912233,-737.00916005031,34.526442644264,1354035.0638645,1688.237931788,2629299.4388029,39.726442644264,0,0
613.01657943692,-737.21094909936,34.530873087309,1354035.0638645,1688.237931788,2629299.4388029,39.730873087309,0,0
613.0165797515,-737.4127381484,34.535303530353,1354035.0638645,1688.237931788,2629299.4388029,39.735303530353,0,0
613.01658006609,-737.61452719745,34.539733973397,1354035.0638645,1688.237931788,2629299.4388029,39.739733973397,0,0
613.01658038068,-737.81631624649,34.544164416442,1354035.0638645,1688.237931788,2629299.4388029,39.744164416442,0,0
613.01658069527,-738.01810529553,34.548594859486,1354035.0638645,1688.237931788,2629299.4388029,39.748594859486,0,0
613.01658100986,-738.21989434458,34.55302530253,1354035.0638645,1688.237931788,2629299.4388029,39.75302530253,0,0
613.01658132444,-738.42168339362,34.557455745575,1354035.0638645,1688.237931788,2629299.4388029,39.757455745575,0,0
613.01658163903,-738.62347244266,34.561886188619,1354035.0638645,1688.237931788,2629299.4388029,39.761886188619,0,0
613.01658195362,-738.82526149171,34.566316631663,1354035.0638645,1688.237931788,2629299.4388029,39.766316631663,0,0
613.01658226821,-739.02705054075,34.570747074707,1354035.0638645,1688.237931788,2629299.4388029,39.770747074707,0,0
613.0165825828,-739.2288395898,34.575177517752,1354035.0638645,1688.237931788,2629299.4388029,39.775177517752,0,0
613.01658289738,-739.43062863884,34.579607960796,1354035.0638645,1688.237931788,2629299.4388029,39.779607960796,0,0
613.01658321197,-739.63241768788,34.58403840384,1354035.0638645,1688.237931788,2629299.4388029,39.78403840384,0,0
613.01658352656,-739.83420673693,34.588468846885,1354035.0638645,1688.237931788,2629299.4388029,39.788468846885,0,0
613.01658384115,-740.03599578597,34.592899289929,1354035.0638645,1688.237931788,2629299.4388029,39.792899289929,0,0
613.01658415573,-740.23778483502,34.597329732973,1354035.0638645,1688.237931788,2629299.4388029,39.797329732973,0,0
613.01658447032,-740.43957388406,34.601760176018,1354035.0638645,1688.237931788,2629299.4388029,39.801760176018,0,0
613.01658478491,-740.6413629331,34.606190619062,1354035.0638645,1688.237931788,2629299.4388029,39.806190619062,0,0
613.0165850995,-740.84315198215,34.610621062106,1354035.0638645,1688.237931788,2629299.4388029,39.810621062106,0,0
613.01658541409,-741.04494103119,34.615051505151,1354035.0638645,1688.237931788,2629299.4388029,39.815051505151,0,0
613.01658572867,-741.24673008023,34.619481948195,1354035.0638645,1688.237931788,2629299.4388029,39.819481948195,0,0
613.01658604326,-741.44851912928,34.623912391239,1354035.0638645,1688.237931788,2629299.4388029,39.823912391239,0,0
613.01658635785,-741.65030817832,34.628342834283,1354035.0638645,1688.237931788,2629299.4388029,39.828342834283,0,0
613.01658667244,-741.85209722737,34.632773277328,1354035.0638645,1688.237931788,2629299.4388029,39.832773277328,0,0
613.01658698702,-742.05388627641,34.637203720372,1354035.0638645,1688.237931788,2629299.4388029,39.837203720372,0,0
613.01658730161,-742.25567532545,34.641634163416,1354035.0638645,1688.237931788,2629299.4388029,39.841634163416,0,0
613.0165876162,-742.4574643745,34.646064606461,1354035.0638645,1688.237931788,2629299.4388029,39.846064606461,0,0
613.01658793079,-742.65925342354,34.650495049505,1354035.0638645,1688.237931788,2629299.4388029,39.850495049505,0,0
613.01658824538,-742.86104247259,34.654925492549,1354035.0638645,1688.237931788,2629299.4388029,39.854925492549,0,0
613.01658855996,-743.06283152163,34.659355935594,1354035.0638645,1688.237931788,2629299.4388029,39.859355935594,0,0
613.01658887455,-743.26462057067,34.663786378638,1354035.0638645,1688.237931788,2629299.4388029,39.863786378638,0,0
613.01658918914,-743.46640961972,34.668216821682,1354035.0638645,1688.237931788,2629299.4388029,39.868216821682,0,0
613.01658950373,-743.66819866876,34.672647264726,1354035.0638645,1688.237931788,2629299.4388029,39.872647264726,0,0
613.01658981832,-743.8699877178,34.677077707771,1354035.0638645,1688.237931788,2629299.4388029,39.877077707771,0,0
613.0165901329,-744.07177676685,34.681508150815,1354035.0638645,1688.237931788,2629299.4388029,39.881508150815,0,0
613.01659044749,-744.27356581589,34.685938593859,1354035.0638645,1688.237931788,2629299.4388029,39.885938593859,0,0
613.01659076208,-744.47535486494,34.690369036904,1354035.0638645,1688.237931788,2629299.4388029,39.890369036904,0,0
613.01659107667,-744.67714391398,34.694799479948,1354035.0638645,1688.237931788,2629299.4388029,39.894799479948,0,0
613.01659139125,-744.87893296302,34.699229922992,1354035.0638645,1688.237931788,2629299.4388029,39.899229922992,0,0
613.01659170584,-745.08072201207,34.703660366037,1354035.0638645,1688.237931788,2629299.4388029,39.903660366037,0,0
613.01659202043,-745.28251106111,34.708090809081,1354035.0638645,1688.237931788,2629299.4388029,39.908090809081,0,0
613.01659233502,-745.48430011015,34.712521252125,1354035.0638645,1688.237931788,2629299.4388029,39.912521252125,0,0
613.01659264961,-745.6860891592,34.71695169517,1354035.0638645,1688.237931788,2629299.4388029,39.91695169517,0,0
613.01659296419,-745.88787820824,34.721382138214,1354035.0638645,1688.237931788,2629299.4388029,39.921382138214,0,0
613.01659327878,-746.08966725729,34.725812581258,1354035.0638645,1688.237931788,2629299.4388029,39.925812581258,0,0
613.01659359337,-746.29145630633,34.730243024302,1354035.0638645,1688.237931788,2629299.4388029,39.930243024302,0,0
613.01659390796,-746.49324535537,34.734673467347,1354035.0638645,1688.237931788,2629299.4388029,39.934673467347,0,0
613.01659422254,-746.69503440442,34.739103910391,1354035.0638645,1688.237931788,2629299.4388029,39.939103910391,0,0
613.01659453713,-746.89682345346,34.743534353435,1354035.0638645,1688.237931788,2629299.4388029,39.943534353435,0,0
613.01659485172,-747.09861250251,34.74796479648,1354035.0638645,1688.237931788,2629299.4388029,39.94796479648,0,0
613.01659516631,-747.30040155155,34.752395239524,1354035.0638645,1688.237931788,2629299.4388029,39.952395239524,0,0
613.0165954809,-747.50219060059,34.756825682568,1354035.0638645,1688.237931788,2629299.4388029,39.956825682568,0,0
613.01659579548,-747.70397964964,34.761256125613,1354035.0638645,1688.237931788,2629299.4388029,39.961256125613,0,0
613.01659611007,-747.90576869868,34.765686568657,1354035.0638645,1688.237931788,2629299.4388029,39.965686568657,0,0
613.01659642466,-748.10755774772,34.770117011701,1354035.0638645,1688.237931788,2629299.4388029,39.970117011701,0,0
613.01659673925,-748.30934679677,34.774547454745,1354035.0638645,1688.237931788,2629299.4388029,39.974547454745,0,0
613.01659705384,-748.51113584581,34.77897789779,1354035.0638645,1688.237931788,2629299.4388029,39.97897789779,0,0
613.01659736842,-748.71292489486,34.783408340834,1354035.0638645,1688.237931788,2629299.4388029,39.983408340834,0,0
613.01659768301,-748.9147139439,34.787838783878,1354035.0638645,1688.237931788,2629299.4388029,39.987838783878,0,0
613.0165979976,-749.11650299294,34.792269226923,1354035.0638645,1688.237931788,2629299.4388029,39.992269226923,0,0
613.01659831219,-749.31829204199,34.796699669967,1354035.0638645,1688.237931788,2629299.4388029,39.996699669967,0,0
613.01659862677,-749.52008109103,34.801130113011,1354035.0638645,1688.237931788,2629299.4388029,40.001130113011,0,0
613.01659894136,-749.72187014008,34.805560556056,1354035.0638645,1688.237931788,2629299.4388029,40.005560556056,0,0
613.01659925595,-749.92365918912,34.8099909991,1354035.0638645,1688.237931788,2629299.4388029,40.0099909991,0,0
613.01659957054,-750.12544823816,34.814421442144,1354035.0638645,1688.237931788,2629299.4388029,40.014421442144,0,0
613.01659988513,-750.32723728721,34.818851885189,1354035.0638645,1688.237931788,2629299.4388029,40.018851885189,0,0
613.01660019971,-750.52902633625,34.823282328233,1354035.0638645,1688.237931788,2629299.4388029,40.023282328233,0,0
613.0166005143,-750.73081538529,34.827712771277,1354035.0638645,1688.237931788,2629299.4388029,40.027712771277,0,0
613.01660082889,-750.93260443434,34.832143214321,1354035.0638645,1688.237931788,2629299.4388029,40.032143214321,0,0
613.01660114348,-751.13439348338,34.836573657366,1354035.0638645,1688.237931788,2629299.4388029,40.036573657366,0,0
613.01660145806,-751.33618253243,34.84100410041,1354035.0638645,1688.237931788,2629299.4388029,40.04100410041,0,0
613.01660177265,-751.53797158147,34.845434543454,1354035.0638645,1688.237931788,2629299.4388029,40.045434543454,0,0
613.01660208724,-751.73976063051,34.849864986499,1354035.0638645,1688.237931788,2629299.4388029,40.049864986499,0,0
613.01660240183,-751.94154967956,34.854295429543,1354035.0638645,1688.237931788,2629299.4388029,40.054295429543,0,0
613.01660271642,-752.1433387286,34.858725872587,1354035.0638645,1688.237931788,2629299.4388029,40.058725872587,0,0
613.016603031,-752.34512777764,34.863156315632,1354035.0638645,1688.237931788,2629299.4388029,40.063156315632,0,0
613.01660334559,-752.54691682669,34.867586758676,1354035.0638645,1688.237931788,2629299.4388029,40.067586758676,0,0
613.01660366018,-752.74870587573,34.87201720172,1354035.0638645,1688.237931788,2629299.4388029,40.07201720172,0,0
613.01660397477,-752.95049492478,34.876447644764,1354035.0638645,1688.237931788,2629299.4388029,40.076447644764,0,0
613.01660428936,-753.15228397382,34.880878087809,1354035.0638645,1688.237931788,2629299.4388029,40.080878087809,0,0
613.01660460394,-753.35407302286,34.885308530853,1354035.0638645,1688.237931788,2629299.4388029,40.085308530853,0,0
613.01660491853,-753.55586207191,34.889738973897,1354035.0638645,1688.237931788,2629299.4388029,40.089738973897,0,0
613.01660523312,-753.75765112095,34.894169416942,1354035.0638645,1688.237931788,2629299.4388029,40.094169416942,0,0
613.01660554771,-753.95944017,34.898599859986,1354035.0638645,1688.237931788,2629299.4388029,40.098599859986,0,0
613.01660586229,-754.16122921904,34.90303030303,1354035.0638645,1688.237931788,2629299.4388029,40.10303030303,0,0
613.01660617688,-754.36301826808,34.907460746075,1354035.0638645,1688.237931788,2629299.4388029,40.107460746075,0,0
613.01660649147,-754.56480731713,34.911891189119,1354035.0638645,1688.237931788,2629299.4388029,40.111891189119,0,0
613.01660680606,-754.76659636617,34.916321632163,1354035.0638645,1688.237931788,2629299.4388029,40.116321632163,0,0
613.01660712065,-754.96838541521,34.920752075208,1354035.0638645,1688.237931788,2629299.4388029,40.120752075208,0,0
613.01660743523,-755.17017446426,34.925182518252,1354035.0638645,1688.237931788,2629299.4388029,40.125182518252,0,0
613.01660774982,-755.3719635133,34.929612961296,1354035.0638645,1688.237931788,2629299.4388029,40.129612961296,0,0
613.01660806441,-755.57375256235,34.93404340434,1354035.0638645,1688.237931788,2629299.4388029,40.13404340434,0,0
613.016608379,-755.77554161139,34.938473847385,1354035.0638645,1688.237931788,2629299.4388029,40.138473847385,0,0
613.01660869359,-755.97733066043,34.942904290429,1354035.0638645,1688.237931788,2629299.4388029,40.142904290429,0,0
613.01660900817,-756.17911970948,34.947334733473,1354035.0638645,1688.237931788,2629299.4388029,40.147334733473,0,0
613.01660932276,-756.38090875852,34.951765176518,1354035.0638645,1688.237931788,2629299.4388029,40.151765176518,0,0
613.01660963735,-756.58269780757,34.956195619562,1354035.0638645,1688.237931788,2629299.4388029,40.156195619562,0,0
613.01660995194,-756.78448685661,34.960626062606,1354035.0638645,1688.237931788,2629299.4388029,40.160626062606,0,0
613.01661026652,-756.98627590565,34.965056505651,1354035.0638645,1688.237931788,2629299.4388029,40.165056505651,0,0
613.01661058111,-757.1880649547,34.969486948695,1354035.0638645,1688.237931788,2629299.4388029,40.169486948695,0,0
613.0166108957,-757.38985400374,34.973917391739,1354035.0638645,1688.237931788,2629299.4388029,40.173917391739,0,0
613.01661121029,-757.59164305278,34.978347834783,1354035.0638645,1688.237931788,2629299.4388029,40.178347834783,0,0
613.01661152488,-757.79343210183,34.982778277828,1354035.0638645,1688.237931788,2629299.4388029,40.182778277828,0,0
613.01661183946,-757.99522115087,34.987208720872,1354035.0638645,1688.237931788,2629299.4388029,40.187208720872,0,0
613.01661215405,-758.19701019992,34.991639163916,1354035.0638645,1688.237931788,2629299.4388029,40.191639163916,0,0
613.01661246864,-758.39879924896,34.996069606961,1354035.0638645,1688.237931788,2629299.4388029,40.196069606961,0,0
613.01661278323,-758.600588298,35.000500050005,1354035.0638645,1688.237931788,2629299.4388029,40.200500050005,0,0
613.01661309781,-758.80237734705,35.004930493049,1354035.0638645,1688.237931788,2629299.4388029,40.204930493049,0,0
613.0166134124,-759.00416639609,35.009360936094,1354035.0638645,1688.237931788,2629299.4388029,40.209360936094,0,0
613.01661372699,-759.20595544514,35.013791379138,1354035.0638645,1688.237931788,2629299.4388029,40.213791379138,0,0
613.01661404158,-759.40774449418,35.018221822182,1354035.0638645,1688.237931788,2629299.4388029,40.218221822182,0,0
613.01661435617,-759.60953354322,35.022652265227,1354035.0638645,1688.237931788,2629299.4388029,40.222652265227,0,0
613.01661467075,-759.81132259227,35.027082708271,1354035.0638645,1688.237931788,2629299.4388029,40.227082708271,0,0
613.01661498534,-760.01311164131,35.031513151315,1354035.0638645,1688.237931788,2629299.4388029,40.231513151315,0,0
613.01661529993,-760.21490069035,35.035943594359,1354035.0638645,1688.237931788,2629299.4388029,40.235943594359,0,0
613.01661561452,-760.4166897394,35.040374037404,1354035.0638645,1688.237931788,2629299.4388029,40.240374037404,0,0
613.01661592911,-760.61847878844,35.044804480448,1354035.0638645,1688.237931788,2629299.4388029,40.244804480448,0,0
613.01661624369,-760.82026783749,35.049234923492,1354035.0638645,1688.237931788,2629299.4388029,40.249234923492,0,0
613.01661655828,-761.02205688653,35.053665366537,1354035.0638645,1688.237931788,2629299.4388029,40.253665366537,0,0
613.01661687287,-761.22384593557,35.058095809581,1354035.0638645,1688.237931788,2629299.4388029,40.258095809581,0,0
613.01661718746,-761.42563498462,35.062526252625,1354035.0638645,1688.237931788,2629299.4388029,40.262526252625,0,0
613.01661750204,-761.62742403366,35.06695669567,1354035.0638645,1688.237931788,2629299.4388029,40.26695669567,0,0
613.01661781663,-761.8292130827,35.071387138714,1354035.0638645,1688.237931788,2629299.4388029,40.271387138714,0,0
613.01661813122,-762.03100213175,35.075817581758,1354035.0638645,1688.237931788,2629299.4388029,40.275817581758,0,0
613.01661844581,-762.23279118079,35.080248024802,1354035.0638645,1688.237931788,2629299.4388029,40.280248024802,0,0
613.0166187604,-762.43458022984,35.084678467847,1354035.0638645,1688.237931788,2629299.4388029,40.284678467847,0,0
613.01661907498,-762.63636927888,35.089108910891,1354035.0638645,1688.237931788,2629299.4388029,40.289108910891,0,0
613.01661938957,-762.83815832792,35.093539353935,1354035.0638645,1688.237931788,2629299.4388029,40.293539353935,0,0
613.01661970416,-763.03994737697,35.09796979698,1354035.0638645,1688.237931788,2629299.4388029,40.29796979698,0,0
613.01662001875,-763.24173642601,35.102400240024,1354035.0638645,1688.237931788,2629299.4388029,40.302400240024,0,0
613.01662033333,-763.44352547506,35.106830683068,1354035.0638645,1688.237931788,2629299.4388029,40.306830683068,0,0
613.01662064792,-763.6453145241,35.111261126113,1354035.0638645,1688.237931788,2629299.4388029,40.311261126113,0,0
613.01662096251,-763.84710357314,35.115691569157,1354035.0638645,1688.237931788,2629299.4388029,40.315691569157,0,0
613.0166212771,-764.04889262219,35.120122012201,1354035.0638645,1688.237931788,2629299.4388029,40.320122012201,0,0
613.01662159169,-764.25068167123,35.124552455246,1354035.0638645,1688.237931788,2629299.4388029,40.324552455246,0,0
613.01662190627,-764.45247072027,35.12898289829,1354035.0638645,1688.237931788,2629299.4388029,40.32898289829,0,0
613.01662222086,-764.65425976932,35.133413341334,1354035.0638645,1688.237931788,2629299.4388029,40.333413341334,0,0
613.01662253545,-764.85604881836,35.137843784378,1354035.0638645,1688.237931788,2629299.4388029,40.337843784378,0,0
613.01662285004,-765.05783786741,35.142274227423,1354035.0638645,1688.237931788,2629299.4388029,40.342274227423,0,0
613.01662316463,-765.25962691645,35.146704670467,1354035.0638645,1688.237931788,2629299.4388029,40.346704670467,0,0
613.01662347921,-765.46141596549,35.151135113511,1354035.0638645,1688.237931788,2629299.4388029,40.351135113511,0,0
613.0166237938,-765.66320501454,35.155565556556,1354035.0638645,1688.237931788,2629299.4388029,40.355565556556,0,0
613.01662410839,-765.86499406358,35.1599959996,1354035.0638645,1688.237931788,2629299.4388029,40.3599959996,0,0
613.01662442298,-766.06678311263,35.164426442644,1354035.0638645,1688.237931788,2629299.4388029,40.364426442644,0,0
613.01662473756,-766.26857216167,35.168856885689,1354035.0638645,1688.237931788,2629299.4388029,40.368856885689,0,0
613.01662505215,-766.47036121071,35.173287328733,1354035.0638645,1688.237931788,2629299.4388029,40.373287328733,0,0
613.01662536674,-766.67215025976,35.177717771777,1354035.0638645,1688.237931788,2629299.4388029,40.377717771777,0,0
613.01662568133,-766.8739393088,35.182148214821,1354035.0638645,1688.237931788,2629299.4388029,40.382148214821,0,0
613.01662599592,-767.07572835784,35.186578657866,1354035.0638645,1688.237931788,2629299.4388029,40.386578657866,0,0
613.0166263105,-767.27751740689,35.19100910091,1354035.0638645,1688.237931788,2629299.4388029,40.39100910091,0,0
613.01662662509,-767.47930645593,35.195439543954,1354035.0638645,1688.237931788,2629299.4388029,40.395439543954,0,0
613.01662693968,-767.68109550498,35.199869986999,1354035.0638645,1688.237931788,2629299.4388029,40.399869986999,0,0
613.01662725427,-767.88288455402,35.204300430043,1354035.0638645,1688.237931788,2629299.4388029,40.404300430043,0,0
613.01662756886,-768.08467360306,35.208730873087,1354035.0638645,1688.237931788,2629299.4388029,40.408730873087,0,0
613.01662788344,-768.28646265211,35.213161316132,1354035.0638645,1688.237931788,2629299.4388029,40.413161316132,0,0
613.01662819803,-768.48825170115,35.217591759176,1354035.0638645,1688.237931788,2629299.4388029,40.417591759176,0,0
613.01662851262,-768.6900407502,35.22202220222,1354035.0638645,1688.237931788,2629299.4388029,40.42202220222,0,0
613.01662882721,-768.89182979924,35.226452645265,1354035.0638645,1688.237931788,2629299.4388029,40.426452645265,0,0
613.01662914179,-769.09361884828,35.230883088309,1354035.0638645,1688.237931788,2629299.4388029,40.430883088309,0,0
613.01662945638,-769.29540789733,35.235313531353,1354035.0638645,1688.237931788,2629299.4388029,40.435313531353,0,0
613.01662977097,-769.49719694637,35.239743974397,1354035.0638645,1688.237931788,2629299.4388029,40.439743974397,0,0
613.01663008556,-769.69898599541,35.244174417442,1354035.0638645,1688.237931788,2629299.4388029,40.444174417442,0,0
613.01663040015,-769.90077504446,35.248604860486,1354035.0638645,1688.237931788,2629299.4388029,40.448604860486,0,0
613.01663071473,-770.1025640935,35.25303530353,1354035.0638645,1688.237931788,2629299.4388029,40.45303530353,0,0
613.01663102932,-770.30435314255,35.257465746575,1354035.0638645,1688.237931788,2629299.4388029,40.457465746575,0,0
613.01663134391,-770.50614219159,35.261896189619,1354035.0638645,1688.237931788,2629299.4388029,40.461896189619,0,0
613.0166316585,-770.70793124063,35.266326632663,1354035.0638645,1688.237931788,2629299.4388029,40.466326632663,0,0
613.01663197308,-770.90972028968,35.270757075708,1354035.0638645,1688.237931788,2629299.4388029,40.470757075708,0,0
613.01663228767,-771.11150933872,35.275187518752,1354035.0638645,1688.237931788,2629299.4388029,40.475187518752,0,0
613.01663260226,-771.31329838777,35.279617961796,1354035.0638645,1688.237931788,2629299.4388029,40.479617961796,0,0
613.01663291685,-771.51508743681,35.28404840484,1354035.0638645,1688.237931788,2629299.4388029,40.48404840484,0,0
613.01663323144,-771.71687648585,35.288478847885,1354035.0638645,1688.237931788,2629299.4388029,40.488478847885,0,0
613.01663354602,-771.9186655349,35.292909290929,1354035.0638645,1688.237931788,2629299.4388029,40.492909290929,0,0
613.01663386061,-772.12045458394,35.297339733973,1354035.0638645,1688.237931788,2629299.4388029,40.497339733973,0,0
613.0166341752,-772.32224363298,35.301770177018,1354035.0638645,1688.237931788,2629299.4388029,40.501770177018,0,0
613.01663448979,-772.52403268203,35.306200620062,1354035.0638645,1688.237931788,2629299.4388029,40.506200620062,0,0
613.01663480438,-772.72582173107,35.310631063106,1354035.0638645,1688.237931788,2629299.4388029,40.510631063106,0,0
613.01663511896,-772.92761078012,35.315061506151,1354035.0638645,1688.237931788,2629299.4388029,40.515061506151,0,0
613.01663543355,-773.12939982916,35.319491949195,1354035.0638645,1688.237931788,2629299.4388029,40.519491949195,0,0
613.01663574814,-773.3311888782,35.323922392239,1354035.0638645,1688.237931788,2629299.4388029,40.523922392239,0,0
613.01663606273,-773.53297792725,35.328352835284,1354035.0638645,1688.237931788,2629299.4388029,40.528352835284,0,0
613.01663637731,-773.73476697629,35.332783278328,1354035.0638645,1688.237931788,2629299.4388029,40.532783278328,0,0
613.0166366919,-773.93655602533,35.337213721372,1354035.0638645,1688.237931788,2629299.4388029,40.537213721372,0,0
613.01663700649,-774.13834507438,35.341644164416,1354035.0638645,1688.237931788,2629299.4388029,40.541644164416,0,0
613.01663732108,-774.34013412342,35.346074607461,1354035.0638645,1688.237931788,2629299.4388029,40.546074607461,0,0
613.01663763567,-774.54192317247,35.350505050505,1354035.0638645,1688.237931788,2629299.4388029,40.550505050505,0,0
613.01663795025,-774.74371222151,35.354935493549,1354035.0638645,1688.237931788,2629299.4388029,40.554935493549,0,0
613.01663826484,-774.94550127055,35.359365936594,1354035.0638645,1688.237931788,2629299.4388029,40.559365936594,0,0
613.01663857943,-775.1472903196,35.363796379638,1354035.0638645,1688.237931788,2629299.4388029,40.563796379638,0,0
613.01663889402,-775.34907936864,35.368226822682,1354035.0638645,1688.237931788,2629299.4388029,40.568226822682,0,0
613.0166392086,-775.55086841769,35.372657265727,1354035.0638645,1688.237931788,2629299.4388029,40.572657265727,0,0
613.01663952319,-775.75265746673,35.377087708771,1354035.0638645,1688.237931788,2629299.4388029,40.577087708771,0,0
613.01663983778,-775.95444651577,35.381518151815,1354035.0638645,1688.237931788,2629299.4388029,40.581518151815,0,0
613.01664015237,-776.15623556482,35.385948594859,1354035.0638645,1688.237931788,2629299.4388029,40.585948594859,0,0
613.01664046696,-776.35802461386,35.390379037904,1354035.0638645,1688.237931788,2629299.4388029,40.590379037904,0,0
613.01664078154,-776.5598136629,35.394809480948,1354035.0638645,1688.237931788,2629299.4388029,40.594809480948,0,0
613.01664109613,-776.76160271195,35.399239923992,1354035.0638645,1688.237931788,2629299.4388029,40.599239923992,0,0
613.01664141072,-776.96339176099,35.403670367037,1354035.0638645,1688.237931788,2629299.4388029,40.603670367037,0,0
613.01664172531,-777.16518081004,35.408100810081,1354035.0638645,1688.237931788,2629299.4388029,40.608100810081,0,0
613.0166420399,-777.36696985908,35.412531253125,1354035.0638645,1688.237931788,2629299.4388029,40.612531253125,0,0
613.01664235448,-777.56875890812,35.41696169617,1354035.0638645,1688.237931788,2629299.4388029,40.61696169617,0,0
613.01664266907,-777.77054795717,35.421392139214,1354035.0638645,1688.237931788,2629299.4388029,40.621392139214,0,0
613.01664298366,-777.97233700621,35.425822582258,1354035.0638645,1688.237931788,2629299.4388029,40.625822582258,0,0
613.01664329825,-778.17412605526,35.430253025303,1354035.0638645,1688.237931788,2629299.4388029,40.630253025303,0,0
613.01664361283,-778.3759151043,35.434683468347,1354035.0638645,1688.237931788,2629299.4388029,40.634683468347,0,0
613.01664392742,-778.57770415334,35.439113911391,1354035.0638645,1688.237931788,2629299.4388029,40.639113911391,0,0
613.01664424201,-778.77949320239,35.443544354435,1354035.0638645,1688.237931788,2629299.4388029,40.643544354435,0,0
613.0166445566,-778.98128225143,35.44797479748,1354035.0638645,1688.237931788,2629299.4388029,40.64797479748,0,0
613.01664487119,-779.18307130047,35.452405240524,1354035.0638645,1688.237931788,2629299.4388029,40.652405240524,0,0
613.01664518577,-779.38486034952,35.456835683568,1354035.0638645,1688.237931788,2629299.4388029,40.656835683568,0,0
613.01664550036,-779.58664939856,35.461266126613,1354035.0638645,1688.237931788,2629299.4388029,40.661266126613,0,0
613.01664581495,-779.78843844761,35.465696569657,1354035.0638645,1688.237931788,2629299.4388029,40.665696569657,0,0
613.01664612954,-779.99022749665,35.470127012701,1354035.0638645,1688.237931788,2629299.4388029,40.670127012701,0,0
613.01664644412,-780.19201654569,35.474557455746,1354035.0638645,1688.237931788,2629299.4388029,40.674557455746,0,0
613.01664675871,-780.39380559474,35.47898789879,1354035.0638645,1688.237931788,2629299.4388029,40.67898789879,0,0
613.0166470733,-780.59559464378,35.483418341834,1354035.0638645,1688.237931788,2629299.4388029,40.683418341834,0,0
613.01664738789,-780.79738369283,35.487848784878,1354035.0638645,1688.237931788,2629299.4388029,40.687848784878,0,0
613.01664770248,-780.99917274187,35.492279227923,1354035.0638645,1688.237931788,2629299.4388029,40.692279227923,0,0
613.01664801706,-781.20096179091,35.496709670967,1354035.0638645,1688.237931788,2629299.4388029,40.696709670967,0,0
613.01664833165,-781.40275083996,35.501140114011,1354035.0638645,1688.237931788,2629299.4388029,40.701140114011,0,0
613.01664864624,-781.604539889,35.505570557056,1354035.0638645,1688.237931788,2629299.4388029,40.705570557056,0,0
613.01664896083,-781.80632893804,35.5100010001,1354035.0638645,1688.237931788,2629299.4388029,40.7100010001,0,0
613.01664927542,-782.00811798709,35.514431443144,1354035.0638645,1688.237931788,2629299.4388029,40.714431443144,0,0
613.01664959,-782.20990703613,35.518861886189,1354035.0638645,1688.237931788,2629299.4388029,40.718861886189,0,0
613.01664990459,-782.41169608518,35.523292329233,1354035.0638645,1688.237931788,2629299.4388029,40.723292329233,0,0
613.01665021918,-782.61348513422,35.527722772277,1354035.0638645,1688.237931788,2629299.4388029,40.727722772277,0,0
613.01665053377,-782.81527418326,35.532153215322,1354035.0638645,1688.237931788,2629299.4388029,40.732153215322,0,0
613.01665084835,-783.01706323231,35.536583658366,1354035.0638645,1688.237931788,2629299.4388029,40.736583658366,0,0
613.01665116294,-783.21885228135,35.54101410141,1354035.0638645,1688.237931788,2629299.4388029,40.74101410141,0,0
613.01665147753,-783.42064133039,35.545444544454,1354035.0638645,1688.237931788,2629299.4388029,40.745444544454,0,0
613.01665179212,-783.62243037944,35.549874987499,1354035.0638645,1688.237931788,2629299.4388029,40.749874987499,0,0
613.01665210671,-783.82421942848,35.554305430543,1354035.0638645,1688.237931788,2629299.4388029,40.754305430543,0,0
613.01665242129,-784.02600847753,35.558735873587,1354035.0638645,1688.237931788,2629299.4388029,40.758735873587,0,0
613.01665273588,-784.22779752657,35.563166316632,1354035.0638645,1688.237931788,2629299.4388029,40.763166316632,0,0
613.01665305047,-784.42958657561,35.567596759676,1354035.0638645,1688.237931788,2629299.4388029,40.767596759676,0,0
613.01665336506,-784.63137562466,35.57202720272,1354035.0638645,1688.237931788,2629299.4388029,40.77202720272,0,0
613.01665367965,-784.8331646737,35.576457645765,1354035.0638645,1688.237931788,2629299.4388029,40.776457645765,0,0
613.01665399423,-785.03495372275,35.580888088809,1354035.0638645,1688.237931788,2629299.4388029,40.780888088809,0,0
613.01665430882,-785.23674277179,35.585318531853,1354035.0638645,1688.237931788,2629299.4388029,40.785318531853,0,0
613.01665462341,-785.43853182083,35.589748974897,1354035.0638645,1688.237931788,2629299.4388029,40.789748974897,0,0
613.016654938,-785.64032086988,35.594179417942,1354035.0638645,1688.237931788,2629299.4388029,40.794179417942,0,0
613.01665525258,-785.84210991892,35.598609860986,1354035.0638645,1688.237931788,2629299.4388029,40.798609860986,0,0
613.01665556717,-786.04389896796,35.60304030403,1354035.0638645,1688.237931788,2629299.4388029,40.80304030403,0,0
613.01665588176,-786.24568801701,35.607470747075,1354035.0638645,1688.237931788,2629299.4388029,40.807470747075,0,0
613.01665619635,-786.44747706605,35.611901190119,1354035.0638645,1688.237931788,2629299.4388029,40.811901190119,0,0
613.01665651094,-786.6492661151,35.616331633163,1354035.0638645,1688.237931788,2629299.4388029,40.816331633163,0,0
613.01665682552,-786.85105516414,35.620762076208,1354035.0638645,1688.237931788,2629299.4388029,40.820762076208,0,0
613.01665714011,-787.05284421318,35.625192519252,1354035.0638645,1688.237931788,2629299.4388029,40.825192519252,0,0
613.0166574547,-787.25463326223,35.629622962296,1354035.0638645,1688.237931788,2629299.4388029,40.829622962296,0,0
613.01665776929,-787.45642231127,35.634053405341,1354035.0638645,1688.237931788,2629299.4388029,40.834053405341,0,0
613.01665808387,-787.65821136032,35.638483848385,1354035.0638645,1688.237931788,2629299.4388029,40.838483848385,0,0
613.01665839846,-787.86000040936,35.642914291429,1354035.0638645,1688.237931788,2629299.4388029,40.842914291429,0,0
613.01665871305,-788.0617894584,35.647344734473,1354035.0638645,1688.237931788,2629299.4388029,40.847344734473,0,0
613.01665902764,-788.26357850745,35.651775177518,1354035.0638645,1688.237931788,2629299.4388029,40.851775177518,0,0
613.01665934223,-788.46536755649,35.656205620562,1354035.0638645,1688.237931788,2629299.4388029,40.856205620562,0,0
613.01665965681,-788.66715660553,35.660636063606,1354035.0638645,1688.237931788,2629299.4388029,40.860636063606,0,0
613.0166599714,-788.86894565458,35.665066506651,1354035.0638645,1688.237931788,2629299.4388029,40.865066506651,0,0
613.01666028599,-789.07073470362,35.669496949695,1354035.0638645,1688.237931788,2629299.4388029,40.869496949695,0,0
613.01666060058,-789.27252375267,35.673927392739,1354035.0638645,1688.237931788,2629299.4388029,40.873927392739,0,0
613.01666091517,-789.47431280171,35.678357835784,1354035.0638645,1688.237931788,2629299.4388029,40.878357835784,0,0
613.01666122975,-789.67610185075,35.682788278828,1354035.0638645,1688.237931788,2629299.4388029,40.882788278828,0,0
613.01666154434,-789.8778908998,35.687218721872,1354035.0638645,1688.237931788,2629299.4388029,40.887218721872,0,0
613.01666185893,-790.07967994884,35.691649164916,1354035.0638645,1688.237931788,2629299.4388029,40.891649164916,0,0
613.01666217352,-790.28146899788,35.696079607961,1354035.0638645,1688.237931788,2629299.4388029,40.896079607961,0,0
613.0166624881,-790.48325804693,35.700510051005,1354035.0638645,1688.237931788,2629299.4388029,40.900510051005,0,0
613.01666280269,-790.68504709597,35.704940494049,1354035.0638645,1688.237931788,2629299.4388029,40.904940494049,0,0
613.01666311728,-790.88683614502,35.709370937094,1354035.0638645,1688.237931788,2629299.4388029,40.909370937094,0,0
613.01666343187,-791.08862519406,35.713801380138,1354035.0638645,1688.237931788,2629299.4388029,40.913801380138,0,0
613.01666374646,-791.2904142431,35.718231823182,1354035.0638645,1688.237931788,2629299.4388029,40.918231823182,0,0
613.01666406104,-791.49220329215,35.722662266227,1354035.0638645,1688.237931788,2629299.4388029,40.922662266227,0,0
613.01666437563,-791.69399234119,35.727092709271,1354035.0638645,1688.237931788,2629299.4388029,40.927092709271,0,0
613.01666469022,-791.89578139024,35.731523152315,1354035.0638645,1688.237931788,2629299.4388029,40.931523152315,0,0
613.01666500481,-792.09757043928,35.73595359536,1354035.0638645,1688.237931788,2629299.4388029,40.93595359536,0,0
613.01666531939,-792.29935948832,35.740384038404,1354035.0638645,1688.237931788,2629299.4388029,40.940384038404,0,0
613.01666563398,-792.50114853737,35.744814481448,1354035.0638645,1688.237931788,2629299.4388029,40.944814481448,0,0
613.01666594857,-792.70293758641,35.749244924492,1354035.0638645,1688.237931788,2629299.4388029,40.949244924492,0,0
613.01666626316,-792.90472663545,35.753675367537,1354035.0638645,1688.237931788,2629299.4388029,40.953675367537,0,0
613.01666657775,-793.1065156845,35.758105810581,1354035.0638645,1688.237931788,2629299.4388029,40.958105810581,0,0
613.01666689233,-793.30830473354,35.762536253625,1354035.0638645,1688.237931788,2629299.4388029,40.962536253625,0,0
613.01666720692,-793.51009378259,35.76696669667,1354035.0638645,1688.237931788,2629299.4388029,40.96696669667,0,0
613.01666752151,-793.71188283163,35.771397139714,1354035.0638645,1688.237931788,2629299.4388029,40.971397139714,0,0
613.0166678361,-793.91367188067,35.775827582758,1354035.0638645,1688.237931788,2629299.4388029,40.975827582758,0,0
613.01666815069,-794.11546092972,35.780258025803,1354035.0638645,1688.237931788,2629299.4388029,40.980258025803,0,0
613.01666846527,-794.31724997876,35.784688468847,1354035.0638645,1688.237931788,2629299.4388029,40.984688468847,0,0
613.01666877986,-794.51903902781,35.789118911891,1354035.0638645,1688.237931788,2629299.4388029,40.989118911891,0,0
613.01666909445,-794.72082807685,35.793549354935,1354035.0638645,1688.237931788,2629299.4388029,40.993549354935,0,0
613.01666940904,-794.92261712589,35.79797979798,1354035.0638645,1688.237931788,2629299.4388029,40.99797979798,0,0
613.01666972362,-795.12440617494,35.802410241024,1354035.0638645,1688.237931788,2629299.4388029,41.002410241024,0,0
613.01667003821,-795.32619522398,35.806840684068,1354035.0638645,1688.237931788,2629299.4388029,41.006840684068,0,0
613.0166703528,-795.52798427302,35.811271127113,1354035.0638645,1688.237931788,2629299.4388029,41.011271127113,0,0
613.01667066739,-795.72977332207,35.815701570157,1354035.0638645,1688.237931788,2629299.4388029,41.015701570157,0,0
613.01667098198,-795.93156237111,35.820132013201,1354035.0638645,1688.237931788,2629299.4388029,41.020132013201,0,0
613.01667129656,-796.13335142016,35.824562456246,1354035.0638645,1688.237931788,2629299.4388029,41.024562456246,0,0
613.01667161115,-796.3351404692,35.82899289929,1354035.0638645,1688.237931788,2629299.4388029,41.02899289929,0,0
613.01667192574,-796.53692951824,35.833423342334,1354035.0638645,1688.237931788,2629299.4388029,41.033423342334,0,0
613.01667224033,-796.73871856729,35.837853785379,1354035.0638645,1688.237931788,2629299.4388029,41.037853785379,0,0
613.01667255491,-796.94050761633,35.842284228423,1354035.0638645,1688.237931788,2629299.4388029,41.042284228423,0,0
613.0166728695,-797.14229666538,35.846714671467,1354035.0638645,1688.237931788,2629299.4388029,41.046714671467,0,0
613.01667318409,-797.34408571442,35.851145114511,1354035.0638645,1688.237931788,2629299.4388029,41.051145114511,0,0
613.01667349868,-797.54587476346,35.855575557556,1354035.0638645,1688.237931788,2629299.4388029,41.055575557556,0,0
613.01667381327,-797.74766381251,35.8600060006,1354035.0638645,1688.237931788,2629299.4388029,41.0600060006,0,0
613.01667412785,-797.94945286155,35.864436443644,1354035.0638645,1688.237931788,2629299.4388029,41.064436443644,0,0
613.01667444244,-798.15124191059,35.868866886689,1354035.0638645,1688.237931788,2629299.4388029,41.068866886689,0,0
613.01667475703,-798.35303095964,35.873297329733,1354035.0638645,1688.237931788,2629299.4388029,41.073297329733,0,0
613.01667507162,-798.55482000868,35.877727772777,1354035.0638645,1688.237931788,2629299.4388029,41.077727772777,0,0
613.01667538621,-798.75660905773,35.882158215822,1354035.0638645,1688.237931788,2629299.4388029,41.082158215822,0,0
613.01667570079,-798.95839810677,35.886588658866,1354035.0638645,1688.237931788,2629299.4388029,41.086588658866,0,0
613.01667601538,-799.16018715581,35.89101910191,1354035.0638645,1688.237931788,2629299.4388029,41.09101910191,0,0
613.01667632997,-799.36197620486,35.895449544954,1354035.0638645,1688.237931788,2629299.4388029,41.095449544954,0,0
613.01667664456,-799.5637652539,35.899879987999,1354035.0638645,1688.237931788,2629299.4388029,41.099879987999,0,0
613.01667695914,-799.76555430295,35.904310431043,1354035.0638645,1688.237931788,2629299.4388029,41.104310431043,0,0
613.01667727373,-799.96734335199,35.908740874087,1354035.0638645,1688.237931788,2629299.4388029,41.108740874087,0,0
613.01667758832,-800.16913240103,35.913171317132,1354035.0638645,1688.237931788,2629299.4388029,41.113171317132,0,0
613.01667790291,-800.37092145008,35.917601760176,1354035.0638645,1688.237931788,2629299.4388029,41.117601760176,0,0
613.0166782175,-800.57271049912,35.92203220322,1354035.0638645,1688.237931788,2629299.4388029,41.12203220322,0,0
613.01667853208,-800.77449954816,35.926462646265,1354035.0638645,1688.237931788,2629299.4388029,41.126462646265,0,0
613.01667884667,-800.97628859721,35.930893089309,1354035.0638645,1688.237931788,2629299.4388029,41.130893089309,0,0
613.01667916126,-801.17807764625,35.935323532353,1354035.0638645,1688.237931788,2629299.4388029,41.135323532353,0,0
613.01667947585,-801.3798666953,35.939753975398,1354035.0638645,1688.237931788,2629299.4388029,41.139753975398,0,0
613.01667979044,-801.58165574434,35.944184418442,1354035.0638645,1688.237931788,2629299.4388029,41.144184418442,0,0
613.01668010502,-801.78344479338,35.948614861486,1354035.0638645,1688.237931788,2629299.4388029,41.148614861486,0,0
613.01668041961,-801.98523384243,35.95304530453,1354035.0638645,1688.237931788,2629299.4388029,41.15304530453,0,0
613.0166807342,-802.18702289147,35.957475747575,1354035.0638645,1688.237931788,2629299.4388029,41.157475747575,0,0
613.01668104879,-802.38881194051,35.961906190619,1354035.0638645,1688.237931788,2629299.4388029,41.161906190619,0,0
613.01668136337,-802.59060098956,35.966336633663,1354035.0638645,1688.237931788,2629299.4388029,41.166336633663,0,0
613.01668167796,-802.7923900386,35.970767076708,1354035.0638645,1688.237931788,2629299.4388029,41.170767076708,0,0
613.01668199255,-802.99417908765,35.975197519752,1354035.0638645,1688.237931788,2629299.4388029,41.175197519752,0,0
613.01668230714,-803.19596813669,35.979627962796,1354035.0638645,1688.237931788,2629299.4388029,41.179627962796,0,0
613.01668262173,-803.39775718573,35.984058405841,1354035.0638645,1688.237931788,2629299.4388029,41.184058405841,0,0
613.01668293631,-803.59954623478,35.988488848885,1354035.0638645,1688.237931788,2629299.4388029,41.188488848885,0,0
613.0166832509,-803.80133528382,35.992919291929,1354035.0638645,1688.237931788,2629299.4388029,41.192919291929,0,0
613.01668356549,-804.00312433287,35.997349734973,1354035.0638645,1688.237931788,2629299.4388029,41.197349734973,0,0
613.01668388008,-804.20491338191,36.001780178018,1354035.0638645,1688.237931788,2629299.4388029,41.201780178018,0,0
613.01668419466,-804.40670243095,36.006210621062,1354035.0638645,1688.237931788,2629299.4388029,41.206210621062,0,0
613.01668450925,-804.60849148,36.010641064106,1354035.0638645,1688.237931788,2629299.4388029,41.210641064106,0,0
613.01668482384,-804.81028052904,36.015071507151,1354035.0638645,1688.237931788,2629299.4388029,41.215071507151,0,0
613.01668513843,-805.01206957808,36.019501950195,1354035.0638645,1688.237931788,2629299.4388029,41.219501950195,0,0
613.01668545302,-805.21385862713,36.023932393239,1354035.0638645,1688.237931788,2629299.4388029,41.223932393239,0,0
613.0166857676,-805.41564767617,36.028362836284,1354035.0638645,1688.237931788,2629299.4388029,41.228362836284,0,0
613.01668608219,-805.61743672522,36.032793279328,1354035.0638645,1688.237931788,2629299.4388029,41.232793279328,0,0
613.01668639678,-805.81922577426,36.037223722372,1354035.0638645,1688.237931788,2629299.4388029,41.237223722372,0,0
613.01668671137,-806.0210148233,36.041654165417,1354035.0638645,1688.237931788,2629299.4388029,41.241654165417,0,0
613.01668702596,-806.22280387235,36.046084608461,1354035.0638645,1688.237931788,2629299.4388029,41.246084608461,0,0
613.01668734054,-806.42459292139,36.050515051505,1354035.0638645,1688.237931788,2629299.4388029,41.250515051505,0,0
613.01668765513,-806.62638197044,36.054945494549,1354035.0638645,1688.237931788,2629299.4388029,41.254945494549,0,0
613.01668796972,-806.82817101948,36.059375937594,1354035.0638645,1688.237931788,2629299.4388029,41.259375937594,0,0
613.01668828431,-807.02996006852,36.063806380638,1354035.0638645,1688.237931788,2629299.4388029,41.263806380638,0,0
613.01668859889,-807.23174911757,36.068236823682,1354035.0638645,1688.237931788,2629299.4388029,41.268236823682,0,0
613.01668891348,-807.43353816661,36.072667266727,1354035.0638645,1688.237931788,2629299.4388029,41.272667266727,0,0
613.01668922807,-807.63532721565,36.077097709771,1354035.0638645,1688.237931788,2629299.4388029,41.277097709771,0,0
613.01668954266,-807.8371162647,36.081528152815,1354035.0638645,1688.237931788,2629299.4388029,41.281528152815,0,0
613.01668985725,-808.03890531374,36.08595859586,1354035.0638645,1688.237931788,2629299.4388029,41.28595859586,0,0
613.01669017183,-808.24069436279,36.090389038904,1354035.0638645,1688.237931788,2629299.4388029,41.290389038904,0,0
613.01669048642,-808.44248341183,36.094819481948,1354035.0638645,1688.237931788,2629299.4388029,41.294819481948,0,0
613.01669080101,-808.64427246087,36.099249924992,1354035.0638645,1688.237931788,2629299.4388029,41.299249924992,0,0
613.0166911156,-808.84606150992,36.103680368037,1354035.0638645,1688.237931788,2629299.4388029,41.303680368037,0,0
613.01669143018,-809.04785055896,36.108110811081,1354035.0638645,1688.237931788,2629299.4388029,41.308110811081,0,0
613.01669174477,-809.24963960801,36.112541254125,1354035.0638645,1688.237931788,2629299.4388029,41.312541254125,0,0
613.01669205936,-809.45142865705,36.11697169717,1354035.0638645,1688.237931788,2629299.4388029,41.31697169717,0,0
613.01669237395,-809.65321770609,36.121402140214,1354035.0638645,1688.237931788,2629299.4388029,41.321402140214,0,0
613.01669268854,-809.85500675514,36.125832583258,1354035.0638645,1688.237931788,2629299.4388029,41.325832583258,0,0
613.01669300312,-810.05679580418,36.130263026303,1354035.0638645,1688.237931788,2629299.4388029,41.330263026303,0,0
613.01669331771,-810.25858485322,36.134693469347,1354035.0638645,1688.237931788,2629299.4388029,41.334693469347,0,0
613.0166936323,-810.46037390227,36.139123912391,1354035.0638645,1688.237931788,2629299.4388029,41.339123912391,0,0
613.01669394689,-810.66216295131,36.143554355436,1354035.0638645,1688.237931788,2629299.4388029,41.343554355436,0,0
613.01669426148,-810.86395200036,36.14798479848,1354035.0638645,1688.237931788,2629299.4388029,41.34798479848,0,0
613.01669457609,-811.06574104958,36.152415241524,1354014.5040035,-768.3368751147,2624537.7930664,41.352415241524,0,0
613.01669489089,-811.26753009989,36.156845684568,1354014.5040035,-768.3368751147,2624537.7930664,41.356845684568,0,0
613.01669520569,-811.4693191502,36.161276127613,1354014.5040035,-768.3368751147,2624537.7930664,41.361276127613,0,0
613.01669552049,-811.67110820051,36.165706570657,1354014.5040035,-768.3368751147,2624537.7930664,41.365706570657,0,0
613.01669583529,-811.87289725081,36.170137013701,1354014.5040035,-768.3368751147,2624537.7930664,41.370137013701,0,0
613.01669615009,-812.07468630112,36.174567456746,1354014.5040035,-768.3368751147,2624537.7930664,41.374567456746,0,0
613.01669646489,-812.27647535143,36.17899789979,1354014.5040035,-768.3368751147,2624537.7930664,41.37899789979,0,0
613.01669677969,-812.47826440174,36.183428342834,1354014.5040035,-768.3368751147,2624537.7930664,41.383428342834,0,0
613.01669709448,-812.68005345205,36.187858785879,1354014.5040035,-768.3368751147,2624537.7930664,41.387858785879,0,0
613.01669740928,-812.88184250235,36.192289228923,1354014.5040035,-768.3368751147,2624537.7930664,41.392289228923,0,0
613.01669772408,-813.08363155266,36.196719671967,1354014.5040035,-768.3368751147,2624537.7930664,41.396719671967,0,0
613.01669803888,-813.28542060297,36.201150115011,1354014.5040035,-768.3368751147,2624537.7930664,41.401150115011,0,0
613.01669835368,-813.48720965328,36.205580558056,1354014.5040035,-768.3368751147,2624537.7930664,41.405580558056,0,0
613.01669866848,-813.68899870359,36.2100110011,1354014.5040035,-768.3368751147,2624537.7930664,41.4100110011,0,0
613.01669898328,-813.8907877539,36.214441444144,1354014.5040035,-768.3368751147,2624537.7930664,41.414441444144,0,0
613.01669929808,-814.0925768042,36.218871887189,1354014.5040035,-768.3368751147,2624537.7930664,41.418871887189,0,0
613.01669961288,-814.29436585451,36.223302330233,1354014.5040035,-768.3368751147,2624537.7930664,41.423302330233,0,0
613.01669992767,-814.49615490482,36.227732773277,1354014.5040035,-768.3368751147,2624537.7930664,41.427732773277,0,0
613.01670024247,-814.69794395513,36.232163216322,1354014.5040035,-768.3368751147,2624537.7930664,41.432163216322,0,0
613.01670055727,-814.89973300544,36.236593659366,1354014.5040035,-768.3368751147,2624537.7930664,41.436593659366,0,0
613.01670087207,-815.10152205574,36.24102410241,1354014.5040035,-768.3368751147,2624537.7930664,41.44102410241,0,0
613.01670118687,-815.30331110605,36.245454545455,1354014.5040035,-768.3368751147,2624537.7930664,41.445454545455,0,0
613.01670150167,-815.50510015636,36.249884988499,1354014.5040035,-768.3368751147,2624537.7930664,41.449884988499,0,0
613.01670181647,-815.70688920667,36.254315431543,1354014.5040035,-768.3368751147,2624537.7930664,41.454315431543,0,0
613.01670213127,-815.90867825698,36.258745874587,1354014.5040035,-768.3368751147,2624537.7930664,41.458745874587,0,0
613.01670244606,-816.11046730728,36.263176317632,1354014.5040035,-768.3368751147,2624537.7930664,41.463176317632,0,0
613.01670276086,-816.31225635759,36.267606760676,1354014.5040035,-768.3368751147,2624537.7930664,41.467606760676,0,0
613.01670307566,-816.5140454079,36.27203720372,1354014.5040035,-768.3368751147,2624537.7930664,41.47203720372,0,0
613.01670339046,-816.71583445821,36.276467646765,1354014.5040035,-768.3368751147,2624537.7930664,41.476467646765,0,0
613.01670370526,-816.91762350852,36.280898089809,1354014.5040035,-768.3368751147,2624537.7930664,41.480898089809,0,0
613.01670402006,-817.11941255882,36.285328532853,1354014.5040035,-768.3368751147,2624537.7930664,41.485328532853,0,0
613.01670433486,-817.32120160913,36.289758975898,1354014.5040035,-768.3368751147,2624537.7930664,41.489758975898,0,0
613.01670464966,-817.52299065944,36.294189418942,1354014.5040035,-768.3368751147,2624537.7930664,41.494189418942,0,0
613.01670496446,-817.72477970975,36.298619861986,1354014.5040035,-768.3368751147,2624537.7930664,41.498619861986,0,0
613.01670527925,-817.92656876006,36.30305030503,1354014.5040035,-768.3368751147,2624537.7930664,41.50305030503,0,0
613.01670559405,-818.12835781036,36.307480748075,1354014.5040035,-768.3368751147,2624537.7930664,41.507480748075,0,0
613.01670590885,-818.33014686067,36.311911191119,1354014.5040035,-768.3368751147,2624537.7930664,41.511911191119,0,0
613.01670622365,-818.53193591098,36.316341634163,1354014.5040035,-768.3368751147,2624537.7930664,41.516341634163,0,0
613.01670653845,-818.73372496129,36.320772077208,1354014.5040035,-768.3368751147,2624537.7930664,41.520772077208,0,0
613.01670685325,-818.9355140116,36.325202520252,1354014.5040035,-768.3368751147,2624537.7930664,41.525202520252,0,0
613.01670716805,-819.13730306191,36.329632963296,1354014.5040035,-768.3368751147,2624537.7930664,41.529632963296,0,0
613.01670748285,-819.33909211221,36.334063406341,1354014.5040035,-768.3368751147,2624537.7930664,41.534063406341,0,0
613.01670779765,-819.54088116252,36.338493849385,1354014.5040035,-768.3368751147,2624537.7930664,41.538493849385,0,0
613.01670811244,-819.74267021283,36.342924292429,1354014.5040035,-768.3368751147,2624537.7930664,41.542924292429,0,0
613.01670842724,-819.94445926314,36.347354735474,1354014.5040035,-768.3368751147,2624537.7930664,41.547354735474,0,0
613.01670874204,-820.14624831345,36.351785178518,1354014.5040035,-768.3368751147,2624537.7930664,41.551785178518,0,0
613.01670905684,-820.34803736375,36.356215621562,1354014.5040035,-768.3368751147,2624537.7930664,41.556215621562,0,0
613.01670937164,-820.54982641406,36.360646064606,1354014.5040035,-768.3368751147,2624537.7930664,41.560646064606,0,0
613.01670968644,-820.75161546437,36.365076507651,1354014.5040035,-768.3368751147,2624537.7930664,41.565076507651,0,0
613.01671000124,-820.95340451468,36.369506950695,1354014.5040035,-768.3368751147,2624537.7930664,41.569506950695,0,0
613.01671031604,-821.15519356499,36.373937393739,1354014.5040035,-768.3368751147,2624537.7930664,41.573937393739,0,0
613.01671063083,-821.35698261529,36.378367836784,1354014.5040035,-768.3368751147,2624537.7930664,41.578367836784,0,0
613.01671094563,-821.5587716656,36.382798279828,1354014.5040035,-768.3368751147,2624537.7930664,41.582798279828,0,0
613.01671126043,-821.76056071591,36.387228722872,1354014.5040035,-768.3368751147,2624537.7930664,41.587228722872,0,0
613.01671157523,-821.96234976622,36.391659165917,1354014.5040035,-768.3368751147,2624537.7930664,41.591659165917,0,0
613.01671189003,-822.16413881653,36.396089608961,1354014.5040035,-768.3368751147,2624537.7930664,41.596089608961,0,0
613.01671220483,-822.36592786683,36.400520052005,1354014.5040035,-768.3368751147,2624537.7930664,41.600520052005,0,0
613.01671251963,-822.56771691714,36.404950495049,1354014.5040035,-768.3368751147,2624537.7930664,41.60495049505,0,0
613.01671283443,-822.76950596745,36.409380938094,1354014.5040035,-768.3368751147,2624537.7930664,41.609380938094,0,0
613.01671314923,-822.97129501776,36.413811381138,1354014.5040035,-768.3368751147,2624537.7930664,41.613811381138,0,0
613.01671346402,-823.17308406807,36.418241824182,1354014.5040035,-768.3368751147,2624537.7930664,41.618241824182,0,0
613.01671377882,-823.37487311837,36.422672267227,1354014.5040035,-768.3368751147,2624537.7930664,41.622672267227,0,0
613.01671409362,-823.57666216868,36.427102710271,1354014.5040035,-768.3368751147,2624537.7930664,41.627102710271,0,0
613.01671440842,-823.77845121899,36.431533153315,1354014.5040035,-768.3368751147,2624537.7930664,41.631533153315,0,0
613.01671472322,-823.9802402693,36.43596359636,1354014.5040035,-768.3368751147,2624537.7930664,41.63596359636,0,0
613.01671503802,-824.18202931961,36.440394039404,1354014.5040035,-768.3368751147,2624537.7930664,41.640394039404,0,0
613.01671535282,-824.38381836992,36.444824482448,1354014.5040035,-768.3368751147,2624537.7930664,41.644824482448,0,0
613.01671566762,-824.58560742022,36.449254925493,1354014.5040035,-768.3368751147,2624537.7930664,41.649254925493,0,0
613.01671598242,-824.78739647053,36.453685368537,1354014.5040035,-768.3368751147,2624537.7930664,41.653685368537,0,0
613.01671629721,-824.98918552084,36.458115811581,1354014.5040035,-768.3368751147,2624537.7930664,41.658115811581,0,0
613.01671661201,-825.19097457115,36.462546254625,1354014.5040035,-768.3368751147,2624537.7930664,41.662546254625,0,0
613.01671692681,-825.39276362146,36.46697669767,1354014.5040035,-768.3368751147,2624537.7930664,41.66697669767,0,0
613.01671724161,-825.59455267176,36.471407140714,1354014.5040035,-768.3368751147,2624537.7930664,41.671407140714,0,0
613.01671755641,-825.79634172207,36.475837583758,1354014.5040035,-768.3368751147,2624537.7930664,41.675837583758,0,0
613.01671787121,-825.99813077238,36.480268026803,1354014.5040035,-768.3368751147,2624537.7930664,41.680268026803,0,0
613.01671818601,-826.19991982269,36.484698469847,1354014.5040035,-768.3368751147,2624537.7930664,41.684698469847,0,0
613.01671850081,-826.401708873,36.489128912891,1354014.5040035,-768.3368751147,2624537.7930664,41.689128912891,0,0
613.0167188156,-826.6034979233,36.493559355936,1354014.5040035,-768.3368751147,2624537.7930664,41.693559355936,0,0
613.0167191304,-826.80528697361,36.49798979898,1354014.5040035,-768.3368751147,2624537.7930664,41.69798979898,0,0
613.0167194452,-827.00707602392,36.502420242024,1354014.5040035,-768.3368751147,2624537.7930664,41.702420242024,0,0
613.01671976,-827.20886507423,36.506850685068,1354014.5040035,-768.3368751147,2624537.7930664,41.706850685069,0,0
613.0167200748,-827.41065412454,36.511281128113,1354014.5040035,-768.3368751147,2624537.7930664,41.711281128113,0,0
613.0167203896,-827.61244317484,36.515711571157,1354014.5040035,-768.3368751147,2624537.7930664,41.715711571157,0,0
613.0167207044,-827.81423222515,36.520142014201,1354014.5040035,-768.3368751147,2624537.7930664,41.720142014201,0,0
613.0167210192,-828.01602127546,36.524572457246,1354014.5040035,-768.3368751147,2624537.7930664,41.724572457246,0,0
613.016721334,-828.21781032577,36.52900290029,1354014.5040035,-768.3368751147,2624537.7930664,41.72900290029,0,0
613.01672164879,-828.41959937608,36.533433343334,1354014.5040035,-768.3368751147,2624537.7930664,41.733433343334,0,0
613.01672196359,-828.62138842639,36.537863786379,1354014.5040035,-768.3368751147,2624537.7930664,41.737863786379,0,0
613.01672227839,-828.82317747669,36.542294229423,1354014.5040035,-768.3368751147,2624537.7930664,41.742294229423,0,0
613.01672259319,-829.024966527,36.546724672467,1354014.5040035,-768.3368751147,2624537.7930664,41.746724672467,0,0
613.01672290796,-829.22675557712,36.551155115512,1352368.4188867,1772.765006054,2621732.678423,41.751155115512,0,0
613.01672322258,-829.42854462634,36.555585558556,1352368.4188867,1772.765006054,2621732.678423,41.755585558556,0,0
613.01672353721,-829.63033367556,36.5600160016,1352368.4188867,1772.765006054,2621732.678423,41.7600160016,0,0
613.01672385183,-829.83212272478,36.564446444644,1352368.4188867,1772.765006054,2621732.678423,41.764446444644,0,0
613.01672416646,-830.033911774,36.568876887689,1352368.4188867,1772.765006054,2621732.678423,41.768876887689,0,0
613.01672448108,-830.23570082322,36.573307330733,1352368.4188867,1772.765006054,2621732.678423,41.773307330733,0,0
613.01672479571,-830.43748987244,36.577737773777,1352368.4188867,1772.765006054,2621732.678423,41.777737773777,0,0
613.01672511033,-830.63927892166,36.582168216822,1352368.4188867,1772.765006054,2621732.678423,41.782168216822,0,0
613.01672542496,-830.84106797088,36.586598659866,1352368.4188867,1772.765006054,2621732.678423,41.786598659866,0,0
613.01672573958,-831.0428570201,36.59102910291,1352368.4188867,1772.765006054,2621732.678423,41.79102910291,0,0
613.0167260542,-831.24464606932,36.595459545955,1352368.4188867,1772.765006054,2621732.678423,41.795459545955,0,0
613.01672636883,-831.44643511854,36.599889988999,1352368.4188867,1772.765006054,2621732.678423,41.799889988999,0,0
613.01672668345,-831.64822416776,36.604320432043,1352368.4188867,1772.765006054,2621732.678423,41.804320432043,0,0
613.01672699808,-831.85001321698,36.608750875088,1352368.4188867,1772.765006054,2621732.678423,41.808750875088,0,0
613.0167273127,-832.0518022662,36.613181318132,1352368.4188867,1772.765006054,2621732.678423,41.813181318132,0,0
613.01672762733,-832.25359131542,36.617611761176,1352368.4188867,1772.765006054,2621732.678423,41.817611761176,0,0
613.01672794195,-832.45538036464,36.62204220422,1352368.4188867,1772.765006054,2621732.678423,41.82204220422,0,0
613.01672825658,-832.65716941387,36.626472647265,1352368.4188867,1772.765006054,2621732.678423,41.826472647265,0,0
613.0167285712,-832.85895846309,36.630903090309,1352368.4188867,1772.765006054,2621732.678423,41.830903090309,0,0
613.01672888583,-833.06074751231,36.635333533353,1352368.4188867,1772.765006054,2621732.678423,41.835333533353,0,0
613.01672920045,-833.26253656153,36.639763976398,1352368.4188867,1772.765006054,2621732.678423,41.839763976398,0,0
613.01672951508,-833.46432561075,36.644194419442,1352368.4188867,1772.765006054,2621732.678423,41.844194419442,0,0
613.0167298297,-833.66611465997,36.648624862486,1352368.4188867,1772.765006054,2621732.678423,41.848624862486,0,0
613.01673014433,-833.86790370919,36.653055305531,1352368.4188867,1772.765006054,2621732.678423,41.853055305531,0,0
613.01673045895,-834.06969275841,36.657485748575,1352368.4188867,1772.765006054,2621732.678423,41.857485748575,0,0
613.01673077357,-834.27148180763,36.661916191619,1352368.4188867,1772.765006054,2621732.678423,41.861916191619,0,0
613.0167310882,-834.47327085685,36.666346634663,1352368.4188867,1772.765006054,2621732.678423,41.866346634663,0,0
613.01673140282,-834.67505990607,36.670777077708,1352368.4188867,1772.765006054,2621732.678423,41.870777077708,0,0
613.01673171745,-834.87684895529,36.675207520752,1352368.4188867,1772.765006054,2621732.678423,41.875207520752,0,0
613.01673203207,-835.07863800451,36.679637963796,1352368.4188867,1772.765006054,2621732.678423,41.879637963796,0,0
613.0167323467,-835.28042705373,36.684068406841,1352368.4188867,1772.765006054,2621732.678423,41.884068406841,0,0
613.01673266132,-835.48221610295,36.688498849885,1352368.4188867,1772.765006054,2621732.678423,41.888498849885,0,0
613.01673297595,-835.68400515217,36.692929292929,1352368.4188867,1772.765006054,2621732.678423,41.892929292929,0,0
613.01673329057,-835.88579420139,36.697359735974,1352368.4188867,1772.765006054,2621732.678423,41.897359735974,0,0
613.0167336052,-836.08758325061,36.701790179018,1352368.4188867,1772.765006054,2621732.678423,41.901790179018,0,0
613.01673391982,-836.28937229984,36.706220622062,1352368.4188867,1772.765006054,2621732.678423,41.906220622062,0,0
613.01673423445,-836.49116134906,36.710651065107,1352368.4188867,1772.765006054,2621732.678423,41.910651065107,0,0
613.01673454907,-836.69295039828,36.715081508151,1352368.4188867,1772.765006054,2621732.678423,41.915081508151,0,0
613.01673486369,-836.8947394475,36.719511951195,1352368.4188867,1772.765006054,2621732.678423,41.919511951195,0,0
613.01673517832,-837.09652849672,36.723942394239,1352368.4188867,1772.765006054,2621732.678423,41.923942394239,0,0
613.01673549294,-837.29831754594,36.728372837284,1352368.4188867,1772.765006054,2621732.678423,41.928372837284,0,0
613.01673580757,-837.50010659516,36.732803280328,1352368.4188867,1772.765006054,2621732.678423,41.932803280328,0,0
613.01673612219,-837.70189564438,36.737233723372,1352368.4188867,1772.765006054,2621732.678423,41.937233723372,0,0
613.01673643682,-837.9036846936,36.741664166417,1352368.4188867,1772.765006054,2621732.678423,41.941664166417,0,0
613.01673675144,-838.10547374282,36.746094609461,1352368.4188867,1772.765006054,2621732.678423,41.946094609461,0,0
613.01673706607,-838.30726279204,36.750525052505,1352368.4188867,1772.765006054,2621732.678423,41.950525052505,0,0
613.01673738069,-838.50905184126,36.75495549555,1352368.4188867,1772.765006054,2621732.678423,41.95495549555,0,0
613.01673769532,-838.71084089048,36.759385938594,1352368.4188867,1772.765006054,2621732.678423,41.959385938594,0,0
613.01673800994,-838.9126299397,36.763816381638,1352368.4188867,1772.765006054,2621732.678423,41.963816381638,0,0
613.01673832457,-839.11441898892,36.768246824682,1352368.4188867,1772.765006054,2621732.678423,41.968246824682,0,0
613.01673863919,-839.31620803814,36.772677267727,1352368.4188867,1772.765006054,2621732.678423,41.972677267727,0,0
613.01673895381,-839.51799708736,36.777107710771,1352368.4188867,1772.765006054,2621732.678423,41.977107710771,0,0
613.01673926844,-839.71978613658,36.781538153815,1352368.4188867,1772.765006054,2621732.678423,41.981538153815,0,0
613.01673958306,-839.92157518581,36.78596859686,1352368.4188867,1772.765006054,2621732.678423,41.98596859686,0,0
613.01673989769,-840.12336423503,36.790399039904,1352368.4188867,1772.765006054,2621732.678423,41.990399039904,0,0
613.01674021231,-840.32515328425,36.794829482948,1352368.4188867,1772.765006054,2621732.678423,41.994829482948,0,0
613.01674052694,-840.52694233347,36.799259925993,1352368.4188867,1772.765006054,2621732.678423,41.999259925993,0,0
613.01674084156,-840.72873138269,36.803690369037,1352368.4188867,1772.765006054,2621732.678423,42.003690369037,0,0
613.01674115619,-840.93052043191,36.808120812081,1352368.4188867,1772.765006054,2621732.678423,42.008120812081,0,0
613.01674147081,-841.13230948113,36.812551255126,1352368.4188867,1772.765006054,2621732.678423,42.012551255126,0,0
613.01674178544,-841.33409853035,36.81698169817,1352368.4188867,1772.765006054,2621732.678423,42.01698169817,0,0
613.01674210006,-841.53588757957,36.821412141214,1352368.4188867,1772.765006054,2621732.678423,42.021412141214,0,0
613.01674241469,-841.73767662879,36.825842584258,1352368.4188867,1772.765006054,2621732.678423,42.025842584258,0,0
613.01674272931,-841.93946567801,36.830273027303,1352368.4188867,1772.765006054,2621732.678423,42.030273027303,0,0
613.01674304394,-842.14125472723,36.834703470347,1352368.4188867,1772.765006054,2621732.678423,42.034703470347,0,0
613.01674335856,-842.34304377645,36.839133913391,1352368.4188867,1772.765006054,2621732.678423,42.039133913391,0,0
613.01674367318,-842.54483282567,36.843564356436,1352368.4188867,1772.765006054,2621732.678423,42.043564356436,0,0
613.01674398781,-842.74662187489,36.84799479948,1352368.4188867,1772.765006054,2621732.678423,42.04799479948,0,0
613.01674430243,-842.94841092411,36.852425242524,1352368.4188867,1772.765006054,2621732.678423,42.052425242524,0,0
613.01674461706,-843.15019997333,36.856855685569,1352368.4188867,1772.765006054,2621732.678423,42.056855685569,0,0
613.01674493168,-843.35198902256,36.861286128613,1352368.4188867,1772.765006054,2621732.678423,42.061286128613,0,0
613.01674524631,-843.55377807178,36.865716571657,1352368.4188867,1772.765006054,2621732.678423,42.065716571657,0,0
613.01674556093,-843.755567121,36.870147014701,1352368.4188867,1772.765006054,2621732.678423,42.070147014701,0,0
613.01674587556,-843.95735617022,36.874577457746,1352368.4188867,1772.765006054,2621732.678423,42.074577457746,0,0
613.01674619018,-844.15914521944,36.87900790079,1352368.4188867,1772.765006054,2621732.678423,42.07900790079,0,0
613.01674650481,-844.36093426866,36.883438343834,1352368.4188867,1772.765006054,2621732.678423,42.083438343834,0,0
613.01674681943,-844.56272331788,36.887868786879,1352368.4188867,1772.765006054,2621732.678423,42.087868786879,0,0
613.01674713406,-844.7645123671,36.892299229923,1352368.4188867,1772.765006054,2621732.678423,42.092299229923,0,0
613.01674744868,-844.96630141632,36.896729672967,1352368.4188867,1772.765006054,2621732.678423,42.096729672967,0,0
613.0167477633,-845.16809046554,36.901160116012,1352368.4188867,1772.765006054,2621732.678423,42.101160116012,0,0
613.01674807793,-845.36987951476,36.905590559056,1352368.4188867,1772.765006054,2621732.678423,42.105590559056,0,0
613.01674839255,-845.57166856398,36.9100210021,1352368.4188867,1772.765006054,2621732.678423,42.1100210021,0,0
613.01674870718,-845.7734576132,36.914451445145,1352368.4188867,1772.765006054,2621732.678423,42.114451445145,0,0
613.0167490218,-845.97524666242,36.918881888189,1352368.4188867,1772.765006054,2621732.678423,42.118881888189,0,0
613.01674933643,-846.17703571164,36.923312331233,1352368.4188867,1772.765006054,2621732.678423,42.123312331233,0,0
613.01674965105,-846.37882476086,36.927742774277,1352368.4188867,1772.765006054,2621732.678423,42.127742774277,0,0
613.01674996568,-846.58061381008,36.932173217322,1352368.4188867,1772.765006054,2621732.678423,42.132173217322,0,0
613.0167502803,-846.7824028593,36.936603660366,1352368.4188867,1772.765006054,2621732.678423,42.136603660366,0,0
613.01675059493,-846.98419190852,36.94103410341,1352368.4188867,1772.765006054,2621732.678423,42.14103410341,0,0
613.01675090955,-847.18598095775,36.945464546455,1352368.4188867,1772.765006054,2621732.678423,42.145464546455,0,0
613.01675122418,-847.38777000697,36.949894989499,1352368.4188867,1772.765006054,2621732.678423,42.149894989499,0,0
613.0167515388,-847.58955905619,36.954325432543,1352368.4188867,1772.765006054,2621732.678423,42.154325432543,0,0
613.01675185343,-847.79134810541,36.958755875588,1352368.4188867,1772.765006054,2621732.678423,42.158755875588,0,0
613.01675216805,-847.99313715463,36.963186318632,1352368.4188867,1772.765006054,2621732.678423,42.163186318632,0,0
613.01675248267,-848.19492620385,36.967616761676,1352368.4188867,1772.765006054,2621732.678423,42.167616761676,0,0
613.0167527973,-848.39671525307,36.97204720472,1352368.4188867,1772.765006054,2621732.678423,42.17204720472,0,0
613.01675311192,-848.59850430229,36.976477647765,1352368.4188867,1772.765006054,2621732.678423,42.176477647765,0,0
613.01675342655,-848.80029335151,36.980908090809,1352368.4188867,1772.765006054,2621732.678423,42.180908090809,0,0
613.01675374117,-849.00208240073,36.985338533853,1352368.4188867,1772.765006054,2621732.678423,42.185338533853,0,0
613.0167540558,-849.20387144995,36.989768976898,1352368.4188867,1772.765006054,2621732.678423,42.189768976898,0,0
613.01675437042,-849.40566049917,36.994199419942,1352368.4188867,1772.765006054,2621732.678423,42.194199419942,0,0
613.01675468505,-849.60744954839,36.998629862986,1352368.4188867,1772.765006054,2621732.678423,42.198629862986,0,0
613.01675499967,-849.80923859761,37.003060306031,1352368.4188867,1772.765006054,2621732.678423,42.203060306031,0,0
613.0167553143,-850.01102764683,37.007490749075,1352368.4188867,1772.765006054,2621732.678423,42.207490749075,0,0
613.01675562892,-850.21281669605,37.011921192119,1352368.4188867,1772.765006054,2621732.678423,42.211921192119,0,0
613.01675594355,-850.41460574527,37.016351635164,1352368.4188867,1772.765006054,2621732.678423,42.216351635164,0,0
613.01675625817,-850.6163947945,37.020782078208,1352368.4188867,1772.765006054,2621732.678423,42.220782078208,0,0
613.01675657279,-850.81818384372,37.025212521252,1352368.4188867,1772.765006054,2621732.678423,42.225212521252,0,0
613.01675688742,-851.01997289294,37.029642964296,1352368.4188867,1772.765006054,2621732.678423,42.229642964296,0,0
613.01675720204,-851.22176194216,37.034073407341,1352368.4188867,1772.765006054,2621732.678423,42.234073407341,0,0
613.01675751667,-851.42355099138,37.038503850385,1352368.4188867,1772.765006054,2621732.678423,42.238503850385,0,0
613.01675783129,-851.6253400406,37.042934293429,1352368.4188867,1772.765006054,2621732.678423,42.242934293429,0,0
613.01675814592,-851.82712908982,37.047364736474,1352368.4188867,1772.765006054,2621732.678423,42.247364736474,0,0
613.01675846054,-852.02891813904,37.051795179518,1352368.4188867,1772.765006054,2621732.678423,42.251795179518,0,0
613.01675877517,-852.23070718826,37.056225622562,1352368.4188867,1772.765006054,2621732.678423,42.256225622562,0,0
613.01675908979,-852.43249623748,37.060656065607,1352368.4188867,1772.765006054,2621732.678423,42.260656065607,0,0
613.01675940442,-852.6342852867,37.065086508651,1352368.4188867,1772.765006054,2621732.678423,42.265086508651,0,0
613.01675971904,-852.83607433592,37.069516951695,1352368.4188867,1772.765006054,2621732.678423,42.269516951695,0,0
613.01676003367,-853.03786338514,37.073947394739,1352368.4188867,1772.765006054,2621732.678423,42.273947394739,0,0
613.01676034829,-853.23965243436,37.078377837784,1352368.4188867,1772.765006054,2621732.678423,42.278377837784,0,0
613.01676066291,-853.44144148358,37.082808280828,1352368.4188867,1772.765006054,2621732.678423,42.282808280828,0,0
613.01676097754,-853.6432305328,37.087238723872,1352368.4188867,1772.765006054,2621732.678423,42.287238723872,0,0
613.01676129216,-853.84501958202,37.091669166917,1352368.4188867,1772.765006054,2621732.678423,42.291669166917,0,0
613.01676160679,-854.04680863124,37.096099609961,1352368.4188867,1772.765006054,2621732.678423,42.296099609961,0,0
613.01676192141,-854.24859768047,37.100530053005,1352368.4188867,1772.765006054,2621732.678423,42.300530053005,0,0
613.01676223604,-854.45038672969,37.10496049605,1352368.4188867,1772.765006054,2621732.678423,42.30496049605,0,0
613.01676255066,-854.65217577891,37.109390939094,1352368.4188867,1772.765006054,2621732.678423,42.309390939094,0,0
613.01676286529,-854.85396482813,37.113821382138,1352368.4188867,1772.765006054,2621732.678423,42.313821382138,0,0
613.01676317991,-855.05575387735,37.118251825183,1352368.4188867,1772.765006054,2621732.678423,42.318251825183,0,0
613.01676349454,-855.25754292657,37.122682268227,1352368.4188867,1772.765006054,2621732.678423,42.322682268227,0,0
613.01676380916,-855.45933197579,37.127112711271,1352368.4188867,1772.765006054,2621732.678423,42.327112711271,0,0
613.01676412379,-855.66112102501,37.131543154315,1352368.4188867,1772.765006054,2621732.678423,42.331543154315,0,0
613.01676443841,-855.86291007423,37.13597359736,1352368.4188867,1772.765006054,2621732.678423,42.33597359736,0,0
613.01676475304,-856.06469912345,37.140404040404,1352368.4188867,1772.765006054,2621732.678423,42.340404040404,0,0
613.01676506766,-856.26648817267,37.144834483448,1352368.4188867,1772.765006054,2621732.678423,42.344834483448,0,0
613.01676538228,-856.46827722189,37.149264926493,1352368.4188867,1772.765006054,2621732.678423,42.349264926493,0,0
613.01676569691,-856.67006627111,37.153695369537,1352368.4188867,1772.765006054,2621732.678423,42.353695369537,0,0
613.01676601153,-856.87185532033,37.158125812581,1352368.4188867,1772.765006054,2621732.678423,42.358125812581,0,0
613.01676632616,-857.07364436955,37.162556255626,1352368.4188867,1772.765006054,2621732.678423,42.362556255626,0,0
613.01676664078,-857.27543341877,37.16698669867,1352368.4188867,1772.765006054,2621732.678423,42.36698669867,0,0
613.01676695541,-857.47722246799,37.171417141714,1352368.4188867,1772.765006054,2621732.678423,42.371417141714,0,0
613.01676727003,-857.67901151721,37.175847584758,1352368.4188867,1772.765006054,2621732.678423,42.375847584758,0,0
613.01676758466,-857.88080056644,37.180278027803,1352368.4188867,1772.765006054,2621732.678423,42.380278027803,0,0
613.01676789928,-858.08258961566,37.184708470847,1352368.4188867,1772.765006054,2621732.678423,42.384708470847,0,0
613.01676821391,-858.28437866488,37.189138913891,1352368.4188867,1772.765006054,2621732.678423,42.389138913891,0,0
613.01676852853,-858.4861677141,37.193569356936,1352368.4188867,1772.765006054,2621732.678423,42.393569356936,0,0
613.01676884316,-858.68795676332,37.19799979998,1352368.4188867,1772.765006054,2621732.678423,42.39799979998,0,0
613.01676915778,-858.88974581254,37.202430243024,1352368.4188867,1772.765006054,2621732.678423,42.402430243024,0,0
613.0167694724,-859.09153486176,37.206860686069,1352368.4188867,1772.765006054,2621732.678423,42.406860686069,0,0
613.01676978703,-859.29332391098,37.211291129113,1352368.4188867,1772.765006054,2621732.678423,42.411291129113,0,0
613.01677010165,-859.4951129602,37.215721572157,1352368.4188867,1772.765006054,2621732.678423,42.415721572157,0,0
613.01677041628,-859.69690200942,37.220152015202,1352368.4188867,1772.765006054,2621732.678423,42.420152015202,0,0
613.0167707309,-859.89869105864,37.224582458246,1352368.4188867,1772.765006054,2621732.678423,42.424582458246,0,0
613.01677104553,-860.10048010786,37.22901290129,1352368.4188867,1772.765006054,2621732.678423,42.42901290129,0,0
613.01677136015,-860.30226915708,37.233443344334,1352368.4188867,1772.765006054,2621732.678423,42.433443344334,0,0
613.01677167478,-860.5040582063,37.237873787379,1352368.4188867,1772.765006054,2621732.678423,42.437873787379,0,0
613.0167719894,-860.70584725552,37.242304230423,1352368.4188867,1772.765006054,2621732.678423,42.442304230423,0,0
613.01677230403,-860.90763630474,37.246734673467,1352368.4188867,1772.765006054,2621732.678423,42.446734673467,0,0
613.01677261865,-861.10942535396,37.251165116512,1352368.4188867,1772.765006054,2621732.678423,42.451165116512,0,0
613.01677293328,-861.31121440318,37.255595559556,1352368.4188867,1772.765006054,2621732.678423,42.455595559556,0,0
613.0167732479,-861.51300345241,37.2600260026,1352368.4188867,1772.765006054,2621732.678423,42.4600260026,0,0
613.01677356253,-861.71479250163,37.264456445645,1352368.4188867,1772.765006054,2621732.678423,42.464456445645,0,0
613.01677387715,-861.91658155085,37.268886888689,1352368.4188867,1772.765006054,2621732.678423,42.468886888689,0,0
613.01677419177,-862.11837060007,37.273317331733,1352368.4188867,1772.765006054,2621732.678423,42.473317331733,0,0
613.0167745064,-862.32015964929,37.277747774777,1352368.4188867,1772.765006054,2621732.678423,42.477747774777,0,0
613.01677482102,-862.52194869851,37.282178217822,1352368.4188867,1772.765006054,2621732.678423,42.482178217822,0,0
613.01677513565,-862.72373774773,37.286608660866,1352368.4188867,1772.765006054,2621732.678423,42.486608660866,0,0
613.01677545027,-862.92552679695,37.29103910391,1352368.4188867,1772.765006054,2621732.678423,42.49103910391,0,0
613.0167757649,-863.12731584617,37.295469546955,1352368.4188867,1772.765006054,2621732.678423,42.495469546955,0,0
613.01677607952,-863.32910489539,37.299899989999,1352368.4188867,1772.765006054,2621732.678423,42.499899989999,0,0
613.01677639415,-863.53089394461,37.304330433043,1352368.4188867,1772.765006054,2621732.678423,42.504330433043,0,0
613.01677670877,-863.73268299383,37.308760876088,1352368.4188867,1772.765006054,2621732.678423,42.508760876088,0,0
613.0167770234,-863.93447204305,37.313191319132,1352368.4188867,1772.765006054,2621732.678423,42.513191319132,0,0
613.01677733802,-864.13626109227,37.317621762176,1352368.4188867,1772.765006054,2621732.678423,42.517621762176,0,0
613.01677765265,-864.33805014149,37.322052205221,1352368.4188867,1772.765006054,2621732.678423,42.522052205221,0,0
613.01677796727,-864.53983919071,37.326482648265,1352368.4188867,1772.765006054,2621732.678423,42.526482648265,0,0
613.01677828189,-864.74162823993,37.330913091309,1352368.4188867,1772.765006054,2621732.678423,42.530913091309,0,0
613.01677859652,-864.94341728916,37.335343534353,1352368.4188867,1772.765006054,2621732.678423,42.535343534353,0,0
613.01677891114,-865.14520633838,37.339773977398,1352368.4188867,1772.765006054,2621732.678423,42.539773977398,0,0
613.01677922577,-865.3469953876,37.344204420442,1352368.4188867,1772.765006054,2621732.678423,42.544204420442,0,0
613.01677954039,-865.54878443682,37.348634863486,1352368.4188867,1772.765006054,2621732.678423,42.548634863486,0,0
613.01677985502,-865.75057348604,37.353065306531,1352368.4188867,1772.765006054,2621732.678423,42.553065306531,0,0
613.01678016964,-865.95236253526,37.357495749575,1352368.4188867,1772.765006054,2621732.678423,42.557495749575,0,0
613.01678048427,-866.15415158448,37.361926192619,1352368.4188867,1772.765006054,2621732.678423,42.561926192619,0,0
613.01678079889,-866.3559406337,37.366356635664,1352368.4188867,1772.765006054,2621732.678423,42.566356635664,0,0
613.01678111352,-866.55772968292,37.370787078708,1352368.4188867,1772.765006054,2621732.678423,42.570787078708,0,0
613.01678142814,-866.75951873214,37.375217521752,1352368.4188867,1772.765006054,2621732.678423,42.575217521752,0,0
613.01678174277,-866.96130778136,37.379647964796,1352368.4188867,1772.765006054,2621732.678423,42.579647964796,0,0
613.01678205739,-867.16309683058,37.384078407841,1352368.4188867,1772.765006054,2621732.678423,42.584078407841,0,0
613.01678237201,-867.3648858798,37.388508850885,1352368.4188867,1772.765006054,2621732.678423,42.588508850885,0,0
613.01678268664,-867.56667492902,37.392939293929,1352368.4188867,1772.765006054,2621732.678423,42.592939293929,0,0
613.01678300126,-867.76846397824,37.397369736974,1352368.4188867,1772.765006054,2621732.678423,42.597369736974,0,0
613.01678331589,-867.97025302746,37.401800180018,1352368.4188867,1772.765006054,2621732.678423,42.601800180018,0,0
613.01678363051,-868.17204207668,37.406230623062,1352368.4188867,1772.765006054,2621732.678423,42.606230623062,0,0
613.01678394514,-868.3738311259,37.410661066107,1352368.4188867,1772.765006054,2621732.678423,42.610661066107,0,0
613.01678425976,-868.57562017512,37.415091509151,1352368.4188867,1772.765006054,2621732.678423,42.615091509151,0,0
613.01678457439,-868.77740922435,37.419521952195,1352368.4188867,1772.765006054,2621732.678423,42.619521952195,0,0
613.01678488901,-868.97919827357,37.42395239524,1352368.4188867,1772.765006054,2621732.678423,42.62395239524,0,0
613.01678520364,-869.18098732279,37.428382838284,1352368.4188867,1772.765006054,2621732.678423,42.628382838284,0,0
613.01678551826,-869.38277637201,37.432813281328,1352368.4188867,1772.765006054,2621732.678423,42.632813281328,0,0
613.01678583289,-869.58456542123,37.437243724372,1352368.4188867,1772.765006054,2621732.678423,42.637243724372,0,0
613.01678614751,-869.78635447045,37.441674167417,1352368.4188867,1772.765006054,2621732.678423,42.641674167417,0,0
613.01678646214,-869.98814351967,37.446104610461,1352368.4188867,1772.765006054,2621732.678423,42.646104610461,0,0
613.01678677676,-870.18993256889,37.450535053505,1352368.4188867,1772.765006054,2621732.678423,42.650535053505,0,0
613.01678709138,-870.39172161811,37.45496549655,1352368.4188867,1772.765006054,2621732.678423,42.65496549655,0,0
613.01678740601,-870.59351066733,37.459395939594,1352368.4188867,1772.765006054,2621732.678423,42.659395939594,0,0
613.01678772063,-870.79529971655,37.463826382638,1352368.4188867,1772.765006054,2621732.678423,42.663826382638,0,0
613.01678803526,-870.99708876577,37.468256825683,1352368.4188867,1772.765006054,2621732.678423,42.668256825683,0,0
613.01678834988,-871.19887781499,37.472687268727,1352368.4188867,1772.765006054,2621732.678423,42.672687268727,0,0
613.01678866451,-871.40066686421,37.477117711771,1352368.4188867,1772.765006054,2621732.678423,42.677117711771,0,0
613.01678897913,-871.60245591343,37.481548154815,1352368.4188867,1772.765006054,2621732.678423,42.681548154815,0,0
613.01678929376,-871.80424496265,37.48597859786,1352368.4188867,1772.765006054,2621732.678423,42.68597859786,0,0
613.01678960838,-872.00603401187,37.490409040904,1352368.4188867,1772.765006054,2621732.678423,42.690409040904,0,0
613.01678992301,-872.2078230611,37.494839483948,1352368.4188867,1772.765006054,2621732.678423,42.694839483948,0,0
613.01679023763,-872.40961211032,37.499269926993,1352368.4188867,1772.765006054,2621732.678423,42.699269926993,0,0
613.01679055226,-872.61140115954,37.503700370037,1352368.4188867,1772.765006054,2621732.678423,42.703700370037,0,0
613.01679086688,-872.81319020876,37.508130813081,1352368.4188867,1772.765006054,2621732.678423,42.708130813081,0,0
613.0167911815,-873.01497925798,37.512561256126,1352368.4188867,1772.765006054,2621732.678423,42.712561256126,0,0
613.01679149613,-873.2167683072,37.51699169917,1352368.4188867,1772.765006054,2621732.678423,42.71699169917,0,0
613.01679181075,-873.41855735642,37.521422142214,1352368.4188867,1772.765006054,2621732.678423,42.721422142214,0,0
613.01679212538,-873.62034640564,37.525852585259,1352368.4188867,1772.765006054,2621732.678423,42.725852585259,0,0
613.01679244,-873.82213545486,37.530283028303,1352368.4188867,1772.765006054,2621732.678423,42.730283028303,0,0
613.01679275463,-874.02392450408,37.534713471347,1352368.4188867,1772.765006054,2621732.678423,42.734713471347,0,0
613.01679306925,-874.2257135533,37.539143914391,1352368.4188867,1772.765006054,2621732.678423,42.739143914391,0,0
613.01679338388,-874.42750260252,37.543574357436,1352368.4188867,1772.765006054,2621732.678423,42.743574357436,0,0
613.0167936985,-874.62929165174,37.54800480048,1352368.4188867,1772.765006054,2621732.678423,42.74800480048,0,0
613.01679401313,-874.83108070096,37.552435243524,1352368.4188867,1772.765006054,2621732.678423,42.752435243524,0,0
613.01679432775,-875.03286975018,37.556865686569,1352368.4188867,1772.765006054,2621732.678423,42.756865686569,0,0
613.01679464238,-875.2346587994,37.561296129613,1352368.4188867,1772.765006054,2621732.678423,42.761296129613,0,0
613.016794957,-875.43644784862,37.565726572657,1352368.4188867,1772.765006054,2621732.678423,42.765726572657,0,0
613.01679527163,-875.63823689784,37.570157015702,1352368.4188867,1772.765006054,2621732.678423,42.770157015702,0,0
613.01679558625,-875.84002594707,37.574587458746,1352368.4188867,1772.765006054,2621732.678423,42.774587458746,0,0
613.01679590087,-876.04181499629,37.57901790179,1352368.4188867,1772.765006054,2621732.678423,42.77901790179,0,0
613.0167962155,-876.24360404551,37.583448344834,1352368.4188867,1772.765006054,2621732.678423,42.783448344834,0,0
613.01679653012,-876.44539309473,37.587878787879,1352368.4188867,1772.765006054,2621732.678423,42.787878787879,0,0
613.01679684475,-876.64718214395,37.592309230923,1352368.4188867,1772.765006054,2621732.678423,42.792309230923,0,0
613.01679715937,-876.84897119317,37.596739673967,1352368.4188867,1772.765006054,2621732.678423,42.796739673967,0,0
613.016797474,-877.05076024239,37.601170117012,1352368.4188867,1772.765006054,2621732.678423,42.801170117012,0,0
613.01679778862,-877.25254929161,37.605600560056,1352368.4188867,1772.765006054,2621732.678423,42.805600560056,0,0
613.01679810325,-877.45433834083,37.6100310031,1352368.4188867,1772.765006054,2621732.678423,42.8100310031,0,0
613.01679841787,-877.65612739005,37.614461446145,1352368.4188867,1772.765006054,2621732.678423,42.814461446145,0,0
613.0167987325,-877.85791643927,37.618891889189,1352368.4188867,1772.765006054,2621732.678423,42.818891889189,0,0
613.01679904712,-878.05970548849,37.623322332233,1352368.4188867,1772.765006054,2621732.678423,42.823322332233,0,0
613.01679936175,-878.26149453771,37.627752775278,1352368.4188867,1772.765006054,2621732.678423,42.827752775278,0,0
613.01679967637,-878.46328358693,37.632183218322,1352368.4188867,1772.765006054,2621732.678423,42.832183218322,0,0
613.01679999099,-878.66507263615,37.636613661366,1352368.4188867,1772.765006054,2621732.678423,42.836613661366,0,0
613.01680030562,-878.86686168537,37.64104410441,1352368.4188867,1772.765006054,2621732.678423,42.84104410441,0,0
613.01680062024,-879.06865073459,37.645474547455,1352368.4188867,1772.765006054,2621732.678423,42.845474547455,0,0
613.01680093487,-879.27043978381,37.649904990499,1352368.4188867,1772.765006054,2621732.678423,42.849904990499,0,0
613.01680124949,-879.47222883304,37.654335433543,1352368.4188867,1772.765006054,2621732.678423,42.854335433543,0,0
613.01680156412,-879.67401788226,37.658765876588,1352368.4188867,1772.765006054,2621732.678423,42.858765876588,0,0
613.01680187874,-879.87580693148,37.663196319632,1352368.4188867,1772.765006054,2621732.678423,42.863196319632,0,0
613.01680219337,-880.0775959807,37.667626762676,1352368.4188867,1772.765006054,2621732.678423,42.867626762676,0,0
613.01680250799,-880.27938502992,37.672057205721,1352368.4188867,1772.765006054,2621732.678423,42.872057205721,0,0
613.01680282262,-880.48117407914,37.676487648765,1352368.4188867,1772.765006054,2621732.678423,42.876487648765,0,0
613.01680313724,-880.68296312836,37.680918091809,1352368.4188867,1772.765006054,2621732.678423,42.880918091809,0,0
613.01680345187,-880.88475217758,37.685348534853,1352368.4188867,1772.765006054,2621732.678423,42.885348534853,0,0
613.01680376649,-881.0865412268,37.689778977898,1352368.4188867,1772.765006054,2621732.678423,42.889778977898,0,0
613.01680408111,-881.28833027602,37.694209420942,1352368.4188867,1772.765006054,2621732.678423,42.894209420942,0,0
613.01680439574,-881.49011932524,37.698639863986,1352368.4188867,1772.765006054,2621732.678423,42.898639863986,0,0
613.01680471036,-881.69190837446,37.703070307031,1352368.4188867,1772.765006054,2621732.678423,42.903070307031,0,0
613.01680502499,-881.89369742368,37.707500750075,1352368.4188867,1772.765006054,2621732.678423,42.907500750075,0,0
613.01680533961,-882.0954864729,37.711931193119,1352368.4188867,1772.765006054,2621732.678423,42.911931193119,0,0
613.01680565424,-882.29727552212,37.716361636164,1352368.4188867,1772.765006054,2621732.678423,42.916361636164,0,0
613.01680596886,-882.49906457134,37.720792079208,1352368.4188867,1772.765006054,2621732.678423,42.920792079208,0,0
613.01680628349,-882.70085362056,37.725222522252,1352368.4188867,1772.765006054,2621732.678423,42.925222522252,0,0
613.01680659811,-882.90264266978,37.729652965297,1352368.4188867,1772.765006054,2621732.678423,42.929652965297,0,0
613.01680691274,-883.10443171901,37.734083408341,1352368.4188867,1772.765006054,2621732.678423,42.934083408341,0,0
613.01680722736,-883.30622076823,37.738513851385,1352368.4188867,1772.765006054,2621732.678423,42.938513851385,0,0
613.01680754199,-883.50800981745,37.742944294429,1352368.4188867,1772.765006054,2621732.678423,42.942944294429,0,0
613.01680785661,-883.70979886667,37.747374737474,1352368.4188867,1772.765006054,2621732.678423,42.947374737474,0,0
613.01680817124,-883.91158791589,37.751805180518,1352368.4188867,1772.765006054,2621732.678423,42.951805180518,0,0
613.01680848586,-884.11337696511,37.756235623562,1352368.4188867,1772.765006054,2621732.678423,42.956235623562,0,0
613.01680880048,-884.31516601433,37.760666066607,1352368.4188867,1772.765006054,2621732.678423,42.960666066607,0,0
613.01680911511,-884.51695506355,37.765096509651,1352368.4188867,1772.765006054,2621732.678423,42.965096509651,0,0
613.01680942973,-884.71874411277,37.769526952695,1352368.4188867,1772.765006054,2621732.678423,42.969526952695,0,0
613.01680974436,-884.92053316199,37.77395739574,1352368.4188867,1772.765006054,2621732.678423,42.97395739574,0,0
613.01681005898,-885.12232221121,37.778387838784,1352368.4188867,1772.765006054,2621732.678423,42.978387838784,0,0
613.01681037361,-885.32411126043,37.782818281828,1352368.4188867,1772.765006054,2621732.678423,42.982818281828,0,0
613.01681068823,-885.52590030965,37.787248724872,1352368.4188867,1772.765006054,2621732.678423,42.987248724872,0,0
613.01681100286,-885.72768935887,37.791679167917,1352368.4188867,1772.765006054,2621732.678423,42.991679167917,0,0
613.01681131748,-885.92947840809,37.796109610961,1352368.4188867,1772.765006054,2621732.678423,42.996109610961,0,0
613.01681163211,-886.13126745731,37.800540054005,1352368.4188867,1772.765006054,2621732.678423,43.000540054005,0,0
613.01681194673,-886.33305650653,37.80497049705,1352368.4188867,1772.765006054,2621732.678423,43.00497049705,0,0
613.01681226136,-886.53484555576,37.809400940094,1352368.4188867,1772.765006054,2621732.678423,43.009400940094,0,0
613.01681257598,-886.73663460498,37.813831383138,1352368.4188867,1772.765006054,2621732.678423,43.013831383138,0,0
613.0168128906,-886.9384236542,37.818261826183,1352368.4188867,1772.765006054,2621732.678423,43.018261826183,0,0
613.01681320523,-887.14021270342,37.822692269227,1352368.4188867,1772.765006054,2621732.678423,43.022692269227,0,0
613.01681351985,-887.34200175264,37.827122712271,1352368.4188867,1772.765006054,2621732.678423,43.027122712271,0,0
613.01681383448,-887.54379080186,37.831553155316,1352368.4188867,1772.765006054,2621732.678423,43.031553155316,0,0
613.0168141491,-887.74557985108,37.83598359836,1352368.4188867,1772.765006054,2621732.678423,43.03598359836,0,0
613.01681446373,-887.9473689003,37.840414041404,1352368.4188867,1772.765006054,2621732.678423,43.040414041404,0,0
613.01681477835,-888.14915794952,37.844844484448,1352368.4188867,1772.765006054,2621732.678423,43.044844484448,0,0
613.01681509298,-888.35094699874,37.849274927493,1352368.4188867,1772.765006054,2621732.678423,43.049274927493,0,0
613.0168154076,-888.55273604796,37.853705370537,1352368.4188867,1772.765006054,2621732.678423,43.053705370537,0,0
613.01681572223,-888.75452509718,37.858135813581,1352368.4188867,1772.765006054,2621732.678423,43.058135813581,0,0
613.01681603685,-888.9563141464,37.862566256626,1352368.4188867,1772.765006054,2621732.678423,43.062566256626,0,0
613.01681635148,-889.15810319562,37.86699669967,1352368.4188867,1772.765006054,2621732.678423,43.06699669967,0,0
613.0168166661,-889.35989224484,37.871427142714,1352368.4188867,1772.765006054,2621732.678423,43.071427142714,0,0
613.01681698073,-889.56168129406,37.875857585759,1352368.4188867,1772.765006054,2621732.678423,43.075857585759,0,0
613.01681729535,-889.76347034328,37.880288028803,1352368.4188867,1772.765006054,2621732.678423,43.080288028803,0,0
613.01681760997,-889.9652593925,37.884718471847,1352368.4188867,1772.765006054,2621732.678423,43.084718471847,0,0
613.0168179246,-890.16704844173,37.889148914891,1352368.4188867,1772.765006054,2621732.678423,43.089148914891,0,0
613.01681823922,-890.36883749095,37.893579357936,1352368.4188867,1772.765006054,2621732.678423,43.093579357936,0,0
613.01681855385,-890.57062654017,37.89800980098,1352368.4188867,1772.765006054,2621732.678423,43.09800980098,0,0
613.01681886847,-890.77241558939,37.902440244024,1352368.4188867,1772.765006054,2621732.678423,43.102440244024,0,0
613.0168191831,-890.97420463861,37.906870687069,1352368.4188867,1772.765006054,2621732.678423,43.106870687069,0,0
613.01681949772,-891.17599368783,37.911301130113,1352368.4188867,1772.765006054,2621732.678423,43.111301130113,0,0
613.01681981235,-891.37778273705,37.915731573157,1352368.4188867,1772.765006054,2621732.678423,43.115731573157,0,0
613.01682012697,-891.57957178627,37.920162016202,1352368.4188867,1772.765006054,2621732.678423,43.120162016202,0,0
613.0168204416,-891.78136083549,37.924592459246,1352368.4188867,1772.765006054,2621732.678423,43.124592459246,0,0
613.01682075622,-891.98314988471,37.92902290229,1352368.4188867,1772.765006054,2621732.678423,43.12902290229,0,0
613.01682107085,-892.18493893393,37.933453345335,1352368.4188867,1772.765006054,2621732.678423,43.133453345335,0,0
613.01682138547,-892.38672798315,37.937883788379,1352368.4188867,1772.765006054,2621732.678423,43.137883788379,0,0
613.01682170009,-892.58851703237,37.942314231423,1352368.4188867,1772.765006054,2621732.678423,43.142314231423,0,0
613.01682201472,-892.79030608159,37.946744674467,1352368.4188867,1772.765006054,2621732.678423,43.146744674467,0,0
613.01682232934,-892.99209513081,37.951175117512,1352368.4188867,1772.765006054,2621732.678423,43.151175117512,0,0
613.01682264397,-893.19388418003,37.955605560556,1352368.4188867,1772.765006054,2621732.678423,43.155605560556,0,0
613.01682295859,-893.39567322925,37.9600360036,1352368.4188867,1772.765006054,2621732.678423,43.1600360036,0,0
613.01682327322,-893.59746227847,37.964466446645,1352368.4188867,1772.765006054,2621732.678423,43.164466446645,0,0
613.01682358784,-893.7992513277,37.968896889689,1352368.4188867,1772.765006054,2621732.678423,43.168896889689,0,0
613.01682390247,-894.00104037692,37.973327332733,1352368.4188867,1772.765006054,2621732.678423,43.173327332733,0,0
613.01682421709,-894.20282942614,37.977757775778,1352368.4188867,1772.765006054,2621732.678423,43.177757775778,0,0
613.01682453172,-894.40461847536,37.982188218822,1352368.4188867,1772.765006054,2621732.678423,43.182188218822,0,0
613.01682484634,-894.60640752458,37.986618661866,1352368.4188867,1772.765006054,2621732.678423,43.186618661866,0,0
613.01682516097,-894.8081965738,37.99104910491,1352368.4188867,1772.765006054,2621732.678423,43.19104910491,0,0
613.01682547559,-895.00998562302,37.995479547955,1352368.4188867,1772.765006054,2621732.678423,43.195479547955,0,0
613.01682579021,-895.21177467224,37.999909990999,1352368.4188867,1772.765006054,2621732.678423,43.199909990999,0,0
613.01682610484,-895.41356372146,38.004340434043,1352368.4188867,1772.765006054,2621732.678423,43.204340434043,0,0
613.01682641946,-895.61535277068,38.008770877088,1352368.4188867,1772.765006054,2621732.678423,43.208770877088,0,0
613.01682673409,-895.8171418199,38.013201320132,1352368.4188867,1772.765006054,2621732.678423,43.213201320132,0,0
613.01682704871,-896.01893086912,38.017631763176,1352368.4188867,1772.765006054,2621732.678423,43.217631763176,0,0
613.01682736334,-896.22071991834,38.022062206221,1352368.4188867,1772.765006054,2621732.678423,43.222062206221,0,0
613.01682767796,-896.42250896756,38.026492649265,1352368.4188867,1772.765006054,2621732.678423,43.226492649265,0,0
613.01682799259,-896.62429801678,38.030923092309,1352368.4188867,1772.765006054,2621732.678423,43.230923092309,0,0
613.01682830721,-896.826087066,38.035353535354,1352368.4188867,1772.765006054,2621732.678423,43.235353535354,0,0
613.01682862184,-897.02787611522,38.039783978398,1352368.4188867,1772.765006054,2621732.678423,43.239783978398,0,0
613.01682893646,-897.22966516444,38.044214421442,1352368.4188867,1772.765006054,2621732.678423,43.244214421442,0,0
613.01682925109,-897.43145421367,38.048644864486,1352368.4188867,1772.765006054,2621732.678423,43.248644864486,0,0
613.01682956571,-897.63324326289,38.053075307531,1352368.4188867,1772.765006054,2621732.678423,43.253075307531,0,0
613.01682988033,-897.83503231211,38.057505750575,1352368.4188867,1772.765006054,2621732.678423,43.257505750575,0,0
613.01683019496,-898.03682136133,38.061936193619,1352368.4188867,1772.765006054,2621732.678423,43.261936193619,0,0
613.01683050958,-898.23861041055,38.066366636664,1352368.4188867,1772.765006054,2621732.678423,43.266366636664,0,0
613.01683082421,-898.44039945977,38.070797079708,1352368.4188867,1772.765006054,2621732.678423,43.270797079708,0,0
613.01683113883,-898.64218850899,38.075227522752,1352368.4188867,1772.765006054,2621732.678423,43.275227522752,0,0
613.01683145346,-898.84397755821,38.079657965797,1352368.4188867,1772.765006054,2621732.678423,43.279657965797,0,0
613.01683176808,-899.04576660743,38.084088408841,1352368.4188867,1772.765006054,2621732.678423,43.284088408841,0,0
613.01683208271,-899.24755565665,38.088518851885,1352368.4188867,1772.765006054,2621732.678423,43.288518851885,0,0
613.01683239733,-899.44934470587,38.092949294929,1352368.4188867,1772.765006054,2621732.678423,43.292949294929,0,0
613.01683271196,-899.65113375509,38.097379737974,1352368.4188867,1772.765006054,2621732.678423,43.297379737974,0,0
613.01683302658,-899.85292280431,38.101810181018,1352368.4188867,1772.765006054,2621732.678423,43.301810181018,0,0
613.01683334121,-900.05471185353,38.106240624062,1352368.4188867,1772.765006054,2621732.678423,43.306240624062,0,0
613.01683365583,-900.25650090275,38.110671067107,1352368.4188867,1772.765006054,2621732.678423,43.310671067107,0,0
613.01683397046,-900.45828995197,38.115101510151,1352368.4188867,1772.765006054,2621732.678423,43.315101510151,0,0
613.01683428508,-900.66007900119,38.119531953195,1352368.4188867,1772.765006054,2621732.678423,43.319531953195,0,0
613.0168345997,-900.86186805041,38.12396239624,1352368.4188867,1772.765006054,2621732.678423,43.32396239624,0,0
613.01683491433,-901.06365709964,38.128392839284,1352368.4188867,1772.765006054,2621732.678423,43.328392839284,0,0
613.01683522895,-901.26544614886,38.132823282328,1352368.4188867,1772.765006054,2621732.678423,43.332823282328,0,0
613.01683554358,-901.46723519808,38.137253725373,1352368.4188867,1772.765006054,2621732.678423,43.337253725373,0,0
613.0168358582,-901.6690242473,38.141684168417,1352368.4188867,1772.765006054,2621732.678423,43.341684168417,0,0
613.01683617283,-901.87081329652,38.146114611461,1352368.4188867,1772.765006054,2621732.678423,43.346114611461,0,0
613.01683648745,-902.07260234574,38.150545054505,1352368.4188867,1772.765006054,2621732.678423,43.350545054505,0,0
613.01683680208,-902.27439139496,38.15497549755,1352368.4188867,1772.765006054,2621732.678423,43.35497549755,0,0
613.0168371167,-902.47618044418,38.159405940594,1352368.4188867,1772.765006054,2621732.678423,43.359405940594,0,0
613.01683743133,-902.6779694934,38.163836383638,1352368.4188867,1772.765006054,2621732.678423,43.363836383638,0,0
613.01683774595,-902.87975854262,38.168266826683,1352368.4188867,1772.765006054,2621732.678423,43.368266826683,0,0
613.01683806058,-903.08154759184,38.172697269727,1352368.4188867,1772.765006054,2621732.678423,43.372697269727,0,0
613.0168383752,-903.28333664106,38.177127712771,1352368.4188867,1772.765006054,2621732.678423,43.377127712771,0,0
613.01683868982,-903.48512569028,38.181558155816,1352368.4188867,1772.765006054,2621732.678423,43.381558155816,0,0
613.01683900445,-903.6869147395,38.18598859886,1352368.4188867,1772.765006054,2621732.678423,43.38598859886,0,0
613.01683931907,-903.88870378872,38.190419041904,1352368.4188867,1772.765006054,2621732.678423,43.390419041904,0,0
613.0168396337,-904.09049283794,38.194849484948,1352368.4188867,1772.765006054,2621732.678423,43.394849484948,0,0
613.01683994832,-904.29228188716,38.199279927993,1352368.4188867,1772.765006054,2621732.678423,43.399279927993,0,0
613.01684026295,-904.49407093638,38.203710371037,1352368.4188867,1772.765006054,2621732.678423,43.403710371037,0,0
613.01684057757,-904.69585998561,38.208140814081,1352368.4188867,1772.765006054,2621732.678423,43.408140814081,0,0
613.0168408922,-904.89764903483,38.212571257126,1352368.4188867,1772.765006054,2621732.678423,43.412571257126,0,0
613.01684120682,-905.09943808405,38.21700170017,1352368.4188867,1772.765006054,2621732.678423,43.41700170017,0,0
613.01684152145,-905.30122713327,38.221432143214,1352368.4188867,1772.765006054,2621732.678423,43.421432143214,0,0
613.01684183607,-905.50301618249,38.225862586259,1352368.4188867,1772.765006054,2621732.678423,43.425862586259,0,0
613.0168421507,-905.70480523171,38.230293029303,1352368.4188867,1772.765006054,2621732.678423,43.430293029303,0,0
613.01684246532,-905.90659428093,38.234723472347,1352368.4188867,1772.765006054,2621732.678423,43.434723472347,0,0
613.01684277995,-906.10838333015,38.239153915392,1352368.4188867,1772.765006054,2621732.678423,43.439153915392,0,0
613.01684309457,-906.31017237937,38.243584358436,1352368.4188867,1772.765006054,2621732.678423,43.443584358436,0,0
613.01684340919,-906.51196142859,38.24801480148,1352368.4188867,1772.765006054,2621732.678423,43.44801480148,0,0
613.01684372382,-906.71375047781,38.252445244524,1352368.4188867,1772.765006054,2621732.678423,43.452445244524,0,0
613.01684403844,-906.91553952703,38.256875687569,1352368.4188867,1772.765006054,2621732.678423,43.456875687569,0,0
613.01684435307,-907.11732857625,38.261306130613,1352368.4188867,1772.765006054,2621732.678423,43.461306130613,0,0
613.01684466769,-907.31911762547,38.265736573657,1352368.4188867,1772.765006054,2621732.678423,43.465736573657,0,0
613.01684498232,-907.52090667469,38.270167016702,1352368.4188867,1772.765006054,2621732.678423,43.470167016702,0,0
613.01684529694,-907.72269572391,38.274597459746,1352368.4188867,1772.765006054,2621732.678423,43.474597459746,0,0
613.01684561157,-907.92448477313,38.27902790279,1352368.4188867,1772.765006054,2621732.678423,43.47902790279,0,0
613.01684592619,-908.12627382236,38.283458345835,1352368.4188867,1772.765006054,2621732.678423,43.483458345835,0,0
613.01684624082,-908.32806287158,38.287888788879,1352368.4188867,1772.765006054,2621732.678423,43.487888788879,0,0
613.01684655544,-908.5298519208,38.292319231923,1352368.4188867,1772.765006054,2621732.678423,43.492319231923,0,0
613.01684687007,-908.73164097002,38.296749674967,1352368.4188867,1772.765006054,2621732.678423,43.496749674967,0,0
613.01684718469,-908.93343001924,38.301180118012,1352368.4188867,1772.765006054,2621732.678423,43.501180118012,0,0
613.01684749931,-909.13521906846,38.305610561056,1352368.4188867,1772.765006054,2621732.678423,43.505610561056,0,0
613.01684781394,-909.33700811768,38.3100410041,1352368.4188867,1772.765006054,2621732.678423,43.5100410041,0,0
613.01684812856,-909.5387971669,38.314471447145,1352368.4188867,1772.765006054,2621732.678423,43.514471447145,0,0
613.01684844319,-909.74058621612,38.318901890189,1352368.4188867,1772.765006054,2621732.678423,43.518901890189,0,0
613.01684875781,-909.94237526534,38.323332333233,1352368.4188867,1772.765006054,2621732.678423,43.523332333233,0,0
613.01684907244,-910.14416431456,38.327762776278,1352368.4188867,1772.765006054,2621732.678423,43.527762776278,0,0
613.01684938706,-910.34595336378,38.332193219322,1352368.4188867,1772.765006054,2621732.678423,43.532193219322,0,0
613.01684970169,-910.547742413,38.336623662366,1352368.4188867,1772.765006054,2621732.678423,43.536623662366,0,0
613.01685001631,-910.74953146222,38.341054105411,1352368.4188867,1772.765006054,2621732.678423,43.541054105411,0,0
613.01685033094,-910.95132051144,38.345484548455,1352368.4188867,1772.765006054,2621732.678423,43.545484548455,0,0
613.01685064556,-911.15310956066,38.349914991499,1352368.4188867,1772.765006054,2621732.678423,43.549914991499,0,0
613.01685096019,-911.35489860988,38.354345434543,1352368.4188867,1772.765006054,2621732.678423,43.554345434543,0,0
613.01685127481,-911.5566876591,38.358775877588,1352368.4188867,1772.765006054,2621732.678423,43.558775877588,0,0
613.01685158943,-911.75847670833,38.363206320632,1352368.4188867,1772.765006054,2621732.678423,43.563206320632,0,0
613.01685190406,-911.96026575755,38.367636763676,1352368.4188867,1772.765006054,2621732.678423,43.567636763676,0,0
613.01685221868,-912.16205480677,38.372067206721,1352368.4188867,1772.765006054,2621732.678423,43.572067206721,0,0
613.01685253331,-912.36384385599,38.376497649765,1352368.4188867,1772.765006054,2621732.678423,43.576497649765,0,0
613.01685284793,-912.56563290521,38.380928092809,1352368.4188867,1772.765006054,2621732.678423,43.580928092809,0,0
613.01685316256,-912.76742195443,38.385358535854,1352368.4188867,1772.765006054,2621732.678423,43.585358535854,0,0
613.01685347718,-912.96921100365,38.389788978898,1352368.4188867,1772.765006054,2621732.678423,43.589788978898,0,0
613.01685379181,-913.17100005287,38.394219421942,1352368.4188867,1772.765006054,2621732.678423,43.594219421942,0,0
613.01685410643,-913.37278910209,38.398649864986,1352368.4188867,1772.765006054,2621732.678423,43.598649864986,0,0
613.01685442106,-913.57457815131,38.403080308031,1352368.4188867,1772.765006054,2621732.678423,43.603080308031,0,0
613.01685473568,-913.77636720053,38.407510751075,1352368.4188867,1772.765006054,2621732.678423,43.607510751075,0,0
613.01685505031,-913.97815624975,38.411941194119,1352368.4188867,1772.765006054,2621732.678423,43.611941194119,0,0
613.01685536493,-914.17994529897,38.416371637164,1352368.4188867,1772.765006054,2621732.678423,43.616371637164,0,0
613.01685567956,-914.38173434819,38.420802080208,1352368.4188867,1772.765006054,2621732.678423,43.620802080208,0,0
613.01685599418,-914.58352339741,38.425232523252,1352368.4188867,1772.765006054,2621732.678423,43.625232523252,0,0
613.0168563088,-914.78531244663,38.429662966297,1352368.4188867,1772.765006054,2621732.678423,43.629662966297,0,0
613.01685662343,-914.98710149585,38.434093409341,1352368.4188867,1772.765006054,2621732.678423,43.634093409341,0,0
613.01685693805,-915.18889054507,38.438523852385,1352368.4188867,1772.765006054,2621732.678423,43.638523852385,0,0
613.01685725268,-915.3906795943,38.44295429543,1352368.4188867,1772.765006054,2621732.678423,43.64295429543,0,0
613.0168575673,-915.59246864352,38.447384738474,1352368.4188867,1772.765006054,2621732.678423,43.647384738474,0,0
613.01685788193,-915.79425769274,38.451815181518,1352368.4188867,1772.765006054,2621732.678423,43.651815181518,0,0
613.01685819655,-915.99604674196,38.456245624562,1352368.4188867,1772.765006054,2621732.678423,43.656245624562,0,0
613.01685851118,-916.19783579118,38.460676067607,1352368.4188867,1772.765006054,2621732.678423,43.660676067607,0,0
613.0168588258,-916.3996248404,38.465106510651,1352368.4188867,1772.765006054,2621732.678423,43.665106510651,0,0
613.01685914043,-916.60141388962,38.469536953695,1352368.4188867,1772.765006054,2621732.678423,43.669536953695,0,0
613.01685945505,-916.80320293884,38.47396739674,1352368.4188867,1772.765006054,2621732.678423,43.67396739674,0,0
613.01685976968,-917.00499198806,38.478397839784,1352368.4188867,1772.765006054,2621732.678423,43.678397839784,0,0
613.0168600843,-917.20678103728,38.482828282828,1352368.4188867,1772.765006054,2621732.678423,43.682828282828,0,0
613.01686039892,-917.4085700865,38.487258725873,1352368.4188867,1772.765006054,2621732.678423,43.687258725873,0,0
613.01686071355,-917.61035913572,38.491689168917,1352368.4188867,1772.765006054,2621732.678423,43.691689168917,0,0
613.01686102817,-917.81214818494,38.496119611961,1352368.4188867,1772.765006054,2621732.678423,43.696119611961,0,0
613.0168613428,-918.01393723416,38.500550055005,1352368.4188867,1772.765006054,2621732.678423,43.700550055006,0,0
613.01686165742,-918.21572628338,38.50498049805,1352368.4188867,1772.765006054,2621732.678423,43.70498049805,0,0
613.01686197205,-918.4175153326,38.509410941094,1352368.4188867,1772.765006054,2621732.678423,43.709410941094,0,0
613.01686228667,-918.61930438182,38.513841384138,1352368.4188867,1772.765006054,2621732.678423,43.713841384138,0,0
613.0168626013,-918.82109343104,38.518271827183,1352368.4188867,1772.765006054,2621732.678423,43.718271827183,0,0
613.01686291592,-919.02288248027,38.522702270227,1352368.4188867,1772.765006054,2621732.678423,43.722702270227,0,0
613.01686323055,-919.22467152949,38.527132713271,1352368.4188867,1772.765006054,2621732.678423,43.727132713271,0,0
613.01686354517,-919.42646057871,38.531563156316,1352368.4188867,1772.765006054,2621732.678423,43.731563156316,0,0
613.0168638598,-919.62824962793,38.53599359936,1352368.4188867,1772.765006054,2621732.678423,43.73599359936,0,0
613.01686417442,-919.83003867715,38.540424042404,1352368.4188867,1772.765006054,2621732.678423,43.740424042404,0,0
613.01686448904,-920.03182772637,38.544854485449,1352368.4188867,1772.765006054,2621732.678423,43.744854485449,0,0
613.01686480367,-920.23361677559,38.549284928493,1352368.4188867,1772.765006054,2621732.678423,43.749284928493,0,0
613.01686511829,-920.43540582481,38.553715371537,1352368.4188867,1772.765006054,2621732.678423,43.753715371537,0,0
613.01686543292,-920.63719487403,38.558145814581,1352368.4188867,1772.765006054,2621732.678423,43.758145814581,0,0
613.01686574754,-920.83898392325,38.562576257626,1352368.4188867,1772.765006054,2621732.678423,43.762576257626,0,0
613.01686606217,-921.04077297247,38.56700670067,1352368.4188867,1772.765006054,2621732.678423,43.76700670067,0,0
613.01686637679,-921.24256202169,38.571437143714,1352368.4188867,1772.765006054,2621732.678423,43.771437143714,0,0
613.01686669142,-921.44435107091,38.575867586759,1352368.4188867,1772.765006054,2621732.678423,43.775867586759,0,0
613.01686700604,-921.64614012013,38.580298029803,1352368.4188867,1772.765006054,2621732.678423,43.780298029803,0,0
613.01686732067,-921.84792916935,38.584728472847,1352368.4188867,1772.765006054,2621732.678423,43.784728472847,0,0
613.01686763529,-922.04971821857,38.589158915892,1352368.4188867,1772.765006054,2621732.678423,43.789158915892,0,0
613.01686794992,-922.25150726779,38.593589358936,1352368.4188867,1772.765006054,2621732.678423,43.793589358936,0,0
613.01686826454,-922.45329631702,38.59801980198,1352368.4188867,1772.765006054,2621732.678423,43.79801980198,0,0
613.01686857917,-922.65508536624,38.602450245024,1352368.4188867,1772.765006054,2621732.678423,43.802450245025,0,0
613.01686889379,-922.85687441546,38.606880688069,1352368.4188867,1772.765006054,2621732.678423,43.806880688069,0,0
613.01686920841,-923.05866346468,38.611311131113,1352368.4188867,1772.765006054,2621732.678423,43.811311131113,0,0
613.01686952304,-923.2604525139,38.615741574157,1352368.4188867,1772.765006054,2621732.678423,43.815741574157,0,0
613.01686983766,-923.46224156312,38.620172017202,1352368.4188867,1772.765006054,2621732.678423,43.820172017202,0,0
613.01687015229,-923.66403061234,38.624602460246,1352368.4188867,1772.765006054,2621732.678423,43.824602460246,0,0
613.01687046691,-923.86581966156,38.62903290329,1352368.4188867,1772.765006054,2621732.678423,43.82903290329,0,0
613.01687078154,-924.06760871078,38.633463346335,1352368.4188867,1772.765006054,2621732.678423,43.833463346335,0,0
613.01687109616,-924.26939776,38.637893789379,1352368.4188867,1772.765006054,2621732.678423,43.837893789379,0,0
613.01687141079,-924.47118680922,38.642324232423,1352368.4188867,1772.765006054,2621732.678423,43.842324232423,0,0
613.01687172541,-924.67297585844,38.646754675468,1352368.4188867,1772.765006054,2621732.678423,43.846754675468,0,0
613.01687204004,-924.87476490766,38.651185118512,1352368.4188867,1772.765006054,2621732.678423,43.851185118512,0,0
613.01687235466,-925.07655395688,38.655615561556,1352368.4188867,1772.765006054,2621732.678423,43.855615561556,0,0
613.01687266929,-925.2783430061,38.6600460046,1352368.4188867,1772.765006054,2621732.678423,43.8600460046,0,0
613.01687298391,-925.48013205532,38.664476447645,1352368.4188867,1772.765006054,2621732.678423,43.864476447645,0,0
613.01687329853,-925.68192110454,38.668906890689,1352368.4188867,1772.765006054,2621732.678423,43.868906890689,0,0
613.01687361316,-925.88371015376,38.673337333733,1352368.4188867,1772.765006054,2621732.678423,43.873337333733,0,0
613.01687392778,-926.08549920299,38.677767776778,1352368.4188867,1772.765006054,2621732.678423,43.877767776778,0,0
613.01687424241,-926.28728825221,38.682198219822,1352368.4188867,1772.765006054,2621732.678423,43.882198219822,0,0
613.01687455703,-926.48907730143,38.686628662866,1352368.4188867,1772.765006054,2621732.678423,43.886628662866,0,0
613.01687487166,-926.69086635065,38.691059105911,1352368.4188867,1772.765006054,2621732.678423,43.891059105911,0,0
613.01687518628,-926.89265539987,38.695489548955,1352368.4188867,1772.765006054,2621732.678423,43.895489548955,0,0
613.01687550091,-927.09444444909,38.699919991999,1352368.4188867,1772.765006054,2621732.678423,43.899919991999,0,0
613.01687581553,-927.29623349831,38.704350435044,1352368.4188867,1772.765006054,2621732.678423,43.904350435044,0,0
613.01687613016,-927.49802254753,38.708780878088,1352368.4188867,1772.765006054,2621732.678423,43.908780878088,0,0
613.01687644478,-927.69981159675,38.713211321132,1352368.4188867,1772.765006054,2621732.678423,43.913211321132,0,0
613.01687675948,-927.90160064631,38.717641764176,1352789.2647377,-846.25150286008,2616715.0980165,43.917641764176,0,0
613.01687707441,-928.10338969693,38.722072207221,1352789.2647377,-846.25150286008,2616715.0980165,43.922072207221,0,0
613.01687738934,-928.30517874754,38.726502650265,1352789.2647377,-846.25150286008,2616715.0980165,43.926502650265,0,0
613.01687770426,-928.50696779816,38.730933093309,1352789.2647377,-846.25150286008,2616715.0980165,43.930933093309,0,0
613.01687801919,-928.70875684878,38.735363536354,1352789.2647377,-846.25150286008,2616715.0980165,43.935363536354,0,0
613.01687833412,-928.91054589939,38.739793979398,1352789.2647377,-846.25150286008,2616715.0980165,43.939793979398,0,0
613.01687864906,-929.11233494898,38.744224422442,1352038.0390775,1914.3383027867,2613309.6446975,43.944224422442,0,0
613.016878964,-929.31412399833,38.748654865487,1352038.0390775,1914.3383027867,2613309.6446975,43.948654865487,0,0
613.01687927895,-929.51591304768,38.753085308531,1352038.0390775,1914.3383027867,2613309.6446975,43.953085308531,0,0
613.01687959389,-929.71770209703,38.757515751575,1352038.0390775,1914.3383027867,2613309.6446975,43.957515751575,0,0
613.01687990884,-929.91949114638,38.761946194619,1352038.0390775,1914.3383027867,2613309.6446975,43.961946194619,0,0
613.01688022378,-930.12128019574,38.766376637664,1352038.0390775,1914.3383027867,2613309.6446975,43.966376637664,0,0
613.01688053872,-930.32306924509,38.770807080708,1352038.0390775,1914.3383027867,2613309.6446975,43.970807080708,0,0
613.01688085367,-930.52485829444,38.775237523752,1352038.0390775,1914.3383027867,2613309.6446975,43.975237523752,0,0
613.01688116861,-930.72664734379,38.779667966797,1352038.0390775,1914.3383027867,2613309.6446975,43.979667966797,0,0
613.01688148356,-930.92843639314,38.784098409841,1352038.0390775,1914.3383027867,2613309.6446975,43.984098409841,0,0
613.0168817985,-931.13022544249,38.788528852885,1352038.0390775,1914.3383027867,2613309.6446975,43.988528852885,0,0
613.01688211345,-931.33201449185,38.79295929593,1352038.0390775,1914.3383027867,2613309.6446975,43.99295929593,0,0
613.01688242839,-931.5338035412,38.797389738974,1352038.0390775,1914.3383027867,2613309.6446975,43.997389738974,0,0
613.01688274333,-931.73559259055,38.801820182018,1352038.0390775,1914.3383027867,2613309.6446975,44.001820182018,0,0
613.01688305828,-931.9373816399,38.806250625063,1352038.0390775,1914.3383027867,2613309.6446975,44.006250625063,0,0
613.01688337322,-932.13917068925,38.810681068107,1352038.0390775,1914.3383027867,2613309.6446975,44.010681068107,0,0
613.01688368817,-932.3409597386,38.815111511151,1352038.0390775,1914.3383027867,2613309.6446975,44.015111511151,0,0
613.01688400311,-932.54274878796,38.819541954195,1352038.0390775,1914.3383027867,2613309.6446975,44.019541954195,0,0
613.01688431806,-932.74453783731,38.82397239724,1352038.0390775,1914.3383027867,2613309.6446975,44.02397239724,0,0
613.016884633,-932.94632688666,38.828402840284,1352038.0390775,1914.3383027867,2613309.6446975,44.028402840284,0,0
613.01688494794,-933.14811593601,38.832833283328,1352038.0390775,1914.3383027867,2613309.6446975,44.032833283328,0,0
613.01688526289,-933.34990498536,38.837263726373,1352038.0390775,1914.3383027867,2613309.6446975,44.037263726373,0,0
613.01688557783,-933.55169403471,38.841694169417,1352038.0390775,1914.3383027867,2613309.6446975,44.041694169417,0,0
613.01688589278,-933.75348308407,38.846124612461,1352038.0390775,1914.3383027867,2613309.6446975,44.046124612461,0,0
613.01688620772,-933.95527213342,38.850555055506,1352038.0390775,1914.3383027867,2613309.6446975,44.050555055506,0,0
613.01688652266,-934.15706118277,38.85498549855,1352038.0390775,1914.3383027867,2613309.6446975,44.05498549855,0,0
613.01688683761,-934.35885023212,38.859415941594,1352038.0390775,1914.3383027867,2613309.6446975,44.059415941594,0,0
613.01688715255,-934.56063928147,38.863846384638,1352038.0390775,1914.3383027867,2613309.6446975,44.063846384638,0,0
613.0168874675,-934.76242833082,38.868276827683,1352038.0390775,1914.3383027867,2613309.6446975,44.068276827683,0,0
613.01688778244,-934.96421738018,38.872707270727,1352038.0390775,1914.3383027867,2613309.6446975,44.072707270727,0,0
613.01688809739,-935.16600642953,38.877137713771,1352038.0390775,1914.3383027867,2613309.6446975,44.077137713771,0,0
613.01688841233,-935.36779547888,38.881568156816,1352038.0390775,1914.3383027867,2613309.6446975,44.081568156816,0,0
613.01688872727,-935.56958452823,38.88599859986,1352038.0390775,1914.3383027867,2613309.6446975,44.08599859986,0,0
613.01688904222,-935.77137357758,38.890429042904,1352038.0390775,1914.3383027867,2613309.6446975,44.090429042904,0,0
613.01688935716,-935.97316262693,38.894859485949,1352038.0390775,1914.3383027867,2613309.6446975,44.094859485949,0,0
613.01688967211,-936.17495167628,38.899289928993,1352038.0390775,1914.3383027867,2613309.6446975,44.099289928993,0,0
613.01688998705,-936.37674072564,38.903720372037,1352038.0390775,1914.3383027867,2613309.6446975,44.103720372037,0,0
613.01689030199,-936.57852977499,38.908150815082,1352038.0390775,1914.3383027867,2613309.6446975,44.108150815082,0,0
613.01689061694,-936.78031882434,38.912581258126,1352038.0390775,1914.3383027867,2613309.6446975,44.112581258126,0,0
613.01689093188,-936.98210787369,38.91701170117,1352038.0390775,1914.3383027867,2613309.6446975,44.11701170117,0,0
613.01689124683,-937.18389692304,38.921442144214,1352038.0390775,1914.3383027867,2613309.6446975,44.121442144214,0,0
613.01689156177,-937.38568597239,38.925872587259,1352038.0390775,1914.3383027867,2613309.6446975,44.125872587259,0,0
613.01689187672,-937.58747502175,38.930303030303,1352038.0390775,1914.3383027867,2613309.6446975,44.130303030303,0,0
613.01689219166,-937.7892640711,38.934733473347,1352038.0390775,1914.3383027867,2613309.6446975,44.134733473347,0,0
613.0168925066,-937.99105312045,38.939163916392,1352038.0390775,1914.3383027867,2613309.6446975,44.139163916392,0,0
613.01689282155,-938.1928421698,38.943594359436,1352038.0390775,1914.3383027867,2613309.6446975,44.143594359436,0,0
613.01689313649,-938.39463121915,38.94802480248,1352038.0390775,1914.3383027867,2613309.6446975,44.14802480248,0,0
613.01689345144,-938.5964202685,38.952455245525,1352038.0390775,1914.3383027867,2613309.6446975,44.152455245525,0,0
613.01689376638,-938.79820931786,38.956885688569,1352038.0390775,1914.3383027867,2613309.6446975,44.156885688569,0,0
613.01689408133,-938.99999836721,38.961316131613,1352038.0390775,1914.3383027867,2613309.6446975,44.161316131613,0,0
613.01689439627,-939.20178741656,38.965746574657,1352038.0390775,1914.3383027867,2613309.6446975,44.165746574657,0,0
613.01689471121,-939.40357646591,38.970177017702,1352038.0390775,1914.3383027867,2613309.6446975,44.170177017702,0,0
613.01689502616,-939.60536551526,38.974607460746,1352038.0390775,1914.3383027867,2613309.6446975,44.174607460746,0,0
613.0168953411,-939.80715456461,38.97903790379,1352038.0390775,1914.3383027867,2613309.6446975,44.17903790379,0,0
613.01689565605,-940.00894361397,38.983468346835,1352038.0390775,1914.3383027867,2613309.6446975,44.183468346835,0,0
613.01689597099,-940.21073266332,38.987898789879,1352038.0390775,1914.3383027867,2613309.6446975,44.187898789879,0,0
613.01689628593,-940.41252171267,38.992329232923,1352038.0390775,1914.3383027867,2613309.6446975,44.192329232923,0,0
613.01689660088,-940.61431076202,38.996759675968,1352038.0390775,1914.3383027867,2613309.6446975,44.196759675968,0,0
613.01689691582,-940.81609981137,39.001190119012,1352038.0390775,1914.3383027867,2613309.6446975,44.201190119012,0,0
613.01689723077,-941.01788886072,39.005620562056,1352038.0390775,1914.3383027867,2613309.6446975,44.205620562056,0,0
613.01689754571,-941.21967791008,39.010051005101,1352038.0390775,1914.3383027867,2613309.6446975,44.210051005101,0,0
613.01689786066,-941.42146695943,39.014481448145,1352038.0390775,1914.3383027867,2613309.6446975,44.214481448145,0,0
613.0168981756,-941.62325600878,39.018911891189,1352038.0390775,1914.3383027867,2613309.6446975,44.218911891189,0,0
613.01689849054,-941.82504505813,39.023342334233,1352038.0390775,1914.3383027867,2613309.6446975,44.223342334233,0,0
613.01689880549,-942.02683410748,39.027772777278,1352038.0390775,1914.3383027867,2613309.6446975,44.227772777278,0,0
613.01689912043,-942.22862315683,39.032203220322,1352038.0390775,1914.3383027867,2613309.6446975,44.232203220322,0,0
613.01689943538,-942.43041220619,39.036633663366,1352038.0390775,1914.3383027867,2613309.6446975,44.236633663366,0,0
613.01689975032,-942.63220125554,39.041064106411,1352038.0390775,1914.3383027867,2613309.6446975,44.241064106411,0,0
613.01690006526,-942.83399030489,39.045494549455,1352038.0390775,1914.3383027867,2613309.6446975,44.245494549455,0,0
613.01690038021,-943.03577935424,39.049924992499,1352038.0390775,1914.3383027867,2613309.6446975,44.249924992499,0,0
613.01690069515,-943.23756840359,39.054355435544,1352038.0390775,1914.3383027867,2613309.6446975,44.254355435544,0,0
613.0169010101,-943.43935745294,39.058785878588,1352038.0390775,1914.3383027867,2613309.6446975,44.258785878588,0,0
613.01690132504,-943.64114650229,39.063216321632,1352038.0390775,1914.3383027867,2613309.6446975,44.263216321632,0,0
613.01690163999,-943.84293555165,39.067646764676,1352038.0390775,1914.3383027867,2613309.6446975,44.267646764676,0,0
613.01690195493,-944.044724601,39.072077207721,1352038.0390775,1914.3383027867,2613309.6446975,44.272077207721,0,0
613.01690226987,-944.24651365035,39.076507650765,1352038.0390775,1914.3383027867,2613309.6446975,44.276507650765,0,0
613.01690258482,-944.4483026997,39.080938093809,1352038.0390775,1914.3383027867,2613309.6446975,44.280938093809,0,0
613.01690289976,-944.65009174905,39.085368536854,1352038.0390775,1914.3383027867,2613309.6446975,44.285368536854,0,0
613.01690321471,-944.8518807984,39.089798979898,1352038.0390775,1914.3383027867,2613309.6446975,44.289798979898,0,0
613.01690352965,-945.05366984776,39.094229422942,1352038.0390775,1914.3383027867,2613309.6446975,44.294229422942,0,0
613.0169038446,-945.25545889711,39.098659865987,1352038.0390775,1914.3383027867,2613309.6446975,44.298659865987,0,0
613.01690415954,-945.45724794646,39.103090309031,1352038.0390775,1914.3383027867,2613309.6446975,44.303090309031,0,0
613.01690447448,-945.65903699581,39.107520752075,1352038.0390775,1914.3383027867,2613309.6446975,44.307520752075,0,0
613.01690478943,-945.86082604516,39.11195119512,1352038.0390775,1914.3383027867,2613309.6446975,44.31195119512,0,0
613.01690510437,-946.06261509451,39.116381638164,1352038.0390775,1914.3383027867,2613309.6446975,44.316381638164,0,0
613.01690541932,-946.26440414387,39.120812081208,1352038.0390775,1914.3383027867,2613309.6446975,44.320812081208,0,0
613.01690573426,-946.46619319322,39.125242524252,1352038.0390775,1914.3383027867,2613309.6446975,44.325242524252,0,0
613.0169060492,-946.66798224257,39.129672967297,1352038.0390775,1914.3383027867,2613309.6446975,44.329672967297,0,0
613.01690636415,-946.86977129192,39.134103410341,1352038.0390775,1914.3383027867,2613309.6446975,44.334103410341,0,0
613.01690667909,-947.07156034127,39.138533853385,1352038.0390775,1914.3383027867,2613309.6446975,44.338533853385,0,0
613.01690699404,-947.27334939062,39.14296429643,1352038.0390775,1914.3383027867,2613309.6446975,44.34296429643,0,0
613.01690730898,-947.47513843998,39.147394739474,1352038.0390775,1914.3383027867,2613309.6446975,44.347394739474,0,0
613.01690762393,-947.67692748933,39.151825182518,1352038.0390775,1914.3383027867,2613309.6446975,44.351825182518,0,0
613.01690793887,-947.87871653868,39.156255625563,1352038.0390775,1914.3383027867,2613309.6446975,44.356255625563,0,0
613.01690825381,-948.08050558803,39.160686068607,1352038.0390775,1914.3383027867,2613309.6446975,44.360686068607,0,0
613.01690856876,-948.28229463738,39.165116511651,1352038.0390775,1914.3383027867,2613309.6446975,44.365116511651,0,0
613.0169088837,-948.48408368673,39.169546954695,1352038.0390775,1914.3383027867,2613309.6446975,44.369546954695,0,0
613.01690919865,-948.68587273609,39.17397739774,1352038.0390775,1914.3383027867,2613309.6446975,44.37397739774,0,0
613.01690951359,-948.88766178544,39.178407840784,1352038.0390775,1914.3383027867,2613309.6446975,44.378407840784,0,0
613.01690982853,-949.08945083479,39.182838283828,1352038.0390775,1914.3383027867,2613309.6446975,44.382838283828,0,0
613.01691014348,-949.29123988414,39.187268726873,1352038.0390775,1914.3383027867,2613309.6446975,44.387268726873,0,0
613.01691045842,-949.49302893349,39.191699169917,1352038.0390775,1914.3383027867,2613309.6446975,44.391699169917,0,0
613.01691077337,-949.69481798284,39.196129612961,1352038.0390775,1914.3383027867,2613309.6446975,44.396129612961,0,0
613.01691108831,-949.89660703219,39.200560056006,1352038.0390775,1914.3383027867,2613309.6446975,44.400560056006,0,0
613.01691140326,-950.09839608155,39.20499049905,1352038.0390775,1914.3383027867,2613309.6446975,44.40499049905,0,0
613.0169117182,-950.3001851309,39.209420942094,1352038.0390775,1914.3383027867,2613309.6446975,44.409420942094,0,0
613.01691203314,-950.50197418025,39.213851385139,1352038.0390775,1914.3383027867,2613309.6446975,44.413851385139,0,0
613.01691234809,-950.7037632296,39.218281828183,1352038.0390775,1914.3383027867,2613309.6446975,44.418281828183,0,0
613.01691266303,-950.90555227895,39.222712271227,1352038.0390775,1914.3383027867,2613309.6446975,44.422712271227,0,0
613.01691297798,-951.1073413283,39.227142714271,1352038.0390775,1914.3383027867,2613309.6446975,44.427142714271,0,0
613.01691329292,-951.30913037766,39.231573157316,1352038.0390775,1914.3383027867,2613309.6446975,44.431573157316,0,0
613.01691360786,-951.51091942701,39.23600360036,1352038.0390775,1914.3383027867,2613309.6446975,44.43600360036,0,0
613.01691392281,-951.71270847636,39.240434043404,1352038.0390775,1914.3383027867,2613309.6446975,44.440434043404,0,0
613.01691423775,-951.91449752571,39.244864486449,1352038.0390775,1914.3383027867,2613309.6446975,44.444864486449,0,0
613.0169145527,-952.11628657506,39.249294929493,1352038.0390775,1914.3383027867,2613309.6446975,44.449294929493,0,0
613.01691486764,-952.31807562441,39.253725372537,1352038.0390775,1914.3383027867,2613309.6446975,44.453725372537,0,0
613.01691518259,-952.51986467377,39.258155815582,1352038.0390775,1914.3383027867,2613309.6446975,44.458155815582,0,0
613.01691549753,-952.72165372312,39.262586258626,1352038.0390775,1914.3383027867,2613309.6446975,44.462586258626,0,0
613.01691581247,-952.92344277247,39.26701670167,1352038.0390775,1914.3383027867,2613309.6446975,44.46701670167,0,0
613.01691612742,-953.12523182182,39.271447144714,1352038.0390775,1914.3383027867,2613309.6446975,44.471447144714,0,0
613.01691644236,-953.32702087117,39.275877587759,1352038.0390775,1914.3383027867,2613309.6446975,44.475877587759,0,0
613.01691675731,-953.52880992052,39.280308030803,1352038.0390775,1914.3383027867,2613309.6446975,44.480308030803,0,0
613.01691707225,-953.73059896988,39.284738473847,1352038.0390775,1914.3383027867,2613309.6446975,44.484738473847,0,0
613.0169173872,-953.93238801923,39.289168916892,1352038.0390775,1914.3383027867,2613309.6446975,44.489168916892,0,0
613.01691770214,-954.13417706858,39.293599359936,1352038.0390775,1914.3383027867,2613309.6446975,44.493599359936,0,0
613.01691801708,-954.33596611793,39.29802980298,1352038.0390775,1914.3383027867,2613309.6446975,44.49802980298,0,0
613.01691833203,-954.53775516728,39.302460246025,1352038.0390775,1914.3383027867,2613309.6446975,44.502460246025,0,0
613.01691864697,-954.73954421663,39.306890689069,1352038.0390775,1914.3383027867,2613309.6446975,44.506890689069,0,0
613.01691896192,-954.94133326599,39.311321132113,1352038.0390775,1914.3383027867,2613309.6446975,44.511321132113,0,0
613.01691927686,-955.14312231534,39.315751575158,1352038.0390775,1914.3383027867,2613309.6446975,44.515751575158,0,0
613.0169195918,-955.34491136469,39.320182018202,1352038.0390775,1914.3383027867,2613309.6446975,44.520182018202,0,0
613.01691990675,-955.54670041404,39.324612461246,1352038.0390775,1914.3383027867,2613309.6446975,44.524612461246,0,0
613.01692022169,-955.74848946339,39.32904290429,1352038.0390775,1914.3383027867,2613309.6446975,44.52904290429,0,0
613.01692053669,-955.95027851274,39.333473347335,1352177.5221254,-1808.9810972169,2612540.2924438,44.533473347335,0,0
613.01692085169,-956.15206756209,39.337903790379,1352177.5221254,-1808.9810972169,2612540.2924438,44.537903790379,0,0
613.0169211667,-956.35385661143,39.342334233423,1352177.5221254,-1808.9810972169,2612540.2924438,44.542334233423,0,0
613.0169214817,-956.55564566078,39.346764676468,1352177.5221254,-1808.9810972169,2612540.2924438,44.546764676468,0,0
613.01692179671,-956.75743471012,39.351195119512,1352177.5221254,-1808.9810972169,2612540.2924438,44.551195119512,0,0
613.01692211171,-956.95922375947,39.355625562556,1352177.5221254,-1808.9810972169,2612540.2924438,44.555625562556,0,0
613.01692242672,-957.16101280882,39.360056005601,1352177.5221254,-1808.9810972169,2612540.2924438,44.560056005601,0,0
613.01692274172,-957.36280185816,39.364486448645,1352177.5221254,-1808.9810972169,2612540.2924438,44.564486448645,0,0
613.01692305672,-957.56459090751,39.368916891689,1352177.5221254,-1808.9810972169,2612540.2924438,44.568916891689,0,0
613.01692337173,-957.76637995686,39.373347334733,1352177.5221254,-1808.9810972169,2612540.2924438,44.573347334733,0,0
613.01692368673,-957.9681690062,39.377777777778,1352177.5221254,-1808.9810972169,2612540.2924438,44.577777777778,0,0
613.01692400174,-958.16995805555,39.382208220822,1352177.5221254,-1808.9810972169,2612540.2924438,44.582208220822,0,0
613.01692431674,-958.3717471049,39.386638663866,1352177.5221254,-1808.9810972169,2612540.2924438,44.586638663866,0,0
613.01692463175,-958.57353615424,39.391069106911,1352177.5221254,-1808.9810972169,2612540.2924438,44.591069106911,0,0
613.01692494675,-958.77532520359,39.395499549955,1352177.5221254,-1808.9810972169,2612540.2924438,44.595499549955,0,0
613.01692526175,-958.97711425294,39.399929992999,1352177.5221254,-1808.9810972169,2612540.2924438,44.599929992999,0,0
613.01692557676,-959.17890330228,39.404360436044,1352177.5221254,-1808.9810972169,2612540.2924438,44.604360436044,0,0
613.01692589176,-959.38069235163,39.408790879088,1352177.5221254,-1808.9810972169,2612540.2924438,44.608790879088,0,0
613.01692620677,-959.58248140097,39.413221322132,1352177.5221254,-1808.9810972169,2612540.2924438,44.613221322132,0,0
613.01692652177,-959.78427045032,39.417651765177,1352177.5221254,-1808.9810972169,2612540.2924438,44.617651765177,0,0
613.01692683678,-959.98605949967,39.422082208221,1352177.5221254,-1808.9810972169,2612540.2924438,44.622082208221,0,0
613.01692715178,-960.18784854901,39.426512651265,1352177.5221254,-1808.9810972169,2612540.2924438,44.626512651265,0,0
613.01692746678,-960.38963759836,39.430943094309,1352177.5221254,-1808.9810972169,2612540.2924438,44.630943094309,0,0
613.01692778179,-960.59142664771,39.435373537354,1352177.5221254,-1808.9810972169,2612540.2924438,44.635373537354,0,0
613.01692809679,-960.79321569705,39.439803980398,1352177.5221254,-1808.9810972169,2612540.2924438,44.639803980398,0,0
613.0169284118,-960.9950047464,39.444234423442,1352177.5221254,-1808.9810972169,2612540.2924438,44.644234423442,0,0
613.0169287268,-961.19679379575,39.448664866487,1352177.5221254,-1808.9810972169,2612540.2924438,44.648664866487,0,0
613.01692904181,-961.39858284509,39.453095309531,1352177.5221254,-1808.9810972169,2612540.2924438,44.653095309531,0,0
613.01692935681,-961.60037189444,39.457525752575,1352177.5221254,-1808.9810972169,2612540.2924438,44.657525752575,0,0
613.01692967182,-961.80216094379,39.46195619562,1352177.5221254,-1808.9810972169,2612540.2924438,44.66195619562,0,0
613.01692998682,-962.00394999313,39.466386638664,1352177.5221254,-1808.9810972169,2612540.2924438,44.666386638664,0,0
613.01693030182,-962.20573904248,39.470817081708,1352177.5221254,-1808.9810972169,2612540.2924438,44.670817081708,0,0
613.01693061683,-962.40752809182,39.475247524752,1352177.5221254,-1808.9810972169,2612540.2924438,44.675247524752,0,0
613.01693093183,-962.60931714117,39.479677967797,1352177.5221254,-1808.9810972169,2612540.2924438,44.679677967797,0,0
613.01693124684,-962.81110619052,39.484108410841,1352177.5221254,-1808.9810972169,2612540.2924438,44.684108410841,0,0
613.01693156184,-963.01289523986,39.488538853885,1352177.5221254,-1808.9810972169,2612540.2924438,44.688538853885,0,0
613.01693187685,-963.21468428921,39.49296929693,1352177.5221254,-1808.9810972169,2612540.2924438,44.69296929693,0,0
613.01693219185,-963.41647333856,39.497399739974,1352177.5221254,-1808.9810972169,2612540.2924438,44.697399739974,0,0
613.01693250685,-963.6182623879,39.501830183018,1352177.5221254,-1808.9810972169,2612540.2924438,44.701830183018,0,0
613.01693282186,-963.82005143725,39.506260626063,1352177.5221254,-1808.9810972169,2612540.2924438,44.706260626063,0,0
613.01693313686,-964.0218404866,39.510691069107,1352177.5221254,-1808.9810972169,2612540.2924438,44.710691069107,0,0
613.01693345187,-964.22362953594,39.515121512151,1352177.5221254,-1808.9810972169,2612540.2924438,44.715121512151,0,0
613.01693376687,-964.42541858529,39.519551955196,1352177.5221254,-1808.9810972169,2612540.2924438,44.719551955196,0,0
613.01693408188,-964.62720763464,39.52398239824,1352177.5221254,-1808.9810972169,2612540.2924438,44.72398239824,0,0
613.01693439688,-964.82899668398,39.528412841284,1352177.5221254,-1808.9810972169,2612540.2924438,44.728412841284,0,0
613.01693471189,-965.03078573333,39.532843284328,1352177.5221254,-1808.9810972169,2612540.2924438,44.732843284328,0,0
613.01693502689,-965.23257478267,39.537273727373,1352177.5221254,-1808.9810972169,2612540.2924438,44.737273727373,0,0
613.01693534189,-965.43436383202,39.541704170417,1352177.5221254,-1808.9810972169,2612540.2924438,44.741704170417,0,0
613.0169356569,-965.63615288137,39.546134613461,1352177.5221254,-1808.9810972169,2612540.2924438,44.746134613461,0,0
613.0169359719,-965.83794193071,39.550565056506,1352177.5221254,-1808.9810972169,2612540.2924438,44.750565056506,0,0
613.01693628691,-966.03973098006,39.55499549955,1352177.5221254,-1808.9810972169,2612540.2924438,44.75499549955,0,0
613.01693660191,-966.24152002941,39.559425942594,1352177.5221254,-1808.9810972169,2612540.2924438,44.759425942594,0,0
613.01693691692,-966.44330907875,39.563856385639,1352177.5221254,-1808.9810972169,2612540.2924438,44.763856385639,0,0
613.01693723192,-966.6450981281,39.568286828683,1352177.5221254,-1808.9810972169,2612540.2924438,44.768286828683,0,0
613.01693754692,-966.84688717745,39.572717271727,1352177.5221254,-1808.9810972169,2612540.2924438,44.772717271727,0,0
613.01693786193,-967.04867622679,39.577147714771,1352177.5221254,-1808.9810972169,2612540.2924438,44.777147714771,0,0
613.01693817693,-967.25046527614,39.581578157816,1352177.5221254,-1808.9810972169,2612540.2924438,44.781578157816,0,0
613.01693849194,-967.45225432549,39.58600860086,1352177.5221254,-1808.9810972169,2612540.2924438,44.78600860086,0,0
613.01693880694,-967.65404337483,39.590439043904,1352177.5221254,-1808.9810972169,2612540.2924438,44.790439043904,0,0
613.01693912195,-967.85583242418,39.594869486949,1352177.5221254,-1808.9810972169,2612540.2924438,44.794869486949,0,0
613.01693943695,-968.05762147352,39.599299929993,1352177.5221254,-1808.9810972169,2612540.2924438,44.799299929993,0,0
613.01693975196,-968.25941052287,39.603730373037,1352177.5221254,-1808.9810972169,2612540.2924438,44.803730373037,0,0
613.01694006696,-968.46119957222,39.608160816082,1352177.5221254,-1808.9810972169,2612540.2924438,44.808160816082,0,0
613.01694038196,-968.66298862156,39.612591259126,1352177.5221254,-1808.9810972169,2612540.2924438,44.812591259126,0,0
613.01694069697,-968.86477767091,39.61702170217,1352177.5221254,-1808.9810972169,2612540.2924438,44.81702170217,0,0
613.01694101197,-969.06656672026,39.621452145215,1352177.5221254,-1808.9810972169,2612540.2924438,44.821452145215,0,0
613.01694132698,-969.2683557696,39.625882588259,1352177.5221254,-1808.9810972169,2612540.2924438,44.825882588259,0,0
613.01694164198,-969.47014481895,39.630313031303,1352177.5221254,-1808.9810972169,2612540.2924438,44.830313031303,0,0
613.01694195699,-969.6719338683,39.634743474347,1352177.5221254,-1808.9810972169,2612540.2924438,44.834743474347,0,0
613.01694227199,-969.87372291764,39.639173917392,1352177.5221254,-1808.9810972169,2612540.2924438,44.839173917392,0,0
613.016942587,-970.07551196699,39.643604360436,1352177.5221254,-1808.9810972169,2612540.2924438,44.843604360436,0,0
613.016942902,-970.27730101634,39.64803480348,1352177.5221254,-1808.9810972169,2612540.2924438,44.84803480348,0,0
613.016943217,-970.47909006568,39.652465246525,1352177.5221254,-1808.9810972169,2612540.2924438,44.852465246525,0,0
613.01694353201,-970.68087911503,39.656895689569,1352177.5221254,-1808.9810972169,2612540.2924438,44.856895689569,0,0
613.01694384701,-970.88266816437,39.661326132613,1352177.5221254,-1808.9810972169,2612540.2924438,44.861326132613,0,0
613.01694416202,-971.08445721372,39.665756575658,1352177.5221254,-1808.9810972169,2612540.2924438,44.865756575658,0,0
613.01694447702,-971.28624626307,39.670187018702,1352177.5221254,-1808.9810972169,2612540.2924438,44.870187018702,0,0
613.01694479203,-971.48803531241,39.674617461746,1352177.5221254,-1808.9810972169,2612540.2924438,44.874617461746,0,0
613.01694510703,-971.68982436176,39.67904790479,1352177.5221254,-1808.9810972169,2612540.2924438,44.87904790479,0,0
613.01694542203,-971.89161341111,39.683478347835,1352177.5221254,-1808.9810972169,2612540.2924438,44.883478347835,0,0
613.01694573704,-972.09340246045,39.687908790879,1352177.5221254,-1808.9810972169,2612540.2924438,44.887908790879,0,0
613.01694605204,-972.2951915098,39.692339233923,1352177.5221254,-1808.9810972169,2612540.2924438,44.892339233923,0,0
613.01694636705,-972.49698055915,39.696769676968,1352177.5221254,-1808.9810972169,2612540.2924438,44.896769676968,0,0
613.01694668205,-972.69876960849,39.701200120012,1352177.5221254,-1808.9810972169,2612540.2924438,44.901200120012,0,0
613.01694699706,-972.90055865784,39.705630563056,1352177.5221254,-1808.9810972169,2612540.2924438,44.905630563056,0,0
613.01694731206,-973.10234770719,39.710061006101,1352177.5221254,-1808.9810972169,2612540.2924438,44.910061006101,0,0
613.01694762706,-973.30413675653,39.714491449145,1352177.5221254,-1808.9810972169,2612540.2924438,44.914491449145,0,0
613.01694794207,-973.50592580588,39.718921892189,1352177.5221254,-1808.9810972169,2612540.2924438,44.918921892189,0,0
613.01694825707,-973.70771485522,39.723352335234,1352177.5221254,-1808.9810972169,2612540.2924438,44.923352335234,0,0
613.01694857208,-973.90950390457,39.727782778278,1352177.5221254,-1808.9810972169,2612540.2924438,44.927782778278,0,0
613.01694888708,-974.11129295392,39.732213221322,1352177.5221254,-1808.9810972169,2612540.2924438,44.932213221322,0,0
613.01694920209,-974.31308200326,39.736643664366,1352177.5221254,-1808.9810972169,2612540.2924438,44.936643664366,0,0
613.01694951709,-974.51487105261,39.741074107411,1352177.5221254,-1808.9810972169,2612540.2924438,44.941074107411,0,0
613.0169498321,-974.71666010196,39.745504550455,1352177.5221254,-1808.9810972169,2612540.2924438,44.945504550455,0,0
613.0169501471,-974.9184491513,39.749934993499,1352177.5221254,-1808.9810972169,2612540.2924438,44.949934993499,0,0
613.0169504621,-975.12023820065,39.754365436544,1352177.5221254,-1808.9810972169,2612540.2924438,44.954365436544,0,0
613.01695077711,-975.32202725,39.758795879588,1352177.5221254,-1808.9810972169,2612540.2924438,44.958795879588,0,0
613.01695109211,-975.52381629934,39.763226322632,1352177.5221254,-1808.9810972169,2612540.2924438,44.963226322632,0,0
613.01695140712,-975.72560534869,39.767656765677,1352177.5221254,-1808.9810972169,2612540.2924438,44.967656765677,0,0
613.01695172212,-975.92739439804,39.772087208721,1352177.5221254,-1808.9810972169,2612540.2924438,44.972087208721,0,0
613.01695203713,-976.12918344738,39.776517651765,1352177.5221254,-1808.9810972169,2612540.2924438,44.976517651765,0,0
613.01695235213,-976.33097249673,39.780948094809,1352177.5221254,-1808.9810972169,2612540.2924438,44.980948094809,0,0
613.01695266713,-976.53276154607,39.785378537854,1352177.5221254,-1808.9810972169,2612540.2924438,44.985378537854,0,0
613.01695298214,-976.73455059542,39.789808980898,1352177.5221254,-1808.9810972169,2612540.2924438,44.989808980898,0,0
613.01695329714,-976.93633964477,39.794239423942,1352177.5221254,-1808.9810972169,2612540.2924438,44.994239423942,0,0
613.01695361215,-977.13812869411,39.798669866987,1352177.5221254,-1808.9810972169,2612540.2924438,44.998669866987,0,0
613.01695392715,-977.33991774346,39.803100310031,1352177.5221254,-1808.9810972169,2612540.2924438,45.003100310031,0,0
613.01695424216,-977.54170679281,39.807530753075,1352177.5221254,-1808.9810972169,2612540.2924438,45.007530753075,0,0
613.01695455716,-977.74349584215,39.81196119612,1352177.5221254,-1808.9810972169,2612540.2924438,45.01196119612,0,0
613.01695487217,-977.9452848915,39.816391639164,1352177.5221254,-1808.9810972169,2612540.2924438,45.016391639164,0,0
613.01695518717,-978.14707394085,39.820822082208,1352177.5221254,-1808.9810972169,2612540.2924438,45.020822082208,0,0
613.01695550217,-978.34886299019,39.825252525253,1352177.5221254,-1808.9810972169,2612540.2924438,45.025252525253,0,0
613.01695581718,-978.55065203954,39.829682968297,1352177.5221254,-1808.9810972169,2612540.2924438,45.029682968297,0,0
613.01695613218,-978.75244108889,39.834113411341,1352177.5221254,-1808.9810972169,2612540.2924438,45.034113411341,0,0
613.01695644719,-978.95423013823,39.838543854385,1352177.5221254,-1808.9810972169,2612540.2924438,45.038543854385,0,0
613.01695676219,-979.15601918758,39.84297429743,1352177.5221254,-1808.9810972169,2612540.2924438,45.04297429743,0,0
613.0169570772,-979.35780823692,39.847404740474,1352177.5221254,-1808.9810972169,2612540.2924438,45.047404740474,0,0
613.0169573922,-979.55959728627,39.851835183518,1352177.5221254,-1808.9810972169,2612540.2924438,45.051835183518,0,0
613.0169577072,-979.76138633562,39.856265626563,1352177.5221254,-1808.9810972169,2612540.2924438,45.056265626563,0,0
613.01695802221,-979.96317538496,39.860696069607,1352177.5221254,-1808.9810972169,2612540.2924438,45.060696069607,0,0
613.01695833721,-980.16496443431,39.865126512651,1352177.5221254,-1808.9810972169,2612540.2924438,45.065126512651,0,0
613.01695865222,-980.36675348366,39.869556955696,1352177.5221254,-1808.9810972169,2612540.2924438,45.069556955696,0,0
613.01695896722,-980.568542533,39.87398739874,1352177.5221254,-1808.9810972169,2612540.2924438,45.07398739874,0,0
613.01695928223,-980.77033158235,39.878417841784,1352177.5221254,-1808.9810972169,2612540.2924438,45.078417841784,0,0
613.01695959723,-980.9721206317,39.882848284828,1352177.5221254,-1808.9810972169,2612540.2924438,45.082848284828,0,0
613.01695991224,-981.17390968104,39.887278727873,1352177.5221254,-1808.9810972169,2612540.2924438,45.087278727873,0,0
613.01696022724,-981.37569873039,39.891709170917,1352177.5221254,-1808.9810972169,2612540.2924438,45.091709170917,0,0
613.01696054224,-981.57748777974,39.896139613961,1352177.5221254,-1808.9810972169,2612540.2924438,45.096139613961,0,0
613.01696085725,-981.77927682908,39.900570057006,1352177.5221254,-1808.9810972169,2612540.2924438,45.100570057006,0,0
613.01696117225,-981.98106587843,39.90500050005,1352177.5221254,-1808.9810972169,2612540.2924438,45.10500050005,0,0
613.01696148726,-982.18285492777,39.909430943094,1352177.5221254,-1808.9810972169,2612540.2924438,45.109430943094,0,0
613.01696180226,-982.38464397712,39.913861386139,1352177.5221254,-1808.9810972169,2612540.2924438,45.113861386139,0,0
613.01696211727,-982.58643302647,39.918291829183,1352177.5221254,-1808.9810972169,2612540.2924438,45.118291829183,0,0
613.01696243227,-982.78822207581,39.922722272227,1352177.5221254,-1808.9810972169,2612540.2924438,45.122722272227,0,0
613.01696274727,-982.99001112516,39.927152715272,1352177.5221254,-1808.9810972169,2612540.2924438,45.127152715272,0,0
613.01696306228,-983.19180017451,39.931583158316,1352177.5221254,-1808.9810972169,2612540.2924438,45.131583158316,0,0
613.01696337728,-983.39358922385,39.93601360136,1352177.5221254,-1808.9810972169,2612540.2924438,45.13601360136,0,0
613.01696369229,-983.5953782732,39.940444044404,1352177.5221254,-1808.9810972169,2612540.2924438,45.140444044404,0,0
613.01696400729,-983.79716732255,39.944874487449,1352177.5221254,-1808.9810972169,2612540.2924438,45.144874487449,0,0
613.0169643223,-983.99895637189,39.949304930493,1352177.5221254,-1808.9810972169,2612540.2924438,45.149304930493,0,0
613.0169646373,-984.20074542124,39.953735373537,1352177.5221254,-1808.9810972169,2612540.2924438,45.153735373537,0,0
613.01696495231,-984.40253447059,39.958165816582,1352177.5221254,-1808.9810972169,2612540.2924438,45.158165816582,0,0
613.01696526731,-984.60432351993,39.962596259626,1352177.5221254,-1808.9810972169,2612540.2924438,45.162596259626,0,0
613.01696558231,-984.80611256928,39.96702670267,1352177.5221254,-1808.9810972169,2612540.2924438,45.16702670267,0,0
613.01696589732,-985.00790161862,39.971457145715,1352177.5221254,-1808.9810972169,2612540.2924438,45.171457145715,0,0
613.01696621232,-985.20969066797,39.975887588759,1352177.5221254,-1808.9810972169,2612540.2924438,45.175887588759,0,0
613.01696652733,-985.41147971732,39.980318031803,1352177.5221254,-1808.9810972169,2612540.2924438,45.180318031803,0,0
613.01696684233,-985.61326876666,39.984748474847,1352177.5221254,-1808.9810972169,2612540.2924438,45.184748474847,0,0
613.01696715734,-985.81505781601,39.989178917892,1352177.5221254,-1808.9810972169,2612540.2924438,45.189178917892,0,0
613.01696747234,-986.01684686536,39.993609360936,1352177.5221254,-1808.9810972169,2612540.2924438,45.193609360936,0,0
613.01696778734,-986.2186359147,39.99803980398,1352177.5221254,-1808.9810972169,2612540.2924438,45.19803980398,0,0
613.01696810235,-986.42042496405,40.002470247025,1352177.5221254,-1808.9810972169,2612540.2924438,45.202470247025,0,0
613.01696841735,-986.6222140134,40.006900690069,1352177.5221254,-1808.9810972169,2612540.2924438,45.206900690069,0,0
613.01696873236,-986.82400306274,40.011331133113,1352177.5221254,-1808.9810972169,2612540.2924438,45.211331133113,0,0
613.01696904736,-987.02579211209,40.015761576158,1352177.5221254,-1808.9810972169,2612540.2924438,45.215761576158,0,0
613.01696936237,-987.22758116144,40.020192019202,1352177.5221254,-1808.9810972169,2612540.2924438,45.220192019202,0,0
613.01696967737,-987.42937021078,40.024622462246,1352177.5221254,-1808.9810972169,2612540.2924438,45.224622462246,0,0
613.01696999238,-987.63115926013,40.029052905291,1352177.5221254,-1808.9810972169,2612540.2924438,45.229052905291,0,0
613.01697030738,-987.83294830947,40.033483348335,1352177.5221254,-1808.9810972169,2612540.2924438,45.233483348335,0,0
613.01697062238,-988.03473735882,40.037913791379,1352177.5221254,-1808.9810972169,2612540.2924438,45.237913791379,0,0
613.01697093739,-988.23652640817,40.042344234423,1352177.5221254,-1808.9810972169,2612540.2924438,45.242344234423,0,0
613.01697125239,-988.43831545751,40.046774677468,1352177.5221254,-1808.9810972169,2612540.2924438,45.246774677468,0,0
613.0169715674,-988.64010450686,40.051205120512,1352177.5221254,-1808.9810972169,2612540.2924438,45.251205120512,0,0
613.0169718824,-988.84189355621,40.055635563556,1352177.5221254,-1808.9810972169,2612540.2924438,45.255635563556,0,0
613.01697219741,-989.04368260555,40.060066006601,1352177.5221254,-1808.9810972169,2612540.2924438,45.260066006601,0,0
613.01697251241,-989.2454716549,40.064496449645,1352177.5221254,-1808.9810972169,2612540.2924438,45.264496449645,0,0
613.01697282741,-989.44726070425,40.068926892689,1352177.5221254,-1808.9810972169,2612540.2924438,45.268926892689,0,0
613.01697314242,-989.64904975359,40.073357335734,1352177.5221254,-1808.9810972169,2612540.2924438,45.273357335734,0,0
613.01697345742,-989.85083880294,40.077787778778,1352177.5221254,-1808.9810972169,2612540.2924438,45.277787778778,0,0
613.01697377243,-990.05262785229,40.082218221822,1352177.5221254,-1808.9810972169,2612540.2924438,45.282218221822,0,0
613.01697408743,-990.25441690163,40.086648664866,1352177.5221254,-1808.9810972169,2612540.2924438,45.286648664866,0,0
613.01697440244,-990.45620595098,40.091079107911,1352177.5221254,-1808.9810972169,2612540.2924438,45.291079107911,0,0
613.01697471744,-990.65799500032,40.095509550955,1352177.5221254,-1808.9810972169,2612540.2924438,45.295509550955,0,0
613.01697503245,-990.85978404967,40.099939993999,1352177.5221254,-1808.9810972169,2612540.2924438,45.299939993999,0,0
613.01697534745,-991.06157309902,40.104370437044,1352177.5221254,-1808.9810972169,2612540.2924438,45.304370437044,0,0
613.01697566245,-991.26336214836,40.108800880088,1352177.5221254,-1808.9810972169,2612540.2924438,45.308800880088,0,0
613.01697597746,-991.46515119771,40.113231323132,1352177.5221254,-1808.9810972169,2612540.2924438,45.313231323132,0,0
613.01697629246,-991.66694024706,40.117661766177,1352177.5221254,-1808.9810972169,2612540.2924438,45.317661766177,0,0
613.01697660747,-991.8687292964,40.122092209221,1352177.5221254,-1808.9810972169,2612540.2924438,45.322092209221,0,0
613.01697692247,-992.07051834575,40.126522652265,1352177.5221254,-1808.9810972169,2612540.2924438,45.326522652265,0,0
613.01697723748,-992.2723073951,40.13095309531,1352177.5221254,-1808.9810972169,2612540.2924438,45.33095309531,0,0
613.01697755248,-992.47409644444,40.135383538354,1352177.5221254,-1808.9810972169,2612540.2924438,45.335383538354,0,0
613.01697786748,-992.67588549379,40.139813981398,1352177.5221254,-1808.9810972169,2612540.2924438,45.339813981398,0,0
613.01697818249,-992.87767454314,40.144244424442,1352177.5221254,-1808.9810972169,2612540.2924438,45.344244424442,0,0
613.01697849749,-993.07946359248,40.148674867487,1352177.5221254,-1808.9810972169,2612540.2924438,45.348674867487,0,0
613.0169788125,-993.28125264183,40.153105310531,1352177.5221254,-1808.9810972169,2612540.2924438,45.353105310531,0,0
613.0169791275,-993.48304169117,40.157535753575,1352177.5221254,-1808.9810972169,2612540.2924438,45.357535753575,0,0
613.01697944251,-993.68483074052,40.16196619662,1352177.5221254,-1808.9810972169,2612540.2924438,45.36196619662,0,0
613.01697975751,-993.88661978987,40.166396639664,1352177.5221254,-1808.9810972169,2612540.2924438,45.366396639664,0,0
613.01698007252,-994.08840883921,40.170827082708,1352177.5221254,-1808.9810972169,2612540.2924438,45.370827082708,0,0
613.01698038752,-994.29019788856,40.175257525753,1352177.5221254,-1808.9810972169,2612540.2924438,45.375257525753,0,0
613.01698070252,-994.49198693791,40.179687968797,1352177.5221254,-1808.9810972169,2612540.2924438,45.379687968797,0,0
613.01698101753,-994.69377598725,40.184118411841,1352177.5221254,-1808.9810972169,2612540.2924438,45.384118411841,0,0
613.01698133253,-994.8955650366,40.188548854885,1352177.5221254,-1808.9810972169,2612540.2924438,45.388548854885,0,0
613.01698164754,-995.09735408595,40.19297929793,1352177.5221254,-1808.9810972169,2612540.2924438,45.39297929793,0,0
613.01698196254,-995.29914313529,40.197409740974,1352177.5221254,-1808.9810972169,2612540.2924438,45.397409740974,0,0
613.01698227755,-995.50093218464,40.201840184018,1352177.5221254,-1808.9810972169,2612540.2924438,45.401840184018,0,0
613.01698259255,-995.70272123398,40.206270627063,1352177.5221254,-1808.9810972169,2612540.2924438,45.406270627063,0,0
613.01698290755,-995.90451028333,40.210701070107,1352177.5221254,-1808.9810972169,2612540.2924438,45.410701070107,0,0
613.01698322256,-996.10629933268,40.215131513151,1352177.5221254,-1808.9810972169,2612540.2924438,45.415131513151,0,0
613.01698353756,-996.30808838202,40.219561956196,1352177.5221254,-1808.9810972169,2612540.2924438,45.419561956196,0,0
613.01698385257,-996.50987743137,40.22399239924,1352177.5221254,-1808.9810972169,2612540.2924438,45.42399239924,0,0
613.01698416757,-996.71166648072,40.228422842284,1352177.5221254,-1808.9810972169,2612540.2924438,45.428422842284,0,0
613.01698448258,-996.91345553006,40.232853285329,1352177.5221254,-1808.9810972169,2612540.2924438,45.432853285329,0,0
613.01698479758,-997.11524457941,40.237283728373,1352177.5221254,-1808.9810972169,2612540.2924438,45.437283728373,0,0
613.01698511259,-997.31703362876,40.241714171417,1352177.5221254,-1808.9810972169,2612540.2924438,45.441714171417,0,0
613.01698542759,-997.5188226781,40.246144614461,1352177.5221254,-1808.9810972169,2612540.2924438,45.446144614461,0,0
613.01698574259,-997.72061172745,40.250575057506,1352177.5221254,-1808.9810972169,2612540.2924438,45.450575057506,0,0
613.0169860576,-997.9224007768,40.25500550055,1352177.5221254,-1808.9810972169,2612540.2924438,45.45500550055,0,0
613.0169863726,-998.12418982614,40.259435943594,1352177.5221254,-1808.9810972169,2612540.2924438,45.459435943594,0,0
613.01698668761,-998.32597887549,40.263866386639,1352177.5221254,-1808.9810972169,2612540.2924438,45.463866386639,0,0
613.01698700261,-998.52776792483,40.268296829683,1352177.5221254,-1808.9810972169,2612540.2924438,45.468296829683,0,0
613.01698731762,-998.72955697418,40.272727272727,1352177.5221254,-1808.9810972169,2612540.2924438,45.472727272727,0,0
613.01698763262,-998.93134602353,40.277157715772,1352177.5221254,-1808.9810972169,2612540.2924438,45.477157715772,0,0
613.01698794762,-999.13313507287,40.281588158816,1352177.5221254,-1808.9810972169,2612540.2924438,45.481588158816,0,0
613.01698826263,-999.33492412222,40.28601860186,1352177.5221254,-1808.9810972169,2612540.2924438,45.48601860186,0,0
613.01698857763,-999.53671317157,40.290449044904,1352177.5221254,-1808.9810972169,2612540.2924438,45.490449044904,0,0
613.01698889264,-999.73850222091,40.294879487949,1352177.5221254,-1808.9810972169,2612540.2924438,45.494879487949,0,0
613.01698920764,-999.94029127026,40.299309930993,1352177.5221254,-1808.9810972169,2612540.2924438,45.499309930993,0,0
613.01698952265,-1000.1420803196,40.303740374037,1352177.5221254,-1808.9810972169,2612540.2924438,45.503740374037,0,0
613.01698983765,-1000.343869369,40.308170817082,1352177.5221254,-1808.9810972169,2612540.2924438,45.508170817082,0,0
613.01699015266,-1000.5456584183,40.312601260126,1352177.5221254,-1808.9810972169,2612540.2924438,45.512601260126,0,0
613.01699046766,-1000.7474474676,40.31703170317,1352177.5221254,-1808.9810972169,2612540.2924438,45.51703170317,0,0
613.01699078266,-1000.949236517,40.321462146215,1352177.5221254,-1808.9810972169,2612540.2924438,45.521462146215,0,0
613.01699109767,-1001.1510255663,40.325892589259,1352177.5221254,-1808.9810972169,2612540.2924438,45.525892589259,0,0
613.01699141267,-1001.3528146157,40.330323032303,1352177.5221254,-1808.9810972169,2612540.2924438,45.530323032303,0,0
613.01699172768,-1001.554603665,40.334753475348,1352177.5221254,-1808.9810972169,2612540.2924438,45.534753475348,0,0
613.01699204268,-1001.7563927144,40.339183918392,1352177.5221254,-1808.9810972169,2612540.2924438,45.539183918392,0,0
613.01699235769,-1001.9581817637,40.343614361436,1352177.5221254,-1808.9810972169,2612540.2924438,45.543614361436,0,0
613.01699267269,-1002.1599708131,40.34804480448,1352177.5221254,-1808.9810972169,2612540.2924438,45.54804480448,0,0
613.01699298769,-1002.3617598624,40.352475247525,1352177.5221254,-1808.9810972169,2612540.2924438,45.552475247525,0,0
613.0169933027,-1002.5635489118,40.356905690569,1352177.5221254,-1808.9810972169,2612540.2924438,45.556905690569,0,0
613.0169936177,-1002.7653379611,40.361336133613,1352177.5221254,-1808.9810972169,2612540.2924438,45.561336133613,0,0
613.01699393271,-1002.9671270105,40.365766576658,1352177.5221254,-1808.9810972169,2612540.2924438,45.565766576658,0,0
613.01699424771,-1003.1689160598,40.370197019702,1352177.5221254,-1808.9810972169,2612540.2924438,45.570197019702,0,0
613.01699456272,-1003.3707051091,40.374627462746,1352177.5221254,-1808.9810972169,2612540.2924438,45.574627462746,0,0
613.01699487772,-1003.5724941585,40.379057905791,1352177.5221254,-1808.9810972169,2612540.2924438,45.579057905791,0,0
613.01699519273,-1003.7742832078,40.383488348835,1352177.5221254,-1808.9810972169,2612540.2924438,45.583488348835,0,0
613.01699550773,-1003.9760722572,40.387918791879,1352177.5221254,-1808.9810972169,2612540.2924438,45.587918791879,0,0
613.01699582273,-1004.1778613065,40.392349234923,1352177.5221254,-1808.9810972169,2612540.2924438,45.592349234923,0,0
613.01699613774,-1004.3796503559,40.396779677968,1352177.5221254,-1808.9810972169,2612540.2924438,45.596779677968,0,0
613.01699645274,-1004.5814394052,40.401210121012,1352177.5221254,-1808.9810972169,2612540.2924438,45.601210121012,0,0
613.01699676775,-1004.7832284546,40.405640564056,1352177.5221254,-1808.9810972169,2612540.2924438,45.605640564056,0,0
613.01699708275,-1004.9850175039,40.410071007101,1352177.5221254,-1808.9810972169,2612540.2924438,45.610071007101,0,0
613.01699739776,-1005.1868065533,40.414501450145,1352177.5221254,-1808.9810972169,2612540.2924438,45.614501450145,0,0
613.01699771276,-1005.3885956026,40.418931893189,1352177.5221254,-1808.9810972169,2612540.2924438,45.618931893189,0,0
613.01699802776,-1005.590384652,40.423362336234,1352177.5221254,-1808.9810972169,2612540.2924438,45.623362336234,0,0
613.01699834277,-1005.7921737013,40.427792779278,1352177.5221254,-1808.9810972169,2612540.2924438,45.627792779278,0,0
613.01699865777,-1005.9939627507,40.432223222322,1352177.5221254,-1808.9810972169,2612540.2924438,45.632223222322,0,0
613.01699897278,-1006.1957518,40.436653665367,1352177.5221254,-1808.9810972169,2612540.2924438,45.636653665367,0,0
613.01699928778,-1006.3975408493,40.441084108411,1352177.5221254,-1808.9810972169,2612540.2924438,45.641084108411,0,0
613.01699960279,-1006.5993298987,40.445514551455,1352177.5221254,-1808.9810972169,2612540.2924438,45.645514551455,0,0
613.01699991779,-1006.801118948,40.449944994499,1352177.5221254,-1808.9810972169,2612540.2924438,45.649944994499,0,0
613.0170002328,-1007.0029079974,40.454375437544,1352177.5221254,-1808.9810972169,2612540.2924438,45.654375437544,0,0
613.0170005478,-1007.2046970467,40.458805880588,1352177.5221254,-1808.9810972169,2612540.2924438,45.658805880588,0,0
613.0170008628,-1007.4064860961,40.463236323632,1352177.5221254,-1808.9810972169,2612540.2924438,45.663236323632,0,0
613.01700117781,-1007.6082751454,40.467666766677,1352177.5221254,-1808.9810972169,2612540.2924438,45.667666766677,0,0
613.01700149281,-1007.8100641948,40.472097209721,1352177.5221254,-1808.9810972169,2612540.2924438,45.672097209721,0,0
613.01700180782,-1008.0118532441,40.476527652765,1352177.5221254,-1808.9810972169,2612540.2924438,45.676527652765,0,0
613.01700212282,-1008.2136422935,40.48095809581,1352177.5221254,-1808.9810972169,2612540.2924438,45.68095809581,0,0
613.01700243783,-1008.4154313428,40.485388538854,1352177.5221254,-1808.9810972169,2612540.2924438,45.685388538854,0,0
613.01700275283,-1008.6172203922,40.489818981898,1352177.5221254,-1808.9810972169,2612540.2924438,45.689818981898,0,0
613.01700306783,-1008.8190094415,40.494249424942,1352177.5221254,-1808.9810972169,2612540.2924438,45.694249424942,0,0
613.01700338284,-1009.0207984908,40.498679867987,1352177.5221254,-1808.9810972169,2612540.2924438,45.698679867987,0,0
613.01700369784,-1009.2225875402,40.503110311031,1352177.5221254,-1808.9810972169,2612540.2924438,45.703110311031,0,0
613.01700401285,-1009.4243765895,40.507540754075,1352177.5221254,-1808.9810972169,2612540.2924438,45.707540754075,0,0
613.01700432785,-1009.6261656389,40.51197119712,1352177.5221254,-1808.9810972169,2612540.2924438,45.71197119712,0,0
613.01700464286,-1009.8279546882,40.516401640164,1352177.5221254,-1808.9810972169,2612540.2924438,45.716401640164,0,0
613.01700495786,-1010.0297437376,40.520832083208,1352177.5221254,-1808.9810972169,2612540.2924438,45.720832083208,0,0
613.01700527287,-1010.2315327869,40.525262526253,1352177.5221254,-1808.9810972169,2612540.2924438,45.725262526253,0,0
613.01700558787,-1010.4333218363,40.529692969297,1352177.5221254,-1808.9810972169,2612540.2924438,45.729692969297,0,0
613.01700590287,-1010.6351108856,40.534123412341,1352177.5221254,-1808.9810972169,2612540.2924438,45.734123412341,0,0
613.01700621788,-1010.836899935,40.538553855386,1352177.5221254,-1808.9810972169,2612540.2924438,45.738553855386,0,0
613.01700653288,-1011.0386889843,40.54298429843,1352177.5221254,-1808.9810972169,2612540.2924438,45.74298429843,0,0
613.01700684789,-1011.2404780337,40.547414741474,1352177.5221254,-1808.9810972169,2612540.2924438,45.747414741474,0,0
613.01700716289,-1011.442267083,40.551845184518,1352177.5221254,-1808.9810972169,2612540.2924438,45.751845184518,0,0
613.0170074779,-1011.6440561324,40.556275627563,1352177.5221254,-1808.9810972169,2612540.2924438,45.756275627563,0,0
613.0170077929,-1011.8458451817,40.560706070607,1352177.5221254,-1808.9810972169,2612540.2924438,45.760706070607,0,0
613.0170081079,-1012.047634231,40.565136513651,1352177.5221254,-1808.9810972169,2612540.2924438,45.765136513651,0,0
613.01700842291,-1012.2494232804,40.569566956696,1352177.5221254,-1808.9810972169,2612540.2924438,45.769566956696,0,0
613.01700873791,-1012.4512123297,40.57399739974,1352177.5221254,-1808.9810972169,2612540.2924438,45.77399739974,0,0
613.01700905292,-1012.6530013791,40.578427842784,1352177.5221254,-1808.9810972169,2612540.2924438,45.778427842784,0,0
613.01700936792,-1012.8547904284,40.582858285829,1352177.5221254,-1808.9810972169,2612540.2924438,45.782858285829,0,0
613.01700968293,-1013.0565794778,40.587288728873,1352177.5221254,-1808.9810972169,2612540.2924438,45.787288728873,0,0
613.01700999793,-1013.2583685271,40.591719171917,1352177.5221254,-1808.9810972169,2612540.2924438,45.791719171917,0,0
613.01701031293,-1013.4601575765,40.596149614961,1352177.5221254,-1808.9810972169,2612540.2924438,45.796149614961,0,0
613.01701062794,-1013.6619466258,40.600580058006,1352177.5221254,-1808.9810972169,2612540.2924438,45.800580058006,0,0
613.01701094294,-1013.8637356752,40.60501050105,1352177.5221254,-1808.9810972169,2612540.2924438,45.80501050105,0,0
613.01701125795,-1014.0655247245,40.609440944094,1352177.5221254,-1808.9810972169,2612540.2924438,45.809440944094,0,0
613.01701157295,-1014.2673137739,40.613871387139,1352177.5221254,-1808.9810972169,2612540.2924438,45.813871387139,0,0
613.01701188796,-1014.4691028232,40.618301830183,1352177.5221254,-1808.9810972169,2612540.2924438,45.818301830183,0,0
613.01701220296,-1014.6708918725,40.622732273227,1352177.5221254,-1808.9810972169,2612540.2924438,45.822732273227,0,0
613.01701251797,-1014.8726809219,40.627162716272,1352177.5221254,-1808.9810972169,2612540.2924438,45.827162716272,0,0
613.01701283297,-1015.0744699712,40.631593159316,1352177.5221254,-1808.9810972169,2612540.2924438,45.831593159316,0,0
613.01701314797,-1015.2762590206,40.63602360236,1352177.5221254,-1808.9810972169,2612540.2924438,45.83602360236,0,0
613.01701346298,-1015.4780480699,40.640454045405,1352177.5221254,-1808.9810972169,2612540.2924438,45.840454045405,0,0
613.01701377798,-1015.6798371193,40.644884488449,1352177.5221254,-1808.9810972169,2612540.2924438,45.844884488449,0,0
613.01701409299,-1015.8816261686,40.649314931493,1352177.5221254,-1808.9810972169,2612540.2924438,45.849314931493,0,0
613.01701440799,-1016.083415218,40.653745374537,1352177.5221254,-1808.9810972169,2612540.2924438,45.853745374537,0,0
613.017014723,-1016.2852042673,40.658175817582,1352177.5221254,-1808.9810972169,2612540.2924438,45.858175817582,0,0
613.017015038,-1016.4869933167,40.662606260626,1352177.5221254,-1808.9810972169,2612540.2924438,45.862606260626,0,0
613.01701535301,-1016.688782366,40.66703670367,1352177.5221254,-1808.9810972169,2612540.2924438,45.86703670367,0,0
613.01701566801,-1016.8905714154,40.671467146715,1352177.5221254,-1808.9810972169,2612540.2924438,45.871467146715,0,0
613.01701598301,-1017.0923604647,40.675897589759,1352177.5221254,-1808.9810972169,2612540.2924438,45.875897589759,0,0
613.01701629802,-1017.2941495141,40.680328032803,1352177.5221254,-1808.9810972169,2612540.2924438,45.880328032803,0,0
613.01701661302,-1017.4959385634,40.684758475848,1352177.5221254,-1808.9810972169,2612540.2924438,45.884758475848,0,0
613.01701692803,-1017.6977276127,40.689188918892,1352177.5221254,-1808.9810972169,2612540.2924438,45.889188918892,0,0
613.01701724303,-1017.8995166621,40.693619361936,1352177.5221254,-1808.9810972169,2612540.2924438,45.893619361936,0,0
613.01701755804,-1018.1013057114,40.69804980498,1352177.5221254,-1808.9810972169,2612540.2924438,45.89804980498,0,0
613.01701787304,-1018.3030947608,40.702480248025,1352177.5221254,-1808.9810972169,2612540.2924438,45.902480248025,0,0
613.01701818804,-1018.5048838101,40.706910691069,1352177.5221254,-1808.9810972169,2612540.2924438,45.906910691069,0,0
613.01701850305,-1018.7066728595,40.711341134113,1352177.5221254,-1808.9810972169,2612540.2924438,45.911341134113,0,0
613.01701881805,-1018.9084619088,40.715771577158,1352177.5221254,-1808.9810972169,2612540.2924438,45.915771577158,0,0
613.01701913306,-1019.1102509582,40.720202020202,1352177.5221254,-1808.9810972169,2612540.2924438,45.920202020202,0,0
613.01701944806,-1019.3120400075,40.724632463246,1352177.5221254,-1808.9810972169,2612540.2924438,45.924632463246,0,0
613.01701976307,-1019.5138290569,40.729062906291,1352177.5221254,-1808.9810972169,2612540.2924438,45.929062906291,0,0
613.01702007807,-1019.7156181062,40.733493349335,1352177.5221254,-1808.9810972169,2612540.2924438,45.933493349335,0,0
613.01702039307,-1019.9174071556,40.737923792379,1352177.5221254,-1808.9810972169,2612540.2924438,45.937923792379,0,0
613.01702070808,-1020.1191962049,40.742354235424,1352177.5221254,-1808.9810972169,2612540.2924438,45.942354235424,0,0
613.01702102308,-1020.3209852542,40.746784678468,1352177.5221254,-1808.9810972169,2612540.2924438,45.946784678468,0,0
613.01702133809,-1020.5227743036,40.751215121512,1352177.5221254,-1808.9810972169,2612540.2924438,45.951215121512,0,0
613.01702165309,-1020.7245633529,40.755645564556,1352177.5221254,-1808.9810972169,2612540.2924438,45.955645564556,0,0
613.0170219681,-1020.9263524023,40.760076007601,1352177.5221254,-1808.9810972169,2612540.2924438,45.960076007601,0,0
613.0170222831,-1021.1281414516,40.764506450645,1352177.5221254,-1808.9810972169,2612540.2924438,45.964506450645,0,0
613.01702259811,-1021.329930501,40.768936893689,1352177.5221254,-1808.9810972169,2612540.2924438,45.968936893689,0,0
613.01702291311,-1021.5317195503,40.773367336734,1352177.5221254,-1808.9810972169,2612540.2924438,45.973367336734,0,0
613.01702322811,-1021.7335085997,40.777797779778,1352177.5221254,-1808.9810972169,2612540.2924438,45.977797779778,0,0
613.01702354312,-1021.935297649,40.782228222822,1352177.5221254,-1808.9810972169,2612540.2924438,45.982228222822,0,0
613.01702385812,-1022.1370866984,40.786658665867,1352177.5221254,-1808.9810972169,2612540.2924438,45.986658665867,0,0
613.01702417313,-1022.3388757477,40.791089108911,1352177.5221254,-1808.9810972169,2612540.2924438,45.991089108911,0,0
613.01702448813,-1022.5406647971,40.795519551955,1352177.5221254,-1808.9810972169,2612540.2924438,45.995519551955,0,0
613.01702480314,-1022.7424538464,40.799949994999,1352177.5221254,-1808.9810972169,2612540.2924438,45.999949994999,0,0
613.01702511814,-1022.9442428958,40.804380438044,1352177.5221254,-1808.9810972169,2612540.2924438,46.004380438044,0,0
613.01702543314,-1023.1460319451,40.808810881088,1352177.5221254,-1808.9810972169,2612540.2924438,46.008810881088,0,0
613.01702574815,-1023.3478209944,40.813241324132,1352177.5221254,-1808.9810972169,2612540.2924438,46.013241324132,0,0
613.01702606315,-1023.5496100438,40.817671767177,1352177.5221254,-1808.9810972169,2612540.2924438,46.017671767177,0,0
613.01702637816,-1023.7513990931,40.822102210221,1352177.5221254,-1808.9810972169,2612540.2924438,46.022102210221,0,0
613.01702669316,-1023.9531881425,40.826532653265,1352177.5221254,-1808.9810972169,2612540.2924438,46.026532653265,0,0
613.01702700817,-1024.1549771918,40.83096309631,1352177.5221254,-1808.9810972169,2612540.2924438,46.03096309631,0,0
613.01702732317,-1024.3567662412,40.835393539354,1352177.5221254,-1808.9810972169,2612540.2924438,46.035393539354,0,0
613.01702763818,-1024.5585552905,40.839823982398,1352177.5221254,-1808.9810972169,2612540.2924438,46.039823982398,0,0
613.01702795318,-1024.7603443399,40.844254425443,1352177.5221254,-1808.9810972169,2612540.2924438,46.044254425443,0,0
613.01702826818,-1024.9621333892,40.848684868487,1352177.5221254,-1808.9810972169,2612540.2924438,46.048684868487,0,0
613.01702858319,-1025.1639224386,40.853115311531,1352177.5221254,-1808.9810972169,2612540.2924438,46.053115311531,0,0
613.01702889819,-1025.3657114879,40.857545754575,1352177.5221254,-1808.9810972169,2612540.2924438,46.057545754575,0,0
613.0170292132,-1025.5675005373,40.86197619762,1352177.5221254,-1808.9810972169,2612540.2924438,46.06197619762,0,0
613.0170295282,-1025.7692895866,40.866406640664,1352177.5221254,-1808.9810972169,2612540.2924438,46.066406640664,0,0
613.01702984321,-1025.9710786359,40.870837083708,1352177.5221254,-1808.9810972169,2612540.2924438,46.070837083708,0,0
613.01703015821,-1026.1728676853,40.875267526753,1352177.5221254,-1808.9810972169,2612540.2924438,46.075267526753,0,0
613.01703047321,-1026.3746567346,40.879697969797,1352177.5221254,-1808.9810972169,2612540.2924438,46.079697969797,0,0
613.01703078822,-1026.576445784,40.884128412841,1352177.5221254,-1808.9810972169,2612540.2924438,46.084128412841,0,0
613.01703110322,-1026.7782348333,40.888558855886,1352177.5221254,-1808.9810972169,2612540.2924438,46.088558855886,0,0
613.01703141812,-1026.9800238822,40.89298929893,1350268.3736312,708.34684902574,2610134.1600477,46.09298929893,0,0
613.01703173288,-1027.1818129305,40.897419741974,1350268.3736312,708.34684902574,2610134.1600477,46.097419741974,0,0
613.01703204765,-1027.3836019787,40.901850185018,1350268.3736312,708.34684902574,2610134.1600477,46.101850185018,0,0
613.01703236241,-1027.585391027,40.906280628063,1350268.3736312,708.34684902574,2610134.1600477,46.106280628063,0,0
613.01703267717,-1027.7871800753,40.910711071107,1350268.3736312,708.34684902574,2610134.1600477,46.110711071107,0,0
613.01703299194,-1027.9889691236,40.915141514151,1350268.3736312,708.34684902574,2610134.1600477,46.115141514151,0,0
613.0170333067,-1028.1907581719,40.919571957196,1350268.3736312,708.34684902574,2610134.1600477,46.119571957196,0,0
613.01703362147,-1028.3925472201,40.92400240024,1350268.3736312,708.34684902574,2610134.1600477,46.12400240024,0,0
613.01703393623,-1028.5943362684,40.928432843284,1350268.3736312,708.34684902574,2610134.1600477,46.128432843284,0,0
613.01703425099,-1028.7961253167,40.932863286329,1350268.3736312,708.34684902574,2610134.1600477,46.132863286329,0,0
613.01703456576,-1028.997914365,40.937293729373,1350268.3736312,708.34684902574,2610134.1600477,46.137293729373,0,0
613.01703488052,-1029.1997034133,40.941724172417,1350268.3736312,708.34684902574,2610134.1600477,46.141724172417,0,0
613.01703519529,-1029.4014924615,40.946154615462,1350268.3736312,708.34684902574,2610134.1600477,46.146154615462,0,0
613.01703551005,-1029.6032815098,40.950585058506,1350268.3736312,708.34684902574,2610134.1600477,46.150585058506,0,0
613.01703582481,-1029.8050705581,40.95501550155,1350268.3736312,708.34684902574,2610134.1600477,46.15501550155,0,0
613.01703613958,-1030.0068596064,40.959445944594,1350268.3736312,708.34684902574,2610134.1600477,46.159445944594,0,0
613.01703645434,-1030.2086486547,40.963876387639,1350268.3736312,708.34684902574,2610134.1600477,46.163876387639,0,0
613.01703676911,-1030.4104377029,40.968306830683,1350268.3736312,708.34684902574,2610134.1600477,46.168306830683,0,0
613.01703708387,-1030.6122267512,40.972737273727,1350268.3736312,708.34684902574,2610134.1600477,46.172737273727,0,0
613.01703739919,-1030.8140158003,40.977167716772,1352879.7790632,367.96284164236,2604494.3549104,46.177167716772,0,0
613.01703771469,-1031.0158048495,40.981598159816,1352879.7790632,367.96284164236,2604494.3549104,46.181598159816,0,0
613.01703803018,-1031.2175938988,40.98602860286,1352879.7790632,367.96284164236,2604494.3549104,46.18602860286,0,0
613.01703834568,-1031.4193829481,40.990459045905,1352879.7790632,367.96284164236,2604494.3549104,46.190459045905,0,0
613.01703866118,-1031.6211719974,40.994889488949,1352879.7790632,367.96284164236,2604494.3549104,46.194889488949,0,0
613.01703897667,-1031.8229610466,40.999319931993,1352879.7790632,367.96284164236,2604494.3549104,46.199319931993,0,0
613.01703929217,-1032.0247500959,41.003750375037,1352879.7790632,367.96284164236,2604494.3549104,46.203750375038,0,0
613.01703960766,-1032.2265391452,41.008180818082,1352879.7790632,367.96284164236,2604494.3549104,46.208180818082,0,0
613.01703992316,-1032.4283281945,41.012611261126,1352879.7790632,367.96284164236,2604494.3549104,46.212611261126,0,0
613.01704023865,-1032.6301172437,41.01704170417,1352879.7790632,367.96284164236,2604494.3549104,46.21704170417,0,0
613.01704055415,-1032.831906293,41.021472147215,1352879.7790632,367.96284164236,2604494.3549104,46.221472147215,0,0
613.01704086964,-1033.0336953423,41.025902590259,1352879.7790632,367.96284164236,2604494.3549104,46.225902590259,0,0
613.01704118514,-1033.2354843916,41.030333033303,1352879.7790632,367.96284164236,2604494.3549104,46.230333033303,0,0
613.01704150064,-1033.4372734408,41.034763476348,1352879.7790632,367.96284164236,2604494.3549104,46.234763476348,0,0
613.01704181613,-1033.6390624901,41.039193919392,1352879.7790632,367.96284164236,2604494.3549104,46.239193919392,0,0
613.01704213163,-1033.8408515394,41.043624362436,1352879.7790632,367.96284164236,2604494.3549104,46.243624362436,0,0
613.01704244712,-1034.0426405887,41.048054805481,1352879.7790632,367.96284164236,2604494.3549104,46.248054805481,0,0
613.01704276262,-1034.244429638,41.052485248525,1352879.7790632,367.96284164236,2604494.3549104,46.252485248525,0,0
613.01704307811,-1034.4462186872,41.056915691569,1352879.7790632,367.96284164236,2604494.3549104,46.256915691569,0,0
613.01704339361,-1034.6480077365,41.061346134613,1352879.7790632,367.96284164236,2604494.3549104,46.261346134613,0,0
613.0170437091,-1034.8497967858,41.065776577658,1352879.7790632,367.96284164236,2604494.3549104,46.265776577658,0,0
613.0170440246,-1035.0515858351,41.070207020702,1352879.7790632,367.96284164236,2604494.3549104,46.270207020702,0,0
613.0170443401,-1035.2533748843,41.074637463746,1352879.7790632,367.96284164236,2604494.3549104,46.274637463746,0,0
613.01704465559,-1035.4551639336,41.079067906791,1352879.7790632,367.96284164236,2604494.3549104,46.279067906791,0,0
613.01704497109,-1035.6569529829,41.083498349835,1352879.7790632,367.96284164236,2604494.3549104,46.283498349835,0,0
613.01704528658,-1035.8587420322,41.087928792879,1352879.7790632,367.96284164236,2604494.3549104,46.287928792879,0,0
613.01704560208,-1036.0605310814,41.092359235924,1352879.7790632,367.96284164236,2604494.3549104,46.292359235924,0,0
613.01704591757,-1036.2623201307,41.096789678968,1352879.7790632,367.96284164236,2604494.3549104,46.296789678968,0,0
613.01704623307,-1036.46410918,41.101220122012,1352879.7790632,367.96284164236,2604494.3549104,46.301220122012,0,0
613.01704654856,-1036.6658982293,41.105650565057,1352879.7790632,367.96284164236,2604494.3549104,46.305650565057,0,0
613.01704686406,-1036.8676872785,41.110081008101,1352879.7790632,367.96284164236,2604494.3549104,46.310081008101,0,0
613.01704717956,-1037.0694763278,41.114511451145,1352879.7790632,367.96284164236,2604494.3549104,46.314511451145,0,0
613.01704749505,-1037.2712653771,41.118941894189,1352879.7790632,367.96284164236,2604494.3549104,46.318941894189,0,0
613.01704781055,-1037.4730544264,41.123372337234,1352879.7790632,367.96284164236,2604494.3549104,46.323372337234,0,0
613.01704812604,-1037.6748434756,41.127802780278,1352879.7790632,367.96284164236,2604494.3549104,46.327802780278,0,0
613.01704844154,-1037.8766325249,41.132233223322,1352879.7790632,367.96284164236,2604494.3549104,46.332233223322,0,0
613.01704875703,-1038.0784215742,41.136663666367,1352879.7790632,367.96284164236,2604494.3549104,46.336663666367,0,0
613.01704907253,-1038.2802106235,41.141094109411,1352879.7790632,367.96284164236,2604494.3549104,46.341094109411,0,0
613.01704938802,-1038.4819996728,41.145524552455,1352879.7790632,367.96284164236,2604494.3549104,46.345524552455,0,0
613.01704970352,-1038.683788722,41.1499549955,1352879.7790632,367.96284164236,2604494.3549104,46.3499549955,0,0
613.01705001902,-1038.8855777713,41.154385438544,1352879.7790632,367.96284164236,2604494.3549104,46.354385438544,0,0
613.01705033451,-1039.0873668206,41.158815881588,1352879.7790632,367.96284164236,2604494.3549104,46.358815881588,0,0
613.01705065001,-1039.2891558699,41.163246324632,1352879.7790632,367.96284164236,2604494.3549104,46.363246324632,0,0
613.0170509655,-1039.4909449191,41.167676767677,1352879.7790632,367.96284164236,2604494.3549104,46.367676767677,0,0
613.017051281,-1039.6927339684,41.172107210721,1352879.7790632,367.96284164236,2604494.3549104,46.372107210721,0,0
613.01705159649,-1039.8945230177,41.176537653765,1352879.7790632,367.96284164236,2604494.3549104,46.376537653765,0,0
613.01705191199,-1040.096312067,41.18096809681,1352879.7790632,367.96284164236,2604494.3549104,46.38096809681,0,0
613.01705222749,-1040.2981011162,41.185398539854,1352879.7790632,367.96284164236,2604494.3549104,46.385398539854,0,0
613.01705254298,-1040.4998901655,41.189828982898,1352879.7790632,367.96284164236,2604494.3549104,46.389828982898,0,0
613.01705285848,-1040.7016792148,41.194259425943,1352879.7790632,367.96284164236,2604494.3549104,46.394259425943,0,0
613.01705317397,-1040.9034682641,41.198689868987,1352879.7790632,367.96284164236,2604494.3549104,46.398689868987,0,0
613.01705348947,-1041.1052573133,41.203120312031,1352879.7790632,367.96284164236,2604494.3549104,46.403120312031,0,0
613.01705380496,-1041.3070463626,41.207550755076,1352879.7790632,367.96284164236,2604494.3549104,46.407550755076,0,0
613.01705412046,-1041.5088354119,41.21198119812,1352879.7790632,367.96284164236,2604494.3549104,46.41198119812,0,0
613.01705443595,-1041.7106244612,41.216411641164,1352879.7790632,367.96284164236,2604494.3549104,46.416411641164,0,0
613.01705475145,-1041.9124135105,41.220842084208,1352879.7790632,367.96284164236,2604494.3549104,46.420842084208,0,0
613.01705506695,-1042.1142025597,41.225272527253,1352879.7790632,367.96284164236,2604494.3549104,46.425272527253,0,0
613.01705538244,-1042.315991609,41.229702970297,1352879.7790632,367.96284164236,2604494.3549104,46.429702970297,0,0
613.01705569794,-1042.5177806583,41.234133413341,1352879.7790632,367.96284164236,2604494.3549104,46.434133413341,0,0
613.01705601343,-1042.7195697076,41.238563856386,1352879.7790632,367.96284164236,2604494.3549104,46.438563856386,0,0
613.01705632893,-1042.9213587568,41.24299429943,1352879.7790632,367.96284164236,2604494.3549104,46.44299429943,0,0
613.01705664442,-1043.1231478061,41.247424742474,1352879.7790632,367.96284164236,2604494.3549104,46.447424742474,0,0
613.01705695992,-1043.3249368554,41.251855185519,1352879.7790632,367.96284164236,2604494.3549104,46.451855185519,0,0
613.01705727541,-1043.5267259047,41.256285628563,1352879.7790632,367.96284164236,2604494.3549104,46.456285628563,0,0
613.01705759091,-1043.7285149539,41.260716071607,1352879.7790632,367.96284164236,2604494.3549104,46.460716071607,0,0
613.01705790641,-1043.9303040032,41.265146514651,1352879.7790632,367.96284164236,2604494.3549104,46.465146514651,0,0
613.0170582219,-1044.1320930525,41.269576957696,1352879.7790632,367.96284164236,2604494.3549104,46.469576957696,0,0
613.0170585374,-1044.3338821018,41.27400740074,1352879.7790632,367.96284164236,2604494.3549104,46.47400740074,0,0
613.01705885289,-1044.535671151,41.278437843784,1352879.7790632,367.96284164236,2604494.3549104,46.478437843784,0,0
613.01705916839,-1044.7374602003,41.282868286829,1352879.7790632,367.96284164236,2604494.3549104,46.482868286829,0,0
613.01705948388,-1044.9392492496,41.287298729873,1352879.7790632,367.96284164236,2604494.3549104,46.487298729873,0,0
613.01705979938,-1045.1410382989,41.291729172917,1352879.7790632,367.96284164236,2604494.3549104,46.491729172917,0,0
613.01706011487,-1045.3428273482,41.296159615962,1352879.7790632,367.96284164236,2604494.3549104,46.496159615962,0,0
613.01706043037,-1045.5446163974,41.300590059006,1352879.7790632,367.96284164236,2604494.3549104,46.500590059006,0,0
613.01706074587,-1045.7464054467,41.30502050205,1352879.7790632,367.96284164236,2604494.3549104,46.50502050205,0,0
613.01706106136,-1045.948194496,41.309450945095,1352879.7790632,367.96284164236,2604494.3549104,46.509450945095,0,0
613.01706137686,-1046.1499835453,41.313881388139,1352879.7790632,367.96284164236,2604494.3549104,46.513881388139,0,0
613.01706169235,-1046.3517725945,41.318311831183,1352879.7790632,367.96284164236,2604494.3549104,46.518311831183,0,0
613.01706200785,-1046.5535616438,41.322742274227,1352879.7790632,367.96284164236,2604494.3549104,46.522742274227,0,0
613.01706232334,-1046.7553506931,41.327172717272,1352879.7790632,367.96284164236,2604494.3549104,46.527172717272,0,0
613.01706263884,-1046.9571397424,41.331603160316,1352879.7790632,367.96284164236,2604494.3549104,46.531603160316,0,0
613.01706295433,-1047.1589287916,41.33603360336,1352879.7790632,367.96284164236,2604494.3549104,46.53603360336,0,0
613.01706326983,-1047.3607178409,41.340464046405,1352879.7790632,367.96284164236,2604494.3549104,46.540464046405,0,0
613.01706358533,-1047.5625068902,41.344894489449,1352879.7790632,367.96284164236,2604494.3549104,46.544894489449,0,0
613.01706390082,-1047.7642959395,41.349324932493,1352879.7790632,367.96284164236,2604494.3549104,46.549324932493,0,0
613.01706421632,-1047.9660849887,41.353755375538,1352879.7790632,367.96284164236,2604494.3549104,46.553755375538,0,0
613.01706453181,-1048.167874038,41.358185818582,1352879.7790632,367.96284164236,2604494.3549104,46.558185818582,0,0
613.01706484731,-1048.3696630873,41.362616261626,1352879.7790632,367.96284164236,2604494.3549104,46.562616261626,0,0
613.0170651628,-1048.5714521366,41.36704670467,1352879.7790632,367.96284164236,2604494.3549104,46.56704670467,0,0
613.0170654783,-1048.7732411858,41.371477147715,1352879.7790632,367.96284164236,2604494.3549104,46.571477147715,0,0
613.01706579379,-1048.9750302351,41.375907590759,1352879.7790632,367.96284164236,2604494.3549104,46.575907590759,0,0
613.01706610929,-1049.1768192844,41.380338033803,1352879.7790632,367.96284164236,2604494.3549104,46.580338033803,0,0
613.01706642479,-1049.3786083337,41.384768476848,1352879.7790632,367.96284164236,2604494.3549104,46.584768476848,0,0
613.01706674028,-1049.580397383,41.389198919892,1352879.7790632,367.96284164236,2604494.3549104,46.589198919892,0,0
613.01706705578,-1049.7821864322,41.393629362936,1352879.7790632,367.96284164236,2604494.3549104,46.593629362936,0,0
613.01706737127,-1049.9839754815,41.398059805981,1352879.7790632,367.96284164236,2604494.3549104,46.598059805981,0,0
613.01706768677,-1050.1857645308,41.402490249025,1352879.7790632,367.96284164236,2604494.3549104,46.602490249025,0,0
613.01706800226,-1050.3875535801,41.406920692069,1352879.7790632,367.96284164236,2604494.3549104,46.606920692069,0,0
613.01706831776,-1050.5893426293,41.411351135114,1352879.7790632,367.96284164236,2604494.3549104,46.611351135114,0,0
613.01706863325,-1050.7911316786,41.415781578158,1352879.7790632,367.96284164236,2604494.3549104,46.615781578158,0,0
613.01706894875,-1050.9929207279,41.420212021202,1352879.7790632,367.96284164236,2604494.3549104,46.620212021202,0,0
613.01706926425,-1051.1947097772,41.424642464246,1352879.7790632,367.96284164236,2604494.3549104,46.624642464246,0,0
613.01706957974,-1051.3964988264,41.429072907291,1352879.7790632,367.96284164236,2604494.3549104,46.629072907291,0,0
613.01706989524,-1051.5982878757,41.433503350335,1352879.7790632,367.96284164236,2604494.3549104,46.633503350335,0,0
613.01707021073,-1051.800076925,41.437933793379,1352879.7790632,367.96284164236,2604494.3549104,46.637933793379,0,0
613.01707052623,-1052.0018659743,41.442364236424,1352879.7790632,367.96284164236,2604494.3549104,46.642364236424,0,0
613.01707084172,-1052.2036550235,41.446794679468,1352879.7790632,367.96284164236,2604494.3549104,46.646794679468,0,0
613.01707115722,-1052.4054440728,41.451225122512,1352879.7790632,367.96284164236,2604494.3549104,46.651225122512,0,0
613.01707147272,-1052.6072331221,41.455655565557,1352879.7790632,367.96284164236,2604494.3549104,46.655655565557,0,0
613.01707178821,-1052.8090221714,41.460086008601,1352879.7790632,367.96284164236,2604494.3549104,46.660086008601,0,0
613.01707210371,-1053.0108112207,41.464516451645,1352879.7790632,367.96284164236,2604494.3549104,46.664516451645,0,0
613.0170724192,-1053.2126002699,41.468946894689,1352879.7790632,367.96284164236,2604494.3549104,46.668946894689,0,0
613.0170727347,-1053.4143893192,41.473377337734,1352879.7790632,367.96284164236,2604494.3549104,46.673377337734,0,0
613.01707305019,-1053.6161783685,41.477807780778,1352879.7790632,367.96284164236,2604494.3549104,46.677807780778,0,0
613.01707336569,-1053.8179674178,41.482238223822,1352879.7790632,367.96284164236,2604494.3549104,46.682238223822,0,0
613.01707368118,-1054.019756467,41.486668666867,1352879.7790632,367.96284164236,2604494.3549104,46.686668666867,0,0
613.01707399668,-1054.2215455163,41.491099109911,1352879.7790632,367.96284164236,2604494.3549104,46.691099109911,0,0
613.01707431218,-1054.4233345656,41.495529552955,1352879.7790632,367.96284164236,2604494.3549104,46.695529552955,0,0
613.01707462767,-1054.6251236149,41.499959996,1352879.7790632,367.96284164236,2604494.3549104,46.699959996,0,0
613.01707494317,-1054.8269126641,41.504390439044,1352879.7790632,367.96284164236,2604494.3549104,46.704390439044,0,0
613.01707525866,-1055.0287017134,41.508820882088,1352879.7790632,367.96284164236,2604494.3549104,46.708820882088,0,0
613.01707557416,-1055.2304907627,41.513251325133,1352879.7790632,367.96284164236,2604494.3549104,46.713251325133,0,0
613.01707588965,-1055.432279812,41.517681768177,1352879.7790632,367.96284164236,2604494.3549104,46.717681768177,0,0
613.01707620515,-1055.6340688612,41.522112211221,1352879.7790632,367.96284164236,2604494.3549104,46.722112211221,0,0
613.01707652064,-1055.8358579105,41.526542654265,1352879.7790632,367.96284164236,2604494.3549104,46.726542654265,0,0
613.01707683614,-1056.0376469598,41.53097309731,1352879.7790632,367.96284164236,2604494.3549104,46.73097309731,0,0
613.01707715164,-1056.2394360091,41.535403540354,1352879.7790632,367.96284164236,2604494.3549104,46.735403540354,0,0
613.01707746713,-1056.4412250583,41.539833983398,1352879.7790632,367.96284164236,2604494.3549104,46.739833983398,0,0
613.01707778263,-1056.6430141076,41.544264426443,1352879.7790632,367.96284164236,2604494.3549104,46.744264426443,0,0
613.01707809812,-1056.8448031569,41.548694869487,1352879.7790632,367.96284164236,2604494.3549104,46.748694869487,0,0
613.01707841362,-1057.0465922062,41.553125312531,1352879.7790632,367.96284164236,2604494.3549104,46.753125312531,0,0
613.01707872911,-1057.2483812555,41.557555755576,1352879.7790632,367.96284164236,2604494.3549104,46.757555755576,0,0
613.01707904461,-1057.4501703047,41.56198619862,1352879.7790632,367.96284164236,2604494.3549104,46.76198619862,0,0
613.0170793601,-1057.651959354,41.566416641664,1352879.7790632,367.96284164236,2604494.3549104,46.766416641664,0,0
613.0170796756,-1057.8537484033,41.570847084708,1352879.7790632,367.96284164236,2604494.3549104,46.770847084708,0,0
613.0170799911,-1058.0555374526,41.575277527753,1352879.7790632,367.96284164236,2604494.3549104,46.775277527753,0,0
613.01708030659,-1058.2573265018,41.579707970797,1352879.7790632,367.96284164236,2604494.3549104,46.779707970797,0,0
613.01708062209,-1058.4591155511,41.584138413841,1352879.7790632,367.96284164236,2604494.3549104,46.784138413841,0,0
613.01708093758,-1058.6609046004,41.588568856886,1352879.7790632,367.96284164236,2604494.3549104,46.788568856886,0,0
613.01708125308,-1058.8626936497,41.59299929993,1352879.7790632,367.96284164236,2604494.3549104,46.79299929993,0,0
613.01708156857,-1059.0644826989,41.597429742974,1352879.7790632,367.96284164236,2604494.3549104,46.797429742974,0,0
613.01708188407,-1059.2662717482,41.601860186019,1352879.7790632,367.96284164236,2604494.3549104,46.801860186019,0,0
613.01708219956,-1059.4680607975,41.606290629063,1352879.7790632,367.96284164236,2604494.3549104,46.806290629063,0,0
613.01708251506,-1059.6698498468,41.610721072107,1352879.7790632,367.96284164236,2604494.3549104,46.810721072107,0,0
613.01708283056,-1059.871638896,41.615151515152,1352879.7790632,367.96284164236,2604494.3549104,46.815151515152,0,0
613.01708314605,-1060.0734279453,41.619581958196,1352879.7790632,367.96284164236,2604494.3549104,46.819581958196,0,0
613.01708346155,-1060.2752169946,41.62401240124,1352879.7790632,367.96284164236,2604494.3549104,46.82401240124,0,0
613.01708377704,-1060.4770060439,41.628442844284,1352879.7790632,367.96284164236,2604494.3549104,46.828442844284,0,0
613.01708409254,-1060.6787950932,41.632873287329,1352879.7790632,367.96284164236,2604494.3549104,46.832873287329,0,0
613.01708440803,-1060.8805841424,41.637303730373,1352879.7790632,367.96284164236,2604494.3549104,46.837303730373,0,0
613.01708472353,-1061.0823731917,41.641734173417,1352879.7790632,367.96284164236,2604494.3549104,46.841734173417,0,0
613.01708503902,-1061.284162241,41.646164616462,1352879.7790632,367.96284164236,2604494.3549104,46.846164616462,0,0
613.01708535452,-1061.4859512903,41.650595059506,1352879.7790632,367.96284164236,2604494.3549104,46.850595059506,0,0
613.01708567002,-1061.6877403395,41.65502550255,1352879.7790632,367.96284164236,2604494.3549104,46.85502550255,0,0
613.01708598551,-1061.8895293888,41.659455945595,1352879.7790632,367.96284164236,2604494.3549104,46.859455945595,0,0
613.01708630101,-1062.0913184381,41.663886388639,1352879.7790632,367.96284164236,2604494.3549104,46.863886388639,0,0
613.0170866165,-1062.2931074874,41.668316831683,1352879.7790632,367.96284164236,2604494.3549104,46.868316831683,0,0
613.017086932,-1062.4948965366,41.672747274727,1352879.7790632,367.96284164236,2604494.3549104,46.872747274727,0,0
613.01708724749,-1062.6966855859,41.677177717772,1352879.7790632,367.96284164236,2604494.3549104,46.877177717772,0,0
613.01708756299,-1062.8984746352,41.681608160816,1352879.7790632,367.96284164236,2604494.3549104,46.881608160816,0,0
613.01708787848,-1063.1002636845,41.68603860386,1352879.7790632,367.96284164236,2604494.3549104,46.88603860386,0,0
613.01708819398,-1063.3020527337,41.690469046905,1352879.7790632,367.96284164236,2604494.3549104,46.890469046905,0,0
613.01708850948,-1063.503841783,41.694899489949,1352879.7790632,367.96284164236,2604494.3549104,46.894899489949,0,0
613.01708882497,-1063.7056308323,41.699329932993,1352879.7790632,367.96284164236,2604494.3549104,46.899329932993,0,0
613.01708914047,-1063.9074198816,41.703760376038,1352879.7790632,367.96284164236,2604494.3549104,46.903760376038,0,0
613.01708945596,-1064.1092089309,41.708190819082,1352879.7790632,367.96284164236,2604494.3549104,46.908190819082,0,0
613.01708977146,-1064.3109979801,41.712621262126,1352879.7790632,367.96284164236,2604494.3549104,46.912621262126,0,0
613.01709008695,-1064.5127870294,41.717051705171,1352879.7790632,367.96284164236,2604494.3549104,46.917051705171,0,0
613.01709040245,-1064.7145760787,41.721482148215,1352879.7790632,367.96284164236,2604494.3549104,46.921482148215,0,0
613.01709071794,-1064.916365128,41.725912591259,1352879.7790632,367.96284164236,2604494.3549104,46.925912591259,0,0
613.01709103344,-1065.1181541772,41.730343034303,1352879.7790632,367.96284164236,2604494.3549104,46.930343034303,0,0
613.01709134894,-1065.3199432265,41.734773477348,1352879.7790632,367.96284164236,2604494.3549104,46.934773477348,0,0
613.01709166443,-1065.5217322758,41.739203920392,1352879.7790632,367.96284164236,2604494.3549104,46.939203920392,0,0
613.01709197993,-1065.7235213251,41.743634363436,1352879.7790632,367.96284164236,2604494.3549104,46.943634363436,0,0
613.01709229542,-1065.9253103743,41.748064806481,1352879.7790632,367.96284164236,2604494.3549104,46.948064806481,0,0
613.01709261092,-1066.1270994236,41.752495249525,1352879.7790632,367.96284164236,2604494.3549104,46.952495249525,0,0
613.01709292641,-1066.3288884729,41.756925692569,1352879.7790632,367.96284164236,2604494.3549104,46.956925692569,0,0
613.01709324191,-1066.5306775222,41.761356135614,1352879.7790632,367.96284164236,2604494.3549104,46.961356135614,0,0
613.01709355741,-1066.7324665714,41.765786578658,1352879.7790632,367.96284164236,2604494.3549104,46.965786578658,0,0
613.0170938729,-1066.9342556207,41.770217021702,1352879.7790632,367.96284164236,2604494.3549104,46.970217021702,0,0
613.0170941884,-1067.13604467,41.774647464746,1352879.7790632,367.96284164236,2604494.3549104,46.974647464746,0,0
613.01709450389,-1067.3378337193,41.779077907791,1352879.7790632,367.96284164236,2604494.3549104,46.979077907791,0,0
613.01709481939,-1067.5396227685,41.783508350835,1352879.7790632,367.96284164236,2604494.3549104,46.983508350835,0,0
613.01709513488,-1067.7414118178,41.787938793879,1352879.7790632,367.96284164236,2604494.3549104,46.987938793879,0,0
613.01709545038,-1067.9432008671,41.792369236924,1352879.7790632,367.96284164236,2604494.3549104,46.992369236924,0,0
613.01709576587,-1068.1449899164,41.796799679968,1352879.7790632,367.96284164236,2604494.3549104,46.996799679968,0,0
613.01709608137,-1068.3467789657,41.801230123012,1352879.7790632,367.96284164236,2604494.3549104,47.001230123012,0,0
613.01709639687,-1068.5485680149,41.805660566057,1352879.7790632,367.96284164236,2604494.3549104,47.005660566057,0,0
613.01709671236,-1068.7503570642,41.810091009101,1352879.7790632,367.96284164236,2604494.3549104,47.010091009101,0,0
613.01709702786,-1068.9521461135,41.814521452145,1352879.7790632,367.96284164236,2604494.3549104,47.014521452145,0,0
613.01709734335,-1069.1539351628,41.81895189519,1352879.7790632,367.96284164236,2604494.3549104,47.01895189519,0,0
613.01709765885,-1069.355724212,41.823382338234,1352879.7790632,367.96284164236,2604494.3549104,47.023382338234,0,0
613.01709797434,-1069.5575132613,41.827812781278,1352879.7790632,367.96284164236,2604494.3549104,47.027812781278,0,0
613.01709828984,-1069.7593023106,41.832243224322,1352879.7790632,367.96284164236,2604494.3549104,47.032243224322,0,0
613.01709860533,-1069.9610913599,41.836673667367,1352879.7790632,367.96284164236,2604494.3549104,47.036673667367,0,0
613.01709892083,-1070.1628804091,41.841104110411,1352879.7790632,367.96284164236,2604494.3549104,47.041104110411,0,0
613.01709923633,-1070.3646694584,41.845534553455,1352879.7790632,367.96284164236,2604494.3549104,47.045534553455,0,0
613.01709955182,-1070.5664585077,41.8499649965,1352879.7790632,367.96284164236,2604494.3549104,47.0499649965,0,0
613.01709986732,-1070.768247557,41.854395439544,1352879.7790632,367.96284164236,2604494.3549104,47.054395439544,0,0
613.01710018281,-1070.9700366062,41.858825882588,1352879.7790632,367.96284164236,2604494.3549104,47.058825882588,0,0
613.01710049831,-1071.1718256555,41.863256325633,1352879.7790632,367.96284164236,2604494.3549104,47.063256325633,0,0
613.0171008138,-1071.3736147048,41.867686768677,1352879.7790632,367.96284164236,2604494.3549104,47.067686768677,0,0
613.0171011293,-1071.5754037541,41.872117211721,1352879.7790632,367.96284164236,2604494.3549104,47.072117211721,0,0
613.01710144479,-1071.7771928034,41.876547654765,1352879.7790632,367.96284164236,2604494.3549104,47.076547654765,0,0
613.01710176029,-1071.9789818526,41.88097809781,1352879.7790632,367.96284164236,2604494.3549104,47.08097809781,0,0
613.01710207579,-1072.1807709019,41.885408540854,1352879.7790632,367.96284164236,2604494.3549104,47.085408540854,0,0
613.01710239128,-1072.3825599512,41.889838983898,1352879.7790632,367.96284164236,2604494.3549104,47.089838983898,0,0
613.01710270678,-1072.5843490005,41.894269426943,1352879.7790632,367.96284164236,2604494.3549104,47.094269426943,0,0
613.01710302227,-1072.7861380497,41.898699869987,1352879.7790632,367.96284164236,2604494.3549104,47.098699869987,0,0
613.01710333777,-1072.987927099,41.903130313031,1352879.7790632,367.96284164236,2604494.3549104,47.103130313031,0,0
613.01710365326,-1073.1897161483,41.907560756076,1352879.7790632,367.96284164236,2604494.3549104,47.107560756076,0,0
613.01710396876,-1073.3915051976,41.91199119912,1352879.7790632,367.96284164236,2604494.3549104,47.11199119912,0,0
613.01710428425,-1073.5932942468,41.916421642164,1352879.7790632,367.96284164236,2604494.3549104,47.116421642164,0,0
613.01710459975,-1073.7950832961,41.920852085209,1352879.7790632,367.96284164236,2604494.3549104,47.120852085209,0,0
613.01710491525,-1073.9968723454,41.925282528253,1352879.7790632,367.96284164236,2604494.3549104,47.125282528253,0,0
613.01710523074,-1074.1986613947,41.929712971297,1352879.7790632,367.96284164236,2604494.3549104,47.129712971297,0,0
613.01710554624,-1074.4004504439,41.934143414341,1352879.7790632,367.96284164236,2604494.3549104,47.134143414341,0,0
613.01710586173,-1074.6022394932,41.938573857386,1352879.7790632,367.96284164236,2604494.3549104,47.138573857386,0,0
613.01710617723,-1074.8040285425,41.94300430043,1352879.7790632,367.96284164236,2604494.3549104,47.14300430043,0,0
613.01710649272,-1075.0058175918,41.947434743474,1352879.7790632,367.96284164236,2604494.3549104,47.147434743474,0,0
613.01710680822,-1075.207606641,41.951865186519,1352879.7790632,367.96284164236,2604494.3549104,47.151865186519,0,0
613.01710712371,-1075.4093956903,41.956295629563,1352879.7790632,367.96284164236,2604494.3549104,47.156295629563,0,0
613.01710743921,-1075.6111847396,41.960726072607,1352879.7790632,367.96284164236,2604494.3549104,47.160726072607,0,0
613.01710775471,-1075.8129737889,41.965156515652,1352879.7790632,367.96284164236,2604494.3549104,47.165156515652,0,0
613.0171080702,-1076.0147628382,41.969586958696,1352879.7790632,367.96284164236,2604494.3549104,47.169586958696,0,0
613.0171083857,-1076.2165518874,41.97401740174,1352879.7790632,367.96284164236,2604494.3549104,47.17401740174,0,0
613.01710870119,-1076.4183409367,41.978447844784,1352879.7790632,367.96284164236,2604494.3549104,47.178447844784,0,0
613.01710901669,-1076.620129986,41.982878287829,1352879.7790632,367.96284164236,2604494.3549104,47.182878287829,0,0
613.01710933218,-1076.8219190353,41.987308730873,1352879.7790632,367.96284164236,2604494.3549104,47.187308730873,0,0
613.01710964768,-1077.0237080845,41.991739173917,1352879.7790632,367.96284164236,2604494.3549104,47.191739173917,0,0
613.01710996317,-1077.2254971338,41.996169616962,1352879.7790632,367.96284164236,2604494.3549104,47.196169616962,0,0
613.01711027867,-1077.4272861831,42.000600060006,1352879.7790632,367.96284164236,2604494.3549104,47.200600060006,0,0
613.01711059417,-1077.6290752324,42.00503050305,1352879.7790632,367.96284164236,2604494.3549104,47.20503050305,0,0
613.01711090966,-1077.8308642816,42.009460946095,1352879.7790632,367.96284164236,2604494.3549104,47.209460946095,0,0
613.01711122516,-1078.0326533309,42.013891389139,1352879.7790632,367.96284164236,2604494.3549104,47.213891389139,0,0
613.01711154065,-1078.2344423802,42.018321832183,1352879.7790632,367.96284164236,2604494.3549104,47.218321832183,0,0
613.01711185615,-1078.4362314295,42.022752275228,1352879.7790632,367.96284164236,2604494.3549104,47.222752275228,0,0
613.01711217164,-1078.6380204787,42.027182718272,1352879.7790632,367.96284164236,2604494.3549104,47.227182718272,0,0
613.01711248714,-1078.839809528,42.031613161316,1352879.7790632,367.96284164236,2604494.3549104,47.231613161316,0,0
613.01711280263,-1079.0415985773,42.03604360436,1352879.7790632,367.96284164236,2604494.3549104,47.23604360436,0,0
613.01711311813,-1079.2433876266,42.040474047405,1352879.7790632,367.96284164236,2604494.3549104,47.240474047405,0,0
613.01711343363,-1079.4451766759,42.044904490449,1352879.7790632,367.96284164236,2604494.3549104,47.244904490449,0,0
613.01711374912,-1079.6469657251,42.049334933493,1352879.7790632,367.96284164236,2604494.3549104,47.249334933493,0,0
613.01711406462,-1079.8487547744,42.053765376538,1352879.7790632,367.96284164236,2604494.3549104,47.253765376538,0,0
613.01711438011,-1080.0505438237,42.058195819582,1352879.7790632,367.96284164236,2604494.3549104,47.258195819582,0,0
613.01711469561,-1080.252332873,42.062626262626,1352879.7790632,367.96284164236,2604494.3549104,47.262626262626,0,0
613.0171150111,-1080.4541219222,42.067056705671,1352879.7790632,367.96284164236,2604494.3549104,47.267056705671,0,0
613.0171153266,-1080.6559109715,42.071487148715,1352879.7790632,367.96284164236,2604494.3549104,47.271487148715,0,0
613.0171156421,-1080.8577000208,42.075917591759,1352879.7790632,367.96284164236,2604494.3549104,47.275917591759,0,0
613.01711595759,-1081.0594890701,42.080348034803,1352879.7790632,367.96284164236,2604494.3549104,47.280348034803,0,0
613.01711627309,-1081.2612781193,42.084778477848,1352879.7790632,367.96284164236,2604494.3549104,47.284778477848,0,0
613.01711658858,-1081.4630671686,42.089208920892,1352879.7790632,367.96284164236,2604494.3549104,47.289208920892,0,0
613.01711690408,-1081.6648562179,42.093639363936,1352879.7790632,367.96284164236,2604494.3549104,47.293639363936,0,0
613.01711721957,-1081.8666452672,42.098069806981,1352879.7790632,367.96284164236,2604494.3549104,47.298069806981,0,0
613.01711753507,-1082.0684343164,42.102500250025,1352879.7790632,367.96284164236,2604494.3549104,47.302500250025,0,0
613.01711785056,-1082.2702233657,42.106930693069,1352879.7790632,367.96284164236,2604494.3549104,47.306930693069,0,0
613.01711816606,-1082.472012415,42.111361136114,1352879.7790632,367.96284164236,2604494.3549104,47.311361136114,0,0
613.01711848156,-1082.6738014643,42.115791579158,1352879.7790632,367.96284164236,2604494.3549104,47.315791579158,0,0
613.01711879705,-1082.8755905136,42.120222022202,1352879.7790632,367.96284164236,2604494.3549104,47.320222022202,0,0
613.01711911255,-1083.0773795628,42.124652465247,1352879.7790632,367.96284164236,2604494.3549104,47.324652465247,0,0
613.01711942804,-1083.2791686121,42.129082908291,1352879.7790632,367.96284164236,2604494.3549104,47.329082908291,0,0
613.01711974354,-1083.4809576614,42.133513351335,1352879.7790632,367.96284164236,2604494.3549104,47.333513351335,0,0
613.01712005903,-1083.6827467107,42.137943794379,1352879.7790632,367.96284164236,2604494.3549104,47.337943794379,0,0
613.01712037453,-1083.8845357599,42.142374237424,1352879.7790632,367.96284164236,2604494.3549104,47.342374237424,0,0
613.01712069002,-1084.0863248092,42.146804680468,1352879.7790632,367.96284164236,2604494.3549104,47.346804680468,0,0
613.01712100552,-1084.2881138585,42.151235123512,1352879.7790632,367.96284164236,2604494.3549104,47.351235123512,0,0
613.01712132102,-1084.4899029078,42.155665566557,1352879.7790632,367.96284164236,2604494.3549104,47.355665566557,0,0
613.01712163651,-1084.691691957,42.160096009601,1352879.7790632,367.96284164236,2604494.3549104,47.360096009601,0,0
613.01712195201,-1084.8934810063,42.164526452645,1352879.7790632,367.96284164236,2604494.3549104,47.364526452645,0,0
613.0171222675,-1085.0952700556,42.16895689569,1352879.7790632,367.96284164236,2604494.3549104,47.36895689569,0,0
613.017122583,-1085.2970591049,42.173387338734,1352879.7790632,367.96284164236,2604494.3549104,47.373387338734,0,0
613.01712289849,-1085.4988481541,42.177817781778,1352879.7790632,367.96284164236,2604494.3549104,47.377817781778,0,0
613.01712321399,-1085.7006372034,42.182248224822,1352879.7790632,367.96284164236,2604494.3549104,47.382248224822,0,0
613.01712352948,-1085.9024262527,42.186678667867,1352879.7790632,367.96284164236,2604494.3549104,47.386678667867,0,0
613.01712384498,-1086.104215302,42.191109110911,1352879.7790632,367.96284164236,2604494.3549104,47.391109110911,0,0
613.01712416048,-1086.3060043512,42.195539553955,1352879.7790632,367.96284164236,2604494.3549104,47.395539553955,0,0
613.01712447597,-1086.5077934005,42.199969997,1352879.7790632,367.96284164236,2604494.3549104,47.399969997,0,0
613.01712479147,-1086.7095824498,42.204400440044,1352879.7790632,367.96284164236,2604494.3549104,47.404400440044,0,0
613.01712510696,-1086.9113714991,42.208830883088,1352879.7790632,367.96284164236,2604494.3549104,47.408830883088,0,0
613.01712542246,-1087.1131605484,42.213261326133,1352879.7790632,367.96284164236,2604494.3549104,47.413261326133,0,0
613.01712573795,-1087.3149495976,42.217691769177,1352879.7790632,367.96284164236,2604494.3549104,47.417691769177,0,0
613.01712605345,-1087.5167386469,42.222122212221,1352879.7790632,367.96284164236,2604494.3549104,47.422122212221,0,0
613.01712636894,-1087.7185276962,42.226552655266,1352879.7790632,367.96284164236,2604494.3549104,47.426552655266,0,0
613.01712668444,-1087.9203167455,42.23098309831,1352879.7790632,367.96284164236,2604494.3549104,47.43098309831,0,0
613.01712699994,-1088.1221057947,42.235413541354,1352879.7790632,367.96284164236,2604494.3549104,47.435413541354,0,0
613.01712731543,-1088.323894844,42.239843984398,1352879.7790632,367.96284164236,2604494.3549104,47.439843984398,0,0
613.01712763093,-1088.5256838933,42.244274427443,1352879.7790632,367.96284164236,2604494.3549104,47.444274427443,0,0
613.01712794642,-1088.7274729426,42.248704870487,1352879.7790632,367.96284164236,2604494.3549104,47.448704870487,0,0
613.01712826192,-1088.9292619918,42.253135313531,1352879.7790632,367.96284164236,2604494.3549104,47.453135313531,0,0
613.01712857741,-1089.1310510411,42.257565756576,1352879.7790632,367.96284164236,2604494.3549104,47.457565756576,0,0
613.01712889291,-1089.3328400904,42.26199619962,1352879.7790632,367.96284164236,2604494.3549104,47.46199619962,0,0
613.0171292084,-1089.5346291397,42.266426642664,1352879.7790632,367.96284164236,2604494.3549104,47.466426642664,0,0
613.0171295239,-1089.7364181889,42.270857085709,1352879.7790632,367.96284164236,2604494.3549104,47.470857085709,0,0
613.0171298394,-1089.9382072382,42.275287528753,1352879.7790632,367.96284164236,2604494.3549104,47.475287528753,0,0
613.01713015489,-1090.1399962875,42.279717971797,1352879.7790632,367.96284164236,2604494.3549104,47.479717971797,0,0
613.01713047039,-1090.3417853368,42.284148414841,1352879.7790632,367.96284164236,2604494.3549104,47.484148414841,0,0
613.01713078588,-1090.5435743861,42.288578857886,1352879.7790632,367.96284164236,2604494.3549104,47.488578857886,0,0
613.01713110138,-1090.7453634353,42.29300930093,1352879.7790632,367.96284164236,2604494.3549104,47.49300930093,0,0
613.01713141687,-1090.9471524846,42.297439743974,1352879.7790632,367.96284164236,2604494.3549104,47.497439743974,0,0
613.01713173237,-1091.1489415339,42.301870187019,1352879.7790632,367.96284164236,2604494.3549104,47.501870187019,0,0
613.01713204786,-1091.3507305832,42.306300630063,1352879.7790632,367.96284164236,2604494.3549104,47.506300630063,0,0
613.01713236336,-1091.5525196324,42.310731073107,1352879.7790632,367.96284164236,2604494.3549104,47.510731073107,0,0
613.01713267886,-1091.7543086817,42.315161516152,1352879.7790632,367.96284164236,2604494.3549104,47.515161516152,0,0
613.01713299435,-1091.956097731,42.319591959196,1352879.7790632,367.96284164236,2604494.3549104,47.519591959196,0,0
613.01713330985,-1092.1578867803,42.32402240224,1352879.7790632,367.96284164236,2604494.3549104,47.52402240224,0,0
613.01713362534,-1092.3596758295,42.328452845285,1352879.7790632,367.96284164236,2604494.3549104,47.528452845285,0,0
613.01713394084,-1092.5614648788,42.332883288329,1352879.7790632,367.96284164236,2604494.3549104,47.532883288329,0,0
613.01713425633,-1092.7632539281,42.337313731373,1352879.7790632,367.96284164236,2604494.3549104,47.537313731373,0,0
613.01713457183,-1092.9650429774,42.341744174417,1352879.7790632,367.96284164236,2604494.3549104,47.541744174417,0,0
613.01713488733,-1093.1668320266,42.346174617462,1352879.7790632,367.96284164236,2604494.3549104,47.546174617462,0,0
613.01713520282,-1093.3686210759,42.350605060506,1352879.7790632,367.96284164236,2604494.3549104,47.550605060506,0,0
613.01713551832,-1093.5704101252,42.35503550355,1352879.7790632,367.96284164236,2604494.3549104,47.55503550355,0,0
613.01713583381,-1093.7721991745,42.359465946595,1352879.7790632,367.96284164236,2604494.3549104,47.559465946595,0,0
613.01713614931,-1093.9739882238,42.363896389639,1352879.7790632,367.96284164236,2604494.3549104,47.563896389639,0,0
613.0171364648,-1094.175777273,42.368326832683,1352879.7790632,367.96284164236,2604494.3549104,47.568326832683,0,0
613.0171367803,-1094.3775663223,42.372757275728,1352879.7790632,367.96284164236,2604494.3549104,47.572757275728,0,0
613.01713709579,-1094.5793553716,42.377187718772,1352879.7790632,367.96284164236,2604494.3549104,47.577187718772,0,0
613.01713741129,-1094.7811444209,42.381618161816,1352879.7790632,367.96284164236,2604494.3549104,47.581618161816,0,0
613.01713772679,-1094.9829334701,42.38604860486,1352879.7790632,367.96284164236,2604494.3549104,47.58604860486,0,0
613.01713804228,-1095.1847225194,42.390479047905,1352879.7790632,367.96284164236,2604494.3549104,47.590479047905,0,0
613.01713835778,-1095.3865115687,42.394909490949,1352879.7790632,367.96284164236,2604494.3549104,47.594909490949,0,0
613.01713867327,-1095.588300618,42.399339933993,1352879.7790632,367.96284164236,2604494.3549104,47.599339933993,0,0
613.01713898877,-1095.7900896672,42.403770377038,1352879.7790632,367.96284164236,2604494.3549104,47.603770377038,0,0
613.01713930426,-1095.9918787165,42.408200820082,1352879.7790632,367.96284164236,2604494.3549104,47.608200820082,0,0
613.01713961976,-1096.1936677658,42.412631263126,1352879.7790632,367.96284164236,2604494.3549104,47.612631263126,0,0
613.01713993525,-1096.3954568151,42.417061706171,1352879.7790632,367.96284164236,2604494.3549104,47.617061706171,0,0
613.01714025075,-1096.5972458643,42.421492149215,1352879.7790632,367.96284164236,2604494.3549104,47.621492149215,0,0
613.01714056625,-1096.7990349136,42.425922592259,1352879.7790632,367.96284164236,2604494.3549104,47.625922592259,0,0
613.01714088147,-1097.000823963,42.430353035304,1350049.6218828,74.280265628809,2603763.8704035,47.630353035304,0,0
613.01714119648,-1097.2026130123,42.434783478348,1350049.6218828,74.280265628809,2603763.8704035,47.634783478348,0,0
613.01714151149,-1097.4044020617,42.439213921392,1350049.6218828,74.280265628809,2603763.8704035,47.639213921392,0,0
613.0171418265,-1097.6061911111,42.443644364436,1350049.6218828,74.280265628809,2603763.8704035,47.643644364436,0,0
613.01714214152,-1097.8079801605,42.448074807481,1350049.6218828,74.280265628809,2603763.8704035,47.648074807481,0,0
613.01714245653,-1098.0097692099,42.452505250525,1350049.6218828,74.280265628809,2603763.8704035,47.652505250525,0,0
613.01714277154,-1098.2115582593,42.456935693569,1350049.6218828,74.280265628809,2603763.8704035,47.656935693569,0,0
613.01714308655,-1098.4133473086,42.461366136614,1350049.6218828,74.280265628809,2603763.8704035,47.661366136614,0,0
613.01714340156,-1098.615136358,42.465796579658,1350049.6218828,74.280265628809,2603763.8704035,47.665796579658,0,0
613.01714371657,-1098.8169254074,42.470227022702,1350049.6218828,74.280265628809,2603763.8704035,47.670227022702,0,0
613.01714403158,-1099.0187144568,42.474657465747,1350049.6218828,74.280265628809,2603763.8704035,47.674657465747,0,0
613.0171443466,-1099.2205035062,42.479087908791,1350049.6218828,74.280265628809,2603763.8704035,47.679087908791,0,0
613.01714466161,-1099.4222925556,42.483518351835,1350049.6218828,74.280265628809,2603763.8704035,47.683518351835,0,0
613.01714497662,-1099.6240816049,42.487948794879,1350049.6218828,74.280265628809,2603763.8704035,47.687948794879,0,0
613.01714529163,-1099.8258706543,42.492379237924,1350049.6218828,74.280265628809,2603763.8704035,47.692379237924,0,0
613.01714560664,-1100.0276597037,42.496809680968,1350049.6218828,74.280265628809,2603763.8704035,47.696809680968,0,0
613.01714592165,-1100.2294487531,42.501240124012,1350049.6218828,74.280265628809,2603763.8704035,47.701240124012,0,0
613.01714623667,-1100.4312378025,42.505670567057,1350049.6218828,74.280265628809,2603763.8704035,47.705670567057,0,0
613.01714655168,-1100.6330268519,42.510101010101,1350049.6218828,74.280265628809,2603763.8704035,47.710101010101,0,0
613.01714686669,-1100.8348159013,42.514531453145,1350049.6218828,74.280265628809,2603763.8704035,47.714531453145,0,0
613.0171471817,-1101.0366049506,42.51896189619,1350049.6218828,74.280265628809,2603763.8704035,47.71896189619,0,0
613.01714749671,-1101.238394,42.523392339234,1350049.6218828,74.280265628809,2603763.8704035,47.723392339234,0,0
613.01714781172,-1101.4401830494,42.527822782278,1350049.6218828,74.280265628809,2603763.8704035,47.727822782278,0,0
613.01714812673,-1101.6419720988,42.532253225323,1350049.6218828,74.280265628809,2603763.8704035,47.732253225323,0,0
613.01714844175,-1101.8437611482,42.536683668367,1350049.6218828,74.280265628809,2603763.8704035,47.736683668367,0,0
613.01714875676,-1102.0455501976,42.541114111411,1350049.6218828,74.280265628809,2603763.8704035,47.741114111411,0,0
613.01714907177,-1102.2473392469,42.545544554455,1350049.6218828,74.280265628809,2603763.8704035,47.745544554455,0,0
613.01714938678,-1102.4491282963,42.5499749975,1350049.6218828,74.280265628809,2603763.8704035,47.7499749975,0,0
613.01714970179,-1102.6509173457,42.554405440544,1350049.6218828,74.280265628809,2603763.8704035,47.754405440544,0,0
613.0171500168,-1102.8527063951,42.558835883588,1350049.6218828,74.280265628809,2603763.8704035,47.758835883588,0,0
613.01715033181,-1103.0544954445,42.563266326633,1350049.6218828,74.280265628809,2603763.8704035,47.763266326633,0,0
613.01715064683,-1103.2562844939,42.567696769677,1350049.6218828,74.280265628809,2603763.8704035,47.767696769677,0,0
613.01715096184,-1103.4580735432,42.572127212721,1350049.6218828,74.280265628809,2603763.8704035,47.772127212721,0,0
613.01715127685,-1103.6598625926,42.576557655766,1350049.6218828,74.280265628809,2603763.8704035,47.776557655766,0,0
613.01715159186,-1103.861651642,42.58098809881,1350049.6218828,74.280265628809,2603763.8704035,47.78098809881,0,0
613.01715190687,-1104.0634406914,42.585418541854,1350049.6218828,74.280265628809,2603763.8704035,47.785418541854,0,0
613.01715222188,-1104.2652297408,42.589848984898,1350049.6218828,74.280265628809,2603763.8704035,47.789848984898,0,0
613.01715253689,-1104.4670187902,42.594279427943,1350049.6218828,74.280265628809,2603763.8704035,47.794279427943,0,0
613.01715285191,-1104.6688078396,42.598709870987,1350049.6218828,74.280265628809,2603763.8704035,47.798709870987,0,0
613.01715316692,-1104.8705968889,42.603140314031,1350049.6218828,74.280265628809,2603763.8704035,47.803140314031,0,0
613.01715348193,-1105.0723859383,42.607570757076,1350049.6218828,74.280265628809,2603763.8704035,47.807570757076,0,0
613.01715379694,-1105.2741749877,42.61200120012,1350049.6218828,74.280265628809,2603763.8704035,47.81200120012,0,0
613.01715411195,-1105.4759640371,42.616431643164,1350049.6218828,74.280265628809,2603763.8704035,47.816431643164,0,0
613.01715442696,-1105.6777530865,42.620862086209,1350049.6218828,74.280265628809,2603763.8704035,47.820862086209,0,0
613.01715474197,-1105.8795421359,42.625292529253,1350049.6218828,74.280265628809,2603763.8704035,47.825292529253,0,0
613.01715505699,-1106.0813311852,42.629722972297,1350049.6218828,74.280265628809,2603763.8704035,47.829722972297,0,0
613.017155372,-1106.2831202346,42.634153415342,1350049.6218828,74.280265628809,2603763.8704035,47.834153415342,0,0
613.01715568701,-1106.484909284,42.638583858386,1350049.6218828,74.280265628809,2603763.8704035,47.838583858386,0,0
613.01715600202,-1106.6866983334,42.64301430143,1350049.6218828,74.280265628809,2603763.8704035,47.84301430143,0,0
613.01715631703,-1106.8884873828,42.647444744474,1350049.6218828,74.280265628809,2603763.8704035,47.847444744474,0,0
613.01715663204,-1107.0902764322,42.651875187519,1350049.6218828,74.280265628809,2603763.8704035,47.851875187519,0,0
613.01715694706,-1107.2920654815,42.656305630563,1350049.6218828,74.280265628809,2603763.8704035,47.856305630563,0,0
613.01715726207,-1107.4938545309,42.660736073607,1350049.6218828,74.280265628809,2603763.8704035,47.860736073607,0,0
613.01715757708,-1107.6956435803,42.665166516652,1350049.6218828,74.280265628809,2603763.8704035,47.865166516652,0,0
613.01715789209,-1107.8974326297,42.669596959696,1350049.6218828,74.280265628809,2603763.8704035,47.869596959696,0,0
613.0171582071,-1108.0992216791,42.67402740274,1350049.6218828,74.280265628809,2603763.8704035,47.87402740274,0,0
613.01715852211,-1108.3010107285,42.678457845785,1350049.6218828,74.280265628809,2603763.8704035,47.878457845785,0,0
613.01715883712,-1108.5027997778,42.682888288829,1350049.6218828,74.280265628809,2603763.8704035,47.882888288829,0,0
613.01715915214,-1108.7045888272,42.687318731873,1350049.6218828,74.280265628809,2603763.8704035,47.887318731873,0,0
613.01715946715,-1108.9063778766,42.691749174917,1350049.6218828,74.280265628809,2603763.8704035,47.891749174917,0,0
613.01715978216,-1109.108166926,42.696179617962,1350049.6218828,74.280265628809,2603763.8704035,47.896179617962,0,0
613.01716009717,-1109.3099559754,42.700610061006,1350049.6218828,74.280265628809,2603763.8704035,47.900610061006,0,0
613.01716041218,-1109.5117450248,42.70504050405,1350049.6218828,74.280265628809,2603763.8704035,47.90504050405,0,0
613.01716072719,-1109.7135340742,42.709470947095,1350049.6218828,74.280265628809,2603763.8704035,47.909470947095,0,0
613.0171610422,-1109.9153231235,42.713901390139,1350049.6218828,74.280265628809,2603763.8704035,47.913901390139,0,0
613.01716135722,-1110.1171121729,42.718331833183,1350049.6218828,74.280265628809,2603763.8704035,47.918331833183,0,0
613.01716167223,-1110.3189012223,42.722762276228,1350049.6218828,74.280265628809,2603763.8704035,47.922762276228,0,0
613.01716198724,-1110.5206902717,42.727192719272,1350049.6218828,74.280265628809,2603763.8704035,47.927192719272,0,0
613.01716230225,-1110.7224793211,42.731623162316,1350049.6218828,74.280265628809,2603763.8704035,47.931623162316,0,0
613.01716261726,-1110.9242683705,42.736053605361,1350049.6218828,74.280265628809,2603763.8704035,47.936053605361,0,0
613.01716293227,-1111.1260574198,42.740484048405,1350049.6218828,74.280265628809,2603763.8704035,47.940484048405,0,0
613.01716324728,-1111.3278464692,42.744914491449,1350049.6218828,74.280265628809,2603763.8704035,47.944914491449,0,0
613.0171635623,-1111.5296355186,42.749344934493,1350049.6218828,74.280265628809,2603763.8704035,47.949344934493,0,0
613.01716387731,-1111.731424568,42.753775377538,1350049.6218828,74.280265628809,2603763.8704035,47.953775377538,0,0
613.01716419232,-1111.9332136174,42.758205820582,1350049.6218828,74.280265628809,2603763.8704035,47.958205820582,0,0
613.01716450733,-1112.1350026668,42.762636263626,1350049.6218828,74.280265628809,2603763.8704035,47.962636263626,0,0
613.01716482234,-1112.3367917161,42.767066706671,1350049.6218828,74.280265628809,2603763.8704035,47.967066706671,0,0
613.01716513735,-1112.5385807655,42.771497149715,1350049.6218828,74.280265628809,2603763.8704035,47.971497149715,0,0
613.01716545236,-1112.7403698149,42.775927592759,1350049.6218828,74.280265628809,2603763.8704035,47.975927592759,0,0
613.01716576738,-1112.9421588643,42.780358035804,1350049.6218828,74.280265628809,2603763.8704035,47.980358035804,0,0
613.01716608239,-1113.1439479137,42.784788478848,1350049.6218828,74.280265628809,2603763.8704035,47.984788478848,0,0
613.0171663974,-1113.3457369631,42.789218921892,1350049.6218828,74.280265628809,2603763.8704035,47.989218921892,0,0
613.01716671241,-1113.5475260124,42.793649364936,1350049.6218828,74.280265628809,2603763.8704035,47.993649364936,0,0
613.01716702742,-1113.7493150618,42.798079807981,1350049.6218828,74.280265628809,2603763.8704035,47.998079807981,0,0
613.01716734243,-1113.9511041112,42.802510251025,1350049.6218828,74.280265628809,2603763.8704035,48.002510251025,0,0
613.01716765745,-1114.1528931606,42.806940694069,1350049.6218828,74.280265628809,2603763.8704035,48.006940694069,0,0
613.01716797246,-1114.35468221,42.811371137114,1350049.6218828,74.280265628809,2603763.8704035,48.011371137114,0,0
613.01716828747,-1114.5564712594,42.815801580158,1350049.6218828,74.280265628809,2603763.8704035,48.015801580158,0,0
613.01716860248,-1114.7582603088,42.820232023202,1350049.6218828,74.280265628809,2603763.8704035,48.020232023202,0,0
613.01716891749,-1114.9600493581,42.824662466247,1350049.6218828,74.280265628809,2603763.8704035,48.024662466247,0,0
613.0171692325,-1115.1618384075,42.829092909291,1350049.6218828,74.280265628809,2603763.8704035,48.029092909291,0,0
613.01716954751,-1115.3636274569,42.833523352335,1350049.6218828,74.280265628809,2603763.8704035,48.033523352335,0,0
613.01716986253,-1115.5654165063,42.83795379538,1350049.6218828,74.280265628809,2603763.8704035,48.03795379538,0,0
613.01717017754,-1115.7672055557,42.842384238424,1350049.6218828,74.280265628809,2603763.8704035,48.042384238424,0,0
613.01717049255,-1115.9689946051,42.846814681468,1350049.6218828,74.280265628809,2603763.8704035,48.046814681468,0,0
613.01717080756,-1116.1707836544,42.851245124512,1350049.6218828,74.280265628809,2603763.8704035,48.051245124512,0,0
613.01717112257,-1116.3725727038,42.855675567557,1350049.6218828,74.280265628809,2603763.8704035,48.055675567557,0,0
613.01717143758,-1116.5743617532,42.860106010601,1350049.6218828,74.280265628809,2603763.8704035,48.060106010601,0,0
613.01717175259,-1116.7761508026,42.864536453645,1350049.6218828,74.280265628809,2603763.8704035,48.064536453645,0,0
613.01717206761,-1116.977939852,42.86896689669,1350049.6218828,74.280265628809,2603763.8704035,48.06896689669,0,0
613.01717238262,-1117.1797289014,42.873397339734,1350049.6218828,74.280265628809,2603763.8704035,48.073397339734,0,0
613.01717269763,-1117.3815179507,42.877827782778,1350049.6218828,74.280265628809,2603763.8704035,48.077827782778,0,0
613.01717301264,-1117.5833070001,42.882258225823,1350049.6218828,74.280265628809,2603763.8704035,48.082258225823,0,0
613.01717332765,-1117.7850960495,42.886688668867,1350049.6218828,74.280265628809,2603763.8704035,48.086688668867,0,0
613.01717364266,-1117.9868850989,42.891119111911,1350049.6218828,74.280265628809,2603763.8704035,48.091119111911,0,0
613.01717395767,-1118.1886741483,42.895549554955,1350049.6218828,74.280265628809,2603763.8704035,48.095549554955,0,0
613.01717427269,-1118.3904631977,42.899979998,1350049.6218828,74.280265628809,2603763.8704035,48.099979998,0,0
613.0171745877,-1118.5922522471,42.904410441044,1350049.6218828,74.280265628809,2603763.8704035,48.104410441044,0,0
613.01717490271,-1118.7940412964,42.908840884088,1350049.6218828,74.280265628809,2603763.8704035,48.108840884088,0,0
613.01717521772,-1118.9958303458,42.913271327133,1350049.6218828,74.280265628809,2603763.8704035,48.113271327133,0,0
613.01717553273,-1119.1976193952,42.917701770177,1350049.6218828,74.280265628809,2603763.8704035,48.117701770177,0,0
613.01717584774,-1119.3994084446,42.922132213221,1350049.6218828,74.280265628809,2603763.8704035,48.122132213221,0,0
613.01717616275,-1119.601197494,42.926562656266,1350049.6218828,74.280265628809,2603763.8704035,48.126562656266,0,0
613.01717647777,-1119.8029865434,42.93099309931,1350049.6218828,74.280265628809,2603763.8704035,48.13099309931,0,0
613.01717679278,-1120.0047755927,42.935423542354,1350049.6218828,74.280265628809,2603763.8704035,48.135423542354,0,0
613.01717710779,-1120.2065646421,42.939853985399,1350049.6218828,74.280265628809,2603763.8704035,48.139853985399,0,0
613.0171774228,-1120.4083536915,42.944284428443,1350049.6218828,74.280265628809,2603763.8704035,48.144284428443,0,0
613.01717773781,-1120.6101427409,42.948714871487,1350049.6218828,74.280265628809,2603763.8704035,48.148714871487,0,0
613.01717805282,-1120.8119317903,42.953145314531,1350049.6218828,74.280265628809,2603763.8704035,48.153145314531,0,0
613.01717836783,-1121.0137208397,42.957575757576,1350049.6218828,74.280265628809,2603763.8704035,48.157575757576,0,0
613.01717868285,-1121.215509889,42.96200620062,1350049.6218828,74.280265628809,2603763.8704035,48.16200620062,0,0
613.01717899786,-1121.4172989384,42.966436643664,1350049.6218828,74.280265628809,2603763.8704035,48.166436643664,0,0
613.01717931287,-1121.6190879878,42.970867086709,1350049.6218828,74.280265628809,2603763.8704035,48.170867086709,0,0
613.01717962788,-1121.8208770372,42.975297529753,1350049.6218828,74.280265628809,2603763.8704035,48.175297529753,0,0
613.01717994289,-1122.0226660866,42.979727972797,1350049.6218828,74.280265628809,2603763.8704035,48.179727972797,0,0
613.0171802579,-1122.224455136,42.984158415842,1350049.6218828,74.280265628809,2603763.8704035,48.184158415842,0,0
613.01718057292,-1122.4262441853,42.988588858886,1350049.6218828,74.280265628809,2603763.8704035,48.188588858886,0,0
613.01718088793,-1122.6280332347,42.99301930193,1350049.6218828,74.280265628809,2603763.8704035,48.19301930193,0,0
613.01718120294,-1122.8298222841,42.997449744974,1350049.6218828,74.280265628809,2603763.8704035,48.197449744974,0,0
613.01718151795,-1123.0316113335,43.001880188019,1350049.6218828,74.280265628809,2603763.8704035,48.201880188019,0,0
613.01718183296,-1123.2334003829,43.006310631063,1350049.6218828,74.280265628809,2603763.8704035,48.206310631063,0,0
613.01718214797,-1123.4351894323,43.010741074107,1350049.6218828,74.280265628809,2603763.8704035,48.210741074107,0,0
613.01718246298,-1123.6369784817,43.015171517152,1350049.6218828,74.280265628809,2603763.8704035,48.215171517152,0,0
613.017182778,-1123.838767531,43.019601960196,1350049.6218828,74.280265628809,2603763.8704035,48.219601960196,0,0
613.01718309301,-1124.0405565804,43.02403240324,1350049.6218828,74.280265628809,2603763.8704035,48.22403240324,0,0
613.01718340802,-1124.2423456298,43.028462846285,1350049.6218828,74.280265628809,2603763.8704035,48.228462846285,0,0
613.01718372303,-1124.4441346792,43.032893289329,1350049.6218828,74.280265628809,2603763.8704035,48.232893289329,0,0
613.01718403804,-1124.6459237286,43.037323732373,1350049.6218828,74.280265628809,2603763.8704035,48.237323732373,0,0
613.01718435305,-1124.847712778,43.041754175418,1350049.6218828,74.280265628809,2603763.8704035,48.241754175418,0,0
613.01718466806,-1125.0495018273,43.046184618462,1350049.6218828,74.280265628809,2603763.8704035,48.246184618462,0,0
613.01718498308,-1125.2512908767,43.050615061506,1350049.6218828,74.280265628809,2603763.8704035,48.250615061506,0,0
613.01718529809,-1125.4530799261,43.05504550455,1350049.6218828,74.280265628809,2603763.8704035,48.25504550455,0,0
613.0171856131,-1125.6548689755,43.059475947595,1350049.6218828,74.280265628809,2603763.8704035,48.259475947595,0,0
613.01718592811,-1125.8566580249,43.063906390639,1350049.6218828,74.280265628809,2603763.8704035,48.263906390639,0,0
613.01718624312,-1126.0584470743,43.068336833683,1350049.6218828,74.280265628809,2603763.8704035,48.268336833683,0,0
613.01718655813,-1126.2602361236,43.072767276728,1350049.6218828,74.280265628809,2603763.8704035,48.272767276728,0,0
613.01718687314,-1126.462025173,43.077197719772,1350049.6218828,74.280265628809,2603763.8704035,48.277197719772,0,0
613.01718718816,-1126.6638142224,43.081628162816,1350049.6218828,74.280265628809,2603763.8704035,48.281628162816,0,0
613.01718750317,-1126.8656032718,43.086058605861,1350049.6218828,74.280265628809,2603763.8704035,48.286058605861,0,0
613.01718781818,-1127.0673923212,43.090489048905,1350049.6218828,74.280265628809,2603763.8704035,48.290489048905,0,0
613.01718813319,-1127.2691813706,43.094919491949,1350049.6218828,74.280265628809,2603763.8704035,48.294919491949,0,0
613.0171884482,-1127.4709704199,43.099349934993,1350049.6218828,74.280265628809,2603763.8704035,48.299349934994,0,0
613.01718876321,-1127.6727594693,43.103780378038,1350049.6218828,74.280265628809,2603763.8704035,48.303780378038,0,0
613.01718907823,-1127.8745485187,43.108210821082,1350049.6218828,74.280265628809,2603763.8704035,48.308210821082,0,0
613.01718939324,-1128.0763375681,43.112641264126,1350049.6218828,74.280265628809,2603763.8704035,48.312641264126,0,0
613.01718970825,-1128.2781266175,43.117071707171,1350049.6218828,74.280265628809,2603763.8704035,48.317071707171,0,0
613.01719002326,-1128.4799156669,43.121502150215,1350049.6218828,74.280265628809,2603763.8704035,48.321502150215,0,0
613.01719033827,-1128.6817047163,43.125932593259,1350049.6218828,74.280265628809,2603763.8704035,48.325932593259,0,0
613.01719065328,-1128.8834937656,43.130363036304,1350049.6218828,74.280265628809,2603763.8704035,48.330363036304,0,0
613.01719096829,-1129.085282815,43.134793479348,1350049.6218828,74.280265628809,2603763.8704035,48.334793479348,0,0
613.01719128331,-1129.2870718644,43.139223922392,1350049.6218828,74.280265628809,2603763.8704035,48.339223922392,0,0
613.01719159832,-1129.4888609138,43.143654365437,1350049.6218828,74.280265628809,2603763.8704035,48.343654365437,0,0
613.01719191333,-1129.6906499632,43.148084808481,1350049.6218828,74.280265628809,2603763.8704035,48.348084808481,0,0
613.01719222834,-1129.8924390126,43.152515251525,1350049.6218828,74.280265628809,2603763.8704035,48.352515251525,0,0
613.01719254335,-1130.0942280619,43.156945694569,1350049.6218828,74.280265628809,2603763.8704035,48.356945694569,0,0
613.01719285836,-1130.2960171113,43.161376137614,1350049.6218828,74.280265628809,2603763.8704035,48.361376137614,0,0
613.01719317337,-1130.4978061607,43.165806580658,1350049.6218828,74.280265628809,2603763.8704035,48.365806580658,0,0
613.01719348839,-1130.6995952101,43.170237023702,1350049.6218828,74.280265628809,2603763.8704035,48.370237023702,0,0
613.0171938034,-1130.9013842595,43.174667466747,1350049.6218828,74.280265628809,2603763.8704035,48.374667466747,0,0
613.01719411841,-1131.1031733089,43.179097909791,1350049.6218828,74.280265628809,2603763.8704035,48.379097909791,0,0
613.01719443342,-1131.3049623582,43.183528352835,1350049.6218828,74.280265628809,2603763.8704035,48.383528352835,0,0
613.01719474843,-1131.5067514076,43.18795879588,1350049.6218828,74.280265628809,2603763.8704035,48.38795879588,0,0
613.01719506344,-1131.708540457,43.192389238924,1350049.6218828,74.280265628809,2603763.8704035,48.392389238924,0,0
613.01719537845,-1131.9103295064,43.196819681968,1350049.6218828,74.280265628809,2603763.8704035,48.396819681968,0,0
613.01719569347,-1132.1121185558,43.201250125012,1350049.6218828,74.280265628809,2603763.8704035,48.401250125013,0,0
613.01719600848,-1132.3139076052,43.205680568057,1350049.6218828,74.280265628809,2603763.8704035,48.405680568057,0,0
613.01719632349,-1132.5156966546,43.210111011101,1350049.6218828,74.280265628809,2603763.8704035,48.410111011101,0,0
613.0171966385,-1132.7174857039,43.214541454145,1350049.6218828,74.280265628809,2603763.8704035,48.414541454145,0,0
613.01719695351,-1132.9192747533,43.21897189719,1350049.6218828,74.280265628809,2603763.8704035,48.41897189719,0,0
613.01719726852,-1133.1210638027,43.223402340234,1350049.6218828,74.280265628809,2603763.8704035,48.423402340234,0,0
613.01719758353,-1133.3228528521,43.227832783278,1350049.6218828,74.280265628809,2603763.8704035,48.427832783278,0,0
613.01719789855,-1133.5246419015,43.232263226323,1350049.6218828,74.280265628809,2603763.8704035,48.432263226323,0,0
613.01719821356,-1133.7264309509,43.236693669367,1350049.6218828,74.280265628809,2603763.8704035,48.436693669367,0,0
613.01719852857,-1133.9282200002,43.241124112411,1350049.6218828,74.280265628809,2603763.8704035,48.441124112411,0,0
613.01719884358,-1134.1300090496,43.245554555456,1350049.6218828,74.280265628809,2603763.8704035,48.445554555456,0,0
613.01719915859,-1134.331798099,43.2499849985,1350049.6218828,74.280265628809,2603763.8704035,48.4499849985,0,0
613.0171994736,-1134.5335871484,43.254415441544,1350049.6218828,74.280265628809,2603763.8704035,48.454415441544,0,0
613.01719978862,-1134.7353761978,43.258845884588,1350049.6218828,74.280265628809,2603763.8704035,48.458845884588,0,0
613.01720010363,-1134.9371652472,43.263276327633,1350049.6218828,74.280265628809,2603763.8704035,48.463276327633,0,0
613.01720041864,-1135.1389542965,43.267706770677,1350049.6218828,74.280265628809,2603763.8704035,48.467706770677,0,0
613.01720073365,-1135.3407433459,43.272137213721,1350049.6218828,74.280265628809,2603763.8704035,48.472137213721,0,0
613.01720104866,-1135.5425323953,43.276567656766,1350049.6218828,74.280265628809,2603763.8704035,48.476567656766,0,0
613.01720136367,-1135.7443214447,43.28099809981,1350049.6218828,74.280265628809,2603763.8704035,48.48099809981,0,0
613.01720167868,-1135.9461104941,43.285428542854,1350049.6218828,74.280265628809,2603763.8704035,48.485428542854,0,0
613.0172019937,-1136.1478995435,43.289858985899,1350049.6218828,74.280265628809,2603763.8704035,48.489858985899,0,0
613.01720230871,-1136.3496885928,43.294289428943,1350049.6218828,74.280265628809,2603763.8704035,48.494289428943,0,0
613.01720262372,-1136.5514776422,43.298719871987,1350049.6218828,74.280265628809,2603763.8704035,48.498719871987,0,0
613.01720293873,-1136.7532666916,43.303150315032,1350049.6218828,74.280265628809,2603763.8704035,48.503150315032,0,0
613.01720325374,-1136.955055741,43.307580758076,1350049.6218828,74.280265628809,2603763.8704035,48.507580758076,0,0
613.01720356875,-1137.1568447904,43.31201120112,1350049.6218828,74.280265628809,2603763.8704035,48.51201120112,0,0
613.01720388376,-1137.3586338398,43.316441644164,1350049.6218828,74.280265628809,2603763.8704035,48.516441644164,0,0
613.01720419878,-1137.5604228892,43.320872087209,1350049.6218828,74.280265628809,2603763.8704035,48.520872087209,0,0
613.01720451379,-1137.7622119385,43.325302530253,1350049.6218828,74.280265628809,2603763.8704035,48.525302530253,0,0
613.0172048288,-1137.9640009879,43.329732973297,1350049.6218828,74.280265628809,2603763.8704035,48.529732973297,0,0
613.01720514381,-1138.1657900373,43.334163416342,1350049.6218828,74.280265628809,2603763.8704035,48.534163416342,0,0
613.01720545882,-1138.3675790867,43.338593859386,1350049.6218828,74.280265628809,2603763.8704035,48.538593859386,0,0
613.01720577383,-1138.5693681361,43.34302430243,1350049.6218828,74.280265628809,2603763.8704035,48.54302430243,0,0
613.01720608884,-1138.7711571855,43.347454745475,1350049.6218828,74.280265628809,2603763.8704035,48.547454745475,0,0
613.01720640386,-1138.9729462348,43.351885188519,1350049.6218828,74.280265628809,2603763.8704035,48.551885188519,0,0
613.01720671887,-1139.1747352842,43.356315631563,1350049.6218828,74.280265628809,2603763.8704035,48.556315631563,0,0
613.01720703388,-1139.3765243336,43.360746074607,1350049.6218828,74.280265628809,2603763.8704035,48.560746074607,0,0
613.01720734889,-1139.578313383,43.365176517652,1350049.6218828,74.280265628809,2603763.8704035,48.565176517652,0,0
613.0172076639,-1139.7801024324,43.369606960696,1350049.6218828,74.280265628809,2603763.8704035,48.569606960696,0,0
613.01720797891,-1139.9818914818,43.37403740374,1350049.6218828,74.280265628809,2603763.8704035,48.57403740374,0,0
613.01720829392,-1140.1836805311,43.378467846785,1350049.6218828,74.280265628809,2603763.8704035,48.578467846785,0,0
613.01720860894,-1140.3854695805,43.382898289829,1350049.6218828,74.280265628809,2603763.8704035,48.582898289829,0,0
613.01720892395,-1140.5872586299,43.387328732873,1350049.6218828,74.280265628809,2603763.8704035,48.587328732873,0,0
613.01720923896,-1140.7890476793,43.391759175918,1350049.6218828,74.280265628809,2603763.8704035,48.591759175918,0,0
613.01720955397,-1140.9908367287,43.396189618962,1350049.6218828,74.280265628809,2603763.8704035,48.596189618962,0,0
613.01720986898,-1141.1926257781,43.400620062006,1350049.6218828,74.280265628809,2603763.8704035,48.600620062006,0,0
613.01721018399,-1141.3944148274,43.405050505051,1350049.6218828,74.280265628809,2603763.8704035,48.605050505051,0,0
613.017210499,-1141.5962038768,43.409480948095,1350049.6218828,74.280265628809,2603763.8704035,48.609480948095,0,0
613.01721081402,-1141.7979929262,43.413911391139,1350049.6218828,74.280265628809,2603763.8704035,48.613911391139,0,0
613.01721112903,-1141.9997819756,43.418341834183,1350049.6218828,74.280265628809,2603763.8704035,48.618341834183,0,0
613.01721144404,-1142.201571025,43.422772277228,1350049.6218828,74.280265628809,2603763.8704035,48.622772277228,0,0
613.01721175905,-1142.4033600744,43.427202720272,1350049.6218828,74.280265628809,2603763.8704035,48.627202720272,0,0
613.01721207406,-1142.6051491238,43.431633163316,1350049.6218828,74.280265628809,2603763.8704035,48.631633163316,0,0
613.01721238907,-1142.8069381731,43.436063606361,1350049.6218828,74.280265628809,2603763.8704035,48.636063606361,0,0
613.01721270409,-1143.0087272225,43.440494049405,1350049.6218828,74.280265628809,2603763.8704035,48.640494049405,0,0
613.0172130191,-1143.2105162719,43.444924492449,1350049.6218828,74.280265628809,2603763.8704035,48.644924492449,0,0
613.01721333411,-1143.4123053213,43.449354935494,1350049.6218828,74.280265628809,2603763.8704035,48.649354935494,0,0
613.01721364912,-1143.6140943707,43.453785378538,1350049.6218828,74.280265628809,2603763.8704035,48.653785378538,0,0
613.01721396413,-1143.8158834201,43.458215821582,1350049.6218828,74.280265628809,2603763.8704035,48.658215821582,0,0
613.01721427914,-1144.0176724694,43.462646264626,1350049.6218828,74.280265628809,2603763.8704035,48.662646264626,0,0
613.01721459415,-1144.2194615188,43.467076707671,1350049.6218828,74.280265628809,2603763.8704035,48.667076707671,0,0
613.01721490917,-1144.4212505682,43.471507150715,1350049.6218828,74.280265628809,2603763.8704035,48.671507150715,0,0
613.01721522418,-1144.6230396176,43.475937593759,1350049.6218828,74.280265628809,2603763.8704035,48.675937593759,0,0
613.01721553919,-1144.824828667,43.480368036804,1350049.6218828,74.280265628809,2603763.8704035,48.680368036804,0,0
613.0172158542,-1145.0266177164,43.484798479848,1350049.6218828,74.280265628809,2603763.8704035,48.684798479848,0,0
613.01721616921,-1145.2284067657,43.489228922892,1350049.6218828,74.280265628809,2603763.8704035,48.689228922892,0,0
613.01721648422,-1145.4301958151,43.493659365937,1350049.6218828,74.280265628809,2603763.8704035,48.693659365937,0,0
613.01721679923,-1145.6319848645,43.498089808981,1350049.6218828,74.280265628809,2603763.8704035,48.698089808981,0,0
613.01721711425,-1145.8337739139,43.502520252025,1350049.6218828,74.280265628809,2603763.8704035,48.702520252025,0,0
613.01721742926,-1146.0355629633,43.50695069507,1350049.6218828,74.280265628809,2603763.8704035,48.70695069507,0,0
613.01721774427,-1146.2373520127,43.511381138114,1350049.6218828,74.280265628809,2603763.8704035,48.711381138114,0,0
613.01721805928,-1146.4391410621,43.515811581158,1350049.6218828,74.280265628809,2603763.8704035,48.715811581158,0,0
613.01721837429,-1146.6409301114,43.520242024202,1350049.6218828,74.280265628809,2603763.8704035,48.720242024202,0,0
613.0172186893,-1146.8427191608,43.524672467247,1350049.6218828,74.280265628809,2603763.8704035,48.724672467247,0,0
613.01721900431,-1147.0445082102,43.529102910291,1350049.6218828,74.280265628809,2603763.8704035,48.729102910291,0,0
613.01721931933,-1147.2462972596,43.533533353335,1350049.6218828,74.280265628809,2603763.8704035,48.733533353335,0,0
613.01721963434,-1147.448086309,43.53796379638,1350049.6218828,74.280265628809,2603763.8704035,48.73796379638,0,0
613.01721994935,-1147.6498753584,43.542394239424,1350049.6218828,74.280265628809,2603763.8704035,48.742394239424,0,0
613.01722026436,-1147.8516644077,43.546824682468,1350049.6218828,74.280265628809,2603763.8704035,48.746824682468,0,0
613.01722057937,-1148.0534534571,43.551255125513,1350049.6218828,74.280265628809,2603763.8704035,48.751255125513,0,0
613.01722089438,-1148.2552425065,43.555685568557,1350049.6218828,74.280265628809,2603763.8704035,48.755685568557,0,0
613.01722120939,-1148.4570315559,43.560116011601,1350049.6218828,74.280265628809,2603763.8704035,48.760116011601,0,0
613.01722152441,-1148.6588206053,43.564546454645,1350049.6218828,74.280265628809,2603763.8704035,48.764546454645,0,0
613.01722183942,-1148.8606096547,43.56897689769,1350049.6218828,74.280265628809,2603763.8704035,48.76897689769,0,0
613.01722215443,-1149.062398704,43.573407340734,1350049.6218828,74.280265628809,2603763.8704035,48.773407340734,0,0
613.01722246944,-1149.2641877534,43.577837783778,1350049.6218828,74.280265628809,2603763.8704035,48.777837783778,0,0
613.01722278445,-1149.4659768028,43.582268226823,1350049.6218828,74.280265628809,2603763.8704035,48.782268226823,0,0
613.01722309946,-1149.6677658522,43.586698669867,1350049.6218828,74.280265628809,2603763.8704035,48.786698669867,0,0
613.01722341448,-1149.8695549016,43.591129112911,1350049.6218828,74.280265628809,2603763.8704035,48.791129112911,0,0
613.01722372949,-1150.071343951,43.595559555956,1350049.6218828,74.280265628809,2603763.8704035,48.795559555956,0,0
613.0172240445,-1150.2731330003,43.599989999,1350049.6218828,74.280265628809,2603763.8704035,48.799989999,0,0
613.01722435951,-1150.4749220497,43.604420442044,1350049.6218828,74.280265628809,2603763.8704035,48.804420442044,0,0
613.01722467452,-1150.6767110991,43.608850885089,1350049.6218828,74.280265628809,2603763.8704035,48.808850885089,0,0
613.01722498953,-1150.8785001485,43.613281328133,1350049.6218828,74.280265628809,2603763.8704035,48.813281328133,0,0
613.01722530454,-1151.0802891979,43.617711771177,1350049.6218828,74.280265628809,2603763.8704035,48.817711771177,0,0
613.01722561956,-1151.2820782473,43.622142214221,1350049.6218828,74.280265628809,2603763.8704035,48.822142214221,0,0
613.01722593457,-1151.4838672967,43.626572657266,1350049.6218828,74.280265628809,2603763.8704035,48.826572657266,0,0
613.01722624958,-1151.685656346,43.63100310031,1350049.6218828,74.280265628809,2603763.8704035,48.83100310031,0,0
613.01722656459,-1151.8874453954,43.635433543354,1350049.6218828,74.280265628809,2603763.8704035,48.835433543354,0,0
613.0172268796,-1152.0892344448,43.639863986399,1350049.6218828,74.280265628809,2603763.8704035,48.839863986399,0,0
613.01722719461,-1152.2910234942,43.644294429443,1350049.6218828,74.280265628809,2603763.8704035,48.844294429443,0,0
613.01722750962,-1152.4928125436,43.648724872487,1350049.6218828,74.280265628809,2603763.8704035,48.848724872487,0,0
613.01722782464,-1152.694601593,43.653155315532,1350049.6218828,74.280265628809,2603763.8704035,48.853155315532,0,0
613.01722813965,-1152.8963906423,43.657585758576,1350049.6218828,74.280265628809,2603763.8704035,48.857585758576,0,0
613.01722845466,-1153.0981796917,43.66201620162,1350049.6218828,74.280265628809,2603763.8704035,48.86201620162,0,0
613.01722876967,-1153.2999687411,43.666446644664,1350049.6218828,74.280265628809,2603763.8704035,48.866446644664,0,0
613.01722908468,-1153.5017577905,43.670877087709,1350049.6218828,74.280265628809,2603763.8704035,48.870877087709,0,0
613.01722939969,-1153.7035468399,43.675307530753,1350049.6218828,74.280265628809,2603763.8704035,48.875307530753,0,0
613.0172297147,-1153.9053358893,43.679737973797,1350049.6218828,74.280265628809,2603763.8704035,48.879737973797,0,0
613.01723002972,-1154.1071249386,43.684168416842,1350049.6218828,74.280265628809,2603763.8704035,48.884168416842,0,0
613.01723034473,-1154.308913988,43.688598859886,1350049.6218828,74.280265628809,2603763.8704035,48.888598859886,0,0
613.01723065974,-1154.5107030374,43.69302930293,1350049.6218828,74.280265628809,2603763.8704035,48.89302930293,0,0
613.01723097475,-1154.7124920868,43.697459745975,1350049.6218828,74.280265628809,2603763.8704035,48.897459745975,0,0
613.01723128976,-1154.9142811362,43.701890189019,1350049.6218828,74.280265628809,2603763.8704035,48.901890189019,0,0
613.01723160477,-1155.1160701856,43.706320632063,1350049.6218828,74.280265628809,2603763.8704035,48.906320632063,0,0
613.01723191978,-1155.317859235,43.710751075108,1350049.6218828,74.280265628809,2603763.8704035,48.910751075108,0,0
613.0172322348,-1155.5196482843,43.715181518152,1350049.6218828,74.280265628809,2603763.8704035,48.915181518152,0,0
613.01723254981,-1155.7214373337,43.719611961196,1350049.6218828,74.280265628809,2603763.8704035,48.919611961196,0,0
613.01723286482,-1155.9232263831,43.72404240424,1350049.6218828,74.280265628809,2603763.8704035,48.92404240424,0,0
613.01723317983,-1156.1250154325,43.728472847285,1350049.6218828,74.280265628809,2603763.8704035,48.928472847285,0,0
613.01723349484,-1156.3268044819,43.732903290329,1350049.6218828,74.280265628809,2603763.8704035,48.932903290329,0,0
613.01723380985,-1156.5285935313,43.737333733373,1350049.6218828,74.280265628809,2603763.8704035,48.937333733373,0,0
613.01723412487,-1156.7303825806,43.741764176418,1350049.6218828,74.280265628809,2603763.8704035,48.941764176418,0,0
613.01723443988,-1156.93217163,43.746194619462,1350049.6218828,74.280265628809,2603763.8704035,48.946194619462,0,0
613.01723475489,-1157.1339606794,43.750625062506,1350049.6218828,74.280265628809,2603763.8704035,48.950625062506,0,0
613.0172350699,-1157.3357497288,43.755055505551,1350049.6218828,74.280265628809,2603763.8704035,48.955055505551,0,0
613.01723538491,-1157.5375387782,43.759485948595,1350049.6218828,74.280265628809,2603763.8704035,48.959485948595,0,0
613.01723569992,-1157.7393278276,43.763916391639,1350049.6218828,74.280265628809,2603763.8704035,48.963916391639,0,0
613.01723601493,-1157.9411168769,43.768346834683,1350049.6218828,74.280265628809,2603763.8704035,48.968346834683,0,0
613.01723632995,-1158.1429059263,43.772777277728,1350049.6218828,74.280265628809,2603763.8704035,48.972777277728,0,0
613.01723664496,-1158.3446949757,43.777207720772,1350049.6218828,74.280265628809,2603763.8704035,48.977207720772,0,0
613.01723695997,-1158.5464840251,43.781638163816,1350049.6218828,74.280265628809,2603763.8704035,48.981638163816,0,0
613.01723727498,-1158.7482730745,43.786068606861,1350049.6218828,74.280265628809,2603763.8704035,48.986068606861,0,0
613.01723758999,-1158.9500621239,43.790499049905,1350049.6218828,74.280265628809,2603763.8704035,48.990499049905,0,0
613.017237905,-1159.1518511732,43.794929492949,1350049.6218828,74.280265628809,2603763.8704035,48.994929492949,0,0
613.01723822001,-1159.3536402226,43.799359935994,1350049.6218828,74.280265628809,2603763.8704035,48.999359935994,0,0
613.01723853503,-1159.555429272,43.803790379038,1350049.6218828,74.280265628809,2603763.8704035,49.003790379038,0,0
613.01723885004,-1159.7572183214,43.808220822082,1350049.6218828,74.280265628809,2603763.8704035,49.008220822082,0,0
613.01723916505,-1159.9590073708,43.812651265127,1350049.6218828,74.280265628809,2603763.8704035,49.012651265127,0,0
613.01723948006,-1160.1607964202,43.817081708171,1350049.6218828,74.280265628809,2603763.8704035,49.017081708171,0,0
613.01723979507,-1160.3625854696,43.821512151215,1350049.6218828,74.280265628809,2603763.8704035,49.021512151215,0,0
613.01724011008,-1160.5643745189,43.825942594259,1350049.6218828,74.280265628809,2603763.8704035,49.025942594259,0,0
613.01724042509,-1160.7661635683,43.830373037304,1350049.6218828,74.280265628809,2603763.8704035,49.030373037304,0,0
613.01724074011,-1160.9679526177,43.834803480348,1350049.6218828,74.280265628809,2603763.8704035,49.034803480348,0,0
613.01724105512,-1161.1697416671,43.839233923392,1350049.6218828,74.280265628809,2603763.8704035,49.039233923392,0,0
613.01724137013,-1161.3715307165,43.843664366437,1350049.6218828,74.280265628809,2603763.8704035,49.043664366437,0,0
613.01724168514,-1161.5733197659,43.848094809481,1350049.6218828,74.280265628809,2603763.8704035,49.048094809481,0,0
613.01724200015,-1161.7751088152,43.852525252525,1350049.6218828,74.280265628809,2603763.8704035,49.052525252525,0,0
613.01724231516,-1161.9768978646,43.85695569557,1350049.6218828,74.280265628809,2603763.8704035,49.05695569557,0,0
613.01724263017,-1162.178686914,43.861386138614,1350049.6218828,74.280265628809,2603763.8704035,49.061386138614,0,0
613.01724294519,-1162.3804759634,43.865816581658,1350049.6218828,74.280265628809,2603763.8704035,49.065816581658,0,0
613.0172432602,-1162.5822650128,43.870247024702,1350049.6218828,74.280265628809,2603763.8704035,49.070247024702,0,0
613.01724357521,-1162.7840540622,43.874677467747,1350049.6218828,74.280265628809,2603763.8704035,49.074677467747,0,0
613.01724389022,-1162.9858431115,43.879107910791,1350049.6218828,74.280265628809,2603763.8704035,49.079107910791,0,0
613.01724420523,-1163.1876321609,43.883538353835,1350049.6218828,74.280265628809,2603763.8704035,49.083538353835,0,0
613.01724452024,-1163.3894212103,43.88796879688,1350049.6218828,74.280265628809,2603763.8704035,49.08796879688,0,0
613.01724483526,-1163.5912102597,43.892399239924,1350049.6218828,74.280265628809,2603763.8704035,49.092399239924,0,0
613.01724515027,-1163.7929993091,43.896829682968,1350049.6218828,74.280265628809,2603763.8704035,49.096829682968,0,0
613.01724546528,-1163.9947883585,43.901260126013,1350049.6218828,74.280265628809,2603763.8704035,49.101260126013,0,0
613.01724578029,-1164.1965774078,43.905690569057,1350049.6218828,74.280265628809,2603763.8704035,49.105690569057,0,0
613.0172460953,-1164.3983664572,43.910121012101,1350049.6218828,74.280265628809,2603763.8704035,49.110121012101,0,0
613.01724641031,-1164.6001555066,43.914551455146,1350049.6218828,74.280265628809,2603763.8704035,49.114551455146,0,0
613.01724672532,-1164.801944556,43.91898189819,1350049.6218828,74.280265628809,2603763.8704035,49.11898189819,0,0
613.01724704034,-1165.0037336054,43.923412341234,1350049.6218828,74.280265628809,2603763.8704035,49.123412341234,0,0
613.01724735535,-1165.2055226548,43.927842784278,1350049.6218828,74.280265628809,2603763.8704035,49.127842784278,0,0
613.01724767036,-1165.4073117042,43.932273227323,1350049.6218828,74.280265628809,2603763.8704035,49.132273227323,0,0
613.01724798537,-1165.6091007535,43.936703670367,1350049.6218828,74.280265628809,2603763.8704035,49.136703670367,0,0
613.01724830038,-1165.8108898029,43.941134113411,1350049.6218828,74.280265628809,2603763.8704035,49.141134113411,0,0
613.01724861539,-1166.0126788523,43.945564556456,1350049.6218828,74.280265628809,2603763.8704035,49.145564556456,0,0
613.0172489304,-1166.2144679017,43.9499949995,1350049.6218828,74.280265628809,2603763.8704035,49.1499949995,0,0
613.01724924542,-1166.4162569511,43.954425442544,1350049.6218828,74.280265628809,2603763.8704035,49.154425442544,0,0
613.01724956043,-1166.6180460005,43.958855885589,1350049.6218828,74.280265628809,2603763.8704035,49.158855885589,0,0
613.01724987544,-1166.8198350498,43.963286328633,1350049.6218828,74.280265628809,2603763.8704035,49.163286328633,0,0
613.01725019045,-1167.0216240992,43.967716771677,1350049.6218828,74.280265628809,2603763.8704035,49.167716771677,0,0
613.01725050546,-1167.2234131486,43.972147214721,1350049.6218828,74.280265628809,2603763.8704035,49.172147214721,0,0
613.01725082047,-1167.425202198,43.976577657766,1350049.6218828,74.280265628809,2603763.8704035,49.176577657766,0,0
613.01725113548,-1167.6269912474,43.98100810081,1350049.6218828,74.280265628809,2603763.8704035,49.18100810081,0,0
613.0172514505,-1167.8287802968,43.985438543854,1350049.6218828,74.280265628809,2603763.8704035,49.185438543854,0,0
613.01725176551,-1168.0305693461,43.989868986899,1350049.6218828,74.280265628809,2603763.8704035,49.189868986899,0,0
613.01725208052,-1168.2323583955,43.994299429943,1350049.6218828,74.280265628809,2603763.8704035,49.194299429943,0,0
613.01725239553,-1168.4341474449,43.998729872987,1350049.6218828,74.280265628809,2603763.8704035,49.198729872987,0,0
613.01725271054,-1168.6359364943,44.003160316032,1350049.6218828,74.280265628809,2603763.8704035,49.203160316032,0,0
613.01725302555,-1168.8377255437,44.007590759076,1350049.6218828,74.280265628809,2603763.8704035,49.207590759076,0,0
613.01725334056,-1169.0395145931,44.01202120212,1350049.6218828,74.280265628809,2603763.8704035,49.21202120212,0,0
613.01725365558,-1169.2413036425,44.016451645165,1350049.6218828,74.280265628809,2603763.8704035,49.216451645165,0,0
613.01725397059,-1169.4430926918,44.020882088209,1350049.6218828,74.280265628809,2603763.8704035,49.220882088209,0,0
613.0172542856,-1169.6448817412,44.025312531253,1350049.6218828,74.280265628809,2603763.8704035,49.225312531253,0,0
613.01725460061,-1169.8466707906,44.029742974297,1350049.6218828,74.280265628809,2603763.8704035,49.229742974297,0,0
613.01725491562,-1170.04845984,44.034173417342,1350049.6218828,74.280265628809,2603763.8704035,49.234173417342,0,0
613.01725523063,-1170.2502488894,44.038603860386,1350049.6218828,74.280265628809,2603763.8704035,49.238603860386,0,0
613.01725554565,-1170.4520379388,44.04303430343,1350049.6218828,74.280265628809,2603763.8704035,49.24303430343,0,0
613.01725586066,-1170.6538269881,44.047464746475,1350049.6218828,74.280265628809,2603763.8704035,49.247464746475,0,0
613.01725617567,-1170.8556160375,44.051895189519,1350049.6218828,74.280265628809,2603763.8704035,49.251895189519,0,0
613.01725649068,-1171.0574050869,44.056325632563,1350049.6218828,74.280265628809,2603763.8704035,49.256325632563,0,0
613.01725680569,-1171.2591941363,44.060756075608,1350049.6218828,74.280265628809,2603763.8704035,49.260756075608,0,0
613.0172571207,-1171.4609831857,44.065186518652,1350049.6218828,74.280265628809,2603763.8704035,49.265186518652,0,0
613.01725743571,-1171.6627722351,44.069616961696,1350049.6218828,74.280265628809,2603763.8704035,49.269616961696,0,0
613.01725775073,-1171.8645612844,44.07404740474,1350049.6218828,74.280265628809,2603763.8704035,49.27404740474,0,0
613.01725806574,-1172.0663503338,44.078477847785,1350049.6218828,74.280265628809,2603763.8704035,49.278477847785,0,0
613.01725838075,-1172.2681393832,44.082908290829,1350049.6218828,74.280265628809,2603763.8704035,49.282908290829,0,0
613.01725869576,-1172.4699284326,44.087338733873,1350049.6218828,74.280265628809,2603763.8704035,49.287338733873,0,0
613.01725901077,-1172.671717482,44.091769176918,1350049.6218828,74.280265628809,2603763.8704035,49.291769176918,0,0
613.01725932578,-1172.8735065314,44.096199619962,1350049.6218828,74.280265628809,2603763.8704035,49.296199619962,0,0
613.01725964079,-1173.0752955807,44.100630063006,1350049.6218828,74.280265628809,2603763.8704035,49.300630063006,0,0
613.01725995581,-1173.2770846301,44.105060506051,1350049.6218828,74.280265628809,2603763.8704035,49.305060506051,0,0
613.01726027082,-1173.4788736795,44.109490949095,1350049.6218828,74.280265628809,2603763.8704035,49.309490949095,0,0
613.01726058583,-1173.6806627289,44.113921392139,1350049.6218828,74.280265628809,2603763.8704035,49.313921392139,0,0
613.01726090084,-1173.8824517783,44.118351835184,1350049.6218828,74.280265628809,2603763.8704035,49.318351835184,0,0
613.01726121585,-1174.0842408277,44.122782278228,1350049.6218828,74.280265628809,2603763.8704035,49.322782278228,0,0
613.01726153086,-1174.2860298771,44.127212721272,1350049.6218828,74.280265628809,2603763.8704035,49.327212721272,0,0
613.01726184587,-1174.4878189264,44.131643164316,1350049.6218828,74.280265628809,2603763.8704035,49.331643164316,0,0
613.01726216089,-1174.6896079758,44.136073607361,1350049.6218828,74.280265628809,2603763.8704035,49.336073607361,0,0
613.0172624759,-1174.8913970252,44.140504050405,1350049.6218828,74.280265628809,2603763.8704035,49.340504050405,0,0
613.01726279091,-1175.0931860746,44.144934493449,1350049.6218828,74.280265628809,2603763.8704035,49.344934493449,0,0
613.01726310592,-1175.294975124,44.149364936494,1350049.6218828,74.280265628809,2603763.8704035,49.349364936494,0,0
613.01726342093,-1175.4967641734,44.153795379538,1350049.6218828,74.280265628809,2603763.8704035,49.353795379538,0,0
613.01726373594,-1175.6985532227,44.158225822582,1350049.6218828,74.280265628809,2603763.8704035,49.358225822582,0,0
613.01726405095,-1175.9003422721,44.162656265627,1350049.6218828,74.280265628809,2603763.8704035,49.362656265627,0,0
613.01726436597,-1176.1021313215,44.167086708671,1350049.6218828,74.280265628809,2603763.8704035,49.367086708671,0,0
613.01726468098,-1176.3039203709,44.171517151715,1350049.6218828,74.280265628809,2603763.8704035,49.371517151715,0,0
613.01726499599,-1176.5057094203,44.175947594759,1350049.6218828,74.280265628809,2603763.8704035,49.375947594759,0,0
613.017265311,-1176.7074984697,44.180378037804,1350049.6218828,74.280265628809,2603763.8704035,49.380378037804,0,0
613.01726562601,-1176.909287519,44.184808480848,1350049.6218828,74.280265628809,2603763.8704035,49.384808480848,0,0
613.01726594102,-1177.1110765684,44.189238923892,1350049.6218828,74.280265628809,2603763.8704035,49.389238923892,0,0
613.01726625604,-1177.3128656178,44.193669366937,1350049.6218828,74.280265628809,2603763.8704035,49.393669366937,0,0
613.01726657105,-1177.5146546672,44.198099809981,1350049.6218828,74.280265628809,2603763.8704035,49.398099809981,0,0
613.01726688606,-1177.7164437166,44.202530253025,1350049.6218828,74.280265628809,2603763.8704035,49.402530253025,0,0
613.01726720107,-1177.918232766,44.20696069607,1350049.6218828,74.280265628809,2603763.8704035,49.40696069607,0,0
613.01726751608,-1178.1200218153,44.211391139114,1350049.6218828,74.280265628809,2603763.8704035,49.411391139114,0,0
613.01726783109,-1178.3218108647,44.215821582158,1350049.6218828,74.280265628809,2603763.8704035,49.415821582158,0,0
613.0172681461,-1178.5235999141,44.220252025203,1350049.6218828,74.280265628809,2603763.8704035,49.420252025203,0,0
613.01726846112,-1178.7253889635,44.224682468247,1350049.6218828,74.280265628809,2603763.8704035,49.424682468247,0,0
613.01726877613,-1178.9271780129,44.229112911291,1350049.6218828,74.280265628809,2603763.8704035,49.429112911291,0,0
613.01726909114,-1179.1289670623,44.233543354335,1350049.6218828,74.280265628809,2603763.8704035,49.433543354335,0,0
613.01726940615,-1179.3307561117,44.23797379738,1350049.6218828,74.280265628809,2603763.8704035,49.43797379738,0,0
613.01726972116,-1179.532545161,44.242404240424,1350049.6218828,74.280265628809,2603763.8704035,49.442404240424,0,0
613.01727003617,-1179.7343342104,44.246834683468,1350049.6218828,74.280265628809,2603763.8704035,49.446834683468,0,0
613.01727035118,-1179.9361232598,44.251265126513,1350049.6218828,74.280265628809,2603763.8704035,49.451265126513,0,0
613.0172706662,-1180.1379123092,44.255695569557,1350049.6218828,74.280265628809,2603763.8704035,49.455695569557,0,0
613.01727098121,-1180.3397013586,44.260126012601,1350049.6218828,74.280265628809,2603763.8704035,49.460126012601,0,0
613.01727129622,-1180.541490408,44.264556455646,1350049.6218828,74.280265628809,2603763.8704035,49.464556455646,0,0
613.01727161123,-1180.7432794573,44.26898689869,1350049.6218828,74.280265628809,2603763.8704035,49.46898689869,0,0
613.01727192624,-1180.9450685067,44.273417341734,1350049.6218828,74.280265628809,2603763.8704035,49.473417341734,0,0
613.01727224125,-1181.1468575561,44.277847784778,1350049.6218828,74.280265628809,2603763.8704035,49.477847784778,0,0
613.01727255626,-1181.3486466055,44.282278227823,1350049.6218828,74.280265628809,2603763.8704035,49.482278227823,0,0
613.01727287128,-1181.5504356549,44.286708670867,1350049.6218828,74.280265628809,2603763.8704035,49.486708670867,0,0
613.01727318629,-1181.7522247043,44.291139113911,1350049.6218828,74.280265628809,2603763.8704035,49.491139113911,0,0
613.0172735013,-1181.9540137536,44.295569556956,1350049.6218828,74.280265628809,2603763.8704035,49.495569556956,0,0
613.01727381631,-1182.155802803,44.3,1350049.6218828,74.280265628809,2603763.8704035,49.5,0,0
