disp_x,disp_y,id,stress_xx,stress_xy,stress_yy,x,y,z
-113.24612815154,43.24148818444,0,241616.46637604,-26208.978334734,4978750.7222554,5.2,0,0
-113.24612809914,43.226313869008,0.0044304430443045,241616.46637604,-26208.978334734,4978750.7222554,5.2044304430443,0,0
-113.24612804674,43.211139553576,0.008860886088609,241616.46637604,-26208.978334734,4978750.7222554,5.2088608860886,0,0
-113.24612799435,43.195965238145,0.013291329132914,241616.46637604,-26208.978334734,4978750.7222554,5.2132913291329,0,0
-113.24612794195,43.180790922713,0.017721772177218,241616.46637604,-26208.978334734,4978750.7222554,5.2177217721772,0,0
-113.24612788815,43.165616621501,0.022152215221523,214313.48647954,18383.767711171,4856019.1025332,5.2221522152215,0,0
-113.24612783374,43.150442326592,0.026582658265826,214313.48647954,18383.767711171,4856019.1025332,5.2265826582658,0,0
-113.24612777932,43.135268031684,0.031013101310131,214313.48647954,18383.767711171,4856019.1025332,5.2310131013101,0,0
-113.24612772491,43.120093736776,0.035443544354435,214313.48647954,18383.767711171,4856019.1025332,5.2354435443544,0,0
-113.24612767049,43.104919441868,0.03987398739874,214313.48647954,18383.767711171,4856019.1025332,5.2398739873987,0,0
-113.24612761607,43.08974514696,0.044304430443044,214313.48647954,18383.767711171,4856019.1025332,5.244304430443,0,0
-113.24612756166,43.074570852051,0.048734873487349,214313.48647954,18383.767711171,4856019.1025332,5.2487348734873,0,0
-113.24612750724,43.059396557143,0.053165316531653,214313.48647954,18383.767711171,4856019.1025332,5.2531653165317,0,0
-113.24612745282,43.044222262235,0.057595759575958,214313.48647954,18383.767711171,4856019.1025332,5.257595759576,0,0
-113.24612739841,43.029047967327,0.062026202620262,214313.48647954,18383.767711171,4856019.1025332,5.2620262026203,0,0
-113.24612734399,43.013873672418,0.066456645664567,214313.48647954,18383.767711171,4856019.1025332,5.2664566456646,0,0
-113.24612728958,42.99869937751,0.070887088708871,214313.48647954,18383.767711171,4856019.1025332,5.2708870887089,0,0
-113.24612723516,42.983525082602,0.075317531753175,214313.48647954,18383.767711171,4856019.1025332,5.2753175317532,0,0
-113.24612718074,42.968350787694,0.079747974797479,214313.48647954,18383.767711171,4856019.1025332,5.2797479747975,0,0
-113.24612712633,42.953176492785,0.084178417841784,214313.48647954,18383.767711171,4856019.1025332,5.2841784178418,0,0
-113.24612707191,42.938002197877,0.088608860886088,214313.48647954,18383.767711171,4856019.1025332,5.2886088608861,0,0
-113.24612701572,42.922827901173,0.093039303930393,336811.35414459,-10112.350698415,4842843.754601,5.2930393039304,0,0
-113.2461269412,42.90765358595,0.097469746974697,336811.35414459,-10112.350698415,4842843.754601,5.2974697469747,0,0
-113.24612686669,42.892479270728,0.101900190019,336811.35414459,-10112.350698415,4842843.754601,5.301900190019,0,0
-113.24612679218,42.877304955505,0.10633063306331,336811.35414459,-10112.350698415,4842843.754601,5.3063306330633,0,0
-113.24612671766,42.862130640283,0.11076107610761,336811.35414459,-10112.350698415,4842843.754601,5.3107610761076,0,0
-113.24612664315,42.84695632506,0.11519151915192,336811.35414459,-10112.350698415,4842843.754601,5.3151915191519,0,0
-113.24612656863,42.831782009838,0.11962196219622,336811.35414459,-10112.350698415,4842843.754601,5.3196219621962,0,0
-113.24612649412,42.816607694615,0.12405240524052,336811.35414459,-10112.350698415,4842843.754601,5.3240524052405,0,0
-113.24612641961,42.801433379393,0.12848284828483,336811.35414459,-10112.350698415,4842843.754601,5.3284828482848,0,0
-113.24612634509,42.786259064171,0.13291329132913,336811.35414459,-10112.350698415,4842843.754601,5.3329132913291,0,0
-113.24612627058,42.771084748948,0.13734373437344,336811.35414459,-10112.350698415,4842843.754601,5.3373437343734,0,0
-113.24612619606,42.755910433726,0.14177417741774,336811.35414459,-10112.350698415,4842843.754601,5.3417741774177,0,0
-113.24612612155,42.740736118503,0.14620462046205,336811.35414459,-10112.350698415,4842843.754601,5.346204620462,0,0
-113.24612604704,42.725561803281,0.15063506350635,336811.35414459,-10112.350698415,4842843.754601,5.3506350635064,0,0
-113.24612597252,42.710387488058,0.15506550655066,336811.35414459,-10112.350698415,4842843.754601,5.3550655065507,0,0
-113.24612589801,42.695213172836,0.15949594959496,336811.35414459,-10112.350698415,4842843.754601,5.359495949595,0,0
-113.24612582349,42.680038857613,0.16392639263926,336811.35414459,-10112.350698415,4842843.754601,5.3639263926393,0,0
-113.24612574898,42.664864542391,0.16835683568357,336811.35414459,-10112.350698415,4842843.754601,5.3683568356836,0,0
-113.24612567447,42.649690227168,0.17278727872787,336811.35414459,-10112.350698415,4842843.754601,5.3727872787279,0,0
-113.24612559995,42.634515911946,0.17721772177218,336811.35414459,-10112.350698415,4842843.754601,5.3772177217722,0,0
-113.24612552544,42.619341596723,0.18164816481648,336811.35414459,-10112.350698415,4842843.754601,5.3816481648165,0,0
-113.24612544863,42.60416729031,0.18607860786079,340582.00650461,37569.3860065,4729791.1087542,5.3860786078608,0,0
-113.24612536767,42.588992999849,0.19050905090509,340582.00650461,37569.3860065,4729791.1087542,5.3905090509051,0,0
-113.24612528671,42.573818709388,0.19493949394939,340582.00650461,37569.3860065,4729791.1087542,5.3949394939494,0,0
-113.24612520576,42.558644418926,0.1993699369937,340582.00650461,37569.3860065,4729791.1087542,5.3993699369937,0,0
-113.2461251248,42.543470128465,0.203800380038,340582.00650461,37569.3860065,4729791.1087542,5.403800380038,0,0
-113.24612504384,42.528295838004,0.20823082308231,340582.00650461,37569.3860065,4729791.1087542,5.4082308230823,0,0
-113.24612496288,42.513121547543,0.21266126612661,340582.00650461,37569.3860065,4729791.1087542,5.4126612661266,0,0
-113.24612488192,42.497947257082,0.21709170917092,340582.00650461,37569.3860065,4729791.1087542,5.4170917091709,0,0
-113.24612480097,42.482772966621,0.22152215221522,340582.00650461,37569.3860065,4729791.1087542,5.4215221522152,0,0
-113.24612472001,42.46759867616,0.22595259525953,340582.00650461,37569.3860065,4729791.1087542,5.4259525952595,0,0
-113.24612463905,42.452424385698,0.23038303830383,340582.00650461,37569.3860065,4729791.1087542,5.4303830383038,0,0
-113.24612455263,42.43725008945,0.23481348134813,458373.5193696,6764.4039244781,4718500.4326315,5.4348134813481,0,0
-113.24612445242,42.422075778596,0.23924392439244,458373.5193696,6764.4039244781,4718500.4326315,5.4392439243924,0,0
-113.2461243522,42.406901467742,0.24367436743674,458373.5193696,6764.4039244781,4718500.4326315,5.4436743674367,0,0
-113.24612425199,42.391727156888,0.24810481048105,458373.5193696,6764.4039244781,4718500.4326315,5.448104810481,0,0
-113.24612415178,42.376552846034,0.25253525352535,458373.5193696,6764.4039244781,4718500.4326315,5.4525352535254,0,0
-113.24612405157,42.36137853518,0.25696569656966,458373.5193696,6764.4039244781,4718500.4326315,5.4569656965697,0,0
-113.24612395135,42.346204224327,0.26139613961396,458373.5193696,6764.4039244781,4718500.4326315,5.461396139614,0,0
-113.24612385114,42.331029913473,0.26582658265827,458373.5193696,6764.4039244781,4718500.4326315,5.4658265826583,0,0
-113.24612375093,42.315855602619,0.27025702570257,458373.5193696,6764.4039244781,4718500.4326315,5.4702570257026,0,0
-113.24612365072,42.300681291765,0.27468746874687,458373.5193696,6764.4039244781,4718500.4326315,5.4746874687469,0,0
-113.2461235505,42.285506980911,0.27911791179118,458373.5193696,6764.4039244781,4718500.4326315,5.4791179117912,0,0
-113.24612345029,42.270332670057,0.28354835483548,458373.5193696,6764.4039244781,4718500.4326315,5.4835483548355,0,0
-113.24612335008,42.255158359204,0.28797879787979,458373.5193696,6764.4039244781,4718500.4326315,5.4879787978798,0,0
-113.24612324987,42.23998404835,0.29240924092409,458373.5193696,6764.4039244781,4718500.4326315,5.4924092409241,0,0
-113.24612314965,42.224809737496,0.2968396839684,458373.5193696,6764.4039244781,4718500.4326315,5.4968396839684,0,0
-113.24612304944,42.209635426642,0.3012701270127,458373.5193696,6764.4039244781,4718500.4326315,5.5012701270127,0,0
-113.24612294923,42.194461115788,0.30570057005701,458373.5193696,6764.4039244781,4718500.4326315,5.505700570057,0,0
-113.24612284902,42.179286804934,0.31013101310131,458373.5193696,6764.4039244781,4718500.4326315,5.5101310131013,0,0
-113.2461227488,42.164112494081,0.31456145614561,458373.5193696,6764.4039244781,4718500.4326315,5.5145614561456,0,0
-113.24612264859,42.148938183227,0.31899189918992,458373.5193696,6764.4039244781,4718500.4326315,5.5189918991899,0,0
-113.24612254838,42.133763872373,0.32342234223422,458373.5193696,6764.4039244781,4718500.4326315,5.5234223422342,0,0
-113.24612244817,42.118589561519,0.32785278527853,458373.5193696,6764.4039244781,4718500.4326315,5.5278527852785,0,0
-113.24612234795,42.103415250665,0.33228322832283,458373.5193696,6764.4039244781,4718500.4326315,5.5322832283228,0,0
-113.24612224774,42.088240939812,0.33671367136714,458373.5193696,6764.4039244781,4718500.4326315,5.5367136713671,0,0
-113.24612214753,42.073066628958,0.34114411441144,458373.5193696,6764.4039244781,4718500.4326315,5.5411441144114,0,0
-113.24612204732,42.057892318104,0.34557455745575,458373.5193696,6764.4039244781,4718500.4326315,5.5455745574557,0,0
-113.2461219471,42.04271800725,0.35000500050005,458373.5193696,6764.4039244781,4718500.4326315,5.5500050005001,0,0
-113.24612184389,42.027543705506,0.35443544354435,471970.6696031,47708.272671252,4614179.5928587,5.5544354435444,0,0
-113.24612173613,42.01236941755,0.35886588658866,471970.6696031,47708.272671252,4614179.5928587,5.5588658865887,0,0
-113.24612162836,41.997195129595,0.36329632963296,471970.6696031,47708.272671252,4614179.5928587,5.563296329633,0,0
-113.2461215206,41.982020841639,0.36772677267727,471970.6696031,47708.272671252,4614179.5928587,5.5677267726773,0,0
-113.24612141284,41.966846553683,0.37215721572157,471970.6696031,47708.272671252,4614179.5928587,5.5721572157216,0,0
-113.24612130508,41.951672265728,0.37658765876588,471970.6696031,47708.272671252,4614179.5928587,5.5765876587659,0,0
-113.24612119731,41.936497977772,0.38101810181018,471970.6696031,47708.272671252,4614179.5928587,5.5810181018102,0,0
-113.24612108679,41.921323686883,0.38544854485449,581411.4487775,18656.236071896,4604296.585763,5.5854485448545,0,0
-113.24612096117,41.906149379922,0.38987898789879,581411.4487775,18656.236071896,4604296.585763,5.5898789878988,0,0
-113.24612083555,41.890975072962,0.39430943094309,581411.4487775,18656.236071896,4604296.585763,5.5943094309431,0,0
-113.24612070993,41.875800766002,0.3987398739874,581411.4487775,18656.236071896,4604296.585763,5.5987398739874,0,0
-113.24612058431,41.860626459042,0.4031703170317,581411.4487775,18656.236071896,4604296.585763,5.6031703170317,0,0
-113.24612045869,41.845452152081,0.40760076007601,581411.4487775,18656.236071896,4604296.585763,5.607600760076,0,0
-113.24612033307,41.830277845121,0.41203120312031,581411.4487775,18656.236071896,4604296.585763,5.6120312031203,0,0
-113.24612020745,41.815103538161,0.41646164616462,581411.4487775,18656.236071896,4604296.585763,5.6164616461646,0,0
-113.24612008183,41.799929231201,0.42089208920892,581411.4487775,18656.236071896,4604296.585763,5.6208920892089,0,0
-113.24611995621,41.78475492424,0.42532253225323,581411.4487775,18656.236071896,4604296.585763,5.6253225322532,0,0
-113.24611983059,41.76958061728,0.42975297529753,581411.4487775,18656.236071896,4604296.585763,5.6297529752975,0,0
-113.24611970497,41.75440631032,0.43418341834183,581411.4487775,18656.236071896,4604296.585763,5.6341834183418,0,0
-113.24611957935,41.73923200336,0.43861386138614,581411.4487775,18656.236071896,4604296.585763,5.6386138613861,0,0
-113.24611945373,41.724057696399,0.44304430443044,581411.4487775,18656.236071896,4604296.585763,5.6430443044304,0,0
-113.24611932811,41.708883389439,0.44747474747475,581411.4487775,18656.236071896,4604296.585763,5.6474747474747,0,0
-113.24611920249,41.693709082479,0.45190519051905,581411.4487775,18656.236071896,4604296.585763,5.6519051905191,0,0
-113.24611907687,41.678534775518,0.45633563356336,581411.4487775,18656.236071896,4604296.585763,5.6563356335634,0,0
-113.24611895125,41.663360468558,0.46076607660766,581411.4487775,18656.236071896,4604296.585763,5.6607660766077,0,0
-113.24611882563,41.648186161598,0.46519651965196,581411.4487775,18656.236071896,4604296.585763,5.665196519652,0,0
-113.24611870001,41.633011854638,0.46962696269627,581411.4487775,18656.236071896,4604296.585763,5.6696269626963,0,0
-113.24611857439,41.617837547677,0.47405740574057,581411.4487775,18656.236071896,4604296.585763,5.6740574057406,0,0
-113.24611844877,41.602663240717,0.47848784878488,581411.4487775,18656.236071896,4604296.585763,5.6784878487849,0,0
-113.24611832315,41.587488933757,0.48291829182918,581411.4487775,18656.236071896,4604296.585763,5.6829182918292,0,0
-113.24611819753,41.572314626797,0.48734873487349,581411.4487775,18656.236071896,4604296.585763,5.6873487348735,0,0
-113.2461180719,41.557140319836,0.49177917791779,581411.4487775,18656.236071896,4604296.585763,5.6917791779178,0,0
-113.24611794628,41.541966012876,0.4962096209621,581411.4487775,18656.236071896,4604296.585763,5.6962096209621,0,0
-113.24611782066,41.526791705916,0.5006400640064,581411.4487775,18656.236071896,4604296.585763,5.7006400640064,0,0
-113.24611769504,41.511617398956,0.50507050705071,581411.4487775,18656.236071896,4604296.585763,5.7050705070507,0,0
-113.24611756942,41.496443091995,0.50950095009501,581411.4487775,18656.236071896,4604296.585763,5.709500950095,0,0
-113.2461174438,41.481268785035,0.51393139313931,581411.4487775,18656.236071896,4604296.585763,5.7139313931393,0,0
-113.24611731818,41.466094478075,0.51836183618362,581411.4487775,18656.236071896,4604296.585763,5.7183618361836,0,0
-113.24611719256,41.450920171115,0.52279227922792,581411.4487775,18656.236071896,4604296.585763,5.7227922792279,0,0
-113.24611706694,41.435745864154,0.52722272227223,581411.4487775,18656.236071896,4604296.585763,5.7272227222722,0,0
-113.24611694132,41.420571557194,0.53165316531653,581411.4487775,18656.236071896,4604296.585763,5.7316531653165,0,0
-113.24611681068,41.405397264898,0.53608360836084,593368.7906686,55725.996079862,4498215.5515118,5.7360836083608,0,0
-113.24611667768,41.390222979493,0.54051405140514,593368.7906686,55725.996079862,4498215.5515118,5.7405140514051,0,0
-113.24611653156,41.375048679441,0.54494449444945,690082.58836411,29157.468063169,4480736.1267394,5.7449444944494,0,0
-113.24611638233,41.359874375906,0.54937493749375,690082.58836411,29157.468063169,4480736.1267394,5.7493749374937,0,0
-113.24611623309,41.344700072371,0.55380538053805,690082.58836411,29157.468063169,4480736.1267394,5.7538053805381,0,0
-113.24611608386,41.329525768837,0.55823582358236,690082.58836411,29157.468063169,4480736.1267394,5.7582358235824,0,0
-113.24611593462,41.314351465302,0.56266626662666,690082.58836411,29157.468063169,4480736.1267394,5.7626662666267,0,0
-113.24611578539,41.299177161767,0.56709670967097,690082.58836411,29157.468063169,4480736.1267394,5.767096709671,0,0
-113.24611563615,41.284002858232,0.57152715271527,690082.58836411,29157.468063169,4480736.1267394,5.7715271527153,0,0
-113.24611548692,41.268828554697,0.57595759575958,690082.58836411,29157.468063169,4480736.1267394,5.7759575957596,0,0
-113.24611533768,41.253654251163,0.58038803880388,690082.58836411,29157.468063169,4480736.1267394,5.7803880388039,0,0
-113.24611518845,41.238479947628,0.58481848184818,690082.58836411,29157.468063169,4480736.1267394,5.7848184818482,0,0
-113.24611503921,41.223305644093,0.58924892489249,690082.58836411,29157.468063169,4480736.1267394,5.7892489248925,0,0
-113.24611488998,41.208131340558,0.59367936793679,690082.58836411,29157.468063169,4480736.1267394,5.7936793679368,0,0
-113.24611474207,41.192957036278,0.5981098109811,643111.86870177,-26982.165531099,4386829.6962098,5.7981098109811,0,0
-113.24611459542,41.177782731288,0.6025402540254,643111.86870177,-26982.165531099,4386829.6962098,5.8025402540254,0,0
-113.24611444877,41.162608426297,0.60697069706971,643111.86870177,-26982.165531099,4386829.6962098,5.8069706970697,0,0
-113.24611430213,41.147434121306,0.61140114011401,643111.86870177,-26982.165531099,4386829.6962098,5.811401140114,0,0
-113.24611415548,41.132259816315,0.61583158315832,643111.86870177,-26982.165531099,4386829.6962098,5.8158315831583,0,0
-113.24611400883,41.117085511325,0.62026202620262,643111.86870177,-26982.165531099,4386829.6962098,5.8202620262026,0,0
-113.24611386219,41.101911206334,0.62469246924692,643111.86870177,-26982.165531099,4386829.6962098,5.8246924692469,0,0
-113.24611371554,41.086736901343,0.62912291229123,643111.86870177,-26982.165531099,4386829.6962098,5.8291229122912,0,0
-113.2461135689,41.071562596352,0.63355335533553,643111.86870177,-26982.165531099,4386829.6962098,5.8335533553355,0,0
-113.24611342225,41.056388291361,0.63798379837984,643111.86870177,-26982.165531099,4386829.6962098,5.8379837983798,0,0
-113.2461132756,41.041213986371,0.64241424142414,643111.86870177,-26982.165531099,4386829.6962098,5.8424142414241,0,0
-113.24611312896,41.02603968138,0.64684468446845,643111.86870177,-26982.165531099,4386829.6962098,5.8468446844684,0,0
-113.24611298231,41.010865376389,0.65127512751275,643111.86870177,-26982.165531099,4386829.6962098,5.8512751275128,0,0
-113.24611283566,40.995691071398,0.65570557055706,643111.86870177,-26982.165531099,4386829.6962098,5.8557055705571,0,0
-113.24611268902,40.980516766408,0.66013601360136,643111.86870177,-26982.165531099,4386829.6962098,5.8601360136014,0,0
-113.24611254237,40.965342461417,0.66456645664566,643111.86870177,-26982.165531099,4386829.6962098,5.8645664566457,0,0
-113.24611239573,40.950168156426,0.66899689968997,643111.86870177,-26982.165531099,4386829.6962098,5.86899689969,0,0
-113.24611224908,40.934993851435,0.67342734273427,643111.86870177,-26982.165531099,4386829.6962098,5.8734273427343,0,0
-113.24611210243,40.919819546445,0.67785778577858,643111.86870177,-26982.165531099,4386829.6962098,5.8778577857786,0,0
-113.24611195579,40.904645241454,0.68228822882288,643111.86870177,-26982.165531099,4386829.6962098,5.8822882288229,0,0
-113.24611180914,40.889470936463,0.68671867186719,643111.86870177,-26982.165531099,4386829.6962098,5.8867186718672,0,0
-113.24611166249,40.874296631472,0.69114911491149,643111.86870177,-26982.165531099,4386829.6962098,5.8911491149115,0,0
-113.24611150611,40.859122321787,0.6955795579558,818085.7494207,-43540.706382397,4427490.1567857,5.8955795579558,0,0
-113.24611133384,40.843948004435,0.7000100010001,818085.7494207,-43540.706382397,4427490.1567857,5.9000100010001,0,0
-113.24611116156,40.828773687084,0.7044404440444,818085.7494207,-43540.706382397,4427490.1567857,5.9044404440444,0,0
-113.24611098928,40.813599369732,0.70887088708871,818085.7494207,-43540.706382397,4427490.1567857,5.9088708870887,0,0
-113.246110817,40.79842505238,0.71330133013301,818085.7494207,-43540.706382397,4427490.1567857,5.913301330133,0,0
-113.24611064473,40.783250735029,0.71773177317732,818085.7494207,-43540.706382397,4427490.1567857,5.9177317731773,0,0
-113.24611047596,40.76807642103,0.72216221622162,739198.21625918,4859.144553768,4318828.8194922,5.9221622162216,0,0
-113.24611031057,40.752902110244,0.72659265926593,739198.21625918,4859.144553768,4318828.8194922,5.9265926592659,0,0
-113.24611014518,40.737727799457,0.73102310231023,739198.21625918,4859.144553768,4318828.8194922,5.9310231023102,0,0
-113.24610997979,40.72255348867,0.73545354535454,739198.21625918,4859.144553768,4318828.8194922,5.9354535453545,0,0
-113.24610981439,40.707379177884,0.73988398839884,739198.21625918,4859.144553768,4318828.8194922,5.9398839883988,0,0
-113.246109649,40.692204867097,0.74431443144314,739198.21625918,4859.144553768,4318828.8194922,5.9443144314431,0,0
-113.24610948361,40.67703055631,0.74874487448745,739198.21625918,4859.144553768,4318828.8194922,5.9487448744874,0,0
-113.24610931821,40.661856245524,0.75317531753175,739198.21625918,4859.144553768,4318828.8194922,5.9531753175318,0,0
-113.24610915282,40.646681934737,0.75760576057606,739198.21625918,4859.144553768,4318828.8194922,5.9576057605761,0,0
-113.24610898743,40.63150762395,0.76203620362036,739198.21625918,4859.144553768,4318828.8194922,5.9620362036204,0,0
-113.24610882203,40.616333313164,0.76646664666467,739198.21625918,4859.144553768,4318828.8194922,5.9664666466647,0,0
-113.24610865664,40.601159002377,0.77089708970897,739198.21625918,4859.144553768,4318828.8194922,5.970897089709,0,0
-113.24610849125,40.58598469159,0.77532753275328,739198.21625918,4859.144553768,4318828.8194922,5.9753275327533,0,0
-113.24610832586,40.570810380803,0.77975797579758,739198.21625918,4859.144553768,4318828.8194922,5.9797579757976,0,0
-113.24610816046,40.555636070017,0.78418841884188,739198.21625918,4859.144553768,4318828.8194922,5.9841884188419,0,0
-113.24610799507,40.54046175923,0.78861886188619,739198.21625918,4859.144553768,4318828.8194922,5.9886188618862,0,0
-113.24610782968,40.525287448443,0.79304930493049,739198.21625918,4859.144553768,4318828.8194922,5.9930493049305,0,0
-113.24610766428,40.510113137657,0.7974797479748,739198.21625918,4859.144553768,4318828.8194922,5.9974797479748,0,0
-113.24610749889,40.49493882687,0.8019101910191,739198.21625918,4859.144553768,4318828.8194922,6.0019101910191,0,0
-113.2461073335,40.479764516083,0.80634063406341,739198.21625918,4859.144553768,4318828.8194922,6.0063406340634,0,0
-113.24610716811,40.464590205297,0.81077107710771,739198.21625918,4859.144553768,4318828.8194922,6.0107710771077,0,0
-113.24610700271,40.44941589451,0.81520152015201,739198.21625918,4859.144553768,4318828.8194922,6.015201520152,0,0
-113.24610683732,40.434241583723,0.81963196319632,739198.21625918,4859.144553768,4318828.8194922,6.0196319631963,0,0
-113.24610667193,40.419067272936,0.82406240624062,739198.21625918,4859.144553768,4318828.8194922,6.0240624062406,0,0
-113.24610650653,40.40389296215,0.82849284928493,739198.21625918,4859.144553768,4318828.8194922,6.0284928492849,0,0
-113.24610634114,40.388718651363,0.83292329232923,739198.21625918,4859.144553768,4318828.8194922,6.0329232923292,0,0
-113.24610617575,40.373544340576,0.83735373537354,739198.21625918,4859.144553768,4318828.8194922,6.0373537353735,0,0
-113.24610601035,40.35837002979,0.84178417841784,739198.21625918,4859.144553768,4318828.8194922,6.0417841784178,0,0
-113.24610584496,40.343195719003,0.84621462146215,739198.21625918,4859.144553768,4318828.8194922,6.0462146214621,0,0
-113.24610567718,40.32802141075,0.85064506450645,860518.91691205,35379.710694504,4301856.7217926,6.0506450645065,0,0
-113.24610549168,40.312847121259,0.85507550755076,860518.91691205,35379.710694504,4301856.7217926,6.0550755075508,0,0
-113.24610530618,40.297672831769,0.85950595059506,860518.91691205,35379.710694504,4301856.7217926,6.0595059505951,0,0
-113.24610512067,40.282498542278,0.86393639363936,860518.91691205,35379.710694504,4301856.7217926,6.0639363936394,0,0
-113.24610493517,40.267324252787,0.86836683668367,860518.91691205,35379.710694504,4301856.7217926,6.0683668366837,0,0
-113.24610474967,40.252149963296,0.87279727972797,860518.91691205,35379.710694504,4301856.7217926,6.072797279728,0,0
-113.24610456417,40.236975673805,0.87722772277228,860518.91691205,35379.710694504,4301856.7217926,6.0772277227723,0,0
-113.24610437867,40.221801384314,0.88165816581658,860518.91691205,35379.710694504,4301856.7217926,6.0816581658166,0,0
-113.24610419317,40.206627094824,0.88608860886089,860518.91691205,35379.710694504,4301856.7217926,6.0860886088609,0,0
-113.24610400767,40.191452805333,0.89051905190519,860518.91691205,35379.710694504,4301856.7217926,6.0905190519052,0,0
-113.24610382217,40.176278515842,0.8949494949495,860518.91691205,35379.710694504,4301856.7217926,6.0949494949495,0,0
-113.24610363667,40.161104226351,0.8993799379938,860518.91691205,35379.710694504,4301856.7217926,6.0993799379938,0,0
-113.24610345117,40.14592993686,0.9038103810381,860518.91691205,35379.710694504,4301856.7217926,6.1038103810381,0,0
-113.24610326567,40.130755647369,0.90824082408241,860518.91691205,35379.710694504,4301856.7217926,6.1082408240824,0,0
-113.24610308017,40.115581357879,0.91267126712671,860518.91691205,35379.710694504,4301856.7217926,6.1126712671267,0,0
-113.24610289467,40.100407068388,0.91710171017102,860518.91691205,35379.710694504,4301856.7217926,6.117101710171,0,0
-113.24610270917,40.085232778897,0.92153215321532,860518.91691205,35379.710694504,4301856.7217926,6.1215321532153,0,0
-113.24610252367,40.070058489406,0.92596259625963,860518.91691205,35379.710694504,4301856.7217926,6.1259625962596,0,0
-113.24610233817,40.054884199915,0.93039303930393,860518.91691205,35379.710694504,4301856.7217926,6.1303930393039,0,0
-113.24610215267,40.039709910425,0.93482348234823,860518.91691205,35379.710694504,4301856.7217926,6.1348234823482,0,0
-113.24610196443,40.02453561601,0.93925392539254,917439.47819739,-340.78884778085,4224034.7186179,6.1392539253925,0,0
-113.24610176589,40.009361303019,0.94368436843684,917439.47819739,-340.78884778085,4224034.7186179,6.1436843684368,0,0
-113.24610156734,39.994186990028,0.94811481148115,917439.47819739,-340.78884778085,4224034.7186179,6.1481148114811,0,0
-113.24610136879,39.979012677036,0.95254525452545,917439.47819739,-340.78884778085,4224034.7186179,6.1525452545255,0,0
-113.24610117024,39.963838364045,0.95697569756976,917439.47819739,-340.78884778085,4224034.7186179,6.1569756975698,0,0
-113.2461009717,39.948664051054,0.96140614061406,917439.47819739,-340.78884778085,4224034.7186179,6.1614061406141,0,0
-113.24610077315,39.933489738063,0.96583658365837,917439.47819739,-340.78884778085,4224034.7186179,6.1658365836584,0,0
-113.2461005746,39.918315425071,0.97026702670267,917439.47819739,-340.78884778085,4224034.7186179,6.1702670267027,0,0
-113.24610037606,39.90314111208,0.97469746974697,917439.47819739,-340.78884778085,4224034.7186179,6.174697469747,0,0
-113.24610017751,39.887966799089,0.97912791279128,917439.47819739,-340.78884778085,4224034.7186179,6.1791279127913,0,0
-113.24609997896,39.872792486098,0.98355835583558,917439.47819739,-340.78884778085,4224034.7186179,6.1835583558356,0,0
-113.24609978041,39.857618173106,0.98798879887989,917439.47819739,-340.78884778085,4224034.7186179,6.1879887988799,0,0
-113.24609958187,39.842443860115,0.99241924192419,917439.47819739,-340.78884778085,4224034.7186179,6.1924192419242,0,0
-113.24609938332,39.827269547124,0.9968496849685,917439.47819739,-340.78884778085,4224034.7186179,6.1968496849685,0,0
-113.24609918477,39.812095234133,1.0012801280128,917439.47819739,-340.78884778085,4224034.7186179,6.2012801280128,0,0
-113.24609898623,39.796920921141,1.0057105710571,917439.47819739,-340.78884778085,4224034.7186179,6.2057105710571,0,0
-113.24609878768,39.78174660815,1.0101410141014,917439.47819739,-340.78884778085,4224034.7186179,6.2101410141014,0,0
-113.24609858913,39.766572295159,1.0145714571457,917439.47819739,-340.78884778085,4224034.7186179,6.2145714571457,0,0
-113.24609839058,39.751397982168,1.01900190019,917439.47819739,-340.78884778085,4224034.7186179,6.21900190019,0,0
-113.24609819204,39.736223669176,1.0234323432343,917439.47819739,-340.78884778085,4224034.7186179,6.2234323432343,0,0
-113.24609799349,39.721049356185,1.0278627862786,917439.47819739,-340.78884778085,4224034.7186179,6.2278627862786,0,0
-113.24609779494,39.705875043194,1.0322932293229,917439.47819739,-340.78884778085,4224034.7186179,6.2322932293229,0,0
-113.2460975964,39.690700730203,1.0367236723672,917439.47819739,-340.78884778085,4224034.7186179,6.2367236723672,0,0
-113.24609739785,39.675526417211,1.0411541154115,917439.47819739,-340.78884778085,4224034.7186179,6.2411541154115,0,0
-113.2460971993,39.66035210422,1.0455845584558,917439.47819739,-340.78884778085,4224034.7186179,6.2455845584558,0,0
-113.24609700075,39.645177791229,1.0500150015002,917439.47819739,-340.78884778085,4224034.7186179,6.2500150015002,0,0
-113.24609680221,39.630003478238,1.0544454445445,917439.47819739,-340.78884778085,4224034.7186179,6.2544454445445,0,0
-113.24609660366,39.614829165246,1.0588758875888,917439.47819739,-340.78884778085,4224034.7186179,6.2588758875888,0,0
-113.24609640511,39.599654852255,1.0633063306331,917439.47819739,-340.78884778085,4224034.7186179,6.2633063306331,0,0
-113.24609620657,39.584480539264,1.0677367736774,917439.47819739,-340.78884778085,4224034.7186179,6.2677367736774,0,0
-113.24609600802,39.569306226273,1.0721672167217,917439.47819739,-340.78884778085,4224034.7186179,6.2721672167217,0,0
-113.24609580947,39.554131913281,1.076597659766,917439.47819739,-340.78884778085,4224034.7186179,6.276597659766,0,0
-113.24609561092,39.53895760029,1.0810281028103,917439.47819739,-340.78884778085,4224034.7186179,6.2810281028103,0,0
-113.24609541238,39.523783287299,1.0854585458546,917439.47819739,-340.78884778085,4224034.7186179,6.2854585458546,0,0
-113.24609521383,39.508608974308,1.0898889888989,917439.47819739,-340.78884778085,4224034.7186179,6.2898889888989,0,0
-113.24609501528,39.493434661316,1.0943194319432,917439.47819739,-340.78884778085,4224034.7186179,6.2943194319432,0,0
-113.24609481674,39.478260348325,1.0987498749875,917439.47819739,-340.78884778085,4224034.7186179,6.2987498749875,0,0
-113.24609461819,39.463086035334,1.1031803180318,917439.47819739,-340.78884778085,4224034.7186179,6.3031803180318,0,0
-113.24609440941,39.447911742031,1.1076107610761,963118.72594191,32920.117676402,4149053.5258077,6.3076107610761,0,0
-113.24609419974,39.432737450429,1.1120412041204,963118.72594191,32920.117676402,4149053.5258077,6.3120412041204,0,0
-113.24609399008,39.417563158828,1.1164716471647,963118.72594191,32920.117676402,4149053.5258077,6.3164716471647,0,0
-113.24609378041,39.402388867226,1.120902090209,963118.72594191,32920.117676402,4149053.5258077,6.320902090209,0,0
-113.24609357075,39.387214575624,1.1253325332533,963118.72594191,32920.117676402,4149053.5258077,6.3253325332533,0,0
-113.24609336108,39.372040284022,1.1297629762976,963118.72594191,32920.117676402,4149053.5258077,6.3297629762976,0,0
-113.24609315142,39.356865992421,1.1341934193419,963118.72594191,32920.117676402,4149053.5258077,6.3341934193419,0,0
-113.24609294175,39.341691700819,1.1386238623862,963118.72594191,32920.117676402,4149053.5258077,6.3386238623862,0,0
-113.24609273209,39.326517409217,1.1430543054305,963118.72594191,32920.117676402,4149053.5258077,6.3430543054305,0,0
-113.24609252242,39.311343117615,1.1474847484748,963118.72594191,32920.117676402,4149053.5258077,6.3474847484748,0,0
-113.24609231276,39.296168826014,1.1519151915192,963118.72594191,32920.117676402,4149053.5258077,6.3519151915192,0,0
-113.24609210309,39.280994534412,1.1563456345635,963118.72594191,32920.117676402,4149053.5258077,6.3563456345635,0,0
-113.24609189343,39.26582024281,1.1607760776078,963118.72594191,32920.117676402,4149053.5258077,6.3607760776078,0,0
-113.24609168376,39.250645951208,1.1652065206521,963118.72594191,32920.117676402,4149053.5258077,6.3652065206521,0,0
-113.2460914741,39.235471659607,1.1696369636964,963118.72594191,32920.117676402,4149053.5258077,6.3696369636964,0,0
-113.24609126443,39.220297368005,1.1740674067407,963118.72594191,32920.117676402,4149053.5258077,6.3740674067407,0,0
-113.24609105477,39.205123076403,1.178497849785,963118.72594191,32920.117676402,4149053.5258077,6.378497849785,0,0
-113.2460908451,39.189948784801,1.1829282928293,963118.72594191,32920.117676402,4149053.5258077,6.3829282928293,0,0
-113.24609063544,39.1747744932,1.1873587358736,963118.72594191,32920.117676402,4149053.5258077,6.3873587358736,0,0
-113.2460904223,39.159600195836,1.1917891789179,1033391.9221812,-4624.9990923448,4099592.8606272,6.3917891789179,0,0
-113.24609019894,39.144425881528,1.1962196219622,1033391.9221812,-4624.9990923448,4099592.8606272,6.3962196219622,0,0
-113.24608997557,39.12925156722,1.2006500650065,1033391.9221812,-4624.9990923448,4099592.8606272,6.4006500650065,0,0
-113.24608975221,39.114077252912,1.2050805080508,1033391.9221812,-4624.9990923448,4099592.8606272,6.4050805080508,0,0
-113.24608952885,39.098902938604,1.2095109510951,1033391.9221812,-4624.9990923448,4099592.8606272,6.4095109510951,0,0
-113.24608930549,39.083728624296,1.2139413941394,1033391.9221812,-4624.9990923448,4099592.8606272,6.4139413941394,0,0
-113.24608908213,39.068554309988,1.2183718371837,1033391.9221812,-4624.9990923448,4099592.8606272,6.4183718371837,0,0
-113.24608885877,39.05337999568,1.222802280228,1033391.9221812,-4624.9990923448,4099592.8606272,6.422802280228,0,0
-113.24608863541,39.038205681372,1.2272327232723,1033391.9221812,-4624.9990923448,4099592.8606272,6.4272327232723,0,0
-113.24608841204,39.023031367064,1.2316631663166,1033391.9221812,-4624.9990923448,4099592.8606272,6.4316631663166,0,0
-113.24608818868,39.007857052756,1.2360936093609,1033391.9221812,-4624.9990923448,4099592.8606272,6.4360936093609,0,0
-113.24608796532,38.992682738448,1.2405240524052,1033391.9221812,-4624.9990923448,4099592.8606272,6.4405240524052,0,0
-113.24608774196,38.97750842414,1.2449544954495,1033391.9221812,-4624.9990923448,4099592.8606272,6.4449544954495,0,0
-113.2460875186,38.962334109832,1.2493849384938,1033391.9221812,-4624.9990923448,4099592.8606272,6.4493849384938,0,0
-113.24608729524,38.947159795524,1.2538153815382,1033391.9221812,-4624.9990923448,4099592.8606272,6.4538153815382,0,0
-113.24608707187,38.931985481215,1.2582458245825,1033391.9221812,-4624.9990923448,4099592.8606272,6.4582458245825,0,0
-113.24608684851,38.916811166907,1.2626762676268,1033391.9221812,-4624.9990923448,4099592.8606272,6.4626762676268,0,0
-113.24608662515,38.901636852599,1.2671067106711,1033391.9221812,-4624.9990923448,4099592.8606272,6.4671067106711,0,0
-113.24608640179,38.886462538291,1.2715371537154,1033391.9221812,-4624.9990923448,4099592.8606272,6.4715371537154,0,0
-113.24608617843,38.871288223983,1.2759675967597,1033391.9221812,-4624.9990923448,4099592.8606272,6.4759675967597,0,0
-113.24608595507,38.856113909675,1.280398039804,1033391.9221812,-4624.9990923448,4099592.8606272,6.480398039804,0,0
-113.24608573171,38.840939595367,1.2848284828483,1033391.9221812,-4624.9990923448,4099592.8606272,6.4848284828483,0,0
-113.24608550834,38.825765281059,1.2892589258926,1033391.9221812,-4624.9990923448,4099592.8606272,6.4892589258926,0,0
-113.24608528498,38.810590966751,1.2936893689369,1033391.9221812,-4624.9990923448,4099592.8606272,6.4936893689369,0,0
-113.24608506162,38.795416652443,1.2981198119812,1033391.9221812,-4624.9990923448,4099592.8606272,6.4981198119812,0,0
-113.24608483826,38.780242338135,1.3025502550255,1033391.9221812,-4624.9990923448,4099592.8606272,6.5025502550255,0,0
-113.2460846149,38.765068023827,1.3069806980698,1033391.9221812,-4624.9990923448,4099592.8606272,6.5069806980698,0,0
-113.24608439154,38.749893709519,1.3114111411141,1033391.9221812,-4624.9990923448,4099592.8606272,6.5114111411141,0,0
-113.24608416818,38.734719395211,1.3158415841584,1033391.9221812,-4624.9990923448,4099592.8606272,6.5158415841584,0,0
-113.24608394481,38.719545080902,1.3202720272027,1033391.9221812,-4624.9990923448,4099592.8606272,6.5202720272027,0,0
-113.24608372145,38.704370766594,1.324702470247,1033391.9221812,-4624.9990923448,4099592.8606272,6.524702470247,0,0
-113.24608349809,38.689196452286,1.3291329132913,1033391.9221812,-4624.9990923448,4099592.8606272,6.5291329132913,0,0
-113.24608327473,38.674022137978,1.3335633563356,1033391.9221812,-4624.9990923448,4099592.8606272,6.5335633563356,0,0
-113.24608305137,38.65884782367,1.3379937993799,1033391.9221812,-4624.9990923448,4099592.8606272,6.5379937993799,0,0
-113.24608282801,38.643673509362,1.3424242424242,1033391.9221812,-4624.9990923448,4099592.8606272,6.5424242424242,0,0
-113.24608260444,38.628499195398,1.3468546854685,1100496.9251752,31365.51261087,4045695.4590168,6.5468546854685,0,0
-113.24608236765,38.613324903438,1.3512851285129,1100496.9251752,31365.51261087,4045695.4590168,6.5512851285129,0,0
-113.24608213087,38.598150611477,1.3557155715572,1100496.9251752,31365.51261087,4045695.4590168,6.5557155715572,0,0
-113.24608189408,38.582976319517,1.3601460146015,1100496.9251752,31365.51261087,4045695.4590168,6.5601460146015,0,0
-113.2460816573,38.567802027557,1.3645764576458,1100496.9251752,31365.51261087,4045695.4590168,6.5645764576458,0,0
-113.24608142051,38.552627735596,1.3690069006901,1100496.9251752,31365.51261087,4045695.4590168,6.5690069006901,0,0
-113.24608118373,38.537453443636,1.3734373437344,1100496.9251752,31365.51261087,4045695.4590168,6.5734373437344,0,0
-113.24608094694,38.522279151676,1.3778677867787,1100496.9251752,31365.51261087,4045695.4590168,6.5778677867787,0,0
-113.24608071016,38.507104859715,1.382298229823,1100496.9251752,31365.51261087,4045695.4590168,6.582298229823,0,0
-113.24608047337,38.491930567755,1.3867286728673,1100496.9251752,31365.51261087,4045695.4590168,6.5867286728673,0,0
-113.24608023659,38.476756275795,1.3911591159116,1100496.9251752,31365.51261087,4045695.4590168,6.5911591159116,0,0
-113.2460799998,38.461581983834,1.3955895589559,1100496.9251752,31365.51261087,4045695.4590168,6.5955895589559,0,0
-113.24607976302,38.446407691874,1.4000200020002,1100496.9251752,31365.51261087,4045695.4590168,6.6000200020002,0,0
-113.24607952623,38.431233399914,1.4044504450445,1100496.9251752,31365.51261087,4045695.4590168,6.6044504450445,0,0
-113.24607928945,38.416059107953,1.4088808880888,1100496.9251752,31365.51261087,4045695.4590168,6.6088808880888,0,0
-113.24607905266,38.400884815993,1.4133113311331,1100496.9251752,31365.51261087,4045695.4590168,6.6133113311331,0,0
-113.24607881588,38.385710524033,1.4177417741774,1100496.9251752,31365.51261087,4045695.4590168,6.6177417741774,0,0
-113.24607857909,38.370536232072,1.4221722172217,1100496.9251752,31365.51261087,4045695.4590168,6.6221722172217,0,0
-113.24607834231,38.355361940112,1.426602660266,1100496.9251752,31365.51261087,4045695.4590168,6.626602660266,0,0
-113.24607810552,38.340187648152,1.4310331033103,1100496.9251752,31365.51261087,4045695.4590168,6.6310331033103,0,0
-113.24607786874,38.325013356191,1.4354635463546,1100496.9251752,31365.51261087,4045695.4590168,6.6354635463546,0,0
-113.24607763195,38.309839064231,1.4398939893989,1100496.9251752,31365.51261087,4045695.4590168,6.6398939893989,0,0
-113.24607739517,38.294664772271,1.4443244324432,1100496.9251752,31365.51261087,4045695.4590168,6.6443244324432,0,0
-113.24607715654,38.279490475204,1.4487548754875,1130528.2692903,-14736.482402306,3967744.8514111,6.6487548754875,0,0
-113.24607691096,38.264316158848,1.4531853185319,1130528.2692903,-14736.482402306,3967744.8514111,6.6531853185319,0,0
-113.24607666539,38.249141842493,1.4576157615762,1130528.2692903,-14736.482402306,3967744.8514111,6.6576157615762,0,0
-113.24607641981,38.233967526137,1.4620462046205,1130528.2692903,-14736.482402306,3967744.8514111,6.6620462046205,0,0
-113.24607617423,38.218793209782,1.4664766476648,1130528.2692903,-14736.482402306,3967744.8514111,6.6664766476648,0,0
-113.24607592866,38.203618893426,1.4709070907091,1130528.2692903,-14736.482402306,3967744.8514111,6.6709070907091,0,0
-113.24607568308,38.188444577071,1.4753375337534,1130528.2692903,-14736.482402306,3967744.8514111,6.6753375337534,0,0
-113.2460754375,38.173270260715,1.4797679767977,1130528.2692903,-14736.482402306,3967744.8514111,6.6797679767977,0,0
-113.24607519193,38.15809594436,1.484198419842,1130528.2692903,-14736.482402306,3967744.8514111,6.684198419842,0,0
-113.24607494635,38.142921628004,1.4886288628863,1130528.2692903,-14736.482402306,3967744.8514111,6.6886288628863,0,0
-113.24607470078,38.127747311649,1.4930593059306,1130528.2692903,-14736.482402306,3967744.8514111,6.6930593059306,0,0
-113.2460744552,38.112572995293,1.4974897489749,1130528.2692903,-14736.482402306,3967744.8514111,6.6974897489749,0,0
-113.24607420962,38.097398678938,1.5019201920192,1130528.2692903,-14736.482402306,3967744.8514111,6.7019201920192,0,0
-113.24607396405,38.082224362582,1.5063506350635,1130528.2692903,-14736.482402306,3967744.8514111,6.7063506350635,0,0
-113.24607371847,38.067050046227,1.5107810781078,1130528.2692903,-14736.482402306,3967744.8514111,6.7107810781078,0,0
-113.24607347289,38.051875729871,1.5152115211521,1130528.2692903,-14736.482402306,3967744.8514111,6.7152115211521,0,0
-113.24607322732,38.036701413516,1.5196419641964,1130528.2692903,-14736.482402306,3967744.8514111,6.7196419641964,0,0
-113.24607298174,38.021527097161,1.5240724072407,1130528.2692903,-14736.482402306,3967744.8514111,6.7240724072407,0,0
-113.24607273616,38.006352780805,1.528502850285,1130528.2692903,-14736.482402306,3967744.8514111,6.728502850285,0,0
-113.24607249059,37.99117846445,1.5329332933293,1130528.2692903,-14736.482402306,3967744.8514111,6.7329332933293,0,0
-113.24607224501,37.976004148094,1.5373637363736,1130528.2692903,-14736.482402306,3967744.8514111,6.7373637363736,0,0
-113.24607199944,37.960829831739,1.5417941794179,1130528.2692903,-14736.482402306,3967744.8514111,6.7417941794179,0,0
-113.24607175386,37.945655515383,1.5462246224622,1130528.2692903,-14736.482402306,3967744.8514111,6.7462246224622,0,0
-113.24607150828,37.930481199028,1.5506550655066,1130528.2692903,-14736.482402306,3967744.8514111,6.7506550655066,0,0
-113.24607126271,37.915306882672,1.5550855085509,1130528.2692903,-14736.482402306,3967744.8514111,6.7550855085509,0,0
-113.24607101713,37.900132566317,1.5595159515952,1130528.2692903,-14736.482402306,3967744.8514111,6.7595159515952,0,0
-113.24607077155,37.884958249961,1.5639463946395,1130528.2692903,-14736.482402306,3967744.8514111,6.7639463946395,0,0
-113.24607052598,37.869783933606,1.5683768376838,1130528.2692903,-14736.482402306,3967744.8514111,6.7683768376838,0,0
-113.2460702804,37.85460961725,1.5728072807281,1130528.2692903,-14736.482402306,3967744.8514111,6.7728072807281,0,0
-113.24607003482,37.839435300895,1.5772377237724,1130528.2692903,-14736.482402306,3967744.8514111,6.7772377237724,0,0
-113.24606978925,37.824260984539,1.5816681668167,1130528.2692903,-14736.482402306,3967744.8514111,6.7816681668167,0,0
-113.24606954367,37.809086668184,1.586098609861,1130528.2692903,-14736.482402306,3967744.8514111,6.786098609861,0,0
-113.2460692981,37.793912351828,1.5905290529053,1130528.2692903,-14736.482402306,3967744.8514111,6.7905290529053,0,0
-113.24606905252,37.778738035473,1.5949594959496,1130528.2692903,-14736.482402306,3967744.8514111,6.7949594959496,0,0
-113.24606880694,37.763563719117,1.5993899389939,1130528.2692903,-14736.482402306,3967744.8514111,6.7993899389939,0,0
-113.24606856137,37.748389402762,1.6038203820382,1130528.2692903,-14736.482402306,3967744.8514111,6.8038203820382,0,0
-113.24606830119,37.733215103983,1.6082508250825,1230544.8795534,15214.055952216,3936206.4823865,6.8082508250825,0,0
-113.24606803813,37.718040808671,1.6126812681268,1230544.8795534,15214.055952216,3936206.4823865,6.8126812681268,0,0
-113.24606777507,37.702866513359,1.6171117111711,1230544.8795534,15214.055952216,3936206.4823865,6.8171117111711,0,0
-113.246067512,37.687692218046,1.6215421542154,1230544.8795534,15214.055952216,3936206.4823865,6.8215421542154,0,0
-113.24606724894,37.672517922734,1.6259725972597,1230544.8795534,15214.055952216,3936206.4823865,6.8259725972597,0,0
-113.24606698588,37.657343627422,1.630403040304,1230544.8795534,15214.055952216,3936206.4823865,6.830403040304,0,0
-113.24606672282,37.64216933211,1.6348334833483,1230544.8795534,15214.055952216,3936206.4823865,6.8348334833483,0,0
-113.24606645976,37.626995036797,1.6392639263926,1230544.8795534,15214.055952216,3936206.4823865,6.8392639263926,0,0
-113.2460661967,37.611820741485,1.6436943694369,1230544.8795534,15214.055952216,3936206.4823865,6.8436943694369,0,0
-113.24606593364,37.596646446173,1.6481248124812,1230544.8795534,15214.055952216,3936206.4823865,6.8481248124812,0,0
-113.24606567058,37.581472150861,1.6525552555256,1230544.8795534,15214.055952216,3936206.4823865,6.8525552555256,0,0
-113.24606540752,37.566297855548,1.6569856985699,1230544.8795534,15214.055952216,3936206.4823865,6.8569856985699,0,0
-113.24606514446,37.551123560236,1.6614161416142,1230544.8795534,15214.055952216,3936206.4823865,6.8614161416142,0,0
-113.2460648814,37.535949264924,1.6658465846585,1230544.8795534,15214.055952216,3936206.4823865,6.8658465846585,0,0
-113.24606461834,37.520774969611,1.6702770277028,1230544.8795534,15214.055952216,3936206.4823865,6.8702770277028,0,0
-113.24606435528,37.505600674299,1.6747074707471,1230544.8795534,15214.055952216,3936206.4823865,6.8747074707471,0,0
-113.24606409222,37.490426378987,1.6791379137914,1230544.8795534,15214.055952216,3936206.4823865,6.8791379137914,0,0
-113.24606382916,37.475252083675,1.6835683568357,1230544.8795534,15214.055952216,3936206.4823865,6.8835683568357,0,0
-113.2460635661,37.460077788362,1.68799879988,1230544.8795534,15214.055952216,3936206.4823865,6.88799879988,0,0
-113.24606330304,37.44490349305,1.6924292429243,1230544.8795534,15214.055952216,3936206.4823865,6.8924292429243,0,0
-113.24606303998,37.429729197738,1.6968596859686,1230544.8795534,15214.055952216,3936206.4823865,6.8968596859686,0,0
-113.24606277692,37.414554902425,1.7012901290129,1230544.8795534,15214.055952216,3936206.4823865,6.9012901290129,0,0
-113.24606251386,37.399380607113,1.7057205720572,1230544.8795534,15214.055952216,3936206.4823865,6.9057205720572,0,0
-113.2460622508,37.384206311801,1.7101510151015,1230544.8795534,15214.055952216,3936206.4823865,6.9101510151015,0,0
-113.24606198774,37.369032016489,1.7145814581458,1230544.8795534,15214.055952216,3936206.4823865,6.9145814581458,0,0
-113.24606172467,37.353857721176,1.7190119011901,1230544.8795534,15214.055952216,3936206.4823865,6.9190119011901,0,0
-113.24606146161,37.338683425864,1.7234423442344,1230544.8795534,15214.055952216,3936206.4823865,6.9234423442344,0,0
-113.24606119855,37.323509130552,1.7278727872787,1230544.8795534,15214.055952216,3936206.4823865,6.9278727872787,0,0
-113.24606093549,37.30833483524,1.732303230323,1230544.8795534,15214.055952216,3936206.4823865,6.932303230323,0,0
-113.24606067243,37.293160539927,1.7367336733673,1230544.8795534,15214.055952216,3936206.4823865,6.9367336733673,0,0
-113.24606040937,37.277986244615,1.7411641164116,1230544.8795534,15214.055952216,3936206.4823865,6.9411641164116,0,0
-113.24606014631,37.262811949303,1.7455945594559,1230544.8795534,15214.055952216,3936206.4823865,6.9455945594559,0,0
-113.24605988325,37.24763765399,1.7500250025002,1230544.8795534,15214.055952216,3936206.4823865,6.9500250025002,0,0
-113.24605962019,37.232463358678,1.7544554455446,1230544.8795534,15214.055952216,3936206.4823865,6.9544554455446,0,0
-113.24605935713,37.217289063366,1.7588858885889,1230544.8795534,15214.055952216,3936206.4823865,6.9588858885889,0,0
-113.24605908752,37.202114749962,1.7633163316332,1258919.0532441,-30378.137736979,3850757.4647058,6.9633163316332,0,0
-113.24605881554,37.186940430042,1.7677467746775,1258919.0532441,-30378.137736979,3850757.4647058,6.9677467746775,0,0
-113.24605854356,37.171766110122,1.7721772177218,1258919.0532441,-30378.137736979,3850757.4647058,6.9721772177218,0,0
-113.24605827159,37.156591790202,1.7766076607661,1258919.0532441,-30378.137736979,3850757.4647058,6.9766076607661,0,0
-113.24605799961,37.141417470282,1.7810381038104,1258919.0532441,-30378.137736979,3850757.4647058,6.9810381038104,0,0
-113.24605772763,37.126243150362,1.7854685468547,1258919.0532441,-30378.137736979,3850757.4647058,6.9854685468547,0,0
-113.24605745565,37.111068830442,1.789898989899,1258919.0532441,-30378.137736979,3850757.4647058,6.989898989899,0,0
-113.24605718368,37.095894510522,1.7943294329433,1258919.0532441,-30378.137736979,3850757.4647058,6.9943294329433,0,0
-113.2460569117,37.080720190602,1.7987598759876,1258919.0532441,-30378.137736979,3850757.4647058,6.9987598759876,0,0
-113.24605663972,37.065545870682,1.8031903190319,1258919.0532441,-30378.137736979,3850757.4647058,7.0031903190319,0,0
-113.24605636775,37.050371550761,1.8076207620762,1258919.0532441,-30378.137736979,3850757.4647058,7.0076207620762,0,0
-113.24605609577,37.035197230841,1.8120512051205,1258919.0532441,-30378.137736979,3850757.4647058,7.0120512051205,0,0
-113.24605582379,37.020022910921,1.8164816481648,1258919.0532441,-30378.137736979,3850757.4647058,7.0164816481648,0,0
-113.24605555182,37.004848591001,1.8209120912091,1258919.0532441,-30378.137736979,3850757.4647058,7.0209120912091,0,0
-113.24605527984,36.989674271081,1.8253425342534,1258919.0532441,-30378.137736979,3850757.4647058,7.0253425342534,0,0
-113.24605500786,36.974499951161,1.8297729772977,1258919.0532441,-30378.137736979,3850757.4647058,7.0297729772977,0,0
-113.24605473589,36.959325631241,1.834203420342,1258919.0532441,-30378.137736979,3850757.4647058,7.034203420342,0,0
-113.24605446391,36.944151311321,1.8386338633863,1258919.0532441,-30378.137736979,3850757.4647058,7.0386338633863,0,0
-113.24605419193,36.928976991401,1.8430643064306,1258919.0532441,-30378.137736979,3850757.4647058,7.0430643064306,0,0
-113.24605391996,36.913802671481,1.8474947494749,1258919.0532441,-30378.137736979,3850757.4647058,7.0474947494749,0,0
-113.24605364798,36.898628351561,1.8519251925193,1258919.0532441,-30378.137736979,3850757.4647058,7.0519251925193,0,0
-113.246053376,36.88345403164,1.8563556355636,1258919.0532441,-30378.137736979,3850757.4647058,7.0563556355636,0,0
-113.24605310403,36.86827971172,1.8607860786079,1258919.0532441,-30378.137736979,3850757.4647058,7.0607860786079,0,0
-113.24605283205,36.8531053918,1.8652165216522,1258919.0532441,-30378.137736979,3850757.4647058,7.0652165216522,0,0
-113.24605256007,36.83793107188,1.8696469646965,1258919.0532441,-30378.137736979,3850757.4647058,7.0696469646965,0,0
-113.2460522881,36.82275675196,1.8740774077408,1258919.0532441,-30378.137736979,3850757.4647058,7.0740774077408,0,0
-113.24605201612,36.80758243204,1.8785078507851,1258919.0532441,-30378.137736979,3850757.4647058,7.0785078507851,0,0
-113.24605174414,36.79240811212,1.8829382938294,1258919.0532441,-30378.137736979,3850757.4647058,7.0829382938294,0,0
-113.24605147217,36.7772337922,1.8873687368737,1258919.0532441,-30378.137736979,3850757.4647058,7.0873687368737,0,0
-113.24605120019,36.76205947228,1.891799179918,1258919.0532441,-30378.137736979,3850757.4647058,7.091799179918,0,0
-113.24605091501,36.746885175281,1.8962296229623,1326834.2058363,9085.6335041492,3797661.9282232,7.0962296229623,0,0
-113.24605062953,36.731710878822,1.9006600660066,1326834.2058363,9085.6335041492,3797661.9282232,7.1006600660066,0,0
-113.24605034404,36.716536582363,1.9050905090509,1326834.2058363,9085.6335041492,3797661.9282232,7.1050905090509,0,0
-113.24605005855,36.701362285904,1.9095209520952,1326834.2058363,9085.6335041492,3797661.9282232,7.1095209520952,0,0
-113.24604977306,36.686187989445,1.9139513951395,1326834.2058363,9085.6335041492,3797661.9282232,7.1139513951395,0,0
-113.24604948758,36.671013692986,1.9183818381838,1326834.2058363,9085.6335041492,3797661.9282232,7.1183818381838,0,0
-113.24604920209,36.655839396527,1.9228122812281,1326834.2058363,9085.6335041492,3797661.9282232,7.1228122812281,0,0
-113.2460489166,36.640665100068,1.9272427242724,1326834.2058363,9085.6335041492,3797661.9282232,7.1272427242724,0,0
-113.24604863111,36.625490803609,1.9316731673167,1326834.2058363,9085.6335041492,3797661.9282232,7.1316731673167,0,0
-113.24604834563,36.61031650715,1.936103610361,1326834.2058363,9085.6335041492,3797661.9282232,7.136103610361,0,0
-113.24604806014,36.595142210691,1.9405340534053,1326834.2058363,9085.6335041492,3797661.9282232,7.1405340534053,0,0
-113.24604777465,36.579967914232,1.9449644964496,1326834.2058363,9085.6335041492,3797661.9282232,7.1449644964496,0,0
-113.24604748916,36.564793617773,1.9493949394939,1326834.2058363,9085.6335041492,3797661.9282232,7.1493949394939,0,0
-113.24604720368,36.549619321314,1.9538253825383,1326834.2058363,9085.6335041492,3797661.9282232,7.1538253825383,0,0
-113.24604691819,36.534445024855,1.9582558255826,1326834.2058363,9085.6335041492,3797661.9282232,7.1582558255826,0,0
-113.2460466327,36.519270728396,1.9626862686269,1326834.2058363,9085.6335041492,3797661.9282232,7.1626862686269,0,0
-113.24604634721,36.504096431937,1.9671167116712,1326834.2058363,9085.6335041492,3797661.9282232,7.1671167116712,0,0
-113.24604606173,36.488922135478,1.9715471547155,1326834.2058363,9085.6335041492,3797661.9282232,7.1715471547155,0,0
-113.24604577624,36.473747839019,1.9759775977598,1326834.2058363,9085.6335041492,3797661.9282232,7.1759775977598,0,0
-113.24604549075,36.45857354256,1.9804080408041,1326834.2058363,9085.6335041492,3797661.9282232,7.1804080408041,0,0
-113.24604520526,36.443399246101,1.9848384838484,1326834.2058363,9085.6335041492,3797661.9282232,7.1848384838484,0,0
-113.24604491978,36.428224949642,1.9892689268927,1326834.2058363,9085.6335041492,3797661.9282232,7.1892689268927,0,0
-113.24604463429,36.413050653183,1.993699369937,1326834.2058363,9085.6335041492,3797661.9282232,7.193699369937,0,0
-113.2460443488,36.397876356724,1.9981298129813,1326834.2058363,9085.6335041492,3797661.9282232,7.1981298129813,0,0
-113.24604406332,36.382702060265,2.0025602560256,1326834.2058363,9085.6335041492,3797661.9282232,7.2025602560256,0,0
-113.24604377783,36.367527763806,2.0069906990699,1326834.2058363,9085.6335041492,3797661.9282232,7.2069906990699,0,0
-113.24604349234,36.352353467347,2.0114211421142,1326834.2058363,9085.6335041492,3797661.9282232,7.2114211421142,0,0
-113.24604320685,36.337179170888,2.0158515851585,1326834.2058363,9085.6335041492,3797661.9282232,7.2158515851585,0,0
-113.24604292137,36.322004874429,2.0202820282028,1326834.2058363,9085.6335041492,3797661.9282232,7.2202820282028,0,0
-113.24604263588,36.30683057797,2.0247124712471,1326834.2058363,9085.6335041492,3797661.9282232,7.2247124712471,0,0
-113.24604235039,36.291656281511,2.0291429142914,1326834.2058363,9085.6335041492,3797661.9282232,7.2291429142914,0,0
-113.2460420649,36.276481985052,2.0335733573357,1326834.2058363,9085.6335041492,3797661.9282232,7.2335733573357,0,0
-113.24604177942,36.261307688593,2.03800380038,1326834.2058363,9085.6335041492,3797661.9282232,7.23800380038,0,0
-113.24604149393,36.246133392133,2.0424342434243,1326834.2058363,9085.6335041492,3797661.9282232,7.2424342434243,0,0
-113.24604120844,36.230959095674,2.0468646864686,1326834.2058363,9085.6335041492,3797661.9282232,7.2468646864686,0,0
-113.24604092295,36.215784799215,2.051295129513,1326834.2058363,9085.6335041492,3797661.9282232,7.251295129513,0,0
-113.24604063747,36.200610502756,2.0557255725573,1326834.2058363,9085.6335041492,3797661.9282232,7.2557255725573,0,0
-113.24604035198,36.185436206297,2.0601560156016,1326834.2058363,9085.6335041492,3797661.9282232,7.2601560156016,0,0
-113.24604006649,36.170261909838,2.0645864586459,1326834.2058363,9085.6335041492,3797661.9282232,7.2645864586459,0,0
-113.246039781,36.155087613379,2.0690169016902,1326834.2058363,9085.6335041492,3797661.9282232,7.2690169016902,0,0
-113.24603949552,36.13991331692,2.0734473447345,1326834.2058363,9085.6335041492,3797661.9282232,7.2734473447345,0,0
-113.24603921003,36.124739020461,2.0778777877788,1326834.2058363,9085.6335041492,3797661.9282232,7.2778777877788,0,0
-113.24603892454,36.109564724002,2.0823082308231,1326834.2058363,9085.6335041492,3797661.9282232,7.2823082308231,0,0
-113.24603863905,36.094390427543,2.0867386738674,1326834.2058363,9085.6335041492,3797661.9282232,7.2867386738674,0,0
-113.24603835357,36.079216131084,2.0911691169117,1326834.2058363,9085.6335041492,3797661.9282232,7.2911691169117,0,0
-113.24603806808,36.064041834625,2.095599559956,1326834.2058363,9085.6335041492,3797661.9282232,7.295599559956,0,0
-113.24603778259,36.048867538166,2.1000300030003,1326834.2058363,9085.6335041492,3797661.9282232,7.3000300030003,0,0
-113.24603749711,36.033693241707,2.1044604460446,1326834.2058363,9085.6335041492,3797661.9282232,7.3044604460446,0,0
-113.24603720277,36.01851893308,2.1088908890889,1415229.9970114,-24960.48293403,3760808.2540847,7.3088908890889,0,0
-113.24603690136,36.003344614734,2.1133213321332,1415229.9970114,-24960.48293403,3760808.2540847,7.3133213321332,0,0
-113.24603659996,35.988170296388,2.1177517751775,1415229.9970114,-24960.48293403,3760808.2540847,7.3177517751775,0,0
-113.24603629856,35.972995978042,2.1221822182218,1415229.9970114,-24960.48293403,3760808.2540847,7.3221822182218,0,0
-113.24603599715,35.957821659696,2.1266126612661,1415229.9970114,-24960.48293403,3760808.2540847,7.3266126612661,0,0
-113.24603569575,35.94264734135,2.1310431043104,1415229.9970114,-24960.48293403,3760808.2540847,7.3310431043104,0,0
-113.24603539434,35.927473023005,2.1354735473547,1415229.9970114,-24960.48293403,3760808.2540847,7.3354735473547,0,0
-113.24603509294,35.912298704659,2.139903990399,1415229.9970114,-24960.48293403,3760808.2540847,7.339903990399,0,0
-113.24603479153,35.897124386313,2.1443344334433,1415229.9970114,-24960.48293403,3760808.2540847,7.3443344334433,0,0
-113.24603449013,35.881950067967,2.1487648764876,1415229.9970114,-24960.48293403,3760808.2540847,7.3487648764876,0,0
-113.24603418872,35.866775749621,2.153195319532,1415229.9970114,-24960.48293403,3760808.2540847,7.353195319532,0,0
-113.24603388732,35.851601431275,2.1576257625763,1415229.9970114,-24960.48293403,3760808.2540847,7.3576257625763,0,0
-113.24603358592,35.83642711293,2.1620562056206,1415229.9970114,-24960.48293403,3760808.2540847,7.3620562056206,0,0
-113.24603328451,35.821252794584,2.1664866486649,1415229.9970114,-24960.48293403,3760808.2540847,7.3664866486649,0,0
-113.24603298311,35.806078476238,2.1709170917092,1415229.9970114,-24960.48293403,3760808.2540847,7.3709170917092,0,0
-113.2460326817,35.790904157892,2.1753475347535,1415229.9970114,-24960.48293403,3760808.2540847,7.3753475347535,0,0
-113.2460323803,35.775729839546,2.1797779777978,1415229.9970114,-24960.48293403,3760808.2540847,7.3797779777978,0,0
-113.24603207889,35.7605555212,2.1842084208421,1415229.9970114,-24960.48293403,3760808.2540847,7.3842084208421,0,0
-113.24603177749,35.745381202855,2.1886388638864,1415229.9970114,-24960.48293403,3760808.2540847,7.3886388638864,0,0
-113.24603147609,35.730206884509,2.1930693069307,1415229.9970114,-24960.48293403,3760808.2540847,7.3930693069307,0,0
-113.24603117468,35.715032566163,2.197499749975,1415229.9970114,-24960.48293403,3760808.2540847,7.397499749975,0,0
-113.24603087328,35.699858247817,2.2019301930193,1415229.9970114,-24960.48293403,3760808.2540847,7.4019301930193,0,0
-113.24603057187,35.684683929471,2.2063606360636,1415229.9970114,-24960.48293403,3760808.2540847,7.4063606360636,0,0
-113.24603027047,35.669509611125,2.2107910791079,1415229.9970114,-24960.48293403,3760808.2540847,7.4107910791079,0,0
-113.24602996906,35.65433529278,2.2152215221522,1415229.9970114,-24960.48293403,3760808.2540847,7.4152215221522,0,0
-113.24602966766,35.639160974434,2.2196519651965,1415229.9970114,-24960.48293403,3760808.2540847,7.4196519651965,0,0
-113.24602936626,35.623986656088,2.2240824082408,1415229.9970114,-24960.48293403,3760808.2540847,7.4240824082408,0,0
-113.24602906485,35.608812337742,2.2285128512851,1415229.9970114,-24960.48293403,3760808.2540847,7.4285128512851,0,0
-113.24602876345,35.593638019396,2.2329432943294,1415229.9970114,-24960.48293403,3760808.2540847,7.4329432943294,0,0
-113.24602846204,35.57846370105,2.2373737373737,1415229.9970114,-24960.48293403,3760808.2540847,7.4373737373737,0,0
-113.24602816064,35.563289382705,2.241804180418,1415229.9970114,-24960.48293403,3760808.2540847,7.441804180418,0,0
-113.24602785923,35.548115064359,2.2462346234623,1415229.9970114,-24960.48293403,3760808.2540847,7.4462346234623,0,0
-113.24602755783,35.532940746013,2.2506650665067,1415229.9970114,-24960.48293403,3760808.2540847,7.4506650665067,0,0
-113.24602725642,35.517766427667,2.255095509551,1415229.9970114,-24960.48293403,3760808.2540847,7.455095509551,0,0
-113.24602695502,35.502592109321,2.2595259525953,1415229.9970114,-24960.48293403,3760808.2540847,7.4595259525953,0,0
-113.24602665362,35.487417790975,2.2639563956396,1415229.9970114,-24960.48293403,3760808.2540847,7.4639563956396,0,0
-113.24602634834,35.472243483967,2.2683868386839,1432964.0882362,13156.913524264,3677196.1532241,7.4683868386839,0,0
-113.2460260398,35.457069186492,2.2728172817282,1432964.0882362,13156.913524264,3677196.1532241,7.4728172817282,0,0
-113.24602573126,35.441894889016,2.2772477247725,1432964.0882362,13156.913524264,3677196.1532241,7.4772477247725,0,0
-113.24602542272,35.42672059154,2.2816781678168,1432964.0882362,13156.913524264,3677196.1532241,7.4816781678168,0,0
-113.24602511418,35.411546294065,2.2861086108611,1432964.0882362,13156.913524264,3677196.1532241,7.4861086108611,0,0
-113.24602480564,35.396371996589,2.2905390539054,1432964.0882362,13156.913524264,3677196.1532241,7.4905390539054,0,0
-113.2460244971,35.381197699113,2.2949694969497,1432964.0882362,13156.913524264,3677196.1532241,7.4949694969497,0,0
-113.24602418856,35.366023401638,2.299399939994,1432964.0882362,13156.913524264,3677196.1532241,7.499399939994,0,0
-113.24602388002,35.350849104162,2.3038303830383,1432964.0882362,13156.913524264,3677196.1532241,7.5038303830383,0,0
-113.24602357148,35.335674806686,2.3082608260826,1432964.0882362,13156.913524264,3677196.1532241,7.5082608260826,0,0
-113.24602326294,35.320500509211,2.3126912691269,1432964.0882362,13156.913524264,3677196.1532241,7.5126912691269,0,0
-113.2460229544,35.305326211735,2.3171217121712,1432964.0882362,13156.913524264,3677196.1532241,7.5171217121712,0,0
-113.24602264587,35.290151914259,2.3215521552155,1432964.0882362,13156.913524264,3677196.1532241,7.5215521552155,0,0
-113.24602233733,35.274977616784,2.3259825982598,1432964.0882362,13156.913524264,3677196.1532241,7.5259825982598,0,0
-113.24602202879,35.259803319308,2.3304130413041,1432964.0882362,13156.913524264,3677196.1532241,7.5304130413041,0,0
-113.24602172025,35.244629021833,2.3348434843484,1432964.0882362,13156.913524264,3677196.1532241,7.5348434843484,0,0
-113.24602141171,35.229454724357,2.3392739273927,1432964.0882362,13156.913524264,3677196.1532241,7.5392739273927,0,0
-113.24602110317,35.214280426881,2.343704370437,1432964.0882362,13156.913524264,3677196.1532241,7.543704370437,0,0
-113.24602079463,35.199106129406,2.3481348134813,1432964.0882362,13156.913524264,3677196.1532241,7.5481348134813,0,0
-113.24602048609,35.18393183193,2.3525652565257,1432964.0882362,13156.913524264,3677196.1532241,7.5525652565257,0,0
-113.24602017755,35.168757534454,2.35699569957,1432964.0882362,13156.913524264,3677196.1532241,7.55699569957,0,0
-113.24601986901,35.153583236979,2.3614261426143,1432964.0882362,13156.913524264,3677196.1532241,7.5614261426143,0,0
-113.24601956047,35.138408939503,2.3658565856586,1432964.0882362,13156.913524264,3677196.1532241,7.5658565856586,0,0
-113.24601925193,35.123234642027,2.3702870287029,1432964.0882362,13156.913524264,3677196.1532241,7.5702870287029,0,0
-113.24601894339,35.108060344552,2.3747174717472,1432964.0882362,13156.913524264,3677196.1532241,7.5747174717472,0,0
-113.24601863486,35.092886047076,2.3791479147915,1432964.0882362,13156.913524264,3677196.1532241,7.5791479147915,0,0
-113.24601832632,35.077711749601,2.3835783578358,1432964.0882362,13156.913524264,3677196.1532241,7.5835783578358,0,0
-113.24601801778,35.062537452125,2.3880088008801,1432964.0882362,13156.913524264,3677196.1532241,7.5880088008801,0,0
-113.24601770924,35.047363154649,2.3924392439244,1432964.0882362,13156.913524264,3677196.1532241,7.5924392439244,0,0
-113.2460174007,35.032188857174,2.3968696869687,1432964.0882362,13156.913524264,3677196.1532241,7.5968696869687,0,0
-113.24601709216,35.017014559698,2.401300130013,1432964.0882362,13156.913524264,3677196.1532241,7.601300130013,0,0
-113.24601678362,35.001840262222,2.4057305730573,1432964.0882362,13156.913524264,3677196.1532241,7.6057305730573,0,0
-113.24601647508,34.986665964747,2.4101610161016,1432964.0882362,13156.913524264,3677196.1532241,7.6101610161016,0,0
-113.24601616654,34.971491667271,2.4145914591459,1432964.0882362,13156.913524264,3677196.1532241,7.6145914591459,0,0
-113.246015858,34.956317369795,2.4190219021902,1432964.0882362,13156.913524264,3677196.1532241,7.6190219021902,0,0
-113.24601554946,34.94114307232,2.4234523452345,1432964.0882362,13156.913524264,3677196.1532241,7.6234523452345,0,0
-113.24601524092,34.925968774844,2.4278827882788,1432964.0882362,13156.913524264,3677196.1532241,7.6278827882788,0,0
-113.24601493239,34.910794477369,2.4323132313231,1432964.0882362,13156.913524264,3677196.1532241,7.6323132313231,0,0
-113.24601462385,34.895620179893,2.4367436743674,1432964.0882362,13156.913524264,3677196.1532241,7.6367436743674,0,0
-113.24601431531,34.880445882417,2.4411741174117,1432964.0882362,13156.913524264,3677196.1532241,7.6411741174117,0,0
-113.24601400677,34.865271584942,2.445604560456,1432964.0882362,13156.913524264,3677196.1532241,7.645604560456,0,0
-113.24601369823,34.850097287466,2.4500350035003,1432964.0882362,13156.913524264,3677196.1532241,7.6500350035004,0,0
-113.24601338969,34.83492298999,2.4544654465447,1432964.0882362,13156.913524264,3677196.1532241,7.6544654465447,0,0
-113.24601307489,34.819748678965,2.458895889589,1480441.3040433,-27559.068490389,3626498.3430769,7.658895889589,0,0
-113.2460127562,34.804574359524,2.4633263326333,1480441.3040433,-27559.068490389,3626498.3430769,7.6633263326333,0,0
-113.24601243752,34.789400040083,2.4677567756776,1480441.3040433,-27559.068490389,3626498.3430769,7.6677567756776,0,0
-113.24601211883,34.774225720643,2.4721872187219,1480441.3040433,-27559.068490389,3626498.3430769,7.6721872187219,0,0
-113.24601180015,34.759051401202,2.4766176617662,1480441.3040433,-27559.068490389,3626498.3430769,7.6766176617662,0,0
-113.24601148146,34.743877081761,2.4810481048105,1480441.3040433,-27559.068490389,3626498.3430769,7.6810481048105,0,0
-113.24601116277,34.728702762321,2.4854785478548,1480441.3040433,-27559.068490389,3626498.3430769,7.6854785478548,0,0
-113.24601084409,34.71352844288,2.4899089908991,1480441.3040433,-27559.068490389,3626498.3430769,7.6899089908991,0,0
-113.2460105254,34.698354123439,2.4943394339434,1480441.3040433,-27559.068490389,3626498.3430769,7.6943394339434,0,0
-113.24601020671,34.683179803999,2.4987698769877,1480441.3040433,-27559.068490389,3626498.3430769,7.6987698769877,0,0
-113.24600988803,34.668005484558,2.503200320032,1480441.3040433,-27559.068490389,3626498.3430769,7.703200320032,0,0
-113.24600956934,34.652831165117,2.5076307630763,1480441.3040433,-27559.068490389,3626498.3430769,7.7076307630763,0,0
-113.24600925065,34.637656845677,2.5120612061206,1480441.3040433,-27559.068490389,3626498.3430769,7.7120612061206,0,0
-113.24600893197,34.622482526236,2.5164916491649,1480441.3040433,-27559.068490389,3626498.3430769,7.7164916491649,0,0
-113.24600861328,34.607308206796,2.5209220922092,1480441.3040433,-27559.068490389,3626498.3430769,7.7209220922092,0,0
-113.2460082946,34.592133887355,2.5253525352535,1480441.3040433,-27559.068490389,3626498.3430769,7.7253525352535,0,0
-113.24600797591,34.576959567914,2.5297829782978,1480441.3040433,-27559.068490389,3626498.3430769,7.7297829782978,0,0
-113.24600765722,34.561785248474,2.5342134213421,1480441.3040433,-27559.068490389,3626498.3430769,7.7342134213421,0,0
-113.24600733854,34.546610929033,2.5386438643864,1480441.3040433,-27559.068490389,3626498.3430769,7.7386438643864,0,0
-113.24600701985,34.531436609592,2.5430743074307,1480441.3040433,-27559.068490389,3626498.3430769,7.7430743074307,0,0
-113.24600670116,34.516262290152,2.547504750475,1480441.3040433,-27559.068490389,3626498.3430769,7.747504750475,0,0
-113.24600638248,34.501087970711,2.5519351935194,1480441.3040433,-27559.068490389,3626498.3430769,7.7519351935194,0,0
-113.24600606379,34.48591365127,2.5563656365637,1480441.3040433,-27559.068490389,3626498.3430769,7.7563656365637,0,0
-113.24600574511,34.47073933183,2.560796079608,1480441.3040433,-27559.068490389,3626498.3430769,7.760796079608,0,0
-113.24600542642,34.455565012389,2.5652265226523,1480441.3040433,-27559.068490389,3626498.3430769,7.7652265226523,0,0
-113.24600510773,34.440390692948,2.5696569656966,1480441.3040433,-27559.068490389,3626498.3430769,7.7696569656966,0,0
-113.24600478905,34.425216373508,2.5740874087409,1480441.3040433,-27559.068490389,3626498.3430769,7.7740874087409,0,0
-113.24600447036,34.410042054067,2.5785178517852,1480441.3040433,-27559.068490389,3626498.3430769,7.7785178517852,0,0
-113.24600415167,34.394867734626,2.5829482948295,1480441.3040433,-27559.068490389,3626498.3430769,7.7829482948295,0,0
-113.24600383299,34.379693415186,2.5873787378738,1480441.3040433,-27559.068490389,3626498.3430769,7.7873787378738,0,0
-113.2460035143,34.364519095745,2.5918091809181,1480441.3040433,-27559.068490389,3626498.3430769,7.7918091809181,0,0
-113.24600319561,34.349344776304,2.5962396239624,1480441.3040433,-27559.068490389,3626498.3430769,7.7962396239624,0,0
-113.24600287693,34.334170456864,2.6006700670067,1480441.3040433,-27559.068490389,3626498.3430769,7.8006700670067,0,0
-113.24600255824,34.318996137423,2.605100510051,1480441.3040433,-27559.068490389,3626498.3430769,7.805100510051,0,0
-113.24600223956,34.303821817982,2.6095309530953,1480441.3040433,-27559.068490389,3626498.3430769,7.8095309530953,0,0
-113.24600192087,34.288647498542,2.6139613961396,1480441.3040433,-27559.068490389,3626498.3430769,7.8139613961396,0,0
-113.24600160218,34.273473179101,2.6183918391839,1480441.3040433,-27559.068490389,3626498.3430769,7.8183918391839,0,0
-113.2460012835,34.25829885966,2.6228222822282,1480441.3040433,-27559.068490389,3626498.3430769,7.8228222822282,0,0
-113.24600096119,34.2431245465,2.6272527252725,1546266.3672827,10595.980653818,3568287.1897604,7.8272527252725,0,0
-113.24600062906,34.227950250382,2.6316831683168,1546266.3672827,10595.980653818,3568287.1897604,7.8316831683168,0,0
-113.24600029693,34.212775954264,2.6361136113611,1546266.3672827,10595.980653818,3568287.1897604,7.8361136113611,0,0
-113.2459999648,34.197601658146,2.6405440544054,1546266.3672827,10595.980653818,3568287.1897604,7.8405440544054,0,0
-113.24599963267,34.182427362028,2.6449744974497,1546266.3672827,10595.980653818,3568287.1897604,7.8449744974497,0,0
-113.24599930054,34.16725306591,2.649404940494,1546266.3672827,10595.980653818,3568287.1897604,7.849404940494,0,0
-113.24599896841,34.152078769792,2.6538353835384,1546266.3672827,10595.980653818,3568287.1897604,7.8538353835384,0,0
-113.24599863628,34.136904473674,2.6582658265827,1546266.3672827,10595.980653818,3568287.1897604,7.8582658265827,0,0
-113.24599830415,34.121730177556,2.662696269627,1546266.3672827,10595.980653818,3568287.1897604,7.862696269627,0,0
-113.24599797202,34.106555881438,2.6671267126713,1546266.3672827,10595.980653818,3568287.1897604,7.8671267126713,0,0
-113.24599763989,34.091381585319,2.6715571557156,1546266.3672827,10595.980653818,3568287.1897604,7.8715571557156,0,0
-113.24599730776,34.076207289201,2.6759875987599,1546266.3672827,10595.980653818,3568287.1897604,7.8759875987599,0,0
-113.24599697563,34.061032993083,2.6804180418042,1546266.3672827,10595.980653818,3568287.1897604,7.8804180418042,0,0
-113.2459966435,34.045858696965,2.6848484848485,1546266.3672827,10595.980653818,3568287.1897604,7.8848484848485,0,0
-113.24599631137,34.030684400847,2.6892789278928,1546266.3672827,10595.980653818,3568287.1897604,7.8892789278928,0,0
-113.24599597924,34.015510104729,2.6937093709371,1546266.3672827,10595.980653818,3568287.1897604,7.8937093709371,0,0
-113.24599564711,34.000335808611,2.6981398139814,1546266.3672827,10595.980653818,3568287.1897604,7.8981398139814,0,0
-113.24599531498,33.985161512493,2.7025702570257,1546266.3672827,10595.980653818,3568287.1897604,7.9025702570257,0,0
-113.24599498285,33.969987216375,2.70700070007,1546266.3672827,10595.980653818,3568287.1897604,7.90700070007,0,0
-113.24599465072,33.954812920257,2.7114311431143,1546266.3672827,10595.980653818,3568287.1897604,7.9114311431143,0,0
-113.24599431859,33.939638624139,2.7158615861586,1546266.3672827,10595.980653818,3568287.1897604,7.9158615861586,0,0
-113.24599398646,33.924464328021,2.7202920292029,1546266.3672827,10595.980653818,3568287.1897604,7.9202920292029,0,0
-113.24599365433,33.909290031903,2.7247224722472,1546266.3672827,10595.980653818,3568287.1897604,7.9247224722472,0,0
-113.2459933222,33.894115735784,2.7291529152915,1546266.3672827,10595.980653818,3568287.1897604,7.9291529152915,0,0
-113.24599299007,33.878941439666,2.7335833583358,1546266.3672827,10595.980653818,3568287.1897604,7.9335833583358,0,0
-113.24599265793,33.863767143548,2.7380138013801,1546266.3672827,10595.980653818,3568287.1897604,7.9380138013801,0,0
-113.2459923258,33.84859284743,2.7424442444244,1546266.3672827,10595.980653818,3568287.1897604,7.9424442444244,0,0
-113.24599199367,33.833418551312,2.7468746874687,1546266.3672827,10595.980653818,3568287.1897604,7.9468746874687,0,0
-113.24599166154,33.818244255194,2.7513051305131,1546266.3672827,10595.980653818,3568287.1897604,7.9513051305131,0,0
-113.24599132941,33.803069959076,2.7557355735574,1546266.3672827,10595.980653818,3568287.1897604,7.9557355735574,0,0
-113.24599099728,33.787895662958,2.7601660166017,1546266.3672827,10595.980653818,3568287.1897604,7.9601660166017,0,0
-113.24599066515,33.77272136684,2.764596459646,1546266.3672827,10595.980653818,3568287.1897604,7.964596459646,0,0
-113.24599033302,33.757547070722,2.7690269026903,1546266.3672827,10595.980653818,3568287.1897604,7.9690269026903,0,0
-113.24599000089,33.742372774604,2.7734573457346,1546266.3672827,10595.980653818,3568287.1897604,7.9734573457346,0,0
-113.24598966876,33.727198478486,2.7778877887789,1546266.3672827,10595.980653818,3568287.1897604,7.9778877887789,0,0
-113.24598933663,33.712024182367,2.7823182318232,1546266.3672827,10595.980653818,3568287.1897604,7.9823182318232,0,0
-113.2459890045,33.696849886249,2.7867486748675,1546266.3672827,10595.980653818,3568287.1897604,7.9867486748675,0,0
-113.24598867237,33.681675590131,2.7911791179118,1546266.3672827,10595.980653818,3568287.1897604,7.9911791179118,0,0
-113.24598834024,33.666501294013,2.7956095609561,1546266.3672827,10595.980653818,3568287.1897604,7.9956095609561,0,0
-113.24598800811,33.651326997895,2.8000400040004,1546266.3672827,10595.980653818,3568287.1897604,8.0000400040004,0,0
-113.24598767598,33.636152701777,2.8044704470447,1546266.3672827,10595.980653818,3568287.1897604,8.0044704470447,0,0
-113.24598734385,33.620978405659,2.808900890089,1546266.3672827,10595.980653818,3568287.1897604,8.008900890089,0,0
-113.24598701172,33.605804109541,2.8133313331333,1546266.3672827,10595.980653818,3568287.1897604,8.0133313331333,0,0
-113.24598667959,33.590629813423,2.8177617761776,1546266.3672827,10595.980653818,3568287.1897604,8.0177617761776,0,0
-113.24598634746,33.575455517305,2.8221922192219,1546266.3672827,10595.980653818,3568287.1897604,8.0221922192219,0,0
-113.24598601533,33.560281221187,2.8266226622662,1546266.3672827,10595.980653818,3568287.1897604,8.0266226622662,0,0
-113.2459856832,33.545106925069,2.8310531053105,1546266.3672827,10595.980653818,3568287.1897604,8.0310531053105,0,0
-113.24598535107,33.529932628951,2.8354835483548,1546266.3672827,10595.980653818,3568287.1897604,8.0354835483548,0,0
-113.24598501894,33.514758332832,2.8399139913991,1546266.3672827,10595.980653818,3568287.1897604,8.0399139913991,0,0
-113.24598468681,33.499584036714,2.8443444344434,1546266.3672827,10595.980653818,3568287.1897604,8.0443444344434,0,0
-113.24598435468,33.484409740596,2.8487748774877,1546266.3672827,10595.980653818,3568287.1897604,8.0487748774877,0,0
-113.24598402255,33.469235444478,2.8532053205321,1546266.3672827,10595.980653818,3568287.1897604,8.0532053205321,0,0
-113.24598369042,33.45406114836,2.8576357635764,1546266.3672827,10595.980653818,3568287.1897604,8.0576357635764,0,0
-113.24598335829,33.438886852242,2.8620662066207,1546266.3672827,10595.980653818,3568287.1897604,8.0620662066207,0,0
-113.24598302616,33.423712556124,2.866496649665,1546266.3672827,10595.980653818,3568287.1897604,8.066496649665,0,0
-113.24598269403,33.408538260006,2.8709270927093,1546266.3672827,10595.980653818,3568287.1897604,8.0709270927093,0,0
-113.24598235381,33.393363952328,2.8753575357536,1632548.9185848,-26095.752495884,3541817.1860782,8.0753575357536,0,0
-113.24598200663,33.378189634722,2.8797879787979,1632548.9185848,-26095.752495884,3541817.1860782,8.0797879787979,0,0
-113.24598165945,33.363015317116,2.8842184218422,1632548.9185848,-26095.752495884,3541817.1860782,8.0842184218422,0,0
-113.24598131228,33.347840999509,2.8886488648865,1632548.9185848,-26095.752495884,3541817.1860782,8.0886488648865,0,0
-113.2459809651,33.332666681903,2.8930793079308,1632548.9185848,-26095.752495884,3541817.1860782,8.0930793079308,0,0
-113.24598061793,33.317492364297,2.8975097509751,1632548.9185848,-26095.752495884,3541817.1860782,8.0975097509751,0,0
-113.24598027075,33.302318046691,2.9019401940194,1632548.9185848,-26095.752495884,3541817.1860782,8.1019401940194,0,0
-113.24597992358,33.287143729084,2.9063706370637,1632548.9185848,-26095.752495884,3541817.1860782,8.1063706370637,0,0
-113.2459795764,33.271969411478,2.910801080108,1632548.9185848,-26095.752495884,3541817.1860782,8.110801080108,0,0
-113.24597922923,33.256795093872,2.9152315231523,1632548.9185848,-26095.752495884,3541817.1860782,8.1152315231523,0,0
-113.24597888205,33.241620776265,2.9196619661966,1632548.9185848,-26095.752495884,3541817.1860782,8.1196619661966,0,0
-113.24597853488,33.226446458659,2.9240924092409,1632548.9185848,-26095.752495884,3541817.1860782,8.1240924092409,0,0
-113.2459781877,33.211272141053,2.9285228522852,1632548.9185848,-26095.752495884,3541817.1860782,8.1285228522852,0,0
-113.24597784053,33.196097823447,2.9329532953295,1632548.9185848,-26095.752495884,3541817.1860782,8.1329532953295,0,0
-113.24597749335,33.18092350584,2.9373837383738,1632548.9185848,-26095.752495884,3541817.1860782,8.1373837383738,0,0
-113.24597714618,33.165749188234,2.9418141814181,1632548.9185848,-26095.752495884,3541817.1860782,8.1418141814181,0,0
-113.245976799,33.150574870628,2.9462446244624,1632548.9185848,-26095.752495884,3541817.1860782,8.1462446244624,0,0
-113.24597645183,33.135400553022,2.9506750675067,1632548.9185848,-26095.752495884,3541817.1860782,8.1506750675068,0,0
-113.24597610465,33.120226235415,2.9551055105511,1632548.9185848,-26095.752495884,3541817.1860782,8.1551055105511,0,0
-113.24597575748,33.105051917809,2.9595359535954,1632548.9185848,-26095.752495884,3541817.1860782,8.1595359535954,0,0
-113.2459754103,33.089877600203,2.9639663966397,1632548.9185848,-26095.752495884,3541817.1860782,8.1639663966397,0,0
-113.24597506312,33.074703282596,2.968396839684,1632548.9185848,-26095.752495884,3541817.1860782,8.168396839684,0,0
-113.24597471595,33.05952896499,2.9728272827283,1632548.9185848,-26095.752495884,3541817.1860782,8.1728272827283,0,0
-113.24597436877,33.044354647384,2.9772577257726,1632548.9185848,-26095.752495884,3541817.1860782,8.1772577257726,0,0
-113.2459740216,33.029180329778,2.9816881688169,1632548.9185848,-26095.752495884,3541817.1860782,8.1816881688169,0,0
-113.24597367442,33.014006012171,2.9861186118612,1632548.9185848,-26095.752495884,3541817.1860782,8.1861186118612,0,0
-113.24597332725,32.998831694565,2.9905490549055,1632548.9185848,-26095.752495884,3541817.1860782,8.1905490549055,0,0
-113.24597298007,32.983657376959,2.9949794979498,1632548.9185848,-26095.752495884,3541817.1860782,8.1949794979498,0,0
-113.2459726329,32.968483059352,2.9994099409941,1632548.9185848,-26095.752495884,3541817.1860782,8.1994099409941,0,0
-113.24597228572,32.953308741746,3.0038403840384,1632548.9185848,-26095.752495884,3541817.1860782,8.2038403840384,0,0
-113.24597193855,32.93813442414,3.0082708270827,1632548.9185848,-26095.752495884,3541817.1860782,8.2082708270827,0,0
-113.24597159137,32.922960106534,3.012701270127,1632548.9185848,-26095.752495884,3541817.1860782,8.212701270127,0,0
-113.2459712442,32.907785788927,3.0171317131713,1632548.9185848,-26095.752495884,3541817.1860782,8.2171317131713,0,0
-113.24597089702,32.892611471321,3.0215621562156,1632548.9185848,-26095.752495884,3541817.1860782,8.2215621562156,0,0
-113.24597054985,32.877437153715,3.0259925992599,1632548.9185848,-26095.752495884,3541817.1860782,8.2259925992599,0,0
-113.24597020267,32.862262836109,3.0304230423042,1632548.9185848,-26095.752495884,3541817.1860782,8.2304230423042,0,0
-113.2459698555,32.847088518502,3.0348534853485,1632548.9185848,-26095.752495884,3541817.1860782,8.2348534853485,0,0
-113.24596950832,32.831914200896,3.0392839283928,1632548.9185848,-26095.752495884,3541817.1860782,8.2392839283928,0,0
-113.24596916115,32.81673988329,3.0437143714371,1632548.9185848,-26095.752495884,3541817.1860782,8.2437143714371,0,0
-113.24596881397,32.801565565683,3.0481448144814,1632548.9185848,-26095.752495884,3541817.1860782,8.2481448144814,0,0
-113.2459684668,32.786391248077,3.0525752575258,1632548.9185848,-26095.752495884,3541817.1860782,8.2525752575258,0,0
-113.24596811962,32.771216930471,3.0570057005701,1632548.9185848,-26095.752495884,3541817.1860782,8.2570057005701,0,0
-113.24596777244,32.756042612865,3.0614361436144,1632548.9185848,-26095.752495884,3541817.1860782,8.2614361436144,0,0
-113.24596742527,32.740868295258,3.0658665866587,1632548.9185848,-26095.752495884,3541817.1860782,8.2658665866587,0,0
-113.24596707809,32.725693977652,3.070297029703,1632548.9185848,-26095.752495884,3541817.1860782,8.270297029703,0,0
-113.24596673092,32.710519660046,3.0747274727473,1632548.9185848,-26095.752495884,3541817.1860782,8.2747274727473,0,0
-113.24596638374,32.695345342439,3.0791579157916,1632548.9185848,-26095.752495884,3541817.1860782,8.2791579157916,0,0
-113.24596603657,32.680171024833,3.0835883588359,1632548.9185848,-26095.752495884,3541817.1860782,8.2835883588359,0,0
-113.24596568749,32.66499671483,3.0880188018802,1630083.8438839,9130.6169494895,3443970.813073,8.2880188018802,0,0
-113.24596533565,32.649822415883,3.0924492449245,1630083.8438839,9130.6169494895,3443970.813073,8.2924492449245,0,0
-113.2459649838,32.634648116937,3.0968796879688,1630083.8438839,9130.6169494895,3443970.813073,8.2968796879688,0,0
-113.24596463196,32.61947381799,3.1013101310131,1630083.8438839,9130.6169494895,3443970.813073,8.3013101310131,0,0
-113.24596428011,32.604299519043,3.1057405740574,1630083.8438839,9130.6169494895,3443970.813073,8.3057405740574,0,0
-113.24596392827,32.589125220096,3.1101710171017,1630083.8438839,9130.6169494895,3443970.813073,8.3101710171017,0,0
-113.24596357642,32.573950921149,3.114601460146,1630083.8438839,9130.6169494895,3443970.813073,8.314601460146,0,0
-113.24596322458,32.558776622203,3.1190319031903,1630083.8438839,9130.6169494895,3443970.813073,8.3190319031903,0,0
-113.24596287273,32.543602323256,3.1234623462346,1630083.8438839,9130.6169494895,3443970.813073,8.3234623462346,0,0
-113.24596252089,32.528428024309,3.1278927892789,1630083.8438839,9130.6169494895,3443970.813073,8.3278927892789,0,0
-113.24596216905,32.513253725362,3.1323232323232,1630083.8438839,9130.6169494895,3443970.813073,8.3323232323232,0,0
-113.2459618172,32.498079426416,3.1367536753675,1630083.8438839,9130.6169494895,3443970.813073,8.3367536753675,0,0
-113.24596146536,32.482905127469,3.1411841184118,1630083.8438839,9130.6169494895,3443970.813073,8.3411841184118,0,0
-113.24596111351,32.467730828522,3.1456145614561,1630083.8438839,9130.6169494895,3443970.813073,8.3456145614561,0,0
-113.24596076167,32.452556529575,3.1500450045004,1630083.8438839,9130.6169494895,3443970.813073,8.3500450045004,0,0
-113.24596040982,32.437382230628,3.1544754475448,1630083.8438839,9130.6169494895,3443970.813073,8.3544754475448,0,0
-113.24596005798,32.422207931682,3.1589058905891,1630083.8438839,9130.6169494895,3443970.813073,8.3589058905891,0,0
-113.24595970613,32.407033632735,3.1633363336334,1630083.8438839,9130.6169494895,3443970.813073,8.3633363336334,0,0
-113.24595935429,32.391859333788,3.1677667766777,1630083.8438839,9130.6169494895,3443970.813073,8.3677667766777,0,0
-113.24595900244,32.376685034841,3.172197219722,1630083.8438839,9130.6169494895,3443970.813073,8.372197219722,0,0
-113.2459586506,32.361510735894,3.1766276627663,1630083.8438839,9130.6169494895,3443970.813073,8.3766276627663,0,0
-113.24595829876,32.346336436948,3.1810581058106,1630083.8438839,9130.6169494895,3443970.813073,8.3810581058106,0,0
-113.24595794691,32.331162138001,3.1854885488549,1630083.8438839,9130.6169494895,3443970.813073,8.3854885488549,0,0
-113.24595759507,32.315987839054,3.1899189918992,1630083.8438839,9130.6169494895,3443970.813073,8.3899189918992,0,0
-113.24595724322,32.300813540107,3.1943494349435,1630083.8438839,9130.6169494895,3443970.813073,8.3943494349435,0,0
-113.24595689138,32.28563924116,3.1987798779878,1630083.8438839,9130.6169494895,3443970.813073,8.3987798779878,0,0
-113.24595653953,32.270464942214,3.2032103210321,1630083.8438839,9130.6169494895,3443970.813073,8.4032103210321,0,0
-113.24595618769,32.255290643267,3.2076407640764,1630083.8438839,9130.6169494895,3443970.813073,8.4076407640764,0,0
-113.24595583584,32.24011634432,3.2120712071207,1630083.8438839,9130.6169494895,3443970.813073,8.4120712071207,0,0
-113.245955484,32.224942045373,3.216501650165,1630083.8438839,9130.6169494895,3443970.813073,8.416501650165,0,0
-113.24595513215,32.209767746426,3.2209320932093,1630083.8438839,9130.6169494895,3443970.813073,8.4209320932093,0,0
-113.24595478031,32.19459344748,3.2253625362536,1630083.8438839,9130.6169494895,3443970.813073,8.4253625362536,0,0
-113.24595442847,32.179419148533,3.2297929792979,1630083.8438839,9130.6169494895,3443970.813073,8.4297929792979,0,0
-113.24595407662,32.164244849586,3.2342234223422,1630083.8438839,9130.6169494895,3443970.813073,8.4342234223422,0,0
-113.24595372478,32.149070550639,3.2386538653865,1630083.8438839,9130.6169494895,3443970.813073,8.4386538653865,0,0
-113.24595337293,32.133896251692,3.2430843084308,1630083.8438839,9130.6169494895,3443970.813073,8.4430843084308,0,0
-113.24595302109,32.118721952746,3.2475147514751,1630083.8438839,9130.6169494895,3443970.813073,8.4475147514751,0,0
-113.24595266924,32.103547653799,3.2519451945195,1630083.8438839,9130.6169494895,3443970.813073,8.4519451945195,0,0
-113.2459523174,32.088373354852,3.2563756375638,1630083.8438839,9130.6169494895,3443970.813073,8.4563756375638,0,0
-113.24595196555,32.073199055905,3.2608060806081,1630083.8438839,9130.6169494895,3443970.813073,8.4608060806081,0,0
-113.24595161371,32.058024756959,3.2652365236524,1630083.8438839,9130.6169494895,3443970.813073,8.4652365236524,0,0
-113.24595126187,32.042850458012,3.2696669666967,1630083.8438839,9130.6169494895,3443970.813073,8.4696669666967,0,0
-113.24595091002,32.027676159065,3.274097409741,1630083.8438839,9130.6169494895,3443970.813073,8.474097409741,0,0
-113.24595055818,32.012501860118,3.2785278527853,1630083.8438839,9130.6169494895,3443970.813073,8.4785278527853,0,0
-113.24595019806,31.997327560079,3.2829582958296,1736499.5980345,7131.9255475575,3477726.3345845,8.4829582958296,0,0
-113.24594983109,31.982153259135,3.2873887388739,1736499.5980345,7131.9255475575,3477726.3345845,8.4873887388739,0,0
-113.24594946413,31.966978958191,3.2918191819182,1736499.5980345,7131.9255475575,3477726.3345845,8.4918191819182,0,0
-113.24594909716,31.951804657247,3.2962496249625,1736499.5980345,7131.9255475575,3477726.3345845,8.4962496249625,0,0
-113.24594873019,31.936630356304,3.3006800680068,1736499.5980345,7131.9255475575,3477726.3345845,8.5006800680068,0,0
-113.24594836323,31.92145605536,3.3051105110511,1736499.5980345,7131.9255475575,3477726.3345845,8.5051105110511,0,0
-113.24594799626,31.906281754416,3.3095409540954,1736499.5980345,7131.9255475575,3477726.3345845,8.5095409540954,0,0
-113.24594762929,31.891107453472,3.3139713971397,1736499.5980345,7131.9255475575,3477726.3345845,8.5139713971397,0,0
-113.24594726233,31.875933152529,3.318401840184,1736499.5980345,7131.9255475575,3477726.3345845,8.518401840184,0,0
-113.24594689536,31.860758851585,3.3228322832283,1736499.5980345,7131.9255475575,3477726.3345845,8.5228322832283,0,0
-113.24594652839,31.845584550641,3.3272627262726,1736499.5980345,7131.9255475575,3477726.3345845,8.5272627262726,0,0
-113.24594616143,31.830410249697,3.3316931693169,1736499.5980345,7131.9255475575,3477726.3345845,8.5316931693169,0,0
-113.24594579446,31.815235948753,3.3361236123612,1736499.5980345,7131.9255475575,3477726.3345845,8.5361236123612,0,0
-113.2459454275,31.80006164781,3.3405540554055,1736499.5980345,7131.9255475575,3477726.3345845,8.5405540554055,0,0
-113.24594506053,31.784887346866,3.3449844984498,1736499.5980345,7131.9255475575,3477726.3345845,8.5449844984498,0,0
-113.24594469356,31.769713045922,3.3494149414941,1736499.5980345,7131.9255475575,3477726.3345845,8.5494149414941,0,0
-113.2459443266,31.754538744978,3.3538453845385,1736499.5980345,7131.9255475575,3477726.3345845,8.5538453845385,0,0
-113.24594395963,31.739364444035,3.3582758275828,1736499.5980345,7131.9255475575,3477726.3345845,8.5582758275828,0,0
-113.24594359266,31.724190143091,3.3627062706271,1736499.5980345,7131.9255475575,3477726.3345845,8.5627062706271,0,0
-113.2459432257,31.709015842147,3.3671367136714,1736499.5980345,7131.9255475575,3477726.3345845,8.5671367136714,0,0
-113.24594285873,31.693841541203,3.3715671567157,1736499.5980345,7131.9255475575,3477726.3345845,8.5715671567157,0,0
-113.24594249177,31.67866724026,3.37599759976,1736499.5980345,7131.9255475575,3477726.3345845,8.57599759976,0,0
-113.2459421248,31.663492939316,3.3804280428043,1736499.5980345,7131.9255475575,3477726.3345845,8.5804280428043,0,0
-113.24594175783,31.648318638372,3.3848584858486,1736499.5980345,7131.9255475575,3477726.3345845,8.5848584858486,0,0
-113.24594139087,31.633144337428,3.3892889288929,1736499.5980345,7131.9255475575,3477726.3345845,8.5892889288929,0,0
-113.2459410239,31.617970036484,3.3937193719372,1736499.5980345,7131.9255475575,3477726.3345845,8.5937193719372,0,0
-113.24594065693,31.602795735541,3.3981498149815,1736499.5980345,7131.9255475575,3477726.3345845,8.5981498149815,0,0
-113.24594028997,31.587621434597,3.4025802580258,1736499.5980345,7131.9255475575,3477726.3345845,8.6025802580258,0,0
-113.245939923,31.572447133653,3.4070107010701,1736499.5980345,7131.9255475575,3477726.3345845,8.6070107010701,0,0
-113.24593955604,31.557272832709,3.4114411441144,1736499.5980345,7131.9255475575,3477726.3345845,8.6114411441144,0,0
-113.24593918907,31.542098531766,3.4158715871587,1736499.5980345,7131.9255475575,3477726.3345845,8.6158715871587,0,0
-113.2459388221,31.526924230822,3.420302030203,1736499.5980345,7131.9255475575,3477726.3345845,8.620302030203,0,0
-113.24593845514,31.511749929878,3.4247324732473,1736499.5980345,7131.9255475575,3477726.3345845,8.6247324732473,0,0
-113.24593808817,31.496575628934,3.4291629162916,1736499.5980345,7131.9255475575,3477726.3345845,8.6291629162916,0,0
-113.2459377212,31.481401327991,3.4335933593359,1736499.5980345,7131.9255475575,3477726.3345845,8.6335933593359,0,0
-113.24593735424,31.466227027047,3.4380238023802,1736499.5980345,7131.9255475575,3477726.3345845,8.6380238023802,0,0
-113.24593698727,31.451052726103,3.4424542454245,1736499.5980345,7131.9255475575,3477726.3345845,8.6424542454245,0,0
-113.24593662031,31.435878425159,3.4468846884688,1736499.5980345,7131.9255475575,3477726.3345845,8.6468846884688,0,0
-113.24593625334,31.420704124215,3.4513151315132,1736499.5980345,7131.9255475575,3477726.3345845,8.6513151315132,0,0
-113.24593588637,31.405529823272,3.4557455745575,1736499.5980345,7131.9255475575,3477726.3345845,8.6557455745575,0,0
-113.24593551941,31.390355522328,3.4601760176018,1736499.5980345,7131.9255475575,3477726.3345845,8.6601760176018,0,0
-113.24593515244,31.375181221384,3.4646064606461,1736499.5980345,7131.9255475575,3477726.3345845,8.6646064606461,0,0
-113.24593478547,31.36000692044,3.4690369036904,1736499.5980345,7131.9255475575,3477726.3345845,8.6690369036904,0,0
-113.24593441851,31.344832619497,3.4734673467347,1736499.5980345,7131.9255475575,3477726.3345845,8.6734673467347,0,0
-113.24593405154,31.329658318553,3.477897789779,1736499.5980345,7131.9255475575,3477726.3345845,8.677897789779,0,0
-113.24593368457,31.314484017609,3.4823282328233,1736499.5980345,7131.9255475575,3477726.3345845,8.6823282328233,0,0
-113.24593331761,31.299309716665,3.4867586758676,1736499.5980345,7131.9255475575,3477726.3345845,8.6867586758676,0,0
-113.24593295064,31.284135415722,3.4911891189119,1736499.5980345,7131.9255475575,3477726.3345845,8.6911891189119,0,0
-113.24593258368,31.268961114778,3.4956195619562,1736499.5980345,7131.9255475575,3477726.3345845,8.6956195619562,0,0
-113.24593221665,31.253786810736,3.5000500050005,1702823.2902498,-25945.503117745,3369004.9031902,8.7000500050005,0,0
-113.2459318494,31.238612495575,3.5044804480448,1702823.2902498,-25945.503117745,3369004.9031902,8.7044804480448,0,0
-113.24593148215,31.223438180414,3.5089108910891,1702823.2902498,-25945.503117745,3369004.9031902,8.7089108910891,0,0
-113.2459311149,31.208263865253,3.5133413341334,1702823.2902498,-25945.503117745,3369004.9031902,8.7133413341334,0,0
-113.24593074764,31.193089550093,3.5177717771777,1702823.2902498,-25945.503117745,3369004.9031902,8.7177717771777,0,0
-113.24593038039,31.177915234932,3.522202220222,1702823.2902498,-25945.503117745,3369004.9031902,8.722202220222,0,0
-113.24593001314,31.162740919771,3.5266326632663,1702823.2902498,-25945.503117745,3369004.9031902,8.7266326632663,0,0
-113.24592964589,31.14756660461,3.5310631063106,1702823.2902498,-25945.503117745,3369004.9031902,8.7310631063106,0,0
-113.24592927864,31.13239228945,3.5354935493549,1702823.2902498,-25945.503117745,3369004.9031902,8.7354935493549,0,0
-113.24592891139,31.117217974289,3.5399239923992,1702823.2902498,-25945.503117745,3369004.9031902,8.7399239923992,0,0
-113.24592854414,31.102043659128,3.5443544354435,1702823.2902498,-25945.503117745,3369004.9031902,8.7443544354435,0,0
-113.24592817689,31.086869343967,3.5487848784878,1702823.2902498,-25945.503117745,3369004.9031902,8.7487848784878,0,0
-113.24592780964,31.071695028806,3.5532153215322,1702823.2902498,-25945.503117745,3369004.9031902,8.7532153215322,0,0
-113.24592744239,31.056520713646,3.5576457645765,1702823.2902498,-25945.503117745,3369004.9031902,8.7576457645765,0,0
-113.24592707514,31.041346398485,3.5620762076208,1702823.2902498,-25945.503117745,3369004.9031902,8.7620762076208,0,0
-113.24592670789,31.026172083324,3.5665066506651,1702823.2902498,-25945.503117745,3369004.9031902,8.7665066506651,0,0
-113.24592634063,31.010997768163,3.5709370937094,1702823.2902498,-25945.503117745,3369004.9031902,8.7709370937094,0,0
-113.24592597338,30.995823453003,3.5753675367537,1702823.2902498,-25945.503117745,3369004.9031902,8.7753675367537,0,0
-113.24592560613,30.980649137842,3.579797979798,1702823.2902498,-25945.503117745,3369004.9031902,8.779797979798,0,0
-113.24592523888,30.965474822681,3.5842284228423,1702823.2902498,-25945.503117745,3369004.9031902,8.7842284228423,0,0
-113.24592487163,30.95030050752,3.5886588658866,1702823.2902498,-25945.503117745,3369004.9031902,8.7886588658866,0,0
-113.24592450438,30.935126192359,3.5930893089309,1702823.2902498,-25945.503117745,3369004.9031902,8.7930893089309,0,0
-113.24592413713,30.919951877199,3.5975197519752,1702823.2902498,-25945.503117745,3369004.9031902,8.7975197519752,0,0
-113.24592376988,30.904777562038,3.6019501950195,1702823.2902498,-25945.503117745,3369004.9031902,8.8019501950195,0,0
-113.24592340263,30.889603246877,3.6063806380638,1702823.2902498,-25945.503117745,3369004.9031902,8.8063806380638,0,0
-113.24592303538,30.874428931716,3.6108110811081,1702823.2902498,-25945.503117745,3369004.9031902,8.8108110811081,0,0
-113.24592266813,30.859254616556,3.6152415241524,1702823.2902498,-25945.503117745,3369004.9031902,8.8152415241524,0,0
-113.24592230088,30.844080301395,3.6196719671967,1702823.2902498,-25945.503117745,3369004.9031902,8.8196719671967,0,0
-113.24592193362,30.828905986234,3.624102410241,1702823.2902498,-25945.503117745,3369004.9031902,8.824102410241,0,0
-113.24592156637,30.813731671073,3.6285328532853,1702823.2902498,-25945.503117745,3369004.9031902,8.8285328532853,0,0
-113.24592119912,30.798557355913,3.6329632963296,1702823.2902498,-25945.503117745,3369004.9031902,8.8329632963296,0,0
-113.24592083187,30.783383040752,3.6373937393739,1702823.2902498,-25945.503117745,3369004.9031902,8.8373937393739,0,0
-113.24592046462,30.768208725591,3.6418241824182,1702823.2902498,-25945.503117745,3369004.9031902,8.8418241824182,0,0
-113.24592009737,30.75303441043,3.6462546254625,1702823.2902498,-25945.503117745,3369004.9031902,8.8462546254625,0,0
-113.24591973012,30.737860095269,3.6506850685069,1702823.2902498,-25945.503117745,3369004.9031902,8.8506850685069,0,0
-113.24591936287,30.722685780109,3.6551155115512,1702823.2902498,-25945.503117745,3369004.9031902,8.8551155115512,0,0
-113.24591899562,30.707511464948,3.6595459545955,1702823.2902498,-25945.503117745,3369004.9031902,8.8595459545955,0,0
-113.24591862837,30.692337149787,3.6639763976398,1702823.2902498,-25945.503117745,3369004.9031902,8.8639763976398,0,0
-113.24591826112,30.677162834626,3.6684068406841,1702823.2902498,-25945.503117745,3369004.9031902,8.8684068406841,0,0
-113.24591789387,30.661988519466,3.6728372837284,1702823.2902498,-25945.503117745,3369004.9031902,8.8728372837284,0,0
-113.24591752661,30.646814204305,3.6772677267727,1702823.2902498,-25945.503117745,3369004.9031902,8.8772677267727,0,0
-113.24591715936,30.631639889144,3.681698169817,1702823.2902498,-25945.503117745,3369004.9031902,8.881698169817,0,0
-113.24591679211,30.616465573983,3.6861286128613,1702823.2902498,-25945.503117745,3369004.9031902,8.8861286128613,0,0
-113.24591642486,30.601291258823,3.6905590559056,1702823.2902498,-25945.503117745,3369004.9031902,8.8905590559056,0,0
-113.24591604689,30.586116953728,3.6949894989499,1801945.3202066,-865.66887544766,3379355.3478587,8.8949894989499,0,0
-113.24591566447,30.570942652823,3.6994199419942,1801945.3202066,-865.66887544766,3379355.3478587,8.8994199419942,0,0
-113.24591528204,30.555768351917,3.7038503850385,1801945.3202066,-865.66887544766,3379355.3478587,8.9038503850385,0,0
-113.24591489961,30.540594051011,3.7082808280828,1801945.3202066,-865.66887544766,3379355.3478587,8.9082808280828,0,0
-113.24591451719,30.525419750105,3.7127112711271,1801945.3202066,-865.66887544766,3379355.3478587,8.9127112711271,0,0
-113.24591413476,30.5102454492,3.7171417141714,1801945.3202066,-865.66887544766,3379355.3478587,8.9171417141714,0,0
-113.24591375233,30.495071148294,3.7215721572157,1801945.3202066,-865.66887544766,3379355.3478587,8.9215721572157,0,0
-113.24591336991,30.479896847388,3.72600260026,1801945.3202066,-865.66887544766,3379355.3478587,8.92600260026,0,0
-113.24591298748,30.464722546482,3.7304330433043,1801945.3202066,-865.66887544766,3379355.3478587,8.9304330433043,0,0
-113.24591260505,30.449548245577,3.7348634863486,1801945.3202066,-865.66887544766,3379355.3478587,8.9348634863486,0,0
-113.24591222263,30.434373944671,3.7392939293929,1801945.3202066,-865.66887544766,3379355.3478587,8.9392939293929,0,0
-113.2459118402,30.419199643765,3.7437243724372,1801945.3202066,-865.66887544766,3379355.3478587,8.9437243724372,0,0
-113.24591145777,30.404025342859,3.7481548154815,1801945.3202066,-865.66887544766,3379355.3478587,8.9481548154815,0,0
-113.24591107535,30.388851041954,3.7525852585259,1801945.3202066,-865.66887544766,3379355.3478587,8.9525852585259,0,0
-113.24591069292,30.373676741048,3.7570157015702,1801945.3202066,-865.66887544766,3379355.3478587,8.9570157015702,0,0
-113.24591031049,30.358502440142,3.7614461446145,1801945.3202066,-865.66887544766,3379355.3478587,8.9614461446145,0,0
-113.24590992807,30.343328139237,3.7658765876588,1801945.3202066,-865.66887544766,3379355.3478587,8.9658765876588,0,0
-113.24590954564,30.328153838331,3.7703070307031,1801945.3202066,-865.66887544766,3379355.3478587,8.9703070307031,0,0
-113.24590916321,30.312979537425,3.7747374737474,1801945.3202066,-865.66887544766,3379355.3478587,8.9747374737474,0,0
-113.24590878078,30.297805236519,3.7791679167917,1801945.3202066,-865.66887544766,3379355.3478587,8.9791679167917,0,0
-113.24590839836,30.282630935614,3.783598359836,1801945.3202066,-865.66887544766,3379355.3478587,8.983598359836,0,0
-113.24590801593,30.267456634708,3.7880288028803,1801945.3202066,-865.66887544766,3379355.3478587,8.9880288028803,0,0
-113.2459076335,30.252282333802,3.7924592459246,1801945.3202066,-865.66887544766,3379355.3478587,8.9924592459246,0,0
-113.24590725108,30.237108032896,3.7968896889689,1801945.3202066,-865.66887544766,3379355.3478587,8.9968896889689,0,0
-113.24590686865,30.221933731991,3.8013201320132,1801945.3202066,-865.66887544766,3379355.3478587,9.0013201320132,0,0
-113.24590648622,30.206759431085,3.8057505750575,1801945.3202066,-865.66887544766,3379355.3478587,9.0057505750575,0,0
-113.2459061038,30.191585130179,3.8101810181018,1801945.3202066,-865.66887544766,3379355.3478587,9.0101810181018,0,0
-113.24590572137,30.176410829273,3.8146114611461,1801945.3202066,-865.66887544766,3379355.3478587,9.0146114611461,0,0
-113.24590533894,30.161236528368,3.8190419041904,1801945.3202066,-865.66887544766,3379355.3478587,9.0190419041904,0,0
-113.24590495652,30.146062227462,3.8234723472347,1801945.3202066,-865.66887544766,3379355.3478587,9.0234723472347,0,0
-113.24590457409,30.130887926556,3.827902790279,1801945.3202066,-865.66887544766,3379355.3478587,9.027902790279,0,0
-113.24590419166,30.115713625651,3.8323332333233,1801945.3202066,-865.66887544766,3379355.3478587,9.0323332333233,0,0
-113.24590380924,30.100539324745,3.8367636763676,1801945.3202066,-865.66887544765,3379355.3478587,9.0367636763676,0,0
-113.24590342681,30.085365023839,3.8411941194119,1801945.3202066,-865.66887544765,3379355.3478587,9.0411941194119,0,0
-113.24590304438,30.070190722933,3.8456245624562,1801945.3202066,-865.66887544765,3379355.3478587,9.0456245624562,0,0
-113.24590266195,30.055016422028,3.8500550055005,1801945.3202066,-865.66887544765,3379355.3478587,9.0500550055005,0,0
-113.24590227953,30.039842121122,3.8544854485449,1801945.3202066,-865.66887544765,3379355.3478587,9.0544854485449,0,0
-113.2459018971,30.024667820216,3.8589158915892,1801945.3202066,-865.66887544765,3379355.3478587,9.0589158915892,0,0
-113.24590151467,30.00949351931,3.8633463346335,1801945.3202066,-865.66887544765,3379355.3478587,9.0633463346335,0,0
-113.24590113225,29.994319218405,3.8677767776778,1801945.3202066,-865.66887544765,3379355.3478587,9.0677767776778,0,0
-113.24590074982,29.979144917499,3.8722072207221,1801945.3202066,-865.66887544765,3379355.3478587,9.0722072207221,0,0
-113.24590036739,29.963970616593,3.8766376637664,1801945.3202066,-865.66887544765,3379355.3478587,9.0766376637664,0,0
-113.24589998497,29.948796315687,3.8810681068107,1801945.3202066,-865.66887544765,3379355.3478587,9.0810681068107,0,0
-113.24589960254,29.933622014782,3.885498549855,1801945.3202066,-865.66887544765,3379355.3478587,9.085498549855,0,0
-113.24589922011,29.918447713876,3.8899289928993,1801945.3202066,-865.66887544765,3379355.3478587,9.0899289928993,0,0
-113.24589883769,29.90327341297,3.8943594359436,1801945.3202066,-865.66887544765,3379355.3478587,9.0943594359436,0,0
-113.24589845526,29.888099112065,3.8987898789879,1801945.3202066,-865.66887544765,3379355.3478587,9.0987898789879,0,0
-113.24589807283,29.872924811159,3.9032203220322,1801945.3202066,-865.66887544765,3379355.3478587,9.1032203220322,0,0
-113.24589769041,29.857750510253,3.9076507650765,1801945.3202066,-865.66887544765,3379355.3478587,9.1076507650765,0,0
-113.24589730798,29.842576209347,3.9120812081208,1801945.3202066,-865.66887544765,3379355.3478587,9.1120812081208,0,0
-113.24589692555,29.827401908442,3.9165116511651,1801945.3202066,-865.66887544765,3379355.3478587,9.1165116511651,0,0
-113.24589654313,29.812227607536,3.9209420942094,1801945.3202066,-865.66887544765,3379355.3478587,9.1209420942094,0,0
-113.2458961607,29.79705330663,3.9253725372537,1801945.3202066,-865.66887544765,3379355.3478587,9.1253725372537,0,0
-113.24589577827,29.781879005724,3.929802980298,1801945.3202066,-865.66887544765,3379355.3478587,9.129802980298,0,0
-113.24589539584,29.766704704819,3.9342334233423,1801945.3202066,-865.66887544765,3379355.3478587,9.1342334233423,0,0
-113.24589501342,29.751530403913,3.9386638663866,1801945.3202066,-865.66887544765,3379355.3478587,9.1386638663866,0,0
-113.24589463099,29.736356103007,3.9430943094309,1801945.3202066,-865.66887544765,3379355.3478587,9.1430943094309,0,0
-113.24589424856,29.721181802101,3.9475247524752,1801945.3202066,-865.66887544765,3379355.3478587,9.1475247524752,0,0
-113.24589386614,29.706007501196,3.9519551955196,1801945.3202066,-865.66887544765,3379355.3478587,9.1519551955196,0,0
-113.24589348371,29.69083320029,3.9563856385639,1801945.3202066,-865.66887544765,3379355.3478587,9.1563856385639,0,0
-113.24589310128,29.675658899384,3.9608160816082,1801945.3202066,-865.66887544765,3379355.3478587,9.1608160816082,0,0
-113.24589271886,29.660484598479,3.9652465246525,1801945.3202066,-865.66887544765,3379355.3478587,9.1652465246525,0,0
-113.24589233643,29.645310297573,3.9696769676968,1801945.3202066,-865.66887544765,3379355.3478587,9.1696769676968,0,0
-113.245891954,29.630135996667,3.9741074107411,1801945.3202066,-865.66887544765,3379355.3478587,9.1741074107411,0,0
-113.24589157158,29.614961695761,3.9785378537854,1801945.3202066,-865.66887544765,3379355.3478587,9.1785378537854,0,0
-113.24589118915,29.599787394856,3.9829682968297,1801945.3202066,-865.66887544765,3379355.3478587,9.1829682968297,0,0
-113.24589080672,29.58461309395,3.987398739874,1801945.3202066,-865.66887544765,3379355.3478587,9.187398739874,0,0
-113.2458904243,29.569438793044,3.9918291829183,1801945.3202066,-865.66887544765,3379355.3478587,9.1918291829183,0,0
-113.24589004187,29.554264492138,3.9962596259626,1801945.3202066,-865.66887544765,3379355.3478587,9.1962596259626,0,0
-113.24588965944,29.539090191233,4.0006900690069,1801945.3202066,-865.66887544765,3379355.3478587,9.2006900690069,0,0
-113.24588927701,29.523915890327,4.0051205120512,1801945.3202066,-865.66887544765,3379355.3478587,9.2051205120512,0,0
-113.24588889284,29.508741583039,4.0095509550955,1804538.8777325,-31389.283851675,3301323.3358427,9.2095509550955,0,0
-113.24588850597,29.493567265879,4.0139813981398,1804538.8777325,-31389.283851675,3301323.3358427,9.2139813981398,0,0
-113.2458881191,29.47839294872,4.0184118411841,1804538.8777325,-31389.283851675,3301323.3358427,9.2184118411841,0,0
-113.24588773222,29.463218631561,4.0228422842284,1804538.8777324,-31389.283851675,3301323.3358427,9.2228422842284,0,0
-113.24588734535,29.448044314402,4.0272727272727,1804538.8777325,-31389.283851675,3301323.3358427,9.2272727272727,0,0
-113.24588695848,29.432869997242,4.031703170317,1804538.8777325,-31389.283851675,3301323.3358427,9.231703170317,0,0
-113.2458865716,29.417695680083,4.0361336133613,1804538.8777325,-31389.283851675,3301323.3358427,9.2361336133613,0,0
-113.24588618473,29.402521362924,4.0405640564056,1804538.8777325,-31389.283851675,3301323.3358427,9.2405640564056,0,0
-113.24588579786,29.387347045765,4.0449944994499,1804538.8777325,-31389.283851675,3301323.3358427,9.2449944994499,0,0
-113.24588541098,29.372172728605,4.0494249424942,1804538.8777325,-31389.283851675,3301323.3358427,9.2494249424942,0,0
-113.24588502411,29.356998411446,4.0538553855386,1804538.8777325,-31389.283851675,3301323.3358427,9.2538553855386,0,0
-113.24588463724,29.341824094287,4.0582858285829,1804538.8777325,-31389.283851675,3301323.3358427,9.2582858285829,0,0
-113.24588425036,29.326649777128,4.0627162716272,1804538.8777325,-31389.283851675,3301323.3358427,9.2627162716272,0,0
-113.24588386349,29.311475459968,4.0671467146715,1804538.8777325,-31389.283851675,3301323.3358427,9.2671467146715,0,0
-113.24588347662,29.296301142809,4.0715771577158,1804538.8777325,-31389.283851675,3301323.3358427,9.2715771577158,0,0
-113.24588308974,29.28112682565,4.0760076007601,1804538.8777325,-31389.283851675,3301323.3358427,9.2760076007601,0,0
-113.24588270287,29.265952508491,4.0804380438044,1804538.8777325,-31389.283851675,3301323.3358427,9.2804380438044,0,0
-113.245882316,29.250778191331,4.0848684868487,1804538.8777325,-31389.283851675,3301323.3358427,9.2848684868487,0,0
-113.24588192912,29.235603874172,4.089298929893,1804538.8777325,-31389.283851675,3301323.3358427,9.289298929893,0,0
-113.24588154225,29.220429557013,4.0937293729373,1804538.8777325,-31389.283851675,3301323.3358427,9.2937293729373,0,0
-113.24588115538,29.205255239854,4.0981598159816,1804538.8777325,-31389.283851675,3301323.3358427,9.2981598159816,0,0
-113.2458807685,29.190080922694,4.1025902590259,1804538.8777325,-31389.283851675,3301323.3358427,9.3025902590259,0,0
-113.24588038163,29.174906605535,4.1070207020702,1804538.8777325,-31389.283851675,3301323.3358427,9.3070207020702,0,0
-113.24587999476,29.159732288376,4.1114511451145,1804538.8777325,-31389.283851675,3301323.3358427,9.3114511451145,0,0
-113.24587960788,29.144557971217,4.1158815881588,1804538.8777325,-31389.283851675,3301323.3358427,9.3158815881588,0,0
-113.24587922101,29.129383654057,4.1203120312031,1804538.8777325,-31389.283851675,3301323.3358427,9.3203120312031,0,0
-113.24587883414,29.114209336898,4.1247424742474,1804538.8777325,-31389.283851675,3301323.3358427,9.3247424742474,0,0
-113.24587844726,29.099035019739,4.1291729172917,1804538.8777325,-31389.283851675,3301323.3358427,9.3291729172917,0,0
-113.24587806039,29.08386070258,4.133603360336,1804538.8777325,-31389.283851675,3301323.3358427,9.333603360336,0,0
-113.24587767352,29.06868638542,4.1380338033803,1804538.8777325,-31389.283851675,3301323.3358427,9.3380338033803,0,0
-113.24587728664,29.053512068261,4.1424642464246,1804538.8777325,-31389.283851675,3301323.3358427,9.3424642464246,0,0
-113.24587689264,29.03833776055,4.1468946894689,1872601.7677979,-5327.5492707417,3287796.5438122,9.3468946894689,0,0
-113.24587649428,29.02316345862,4.1513251325133,1872601.7677979,-5327.5492707417,3287796.5438122,9.3513251325133,0,0
-113.24587609592,29.007989156691,4.1557555755576,1872601.7677979,-5327.5492707417,3287796.5438122,9.3557555755576,0,0
-113.24587569756,28.992814854761,4.1601860186019,1872601.7677979,-5327.5492707417,3287796.5438122,9.3601860186019,0,0
-113.2458752992,28.977640552831,4.1646164616462,1872601.7677979,-5327.5492707417,3287796.5438122,9.3646164616462,0,0
-113.24587490084,28.962466250902,4.1690469046905,1872601.7677979,-5327.5492707417,3287796.5438122,9.3690469046905,0,0
-113.24587450248,28.947291948972,4.1734773477348,1872601.7677979,-5327.5492707417,3287796.5438122,9.3734773477348,0,0
-113.24587410412,28.932117647042,4.1779077907791,1872601.7677979,-5327.5492707417,3287796.5438122,9.3779077907791,0,0
-113.24587370576,28.916943345113,4.1823382338234,1872601.7677979,-5327.5492707417,3287796.5438122,9.3823382338234,0,0
-113.24587330739,28.901769043183,4.1867686768677,1872601.7677979,-5327.5492707417,3287796.5438122,9.3867686768677,0,0
-113.24587290903,28.886594741253,4.191199119912,1872601.7677979,-5327.5492707417,3287796.5438122,9.391199119912,0,0
-113.24587251067,28.871420439324,4.1956295629563,1872601.7677979,-5327.5492707417,3287796.5438122,9.3956295629563,0,0
-113.24587211231,28.856246137394,4.2000600060006,1872601.7677979,-5327.5492707417,3287796.5438122,9.4000600060006,0,0
-113.24587171395,28.841071835464,4.2044904490449,1872601.7677979,-5327.5492707417,3287796.5438122,9.4044904490449,0,0
-113.24587131559,28.825897533535,4.2089208920892,1872601.7677979,-5327.5492707417,3287796.5438122,9.4089208920892,0,0
-113.24587091723,28.810723231605,4.2133513351335,1872601.7677979,-5327.5492707417,3287796.5438122,9.4133513351335,0,0
-113.24587051887,28.795548929675,4.2177817781778,1872601.7677979,-5327.5492707417,3287796.5438122,9.4177817781778,0,0
-113.24587012051,28.780374627746,4.2222122212221,1872601.7677979,-5327.5492707417,3287796.5438122,9.4222122212221,0,0
-113.24586972214,28.765200325816,4.2266426642664,1872601.7677979,-5327.5492707417,3287796.5438122,9.4266426642664,0,0
-113.24586932378,28.750026023886,4.2310731073107,1872601.7677979,-5327.5492707417,3287796.5438122,9.4310731073107,0,0
-113.24586892542,28.734851721957,4.235503550355,1872601.7677979,-5327.5492707417,3287796.5438122,9.435503550355,0,0
-113.24586852706,28.719677420027,4.2399339933993,1872601.7677979,-5327.5492707417,3287796.5438122,9.4399339933993,0,0
-113.2458681287,28.704503118097,4.2443644364436,1872601.7677979,-5327.5492707417,3287796.5438122,9.4443644364436,0,0
-113.24586773034,28.689328816168,4.2487948794879,1872601.7677979,-5327.5492707417,3287796.5438122,9.4487948794879,0,0
-113.24586733198,28.674154514238,4.2532253225323,1872601.7677979,-5327.5492707417,3287796.5438122,9.4532253225323,0,0
-113.24586693362,28.658980212308,4.2576557655766,1872601.7677979,-5327.5492707417,3287796.5438122,9.4576557655766,0,0
-113.24586653526,28.643805910379,4.2620862086209,1872601.7677979,-5327.5492707417,3287796.5438122,9.4620862086209,0,0
-113.24586613689,28.628631608449,4.2665166516652,1872601.7677979,-5327.5492707417,3287796.5438122,9.4665166516652,0,0
-113.24586573853,28.613457306519,4.2709470947095,1872601.7677979,-5327.5492707417,3287796.5438122,9.4709470947095,0,0
-113.24586534017,28.59828300459,4.2753775377538,1872601.7677979,-5327.5492707417,3287796.5438122,9.4753775377538,0,0
-113.24586494181,28.58310870266,4.2798079807981,1872601.7677979,-5327.5492707417,3287796.5438122,9.4798079807981,0,0
-113.24586454345,28.56793440073,4.2842384238424,1872601.7677979,-5327.5492707417,3287796.5438122,9.4842384238424,0,0
-113.24586414509,28.552760098801,4.2886688668867,1872601.7677979,-5327.5492707417,3287796.5438122,9.4886688668867,0,0
-113.24586374673,28.537585796871,4.293099309931,1872601.7677979,-5327.5492707417,3287796.5438122,9.493099309931,0,0
-113.24586334837,28.522411494941,4.2975297529753,1872601.7677979,-5327.5492707417,3287796.5438122,9.4975297529753,0,0
-113.24586295001,28.507237193012,4.3019601960196,1872601.7677979,-5327.5492707417,3287796.5438122,9.5019601960196,0,0
-113.24586255164,28.492062891082,4.3063906390639,1872601.7677979,-5327.5492707417,3287796.5438122,9.5063906390639,0,0
-113.24586215328,28.476888589152,4.3108210821082,1872601.7677979,-5327.5492707417,3287796.5438122,9.5108210821082,0,0
-113.24586175492,28.461714287223,4.3152515251525,1872601.7677979,-5327.5492707417,3287796.5438122,9.5152515251525,0,0
-113.24586135656,28.446539985293,4.3196819681968,1872601.7677979,-5327.5492707417,3287796.5438122,9.5196819681968,0,0
-113.2458609582,28.431365683363,4.3241124112411,1872601.7677979,-5327.5492707417,3287796.5438122,9.5241124112411,0,0
-113.24586055984,28.416191381434,4.3285428542854,1872601.7677979,-5327.5492707417,3287796.5438122,9.5285428542854,0,0
-113.24586016148,28.401017079504,4.3329732973297,1872601.7677979,-5327.5492707417,3287796.5438122,9.5329732973297,0,0
-113.24585976312,28.385842777574,4.337403740374,1872601.7677979,-5327.5492707417,3287796.5438122,9.537403740374,0,0
-113.24585936476,28.370668475645,4.3418341834183,1872601.7677979,-5327.5492707417,3287796.5438122,9.5418341834183,0,0
-113.2458589664,28.355494173715,4.3462646264626,1872601.7677979,-5327.5492707417,3287796.5438122,9.5462646264626,0,0
-113.24585856803,28.340319871785,4.350695069507,1872601.7677979,-5327.5492707417,3287796.5438122,9.550695069507,0,0
-113.24585816967,28.325145569856,4.3551255125513,1872601.7677979,-5327.5492707417,3287796.5438122,9.5551255125513,0,0
-113.24585777131,28.309971267926,4.3595559555956,1872601.7677979,-5327.5492707417,3287796.5438122,9.5595559555956,0,0
-113.24585737295,28.294796965996,4.3639863986399,1872601.7677979,-5327.5492707417,3287796.5438122,9.5639863986399,0,0
-113.24585697459,28.279622664067,4.3684168416842,1872601.7677979,-5327.5492707417,3287796.5438122,9.5684168416842,0,0
-113.24585657623,28.264448362137,4.3728472847285,1872601.7677979,-5327.5492707417,3287796.5438122,9.5728472847285,0,0
-113.24585617787,28.249274060207,4.3772777277728,1872601.7677979,-5327.5492707417,3287796.5438122,9.5772777277728,0,0
-113.24585577951,28.234099758278,4.3817081708171,1872601.7677979,-5327.5492707417,3287796.5438122,9.5817081708171,0,0
-113.24585538115,28.218925456348,4.3861386138614,1872601.7677979,-5327.5492707417,3287796.5438122,9.5861386138614,0,0
-113.24585498278,28.203751154418,4.3905690569057,1872601.7677979,-5327.5492707417,3287796.5438122,9.5905690569057,0,0
-113.24585458442,28.188576852489,4.39499949995,1872601.7677979,-5327.5492707417,3287796.5438122,9.59499949995,0,0
-113.24585418606,28.173402550559,4.3994299429943,1872601.7677979,-5327.5492707417,3287796.5438122,9.5994299429943,0,0
-113.2458537877,28.158228248629,4.4038603860386,1872601.7677979,-5327.5492707417,3287796.5438122,9.6038603860386,0,0
-113.24585338934,28.1430539467,4.4082908290829,1872601.7677979,-5327.5492707417,3287796.5438122,9.6082908290829,0,0
-113.24585299098,28.12787964477,4.4127212721272,1872601.7677979,-5327.5492707417,3287796.5438122,9.6127212721272,0,0
-113.24585259262,28.11270534284,4.4171517151715,1872601.7677979,-5327.5492707417,3287796.5438122,9.6171517151715,0,0
-113.24585219426,28.097531040911,4.4215821582158,1872601.7677979,-5327.5492707417,3287796.5438122,9.6215821582158,0,0
-113.2458517959,28.082356738981,4.4260126012601,1872601.7677979,-5327.5492707417,3287796.5438122,9.6260126012601,0,0
-113.24585139753,28.067182437051,4.4304430443044,1872601.7677979,-5327.5492707417,3287796.5438122,9.6304430443044,0,0
-113.24585099917,28.052008135122,4.4348734873487,1872601.7677979,-5327.5492707417,3287796.5438122,9.6348734873487,0,0
-113.24585060081,28.036833833192,4.439303930393,1872601.7677979,-5327.5492707417,3287796.5438122,9.639303930393,0,0
-113.24585020245,28.021659531262,4.4437343734373,1872601.7677979,-5327.5492707417,3287796.5438122,9.6437343734373,0,0
-113.24584980409,28.006485229333,4.4481648164816,1872601.7677979,-5327.5492707417,3287796.5438122,9.6481648164816,0,0
-113.24584940573,27.991310927403,4.452595259526,1872601.7677979,-5327.5492707417,3287796.5438122,9.652595259526,0,0
-113.24584900737,27.976136625473,4.4570257025703,1872601.7677979,-5327.5492707417,3287796.5438122,9.6570257025703,0,0
-113.24584860901,27.960962323544,4.4614561456146,1872601.7677979,-5327.5492707417,3287796.5438122,9.6614561456146,0,0
-113.24584821065,27.945788021614,4.4658865886589,1872601.7677979,-5327.5492707417,3287796.5438122,9.6658865886589,0,0
-113.24584781229,27.930613719684,4.4703170317032,1872601.7677979,-5327.5492707417,3287796.5438122,9.6703170317032,0,0
-113.24584741392,27.915439417755,4.4747474747475,1872601.7677979,-5327.5492707417,3287796.5438122,9.6747474747475,0,0
-113.24584701556,27.900265115825,4.4791779177918,1872601.7677979,-5327.5492707417,3287796.5438122,9.6791779177918,0,0
-113.2458466172,27.885090813895,4.4836083608361,1872601.7677979,-5327.5492707417,3287796.5438122,9.6836083608361,0,0
-113.24584621884,27.869916511966,4.4880388038804,1872601.7677979,-5327.5492707417,3287796.5438122,9.6880388038804,0,0
-113.24584582048,27.854742210036,4.4924692469247,1872601.7677979,-5327.5492707417,3287796.5438122,9.6924692469247,0,0
-113.24584542212,27.839567908106,4.496899689969,1872601.7677979,-5327.5492707417,3287796.5438122,9.696899689969,0,0
-113.24584502376,27.824393606177,4.5013301330133,1872601.7677979,-5327.5492707417,3287796.5438122,9.7013301330133,0,0
-113.2458446254,27.809219304247,4.5057605760576,1872601.7677979,-5327.5492707417,3287796.5438122,9.7057605760576,0,0
-113.24584422704,27.794045002317,4.5101910191019,1872601.7677979,-5327.5492707417,3287796.5438122,9.7101910191019,0,0
-113.24584382867,27.778870700388,4.5146214621462,1872601.7677979,-5327.5492707417,3287796.5438122,9.7146214621462,0,0
-113.24584343031,27.763696398458,4.5190519051905,1872601.7677979,-5327.5492707417,3287796.5438122,9.7190519051905,0,0
-113.24584303195,27.748522096528,4.5234823482348,1872601.7677979,-5327.5492707417,3287796.5438122,9.7234823482348,0,0
-113.24584263359,27.733347794599,4.5279127912791,1872601.7677979,-5327.5492707417,3287796.5438122,9.7279127912791,0,0
-113.24584223523,27.718173492669,4.5323432343234,1872601.7677979,-5327.5492707417,3287796.5438122,9.7323432343234,0,0
-113.24584183687,27.702999190739,4.5367736773677,1872601.7677979,-5327.5492707417,3287796.5438122,9.7367736773677,0,0
-113.24584143851,27.68782488881,4.541204120412,1872601.7677979,-5327.5492707417,3287796.5438122,9.741204120412,0,0
-113.24584104015,27.67265058688,4.5456345634563,1872601.7677979,-5327.5492707417,3287796.5438122,9.7456345634563,0,0
-113.24584064179,27.65747628495,4.5500650065006,1872601.7677979,-5327.5492707417,3287796.5438122,9.7500650065007,0,0
-113.24584024342,27.642301983021,4.554495449545,1872601.7677979,-5327.5492707417,3287796.5438122,9.754495449545,0,0
-113.24583983983,27.627127669631,4.5589258925893,1893944.7739256,-27693.426677401,3226710.9112632,9.7589258925893,0,0
-113.24583943493,27.611953353374,4.5633563356336,1893944.7739256,-27693.426677401,3226710.9112632,9.7633563356336,0,0
-113.24583903003,27.596779037116,4.5677867786779,1893944.7739256,-27693.426677401,3226710.9112632,9.7677867786779,0,0
-113.24583862512,27.581604720858,4.5722172217222,1893944.7739256,-27693.426677401,3226710.9112632,9.7722172217222,0,0
-113.24583822022,27.5664304046,4.5766476647665,1893944.7739256,-27693.426677401,3226710.9112632,9.7766476647665,0,0
-113.24583781532,27.551256088342,4.5810781078108,1893944.7739256,-27693.426677401,3226710.9112632,9.7810781078108,0,0
-113.24583741041,27.536081772085,4.5855085508551,1893944.7739256,-27693.426677401,3226710.9112632,9.7855085508551,0,0
-113.24583700551,27.520907455827,4.5899389938994,1893944.7739256,-27693.426677401,3226710.9112632,9.7899389938994,0,0
-113.24583660061,27.505733139569,4.5943694369437,1893944.7739256,-27693.426677401,3226710.9112632,9.7943694369437,0,0
-113.2458361957,27.490558823311,4.598799879988,1893944.7739256,-27693.426677401,3226710.9112632,9.798799879988,0,0
-113.2458357908,27.475384507053,4.6032303230323,1893944.7739256,-27693.426677401,3226710.9112632,9.8032303230323,0,0
-113.2458353859,27.460210190796,4.6076607660766,1893944.7739256,-27693.426677401,3226710.9112632,9.8076607660766,0,0
-113.245834981,27.445035874538,4.6120912091209,1893944.7739256,-27693.426677401,3226710.9112632,9.8120912091209,0,0
-113.24583457609,27.42986155828,4.6165216521652,1893944.7739256,-27693.426677401,3226710.9112632,9.8165216521652,0,0
-113.24583417119,27.414687242022,4.6209520952095,1893944.7739256,-27693.426677401,3226710.9112632,9.8209520952095,0,0
-113.24583376629,27.399512925764,4.6253825382538,1893944.7739256,-27693.426677401,3226710.9112632,9.8253825382538,0,0
-113.24583336138,27.384338609507,4.6298129812981,1893944.7739256,-27693.426677401,3226710.9112632,9.8298129812981,0,0
-113.24583295648,27.369164293249,4.6342434243424,1893944.7739256,-27693.426677401,3226710.9112632,9.8342434243424,0,0
-113.24583255158,27.353989976991,4.6386738673867,1893944.7739256,-27693.426677401,3226710.9112632,9.8386738673867,0,0
-113.24583214667,27.338815660733,4.643104310431,1893944.7739256,-27693.426677401,3226710.9112632,9.843104310431,0,0
-113.24583174177,27.323641344475,4.6475347534753,1893944.7739256,-27693.426677401,3226710.9112632,9.8475347534753,0,0
-113.24583133687,27.308467028218,4.6519651965197,1893944.7739256,-27693.426677401,3226710.9112632,9.8519651965197,0,0
-113.24583093197,27.29329271196,4.656395639564,1893944.7739256,-27693.426677401,3226710.9112632,9.856395639564,0,0
-113.24583052356,27.278118403838,4.6608260826083,1922156.8310444,48.581340360267,3190464.7978109,9.8608260826083,0,0
-113.24583011232,27.262944102341,4.6652565256526,1922156.8310444,48.581340360267,3190464.7978109,9.8652565256526,0,0
-113.24582970107,27.247769800844,4.6696869686969,1922156.8310444,48.581340360267,3190464.7978109,9.8696869686969,0,0
-113.24582928982,27.232595499348,4.6741174117412,1922156.8310444,48.581340360267,3190464.7978109,9.8741174117412,0,0
-113.24582887857,27.217421197851,4.6785478547855,1922156.8310444,48.581340360267,3190464.7978109,9.8785478547855,0,0
-113.24582846732,27.202246896354,4.6829782978298,1922156.8310444,48.581340360267,3190464.7978109,9.8829782978298,0,0
-113.24582805607,27.187072594857,4.6874087408741,1922156.8310444,48.581340360267,3190464.7978109,9.8874087408741,0,0
-113.24582764482,27.17189829336,4.6918391839184,1922156.8310444,48.581340360267,3190464.7978109,9.8918391839184,0,0
-113.24582723357,27.156723991864,4.6962696269627,1922156.8310444,48.581340360267,3190464.7978109,9.8962696269627,0,0
-113.24582682232,27.141549690367,4.700700070007,1922156.8310444,48.581340360267,3190464.7978109,9.900700070007,0,0
-113.24582641107,27.12637538887,4.7051305130513,1922156.8310444,48.581340360267,3190464.7978109,9.9051305130513,0,0
-113.24582599982,27.111201087373,4.7095609560956,1922156.8310444,48.581340360267,3190464.7978109,9.9095609560956,0,0
-113.24582558857,27.096026785876,4.7139913991399,1922156.8310444,48.581340360267,3190464.7978109,9.9139913991399,0,0
-113.24582517733,27.08085248438,4.7184218421842,1922156.8310444,48.581340360267,3190464.7978109,9.9184218421842,0,0
-113.24582476608,27.065678182883,4.7228522852285,1922156.8310444,48.581340360267,3190464.7978109,9.9228522852285,0,0
-113.24582435483,27.050503881386,4.7272827282728,1922156.8310444,48.581340360267,3190464.7978109,9.9272827282728,0,0
-113.24582394358,27.035329579889,4.7317131713171,1922156.8310444,48.581340360267,3190464.7978109,9.9317131713171,0,0
-113.24582353233,27.020155278392,4.7361436143614,1922156.8310444,48.581340360267,3190464.7978109,9.9361436143614,0,0
-113.24582312108,27.004980976896,4.7405740574057,1922156.8310444,48.581340360267,3190464.7978109,9.9405740574057,0,0
-113.24582270983,26.989806675399,4.74500450045,1922156.8310444,48.581340360267,3190464.7978109,9.94500450045,0,0
-113.24582229858,26.974632373902,4.7494349434943,1922156.8310444,48.581340360267,3190464.7978109,9.9494349434943,0,0
-113.24582188733,26.959458072405,4.7538653865387,1922156.8310444,48.581340360267,3190464.7978109,9.9538653865387,0,0
-113.24582147608,26.944283770908,4.758295829583,1922156.8310444,48.581340360267,3190464.7978109,9.958295829583,0,0
-113.24582106483,26.929109469412,4.7627262726273,1922156.8310444,48.581340360267,3190464.7978109,9.9627262726273,0,0
-113.24582065358,26.913935167915,4.7671567156716,1922156.8310444,48.581340360267,3190464.7978109,9.9671567156716,0,0
-113.24582024234,26.898760866418,4.7715871587159,1922156.8310444,48.581340360267,3190464.7978109,9.9715871587159,0,0
-113.24581983109,26.883586564921,4.7760176017602,1922156.8310444,48.581340360267,3190464.7978109,9.9760176017602,0,0
-113.24581941984,26.868412263425,4.7804480448045,1922156.8310444,48.581340360267,3190464.7978109,9.9804480448045,0,0
-113.24581900859,26.853237961928,4.7848784878488,1922156.8310444,48.581340360267,3190464.7978109,9.9848784878488,0,0
-113.24581859734,26.838063660431,4.7893089308931,1922156.8310444,48.581340360267,3190464.7978109,9.9893089308931,0,0
-113.24581818609,26.822889358934,4.7937393739374,1922156.8310444,48.581340360267,3190464.7978109,9.9937393739374,0,0
-113.24581777484,26.807715057437,4.7981698169817,1922156.8310444,48.581340360267,3190464.7978109,9.9981698169817,0,0
-113.24581736359,26.792540755941,4.802600260026,1922156.8310444,48.581340360267,3190464.7978109,10.002600260026,0,0
-113.24581695234,26.777366454444,4.8070307030703,1922156.8310444,48.581340360267,3190464.7978109,10.00703070307,0,0
-113.24581654109,26.762192152947,4.8114611461146,1922156.8310444,48.581340360267,3190464.7978109,10.011461146115,0,0
-113.24581612984,26.74701785145,4.8158915891589,1922156.8310444,48.581340360267,3190464.7978109,10.015891589159,0,0
-113.24581571859,26.731843549953,4.8203220322032,1922156.8310444,48.581340360267,3190464.7978109,10.020322032203,0,0
-113.24581530735,26.716669248457,4.8247524752475,1922156.8310444,48.581340360267,3190464.7978109,10.024752475248,0,0
-113.2458148961,26.70149494696,4.8291829182918,1922156.8310444,48.581340360267,3190464.7978109,10.029182918292,0,0
-113.24581448485,26.686320645463,4.8336133613361,1922156.8310444,48.581340360267,3190464.7978109,10.033613361336,0,0
-113.2458140736,26.671146343966,4.8380438043804,1922156.8310444,48.581340360267,3190464.7978109,10.03804380438,0,0
-113.24581366235,26.655972042469,4.8424742474247,1922156.8310444,48.581340360267,3190464.7978109,10.042474247425,0,0
-113.2458132511,26.640797740973,4.846904690469,1922156.8310444,48.581340360267,3190464.7978109,10.046904690469,0,0
-113.24581283985,26.625623439476,4.8513351335134,1922156.8310444,48.581340360267,3190464.7978109,10.051335133513,0,0
-113.2458124286,26.610449137979,4.8557655765577,1922156.8310444,48.581340360267,3190464.7978109,10.055765576558,0,0
-113.24581201735,26.595274836482,4.860196019602,1922156.8310444,48.581340360267,3190464.7978109,10.060196019602,0,0
-113.2458116061,26.580100534985,4.8646264626463,1922156.8310444,48.581340360267,3190464.7978109,10.064626462646,0,0
-113.24581119485,26.564926233489,4.8690569056906,1922156.8310444,48.581340360267,3190464.7978109,10.069056905691,0,0
-113.24581078361,26.549751931992,4.8734873487349,1922156.8310444,48.581340360267,3190464.7978109,10.073487348735,0,0
-113.24581037236,26.534577630495,4.8779177917792,1922156.8310444,48.581340360267,3190464.7978109,10.077917791779,0,0
-113.24580996111,26.519403328998,4.8823482348235,1922156.8310444,48.581340360267,3190464.7978109,10.082348234823,0,0
-113.24580954986,26.504229027501,4.8867786778678,1922156.8310444,48.581340360267,3190464.7978109,10.086778677868,0,0
-113.24580913861,26.489054726005,4.8912091209121,1922156.8310444,48.581340360267,3190464.7978109,10.091209120912,0,0
-113.24580872736,26.473880424508,4.8956395639564,1922156.8310444,48.581340360267,3190464.7978109,10.095639563956,0,0
-113.24580831611,26.458706123011,4.9000700070007,1922156.8310444,48.581340360267,3190464.7978109,10.100070007001,0,0
-113.24580790486,26.443531821514,4.904500450045,1922156.8310444,48.581340360267,3190464.7978109,10.104500450045,0,0
-113.24580749361,26.428357520018,4.9089308930893,1922156.8310444,48.581340360267,3190464.7978109,10.108930893089,0,0
-113.24580708236,26.413183218521,4.9133613361336,1922156.8310444,48.581340360267,3190464.7978109,10.113361336134,0,0
-113.24580667111,26.398008917024,4.9177917791779,1922156.8310444,48.581340360267,3190464.7978109,10.117791779178,0,0
-113.24580625986,26.382834615527,4.9222222222222,1922156.8310444,48.581340360267,3190464.7978109,10.122222222222,0,0
-113.24580584862,26.36766031403,4.9266526652665,1922156.8310444,48.581340360267,3190464.7978109,10.126652665267,0,0
-113.24580543737,26.352486012534,4.9310831083108,1922156.8310444,48.581340360267,3190464.7978109,10.131083108311,0,0
-113.24580502612,26.337311711037,4.9355135513551,1922156.8310444,48.581340360267,3190464.7978109,10.135513551355,0,0
-113.24580461487,26.32213740954,4.9399439943994,1922156.8310444,48.581340360267,3190464.7978109,10.139943994399,0,0
-113.24580420362,26.306963108043,4.9443744374437,1922156.8310444,48.581340360267,3190464.7978109,10.144374437444,0,0
-113.24580379237,26.291788806546,4.948804880488,1922156.8310444,48.581340360267,3190464.7978109,10.148804880488,0,0
-113.24580338112,26.27661450505,4.9532353235324,1922156.8310444,48.581340360267,3190464.7978109,10.153235323532,0,0
-113.24580296987,26.261440203553,4.9576657665767,1922156.8310444,48.581340360267,3190464.7978109,10.157665766577,0,0
-113.24580255862,26.246265902056,4.962096209621,1922156.8310444,48.581340360267,3190464.7978109,10.162096209621,0,0
-113.24580214737,26.231091600559,4.9665266526653,1922156.8310444,48.581340360267,3190464.7978109,10.166526652665,0,0
-113.24580173612,26.215917299062,4.9709570957096,1922156.8310444,48.581340360267,3190464.7978109,10.17095709571,0,0
-113.24580132487,26.200742997566,4.9753875387539,1922156.8310444,48.581340360267,3190464.7978109,10.175387538754,0,0
-113.24580091363,26.185568696069,4.9798179817982,1922156.8310444,48.581340360267,3190464.7978109,10.179817981798,0,0
-113.24580050238,26.170394394572,4.9842484248425,1922156.8310444,48.581340360267,3190464.7978109,10.184248424842,0,0
-113.24580009113,26.155220093075,4.9886788678868,1922156.8310444,48.581340360267,3190464.7978109,10.188678867887,0,0
-113.24579967988,26.140045791578,4.9931093109311,1922156.8310444,48.581340360267,3190464.7978109,10.193109310931,0,0
-113.24579925726,26.124871480686,4.9975397539754,1996590.7408781,-10559.307012628,3186193.319913,10.197539753975,0,0
-113.24579883399,26.109697169254,5.0019701970197,1996590.7408781,-10559.307012628,3186193.319913,10.20197019702,0,0
-113.24579841073,26.094522857822,5.006400640064,1996590.7408781,-10559.307012628,3186193.319913,10.206400640064,0,0
-113.24579798746,26.07934854639,5.0108310831083,1996590.7408781,-10559.307012628,3186193.319913,10.210831083108,0,0
-113.24579756419,26.064174234957,5.0152615261526,1996590.7408781,-10559.307012628,3186193.319913,10.215261526153,0,0
-113.24579714092,26.048999923525,5.0196919691969,1996590.7408781,-10559.307012628,3186193.319913,10.219691969197,0,0
-113.24579671765,26.033825612093,5.0241224122412,1996590.7408781,-10559.307012628,3186193.319913,10.224122412241,0,0
-113.24579629439,26.018651300661,5.0285528552855,1996590.7408781,-10559.307012628,3186193.319913,10.228552855286,0,0
-113.24579587112,26.003476989228,5.0329832983298,1996590.7408781,-10559.307012628,3186193.319913,10.23298329833,0,0
-113.24579544785,25.988302677796,5.0374137413741,1996590.7408781,-10559.307012628,3186193.319913,10.237413741374,0,0
-113.24579502458,25.973128366364,5.0418441844184,1996590.7408781,-10559.307012628,3186193.319913,10.241844184418,0,0
-113.24579460131,25.957954054932,5.0462746274627,1996590.7408781,-10559.307012628,3186193.319913,10.246274627463,0,0
-113.24579417804,25.942779743499,5.050705070507,1996590.7408781,-10559.307012628,3186193.319913,10.250705070507,0,0
-113.24579375478,25.927605432067,5.0551355135514,1996590.7408781,-10559.307012628,3186193.319913,10.255135513551,0,0
-113.24579333151,25.912431120635,5.0595659565957,1996590.7408781,-10559.307012628,3186193.319913,10.259565956596,0,0
-113.24579290824,25.897256809203,5.06399639964,1996590.7408781,-10559.307012628,3186193.319913,10.26399639964,0,0
-113.24579248497,25.88208249777,5.0684268426843,1996590.7408781,-10559.307012628,3186193.319913,10.268426842684,0,0
-113.2457920617,25.866908186338,5.0728572857286,1996590.7408781,-10559.307012628,3186193.319913,10.272857285729,0,0
-113.24579163844,25.851733874906,5.0772877287729,1996590.7408781,-10559.307012628,3186193.319913,10.277287728773,0,0
-113.24579121517,25.836559563474,5.0817181718172,1996590.7408781,-10559.307012628,3186193.319913,10.281718171817,0,0
-113.2457907919,25.821385252041,5.0861486148615,1996590.7408781,-10559.307012628,3186193.319913,10.286148614861,0,0
-113.24579036863,25.806210940609,5.0905790579058,1996590.7408781,-10559.307012628,3186193.319913,10.290579057906,0,0
-113.24578994536,25.791036629177,5.0950095009501,1996590.7408781,-10559.307012628,3186193.319913,10.29500950095,0,0
-113.24578952209,25.775862317745,5.0994399439944,1996590.7408781,-10559.307012628,3186193.319913,10.299439943994,0,0
-113.24578909883,25.760688006312,5.1038703870387,1996590.7408781,-10559.307012628,3186193.319913,10.303870387039,0,0
-113.24578867556,25.74551369488,5.108300830083,1996590.7408781,-10559.307012628,3186193.319913,10.308300830083,0,0
-113.24578825229,25.730339383448,5.1127312731273,1996590.7408781,-10559.307012628,3186193.319913,10.312731273127,0,0
-113.24578782902,25.715165072016,5.1171617161716,1996590.7408781,-10559.307012628,3186193.319913,10.317161716172,0,0
-113.24578740575,25.699990760583,5.1215921592159,1996590.7408781,-10559.307012628,3186193.319913,10.321592159216,0,0
-113.24578698249,25.684816449151,5.1260226022602,1996590.7408781,-10559.307012628,3186193.319913,10.32602260226,0,0
-113.24578655922,25.669642137719,5.1304530453045,1996590.7408781,-10559.307012628,3186193.319913,10.330453045305,0,0
-113.24578613595,25.654467826287,5.1348834883488,1996590.7408781,-10559.307012628,3186193.319913,10.334883488349,0,0
-113.24578571268,25.639293514854,5.1393139313931,1996590.7408781,-10559.307012628,3186193.319913,10.339313931393,0,0
-113.24578528941,25.624119203422,5.1437443744374,1996590.7408781,-10559.307012628,3186193.319913,10.343744374437,0,0
-113.24578486615,25.60894489199,5.1481748174817,1996590.7408781,-10559.307012628,3186193.319913,10.348174817482,0,0
-113.24578444288,25.593770580558,5.1526052605261,1996590.7408781,-10559.307012628,3186193.319913,10.352605260526,0,0
-113.24578401961,25.578596269125,5.1570357035704,1996590.7408781,-10559.307012628,3186193.319913,10.35703570357,0,0
-113.24578359634,25.563421957693,5.1614661466147,1996590.7408781,-10559.307012628,3186193.319913,10.361466146615,0,0
-113.24578317307,25.548247646261,5.165896589659,1996590.7408781,-10559.307012628,3186193.319913,10.365896589659,0,0
-113.2457827498,25.533073334829,5.1703270327033,1996590.7408781,-10559.307012628,3186193.319913,10.370327032703,0,0
-113.24578232654,25.517899023396,5.1747574757476,1996590.7408781,-10559.307012628,3186193.319913,10.374757475748,0,0
-113.24578190327,25.502724711964,5.1791879187919,1996590.7408781,-10559.307012628,3186193.319913,10.379187918792,0,0
-113.24578148,25.487550400532,5.1836183618362,1996590.7408781,-10559.307012628,3186193.319913,10.383618361836,0,0
-113.24578105673,25.4723760891,5.1880488048805,1996590.7408781,-10559.307012628,3186193.319913,10.38804880488,0,0
-113.24578063346,25.457201777667,5.1924792479248,1996590.7408781,-10559.307012628,3186193.319913,10.392479247925,0,0
-113.2457802102,25.442027466235,5.1969096909691,1996590.7408781,-10559.307012628,3186193.319913,10.396909690969,0,0
-113.24577978693,25.426853154803,5.2013401340134,1996590.7408781,-10559.307012628,3186193.319913,10.401340134013,0,0
-113.24577936366,25.411678843371,5.2057705770577,1996590.7408781,-10559.307012628,3186193.319913,10.405770577058,0,0
-113.24577894039,25.396504531938,5.210201020102,1996590.7408781,-10559.307012628,3186193.319913,10.410201020102,0,0
-113.24577851712,25.381330220506,5.2146314631463,1996590.7408781,-10559.307012628,3186193.319913,10.414631463146,0,0
-113.24577809385,25.366155909074,5.2190619061906,1996590.7408781,-10559.307012628,3186193.319913,10.419061906191,0,0
-113.24577767059,25.350981597642,5.2234923492349,1996590.7408781,-10559.307012628,3186193.319913,10.423492349235,0,0
-113.24577724732,25.33580728621,5.2279227922792,1996590.7408781,-10559.307012628,3186193.319913,10.427922792279,0,0
-113.24577682405,25.320632974777,5.2323532353235,1996590.7408781,-10559.307012628,3186193.319913,10.432353235324,0,0
-113.24577640078,25.305458663345,5.2367836783678,1996590.7408781,-10559.307012628,3186193.319913,10.436783678368,0,0
-113.24577597869,25.290284355845,5.2412141214121,1960017.4163406,12694.291055762,3114131.3163486,10.441214121412,0,0
-113.24577555749,25.275110051341,5.2456445644564,1960017.4163406,12694.291055762,3114131.3163486,10.445644564456,0,0
-113.24577513629,25.259935746838,5.2500750075008,1960017.4163406,12694.291055762,3114131.3163486,10.450075007501,0,0
-113.2457747151,25.244761442334,5.2545054505451,1960017.4163406,12694.291055762,3114131.3163486,10.454505450545,0,0
-113.2457742939,25.22958713783,5.2589358935894,1960017.4163406,12694.291055762,3114131.3163486,10.458935893589,0,0
-113.2457738727,25.214412833327,5.2633663366337,1960017.4163406,12694.291055762,3114131.3163486,10.463366336634,0,0
-113.2457734515,25.199238528823,5.267796779678,1960017.4163406,12694.291055762,3114131.3163486,10.467796779678,0,0
-113.2457730303,25.18406422432,5.2722272227223,1960017.4163406,12694.291055762,3114131.3163486,10.472227222722,0,0
-113.24577260911,25.168889919816,5.2766576657666,1960017.4163406,12694.291055762,3114131.3163486,10.476657665767,0,0
-113.24577218791,25.153715615312,5.2810881088109,1960017.4163406,12694.291055762,3114131.3163486,10.481088108811,0,0
-113.24577176671,25.138541310809,5.2855185518552,1960017.4163406,12694.291055762,3114131.3163486,10.485518551855,0,0
-113.24577134551,25.123367006305,5.2899489948995,1960017.4163406,12694.291055762,3114131.3163486,10.489948994899,0,0
-113.24577092432,25.108192701801,5.2943794379438,1960017.4163406,12694.291055762,3114131.3163486,10.494379437944,0,0
-113.24577050312,25.093018397298,5.2988098809881,1960017.4163406,12694.291055762,3114131.3163486,10.498809880988,0,0
-113.24577008192,25.077844092794,5.3032403240324,1960017.4163406,12694.291055762,3114131.3163486,10.503240324032,0,0
-113.24576966072,25.06266978829,5.3076707670767,1960017.4163406,12694.291055762,3114131.3163486,10.507670767077,0,0
-113.24576923952,25.047495483787,5.312101210121,1960017.4163406,12694.291055762,3114131.3163486,10.512101210121,0,0
-113.24576881833,25.032321179283,5.3165316531653,1960017.4163406,12694.291055762,3114131.3163486,10.516531653165,0,0
-113.24576839713,25.01714687478,5.3209620962096,1960017.4163406,12694.291055762,3114131.3163486,10.52096209621,0,0
-113.24576797593,25.001972570276,5.3253925392539,1960017.4163406,12694.291055762,3114131.3163486,10.525392539254,0,0
-113.24576755473,24.986798265772,5.3298229822982,1960017.4163406,12694.291055762,3114131.3163486,10.529822982298,0,0
-113.24576713354,24.971623961269,5.3342534253425,1960017.4163406,12694.291055762,3114131.3163486,10.534253425343,0,0
-113.24576671234,24.956449656765,5.3386838683868,1960017.4163406,12694.291055762,3114131.3163486,10.538683868387,0,0
-113.24576629114,24.941275352261,5.3431143114311,1960017.4163406,12694.291055762,3114131.3163486,10.543114311431,0,0
-113.24576586994,24.926101047758,5.3475447544754,1960017.4163406,12694.291055762,3114131.3163486,10.547544754475,0,0
-113.24576544875,24.910926743254,5.3519751975198,1960017.4163406,12694.291055762,3114131.3163486,10.55197519752,0,0
-113.24576502755,24.89575243875,5.3564056405641,1960017.4163406,12694.291055762,3114131.3163486,10.556405640564,0,0
-113.24576460635,24.880578134247,5.3608360836084,1960017.4163406,12694.291055762,3114131.3163486,10.560836083608,0,0
-113.24576418515,24.865403829743,5.3652665266527,1960017.4163406,12694.291055762,3114131.3163486,10.565266526653,0,0
-113.24576376395,24.85022952524,5.369696969697,1960017.4163406,12694.291055762,3114131.3163486,10.569696969697,0,0
-113.24576334276,24.835055220736,5.3741274127413,1960017.4163406,12694.291055762,3114131.3163486,10.574127412741,0,0
-113.24576292156,24.819880916232,5.3785578557856,1960017.4163406,12694.291055762,3114131.3163486,10.578557855786,0,0
-113.24576250036,24.804706611729,5.3829882988299,1960017.4163406,12694.291055762,3114131.3163486,10.58298829883,0,0
-113.24576207916,24.789532307225,5.3874187418742,1960017.4163406,12694.291055762,3114131.3163486,10.587418741874,0,0
-113.24576165797,24.774358002721,5.3918491849185,1960017.4163406,12694.291055762,3114131.3163486,10.591849184918,0,0
-113.24576123677,24.759183698218,5.3962796279628,1960017.4163406,12694.291055762,3114131.3163486,10.596279627963,0,0
-113.24576081557,24.744009393714,5.4007100710071,1960017.4163406,12694.291055762,3114131.3163486,10.600710071007,0,0
-113.24576039437,24.72883508921,5.4051405140514,1960017.4163406,12694.291055762,3114131.3163486,10.605140514051,0,0
-113.24575997318,24.713660784707,5.4095709570957,1960017.4163406,12694.291055762,3114131.3163486,10.609570957096,0,0
-113.24575955198,24.698486480203,5.41400140014,1960017.4163406,12694.291055762,3114131.3163486,10.61400140014,0,0
-113.24575913078,24.6833121757,5.4184318431843,1960017.4163406,12694.291055762,3114131.3163486,10.618431843184,0,0
-113.24575870958,24.668137871196,5.4228622862286,1960017.4163406,12694.291055762,3114131.3163486,10.622862286229,0,0
-113.24575828838,24.652963566692,5.4272927292729,1960017.4163406,12694.291055762,3114131.3163486,10.627292729273,0,0
-113.24575786719,24.637789262189,5.4317231723172,1960017.4163406,12694.291055762,3114131.3163486,10.631723172317,0,0
-113.24575744599,24.622614957685,5.4361536153615,1960017.4163406,12694.291055762,3114131.3163486,10.636153615362,0,0
-113.24575702479,24.607440653181,5.4405840584058,1960017.4163406,12694.291055762,3114131.3163486,10.640584058406,0,0
-113.24575660359,24.592266348678,5.4450145014501,1960017.4163406,12694.291055762,3114131.3163486,10.64501450145,0,0
-113.2457561824,24.577092044174,5.4494449444944,1960017.4163406,12694.291055762,3114131.3163486,10.649444944494,0,0
-113.2457557612,24.56191773967,5.4538753875388,1960017.4163406,12694.291055762,3114131.3163486,10.653875387539,0,0
-113.24575534,24.546743435167,5.4583058305831,1960017.4163406,12694.291055762,3114131.3163486,10.658305830583,0,0
-113.2457549188,24.531569130663,5.4627362736274,1960017.4163406,12694.291055762,3114131.3163486,10.662736273627,0,0
-113.2457544976,24.51639482616,5.4671667166717,1960017.4163406,12694.291055762,3114131.3163486,10.667166716672,0,0
-113.24575406806,24.501220525798,5.471597159716,2046250.3256464,23699.826111917,3137373.1551858,10.671597159716,0,0
-113.2457536344,24.486046227483,5.4760276027603,2046250.3256464,23699.826111917,3137373.1551858,10.67602760276,0,0
-113.24575320074,24.470871929169,5.4804580458046,2046250.3256464,23699.826111917,3137373.1551858,10.680458045805,0,0
-113.24575276707,24.455697630854,5.4848884888489,2046250.3256464,23699.826111917,3137373.1551858,10.684888488849,0,0
-113.24575233341,24.44052333254,5.4893189318932,2046250.3256464,23699.826111917,3137373.1551858,10.689318931893,0,0
-113.24575189974,24.425349034225,5.4937493749375,2046250.3256464,23699.826111917,3137373.1551858,10.693749374937,0,0
-113.24575146608,24.410174735911,5.4981798179818,2046250.3256464,23699.826111917,3137373.1551858,10.698179817982,0,0
-113.24575103242,24.395000437596,5.5026102610261,2046250.3256464,23699.826111917,3137373.1551858,10.702610261026,0,0
-113.24575059875,24.379826139282,5.5070407040704,2046250.3256464,23699.826111917,3137373.1551858,10.70704070407,0,0
-113.24575016509,24.364651840967,5.5114711471147,2046250.3256464,23699.826111917,3137373.1551858,10.711471147115,0,0
-113.24574973142,24.349477542653,5.515901590159,2046250.3256464,23699.826111917,3137373.1551858,10.715901590159,0,0
-113.24574929776,24.334303244338,5.5203320332033,2046250.3256464,23699.826111917,3137373.1551858,10.720332033203,0,0
-113.24574886409,24.319128946024,5.5247624762476,2046250.3256464,23699.826111917,3137373.1551858,10.724762476248,0,0
-113.24574843043,24.303954647709,5.5291929192919,2046250.3256464,23699.826111917,3137373.1551858,10.729192919292,0,0
-113.24574799677,24.288780349395,5.5336233623362,2046250.3256464,23699.826111917,3137373.1551858,10.733623362336,0,0
-113.2457475631,24.27360605108,5.5380538053805,2046250.3256464,23699.826111917,3137373.1551858,10.738053805381,0,0
-113.24574712944,24.258431752766,5.5424842484248,2046250.3256464,23699.826111917,3137373.1551858,10.742484248425,0,0
-113.24574669577,24.243257454451,5.5469146914691,2046250.3256464,23699.826111917,3137373.1551858,10.746914691469,0,0
-113.24574626211,24.228083156137,5.5513451345134,2046250.3256464,23699.826111917,3137373.1551858,10.751345134513,0,0
-113.24574582845,24.212908857822,5.5557755775578,2046250.3256464,23699.826111917,3137373.1551858,10.755775577558,0,0
-113.24574539478,24.197734559508,5.5602060206021,2046250.3256464,23699.826111917,3137373.1551858,10.760206020602,0,0
-113.24574496112,24.182560261193,5.5646364636464,2046250.3256464,23699.826111917,3137373.1551858,10.764636463646,0,0
-113.24574452745,24.167385962879,5.5690669066907,2046250.3256464,23699.826111917,3137373.1551858,10.769066906691,0,0
-113.24574409379,24.152211664564,5.573497349735,2046250.3256464,23699.826111917,3137373.1551858,10.773497349735,0,0
-113.24574366013,24.13703736625,5.5779277927793,2046250.3256464,23699.826111917,3137373.1551858,10.777927792779,0,0
-113.24574322646,24.121863067935,5.5823582358236,2046250.3256464,23699.826111917,3137373.1551858,10.782358235824,0,0
-113.2457427928,24.106688769621,5.5867886788679,2046250.3256464,23699.826111917,3137373.1551858,10.786788678868,0,0
-113.24574235913,24.091514471306,5.5912191219122,2046250.3256464,23699.826111917,3137373.1551858,10.791219121912,0,0
-113.24574192547,24.076340172992,5.5956495649565,2046250.3256464,23699.826111917,3137373.1551858,10.795649564956,0,0
-113.2457414918,24.061165874677,5.6000800080008,2046250.3256464,23699.826111917,3137373.1551858,10.800080008001,0,0
-113.24574105814,24.045991576363,5.6045104510451,2046250.3256464,23699.826111917,3137373.1551858,10.804510451045,0,0
-113.24574062448,24.030817278048,5.6089408940894,2046250.3256464,23699.826111917,3137373.1551858,10.808940894089,0,0
-113.24574019081,24.015642979734,5.6133713371337,2046250.3256464,23699.826111917,3137373.1551858,10.813371337134,0,0
-113.24573975715,24.00046868142,5.617801780178,2046250.3256464,23699.826111917,3137373.1551858,10.817801780178,0,0
-113.24573932348,23.985294383105,5.6222322232223,2046250.3256464,23699.826111917,3137373.1551858,10.822232223222,0,0
-113.24573888982,23.970120084791,5.6266626662666,2046250.3256464,23699.826111917,3137373.1551858,10.826662666267,0,0
-113.24573845616,23.954945786476,5.6310931093109,2046250.3256464,23699.826111917,3137373.1551858,10.831093109311,0,0
-113.24573802249,23.939771488162,5.6355235523552,2046250.3256464,23699.826111917,3137373.1551858,10.835523552355,0,0
-113.24573758883,23.924597189847,5.6399539953995,2046250.3256464,23699.826111917,3137373.1551858,10.8399539954,0,0
-113.24573715526,23.909422886851,5.6443844384438,2022072.8997348,-4969.1962141853,3068132.6345574,10.844384438444,0,0
-113.24573672185,23.89424857669,5.6488148814881,2022072.8997348,-4969.1962141853,3068132.6345574,10.848814881488,0,0
-113.24573628844,23.879074266528,5.6532453245325,2022072.8997348,-4969.1962141853,3068132.6345574,10.853245324532,0,0
-113.24573585503,23.863899956367,5.6576757675768,2022072.8997348,-4969.1962141853,3068132.6345574,10.857675767577,0,0
-113.24573542161,23.848725646205,5.6621062106211,2022072.8997348,-4969.1962141853,3068132.6345574,10.862106210621,0,0
-113.2457349882,23.833551336044,5.6665366536654,2022072.8997348,-4969.1962141853,3068132.6345574,10.866536653665,0,0
-113.24573455479,23.818377025882,5.6709670967097,2022072.8997348,-4969.1962141853,3068132.6345574,10.87096709671,0,0
-113.24573412137,23.803202715721,5.675397539754,2022072.8997348,-4969.1962141853,3068132.6345574,10.875397539754,0,0
-113.24573368796,23.788028405559,5.6798279827983,2022072.8997348,-4969.1962141853,3068132.6345574,10.879827982798,0,0
-113.24573325455,23.772854095398,5.6842584258426,2022072.8997348,-4969.1962141853,3068132.6345574,10.884258425843,0,0
-113.24573282114,23.757679785236,5.6886888688869,2022072.8997348,-4969.1962141853,3068132.6345574,10.888688868887,0,0
-113.24573238772,23.742505475075,5.6931193119312,2022072.8997348,-4969.1962141853,3068132.6345574,10.893119311931,0,0
-113.24573195431,23.727331164913,5.6975497549755,2022072.8997348,-4969.1962141853,3068132.6345574,10.897549754975,0,0
-113.2457315209,23.712156854752,5.7019801980198,2022072.8997348,-4969.1962141853,3068132.6345574,10.90198019802,0,0
-113.24573108749,23.69698254459,5.7064106410641,2022072.8997348,-4969.1962141853,3068132.6345574,10.906410641064,0,0
-113.24573065407,23.681808234429,5.7108410841084,2022072.8997348,-4969.1962141853,3068132.6345574,10.910841084108,0,0
-113.24573022066,23.666633924267,5.7152715271527,2022072.8997348,-4969.1962141853,3068132.6345574,10.915271527153,0,0
-113.24572978725,23.651459614106,5.719701970197,2022072.8997348,-4969.1962141853,3068132.6345574,10.919701970197,0,0
-113.24572935384,23.636285303944,5.7241324132413,2022072.8997348,-4969.1962141853,3068132.6345574,10.924132413241,0,0
-113.24572892042,23.621110993783,5.7285628562856,2022072.8997348,-4969.1962141853,3068132.6345574,10.928562856286,0,0
-113.24572848701,23.605936683621,5.7329932993299,2022072.8997348,-4969.1962141853,3068132.6345574,10.93299329933,0,0
-113.2457280536,23.59076237346,5.7374237423742,2022072.8997348,-4969.1962141853,3068132.6345574,10.937423742374,0,0
-113.24572762019,23.575588063298,5.7418541854185,2022072.8997348,-4969.1962141853,3068132.6345574,10.941854185419,0,0
-113.24572718677,23.560413753137,5.7462846284628,2022072.8997348,-4969.1962141853,3068132.6345574,10.946284628463,0,0
-113.24572675336,23.545239442975,5.7507150715072,2022072.8997348,-4969.1962141853,3068132.6345574,10.950715071507,0,0
-113.24572631995,23.530065132813,5.7551455145515,2022072.8997348,-4969.1962141853,3068132.6345574,10.955145514551,0,0
-113.24572588654,23.514890822652,5.7595759575958,2022072.8997348,-4969.1962141853,3068132.6345574,10.959575957596,0,0
-113.24572545312,23.49971651249,5.7640064006401,2022072.8997348,-4969.1962141853,3068132.6345574,10.96400640064,0,0
-113.24572501971,23.484542202329,5.7684368436844,2022072.8997348,-4969.1962141853,3068132.6345574,10.968436843684,0,0
-113.2457245863,23.469367892167,5.7728672867287,2022072.8997348,-4969.1962141853,3068132.6345574,10.972867286729,0,0
-113.24572415289,23.454193582006,5.777297729773,2022072.8997348,-4969.1962141853,3068132.6345574,10.977297729773,0,0
-113.24572371947,23.439019271844,5.7817281728173,2022072.8997348,-4969.1962141853,3068132.6345574,10.981728172817,0,0
-113.24572328606,23.423844961683,5.7861586158616,2022072.8997348,-4969.1962141853,3068132.6345574,10.986158615862,0,0
-113.24572285265,23.408670651521,5.7905890589059,2022072.8997348,-4969.1962141853,3068132.6345574,10.990589058906,0,0
-113.24572241924,23.39349634136,5.7950195019502,2022072.8997348,-4969.1962141853,3068132.6345574,10.99501950195,0,0
-113.24572198582,23.378322031198,5.7994499449945,2022072.8997348,-4969.1962141853,3068132.6345574,10.999449944994,0,0
-113.24572155241,23.363147721037,5.8038803880388,2022072.8997348,-4969.1962141853,3068132.6345574,11.003880388039,0,0
-113.245721119,23.347973410875,5.8083108310831,2022072.8997348,-4969.1962141853,3068132.6345574,11.008310831083,0,0
-113.24572068559,23.332799100714,5.8127412741274,2022072.8997348,-4969.1962141853,3068132.6345574,11.012741274127,0,0
-113.24572025217,23.317624790552,5.8171717171717,2022072.8997348,-4969.1962141853,3068132.6345574,11.017171717172,0,0
-113.24571981876,23.302450480391,5.821602160216,2022072.8997348,-4969.1962141853,3068132.6345574,11.021602160216,0,0
-113.24571938535,23.287276170229,5.8260326032603,2022072.8997348,-4969.1962141853,3068132.6345574,11.02603260326,0,0
-113.24571895194,23.272101860068,5.8304630463046,2022072.8997348,-4969.1962141853,3068132.6345574,11.030463046305,0,0
-113.24571851852,23.256927549906,5.8348934893489,2022072.8997348,-4969.1962141853,3068132.6345574,11.034893489349,0,0
-113.24571808511,23.241753239745,5.8393239323932,2022072.8997348,-4969.1962141853,3068132.6345574,11.039323932393,0,0
-113.2457176517,23.226578929583,5.8437543754375,2022072.8997348,-4969.1962141853,3068132.6345574,11.043754375438,0,0
-113.24571721828,23.211404619422,5.8481848184818,2022072.8997348,-4969.1962141853,3068132.6345574,11.048184818482,0,0
-113.24571678487,23.19623030926,5.8526152615262,2022072.8997348,-4969.1962141853,3068132.6345574,11.052615261526,0,0
-113.24571635146,23.181055999099,5.8570457045705,2022072.8997348,-4969.1962141853,3068132.6345574,11.05704570457,0,0
-113.24571591805,23.165881688937,5.8614761476148,2022072.8997348,-4969.1962141853,3068132.6345574,11.061476147615,0,0
-113.24571548463,23.150707378776,5.8659065906591,2022072.8997348,-4969.1962141853,3068132.6345574,11.065906590659,0,0
-113.24571505122,23.135533068614,5.8703370337034,2022072.8997348,-4969.1962141853,3068132.6345574,11.070337033703,0,0
-113.24571461781,23.120358758452,5.8747674767477,2022072.8997348,-4969.1962141853,3068132.6345574,11.074767476748,0,0
-113.2457141844,23.105184448291,5.879197919792,2022072.8997348,-4969.1962141853,3068132.6345574,11.079197919792,0,0
-113.24571375098,23.090010138129,5.8836283628363,2022072.8997348,-4969.1962141853,3068132.6345574,11.083628362836,0,0
-113.24571331757,23.074835827968,5.8880588058806,2022072.8997348,-4969.1962141853,3068132.6345574,11.088058805881,0,0
-113.24571288416,23.059661517806,5.8924892489249,2022072.8997348,-4969.1962141853,3068132.6345574,11.092489248925,0,0
-113.24571245075,23.044487207645,5.8969196919692,2022072.8997348,-4969.1962141853,3068132.6345574,11.096919691969,0,0
-113.24571201733,23.029312897483,5.9013501350135,2022072.8997348,-4969.1962141853,3068132.6345574,11.101350135014,0,0
-113.24571158392,23.014138587322,5.9057805780578,2022072.8997348,-4969.1962141853,3068132.6345574,11.105780578058,0,0
-113.24571115051,22.99896427716,5.9102110211021,2022072.8997348,-4969.1962141853,3068132.6345574,11.110211021102,0,0
-113.2457107171,22.983789966999,5.9146414641464,2022072.8997348,-4969.1962141853,3068132.6345574,11.114641464146,0,0
-113.24571028368,22.968615656837,5.9190719071907,2022072.8997348,-4969.1962141853,3068132.6345574,11.119071907191,0,0
-113.24570985027,22.953441346676,5.923502350235,2022072.8997348,-4969.1962141853,3068132.6345574,11.123502350235,0,0
-113.24570941686,22.938267036514,5.9279327932793,2022072.8997348,-4969.1962141853,3068132.6345574,11.127932793279,0,0
-113.24570898345,22.923092726353,5.9323632363236,2022072.8997348,-4969.1962141853,3068132.6345574,11.132363236324,0,0
-113.24570855003,22.907918416191,5.9367936793679,2022072.8997348,-4969.1962141853,3068132.6345574,11.136793679368,0,0
-113.24570811662,22.89274410603,5.9412241224122,2022072.8997348,-4969.1962141853,3068132.6345574,11.141224122412,0,0
-113.24570768321,22.877569795868,5.9456545654565,2022072.8997348,-4969.1962141853,3068132.6345574,11.145654565457,0,0
-113.2457072498,22.862395485707,5.9500850085008,2022072.8997348,-4969.1962141853,3068132.6345574,11.150085008501,0,0
-113.24570681638,22.847221175545,5.9545154515452,2022072.8997348,-4969.1962141853,3068132.6345574,11.154515451545,0,0
-113.24570638297,22.832046865384,5.9589458945895,2022072.8997348,-4969.1962141853,3068132.6345574,11.158945894589,0,0
-113.24570594956,22.816872555222,5.9633763376338,2022072.8997348,-4969.1962141853,3068132.6345574,11.163376337634,0,0
-113.24570551615,22.801698245061,5.9678067806781,2022072.8997348,-4969.1962141853,3068132.6345574,11.167806780678,0,0
-113.24570508273,22.786523934899,5.9722372237224,2022072.8997348,-4969.1962141853,3068132.6345574,11.172237223722,0,0
-113.24570464932,22.771349624738,5.9766676667667,2022072.8997348,-4969.1962141853,3068132.6345574,11.176667666767,0,0
-113.24570421591,22.756175314576,5.981098109811,2022072.8997348,-4969.1962141853,3068132.6345574,11.181098109811,0,0
-113.2457037825,22.741001004415,5.9855285528553,2022072.8997348,-4969.1962141853,3068132.6345574,11.185528552855,0,0
-113.24570334908,22.725826694253,5.9899589958996,2022072.8997348,-4969.1962141853,3068132.6345574,11.1899589959,0,0
-113.24570291567,22.710652384091,5.9943894389439,2022072.8997348,-4969.1962141853,3068132.6345574,11.194389438944,0,0
-113.24570248226,22.69547807393,5.9988198819882,2022072.8997348,-4969.1962141853,3068132.6345574,11.198819881988,0,0
-113.24570204885,22.680303763768,6.0032503250325,2022072.8997348,-4969.1962141853,3068132.6345574,11.203250325033,0,0
-113.24570161543,22.665129453607,6.0076807680768,2022072.8997348,-4969.1962141853,3068132.6345574,11.207680768077,0,0
-113.24570118202,22.649955143445,6.0121112111211,2022072.8997348,-4969.1962141853,3068132.6345574,11.212111211121,0,0
-113.24570074861,22.634780833284,6.0165416541654,2022072.8997348,-4969.1962141853,3068132.6345574,11.216541654165,0,0
-113.24570031519,22.619606523122,6.0209720972097,2022072.8997348,-4969.1962141853,3068132.6345574,11.22097209721,0,0
-113.24569988178,22.604432212961,6.025402540254,2022072.8997348,-4969.1962141853,3068132.6345574,11.225402540254,0,0
-113.24569944837,22.589257902799,6.0298329832983,2022072.8997348,-4969.1962141853,3068132.6345574,11.229832983298,0,0
-113.24569901496,22.574083592638,6.0342634263426,2022072.8997348,-4969.1962141853,3068132.6345574,11.234263426343,0,0
-113.24569858154,22.558909282476,6.0386938693869,2022072.8997348,-4969.1962141853,3068132.6345574,11.238693869387,0,0
-113.24569814813,22.543734972315,6.0431243124312,2022072.8997348,-4969.1962141853,3068132.6345574,11.243124312431,0,0
-113.24569771472,22.528560662153,6.0475547554755,2022072.8997348,-4969.1962141853,3068132.6345574,11.247554755476,0,0
-113.24569728131,22.513386351992,6.0519851985199,2022072.8997348,-4969.1962141853,3068132.6345574,11.25198519852,0,0
-113.24569684789,22.49821204183,6.0564156415642,2022072.8997348,-4969.1962141853,3068132.6345574,11.256415641564,0,0
-113.24569641448,22.483037731669,6.0608460846085,2022072.8997348,-4969.1962141853,3068132.6345574,11.260846084608,0,0
-113.24569597749,22.467863424184,6.0652765276528,2099710.3293816,7496.9257921467,3076254.730214,11.265276527653,0,0
-113.24569553219,22.452689122911,6.0697069706971,2099710.3293816,7496.9257921467,3076254.730214,11.269706970697,0,0
-113.24569508689,22.437514821638,6.0741374137414,2099710.3293816,7496.9257921467,3076254.730214,11.274137413741,0,0
-113.24569464159,22.422340520365,6.0785678567857,2099710.3293816,7496.9257921467,3076254.730214,11.278567856786,0,0
-113.2456941963,22.407166219092,6.08299829983,2099710.3293816,7496.9257921467,3076254.730214,11.28299829983,0,0
-113.245693751,22.391991917819,6.0874287428743,2099710.3293816,7496.9257921467,3076254.730214,11.287428742874,0,0
-113.2456933057,22.376817616546,6.0918591859186,2099710.3293816,7496.9257921467,3076254.730214,11.291859185919,0,0
-113.2456928604,22.361643315273,6.0962896289629,2099710.3293816,7496.9257921467,3076254.730214,11.296289628963,0,0
-113.2456924151,22.346469014,6.1007200720072,2099710.3293816,7496.9257921467,3076254.730214,11.300720072007,0,0
-113.2456919698,22.331294712727,6.1051505150515,2099710.3293816,7496.9257921467,3076254.730214,11.305150515052,0,0
-113.2456915245,22.316120411454,6.1095809580958,2099710.3293816,7496.9257921467,3076254.730214,11.309580958096,0,0
-113.24569107921,22.300946110181,6.1140114011401,2099710.3293816,7496.9257921467,3076254.730214,11.31401140114,0,0
-113.24569063391,22.285771808908,6.1184418441844,2099710.3293816,7496.9257921467,3076254.730214,11.318441844184,0,0
-113.24569018861,22.270597507635,6.1228722872287,2099710.3293816,7496.9257921467,3076254.730214,11.322872287229,0,0
-113.24568974331,22.255423206362,6.127302730273,2099710.3293816,7496.9257921467,3076254.730214,11.327302730273,0,0
-113.24568929801,22.240248905089,6.1317331733173,2099710.3293816,7496.9257921467,3076254.730214,11.331733173317,0,0
-113.24568885271,22.225074603816,6.1361636163616,2099710.3293816,7496.9257921467,3076254.730214,11.336163616362,0,0
-113.24568840742,22.209900302543,6.1405940594059,2099710.3293816,7496.9257921467,3076254.730214,11.340594059406,0,0
-113.24568796212,22.19472600127,6.1450245024502,2099710.3293816,7496.9257921467,3076254.730214,11.34502450245,0,0
-113.24568751682,22.179551699997,6.1494549454945,2099710.3293816,7496.9257921467,3076254.730214,11.349454945495,0,0
-113.24568707152,22.164377398724,6.1538853885389,2099710.3293816,7496.9257921467,3076254.730214,11.353885388539,0,0
-113.24568662622,22.149203097451,6.1583158315832,2099710.3293816,7496.9257921467,3076254.730214,11.358315831583,0,0
-113.24568618092,22.134028796178,6.1627462746275,2099710.3293816,7496.9257921467,3076254.730214,11.362746274627,0,0
-113.24568573563,22.118854494905,6.1671767176718,2099710.3293816,7496.9257921467,3076254.730214,11.367176717672,0,0
-113.24568529033,22.103680193632,6.1716071607161,2099710.3293816,7496.9257921467,3076254.730214,11.371607160716,0,0
-113.24568484503,22.088505892359,6.1760376037604,2099710.3293816,7496.9257921467,3076254.730214,11.37603760376,0,0
-113.24568439973,22.073331591086,6.1804680468047,2099710.3293816,7496.9257921467,3076254.730214,11.380468046805,0,0
-113.24568395443,22.058157289813,6.184898489849,2099710.3293816,7496.9257921467,3076254.730214,11.384898489849,0,0
-113.24568350913,22.04298298854,6.1893289328933,2099710.3293816,7496.9257921467,3076254.730214,11.389328932893,0,0
-113.24568306383,22.027808687267,6.1937593759376,2099710.3293816,7496.9257921467,3076254.730214,11.393759375938,0,0
-113.24568261854,22.012634385994,6.1981898189819,2099710.3293816,7496.9257921467,3076254.730214,11.398189818982,0,0
-113.24568217324,21.997460084721,6.2026202620262,2099710.3293816,7496.9257921467,3076254.730214,11.402620262026,0,0
-113.24568172794,21.982285783448,6.2070507050705,2099710.3293816,7496.9257921467,3076254.730214,11.407050705071,0,0
-113.24568128264,21.967111482175,6.2114811481148,2099710.3293816,7496.9257921467,3076254.730214,11.411481148115,0,0
-113.24568083734,21.951937180902,6.2159115911591,2099710.3293816,7496.9257921467,3076254.730214,11.415911591159,0,0
-113.24568039204,21.936762879629,6.2203420342034,2099710.3293816,7496.9257921467,3076254.730214,11.420342034203,0,0
-113.24567994675,21.921588578356,6.2247724772477,2099710.3293816,7496.9257921467,3076254.730214,11.424772477248,0,0
-113.24567950145,21.906414277083,6.229202920292,2099710.3293816,7496.9257921467,3076254.730214,11.429202920292,0,0
-113.24567905615,21.89123997581,6.2336333633363,2099710.3293816,7496.9257921467,3076254.730214,11.433633363336,0,0
-113.24567861085,21.876065674537,6.2380638063806,2099710.3293816,7496.9257921467,3076254.730214,11.438063806381,0,0
-113.24567816555,21.860891373264,6.2424942494249,2099710.3293816,7496.9257921467,3076254.730214,11.442494249425,0,0
-113.24567772025,21.845717071991,6.2469246924692,2099710.3293816,7496.9257921467,3076254.730214,11.446924692469,0,0
-113.24567727496,21.830542770718,6.2513551355136,2099710.3293816,7496.9257921467,3076254.730214,11.451355135514,0,0
-113.24567682966,21.815368469445,6.2557855785579,2099710.3293816,7496.9257921467,3076254.730214,11.455785578558,0,0
-113.24567638436,21.800194168172,6.2602160216022,2099710.3293816,7496.9257921467,3076254.730214,11.460216021602,0,0
-113.24567593906,21.785019866899,6.2646464646465,2099710.3293816,7496.9257921467,3076254.730214,11.464646464646,0,0
-113.24567549376,21.769845565626,6.2690769076908,2099710.3293816,7496.9257921467,3076254.730214,11.469076907691,0,0
-113.24567504846,21.754671264353,6.2735073507351,2099710.3293816,7496.9257921467,3076254.730214,11.473507350735,0,0
-113.24567460316,21.73949696308,6.2779377937794,2099710.3293816,7496.9257921467,3076254.730214,11.477937793779,0,0
-113.24567415787,21.724322661807,6.2823682368237,2099710.3293816,7496.9257921467,3076254.730214,11.482368236824,0,0
-113.24567371257,21.709148360534,6.286798679868,2099710.3293816,7496.9257921467,3076254.730214,11.486798679868,0,0
-113.24567326727,21.693974059261,6.2912291229123,2099710.3293816,7496.9257921467,3076254.730214,11.491229122912,0,0
-113.24567282197,21.678799757988,6.2956595659566,2099710.3293816,7496.9257921467,3076254.730214,11.495659565957,0,0
-113.24567237667,21.663625456715,6.3000900090009,2099710.3293816,7496.9257921467,3076254.730214,11.500090009001,0,0
-113.24567193137,21.648451155442,6.3045204520452,2099710.3293816,7496.9257921467,3076254.730214,11.504520452045,0,0
-113.24567148608,21.633276854169,6.3089508950895,2099710.3293816,7496.9257921467,3076254.730214,11.50895089509,0,0
-113.24567104078,21.618102552896,6.3133813381338,2099710.3293816,7496.9257921467,3076254.730214,11.513381338134,0,0
-113.24567059548,21.602928251623,6.3178117811781,2099710.3293816,7496.9257921467,3076254.730214,11.517811781178,0,0
-113.24567015018,21.58775395035,6.3222422242224,2099710.3293816,7496.9257921467,3076254.730214,11.522242224222,0,0
-113.24566970488,21.572579649077,6.3266726672667,2099710.3293816,7496.9257921467,3076254.730214,11.526672667267,0,0
-113.24566925958,21.557405347804,6.331103110311,2099710.3293816,7496.9257921467,3076254.730214,11.531103110311,0,0
-113.24566881429,21.542231046531,6.3355335533553,2099710.3293816,7496.9257921467,3076254.730214,11.535533553355,0,0
-113.24566836899,21.527056745258,6.3399639963996,2099710.3293816,7496.9257921467,3076254.730214,11.5399639964,0,0
-113.24566792369,21.511882443985,6.3443944394439,2099710.3293816,7496.9257921467,3076254.730214,11.544394439444,0,0
-113.24566747839,21.496708142712,6.3488248824882,2099710.3293816,7496.9257921467,3076254.730214,11.548824882488,0,0
-113.24566703309,21.481533841439,6.3532553255326,2099710.3293816,7496.9257921467,3076254.730214,11.553255325533,0,0
-113.24566658779,21.466359540166,6.3576857685769,2099710.3293816,7496.9257921467,3076254.730214,11.557685768577,0,0
-113.24566614249,21.451185238893,6.3621162116212,2099710.3293816,7496.9257921467,3076254.730214,11.562116211621,0,0
-113.2456656972,21.43601093762,6.3665466546655,2099710.3293816,7496.9257921467,3076254.730214,11.566546654665,0,0
-113.2456652519,21.420836636347,6.3709770977098,2099710.3293816,7496.9257921467,3076254.730214,11.57097709771,0,0
-113.2456648066,21.405662335074,6.3754075407541,2099710.3293816,7496.9257921467,3076254.730214,11.575407540754,0,0
-113.2456643613,21.390488033801,6.3798379837984,2099710.3293816,7496.9257921467,3076254.730214,11.579837983798,0,0
-113.245663916,21.375313732528,6.3842684268427,2099710.3293816,7496.9257921467,3076254.730214,11.584268426843,0,0
-113.2456634707,21.360139431255,6.388698869887,2099710.3293816,7496.9257921467,3076254.730214,11.588698869887,0,0
-113.24566302541,21.344965129982,6.3931293129313,2099710.3293816,7496.9257921467,3076254.730214,11.593129312931,0,0
-113.24566258011,21.329790828709,6.3975597559756,2099710.3293816,7496.9257921467,3076254.730214,11.597559755976,0,0
-113.24566213481,21.314616527436,6.4019901990199,2099710.3293816,7496.9257921467,3076254.730214,11.60199019902,0,0
-113.24566168951,21.299442226163,6.4064206420642,2099710.3293816,7496.9257921467,3076254.730214,11.606420642064,0,0
-113.24566124421,21.28426792489,6.4108510851085,2099710.3293816,7496.9257921467,3076254.730214,11.610851085109,0,0
-113.24566079891,21.269093623617,6.4152815281528,2099710.3293816,7496.9257921467,3076254.730214,11.615281528153,0,0
-113.24566035361,21.253919322344,6.4197119711971,2099710.3293816,7496.9257921467,3076254.730214,11.619711971197,0,0
-113.24565990832,21.238745021071,6.4241424142414,2099710.3293816,7496.9257921467,3076254.730214,11.624142414241,0,0
-113.24565946302,21.223570719798,6.4285728572857,2099710.3293816,7496.9257921467,3076254.730214,11.628572857286,0,0
-113.24565901772,21.208396418525,6.43300330033,2099710.3293816,7496.9257921467,3076254.730214,11.63300330033,0,0
-113.24565857242,21.193222117252,6.4374337433743,2099710.3293816,7496.9257921467,3076254.730214,11.637433743374,0,0
-113.24565812712,21.178047815979,6.4418641864186,2099710.3293816,7496.9257921467,3076254.730214,11.641864186419,0,0
-113.24565768182,21.162873514706,6.4462946294629,2099710.3293816,7496.9257921467,3076254.730214,11.646294629463,0,0
-113.24565723653,21.147699213433,6.4507250725072,2099710.3293816,7496.9257921467,3076254.730214,11.650725072507,0,0
-113.24565679123,21.13252491216,6.4551555155516,2099710.3293816,7496.9257921467,3076254.730214,11.655155515552,0,0
-113.24565634593,21.117350610887,6.4595859585959,2099710.3293816,7496.9257921467,3076254.730214,11.659585958596,0,0
-113.24565589975,21.102176303813,6.4640164016402,2089303.9357939,-16636.023905516,3009911.9424835,11.66401640164,0,0
-113.24565545267,21.087001990871,6.4684468446845,2089303.9357939,-16636.023905516,3009911.9424835,11.668446844684,0,0
-113.24565500559,21.071827677928,6.4728772877288,2089303.9357939,-16636.023905516,3009911.9424835,11.672877287729,0,0
-113.24565455851,21.056653364986,6.4773077307731,2089303.9357939,-16636.023905516,3009911.9424835,11.677307730773,0,0
-113.24565411143,21.041479052043,6.4817381738174,2089303.9357939,-16636.023905516,3009911.9424835,11.681738173817,0,0
-113.24565366435,21.026304739101,6.4861686168617,2089303.9357939,-16636.023905516,3009911.9424835,11.686168616862,0,0
-113.24565321727,21.011130426159,6.490599059906,2089303.9357939,-16636.023905516,3009911.9424835,11.690599059906,0,0
-113.24565277019,20.995956113216,6.4950295029503,2089303.9357939,-16636.023905516,3009911.9424835,11.69502950295,0,0
-113.24565232311,20.980781800274,6.4994599459946,2089303.9357939,-16636.023905516,3009911.9424835,11.699459945995,0,0
-113.24565187603,20.965607487331,6.5038903890389,2089303.9357939,-16636.023905516,3009911.9424835,11.703890389039,0,0
-113.24565142895,20.950433174389,6.5083208320832,2089303.9357939,-16636.023905516,3009911.9424835,11.708320832083,0,0
-113.24565098187,20.935258861446,6.5127512751275,2089303.9357939,-16636.023905516,3009911.9424835,11.712751275128,0,0
-113.24565053479,20.920084548504,6.5171817181718,2089303.9357939,-16636.023905516,3009911.9424835,11.717181718172,0,0
-113.24565008771,20.904910235561,6.5216121612161,2089303.9357939,-16636.023905516,3009911.9424835,11.721612161216,0,0
-113.24564964063,20.889735922619,6.5260426042604,2089303.9357939,-16636.023905516,3009911.9424835,11.72604260426,0,0
-113.24564919355,20.874561609676,6.5304730473047,2089303.9357939,-16636.023905516,3009911.9424835,11.730473047305,0,0
-113.24564874647,20.859387296734,6.534903490349,2089303.9357939,-16636.023905516,3009911.9424835,11.734903490349,0,0
-113.24564829939,20.844212983791,6.5393339333933,2089303.9357939,-16636.023905516,3009911.9424835,11.739333933393,0,0
-113.24564785231,20.829038670849,6.5437643764376,2089303.9357939,-16636.023905516,3009911.9424835,11.743764376438,0,0
-113.24564740523,20.813864357906,6.5481948194819,2089303.9357939,-16636.023905516,3009911.9424835,11.748194819482,0,0
-113.24564695815,20.798690044964,6.5526252625263,2089303.9357939,-16636.023905516,3009911.9424835,11.752625262526,0,0
-113.24564651107,20.783515732022,6.5570557055706,2089303.9357939,-16636.023905516,3009911.9424835,11.757055705571,0,0
-113.24564606399,20.768341419079,6.5614861486149,2089303.9357939,-16636.023905516,3009911.9424835,11.761486148615,0,0
-113.24564561691,20.753167106137,6.5659165916592,2089303.9357939,-16636.023905516,3009911.9424835,11.765916591659,0,0
-113.24564516983,20.737992793194,6.5703470347035,2089303.9357939,-16636.023905516,3009911.9424835,11.770347034703,0,0
-113.24564472275,20.722818480252,6.5747774777478,2089303.9357939,-16636.023905516,3009911.9424835,11.774777477748,0,0
-113.24564427567,20.707644167309,6.5792079207921,2089303.9357939,-16636.023905516,3009911.9424835,11.779207920792,0,0
-113.24564382859,20.692469854367,6.5836383638364,2089303.9357939,-16636.023905516,3009911.9424835,11.783638363836,0,0
-113.24564338151,20.677295541424,6.5880688068807,2089303.9357939,-16636.023905516,3009911.9424835,11.788068806881,0,0
-113.24564293443,20.662121228482,6.592499249925,2089303.9357939,-16636.023905516,3009911.9424835,11.792499249925,0,0
-113.24564248735,20.646946915539,6.5969296929693,2089303.9357939,-16636.023905516,3009911.9424835,11.796929692969,0,0
-113.24564204027,20.631772602597,6.6013601360136,2089303.9357939,-16636.023905516,3009911.9424835,11.801360136014,0,0
-113.24564159319,20.616598289654,6.6057905790579,2089303.9357939,-16636.023905516,3009911.9424835,11.805790579058,0,0
-113.24564114611,20.601423976712,6.6102210221022,2089303.9357939,-16636.023905516,3009911.9424835,11.810221022102,0,0
-113.24564069903,20.586249663769,6.6146514651465,2089303.9357939,-16636.023905516,3009911.9424835,11.814651465147,0,0
-113.24564025195,20.571075350827,6.6190819081908,2089303.9357939,-16636.023905516,3009911.9424835,11.819081908191,0,0
-113.24563980487,20.555901037885,6.6235123512351,2089303.9357939,-16636.023905516,3009911.9424835,11.823512351235,0,0
-113.24563935779,20.540726724942,6.6279427942794,2089303.9357939,-16636.023905516,3009911.9424835,11.827942794279,0,0
-113.24563891071,20.525552412,6.6323732373237,2089303.9357939,-16636.023905516,3009911.9424835,11.832373237324,0,0
-113.24563846363,20.510378099057,6.636803680368,2089303.9357939,-16636.023905516,3009911.9424835,11.836803680368,0,0
-113.24563801655,20.495203786115,6.6412341234123,2089303.9357939,-16636.023905516,3009911.9424835,11.841234123412,0,0
-113.24563756947,20.480029473172,6.6456645664566,2089303.9357939,-16636.023905516,3009911.9424835,11.845664566457,0,0
-113.24563712239,20.46485516023,6.650095009501,2089303.9357939,-16636.023905516,3009911.9424835,11.850095009501,0,0
-113.24563667531,20.449680847287,6.6545254525453,2089303.9357939,-16636.023905516,3009911.9424835,11.854525452545,0,0
-113.24563622823,20.434506534345,6.6589558955896,2089303.9357939,-16636.023905516,3009911.9424835,11.85895589559,0,0
-113.24563578115,20.419332221402,6.6633863386339,2089303.9357939,-16636.023905516,3009911.9424835,11.863386338634,0,0
-113.24563533407,20.40415790846,6.6678167816782,2089303.9357939,-16636.023905516,3009911.9424835,11.867816781678,0,0
-113.24563488699,20.388983595517,6.6722472247225,2089303.9357939,-16636.023905516,3009911.9424835,11.872247224722,0,0
-113.24563443991,20.373809282575,6.6766776677668,2089303.9357939,-16636.023905516,3009911.9424835,11.876677667767,0,0
-113.24563399283,20.358634969632,6.6811081108111,2089303.9357939,-16636.023905516,3009911.9424835,11.881108110811,0,0
-113.24563354576,20.34346065669,6.6855385538554,2089303.9357939,-16636.023905516,3009911.9424835,11.885538553855,0,0
-113.24563309868,20.328286343748,6.6899689968997,2089303.9357939,-16636.023905516,3009911.9424835,11.8899689969,0,0
-113.2456326516,20.313112030805,6.694399439944,2089303.9357939,-16636.023905516,3009911.9424835,11.894399439944,0,0
-113.24563220452,20.297937717863,6.6988298829883,2089303.9357939,-16636.023905516,3009911.9424835,11.898829882988,0,0
-113.24563175744,20.28276340492,6.7032603260326,2089303.9357939,-16636.023905516,3009911.9424835,11.903260326033,0,0
-113.24563131036,20.267589091978,6.7076907690769,2089303.9357939,-16636.023905516,3009911.9424835,11.907690769077,0,0
-113.24563086328,20.252414779035,6.7121212121212,2089303.9357939,-16636.023905516,3009911.9424835,11.912121212121,0,0
-113.2456304162,20.237240466093,6.7165516551655,2089303.9357939,-16636.023905516,3009911.9424835,11.916551655166,0,0
-113.24562996912,20.22206615315,6.7209820982098,2089303.9357939,-16636.023905516,3009911.9424835,11.92098209821,0,0
-113.24562952204,20.206891840208,6.7254125412541,2089303.9357939,-16636.023905516,3009911.9424835,11.925412541254,0,0
-113.24562907496,20.191717527265,6.7298429842984,2089303.9357939,-16636.023905516,3009911.9424835,11.929842984298,0,0
-113.24562862349,20.176543218069,6.7342734273427,2153440.2460584,-5387.3467085332,3009481.6917662,11.934273427343,0,0
-113.24562816622,20.161368913822,6.738703870387,2153440.2460584,-5387.3467085332,3009481.6917662,11.938703870387,0,0
-113.24562770895,20.146194609575,6.7431343134313,2153440.2460584,-5387.3467085332,3009481.6917662,11.943134313431,0,0
-113.24562725168,20.131020305328,6.7475647564756,2153440.2460584,-5387.3467085332,3009481.6917662,11.947564756476,0,0
-113.24562679442,20.115846001081,6.75199519952,2153440.2460584,-5387.3467085332,3009481.6917662,11.95199519952,0,0
-113.24562633715,20.100671696834,6.7564256425643,2153440.2460584,-5387.3467085332,3009481.6917662,11.956425642564,0,0
-113.24562587988,20.085497392587,6.7608560856086,2153440.2460584,-5387.3467085332,3009481.6917662,11.960856085609,0,0
-113.24562542261,20.07032308834,6.7652865286529,2153440.2460584,-5387.3467085332,3009481.6917662,11.965286528653,0,0
-113.24562496534,20.055148784093,6.7697169716972,2153440.2460584,-5387.3467085332,3009481.6917662,11.969716971697,0,0
-113.24562450808,20.039974479845,6.7741474147415,2153440.2460584,-5387.3467085332,3009481.6917662,11.974147414741,0,0
-113.24562405081,20.024800175598,6.7785778577858,2153440.2460584,-5387.3467085332,3009481.6917662,11.978577857786,0,0
-113.24562359354,20.009625871351,6.7830083008301,2153440.2460584,-5387.3467085332,3009481.6917662,11.98300830083,0,0
-113.24562313627,19.994451567104,6.7874387438744,2153440.2460584,-5387.3467085332,3009481.6917662,11.987438743874,0,0
-113.245622679,19.979277262857,6.7918691869187,2153440.2460584,-5387.3467085332,3009481.6917662,11.991869186919,0,0
-113.24562222174,19.96410295861,6.796299629963,2153440.2460584,-5387.3467085332,3009481.6917662,11.996299629963,0,0
-113.24562176447,19.948928654363,6.8007300730073,2153440.2460584,-5387.3467085332,3009481.6917662,12.000730073007,0,0
-113.2456213072,19.933754350116,6.8051605160516,2153440.2460584,-5387.3467085332,3009481.6917662,12.005160516052,0,0
-113.24562084993,19.918580045869,6.8095909590959,2153440.2460584,-5387.3467085332,3009481.6917662,12.009590959096,0,0
-113.24562039266,19.903405741622,6.8140214021402,2153440.2460584,-5387.3467085332,3009481.6917662,12.01402140214,0,0
-113.2456199354,19.888231437375,6.8184518451845,2153440.2460584,-5387.3467085332,3009481.6917662,12.018451845185,0,0
-113.24561947813,19.873057133127,6.8228822882288,2153440.2460584,-5387.3467085332,3009481.6917662,12.022882288229,0,0
-113.24561902086,19.85788282888,6.8273127312731,2153440.2460584,-5387.3467085332,3009481.6917662,12.027312731273,0,0
-113.24561856359,19.842708524633,6.8317431743174,2153440.2460584,-5387.3467085332,3009481.6917662,12.031743174317,0,0
-113.24561810633,19.827534220386,6.8361736173617,2153440.2460584,-5387.3467085332,3009481.6917662,12.036173617362,0,0
-113.24561764906,19.812359916139,6.840604060406,2153440.2460584,-5387.3467085332,3009481.6917662,12.040604060406,0,0
-113.24561719179,19.797185611892,6.8450345034503,2153440.2460584,-5387.3467085332,3009481.6917662,12.04503450345,0,0
-113.24561673452,19.782011307645,6.8494649464946,2153440.2460584,-5387.3467085332,3009481.6917662,12.049464946495,0,0
-113.24561627725,19.766837003398,6.853895389539,2153440.2460584,-5387.3467085332,3009481.6917662,12.053895389539,0,0
-113.24561581999,19.751662699151,6.8583258325833,2153440.2460584,-5387.3467085332,3009481.6917662,12.058325832583,0,0
-113.24561536272,19.736488394904,6.8627562756276,2153440.2460584,-5387.3467085332,3009481.6917662,12.062756275628,0,0
-113.24561490545,19.721314090657,6.8671867186719,2153440.2460584,-5387.3467085332,3009481.6917662,12.067186718672,0,0
-113.24561444818,19.70613978641,6.8716171617162,2153440.2460584,-5387.3467085332,3009481.6917662,12.071617161716,0,0
-113.24561399091,19.690965482162,6.8760476047605,2153440.2460584,-5387.3467085332,3009481.6917662,12.07604760476,0,0
-113.24561353365,19.675791177915,6.8804780478048,2153440.2460584,-5387.3467085332,3009481.6917662,12.080478047805,0,0
-113.24561307638,19.660616873668,6.8849084908491,2153440.2460584,-5387.3467085332,3009481.6917662,12.084908490849,0,0
-113.24561261911,19.645442569421,6.8893389338934,2153440.2460584,-5387.3467085332,3009481.6917662,12.089338933893,0,0
-113.24561216184,19.630268265174,6.8937693769377,2153440.2460584,-5387.3467085332,3009481.6917662,12.093769376938,0,0
-113.24561170457,19.615093960927,6.898199819982,2153440.2460584,-5387.3467085332,3009481.6917662,12.098199819982,0,0
-113.24561124731,19.59991965668,6.9026302630263,2153440.2460584,-5387.3467085332,3009481.6917662,12.102630263026,0,0
-113.24561079004,19.584745352433,6.9070607060706,2153440.2460584,-5387.3467085332,3009481.6917662,12.107060706071,0,0
-113.24561033277,19.569571048186,6.9114911491149,2153440.2460584,-5387.3467085332,3009481.6917662,12.111491149115,0,0
-113.2456098755,19.554396743939,6.9159215921592,2153440.2460584,-5387.3467085332,3009481.6917662,12.115921592159,0,0
-113.24560941823,19.539222439692,6.9203520352035,2153440.2460584,-5387.3467085332,3009481.6917662,12.120352035204,0,0
-113.24560896097,19.524048135444,6.9247824782478,2153440.2460584,-5387.3467085332,3009481.6917662,12.124782478248,0,0
-113.2456085037,19.508873831197,6.9292129212921,2153440.2460584,-5387.3467085332,3009481.6917662,12.129212921292,0,0
-113.24560804643,19.49369952695,6.9336433643364,2153440.2460584,-5387.3467085332,3009481.6917662,12.133643364336,0,0
-113.24560758916,19.478525222703,6.9380738073807,2153440.2460584,-5387.3467085332,3009481.6917662,12.138073807381,0,0
-113.24560713189,19.463350918456,6.942504250425,2153440.2460584,-5387.3467085332,3009481.6917662,12.142504250425,0,0
-113.24560667463,19.448176614209,6.9469346934693,2153440.2460584,-5387.3467085332,3009481.6917662,12.146934693469,0,0
-113.24560621736,19.433002309962,6.9513651365137,2153440.2460584,-5387.3467085332,3009481.6917662,12.151365136514,0,0
-113.24560576009,19.417828005715,6.955795579558,2153440.2460584,-5387.3467085332,3009481.6917662,12.155795579558,0,0
-113.24560530282,19.402653701468,6.9602260226023,2153440.2460584,-5387.3467085332,3009481.6917662,12.160226022602,0,0
-113.24560484555,19.387479397221,6.9646564656466,2153440.2460584,-5387.3467085332,3009481.6917662,12.164656465647,0,0
-113.24560438829,19.372305092974,6.9690869086909,2153440.2460584,-5387.3467085332,3009481.6917662,12.169086908691,0,0
-113.24560393102,19.357130788727,6.9735173517352,2153440.2460584,-5387.3467085332,3009481.6917662,12.173517351735,0,0
-113.24560347375,19.341956484479,6.9779477947795,2153440.2460584,-5387.3467085332,3009481.6917662,12.177947794779,0,0
-113.24560301648,19.326782180232,6.9823782378238,2153440.2460584,-5387.3467085332,3009481.6917662,12.182378237824,0,0
-113.24560255921,19.311607875985,6.9868086808681,2153440.2460584,-5387.3467085332,3009481.6917662,12.186808680868,0,0
-113.24560210195,19.296433571738,6.9912391239124,2153440.2460584,-5387.3467085332,3009481.6917662,12.191239123912,0,0
-113.24560164468,19.281259267491,6.9956695669567,2153440.2460584,-5387.3467085332,3009481.6917662,12.195669566957,0,0
-113.24560118741,19.266084963244,7.000100010001,2153440.2460584,-5387.3467085332,3009481.6917662,12.200100010001,0,0
-113.24560073014,19.250910658997,7.0045304530453,2153440.2460584,-5387.3467085332,3009481.6917662,12.204530453045,0,0
-113.24560027288,19.23573635475,7.0089608960896,2153440.2460584,-5387.3467085332,3009481.6917662,12.20896089609,0,0
-113.24559981561,19.220562050503,7.0133913391339,2153440.2460584,-5387.3467085332,3009481.6917662,12.213391339134,0,0
-113.24559935834,19.205387746256,7.0178217821782,2153440.2460584,-5387.3467085332,3009481.6917662,12.217821782178,0,0
-113.24559890107,19.190213442009,7.0222522252225,2153440.2460584,-5387.3467085332,3009481.6917662,12.222252225223,0,0
-113.2455984438,19.175039137761,7.0266826682668,2153440.2460584,-5387.3467085332,3009481.6917662,12.226682668267,0,0
-113.24559798654,19.159864833514,7.0311131113111,2153440.2460584,-5387.3467085332,3009481.6917662,12.231113111311,0,0
-113.24559752927,19.144690529267,7.0355435543554,2153440.2460584,-5387.3467085332,3009481.6917662,12.235543554355,0,0
-113.245597072,19.12951622502,7.0399739973997,2153440.2460584,-5387.3467085332,3009481.6917662,12.2399739974,0,0
-113.24559661473,19.114341920773,7.044404440444,2153440.2460584,-5387.3467085332,3009481.6917662,12.244404440444,0,0
-113.24559615746,19.099167616526,7.0488348834883,2153440.2460584,-5387.3467085332,3009481.6917662,12.248834883488,0,0
-113.2455957002,19.083993312279,7.0532653265327,2153440.2460584,-5387.3467085332,3009481.6917662,12.253265326533,0,0
-113.24559524293,19.068819008032,7.057695769577,2153440.2460584,-5387.3467085332,3009481.6917662,12.257695769577,0,0
-113.24559478566,19.053644703785,7.0621262126213,2153440.2460584,-5387.3467085332,3009481.6917662,12.262126212621,0,0
-113.24559432839,19.038470399538,7.0665566556656,2153440.2460584,-5387.3467085332,3009481.6917662,12.266556655666,0,0
-113.24559387112,19.023296095291,7.0709870987099,2153440.2460584,-5387.3467085332,3009481.6917662,12.27098709871,0,0
-113.24559341386,19.008121791044,7.0754175417542,2153440.2460584,-5387.3467085332,3009481.6917662,12.275417541754,0,0
-113.24559295659,18.992947486796,7.0798479847985,2153440.2460584,-5387.3467085332,3009481.6917662,12.279847984798,0,0
-113.24559249932,18.977773182549,7.0842784278428,2153440.2460584,-5387.3467085332,3009481.6917662,12.284278427843,0,0
-113.24559204205,18.962598878302,7.0887088708871,2153440.2460584,-5387.3467085332,3009481.6917662,12.288708870887,0,0
-113.24559158478,18.947424574055,7.0931393139314,2153440.2460584,-5387.3467085332,3009481.6917662,12.293139313931,0,0
-113.24559112752,18.932250269808,7.0975697569757,2153440.2460584,-5387.3467085332,3009481.6917662,12.297569756976,0,0
-113.24559067025,18.917075965561,7.10200020002,2153440.2460584,-5387.3467085332,3009481.6917662,12.30200020002,0,0
-113.24559021298,18.901901661314,7.1064306430643,2153440.2460584,-5387.3467085332,3009481.6917662,12.306430643064,0,0
-113.24558975571,18.886727357067,7.1108610861086,2153440.2460584,-5387.3467085332,3009481.6917662,12.310861086109,0,0
-113.24558929844,18.87155305282,7.1152915291529,2153440.2460584,-5387.3467085332,3009481.6917662,12.315291529153,0,0
-113.24558884118,18.856378748573,7.1197219721972,2153440.2460584,-5387.3467085332,3009481.6917662,12.319721972197,0,0
-113.24558838391,18.841204444326,7.1241524152415,2153440.2460584,-5387.3467085332,3009481.6917662,12.324152415242,0,0
-113.24558792664,18.826030140078,7.1285828582858,2153440.2460584,-5387.3467085332,3009481.6917662,12.328582858286,0,0
-113.24558746937,18.810855835831,7.1330133013301,2153440.2460584,-5387.3467085332,3009481.6917662,12.33301330133,0,0
-113.2455870121,18.795681531584,7.1374437443744,2153440.2460584,-5387.3467085332,3009481.6917662,12.337443744374,0,0
-113.24558655484,18.780507227337,7.1418741874187,2153440.2460584,-5387.3467085332,3009481.6917662,12.341874187419,0,0
-113.24558609757,18.76533292309,7.146304630463,2153440.2460584,-5387.3467085332,3009481.6917662,12.346304630463,0,0
-113.2455856403,18.750158618843,7.1507350735073,2153440.2460584,-5387.3467085332,3009481.6917662,12.350735073507,0,0
-113.24558518303,18.734984314596,7.1551655165517,2153440.2460584,-5387.3467085332,3009481.6917662,12.355165516552,0,0
-113.24558472576,18.719810010349,7.159595959596,2153440.2460584,-5387.3467085332,3009481.6917662,12.359595959596,0,0
-113.2455842685,18.704635706102,7.1640264026403,2153440.2460584,-5387.3467085332,3009481.6917662,12.36402640264,0,0
-113.24558381123,18.689461401855,7.1684568456846,2153440.2460584,-5387.3467085332,3009481.6917662,12.368456845685,0,0
-113.24558335396,18.674287097608,7.1728872887289,2153440.2460584,-5387.3467085332,3009481.6917662,12.372887288729,0,0
-113.24558289669,18.659112793361,7.1773177317732,2153440.2460584,-5387.3467085332,3009481.6917662,12.377317731773,0,0
-113.24558243943,18.643938489113,7.1817481748175,2153440.2460584,-5387.3467085332,3009481.6917662,12.381748174817,0,0
-113.24558198216,18.628764184866,7.1861786178618,2153440.2460584,-5387.3467085332,3009481.6917662,12.386178617862,0,0
-113.24558152489,18.613589880619,7.1906090609061,2153440.2460584,-5387.3467085332,3009481.6917662,12.390609060906,0,0
-113.24558106762,18.598415576372,7.1950395039504,2153440.2460584,-5387.3467085332,3009481.6917662,12.39503950395,0,0
-113.24558061035,18.583241272125,7.1994699469947,2153440.2460584,-5387.3467085332,3009481.6917662,12.399469946995,0,0
-113.24558015309,18.568066967878,7.203900390039,2153440.2460584,-5387.3467085332,3009481.6917662,12.403900390039,0,0
-113.24557969582,18.552892663631,7.2083308330833,2153440.2460584,-5387.3467085332,3009481.6917662,12.408330833083,0,0
-113.24557923855,18.537718359384,7.2127612761276,2153440.2460584,-5387.3467085332,3009481.6917662,12.412761276128,0,0
-113.24557878128,18.522544055137,7.2171917191719,2153440.2460584,-5387.3467085332,3009481.6917662,12.417191719172,0,0
-113.24557832401,18.50736975089,7.2216221622162,2153440.2460584,-5387.3467085332,3009481.6917662,12.421622162216,0,0
-113.24557786675,18.492195446643,7.2260526052605,2153440.2460584,-5387.3467085332,3009481.6917662,12.426052605261,0,0
-113.24557740948,18.477021142395,7.2304830483048,2153440.2460584,-5387.3467085332,3009481.6917662,12.430483048305,0,0
-113.24557695221,18.461846838148,7.2349134913491,2153440.2460584,-5387.3467085332,3009481.6917662,12.434913491349,0,0
-113.24557649494,18.446672533901,7.2393439343934,2153440.2460584,-5387.3467085332,3009481.6917662,12.439343934393,0,0
-113.24557603767,18.431498229654,7.2437743774377,2153440.2460584,-5387.3467085332,3009481.6917662,12.443774377438,0,0
-113.24557558041,18.416323925407,7.248204820482,2153440.2460584,-5387.3467085332,3009481.6917662,12.448204820482,0,0
-113.24557512314,18.40114962116,7.2526352635264,2153440.2460584,-5387.3467085332,3009481.6917662,12.452635263526,0,0
-113.24557466587,18.385975316913,7.2570657065707,2153440.2460584,-5387.3467085332,3009481.6917662,12.457065706571,0,0
-113.2455742086,18.370801012666,7.261496149615,2153440.2460584,-5387.3467085332,3009481.6917662,12.461496149615,0,0
-113.24557375133,18.355626708419,7.2659265926593,2153440.2460584,-5387.3467085332,3009481.6917662,12.465926592659,0,0
-113.24557329407,18.340452404172,7.2703570357036,2153440.2460584,-5387.3467085332,3009481.6917662,12.470357035704,0,0
-113.2455728368,18.325278099925,7.2747874787479,2153440.2460584,-5387.3467085332,3009481.6917662,12.474787478748,0,0
-113.24557237953,18.310103795678,7.2792179217922,2153440.2460584,-5387.3467085332,3009481.6917662,12.479217921792,0,0
-113.24557192226,18.29492949143,7.2836483648365,2153440.2460584,-5387.3467085332,3009481.6917662,12.483648364836,0,0
-113.24557146499,18.279755187183,7.2880788078808,2153440.2460584,-5387.3467085332,3009481.6917662,12.488078807881,0,0
-113.24557100773,18.264580882936,7.2925092509251,2153440.2460584,-5387.3467085332,3009481.6917662,12.492509250925,0,0
-113.24557055046,18.249406578689,7.2969396939694,2153440.2460584,-5387.3467085332,3009481.6917662,12.496939693969,0,0
-113.24557009319,18.234232274442,7.3013701370137,2153440.2460584,-5387.3467085332,3009481.6917662,12.501370137014,0,0
-113.24556963592,18.219057970195,7.305800580058,2153440.2460584,-5387.3467085332,3009481.6917662,12.505800580058,0,0
-113.24556917865,18.203883665948,7.3102310231023,2153440.2460584,-5387.3467085332,3009481.6917662,12.510231023102,0,0
-113.24556872139,18.188709361701,7.3146614661466,2153440.2460584,-5387.3467085332,3009481.6917662,12.514661466147,0,0
-113.24556826412,18.173535057454,7.3190919091909,2153440.2460584,-5387.3467085332,3009481.6917662,12.519091909191,0,0
-113.24556780685,18.158360753207,7.3235223522352,2153440.2460584,-5387.3467085332,3009481.6917662,12.523522352235,0,0
-113.24556734958,18.14318644896,7.3279527952795,2153440.2460584,-5387.3467085332,3009481.6917662,12.52795279528,0,0
-113.24556689231,18.128012144712,7.3323832383238,2153440.2460584,-5387.3467085332,3009481.6917662,12.532383238324,0,0
-113.24556643505,18.112837840465,7.3368136813681,2153440.2460584,-5387.3467085332,3009481.6917662,12.536813681368,0,0
-113.24556597778,18.097663536218,7.3412441244124,2153440.2460584,-5387.3467085332,3009481.6917662,12.541244124412,0,0
-113.24556552051,18.082489231971,7.3456745674567,2153440.2460584,-5387.3467085332,3009481.6917662,12.545674567457,0,0
-113.24556506324,18.067314927724,7.350105010501,2153440.2460584,-5387.3467085332,3009481.6917662,12.550105010501,0,0
-113.24556460598,18.052140623477,7.3545354535454,2153440.2460584,-5387.3467085332,3009481.6917662,12.554535453545,0,0
-113.24556414871,18.03696631923,7.3589658965897,2153440.2460584,-5387.3467085332,3009481.6917662,12.55896589659,0,0
-113.24556369144,18.021792014983,7.363396339634,2153440.2460584,-5387.3467085332,3009481.6917662,12.563396339634,0,0
-113.24556323417,18.006617710736,7.3678267826783,2153440.2460584,-5387.3467085332,3009481.6917662,12.567826782678,0,0
-113.2455627769,17.991443406489,7.3722572257226,2153440.2460584,-5387.3467085332,3009481.6917662,12.572257225723,0,0
-113.24556231964,17.976269102242,7.3766876687669,2153440.2460584,-5387.3467085332,3009481.6917662,12.576687668767,0,0
-113.24556186237,17.961094797995,7.3811181118112,2153440.2460584,-5387.3467085332,3009481.6917662,12.581118111811,0,0
-113.2455614051,17.945920493747,7.3855485548555,2153440.2460584,-5387.3467085332,3009481.6917662,12.585548554855,0,0
-113.24556094783,17.9307461895,7.3899789978998,2153440.2460584,-5387.3467085332,3009481.6917662,12.5899789979,0,0
-113.24556049056,17.915571885253,7.3944094409441,2153440.2460584,-5387.3467085332,3009481.6917662,12.594409440944,0,0
-113.24556003122,17.900397573416,7.3988398839884,2153197.3704004,-23304.015463468,2956985.2828598,12.598839883988,0,0
-113.24555957128,17.885223259367,7.4032703270327,2153197.3704004,-23304.015463468,2956985.2828598,12.603270327033,0,0
-113.24555911133,17.870048945319,7.407700770077,2153197.3704004,-23304.015463468,2956985.2828598,12.607700770077,0,0
-113.24555865139,17.85487463127,7.4121312131213,2153197.3704004,-23304.015463468,2956985.2828598,12.612131213121,0,0
-113.24555819145,17.839700317222,7.4165616561656,2153197.3704004,-23304.015463468,2956985.2828598,12.616561656166,0,0
-113.2455577315,17.824526003173,7.4209920992099,2153197.3704004,-23304.015463468,2956985.2828598,12.62099209921,0,0
-113.24555727156,17.809351689125,7.4254225422542,2153197.3704004,-23304.015463468,2956985.2828598,12.625422542254,0,0
-113.24555681161,17.794177375076,7.4298529852985,2153197.3704004,-23304.015463468,2956985.2828598,12.629852985299,0,0
-113.24555635167,17.779003061028,7.4342834283428,2153197.3704004,-23304.015463468,2956985.2828598,12.634283428343,0,0
-113.24555589172,17.763828746979,7.4387138713871,2153197.3704004,-23304.015463468,2956985.2828598,12.638713871387,0,0
-113.24555543178,17.748654432931,7.4431443144314,2153197.3704004,-23304.015463468,2956985.2828598,12.643144314431,0,0
-113.24555497184,17.733480118882,7.4475747574757,2153197.3704004,-23304.015463468,2956985.2828598,12.647574757476,0,0
-113.24555451189,17.718305804834,7.4520052005201,2153197.3704004,-23304.015463468,2956985.2828598,12.65200520052,0,0
-113.24555405195,17.703131490785,7.4564356435644,2153197.3704004,-23304.015463468,2956985.2828598,12.656435643564,0,0
-113.245553592,17.687957176737,7.4608660866087,2153197.3704004,-23304.015463468,2956985.2828598,12.660866086609,0,0
-113.24555313206,17.672782862688,7.465296529653,2153197.3704004,-23304.015463468,2956985.2828598,12.665296529653,0,0
-113.24555267212,17.65760854864,7.4697269726973,2153197.3704004,-23304.015463468,2956985.2828598,12.669726972697,0,0
-113.24555221217,17.642434234591,7.4741574157416,2153197.3704004,-23304.015463468,2956985.2828598,12.674157415742,0,0
-113.24555175223,17.627259920542,7.4785878587859,2153197.3704004,-23304.015463468,2956985.2828598,12.678587858786,0,0
-113.24555129228,17.612085606494,7.4830183018302,2153197.3704004,-23304.015463468,2956985.2828598,12.68301830183,0,0
-113.24555083234,17.596911292445,7.4874487448745,2153197.3704004,-23304.015463468,2956985.2828598,12.687448744874,0,0
-113.24555037239,17.581736978397,7.4918791879188,2153197.3704004,-23304.015463468,2956985.2828598,12.691879187919,0,0
-113.24554991245,17.566562664348,7.4963096309631,2153197.3704004,-23304.015463468,2956985.2828598,12.696309630963,0,0
-113.24554945251,17.5513883503,7.5007400740074,2153197.3704004,-23304.015463468,2956985.2828598,12.700740074007,0,0
-113.2455489901,17.536214038933,7.5051705170517,2200371.6190072,-11876.878315441,2944868.1241813,12.705170517052,0,0
-113.24554852205,17.521039733698,7.509600960096,2200371.6190072,-11876.878315441,2944868.1241813,12.709600960096,0,0
-113.245548054,17.505865428463,7.5140314031403,2200371.6190072,-11876.878315441,2944868.1241813,12.71403140314,0,0
-113.24554758595,17.490691123228,7.5184618461846,2200371.6190072,-11876.878315441,2944868.1241813,12.718461846185,0,0
-113.2455471179,17.475516817993,7.5228922892289,2200371.6190072,-11876.878315441,2944868.1241813,12.722892289229,0,0
-113.24554664986,17.460342512758,7.5273227322732,2200371.6190072,-11876.878315441,2944868.1241813,12.727322732273,0,0
-113.24554618181,17.445168207523,7.5317531753175,2200371.6190072,-11876.878315441,2944868.1241813,12.731753175318,0,0
-113.24554571376,17.429993902288,7.5361836183618,2200371.6190072,-11876.878315441,2944868.1241813,12.736183618362,0,0
-113.24554524571,17.414819597053,7.5406140614061,2200371.6190072,-11876.878315441,2944868.1241813,12.740614061406,0,0
-113.24554477766,17.399645291818,7.5450445044504,2200371.6190072,-11876.878315441,2944868.1241813,12.74504450445,0,0
-113.24554430961,17.384470986583,7.5494749474947,2200371.6190072,-11876.878315441,2944868.1241813,12.749474947495,0,0
-113.24554384157,17.369296681348,7.5539053905391,2200371.6190072,-11876.878315441,2944868.1241813,12.753905390539,0,0
-113.24554337352,17.354122376113,7.5583358335834,2200371.6190072,-11876.878315441,2944868.1241813,12.758335833583,0,0
-113.24554290547,17.338948070878,7.5627662766277,2200371.6190072,-11876.878315441,2944868.1241813,12.762766276628,0,0
-113.24554243742,17.323773765643,7.567196719672,2200371.6190072,-11876.878315441,2944868.1241813,12.767196719672,0,0
-113.24554196937,17.308599460408,7.5716271627163,2200371.6190072,-11876.878315441,2944868.1241813,12.771627162716,0,0
-113.24554150133,17.293425155173,7.5760576057606,2200371.6190072,-11876.878315441,2944868.1241813,12.776057605761,0,0
-113.24554103328,17.278250849938,7.5804880488049,2200371.6190072,-11876.878315441,2944868.1241813,12.780488048805,0,0
-113.24554056523,17.263076544703,7.5849184918492,2200371.6190072,-11876.878315441,2944868.1241813,12.784918491849,0,0
-113.24554009718,17.247902239468,7.5893489348935,2200371.6190072,-11876.878315441,2944868.1241813,12.789348934893,0,0
-113.24553962913,17.232727934233,7.5937793779378,2200371.6190072,-11876.878315441,2944868.1241813,12.793779377938,0,0
-113.24553916108,17.217553628998,7.5982098209821,2200371.6190072,-11876.878315441,2944868.1241813,12.798209820982,0,0
-113.24553869304,17.202379323763,7.6026402640264,2200371.6190072,-11876.878315441,2944868.1241813,12.802640264026,0,0
-113.24553822499,17.187205018528,7.6070707070707,2200371.6190072,-11876.878315441,2944868.1241813,12.807070707071,0,0
-113.24553775694,17.172030713293,7.611501150115,2200371.6190072,-11876.878315441,2944868.1241813,12.811501150115,0,0
-113.24553728889,17.156856408058,7.6159315931593,2200371.6190072,-11876.878315441,2944868.1241813,12.815931593159,0,0
-113.24553682084,17.141682102823,7.6203620362036,2200371.6190072,-11876.878315441,2944868.1241813,12.820362036204,0,0
-113.24553635279,17.126507797588,7.6247924792479,2200371.6190072,-11876.878315441,2944868.1241813,12.824792479248,0,0
-113.24553588475,17.111333492353,7.6292229222922,2200371.6190072,-11876.878315441,2944868.1241813,12.829222922292,0,0
-113.2455354167,17.096159187118,7.6336533653365,2200371.6190072,-11876.878315441,2944868.1241813,12.833653365337,0,0
-113.24553494865,17.080984881883,7.6380838083808,2200371.6190072,-11876.878315441,2944868.1241813,12.838083808381,0,0
-113.2455344806,17.065810576648,7.6425142514251,2200371.6190072,-11876.878315441,2944868.1241813,12.842514251425,0,0
-113.24553401255,17.050636271413,7.6469446944694,2200371.6190072,-11876.878315441,2944868.1241813,12.846944694469,0,0
-113.24553354451,17.035461966178,7.6513751375138,2200371.6190072,-11876.878315441,2944868.1241813,12.851375137514,0,0
-113.24553307646,17.020287660943,7.6558055805581,2200371.6190072,-11876.878315441,2944868.1241813,12.855805580558,0,0
-113.24553260841,17.005113355708,7.6602360236024,2200371.6190072,-11876.878315441,2944868.1241813,12.860236023602,0,0
-113.24553214036,16.989939050473,7.6646664666467,2200371.6190072,-11876.878315441,2944868.1241813,12.864666466647,0,0
-113.24553167231,16.974764745238,7.669096909691,2200371.6190072,-11876.878315441,2944868.1241813,12.869096909691,0,0
-113.24553120426,16.959590440003,7.6735273527353,2200371.6190072,-11876.878315441,2944868.1241813,12.873527352735,0,0
-113.24553073622,16.944416134768,7.6779577957796,2200371.6190072,-11876.878315441,2944868.1241813,12.87795779578,0,0
-113.24553026817,16.929241829533,7.6823882388239,2200371.6190072,-11876.878315441,2944868.1241813,12.882388238824,0,0
-113.24552980012,16.914067524298,7.6868186818682,2200371.6190072,-11876.878315441,2944868.1241813,12.886818681868,0,0
-113.24552933207,16.898893219063,7.6912491249125,2200371.6190072,-11876.878315441,2944868.1241813,12.891249124912,0,0
-113.24552886402,16.883718913828,7.6956795679568,2200371.6190072,-11876.878315441,2944868.1241813,12.895679567957,0,0
-113.24552839598,16.868544608593,7.7001100110011,2200371.6190072,-11876.878315441,2944868.1241813,12.900110011001,0,0
-113.24552792793,16.853370303358,7.7045404540454,2200371.6190072,-11876.878315441,2944868.1241813,12.904540454045,0,0
-113.24552745988,16.838195998123,7.7089708970897,2200371.6190072,-11876.878315441,2944868.1241813,12.90897089709,0,0
-113.24552699183,16.823021692888,7.713401340134,2200371.6190072,-11876.878315441,2944868.1241813,12.913401340134,0,0
-113.24552652378,16.807847387653,7.7178317831783,2200371.6190072,-11876.878315441,2944868.1241813,12.917831783178,0,0
-113.24552605573,16.792673082418,7.7222622262226,2200371.6190072,-11876.878315441,2944868.1241813,12.922262226223,0,0
-113.24552558769,16.777498777183,7.7266926692669,2200371.6190072,-11876.878315441,2944868.1241813,12.926692669267,0,0
-113.24552511964,16.762324471948,7.7311231123112,2200371.6190072,-11876.878315441,2944868.1241813,12.931123112311,0,0
-113.24552465159,16.747150166713,7.7355535553555,2200371.6190072,-11876.878315441,2944868.1241813,12.935553555356,0,0
-113.24552418354,16.731975861478,7.7399839983998,2200371.6190072,-11876.878315441,2944868.1241813,12.9399839984,0,0
-113.24552371549,16.716801556244,7.7444144414441,2200371.6190072,-11876.878315441,2944868.1241813,12.944414441444,0,0
-113.24552324745,16.701627251009,7.7488448844884,2200371.6190072,-11876.878315441,2944868.1241813,12.948844884488,0,0
-113.2455227794,16.686452945774,7.7532753275328,2200371.6190072,-11876.878315441,2944868.1241813,12.953275327533,0,0
-113.24552231135,16.671278640539,7.7577057705771,2200371.6190072,-11876.878315441,2944868.1241813,12.957705770577,0,0
-113.2455218433,16.656104335304,7.7621362136214,2200371.6190072,-11876.878315441,2944868.1241813,12.962136213621,0,0
-113.24552137525,16.640930030069,7.7665666566657,2200371.6190072,-11876.878315441,2944868.1241813,12.966566656666,0,0
-113.2455209072,16.625755724834,7.77099709971,2200371.6190072,-11876.878315441,2944868.1241813,12.97099709971,0,0
-113.24552043916,16.610581419599,7.7754275427543,2200371.6190072,-11876.878315441,2944868.1241813,12.975427542754,0,0
-113.24551997111,16.595407114364,7.7798579857986,2200371.6190072,-11876.878315441,2944868.1241813,12.979857985799,0,0
-113.24551950306,16.580232809129,7.7842884288429,2200371.6190072,-11876.878315441,2944868.1241813,12.984288428843,0,0
-113.24551903501,16.565058503894,7.7887188718872,2200371.6190072,-11876.878315441,2944868.1241813,12.988718871887,0,0
-113.24551856696,16.549884198659,7.7931493149315,2200371.6190072,-11876.878315441,2944868.1241813,12.993149314931,0,0
-113.24551809892,16.534709893424,7.7975797579758,2200371.6190072,-11876.878315441,2944868.1241813,12.997579757976,0,0
-113.24551763087,16.519535588189,7.8020102010201,2200371.6190072,-11876.878315441,2944868.1241813,13.00201020102,0,0
-113.24551716282,16.504361282954,7.8064406440644,2200371.6190072,-11876.878315441,2944868.1241813,13.006440644064,0,0
-113.24551669477,16.489186977719,7.8108710871087,2200371.6190072,-11876.878315441,2944868.1241813,13.010871087109,0,0
-113.24551622672,16.474012672484,7.815301530153,2200371.6190072,-11876.878315441,2944868.1241813,13.015301530153,0,0
-113.24551575867,16.458838367249,7.8197319731973,2200371.6190072,-11876.878315441,2944868.1241813,13.019731973197,0,0
-113.24551529063,16.443664062014,7.8241624162416,2200371.6190072,-11876.878315441,2944868.1241813,13.024162416242,0,0
-113.24551482258,16.428489756779,7.8285928592859,2200371.6190072,-11876.878315441,2944868.1241813,13.028592859286,0,0
-113.24551435453,16.413315451544,7.8330233023302,2200371.6190072,-11876.878315441,2944868.1241813,13.03302330233,0,0
-113.24551388648,16.398141146309,7.8374537453745,2200371.6190072,-11876.878315441,2944868.1241813,13.037453745375,0,0
-113.24551341843,16.382966841074,7.8418841884188,2200371.6190072,-11876.878315441,2944868.1241813,13.041884188419,0,0
-113.24551295039,16.367792535839,7.8463146314631,2200371.6190072,-11876.878315441,2944868.1241813,13.046314631463,0,0
-113.24551248234,16.352618230604,7.8507450745074,2200371.6190072,-11876.878315441,2944868.1241813,13.050745074507,0,0
-113.24551201429,16.337443925369,7.8551755175518,2200371.6190072,-11876.878315441,2944868.1241813,13.055175517552,0,0
-113.24551154624,16.322269620134,7.8596059605961,2200371.6190072,-11876.878315441,2944868.1241813,13.059605960596,0,0
-113.24551107819,16.307095314899,7.8640364036404,2200371.6190072,-11876.878315441,2944868.1241813,13.06403640364,0,0
-113.24551061014,16.291921009664,7.8684668466847,2200371.6190072,-11876.878315441,2944868.1241813,13.068466846685,0,0
-113.2455101421,16.276746704429,7.872897289729,2200371.6190072,-11876.878315441,2944868.1241813,13.072897289729,0,0
-113.24550967405,16.261572399194,7.8773277327733,2200371.6190072,-11876.878315441,2944868.1241813,13.077327732773,0,0
-113.245509206,16.246398093959,7.8817581758176,2200371.6190072,-11876.878315441,2944868.1241813,13.081758175818,0,0
-113.24550873795,16.231223788724,7.8861886188619,2200371.6190072,-11876.878315441,2944868.1241813,13.086188618862,0,0
-113.2455082699,16.216049483489,7.8906190619062,2200371.6190072,-11876.878315441,2944868.1241813,13.090619061906,0,0
-113.24550780186,16.200875178254,7.8950495049505,2200371.6190072,-11876.878315441,2944868.1241813,13.09504950495,0,0
-113.24550733381,16.185700873019,7.8994799479948,2200371.6190072,-11876.878315441,2944868.1241813,13.099479947995,0,0
-113.24550686576,16.170526567784,7.9039103910391,2200371.6190072,-11876.878315441,2944868.1241813,13.103910391039,0,0
-113.24550639771,16.155352262549,7.9083408340834,2200371.6190072,-11876.878315441,2944868.1241813,13.108340834083,0,0
-113.24550592966,16.140177957314,7.9127712771277,2200371.6190072,-11876.878315441,2944868.1241813,13.112771277128,0,0
-113.24550546161,16.125003652079,7.917201720172,2200371.6190072,-11876.878315441,2944868.1241813,13.117201720172,0,0
-113.24550499357,16.109829346844,7.9216321632163,2200371.6190072,-11876.878315441,2944868.1241813,13.121632163216,0,0
-113.24550452552,16.094655041609,7.9260626062606,2200371.6190072,-11876.878315441,2944868.1241813,13.126062606261,0,0
-113.24550405747,16.079480736374,7.9304930493049,2200371.6190072,-11876.878315441,2944868.1241813,13.130493049305,0,0
-113.24550358942,16.064306431139,7.9349234923492,2200371.6190072,-11876.878315441,2944868.1241813,13.134923492349,0,0
-113.24550312137,16.049132125904,7.9393539353935,2200371.6190072,-11876.878315441,2944868.1241813,13.139353935394,0,0
-113.24550265333,16.033957820669,7.9437843784378,2200371.6190072,-11876.878315441,2944868.1241813,13.143784378438,0,0
-113.24550218528,16.018783515434,7.9482148214821,2200371.6190072,-11876.878315441,2944868.1241813,13.148214821482,0,0
-113.24550171723,16.003609210199,7.9526452645265,2200371.6190072,-11876.878315441,2944868.1241813,13.152645264526,0,0
-113.24550124918,15.988434904964,7.9570757075708,2200371.6190072,-11876.878315441,2944868.1241813,13.157075707571,0,0
-113.24550078113,15.973260599729,7.9615061506151,2200371.6190072,-11876.878315441,2944868.1241813,13.161506150615,0,0
-113.24550031308,15.958086294494,7.9659365936594,2200371.6190072,-11876.878315441,2944868.1241813,13.165936593659,0,0
-113.24549984504,15.942911989259,7.9703670367037,2200371.6190072,-11876.878315441,2944868.1241813,13.170367036704,0,0
-113.24549937699,15.927737684024,7.974797479748,2200371.6190072,-11876.878315441,2944868.1241813,13.174797479748,0,0
-113.24549890894,15.912563378789,7.9792279227923,2200371.6190072,-11876.878315441,2944868.1241813,13.179227922792,0,0
-113.24549844089,15.897389073554,7.9836583658366,2200371.6190072,-11876.878315441,2944868.1241813,13.183658365837,0,0
-113.24549797284,15.882214768319,7.9880888088809,2200371.6190072,-11876.878315441,2944868.1241813,13.188088808881,0,0
-113.24549750479,15.867040463084,7.9925192519252,2200371.6190072,-11876.878315441,2944868.1241813,13.192519251925,0,0
-113.24549703675,15.851866157849,7.9969496949695,2200371.6190072,-11876.878315441,2944868.1241813,13.196949694969,0,0
-113.2454965687,15.836691852614,8.0013801380138,2200371.6190072,-11876.878315441,2944868.1241813,13.201380138014,0,0
-113.24549610065,15.821517547379,8.0058105810581,2200371.6190072,-11876.878315441,2944868.1241813,13.205810581058,0,0
-113.2454956326,15.806343242145,8.0102410241024,2200371.6190072,-11876.878315441,2944868.1241813,13.210241024102,0,0
-113.24549516455,15.79116893691,8.0146714671467,2200371.6190072,-11876.878315441,2944868.1241813,13.214671467147,0,0
-113.24549469651,15.775994631675,8.019101910191,2200371.6190072,-11876.878315441,2944868.1241813,13.219101910191,0,0
-113.24549422846,15.76082032644,8.0235323532353,2200371.6190072,-11876.878315441,2944868.1241813,13.223532353235,0,0
-113.24549376041,15.745646021205,8.0279627962796,2200371.6190072,-11876.878315441,2944868.1241813,13.22796279628,0,0
-113.24549329236,15.73047171597,8.0323932393239,2200371.6190072,-11876.878315441,2944868.1241813,13.232393239324,0,0
-113.24549282431,15.715297410735,8.0368236823682,2200371.6190072,-11876.878315441,2944868.1241813,13.236823682368,0,0
-113.24549235626,15.7001231055,8.0412541254125,2200371.6190072,-11876.878315441,2944868.1241813,13.241254125413,0,0
-113.24549188822,15.684948800265,8.0456845684568,2200371.6190072,-11876.878315441,2944868.1241813,13.245684568457,0,0
-113.24549142017,15.66977449503,8.0501150115011,2200371.6190072,-11876.878315441,2944868.1241813,13.250115011501,0,0
-113.24549095212,15.654600189795,8.0545454545455,2200371.6190072,-11876.878315441,2944868.1241813,13.254545454545,0,0
-113.24549048407,15.63942588456,8.0589758975898,2200371.6190072,-11876.878315441,2944868.1241813,13.25897589759,0,0
-113.24549001602,15.624251579325,8.0634063406341,2200371.6190072,-11876.878315441,2944868.1241813,13.263406340634,0,0
-113.24548954798,15.60907727409,8.0678367836784,2200371.6190072,-11876.878315441,2944868.1241813,13.267836783678,0,0
-113.24548907993,15.593902968855,8.0722672267227,2200371.6190072,-11876.878315441,2944868.1241813,13.272267226723,0,0
-113.24548861188,15.57872866362,8.076697669767,2200371.6190072,-11876.878315441,2944868.1241813,13.276697669767,0,0
-113.24548814383,15.563554358385,8.0811281128113,2200371.6190072,-11876.878315441,2944868.1241813,13.281128112811,0,0
-113.24548767578,15.54838005315,8.0855585558556,2200371.6190072,-11876.878315441,2944868.1241813,13.285558555856,0,0
-113.24548720773,15.533205747915,8.0899889988999,2200371.6190072,-11876.878315441,2944868.1241813,13.2899889989,0,0
-113.24548673969,15.51803144268,8.0944194419442,2200371.6190072,-11876.878315441,2944868.1241813,13.294419441944,0,0
-113.24548627164,15.502857137445,8.0988498849885,2200371.6190072,-11876.878315441,2944868.1241813,13.298849884988,0,0
-113.24548580359,15.48768283221,8.1032803280328,2200371.6190072,-11876.878315441,2944868.1241813,13.303280328033,0,0
-113.24548533554,15.472508526975,8.1077107710771,2200371.6190072,-11876.878315441,2944868.1241813,13.307710771077,0,0
-113.24548486749,15.45733422174,8.1121412141214,2200371.6190072,-11876.878315441,2944868.1241813,13.312141214121,0,0
-113.24548439945,15.442159916505,8.1165716571657,2200371.6190072,-11876.878315441,2944868.1241813,13.316571657166,0,0
-113.2454839314,15.42698561127,8.12100210021,2200371.6190072,-11876.878315441,2944868.1241813,13.32100210021,0,0
-113.24548346335,15.411811306035,8.1254325432543,2200371.6190072,-11876.878315441,2944868.1241813,13.325432543254,0,0
-113.2454829953,15.3966370008,8.1298629862986,2200371.6190072,-11876.878315441,2944868.1241813,13.329862986299,0,0
-113.24548252725,15.381462695565,8.1342934293429,2200371.6190072,-11876.878315441,2944868.1241813,13.334293429343,0,0
-113.2454820592,15.36628839033,8.1387238723872,2200371.6190072,-11876.878315441,2944868.1241813,13.338723872387,0,0
-113.24548159116,15.351114085095,8.1431543154315,2200371.6190072,-11876.878315441,2944868.1241813,13.343154315432,0,0
-113.24548112311,15.33593977986,8.1475847584758,2200371.6190072,-11876.878315441,2944868.1241813,13.347584758476,0,0
-113.24548065506,15.320765474625,8.1520152015202,2200371.6190072,-11876.878315441,2944868.1241813,13.35201520152,0,0
-113.24548018701,15.30559116939,8.1564456445645,2200371.6190072,-11876.878315441,2944868.1241813,13.356445644564,0,0
-113.24547971896,15.290416864155,8.1608760876088,2200371.6190072,-11876.878315441,2944868.1241813,13.360876087609,0,0
-113.24547925092,15.27524255892,8.1653065306531,2200371.6190072,-11876.878315441,2944868.1241813,13.365306530653,0,0
-113.24547878287,15.260068253685,8.1697369736974,2200371.6190072,-11876.878315441,2944868.1241813,13.369736973697,0,0
-113.24547831482,15.24489394845,8.1741674167417,2200371.6190072,-11876.878315441,2944868.1241813,13.374167416742,0,0
-113.24547784677,15.229719643215,8.178597859786,2200371.6190072,-11876.878315441,2944868.1241813,13.378597859786,0,0
-113.24547737872,15.21454533798,8.1830283028303,2200371.6190072,-11876.878315441,2944868.1241813,13.38302830283,0,0
-113.24547691067,15.199371032745,8.1874587458746,2200371.6190072,-11876.878315441,2944868.1241813,13.387458745875,0,0
-113.24547644263,15.18419672751,8.1918891889189,2200371.6190072,-11876.878315441,2944868.1241813,13.391889188919,0,0
-113.24547597458,15.169022422275,8.1963196319632,2200371.6190072,-11876.878315441,2944868.1241813,13.396319631963,0,0
-113.24547550653,15.15384811704,8.2007500750075,2200371.6190072,-11876.878315441,2944868.1241813,13.400750075008,0,0
-113.24547503848,15.138673811805,8.2051805180518,2200371.6190072,-11876.878315441,2944868.1241813,13.405180518052,0,0
-113.24547457043,15.12349950657,8.2096109610961,2200371.6190072,-11876.878315441,2944868.1241813,13.409610961096,0,0
-113.24547410239,15.108325201335,8.2140414041404,2200371.6190072,-11876.878315441,2944868.1241813,13.41404140414,0,0
-113.24547363434,15.0931508961,8.2184718471847,2200371.6190072,-11876.878315441,2944868.1241813,13.418471847185,0,0
-113.24547316629,15.077976590865,8.222902290229,2200371.6190072,-11876.878315441,2944868.1241813,13.422902290229,0,0
-113.24547269824,15.06280228563,8.2273327332733,2200371.6190072,-11876.878315441,2944868.1241813,13.427332733273,0,0
-113.24547223019,15.047627980395,8.2317631763176,2200371.6190072,-11876.878315441,2944868.1241813,13.431763176318,0,0
-113.24547176214,15.03245367516,8.2361936193619,2200371.6190072,-11876.878315441,2944868.1241813,13.436193619362,0,0
-113.2454712941,15.017279369925,8.2406240624062,2200371.6190072,-11876.878315441,2944868.1241813,13.440624062406,0,0
-113.24547082605,15.00210506469,8.2450545054505,2200371.6190072,-11876.878315441,2944868.1241813,13.445054505451,0,0
-113.245470358,14.986930759455,8.2494849484948,2200371.6190072,-11876.878315441,2944868.1241813,13.449484948495,0,0
-113.24546988995,14.97175645422,8.2539153915392,2200371.6190072,-11876.878315441,2944868.1241813,13.453915391539,0,0
-113.2454694219,14.956582148985,8.2583458345835,2200371.6190072,-11876.878315441,2944868.1241813,13.458345834583,0,0
-113.24546895386,14.94140784375,8.2627762776278,2200371.6190072,-11876.878315441,2944868.1241813,13.462776277628,0,0
-113.24546848581,14.926233538515,8.2672067206721,2200371.6190072,-11876.878315441,2944868.1241813,13.467206720672,0,0
-113.24546801776,14.91105923328,8.2716371637164,2200371.6190072,-11876.878315441,2944868.1241813,13.471637163716,0,0
-113.24546754971,14.895884928045,8.2760676067607,2200371.6190072,-11876.878315441,2944868.1241813,13.476067606761,0,0
-113.24546708166,14.880710622811,8.280498049805,2200371.6190072,-11876.878315441,2944868.1241813,13.480498049805,0,0
-113.24546661361,14.865536317576,8.2849284928493,2200371.6190072,-11876.878315441,2944868.1241813,13.484928492849,0,0
-113.24546614557,14.850362012341,8.2893589358936,2200371.6190072,-11876.878315441,2944868.1241813,13.489358935894,0,0
-113.24546567752,14.835187707106,8.2937893789379,2200371.6190072,-11876.878315441,2944868.1241813,13.493789378938,0,0
-113.24546520947,14.820013401871,8.2982198219822,2200371.6190072,-11876.878315441,2944868.1241813,13.498219821982,0,0
-113.24546474142,14.804839096636,8.3026502650265,2200371.6190072,-11876.878315441,2944868.1241813,13.502650265027,0,0
-113.24546427337,14.789664791401,8.3070807080708,2200371.6190072,-11876.878315441,2944868.1241813,13.507080708071,0,0
-113.24546380533,14.774490486166,8.3115111511151,2200371.6190072,-11876.878315441,2944868.1241813,13.511511151115,0,0
-113.24546333728,14.759316180931,8.3159415941594,2200371.6190072,-11876.878315441,2944868.1241813,13.515941594159,0,0
-113.24546286923,14.744141875696,8.3203720372037,2200371.6190072,-11876.878315441,2944868.1241813,13.520372037204,0,0
-113.24546240118,14.728967570461,8.324802480248,2200371.6190072,-11876.878315441,2944868.1241813,13.524802480248,0,0
-113.24546193313,14.713793265226,8.3292329232923,2200371.6190072,-11876.878315441,2944868.1241813,13.529232923292,0,0
-113.24546146508,14.698618959991,8.3336633663366,2200371.6190072,-11876.878315441,2944868.1241813,13.533663366337,0,0
-113.24546099704,14.683444654756,8.3380938093809,2200371.6190072,-11876.878315441,2944868.1241813,13.538093809381,0,0
-113.24546052638,14.668270344023,8.3425242524252,2216461.3457645,-26381.00179602,2911690.4188182,13.542524252425,0,0
-113.24546005406,14.653096029799,8.3469546954695,2216461.3457645,-26381.00179602,2911690.4188182,13.54695469547,0,0
-113.24545958088,14.637921716842,8.3513851385139,2245952.8850694,-13800.794076876,2896151.3680702,13.551385138514,0,0
-113.24545910309,14.622747410633,8.3558155815582,2245952.8850694,-13800.794076876,2896151.3680702,13.555815581558,0,0
-113.2454586253,14.607573104424,8.3602460246025,2245952.8850694,-13800.794076876,2896151.3680702,13.560246024602,0,0
-113.24545814751,14.592398798216,8.3646764676468,2245952.8850694,-13800.794076876,2896151.3680702,13.564676467647,0,0
-113.24545766972,14.577224492007,8.3691069106911,2245952.8850694,-13800.794076876,2896151.3680702,13.569106910691,0,0
-113.24545719192,14.562050185798,8.3735373537354,2245952.8850694,-13800.794076876,2896151.3680702,13.573537353735,0,0
-113.24545671413,14.546875879589,8.3779677967797,2245952.8850694,-13800.794076876,2896151.3680702,13.57796779678,0,0
-113.24545623634,14.531701573381,8.382398239824,2245952.8850694,-13800.794076876,2896151.3680702,13.582398239824,0,0
-113.24545575855,14.516527267172,8.3868286828683,2245952.8850694,-13800.794076876,2896151.3680702,13.586828682868,0,0
-113.24545528075,14.501352960963,8.3912591259126,2245952.8850694,-13800.794076876,2896151.3680702,13.591259125913,0,0
-113.24545480296,14.486178654754,8.3956895689569,2245952.8850694,-13800.794076876,2896151.3680702,13.595689568957,0,0
-113.24545432517,14.471004348546,8.4001200120012,2245952.8850694,-13800.794076876,2896151.3680702,13.600120012001,0,0
-113.24545384738,14.455830042337,8.4045504550455,2245952.8850694,-13800.794076876,2896151.3680702,13.604550455046,0,0
-113.24545336958,14.440655736128,8.4089808980898,2245952.8850694,-13800.794076876,2896151.3680702,13.60898089809,0,0
-113.24545289179,14.425481429919,8.4134113411341,2245952.8850694,-13800.794076876,2896151.3680702,13.613411341134,0,0
-113.245452414,14.410307123711,8.4178417841784,2245952.8850694,-13800.794076876,2896151.3680702,13.617841784178,0,0
-113.24545193621,14.395132817502,8.4222722272227,2245952.8850694,-13800.794076876,2896151.3680702,13.622272227223,0,0
-113.24545145841,14.379958511293,8.426702670267,2245952.8850694,-13800.794076876,2896151.3680702,13.626702670267,0,0
-113.24545098062,14.364784205084,8.4311331133113,2245952.8850694,-13800.794076876,2896151.3680702,13.631133113311,0,0
-113.24545050283,14.349609898876,8.4355635563556,2245952.8850694,-13800.794076876,2896151.3680702,13.635563556356,0,0
-113.24545002504,14.334435592667,8.4399939993999,2245952.8850694,-13800.794076876,2896151.3680702,13.6399939994,0,0
-113.24544954725,14.319261286458,8.4444244424442,2245952.8850694,-13800.794076876,2896151.3680702,13.644424442444,0,0
-113.24544906945,14.304086980249,8.4488548854885,2245952.8850694,-13800.794076876,2896151.3680702,13.648854885489,0,0
-113.24544859166,14.288912674041,8.4532853285329,2245952.8850694,-13800.794076876,2896151.3680702,13.653285328533,0,0
-113.24544811387,14.273738367832,8.4577157715772,2245952.8850694,-13800.794076876,2896151.3680702,13.657715771577,0,0
-113.24544763608,14.258564061623,8.4621462146215,2245952.8850694,-13800.794076876,2896151.3680702,13.662146214621,0,0
-113.24544715828,14.243389755414,8.4665766576658,2245952.8850694,-13800.794076876,2896151.3680702,13.666576657666,0,0
-113.24544668049,14.228215449206,8.4710071007101,2245952.8850694,-13800.794076876,2896151.3680702,13.67100710071,0,0
-113.2454462027,14.213041142997,8.4754375437544,2245952.8850694,-13800.794076876,2896151.3680702,13.675437543754,0,0
-113.24544572491,14.197866836788,8.4798679867987,2245952.8850694,-13800.794076876,2896151.3680702,13.679867986799,0,0
-113.24544524711,14.182692530579,8.484298429843,2245952.8850694,-13800.794076876,2896151.3680702,13.684298429843,0,0
-113.24544476932,14.167518224371,8.4887288728873,2245952.8850694,-13800.794076876,2896151.3680702,13.688728872887,0,0
-113.24544429163,14.152343918176,8.4931593159316,2237932.0470426,11598.630841634,2884504.1750721,13.693159315932,0,0
-113.24544381451,14.137169612057,8.4975897589759,2237932.0470426,11598.630841634,2884504.1750721,13.697589758976,0,0
-113.24544333739,14.121995305939,8.5020202020202,2237932.0470426,11598.630841634,2884504.1750721,13.70202020202,0,0
-113.24544286026,14.106820999821,8.5064506450645,2237932.0470426,11598.630841634,2884504.1750721,13.706450645065,0,0
-113.24544238314,14.091646693702,8.5108810881088,2237932.0470426,11598.630841634,2884504.1750721,13.710881088109,0,0
-113.24544190602,14.076472387584,8.5153115311531,2237932.0470426,11598.630841634,2884504.1750721,13.715311531153,0,0
-113.24544142889,14.061298081466,8.5197419741974,2237932.0470426,11598.630841634,2884504.1750721,13.719741974197,0,0
-113.24544095177,14.046123775347,8.5241724172417,2237932.0470426,11598.630841634,2884504.1750721,13.724172417242,0,0
-113.24544047465,14.030949469229,8.528602860286,2237932.0470426,11598.630841634,2884504.1750721,13.728602860286,0,0
-113.24543999752,14.015775163111,8.5330333033303,2237932.0470426,11598.630841634,2884504.1750721,13.73303330333,0,0
-113.2454395204,14.000600856992,8.5374637463746,2237932.0470426,11598.630841634,2884504.1750721,13.737463746375,0,0
-113.24543904328,13.985426550874,8.5418941894189,2237932.0470426,11598.630841634,2884504.1750721,13.741894189419,0,0
-113.24543856615,13.970252244756,8.5463246324632,2237932.0470426,11598.630841634,2884504.1750721,13.746324632463,0,0
-113.24543808903,13.955077938638,8.5507550755075,2237932.0470426,11598.630841634,2884504.1750721,13.750755075508,0,0
-113.24543761191,13.939903632519,8.5551855185519,2237932.0470426,11598.630841634,2884504.1750721,13.755185518552,0,0
-113.24543713478,13.924729326401,8.5596159615962,2237932.0470426,11598.630841634,2884504.1750721,13.759615961596,0,0
-113.24543665766,13.909555020283,8.5640464046405,2237932.0470426,11598.630841634,2884504.1750721,13.76404640464,0,0
-113.24543618054,13.894380714164,8.5684768476848,2237932.0470426,11598.630841634,2884504.1750721,13.768476847685,0,0
-113.24543570341,13.879206408046,8.5729072907291,2237932.0470426,11598.630841634,2884504.1750721,13.772907290729,0,0
-113.24543522629,13.864032101928,8.5773377337734,2237932.0470426,11598.630841634,2884504.1750721,13.777337733773,0,0
-113.24543474917,13.848857795809,8.5817681768177,2237932.0470426,11598.630841634,2884504.1750721,13.781768176818,0,0
-113.24543427204,13.833683489691,8.586198619862,2237932.0470426,11598.630841634,2884504.1750721,13.786198619862,0,0
-113.24543379492,13.818509183573,8.5906290629063,2237932.0470426,11598.630841634,2884504.1750721,13.790629062906,0,0
-113.2454333178,13.803334877454,8.5950595059506,2237932.0470426,11598.630841634,2884504.1750721,13.795059505951,0,0
-113.24543284067,13.788160571336,8.5994899489949,2237932.0470426,11598.630841634,2884504.1750721,13.799489948995,0,0
-113.24543236355,13.772986265218,8.6039203920392,2237932.0470426,11598.630841634,2884504.1750721,13.803920392039,0,0
-113.24543188643,13.757811959099,8.6083508350835,2237932.0470426,11598.630841634,2884504.1750721,13.808350835084,0,0
-113.2454314093,13.742637652981,8.6127812781278,2237932.0470426,11598.630841634,2884504.1750721,13.812781278128,0,0
-113.24543093218,13.727463346863,8.6172117211721,2237932.0470426,11598.630841634,2884504.1750721,13.817211721172,0,0
-113.24543045506,13.712289040744,8.6216421642164,2237932.0470426,11598.630841634,2884504.1750721,13.821642164216,0,0
-113.24542997793,13.697114734626,8.6260726072607,2237932.0470426,11598.630841634,2884504.1750721,13.826072607261,0,0
-113.24542950081,13.681940428508,8.630503050305,2237932.0470426,11598.630841634,2884504.1750721,13.830503050305,0,0
-113.24542902369,13.66676612239,8.6349334933493,2237932.0470426,11598.630841634,2884504.1750721,13.834933493349,0,0
-113.24542854656,13.651591816271,8.6393639363936,2237932.0470426,11598.630841634,2884504.1750721,13.839363936394,0,0
-113.24542806944,13.636417510153,8.6437943794379,2237932.0470426,11598.630841634,2884504.1750721,13.843794379438,0,0
-113.24542759232,13.621243204035,8.6482248224822,2237932.0470426,11598.630841634,2884504.1750721,13.848224822482,0,0
-113.24542711519,13.606068897916,8.6526552655266,2237932.0470426,11598.630841634,2884504.1750721,13.852655265527,0,0
-113.24542663807,13.590894591798,8.6570857085709,2237932.0470426,11598.630841634,2884504.1750721,13.857085708571,0,0
-113.24542616095,13.57572028568,8.6615161516152,2237932.0470426,11598.630841634,2884504.1750721,13.861516151615,0,0
-113.24542568382,13.560545979561,8.6659465946595,2237932.0470426,11598.630841634,2884504.1750721,13.865946594659,0,0
-113.2454252067,13.545371673443,8.6703770377038,2237932.0470426,11598.630841634,2884504.1750721,13.870377037704,0,0
-113.24542472958,13.530197367325,8.6748074807481,2237932.0470426,11598.630841634,2884504.1750721,13.874807480748,0,0
-113.24542425245,13.515023061206,8.6792379237924,2237932.0470426,11598.630841634,2884504.1750721,13.879237923792,0,0
-113.24542377533,13.499848755088,8.6836683668367,2237932.0470426,11598.630841634,2884504.1750721,13.883668366837,0,0
-113.24542329821,13.48467444897,8.688098809881,2237932.0470426,11598.630841634,2884504.1750721,13.888098809881,0,0
-113.24542282108,13.469500142851,8.6925292529253,2237932.0470426,11598.630841634,2884504.1750721,13.892529252925,0,0
-113.24542234396,13.454325836733,8.6969596959696,2237932.0470426,11598.630841634,2884504.1750721,13.89695969597,0,0
-113.24542186684,13.439151530615,8.7013901390139,2237932.0470426,11598.630841634,2884504.1750721,13.901390139014,0,0
-113.24542138971,13.423977224497,8.7058205820582,2237932.0470426,11598.630841634,2884504.1750721,13.905820582058,0,0
-113.24542091259,13.408802918378,8.7102510251025,2237932.0470426,11598.630841634,2884504.1750721,13.910251025103,0,0
-113.24542043547,13.39362861226,8.7146814681468,2237932.0470426,11598.630841634,2884504.1750721,13.914681468147,0,0
-113.24541995834,13.378454306142,8.7191119111911,2237932.0470426,11598.630841634,2884504.1750721,13.919111911191,0,0
-113.24541948122,13.363280000023,8.7235423542354,2237932.0470426,11598.630841634,2884504.1750721,13.923542354235,0,0
-113.2454190041,13.348105693905,8.7279727972797,2237932.0470426,11598.630841634,2884504.1750721,13.92797279728,0,0
-113.24541852697,13.332931387787,8.732403240324,2237932.0470426,11598.630841634,2884504.1750721,13.932403240324,0,0
-113.24541804985,13.317757081668,8.7368336833683,2237932.0470426,11598.630841634,2884504.1750721,13.936833683368,0,0
-113.24541757273,13.30258277555,8.7412641264126,2237932.0470426,11598.630841634,2884504.1750721,13.941264126413,0,0
-113.2454170956,13.287408469432,8.7456945694569,2237932.0470426,11598.630841634,2884504.1750721,13.945694569457,0,0
-113.24541661848,13.272234163313,8.7501250125013,2237932.0470426,11598.630841634,2884504.1750721,13.950125012501,0,0
-113.24541614136,13.257059857195,8.7545554555456,2237932.0470426,11598.630841634,2884504.1750721,13.954555455546,0,0
-113.24541566423,13.241885551077,8.7589858985899,2237932.0470426,11598.630841634,2884504.1750721,13.95898589859,0,0
-113.24541518711,13.226711244958,8.7634163416342,2237932.0470426,11598.630841634,2884504.1750721,13.963416341634,0,0
-113.24541470999,13.21153693884,8.7678467846785,2237932.0470426,11598.630841634,2884504.1750721,13.967846784678,0,0
-113.24541423286,13.196362632722,8.7722772277228,2237932.0470426,11598.630841634,2884504.1750721,13.972277227723,0,0
-113.24541375574,13.181188326603,8.7767076707671,2237932.0470426,11598.630841634,2884504.1750721,13.976707670767,0,0
-113.24541327862,13.166014020485,8.7811381138114,2237932.0470426,11598.630841634,2884504.1750721,13.981138113811,0,0
-113.24541280149,13.150839714367,8.7855685568557,2237932.0470426,11598.630841634,2884504.1750721,13.985568556856,0,0
-113.24541232437,13.135665408249,8.7899989999,2237932.0470426,11598.630841634,2884504.1750721,13.9899989999,0,0
-113.24541184725,13.12049110213,8.7944294429443,2237932.0470426,11598.630841634,2884504.1750721,13.994429442944,0,0
-113.24541137012,13.105316796012,8.7988598859886,2237932.0470426,11598.630841634,2884504.1750721,13.998859885989,0,0
-113.245410893,13.090142489894,8.8032903290329,2237932.0470426,11598.630841634,2884504.1750721,14.003290329033,0,0
-113.24541041587,13.074968183775,8.8077207720772,2237932.0470426,11598.630841634,2884504.1750721,14.007720772077,0,0
-113.24540993875,13.059793877657,8.8121512151215,2237932.0470426,11598.630841634,2884504.1750721,14.012151215122,0,0
-113.24540946163,13.044619571539,8.8165816581658,2237932.0470426,11598.630841634,2884504.1750721,14.016581658166,0,0
-113.2454089845,13.02944526542,8.8210121012101,2237932.0470426,11598.630841634,2884504.1750721,14.02101210121,0,0
-113.24540850738,13.014270959302,8.8254425442544,2237932.0470426,11598.630841634,2884504.1750721,14.025442544254,0,0
-113.24540803026,12.999096653184,8.8298729872987,2237932.0470426,11598.630841634,2884504.1750721,14.029872987299,0,0
-113.24540755313,12.983922347065,8.834303430343,2237932.0470426,11598.630841634,2884504.1750721,14.034303430343,0,0
-113.24540707601,12.968748040947,8.8387338733873,2237932.0470426,11598.630841634,2884504.1750721,14.038733873387,0,0
-113.24540659889,12.953573734829,8.8431643164316,2237932.0470426,11598.630841634,2884504.1750721,14.043164316432,0,0
-113.24540612176,12.93839942871,8.8475947594759,2237932.0470426,11598.630841634,2884504.1750721,14.047594759476,0,0
-113.24540564464,12.923225122592,8.8520252025203,2237932.0470426,11598.630841634,2884504.1750721,14.05202520252,0,0
-113.24540516752,12.908050816474,8.8564556455646,2237932.0470426,11598.630841634,2884504.1750721,14.056455645565,0,0
-113.24540469039,12.892876510355,8.8608860886089,2237932.0470426,11598.630841634,2884504.1750721,14.060886088609,0,0
-113.24540421327,12.877702204237,8.8653165316532,2237932.0470426,11598.630841634,2884504.1750721,14.065316531653,0,0
-113.24540373615,12.862527898119,8.8697469746975,2237932.0470426,11598.630841634,2884504.1750721,14.069746974697,0,0
-113.24540325902,12.847353592001,8.8741774177418,2237932.0470426,11598.630841634,2884504.1750721,14.074177417742,0,0
-113.2454027819,12.832179285882,8.8786078607861,2237932.0470426,11598.630841634,2884504.1750721,14.078607860786,0,0
-113.24540230478,12.817004979764,8.8830383038304,2237932.0470426,11598.630841634,2884504.1750721,14.08303830383,0,0
-113.24540182765,12.801830673646,8.8874687468747,2237932.0470426,11598.630841634,2884504.1750721,14.087468746875,0,0
-113.24540135053,12.786656367527,8.891899189919,2237932.0470426,11598.630841634,2884504.1750721,14.091899189919,0,0
-113.24540087341,12.771482061409,8.8963296329633,2237932.0470426,11598.630841634,2884504.1750721,14.096329632963,0,0
-113.24540039628,12.756307755291,8.9007600760076,2237932.0470426,11598.630841634,2884504.1750721,14.100760076008,0,0
-113.24539991916,12.741133449172,8.9051905190519,2237932.0470426,11598.630841634,2884504.1750721,14.105190519052,0,0
-113.24539944204,12.725959143054,8.9096209620962,2237932.0470426,11598.630841634,2884504.1750721,14.109620962096,0,0
-113.24539896491,12.710784836936,8.9140514051405,2237932.0470426,11598.630841634,2884504.1750721,14.114051405141,0,0
-113.24539848779,12.695610530817,8.9184818481848,2237932.0470426,11598.630841634,2884504.1750721,14.118481848185,0,0
-113.24539801067,12.680436224699,8.9229122912291,2237932.0470426,11598.630841634,2884504.1750721,14.122912291229,0,0
-113.24539753354,12.665261918581,8.9273427342734,2237932.0470426,11598.630841634,2884504.1750721,14.127342734273,0,0
-113.24539705642,12.650087612462,8.9317731773177,2237932.0470426,11598.630841634,2884504.1750721,14.131773177318,0,0
-113.2453965793,12.634913306344,8.936203620362,2237932.0470426,11598.630841634,2884504.1750721,14.136203620362,0,0
-113.24539610217,12.619739000226,8.9406340634063,2237932.0470426,11598.630841634,2884504.1750721,14.140634063406,0,0
-113.24539562505,12.604564694107,8.9450645064506,2237932.0470426,11598.630841634,2884504.1750721,14.145064506451,0,0
-113.24539514793,12.589390387989,8.9494949494949,2237932.0470426,11598.630841634,2884504.1750721,14.149494949495,0,0
-113.2453946708,12.574216081871,8.9539253925393,2237932.0470426,11598.630841634,2884504.1750721,14.153925392539,0,0
-113.24539419368,12.559041775753,8.9583558355836,2237932.0470426,11598.630841634,2884504.1750721,14.158355835584,0,0
-113.24539371656,12.543867469634,8.9627862786279,2237932.0470426,11598.630841634,2884504.1750721,14.162786278628,0,0
-113.24539323943,12.528693163516,8.9672167216722,2237932.0470426,11598.630841634,2884504.1750721,14.167216721672,0,0
-113.24539276231,12.513518857398,8.9716471647165,2237932.0470426,11598.630841634,2884504.1750721,14.171647164716,0,0
-113.24539228519,12.498344551279,8.9760776077608,2237932.0470426,11598.630841634,2884504.1750721,14.176077607761,0,0
-113.24539180806,12.483170245161,8.9805080508051,2237932.0470426,11598.630841634,2884504.1750721,14.180508050805,0,0
-113.24539133094,12.467995939043,8.9849384938494,2237932.0470426,11598.630841634,2884504.1750721,14.184938493849,0,0
-113.24539085382,12.452821632924,8.9893689368937,2237932.0470426,11598.630841634,2884504.1750721,14.189368936894,0,0
-113.24539037669,12.437647326806,8.993799379938,2237932.0470426,11598.630841634,2884504.1750721,14.193799379938,0,0
-113.24538989957,12.422473020688,8.9982298229823,2237932.0470426,11598.630841634,2884504.1750721,14.198229822982,0,0
-113.24538942245,12.407298714569,9.0026602660266,2237932.0470426,11598.630841634,2884504.1750721,14.202660266027,0,0
-113.24538894532,12.392124408451,9.0070907090709,2237932.0470426,11598.630841634,2884504.1750721,14.207090709071,0,0
-113.2453884682,12.376950102333,9.0115211521152,2237932.0470426,11598.630841634,2884504.1750721,14.211521152115,0,0
-113.24538799108,12.361775796214,9.0159515951595,2237932.0470426,11598.630841634,2884504.1750721,14.21595159516,0,0
-113.24538751395,12.346601490096,9.0203820382038,2237932.0470426,11598.630841634,2884504.1750721,14.220382038204,0,0
-113.24538703683,12.331427183978,9.0248124812481,2237932.0470426,11598.630841634,2884504.1750721,14.224812481248,0,0
-113.24538655971,12.316252877859,9.0292429242924,2237932.0470426,11598.630841634,2884504.1750721,14.229242924292,0,0
-113.24538608258,12.301078571741,9.0336733673367,2237932.0470426,11598.630841634,2884504.1750721,14.233673367337,0,0
-113.24538560546,12.285904265623,9.038103810381,2237932.0470426,11598.630841634,2884504.1750721,14.238103810381,0,0
-113.24538512834,12.270729959505,9.0425342534253,2237932.0470426,11598.630841634,2884504.1750721,14.242534253425,0,0
-113.24538465121,12.255555653386,9.0469646964696,2237932.0470426,11598.630841634,2884504.1750721,14.24696469647,0,0
-113.24538417409,12.240381347268,9.051395139514,2237932.0470426,11598.630841634,2884504.1750721,14.251395139514,0,0
-113.24538369697,12.22520704115,9.0558255825583,2237932.0470426,11598.630841634,2884504.1750721,14.255825582558,0,0
-113.24538321984,12.210032735031,9.0602560256026,2237932.0470426,11598.630841634,2884504.1750721,14.260256025603,0,0
-113.24538274272,12.194858428913,9.0646864686469,2237932.0470426,11598.630841634,2884504.1750721,14.264686468647,0,0
-113.2453822656,12.179684122795,9.0691169116912,2237932.0470426,11598.630841634,2884504.1750721,14.269116911691,0,0
-113.24538178847,12.164509816676,9.0735473547355,2237932.0470426,11598.630841634,2884504.1750721,14.273547354735,0,0
-113.24538131135,12.149335510558,9.0779777977798,2237932.0470426,11598.630841634,2884504.1750721,14.27797779778,0,0
-113.24538083423,12.13416120444,9.0824082408241,2237932.0470426,11598.630841634,2884504.1750721,14.282408240824,0,0
-113.2453803571,12.118986898321,9.0868386838684,2237932.0470426,11598.630841634,2884504.1750721,14.286838683868,0,0
-113.24537987998,12.103812592203,9.0912691269127,2237932.0470426,11598.630841634,2884504.1750721,14.291269126913,0,0
-113.24537940286,12.088638286085,9.095699569957,2237932.0470426,11598.630841634,2884504.1750721,14.295699569957,0,0
-113.24537892573,12.073463979966,9.1001300130013,2237932.0470426,11598.630841634,2884504.1750721,14.300130013001,0,0
-113.24537844861,12.058289673848,9.1045604560456,2237932.0470426,11598.630841634,2884504.1750721,14.304560456046,0,0
-113.24537797149,12.04311536773,9.1089908990899,2237932.0470426,11598.630841634,2884504.1750721,14.30899089909,0,0
-113.24537749436,12.027941061611,9.1134213421342,2237932.0470426,11598.630841634,2884504.1750721,14.313421342134,0,0
-113.24537701724,12.012766755493,9.1178517851785,2237932.0470426,11598.630841634,2884504.1750721,14.317851785179,0,0
-113.24537654012,11.997592449375,9.1222822282228,2237932.0470426,11598.630841634,2884504.1750721,14.322282228223,0,0
-113.24537606299,11.982418143257,9.1267126712671,2237932.0470426,11598.630841634,2884504.1750721,14.326712671267,0,0
-113.24537558587,11.967243837138,9.1311431143114,2237932.0470426,11598.630841634,2884504.1750721,14.331143114311,0,0
-113.24537510875,11.95206953102,9.1355735573557,2237932.0470426,11598.630841634,2884504.1750721,14.335573557356,0,0
-113.24537463162,11.936895224902,9.1400040004,2237932.0470426,11598.630841634,2884504.1750721,14.3400040004,0,0
-113.2453741545,11.921720918783,9.1444344434443,2237932.0470426,11598.630841634,2884504.1750721,14.344434443444,0,0
-113.24537367738,11.906546612665,9.1488648864886,2237932.0470426,11598.630841634,2884504.1750721,14.348864886489,0,0
-113.24537320025,11.891372306547,9.153295329533,2237932.0470426,11598.630841634,2884504.1750721,14.353295329533,0,0
-113.24537272313,11.876198000428,9.1577257725773,2237932.0470426,11598.630841634,2884504.1750721,14.357725772577,0,0
-113.24537224601,11.86102369431,9.1621562156216,2237932.0470426,11598.630841634,2884504.1750721,14.362156215622,0,0
-113.24537176888,11.845849388192,9.1665866586659,2237932.0470426,11598.630841634,2884504.1750721,14.366586658666,0,0
-113.24537129176,11.830675082073,9.1710171017102,2237932.0470426,11598.630841634,2884504.1750721,14.37101710171,0,0
-113.24537081464,11.815500775955,9.1754475447545,2237932.0470426,11598.630841634,2884504.1750721,14.375447544754,0,0
-113.24537033751,11.800326469837,9.1798779877988,2237932.0470426,11598.630841634,2884504.1750721,14.379877987799,0,0
-113.24536986039,11.785152163718,9.1843084308431,2237932.0470426,11598.630841634,2884504.1750721,14.384308430843,0,0
-113.24536938327,11.7699778576,9.1887388738874,2237932.0470426,11598.630841634,2884504.1750721,14.388738873887,0,0
-113.24536890614,11.754803551482,9.1931693169317,2237932.0470426,11598.630841634,2884504.1750721,14.393169316932,0,0
-113.24536842902,11.739629245363,9.197599759976,2237932.0470426,11598.630841634,2884504.1750721,14.397599759976,0,0
-113.2453679519,11.724454939245,9.2020302030203,2237932.0470426,11598.630841634,2884504.1750721,14.40203020302,0,0
-113.24536747477,11.709280633127,9.2064606460646,2237932.0470426,11598.630841634,2884504.1750721,14.406460646065,0,0
-113.24536699765,11.694106327009,9.2108910891089,2237932.0470426,11598.630841634,2884504.1750721,14.410891089109,0,0
-113.24536652053,11.67893202089,9.2153215321532,2237932.0470426,11598.630841634,2884504.1750721,14.415321532153,0,0
-113.2453660434,11.663757714772,9.2197519751975,2237932.0470426,11598.630841634,2884504.1750721,14.419751975198,0,0
-113.24536556628,11.648583408654,9.2241824182418,2237932.0470426,11598.630841634,2884504.1750721,14.424182418242,0,0
-113.24536508916,11.633409102535,9.2286128612861,2237932.0470426,11598.630841634,2884504.1750721,14.428612861286,0,0
-113.24536461203,11.618234796417,9.2330433043304,2237932.0470426,11598.630841634,2884504.1750721,14.43304330433,0,0
-113.24536413491,11.603060490299,9.2374737473747,2237932.0470426,11598.630841634,2884504.1750721,14.437473747375,0,0
-113.24536365779,11.58788618418,9.241904190419,2237932.0470426,11598.630841634,2884504.1750721,14.441904190419,0,0
-113.24536318066,11.572711878062,9.2463346334633,2237932.0470426,11598.630841634,2884504.1750721,14.446334633463,0,0
-113.24536270354,11.557537571944,9.2507650765077,2237932.0470426,11598.630841634,2884504.1750721,14.450765076508,0,0
-113.24536222642,11.542363265825,9.255195519552,2237932.0470426,11598.630841634,2884504.1750721,14.455195519552,0,0
-113.24536174929,11.527188959707,9.2596259625963,2237932.0470426,11598.630841634,2884504.1750721,14.459625962596,0,0
-113.24536126763,11.512014658253,9.2640564056406,2275399.8498855,19492.65920045,2875582.2394029,14.464056405641,0,0
-113.24536078411,11.496840358714,9.2684868486849,2275399.8498855,19492.65920045,2875582.2394029,14.468486848685,0,0
-113.24536030059,11.481666059175,9.2729172917292,2275399.8498855,19492.65920045,2875582.2394029,14.472917291729,0,0
-113.24535981706,11.466491759636,9.2773477347735,2275399.8498855,19492.65920045,2875582.2394029,14.477347734773,0,0
-113.24535933354,11.451317460097,9.2817781778178,2275399.8498855,19492.65920045,2875582.2394029,14.481778177818,0,0
-113.24535885002,11.436143160558,9.2862086208621,2275399.8498855,19492.65920045,2875582.2394029,14.486208620862,0,0
-113.24535836649,11.420968861019,9.2906390639064,2275399.8498855,19492.65920045,2875582.2394029,14.490639063906,0,0
-113.24535788297,11.40579456148,9.2950695069507,2275399.8498855,19492.65920045,2875582.2394029,14.495069506951,0,0
-113.24535739945,11.390620261941,9.299499949995,2275399.8498855,19492.65920045,2875582.2394029,14.499499949995,0,0
-113.24535691592,11.375445962403,9.3039303930393,2275399.8498855,19492.65920045,2875582.2394029,14.503930393039,0,0
-113.2453564324,11.360271662864,9.3083608360836,2275399.8498855,19492.65920045,2875582.2394029,14.508360836084,0,0
-113.24535594888,11.345097363325,9.3127912791279,2275399.8498855,19492.65920045,2875582.2394029,14.512791279128,0,0
-113.24535546535,11.329923063786,9.3172217221722,2275399.8498855,19492.65920045,2875582.2394029,14.517221722172,0,0
-113.24535498183,11.314748764247,9.3216521652165,2275399.8498855,19492.65920045,2875582.2394029,14.521652165217,0,0
-113.2453544974,11.299574461726,9.3260826082608,2278211.4955621,7098.4522816934,2844535.4633671,14.526082608261,0,0
-113.24535401182,11.284400155437,9.3305130513051,2278211.4955621,7098.4522816934,2844535.4633671,14.530513051305,0,0
-113.24535352625,11.269225849147,9.3349434943494,2278211.4955621,7098.4522816934,2844535.4633671,14.534943494349,0,0
-113.24535304067,11.254051542858,9.3393739373937,2278211.4955621,7098.4522816934,2844535.4633671,14.539373937394,0,0
-113.2453525551,11.238877236568,9.343804380438,2278211.4955621,7098.4522816934,2844535.4633671,14.543804380438,0,0
-113.24535206953,11.223702930279,9.3482348234823,2278211.4955621,7098.4522816934,2844535.4633671,14.548234823482,0,0
-113.24535158395,11.20852862399,9.3526652665267,2278211.4955621,7098.4522816934,2844535.4633671,14.552665266527,0,0
-113.24535109838,11.1933543177,9.357095709571,2278211.4955621,7098.4522816934,2844535.4633671,14.557095709571,0,0
-113.2453506128,11.178180011411,9.3615261526153,2278211.4955621,7098.4522816934,2844535.4633671,14.561526152615,0,0
-113.24535012723,11.163005705122,9.3659565956596,2278211.4955621,7098.4522816934,2844535.4633671,14.56595659566,0,0
-113.24534964165,11.147831398832,9.3703870387039,2278211.4955621,7098.4522816934,2844535.4633671,14.570387038704,0,0
-113.24534915608,11.132657092543,9.3748174817482,2278211.4955621,7098.4522816934,2844535.4633671,14.574817481748,0,0
-113.2453486705,11.117482786253,9.3792479247925,2278211.4955621,7098.4522816934,2844535.4633671,14.579247924792,0,0
-113.24534818493,11.102308479964,9.3836783678368,2278211.4955621,7098.4522816934,2844535.4633671,14.583678367837,0,0
-113.24534769935,11.087134173675,9.3881088108811,2278211.4955621,7098.4522816934,2844535.4633671,14.588108810881,0,0
-113.24534721378,11.071959867385,9.3925392539254,2278211.4955621,7098.4522816934,2844535.4633671,14.592539253925,0,0
-113.2453467282,11.056785561096,9.3969696969697,2278211.4955621,7098.4522816934,2844535.4633671,14.59696969697,0,0
-113.24534624263,11.041611254807,9.401400140014,2278211.4955621,7098.4522816934,2844535.4633671,14.601400140014,0,0
-113.24534575705,11.026436948517,9.4058305830583,2278211.4955621,7098.4522816934,2844535.4633671,14.605830583058,0,0
-113.24534527148,11.011262642228,9.4102610261026,2278211.4955621,7098.4522816934,2844535.4633671,14.610261026103,0,0
-113.2453447859,10.996088335938,9.4146914691469,2278211.4955621,7098.4522816934,2844535.4633671,14.614691469147,0,0
-113.24534430033,10.980914029649,9.4191219121912,2278211.4955621,7098.4522816934,2844535.4633671,14.619121912191,0,0
-113.24534381475,10.96573972336,9.4235523552355,2278211.4955621,7098.4522816934,2844535.4633671,14.623552355236,0,0
-113.24534332918,10.95056541707,9.4279827982798,2278211.4955621,7098.4522816934,2844535.4633671,14.62798279828,0,0
-113.24534284361,10.935391110781,9.4324132413241,2278211.4955621,7098.4522816934,2844535.4633671,14.632413241324,0,0
-113.24534235803,10.920216804492,9.4368436843684,2278211.4955621,7098.4522816934,2844535.4633671,14.636843684368,0,0
-113.24534187246,10.905042498202,9.4412741274127,2278211.4955621,7098.4522816934,2844535.4633671,14.641274127413,0,0
-113.24534138688,10.889868191913,9.445704570457,2278211.4955621,7098.4522816934,2844535.4633671,14.645704570457,0,0
-113.24534090131,10.874693885623,9.4501350135013,2278211.4955621,7098.4522816934,2844535.4633671,14.650135013501,0,0
-113.24534041573,10.859519579334,9.4545654565457,2278211.4955621,7098.4522816934,2844535.4633671,14.654565456546,0,0
-113.24533993016,10.844345273045,9.45899589959,2278211.4955621,7098.4522816934,2844535.4633671,14.65899589959,0,0
-113.24533944458,10.829170966755,9.4634263426343,2278211.4955621,7098.4522816934,2844535.4633671,14.663426342634,0,0
-113.24533895901,10.813996660466,9.4678567856786,2278211.4955621,7098.4522816934,2844535.4633671,14.667856785679,0,0
-113.24533847343,10.798822354177,9.4722872287229,2278211.4955621,7098.4522816934,2844535.4633671,14.672287228723,0,0
-113.24533798786,10.783648047887,9.4767176717672,2278211.4955621,7098.4522816934,2844535.4633671,14.676717671767,0,0
-113.24533750228,10.768473741598,9.4811481148115,2278211.4955621,7098.4522816934,2844535.4633671,14.681148114811,0,0
-113.24533701671,10.753299435308,9.4855785578558,2278211.4955621,7098.4522816934,2844535.4633671,14.685578557856,0,0
-113.24533653113,10.738125129019,9.4900090009001,2278211.4955621,7098.4522816934,2844535.4633671,14.6900090009,0,0
-113.24533604556,10.72295082273,9.4944394439444,2278211.4955621,7098.4522816934,2844535.4633671,14.694439443944,0,0
-113.24533555998,10.70777651644,9.4988698869887,2278211.4955621,7098.4522816934,2844535.4633671,14.698869886989,0,0
-113.24533507441,10.692602210151,9.503300330033,2278211.4955621,7098.4522816934,2844535.4633671,14.703300330033,0,0
-113.24533458883,10.677427903861,9.5077307730773,2278211.4955621,7098.4522816934,2844535.4633671,14.707730773077,0,0
-113.24533410326,10.662253597572,9.5121612161216,2278211.4955621,7098.4522816934,2844535.4633671,14.712161216122,0,0
-113.24533361768,10.647079291283,9.5165916591659,2278211.4955621,7098.4522816934,2844535.4633671,14.716591659166,0,0
-113.24533313211,10.631904984993,9.5210221022102,2278211.4955621,7098.4522816934,2844535.4633671,14.72102210221,0,0
-113.24533264654,10.616730678704,9.5254525452545,2278211.4955621,7098.4522816934,2844535.4633671,14.725452545255,0,0
-113.24533216096,10.601556372415,9.5298829882988,2278211.4955621,7098.4522816934,2844535.4633671,14.729882988299,0,0
-113.24533167539,10.586382066125,9.5343134313431,2278211.4955621,7098.4522816934,2844535.4633671,14.734313431343,0,0
-113.24533118981,10.571207759836,9.5387438743874,2278211.4955621,7098.4522816934,2844535.4633671,14.738743874387,0,0
-113.24533070424,10.556033453546,9.5431743174317,2278211.4955621,7098.4522816934,2844535.4633671,14.743174317432,0,0
-113.24533021866,10.540859147257,9.547604760476,2278211.4955621,7098.4522816934,2844535.4633671,14.747604760476,0,0
-113.24532973309,10.525684840968,9.5520352035204,2278211.4955621,7098.4522816934,2844535.4633671,14.75203520352,0,0
-113.24532924751,10.510510534678,9.5564656465647,2278211.4955621,7098.4522816934,2844535.4633671,14.756465646565,0,0
-113.24532876194,10.495336228389,9.560896089609,2278211.4955621,7098.4522816934,2844535.4633671,14.760896089609,0,0
-113.24532827636,10.4801619221,9.5653265326533,2278211.4955621,7098.4522816934,2844535.4633671,14.765326532653,0,0
-113.24532779079,10.46498761581,9.5697569756976,2278211.4955621,7098.4522816934,2844535.4633671,14.769756975698,0,0
-113.24532730521,10.449813309521,9.5741874187419,2278211.4955621,7098.4522816934,2844535.4633671,14.774187418742,0,0
-113.24532681964,10.434639003231,9.5786178617862,2278211.4955621,7098.4522816934,2844535.4633671,14.778617861786,0,0
-113.24532633406,10.419464696942,9.5830483048305,2278211.4955621,7098.4522816934,2844535.4633671,14.78304830483,0,0
-113.24532584849,10.404290390653,9.5874787478748,2278211.4955621,7098.4522816934,2844535.4633671,14.787478747875,0,0
-113.24532536291,10.389116084363,9.5919091909191,2278211.4955621,7098.4522816934,2844535.4633671,14.791909190919,0,0
-113.24532487734,10.373941778074,9.5963396339634,2278211.4955621,7098.4522816934,2844535.4633671,14.796339633963,0,0
-113.24532439176,10.358767471785,9.6007700770077,2278211.4955621,7098.4522816934,2844535.4633671,14.800770077008,0,0
-113.24532390619,10.343593165495,9.605200520052,2278211.4955621,7098.4522816934,2844535.4633671,14.805200520052,0,0
-113.24532342062,10.328418859206,9.6096309630963,2278211.4955621,7098.4522816934,2844535.4633671,14.809630963096,0,0
-113.24532293504,10.313244552916,9.6140614061406,2278211.4955621,7098.4522816934,2844535.4633671,14.814061406141,0,0
-113.24532244947,10.298070246627,9.6184918491849,2278211.4955621,7098.4522816934,2844535.4633671,14.818491849185,0,0
-113.24532196389,10.282895940338,9.6229222922292,2278211.4955621,7098.4522816934,2844535.4633671,14.822922292229,0,0
-113.24532147832,10.267721634048,9.6273527352735,2278211.4955621,7098.4522816934,2844535.4633671,14.827352735274,0,0
-113.24532099274,10.252547327759,9.6317831783178,2278211.4955621,7098.4522816934,2844535.4633671,14.831783178318,0,0
-113.24532050717,10.23737302147,9.6362136213621,2278211.4955621,7098.4522816934,2844535.4633671,14.836213621362,0,0
-113.24532002159,10.22219871518,9.6406440644064,2278211.4955621,7098.4522816934,2844535.4633671,14.840644064406,0,0
-113.24531953602,10.207024408891,9.6450745074507,2278211.4955621,7098.4522816934,2844535.4633671,14.845074507451,0,0
-113.24531905044,10.191850102601,9.6495049504951,2278211.4955621,7098.4522816934,2844535.4633671,14.849504950495,0,0
-113.24531856487,10.176675796312,9.6539353935394,2278211.4955621,7098.4522816934,2844535.4633671,14.853935393539,0,0
-113.24531807929,10.161501490023,9.6583658365837,2278211.4955621,7098.4522816934,2844535.4633671,14.858365836584,0,0
-113.24531759372,10.146327183733,9.662796279628,2278211.4955621,7098.4522816934,2844535.4633671,14.862796279628,0,0
-113.24531710814,10.131152877444,9.6672267226723,2278211.4955621,7098.4522816934,2844535.4633671,14.867226722672,0,0
-113.24531662257,10.115978571154,9.6716571657166,2278211.4955621,7098.4522816934,2844535.4633671,14.871657165717,0,0
-113.24531613699,10.100804264865,9.6760876087609,2278211.4955621,7098.4522816934,2844535.4633671,14.876087608761,0,0
-113.24531565142,10.085629958576,9.6805180518052,2278211.4955621,7098.4522816934,2844535.4633671,14.880518051805,0,0
-113.24531516584,10.070455652286,9.6849484948495,2278211.4955621,7098.4522816934,2844535.4633671,14.884948494849,0,0
-113.24531468027,10.055281345997,9.6893789378938,2278211.4955621,7098.4522816934,2844535.4633671,14.889378937894,0,0
-113.2453141947,10.040107039708,9.6938093809381,2278211.4955621,7098.4522816934,2844535.4633671,14.893809380938,0,0
-113.24531370912,10.024932733418,9.6982398239824,2278211.4955621,7098.4522816934,2844535.4633671,14.898239823982,0,0
-113.24531322355,10.009758427129,9.7026702670267,2278211.4955621,7098.4522816934,2844535.4633671,14.902670267027,0,0
-113.24531273797,9.9945841208395,9.707100710071,2278211.4955621,7098.4522816934,2844535.4633671,14.907100710071,0,0
-113.2453122524,9.9794098145501,9.7115311531153,2278211.4955621,7098.4522816934,2844535.4633671,14.911531153115,0,0
-113.24531176682,9.9642355082607,9.7159615961596,2278211.4955621,7098.4522816934,2844535.4633671,14.91596159616,0,0
-113.24531128125,9.9490612019713,9.7203920392039,2278211.4955621,7098.4522816934,2844535.4633671,14.920392039204,0,0
-113.24531079567,9.933886895682,9.7248224822482,2278211.4955621,7098.4522816934,2844535.4633671,14.924822482248,0,0
-113.2453103101,9.9187125893926,9.7292529252925,2278211.4955621,7098.4522816934,2844535.4633671,14.929252925293,0,0
-113.24530982452,9.9035382831032,9.7336833683368,2278211.4955621,7098.4522816934,2844535.4633671,14.933683368337,0,0
-113.24530933895,9.8883639768138,9.7381138113811,2278211.4955621,7098.4522816934,2844535.4633671,14.938113811381,0,0
-113.24530885337,9.8731896705244,9.7425442544254,2278211.4955621,7098.4522816934,2844535.4633671,14.942544254425,0,0
-113.2453083678,9.8580153642351,9.7469746974697,2278211.4955621,7098.4522816934,2844535.4633671,14.94697469747,0,0
-113.24530788222,9.8428410579457,9.7514051405141,2278211.4955621,7098.4522816934,2844535.4633671,14.951405140514,0,0
-113.24530739665,9.8276667516563,9.7558355835584,2278211.4955621,7098.4522816934,2844535.4633671,14.955835583558,0,0
-113.24530691107,9.8124924453669,9.7602660266027,2278211.4955621,7098.4522816934,2844535.4633671,14.960266026603,0,0
-113.2453064255,9.7973181390776,9.764696469647,2278211.4955621,7098.4522816934,2844535.4633671,14.964696469647,0,0
-113.24530593992,9.7821438327882,9.7691269126913,2278211.4955621,7098.4522816934,2844535.4633671,14.969126912691,0,0
-113.24530545435,9.7669695264988,9.7735573557356,2278211.4955621,7098.4522816934,2844535.4633671,14.973557355736,0,0
-113.24530496878,9.7517952202094,9.7779877987799,2278211.4955621,7098.4522816934,2844535.4633671,14.97798779878,0,0
-113.2453044832,9.73662091392,9.7824182418242,2278211.4955621,7098.4522816934,2844535.4633671,14.982418241824,0,0
-113.24530399763,9.7214466076307,9.7868486848685,2278211.4955621,7098.4522816934,2844535.4633671,14.986848684868,0,0
-113.24530351205,9.7062723013413,9.7912791279128,2278211.4955621,7098.4522816934,2844535.4633671,14.991279127913,0,0
-113.24530302648,9.6910979950519,9.7957095709571,2278211.4955621,7098.4522816934,2844535.4633671,14.995709570957,0,0
-113.2453025409,9.6759236887625,9.8001400140014,2278211.4955621,7098.4522816934,2844535.4633671,15.000140014001,0,0
-113.24530205533,9.6607493824731,9.8045704570457,2278211.4955621,7098.4522816934,2844535.4633671,15.004570457046,0,0
-113.24530156975,9.6455750761838,9.80900090009,2278211.4955621,7098.4522816934,2844535.4633671,15.00900090009,0,0
-113.24530108418,9.6304007698944,9.8134313431343,2278211.4955621,7098.4522816934,2844535.4633671,15.013431343134,0,0
-113.2453005986,9.615226463605,9.8178617861786,2278211.4955621,7098.4522816934,2844535.4633671,15.017861786179,0,0
-113.24530011303,9.6000521573156,9.8222922292229,2278211.4955621,7098.4522816934,2844535.4633671,15.022292229223,0,0
-113.24529962745,9.5848778510263,9.8267226722672,2278211.4955621,7098.4522816934,2844535.4633671,15.026722672267,0,0
-113.24529914188,9.5697035447369,9.8311531153115,2278211.4955621,7098.4522816934,2844535.4633671,15.031153115312,0,0
-113.2452986563,9.5545292384475,9.8355835583558,2278211.4955621,7098.4522816934,2844535.4633671,15.035583558356,0,0
-113.24529817073,9.5393549321581,9.8400140014001,2278211.4955621,7098.4522816934,2844535.4633671,15.0400140014,0,0
-113.24529768515,9.5241806258687,9.8444444444444,2278211.4955621,7098.4522816934,2844535.4633671,15.044444444444,0,0
-113.24529719958,9.5090063195794,9.8488748874887,2278211.4955621,7098.4522816934,2844535.4633671,15.048874887489,0,0
-113.245296714,9.49383201329,9.8533053305331,2278211.4955621,7098.4522816934,2844535.4633671,15.053305330533,0,0
-113.24529622843,9.4786577070006,9.8577357735774,2278211.4955621,7098.4522816934,2844535.4633671,15.057735773577,0,0
-113.24529574286,9.4634834007112,9.8621662166217,2278211.4955621,7098.4522816934,2844535.4633671,15.062166216622,0,0
-113.24529525728,9.4483090944219,9.866596659666,2278211.4955621,7098.4522816934,2844535.4633671,15.066596659666,0,0
-113.24529477171,9.4331347881325,9.8710271027103,2278211.4955621,7098.4522816934,2844535.4633671,15.07102710271,0,0
-113.24529428613,9.4179604818431,9.8754575457546,2278211.4955621,7098.4522816934,2844535.4633671,15.075457545755,0,0
-113.24529380056,9.4027861755537,9.8798879887989,2278211.4955621,7098.4522816934,2844535.4633671,15.079887988799,0,0
-113.24529331498,9.3876118692643,9.8843184318432,2278211.4955621,7098.4522816934,2844535.4633671,15.084318431843,0,0
-113.24529282941,9.372437562975,9.8887488748875,2278211.4955621,7098.4522816934,2844535.4633671,15.088748874887,0,0
-113.24529234383,9.3572632566856,9.8931793179318,2278211.4955621,7098.4522816934,2844535.4633671,15.093179317932,0,0
-113.24529185826,9.3420889503962,9.8976097609761,2278211.4955621,7098.4522816934,2844535.4633671,15.097609760976,0,0
-113.24529137268,9.3269146441068,9.9020402040204,2278211.4955621,7098.4522816934,2844535.4633671,15.10204020402,0,0
-113.24529088711,9.3117403378175,9.9064706470647,2278211.4955621,7098.4522816934,2844535.4633671,15.106470647065,0,0
-113.24529040153,9.2965660315281,9.910901090109,2278211.4955621,7098.4522816934,2844535.4633671,15.110901090109,0,0
-113.24528991596,9.2813917252387,9.9153315331533,2278211.4955621,7098.4522816934,2844535.4633671,15.115331533153,0,0
-113.24528943038,9.2662174189493,9.9197619761976,2278211.4955621,7098.4522816934,2844535.4633671,15.119761976198,0,0
-113.24528894481,9.2510431126599,9.9241924192419,2278211.4955621,7098.4522816934,2844535.4633671,15.124192419242,0,0
-113.24528845923,9.2358688063706,9.9286228622862,2278211.4955621,7098.4522816934,2844535.4633671,15.128622862286,0,0
-113.24528797366,9.2206945000812,9.9330533053305,2278211.4955621,7098.4522816934,2844535.4633671,15.133053305331,0,0
-113.24528748808,9.2055201937918,9.9374837483748,2278211.4955621,7098.4522816934,2844535.4633671,15.137483748375,0,0
-113.24528700251,9.1903458875024,9.9419141914191,2278211.4955621,7098.4522816934,2844535.4633671,15.141914191419,0,0
-113.24528651693,9.175171581213,9.9463446344634,2278211.4955621,7098.4522816934,2844535.4633671,15.146344634463,0,0
-113.24528603136,9.1599972749237,9.9507750775077,2278211.4955621,7098.4522816934,2844535.4633671,15.150775077508,0,0
-113.24528554579,9.1448229686343,9.9552055205521,2278211.4955621,7098.4522816934,2844535.4633671,15.155205520552,0,0
-113.24528506021,9.1296486623449,9.9596359635964,2278211.4955621,7098.4522816934,2844535.4633671,15.159635963596,0,0
-113.24528457464,9.1144743560555,9.9640664066407,2278211.4955621,7098.4522816934,2844535.4633671,15.164066406641,0,0
-113.24528408906,9.0993000497662,9.968496849685,2278211.4955621,7098.4522816934,2844535.4633671,15.168496849685,0,0
-113.24528360349,9.0841257434768,9.9729272927293,2278211.4955621,7098.4522816934,2844535.4633671,15.172927292729,0,0
-113.24528311791,9.0689514371874,9.9773577357736,2278211.4955621,7098.4522816934,2844535.4633671,15.177357735774,0,0
-113.24528263234,9.053777130898,9.9817881788179,2278211.4955621,7098.4522816934,2844535.4633671,15.181788178818,0,0
-113.24528214676,9.0386028246086,9.9862186218622,2278211.4955621,7098.4522816934,2844535.4633671,15.186218621862,0,0
-113.24528166119,9.0234285183193,9.9906490649065,2278211.4955621,7098.4522816934,2844535.4633671,15.190649064906,0,0
-113.24528117561,9.0082542120299,9.9950795079508,2278211.4955621,7098.4522816934,2844535.4633671,15.195079507951,0,0
-113.24528069004,8.9930799057405,9.9995099509951,2278211.4955621,7098.4522816934,2844535.4633671,15.199509950995,0,0
-113.24528020446,8.9779055994511,10.003940394039,2278211.4955621,7098.4522816934,2844535.4633671,15.203940394039,0,0
-113.24527971889,8.9627312931618,10.008370837084,2278211.4955621,7098.4522816934,2844535.4633671,15.208370837084,0,0
-113.24527923331,8.9475569868724,10.012801280128,2278211.4955621,7098.4522816934,2844535.4633671,15.212801280128,0,0
-113.24527874774,8.932382680583,10.017231723172,2278211.4955621,7098.4522816934,2844535.4633671,15.217231723172,0,0
-113.24527826216,8.9172083742936,10.021662166217,2278211.4955621,7098.4522816934,2844535.4633671,15.221662166217,0,0
-113.24527777659,8.9020340680042,10.026092609261,2278211.4955621,7098.4522816934,2844535.4633671,15.226092609261,0,0
-113.24527729101,8.8868597617149,10.030523052305,2278211.4955621,7098.4522816934,2844535.4633671,15.230523052305,0,0
-113.24527680544,8.8716854554255,10.03495349535,2278211.4955621,7098.4522816934,2844535.4633671,15.23495349535,0,0
-113.24527631987,8.8565111491361,10.039383938394,2278211.4955621,7098.4522816934,2844535.4633671,15.239383938394,0,0
-113.24527583429,8.8413368428467,10.043814381438,2278211.4955621,7098.4522816934,2844535.4633671,15.243814381438,0,0
-113.24527534872,8.8261625365573,10.048244824482,2278211.4955621,7098.4522816934,2844535.4633671,15.248244824482,0,0
-113.24527486314,8.810988230268,10.052675267527,2278211.4955621,7098.4522816934,2844535.4633671,15.252675267527,0,0
-113.24527437757,8.7958139239786,10.057105710571,2278211.4955621,7098.4522816934,2844535.4633671,15.257105710571,0,0
-113.24527389199,8.7806396176892,10.061536153615,2278211.4955621,7098.4522816934,2844535.4633671,15.261536153615,0,0
-113.24527340642,8.7654653113998,10.06596659666,2278211.4955621,7098.4522816934,2844535.4633671,15.26596659666,0,0
-113.24527292084,8.7502910051105,10.070397039704,2278211.4955621,7098.4522816934,2844535.4633671,15.270397039704,0,0
-113.24527243527,8.7351166988211,10.074827482748,2278211.4955621,7098.4522816934,2844535.4633671,15.274827482748,0,0
-113.24527194969,8.7199423925317,10.079257925793,2278211.4955621,7098.4522816934,2844535.4633671,15.279257925793,0,0
-113.24527146412,8.7047680862423,10.083688368837,2278211.4955621,7098.4522816934,2844535.4633671,15.283688368837,0,0
-113.24527097854,8.6895937799529,10.088118811881,2278211.4955621,7098.4522816934,2844535.4633671,15.288118811881,0,0
-113.24527049297,8.6744194736635,10.092549254925,2278211.4955621,7098.4522816934,2844535.4633671,15.292549254925,0,0
-113.24527000739,8.6592451673742,10.09697969797,2278211.4955621,7098.4522816934,2844535.4633671,15.29697969797,0,0
-113.24526952182,8.6440708610848,10.101410141014,2278211.4955621,7098.4522816934,2844535.4633671,15.301410141014,0,0
-113.24526903624,8.6288965547954,10.105840584058,2278211.4955621,7098.4522816934,2844535.4633671,15.305840584058,0,0
-113.24526855067,8.6137222485061,10.110271027103,2278211.4955621,7098.4522816934,2844535.4633671,15.310271027103,0,0
-113.24526806509,8.5985479422167,10.114701470147,2278211.4955621,7098.4522816934,2844535.4633671,15.314701470147,0,0
-113.24526757952,8.5833736359273,10.119131913191,2278211.4955621,7098.4522816934,2844535.4633671,15.319131913191,0,0
-113.24526709395,8.5681993296379,10.123562356236,2278211.4955621,7098.4522816934,2844535.4633671,15.323562356236,0,0
-113.24526660837,8.5530250233485,10.12799279928,2278211.4955621,7098.4522816934,2844535.4633671,15.32799279928,0,0
-113.2452661228,8.5378507170592,10.132423242324,2278211.4955621,7098.4522816934,2844535.4633671,15.332423242324,0,0
-113.24526563722,8.5226764107698,10.136853685369,2278211.4955621,7098.4522816934,2844535.4633671,15.336853685369,0,0
-113.24526515165,8.5075021044804,10.141284128413,2278211.4955621,7098.4522816934,2844535.4633671,15.341284128413,0,0
-113.24526466607,8.492327798191,10.145714571457,2278211.4955621,7098.4522816934,2844535.4633671,15.345714571457,0,0
-113.2452641805,8.4771534919016,10.150145014501,2278211.4955621,7098.4522816934,2844535.4633671,15.350145014501,0,0
-113.24526369492,8.4619791856123,10.154575457546,2278211.4955621,7098.4522816934,2844535.4633671,15.354575457546,0,0
-113.24526320935,8.4468048793229,10.15900590059,2278211.4955621,7098.4522816934,2844535.4633671,15.35900590059,0,0
-113.24526272377,8.4316305730335,10.163436343634,2278211.4955621,7098.4522816934,2844535.4633671,15.363436343634,0,0
-113.2452622382,8.4164562667441,10.167866786679,2278211.4955621,7098.4522816934,2844535.4633671,15.367866786679,0,0
-113.24526175262,8.4012819604548,10.172297229723,2278211.4955621,7098.4522816934,2844535.4633671,15.372297229723,0,0
-113.24526126705,8.3861076541654,10.176727672767,2278211.4955621,7098.4522816934,2844535.4633671,15.376727672767,0,0
-113.24526078147,8.370933347876,10.181158115812,2278211.4955621,7098.4522816934,2844535.4633671,15.381158115812,0,0
-113.2452602959,8.3557590415866,10.185588558856,2278211.4955621,7098.4522816934,2844535.4633671,15.385588558856,0,0
-113.24525981032,8.3405847352972,10.1900190019,2278211.4955621,7098.4522816934,2844535.4633671,15.3900190019,0,0
-113.24525932475,8.3254104290079,10.194449444944,2278211.4955621,7098.4522816934,2844535.4633671,15.394449444944,0,0
-113.24525883917,8.3102361227185,10.198879887989,2278211.4955621,7098.4522816934,2844535.4633671,15.398879887989,0,0
-113.2452583536,8.2950618164291,10.203310331033,2278211.4955621,7098.4522816934,2844535.4633671,15.403310331033,0,0
-113.24525786803,8.2798875101397,10.207740774077,2278211.4955621,7098.4522816934,2844535.4633671,15.407740774077,0,0
-113.24525738245,8.2647132038504,10.212171217122,2278211.4955621,7098.4522816934,2844535.4633671,15.412171217122,0,0
-113.2452568942,8.2495389004611,10.216601660166,2306308.6140862,13452.212585544,2835575.2955356,15.416601660166,0,0
-113.24525640371,8.2343645994963,10.22103210321,2306308.6140862,13452.212585544,2835575.2955356,15.42103210321,0,0
-113.24525591321,8.2191902985315,10.225462546255,2306308.6140862,13452.212585544,2835575.2955356,15.425462546255,0,0
-113.24525542272,8.2040159975667,10.229892989299,2306308.6140862,13452.212585544,2835575.2955356,15.429892989299,0,0
-113.24525493223,8.1888416966019,10.234323432343,2306308.6140862,13452.212585544,2835575.2955356,15.434323432343,0,0
-113.24525444174,8.1736673956372,10.238753875388,2306308.6140862,13452.212585544,2835575.2955356,15.438753875388,0,0
-113.24525395125,8.1584930946724,10.243184318432,2306308.6140862,13452.212585544,2835575.2955356,15.443184318432,0,0
-113.24525346076,8.1433187937076,10.247614761476,2306308.6140862,13452.212585544,2835575.2955356,15.447614761476,0,0
-113.24525297026,8.1281444927428,10.25204520452,2306308.6140862,13452.212585544,2835575.2955356,15.45204520452,0,0
-113.24525247977,8.112970191778,10.256475647565,2306308.6140862,13452.212585544,2835575.2955356,15.456475647565,0,0
-113.24525198928,8.0977958908132,10.260906090609,2306308.6140862,13452.212585544,2835575.2955356,15.460906090609,0,0
-113.24525149879,8.0826215898484,10.265336533653,2306308.6140862,13452.212585544,2835575.2955356,15.465336533653,0,0
-113.2452510083,8.0674472888836,10.269766976698,2306308.6140862,13452.212585544,2835575.2955356,15.469766976698,0,0
-113.24525051781,8.0522729879188,10.274197419742,2306308.6140862,13452.212585544,2835575.2955356,15.474197419742,0,0
-113.24525002731,8.037098686954,10.278627862786,2306308.6140862,13452.212585544,2835575.2955356,15.478627862786,0,0
-113.24524953682,8.0219243859892,10.283058305831,2306308.6140862,13452.212585544,2835575.2955356,15.483058305831,0,0
-113.24524904633,8.0067500850244,10.287488748875,2306308.6140862,13452.212585544,2835575.2955356,15.487488748875,0,0
-113.24524855584,7.9915757840596,10.291919191919,2306308.6140862,13452.212585544,2835575.2955356,15.491919191919,0,0
-113.24524806535,7.9764014830949,10.296349634963,2306308.6140862,13452.212585544,2835575.2955356,15.496349634963,0,0
-113.24524757486,7.9612271821301,10.300780078008,2306308.6140862,13452.212585544,2835575.2955356,15.500780078008,0,0
-113.24524708437,7.9460528811653,10.305210521052,2306308.6140862,13452.212585544,2835575.2955356,15.505210521052,0,0
-113.24524659387,7.9308785802005,10.309640964096,2306308.6140862,13452.212585544,2835575.2955356,15.509640964096,0,0
-113.24524610338,7.9157042792357,10.314071407141,2306308.6140862,13452.212585544,2835575.2955356,15.514071407141,0,0
-113.24524561289,7.9005299782709,10.318501850185,2306308.6140862,13452.212585544,2835575.2955356,15.518501850185,0,0
-113.2452451224,7.8853556773061,10.322932293229,2306308.6140862,13452.212585544,2835575.2955356,15.522932293229,0,0
-113.24524463191,7.8701813763413,10.327362736274,2306308.6140862,13452.212585544,2835575.2955356,15.527362736274,0,0
-113.24524414142,7.8550070753765,10.331793179318,2306308.6140862,13452.212585544,2835575.2955356,15.531793179318,0,0
-113.24524365092,7.8398327744117,10.336223622362,2306308.6140862,13452.212585544,2835575.2955356,15.536223622362,0,0
-113.24524316043,7.8246584734469,10.340654065407,2306308.6140862,13452.212585544,2835575.2955356,15.540654065407,0,0
-113.24524266994,7.8094841724821,10.345084508451,2306308.6140862,13452.212585544,2835575.2955356,15.545084508451,0,0
-113.24524217945,7.7943098715173,10.349514951495,2306308.6140862,13452.212585544,2835575.2955356,15.549514951495,0,0
-113.24524168896,7.7791355705525,10.353945394539,2306308.6140862,13452.212585544,2835575.2955356,15.553945394539,0,0
-113.24524119847,7.7639612695877,10.358375837584,2306308.6140862,13452.212585544,2835575.2955356,15.558375837584,0,0
-113.24524070797,7.748786968623,10.362806280628,2306308.6140862,13452.212585544,2835575.2955356,15.562806280628,0,0
-113.24524021748,7.7336126676582,10.367236723672,2306308.6140862,13452.212585544,2835575.2955356,15.567236723672,0,0
-113.24523972699,7.7184383666934,10.371667166717,2306308.6140862,13452.212585544,2835575.2955356,15.571667166717,0,0
-113.2452392365,7.7032640657286,10.376097609761,2306308.6140862,13452.212585544,2835575.2955356,15.576097609761,0,0
-113.24523874601,7.6880897647638,10.380528052805,2306308.6140862,13452.212585544,2835575.2955356,15.580528052805,0,0
-113.24523825552,7.672915463799,10.38495849585,2306308.6140862,13452.212585544,2835575.2955356,15.58495849585,0,0
-113.24523776502,7.6577411628342,10.389388938894,2306308.6140862,13452.212585544,2835575.2955356,15.589388938894,0,0
-113.24523727453,7.6425668618694,10.393819381938,2306308.6140862,13452.212585544,2835575.2955356,15.593819381938,0,0
-113.24523678289,7.6273925580584,10.398249824982,2313703.3944174,2910.6283179874,2809315.5892884,15.598249824982,0,0
-113.24523628987,7.6122182508268,10.402680268027,2313703.3944174,2910.6283179874,2809315.5892884,15.602680268027,0,0
-113.24523579685,7.5970439435951,10.407110711071,2313703.3944174,2910.6283179874,2809315.5892884,15.607110711071,0,0
-113.24523530383,7.5818696363634,10.411541154115,2313703.3944174,2910.6283179874,2809315.5892884,15.611541154115,0,0
-113.2452348108,7.5666953291318,10.41597159716,2313703.3944174,2910.6283179874,2809315.5892884,15.61597159716,0,0
-113.24523431778,7.5515210219001,10.420402040204,2313703.3944174,2910.6283179874,2809315.5892884,15.620402040204,0,0
-113.24523382476,7.5363467146684,10.424832483248,2313703.3944174,2910.6283179874,2809315.5892884,15.624832483248,0,0
-113.24523333174,7.5211724074368,10.429262926293,2313703.3944174,2910.6283179874,2809315.5892884,15.629262926293,0,0
-113.24523283872,7.5059981002051,10.433693369337,2313703.3944174,2910.6283179874,2809315.5892884,15.633693369337,0,0
-113.2452323457,7.4908237929734,10.438123812381,2313703.3944174,2910.6283179874,2809315.5892884,15.638123812381,0,0
-113.24523185267,7.4756494857418,10.442554255426,2313703.3944174,2910.6283179874,2809315.5892884,15.642554255426,0,0
-113.24523135965,7.4604751785101,10.44698469847,2313703.3944174,2910.6283179874,2809315.5892884,15.64698469847,0,0
-113.24523086663,7.4453008712784,10.451415141514,2313703.3944174,2910.6283179874,2809315.5892884,15.651415141514,0,0
-113.24523037361,7.4301265640468,10.455845584558,2313703.3944174,2910.6283179874,2809315.5892884,15.655845584558,0,0
-113.24522988059,7.4149522568151,10.460276027603,2313703.3944174,2910.6283179874,2809315.5892884,15.660276027603,0,0
-113.24522938757,7.3997779495834,10.464706470647,2313703.3944174,2910.6283179874,2809315.5892884,15.664706470647,0,0
-113.24522889454,7.3846036423518,10.469136913691,2313703.3944174,2910.6283179874,2809315.5892884,15.669136913691,0,0
-113.24522840152,7.3694293351201,10.473567356736,2313703.3944174,2910.6283179874,2809315.5892884,15.673567356736,0,0
-113.2452279085,7.3542550278884,10.47799779978,2313703.3944174,2910.6283179874,2809315.5892884,15.67799779978,0,0
-113.24522741548,7.3390807206567,10.482428242824,2313703.3944174,2910.6283179874,2809315.5892884,15.682428242824,0,0
-113.24522692246,7.3239064134251,10.486858685869,2313703.3944174,2910.6283179874,2809315.5892884,15.686858685869,0,0
-113.24522642944,7.3087321061934,10.491289128913,2313703.3944174,2910.6283179874,2809315.5892884,15.691289128913,0,0
-113.24522593641,7.2935577989618,10.495719571957,2313703.3944174,2910.6283179874,2809315.5892884,15.695719571957,0,0
-113.24522544339,7.2783834917301,10.500150015001,2313703.3944174,2910.6283179874,2809315.5892884,15.700150015001,0,0
-113.24522495037,7.2632091844984,10.504580458046,2313703.3944174,2910.6283179874,2809315.5892884,15.704580458046,0,0
-113.24522445735,7.2480348772668,10.50901090109,2313703.3944174,2910.6283179874,2809315.5892884,15.70901090109,0,0
-113.24522396433,7.2328605700351,10.513441344134,2313703.3944174,2910.6283179874,2809315.5892884,15.713441344134,0,0
-113.24522347131,7.2176862628034,10.517871787179,2313703.3944174,2910.6283179874,2809315.5892884,15.717871787179,0,0
-113.24522297828,7.2025119555717,10.522302230223,2313703.3944174,2910.6283179874,2809315.5892884,15.722302230223,0,0
-113.24522248526,7.1873376483401,10.526732673267,2313703.3944174,2910.6283179874,2809315.5892884,15.726732673267,0,0
-113.24522199224,7.1721633411084,10.531163116312,2313703.3944174,2910.6283179874,2809315.5892884,15.731163116312,0,0
-113.24522149922,7.1569890338768,10.535593559356,2313703.3944174,2910.6283179874,2809315.5892884,15.735593559356,0,0
-113.2452210062,7.1418147266451,10.5400240024,2313703.3944174,2910.6283179874,2809315.5892884,15.7400240024,0,0
-113.24522051317,7.1266404194134,10.544454445445,2313703.3944174,2910.6283179874,2809315.5892884,15.744454445445,0,0
-113.24522002015,7.1114661121817,10.548884888489,2313703.3944174,2910.6283179874,2809315.5892884,15.748884888489,0,0
-113.24521952713,7.0962918049501,10.553315331533,2313703.3944174,2910.6283179874,2809315.5892884,15.753315331533,0,0
-113.24521903411,7.0811174977184,10.557745774577,2313703.3944174,2910.6283179874,2809315.5892884,15.757745774577,0,0
-113.24521854109,7.0659431904867,10.562176217622,2313703.3944174,2910.6283179874,2809315.5892884,15.762176217622,0,0
-113.24521804807,7.0507688832551,10.566606660666,2313703.3944174,2910.6283179874,2809315.5892884,15.766606660666,0,0
-113.24521755504,7.0355945760234,10.57103710371,2313703.3944174,2910.6283179874,2809315.5892884,15.77103710371,0,0
-113.24521706202,7.0204202687917,10.575467546755,2313703.3944174,2910.6283179874,2809315.5892884,15.775467546755,0,0
-113.245216569,7.0052459615601,10.579897989799,2313703.3944174,2910.6283179874,2809315.5892884,15.779897989799,0,0
-113.24521607598,6.9900716543284,10.584328432843,2313703.3944174,2910.6283179874,2809315.5892884,15.784328432843,0,0
-113.24521558296,6.9748973470967,10.588758875888,2313703.3944174,2910.6283179874,2809315.5892884,15.788758875888,0,0
-113.24521508994,6.9597230398651,10.593189318932,2313703.3944174,2910.6283179874,2809315.5892884,15.793189318932,0,0
-113.24521459691,6.9445487326334,10.597619761976,2313703.3944174,2910.6283179874,2809315.5892884,15.797619761976,0,0
-113.24521410389,6.9293744254017,10.602050205021,2313703.3944174,2910.6283179874,2809315.5892884,15.80205020502,0,0
-113.24521361087,6.9142001181701,10.606480648065,2313703.3944174,2910.6283179874,2809315.5892884,15.806480648065,0,0
-113.24521311785,6.8990258109384,10.610911091109,2313703.3944174,2910.6283179874,2809315.5892884,15.810911091109,0,0
-113.24521262483,6.8838515037067,10.615341534153,2313703.3944174,2910.6283179874,2809315.5892884,15.815341534153,0,0
-113.24521213181,6.8686771964751,10.619771977198,2313703.3944174,2910.6283179874,2809315.5892884,15.819771977198,0,0
-113.24521163878,6.8535028892434,10.624202420242,2313703.3944174,2910.6283179874,2809315.5892884,15.824202420242,0,0
-113.24521114576,6.8383285820117,10.628632863286,2313703.3944174,2910.6283179874,2809315.5892884,15.828632863286,0,0
-113.24521065274,6.8231542747801,10.633063306331,2313703.3944174,2910.6283179874,2809315.5892884,15.833063306331,0,0
-113.24521015972,6.8079799675484,10.637493749375,2313703.3944174,2910.6283179874,2809315.5892884,15.837493749375,0,0
-113.2452096667,6.7928056603167,10.641924192419,2313703.3944174,2910.6283179874,2809315.5892884,15.841924192419,0,0
-113.24520917368,6.7776313530851,10.646354635464,2313703.3944174,2910.6283179874,2809315.5892884,15.846354635464,0,0
-113.24520868065,6.7624570458534,10.650785078508,2313703.3944174,2910.6283179874,2809315.5892884,15.850785078508,0,0
-113.24520818763,6.7472827386217,10.655215521552,2313703.3944174,2910.6283179874,2809315.5892884,15.855215521552,0,0
-113.24520769461,6.7321084313901,10.659645964596,2313703.3944174,2910.6283179874,2809315.5892884,15.859645964596,0,0
-113.24520720159,6.7169341241584,10.664076407641,2313703.3944174,2910.6283179874,2809315.5892884,15.864076407641,0,0
-113.24520670857,6.7017598169267,10.668506850685,2313703.3944174,2910.6283179874,2809315.5892884,15.868506850685,0,0
-113.24520621555,6.6865855096951,10.672937293729,2313703.3944174,2910.6283179874,2809315.5892884,15.872937293729,0,0
-113.24520572252,6.6714112024634,10.677367736774,2313703.3944174,2910.6283179874,2809315.5892884,15.877367736774,0,0
-113.2452052295,6.6562368952317,10.681798179818,2313703.3944174,2910.6283179874,2809315.5892884,15.881798179818,0,0
-113.24520473648,6.6410625880001,10.686228622862,2313703.3944174,2910.6283179874,2809315.5892884,15.886228622862,0,0
-113.24520424346,6.6258882807684,10.690659065907,2313703.3944174,2910.6283179874,2809315.5892884,15.890659065907,0,0
-113.24520375044,6.6107139735367,10.695089508951,2313703.3944174,2910.6283179874,2809315.5892884,15.895089508951,0,0
-113.24520325741,6.5955396663051,10.699519951995,2313703.3944174,2910.6283179874,2809315.5892884,15.899519951995,0,0
-113.24520276439,6.5803653590734,10.70395039504,2313703.3944174,2910.6283179874,2809315.5892884,15.90395039504,0,0
-113.24520227137,6.5651910518417,10.708380838084,2313703.3944174,2910.6283179874,2809315.5892884,15.908380838084,0,0
-113.24520177835,6.5500167446101,10.712811281128,2313703.3944174,2910.6283179874,2809315.5892884,15.912811281128,0,0
-113.24520128533,6.5348424373784,10.717241724172,2313703.3944174,2910.6283179874,2809315.5892884,15.917241724172,0,0
-113.24520079231,6.5196681301467,10.721672167217,2313703.3944174,2910.6283179874,2809315.5892884,15.921672167217,0,0
-113.24520029928,6.5044938229151,10.726102610261,2313703.3944174,2910.6283179874,2809315.5892884,15.926102610261,0,0
-113.24519980626,6.4893195156834,10.730533053305,2313703.3944174,2910.6283179874,2809315.5892884,15.930533053305,0,0
-113.24519931324,6.4741452084517,10.73496349635,2313703.3944174,2910.6283179874,2809315.5892884,15.93496349635,0,0
-113.24519882022,6.4589709012201,10.739393939394,2313703.3944174,2910.6283179874,2809315.5892884,15.939393939394,0,0
-113.2451983272,6.4437965939884,10.743824382438,2313703.3944174,2910.6283179874,2809315.5892884,15.943824382438,0,0
-113.24519783418,6.4286222867567,10.748254825483,2313703.3944174,2910.6283179874,2809315.5892884,15.948254825483,0,0
-113.24519734115,6.4134479795251,10.752685268527,2313703.3944174,2910.6283179874,2809315.5892884,15.952685268527,0,0
-113.24519684813,6.3982736722934,10.757115711571,2313703.3944174,2910.6283179874,2809315.5892884,15.957115711571,0,0
-113.24519635511,6.3830993650617,10.761546154615,2313703.3944174,2910.6283179874,2809315.5892884,15.961546154615,0,0
-113.24519586209,6.3679250578301,10.76597659766,2313703.3944174,2910.6283179874,2809315.5892884,15.96597659766,0,0
-113.24519536907,6.3527507505984,10.770407040704,2313703.3944174,2910.6283179874,2809315.5892884,15.970407040704,0,0
-113.24519487605,6.3375764433667,10.774837483748,2313703.3944174,2910.6283179874,2809315.5892884,15.974837483748,0,0
-113.24519438302,6.3224021361351,10.779267926793,2313703.3944174,2910.6283179874,2809315.5892884,15.979267926793,0,0
-113.24519389,6.3072278289034,10.783698369837,2313703.3944174,2910.6283179874,2809315.5892884,15.983698369837,0,0
-113.24519339698,6.2920535216717,10.788128812881,2313703.3944174,2910.6283179874,2809315.5892884,15.988128812881,0,0
-113.24519290396,6.2768792144401,10.792559255926,2313703.3944174,2910.6283179874,2809315.5892884,15.992559255926,0,0
-113.24519241094,6.2617049072084,10.79698969897,2313703.3944174,2910.6283179874,2809315.5892884,15.99698969897,0,0
-113.24519191792,6.2465305999767,10.801420142014,2313703.3944174,2910.6283179874,2809315.5892884,16.001420142014,0,0
-113.24519142489,6.2313562927451,10.805850585059,2313703.3944174,2910.6283179874,2809315.5892884,16.005850585059,0,0
-113.24519093187,6.2161819855134,10.810281028103,2313703.3944174,2910.6283179874,2809315.5892884,16.010281028103,0,0
-113.24519043885,6.2010076782817,10.814711471147,2313703.3944174,2910.6283179874,2809315.5892884,16.014711471147,0,0
-113.24518994583,6.1858333710501,10.819141914191,2313703.3944174,2910.6283179874,2809315.5892884,16.019141914191,0,0
-113.24518945281,6.1706590638184,10.823572357236,2313703.3944174,2910.6283179874,2809315.5892884,16.023572357236,0,0
-113.24518895978,6.1554847565867,10.82800280028,2313703.3944174,2910.6283179874,2809315.5892884,16.02800280028,0,0
-113.24518846676,6.1403104493551,10.832433243324,2313703.3944174,2910.6283179874,2809315.5892884,16.032433243324,0,0
-113.24518797374,6.1251361421234,10.836863686369,2313703.3944174,2910.6283179874,2809315.5892884,16.036863686369,0,0
-113.24518748072,6.1099618348917,10.841294129413,2313703.3944174,2910.6283179874,2809315.5892884,16.041294129413,0,0
-113.2451869877,6.0947875276601,10.845724572457,2313703.3944174,2910.6283179874,2809315.5892884,16.045724572457,0,0
-113.24518649468,6.0796132204284,10.850155015502,2313703.3944174,2910.6283179874,2809315.5892884,16.050155015502,0,0
-113.24518600165,6.0644389131967,10.854585458546,2313703.3944174,2910.6283179874,2809315.5892884,16.054585458546,0,0
-113.24518550863,6.0492646059651,10.85901590159,2313703.3944174,2910.6283179874,2809315.5892884,16.05901590159,0,0
-113.24518501561,6.0340902987334,10.863446344634,2313703.3944174,2910.6283179874,2809315.5892884,16.063446344634,0,0
-113.24518452259,6.0189159915017,10.867876787679,2313703.3944174,2910.6283179874,2809315.5892884,16.067876787679,0,0
-113.24518402957,6.00374168427,10.872307230723,2313703.3944174,2910.6283179874,2809315.5892884,16.072307230723,0,0
-113.24518353655,5.9885673770384,10.876737673767,2313703.3944174,2910.6283179874,2809315.5892884,16.076737673767,0,0
-113.24518304352,5.9733930698067,10.881168116812,2313703.3944174,2910.6283179874,2809315.5892884,16.081168116812,0,0
-113.2451825505,5.9582187625751,10.885598559856,2313703.3944174,2910.6283179874,2809315.5892884,16.085598559856,0,0
-113.24518205748,5.9430444553434,10.8900290029,2313703.3944174,2910.6283179874,2809315.5892884,16.0900290029,0,0
-113.24518156446,5.9278701481117,10.894459445945,2313703.3944174,2910.6283179874,2809315.5892884,16.094459445945,0,0
-113.24518107144,5.9126958408801,10.898889888989,2313703.3944174,2910.6283179874,2809315.5892884,16.098889888989,0,0
-113.24518057842,5.8975215336484,10.903320332033,2313703.3944174,2910.6283179874,2809315.5892884,16.103320332033,0,0
-113.24518008539,5.8823472264167,10.907750775078,2313703.3944174,2910.6283179874,2809315.5892884,16.107750775078,0,0
-113.24517959237,5.867172919185,10.912181218122,2313703.3944174,2910.6283179874,2809315.5892884,16.112181218122,0,0
-113.24517909935,5.8519986119534,10.916611661166,2313703.3944174,2910.6283179874,2809315.5892884,16.116611661166,0,0
-113.24517860633,5.8368243047217,10.92104210421,2313703.3944174,2910.6283179874,2809315.5892884,16.12104210421,0,0
-113.24517811331,5.8216499974901,10.925472547255,2313703.3944174,2910.6283179874,2809315.5892884,16.125472547255,0,0
-113.24517762029,5.8064756902584,10.929902990299,2313703.3944174,2910.6283179874,2809315.5892884,16.129902990299,0,0
-113.24517712726,5.7913013830267,10.934333433343,2313703.3944174,2910.6283179874,2809315.5892884,16.134333433343,0,0
-113.24517663424,5.776127075795,10.938763876388,2313703.3944174,2910.6283179874,2809315.5892884,16.138763876388,0,0
-113.24517614122,5.7609527685634,10.943194319432,2313703.3944174,2910.6283179874,2809315.5892884,16.143194319432,0,0
-113.2451756482,5.7457784613317,10.947624762476,2313703.3944174,2910.6283179874,2809315.5892884,16.147624762476,0,0
-113.24517515518,5.7306041541,10.952055205521,2313703.3944174,2910.6283179874,2809315.5892884,16.152055205521,0,0
-113.24517466215,5.7154298468684,10.956485648565,2313703.3944174,2910.6283179874,2809315.5892884,16.156485648565,0,0
-113.24517416913,5.7002555396367,10.960916091609,2313703.3944174,2910.6283179874,2809315.5892884,16.160916091609,0,0
-113.24517367611,5.685081232405,10.965346534653,2313703.3944174,2910.6283179874,2809315.5892884,16.165346534653,0,0
-113.24517318309,5.6699069251734,10.969776977698,2313703.3944174,2910.6283179874,2809315.5892884,16.169776977698,0,0
-113.24517269007,5.6547326179417,10.974207420742,2313703.3944174,2910.6283179874,2809315.5892884,16.174207420742,0,0
-113.24517219705,5.63955831071,10.978637863786,2313703.3944174,2910.6283179874,2809315.5892884,16.178637863786,0,0
-113.24517170402,5.6243840034784,10.983068306831,2313703.3944174,2910.6283179874,2809315.5892884,16.183068306831,0,0
-113.245171211,5.6092096962467,10.987498749875,2313703.3944174,2910.6283179874,2809315.5892884,16.187498749875,0,0
-113.24517071798,5.594035389015,10.991929192919,2313703.3944174,2910.6283179874,2809315.5892884,16.191929192919,0,0
-113.24517022496,5.5788610817834,10.996359635964,2313703.3944174,2910.6283179874,2809315.5892884,16.196359635964,0,0
-113.24516973194,5.5636867745517,11.000790079008,2313703.3944174,2910.6283179874,2809315.5892884,16.200790079008,0,0
-113.24516923892,5.54851246732,11.005220522052,2313703.3944174,2910.6283179874,2809315.5892884,16.205220522052,0,0
-113.24516874589,5.5333381600884,11.009650965097,2313703.3944174,2910.6283179874,2809315.5892884,16.209650965097,0,0
-113.24516825287,5.5181638528567,11.014081408141,2313703.3944174,2910.6283179874,2809315.5892884,16.214081408141,0,0
-113.24516775985,5.502989545625,11.018511851185,2313703.3944174,2910.6283179874,2809315.5892884,16.218511851185,0,0
-113.24516726683,5.4878152383934,11.022942294229,2313703.3944174,2910.6283179874,2809315.5892884,16.222942294229,0,0
-113.24516677381,5.4726409311617,11.027372737274,2313703.3944174,2910.6283179874,2809315.5892884,16.227372737274,0,0
-113.24516628079,5.45746662393,11.031803180318,2313703.3944174,2910.6283179874,2809315.5892884,16.231803180318,0,0
-113.24516578776,5.4422923166984,11.036233623362,2313703.3944174,2910.6283179874,2809315.5892884,16.236233623362,0,0
-113.24516529474,5.4271180094667,11.040664066407,2313703.3944174,2910.6283179874,2809315.5892884,16.240664066407,0,0
-113.24516480172,5.411943702235,11.045094509451,2313703.3944174,2910.6283179874,2809315.5892884,16.245094509451,0,0
-113.2451643087,5.3967693950034,11.049524952495,2313703.3944174,2910.6283179874,2809315.5892884,16.249524952495,0,0
-113.24516381568,5.3815950877717,11.05395539554,2313703.3944174,2910.6283179874,2809315.5892884,16.25395539554,0,0
-113.24516332266,5.36642078054,11.058385838584,2313703.3944174,2910.6283179874,2809315.5892884,16.258385838584,0,0
-113.24516282963,5.3512464733084,11.062816281628,2313703.3944174,2910.6283179874,2809315.5892884,16.262816281628,0,0
-113.24516233661,5.3360721660767,11.067246724672,2313703.3944174,2910.6283179874,2809315.5892884,16.267246724672,0,0
-113.24516184359,5.320897858845,11.071677167717,2313703.3944174,2910.6283179874,2809315.5892884,16.271677167717,0,0
-113.24516135057,5.3057235516134,11.076107610761,2313703.3944174,2910.6283179874,2809315.5892884,16.276107610761,0,0
-113.24516085755,5.2905492443817,11.080538053805,2313703.3944174,2910.6283179874,2809315.5892884,16.280538053805,0,0
-113.24516036453,5.27537493715,11.08496849685,2313703.3944174,2910.6283179874,2809315.5892884,16.28496849685,0,0
-113.2451598715,5.2602006299184,11.089398939894,2313703.3944174,2910.6283179874,2809315.5892884,16.289398939894,0,0
-113.24515937848,5.2450263226867,11.093829382938,2313703.3944174,2910.6283179874,2809315.5892884,16.293829382938,0,0
-113.24515888546,5.229852015455,11.098259825983,2313703.3944174,2910.6283179874,2809315.5892884,16.298259825983,0,0
-113.24515839244,5.2146777082234,11.102690269027,2313703.3944174,2910.6283179874,2809315.5892884,16.302690269027,0,0
-113.24515789942,5.1995034009917,11.107120712071,2313703.3944174,2910.6283179874,2809315.5892884,16.307120712071,0,0
-113.24515740639,5.18432909376,11.111551155116,2313703.3944174,2910.6283179874,2809315.5892884,16.311551155116,0,0
-113.24515691337,5.1691547865284,11.11598159816,2313703.3944174,2910.6283179874,2809315.5892884,16.31598159816,0,0
-113.24515642035,5.1539804792967,11.120412041204,2313703.3944174,2910.6283179874,2809315.5892884,16.320412041204,0,0
-113.24515592733,5.138806172065,11.124842484248,2313703.3944174,2910.6283179874,2809315.5892884,16.324842484248,0,0
-113.24515543431,5.1236318648334,11.129272927293,2313703.3944174,2910.6283179874,2809315.5892884,16.329272927293,0,0
-113.24515494129,5.1084575576017,11.133703370337,2313703.3944174,2910.6283179874,2809315.5892884,16.333703370337,0,0
-113.24515444826,5.09328325037,11.138133813381,2313703.3944174,2910.6283179874,2809315.5892884,16.338133813381,0,0
-113.24515395524,5.0781089431384,11.142564256426,2313703.3944174,2910.6283179874,2809315.5892884,16.342564256426,0,0
-113.24515346222,5.0629346359067,11.14699469947,2313703.3944174,2910.6283179874,2809315.5892884,16.34699469947,0,0
-113.2451529692,5.047760328675,11.151425142514,2313703.3944174,2910.6283179874,2809315.5892884,16.351425142514,0,0
-113.24515247618,5.0325860214434,11.155855585559,2313703.3944174,2910.6283179874,2809315.5892884,16.355855585559,0,0
-113.24515198316,5.0174117142117,11.160286028603,2313703.3944174,2910.6283179874,2809315.5892884,16.360286028603,0,0
-113.24515149013,5.00223740698,11.164716471647,2313703.3944174,2910.6283179874,2809315.5892884,16.364716471647,0,0
-113.24515099711,4.9870630997484,11.169146914691,2313703.3944174,2910.6283179874,2809315.5892884,16.369146914691,0,0
-113.24515050409,4.9718887925167,11.173577357736,2313703.3944174,2910.6283179874,2809315.5892884,16.373577357736,0,0
-113.24515001107,4.956714485285,11.17800780078,2313703.3944174,2910.6283179874,2809315.5892884,16.37800780078,0,0
-113.24514951805,4.9415401780534,11.182438243824,2313703.3944174,2910.6283179874,2809315.5892884,16.382438243824,0,0
-113.24514902503,4.9263658708217,11.186868686869,2313703.3944174,2910.6283179874,2809315.5892884,16.386868686869,0,0
-113.245148532,4.91119156359,11.191299129913,2313703.3944174,2910.6283179874,2809315.5892884,16.391299129913,0,0
-113.24514803898,4.8960172563584,11.195729572957,2313703.3944174,2910.6283179874,2809315.5892884,16.395729572957,0,0
-113.24514754596,4.8808429491267,11.200160016002,2313703.3944174,2910.6283179874,2809315.5892884,16.400160016002,0,0
-113.24514705294,4.865668641895,11.204590459046,2313703.3944174,2910.6283179874,2809315.5892884,16.404590459046,0,0
-113.24514655992,4.8504943346634,11.20902090209,2313703.3944174,2910.6283179874,2809315.5892884,16.40902090209,0,0
-113.2451460669,4.8353200274317,11.213451345135,2313703.3944174,2910.6283179874,2809315.5892884,16.413451345135,0,0
-113.24514557387,4.8201457202,11.217881788179,2313703.3944174,2910.6283179874,2809315.5892884,16.417881788179,0,0
-113.24514508085,4.8049714129684,11.222312231223,2313703.3944174,2910.6283179874,2809315.5892884,16.422312231223,0,0
-113.24514458656,4.7897971072313,11.226742674267,2337492.334663,9481.2660976519,2800413.8709847,16.426742674267,0,0
-113.24514408931,4.7746228049979,11.231173117312,2337492.334663,9481.2660976519,2800413.8709847,16.431173117312,0,0
-113.24514359206,4.7594485027645,11.235603560356,2337492.334663,9481.2660976519,2800413.8709847,16.435603560356,0,0
-113.24514309481,4.7442742005311,11.2400340034,2337492.334663,9481.2660976519,2800413.8709847,16.4400340034,0,0
-113.24514259755,4.7290998982977,11.244464446445,2337492.334663,9481.2660976519,2800413.8709847,16.444464446445,0,0
-113.2451421003,4.7139255960644,11.248894889489,2337492.334663,9481.2660976519,2800413.8709847,16.448894889489,0,0
-113.24514160305,4.6987512938309,11.253325332533,2337492.334663,9481.2660976519,2800413.8709847,16.453325332533,0,0
-113.2451411058,4.6835769915976,11.257755775578,2337492.334663,9481.2660976519,2800413.8709847,16.457755775578,0,0
-113.24514060854,4.6684026893642,11.262186218622,2337492.334663,9481.2660976519,2800413.8709847,16.462186218622,0,0
-113.24514011129,4.6532283871308,11.266616661666,2337492.334663,9481.2660976519,2800413.8709847,16.466616661666,0,0
-113.24513961404,4.6380540848974,11.27104710471,2337492.334663,9481.2660976519,2800413.8709847,16.47104710471,0,0
-113.24513911678,4.622879782664,11.275477547755,2337492.334663,9481.2660976519,2800413.8709847,16.475477547755,0,0
-113.24513861953,4.6077054804306,11.279907990799,2337492.334663,9481.2660976519,2800413.8709847,16.479907990799,0,0
-113.24513812228,4.5925311781972,11.284338433843,2337492.334663,9481.2660976519,2800413.8709847,16.484338433843,0,0
-113.24513762503,4.5773568759638,11.288768876888,2337492.334663,9481.2660976519,2800413.8709847,16.488768876888,0,0
-113.24513712777,4.5621825737304,11.293199319932,2337492.334663,9481.2660976519,2800413.8709847,16.493199319932,0,0
-113.24513663052,4.547008271497,11.297629762976,2337492.334663,9481.2660976519,2800413.8709847,16.497629762976,0,0
-113.24513613327,4.5318339692636,11.302060206021,2337492.334663,9481.2660976519,2800413.8709847,16.502060206021,0,0
-113.24513563602,4.5166596670302,11.306490649065,2337492.334663,9481.2660976519,2800413.8709847,16.506490649065,0,0
-113.24513513876,4.5014853647968,11.310921092109,2337492.334663,9481.2660976519,2800413.8709847,16.510921092109,0,0
-113.24513464151,4.4863110625634,11.315351535154,2337492.334663,9481.2660976519,2800413.8709847,16.515351535154,0,0
-113.24513414426,4.47113676033,11.319781978198,2337492.334663,9481.2660976519,2800413.8709847,16.519781978198,0,0
-113.245133647,4.4559624580966,11.324212421242,2337492.334663,9481.2660976519,2800413.8709847,16.524212421242,0,0
-113.24513314975,4.4407881558632,11.328642864286,2337492.334663,9481.2660976519,2800413.8709847,16.528642864286,0,0
-113.2451326525,4.4256138536298,11.333073307331,2337492.334663,9481.2660976519,2800413.8709847,16.533073307331,0,0
-113.24513215525,4.4104395513964,11.337503750375,2337492.334663,9481.2660976519,2800413.8709847,16.537503750375,0,0
-113.24513165799,4.395265249163,11.341934193419,2337492.334663,9481.2660976519,2800413.8709847,16.541934193419,0,0
-113.24513116074,4.3800909469296,11.346364636464,2337492.334663,9481.2660976519,2800413.8709847,16.546364636464,0,0
-113.24513066349,4.3649166446963,11.350795079508,2337492.334663,9481.2660976519,2800413.8709847,16.550795079508,0,0
-113.24513016624,4.3497423424629,11.355225522552,2337492.334663,9481.2660976519,2800413.8709847,16.555225522552,0,0
-113.24512966898,4.3345680402295,11.359655965597,2337492.334663,9481.2660976519,2800413.8709847,16.559655965597,0,0
-113.24512917173,4.3193937379961,11.364086408641,2337492.334663,9481.2660976519,2800413.8709847,16.564086408641,0,0
-113.24512867448,4.3042194357627,11.368516851685,2337492.334663,9481.2660976519,2800413.8709847,16.568516851685,0,0
-113.24512817723,4.2890451335293,11.372947294729,2337492.334663,9481.2660976519,2800413.8709847,16.572947294729,0,0
-113.24512767997,4.2738708312959,11.377377737774,2337492.334663,9481.2660976519,2800413.8709847,16.577377737774,0,0
-113.24512718272,4.2586965290625,11.381808180818,2337492.334663,9481.2660976519,2800413.8709847,16.581808180818,0,0
-113.24512668547,4.2435222268291,11.386238623862,2337492.334663,9481.2660976519,2800413.8709847,16.586238623862,0,0
-113.24512618821,4.2283479245957,11.390669066907,2337492.334663,9481.2660976519,2800413.8709847,16.590669066907,0,0
-113.24512569096,4.2131736223623,11.395099509951,2337492.334663,9481.2660976519,2800413.8709847,16.595099509951,0,0
-113.24512519371,4.1979993201289,11.399529952995,2337492.334663,9481.2660976519,2800413.8709847,16.599529952995,0,0
-113.24512469646,4.1828250178955,11.40396039604,2337492.334663,9481.2660976519,2800413.8709847,16.60396039604,0,0
-113.2451241992,4.1676507156621,11.408390839084,2337492.334663,9481.2660976519,2800413.8709847,16.608390839084,0,0
-113.24512370195,4.1524764134287,11.412821282128,2337492.334663,9481.2660976519,2800413.8709847,16.612821282128,0,0
-113.2451232047,4.1373021111953,11.417251725173,2337492.334663,9481.2660976519,2800413.8709847,16.617251725173,0,0
-113.24512270745,4.1221278089619,11.421682168217,2337492.334663,9481.2660976519,2800413.8709847,16.621682168217,0,0
-113.24512221019,4.1069535067285,11.426112611261,2337492.334663,9481.2660976519,2800413.8709847,16.626112611261,0,0
-113.24512171294,4.0917792044951,11.430543054305,2337492.334663,9481.2660976519,2800413.8709847,16.630543054305,0,0
-113.24512121569,4.0766049022617,11.43497349735,2337492.334663,9481.2660976519,2800413.8709847,16.63497349735,0,0
-113.24512071843,4.0614306000283,11.439403940394,2337492.334663,9481.2660976519,2800413.8709847,16.639403940394,0,0
-113.24512022118,4.046256297795,11.443834383438,2337492.334663,9481.2660976519,2800413.8709847,16.643834383438,0,0
-113.24511972393,4.0310819955616,11.448264826483,2337492.334663,9481.2660976519,2800413.8709847,16.648264826483,0,0
-113.24511922668,4.0159076933282,11.452695269527,2337492.334663,9481.2660976519,2800413.8709847,16.652695269527,0,0
-113.24511872942,4.0007333910948,11.457125712571,2337492.334663,9481.2660976519,2800413.8709847,16.657125712571,0,0
-113.24511823217,3.9855590888614,11.461556155616,2337492.334663,9481.2660976519,2800413.8709847,16.661556155616,0,0
-113.24511773492,3.970384786628,11.46598659866,2337492.334663,9481.2660976519,2800413.8709847,16.66598659866,0,0
-113.24511723767,3.9552104843946,11.470417041704,2337492.334663,9481.2660976519,2800413.8709847,16.670417041704,0,0
-113.24511674041,3.9400361821612,11.474847484748,2337492.334663,9481.2660976519,2800413.8709847,16.674847484748,0,0
-113.24511624316,3.9248618799278,11.479277927793,2337492.334663,9481.2660976519,2800413.8709847,16.679277927793,0,0
-113.24511574591,3.9096875776944,11.483708370837,2337492.334663,9481.2660976519,2800413.8709847,16.683708370837,0,0
-113.24511524865,3.894513275461,11.488138813881,2337492.334663,9481.2660976519,2800413.8709847,16.688138813881,0,0
-113.2451147514,3.8793389732276,11.492569256926,2337492.334663,9481.2660976519,2800413.8709847,16.692569256926,0,0
-113.24511425415,3.8641646709942,11.49699969997,2337492.334663,9481.2660976519,2800413.8709847,16.69699969997,0,0
-113.2451137569,3.8489903687608,11.501430143014,2337492.334663,9481.2660976519,2800413.8709847,16.701430143014,0,0
-113.24511325964,3.8338160665274,11.505860586059,2337492.334663,9481.2660976519,2800413.8709847,16.705860586059,0,0
-113.24511276239,3.818641764294,11.510291029103,2337492.334663,9481.2660976519,2800413.8709847,16.710291029103,0,0
-113.24511226514,3.8034674620606,11.514721472147,2337492.334663,9481.2660976519,2800413.8709847,16.714721472147,0,0
-113.24511176789,3.7882931598272,11.519151915192,2337492.334663,9481.2660976519,2800413.8709847,16.719151915192,0,0
-113.24511127063,3.7731188575938,11.523582358236,2337492.334663,9481.2660976519,2800413.8709847,16.723582358236,0,0
-113.24511077338,3.7579445553604,11.52801280128,2337492.334663,9481.2660976519,2800413.8709847,16.72801280128,0,0
-113.24511027589,3.742770252598,11.532443244324,2346988.2151011,-64.88526843975,2780014.3008633,16.732443244324,0,0
-113.24510977608,3.7275959446751,11.536873687369,2346988.2151011,-64.88526843975,2780014.3008633,16.736873687369,0,0
-113.24510927626,3.7124216367523,11.541304130413,2346988.2151011,-64.88526843975,2780014.3008633,16.741304130413,0,0
-113.24510877645,3.6972473288294,11.545734573457,2346988.2151011,-64.88526843975,2780014.3008633,16.745734573457,0,0
-113.24510827664,3.6820730209066,11.550165016502,2346988.2151011,-64.88526843975,2780014.3008633,16.750165016502,0,0
-113.24510777683,3.6668987129837,11.554595459546,2346988.2151011,-64.88526843975,2780014.3008633,16.754595459546,0,0
-113.24510727701,3.6517244050609,11.55902590259,2346988.2151011,-64.88526843975,2780014.3008633,16.75902590259,0,0
-113.2451067772,3.636550097138,11.563456345635,2346988.2151011,-64.88526843975,2780014.3008633,16.763456345635,0,0
-113.24510627739,3.6213757892152,11.567886788679,2346988.2151011,-64.88526843975,2780014.3008633,16.767886788679,0,0
-113.24510577757,3.6062014812923,11.572317231723,2346988.2151011,-64.88526843975,2780014.3008633,16.772317231723,0,0
-113.24510527776,3.5910271733695,11.576747674767,2346988.2151011,-64.88526843975,2780014.3008633,16.776747674767,0,0
-113.24510477795,3.5758528654466,11.581178117812,2346988.2151011,-64.88526843975,2780014.3008633,16.781178117812,0,0
-113.24510427814,3.5606785575238,11.585608560856,2346988.2151011,-64.88526843975,2780014.3008633,16.785608560856,0,0
-113.24510377832,3.5455042496009,11.5900390039,2346988.2151011,-64.88526843975,2780014.3008633,16.7900390039,0,0
-113.24510327851,3.5303299416781,11.594469446945,2346988.2151011,-64.88526843975,2780014.3008633,16.794469446945,0,0
-113.2451027787,3.5151556337552,11.598899889989,2346988.2151011,-64.88526843975,2780014.3008633,16.798899889989,0,0
-113.24510227888,3.4999813258323,11.603330333033,2346988.2151011,-64.88526843975,2780014.3008633,16.803330333033,0,0
-113.24510177907,3.4848070179095,11.607760776078,2346988.2151011,-64.88526843975,2780014.3008633,16.807760776078,0,0
-113.24510127926,3.4696327099866,11.612191219122,2346988.2151011,-64.88526843975,2780014.3008633,16.812191219122,0,0
-113.24510077945,3.4544584020638,11.616621662166,2346988.2151011,-64.88526843975,2780014.3008633,16.816621662166,0,0
-113.24510027963,3.4392840941409,11.621052105211,2346988.2151011,-64.88526843975,2780014.3008633,16.821052105211,0,0
-113.24509977982,3.4241097862181,11.625482548255,2346988.2151011,-64.88526843975,2780014.3008633,16.825482548255,0,0
-113.24509928001,3.4089354782952,11.629912991299,2346988.2151011,-64.88526843975,2780014.3008633,16.829912991299,0,0
-113.24509878019,3.3937611703724,11.634343434343,2346988.2151011,-64.88526843975,2780014.3008633,16.834343434343,0,0
-113.24509828038,3.3785868624495,11.638773877388,2346988.2151011,-64.88526843975,2780014.3008633,16.838773877388,0,0
-113.24509778057,3.3634125545267,11.643204320432,2346988.2151011,-64.88526843975,2780014.3008633,16.843204320432,0,0
-113.24509728076,3.3482382466038,11.647634763476,2346988.2151011,-64.88526843975,2780014.3008633,16.847634763476,0,0
-113.24509678094,3.333063938681,11.652065206521,2346988.2151011,-64.88526843975,2780014.3008633,16.852065206521,0,0
-113.24509628113,3.3178896307581,11.656495649565,2346988.2151011,-64.88526843975,2780014.3008633,16.856495649565,0,0
-113.24509578132,3.3027153228353,11.660926092609,2346988.2151011,-64.88526843975,2780014.3008633,16.860926092609,0,0
-113.24509528151,3.2875410149124,11.665356535654,2346988.2151011,-64.88526843975,2780014.3008633,16.865356535654,0,0
-113.24509478169,3.2723667069896,11.669786978698,2346988.2151011,-64.88526843975,2780014.3008633,16.869786978698,0,0
-113.24509428188,3.2571923990667,11.674217421742,2346988.2151011,-64.88526843975,2780014.3008633,16.874217421742,0,0
-113.24509378207,3.2420180911439,11.678647864786,2346988.2151011,-64.88526843975,2780014.3008633,16.878647864786,0,0
-113.24509328225,3.226843783221,11.683078307831,2346988.2151011,-64.88526843975,2780014.3008633,16.883078307831,0,0
-113.24509278244,3.2116694752982,11.687508750875,2346988.2151011,-64.88526843975,2780014.3008633,16.887508750875,0,0
-113.24509228263,3.1964951673753,11.691939193919,2346988.2151011,-64.88526843975,2780014.3008633,16.891939193919,0,0
-113.24509178282,3.1813208594525,11.696369636964,2346988.2151011,-64.88526843975,2780014.3008633,16.896369636964,0,0
-113.245091283,3.1661465515296,11.700800080008,2346988.2151011,-64.88526843975,2780014.3008633,16.900800080008,0,0
-113.24509078319,3.1509722436068,11.705230523052,2346988.2151011,-64.88526843975,2780014.3008633,16.905230523052,0,0
-113.24509028338,3.1357979356839,11.709660966097,2346988.2151011,-64.88526843975,2780014.3008633,16.909660966097,0,0
-113.24508978356,3.1206236277611,11.714091409141,2346988.2151011,-64.88526843975,2780014.3008633,16.914091409141,0,0
-113.24508928375,3.1054493198382,11.718521852185,2346988.2151011,-64.88526843975,2780014.3008633,16.918521852185,0,0
-113.24508878394,3.0902750119153,11.72295229523,2346988.2151011,-64.88526843975,2780014.3008633,16.92295229523,0,0
-113.24508828413,3.0751007039925,11.727382738274,2346988.2151011,-64.88526843975,2780014.3008633,16.927382738274,0,0
-113.24508778431,3.0599263960696,11.731813181318,2346988.2151011,-64.88526843975,2780014.3008633,16.931813181318,0,0
-113.2450872845,3.0447520881468,11.736243624362,2346988.2151011,-64.88526843975,2780014.3008633,16.936243624362,0,0
-113.24508678469,3.0295777802239,11.740674067407,2346988.2151011,-64.88526843975,2780014.3008633,16.940674067407,0,0
-113.24508628487,3.0144034723011,11.745104510451,2346988.2151011,-64.88526843975,2780014.3008633,16.945104510451,0,0
-113.24508578506,2.9992291643782,11.749534953495,2346988.2151011,-64.88526843975,2780014.3008633,16.949534953495,0,0
-113.24508528525,2.9840548564554,11.75396539654,2346988.2151011,-64.88526843975,2780014.3008633,16.95396539654,0,0
-113.24508478544,2.9688805485325,11.758395839584,2346988.2151011,-64.88526843975,2780014.3008633,16.958395839584,0,0
-113.24508428562,2.9537062406097,11.762826282628,2346988.2151011,-64.88526843975,2780014.3008633,16.962826282628,0,0
-113.24508378581,2.9385319326868,11.767256725673,2346988.2151011,-64.88526843975,2780014.3008633,16.967256725673,0,0
-113.245083286,2.923357624764,11.771687168717,2346988.2151011,-64.88526843975,2780014.3008633,16.971687168717,0,0
-113.24508278619,2.9081833168411,11.776117611761,2346988.2151011,-64.88526843975,2780014.3008633,16.976117611761,0,0
-113.24508228637,2.8930090089183,11.780548054805,2346988.2151011,-64.88526843975,2780014.3008633,16.980548054805,0,0
-113.24508178656,2.8778347009954,11.78497849785,2346988.2151011,-64.88526843975,2780014.3008633,16.98497849785,0,0
-113.24508128675,2.8626603930726,11.789408940894,2346988.2151011,-64.88526843975,2780014.3008633,16.989408940894,0,0
-113.24508078693,2.8474860851497,11.793839383938,2346988.2151011,-64.88526843975,2780014.3008633,16.993839383938,0,0
-113.24508028712,2.8323117772269,11.798269826983,2346988.2151011,-64.88526843975,2780014.3008633,16.998269826983,0,0
-113.24507978731,2.817137469304,11.802700270027,2346988.2151011,-64.88526843975,2780014.3008633,17.002700270027,0,0
-113.2450792875,2.8019631613812,11.807130713071,2346988.2151011,-64.88526843975,2780014.3008633,17.007130713071,0,0
-113.24507878768,2.7867888534583,11.811561156116,2346988.2151011,-64.88526843975,2780014.3008633,17.011561156116,0,0
-113.24507828787,2.7716145455355,11.81599159916,2346988.2151011,-64.88526843975,2780014.3008633,17.01599159916,0,0
-113.24507778806,2.7564402376126,11.820422042204,2346988.2151011,-64.88526843975,2780014.3008633,17.020422042204,0,0
-113.24507728824,2.7412659296898,11.824852485249,2346988.2151011,-64.88526843975,2780014.3008633,17.024852485249,0,0
-113.24507678843,2.7260916217669,11.829282928293,2346988.2151011,-64.88526843975,2780014.3008633,17.029282928293,0,0
-113.24507628862,2.7109173138441,11.833713371337,2346988.2151011,-64.88526843975,2780014.3008633,17.033713371337,0,0
-113.24507578881,2.6957430059212,11.838143814381,2346988.2151011,-64.88526843975,2780014.3008633,17.038143814381,0,0
-113.24507528899,2.6805686979983,11.842574257426,2346988.2151011,-64.88526843975,2780014.3008633,17.042574257426,0,0
-113.24507478918,2.6653943900755,11.84700470047,2346988.2151011,-64.88526843975,2780014.3008633,17.04700470047,0,0
-113.24507428937,2.6502200821526,11.851435143514,2346988.2151011,-64.88526843975,2780014.3008633,17.051435143514,0,0
-113.24507378956,2.6350457742298,11.855865586559,2346988.2151011,-64.88526843975,2780014.3008633,17.055865586559,0,0
-113.24507328974,2.6198714663069,11.860296029603,2346988.2151011,-64.88526843975,2780014.3008633,17.060296029603,0,0
-113.24507278993,2.6046971583841,11.864726472647,2346988.2151011,-64.88526843975,2780014.3008633,17.064726472647,0,0
-113.24507229012,2.5895228504612,11.869156915692,2346988.2151011,-64.88526843975,2780014.3008633,17.069156915692,0,0
-113.2450717903,2.5743485425384,11.873587358736,2346988.2151011,-64.88526843975,2780014.3008633,17.073587358736,0,0
-113.24507129049,2.5591742346155,11.87801780178,2346988.2151011,-64.88526843975,2780014.3008633,17.07801780178,0,0
-113.24507079068,2.5439999266927,11.882448244824,2346988.2151011,-64.88526843975,2780014.3008633,17.082448244824,0,0
-113.24507029087,2.5288256187698,11.886878687869,2346988.2151011,-64.88526843975,2780014.3008633,17.086878687869,0,0
-113.24506979105,2.513651310847,11.891309130913,2346988.2151011,-64.88526843975,2780014.3008633,17.091309130913,0,0
-113.24506929124,2.4984770029241,11.895739573957,2346988.2151011,-64.88526843975,2780014.3008633,17.095739573957,0,0
-113.24506879143,2.4833026950013,11.900170017002,2346988.2151011,-64.88526843975,2780014.3008633,17.100170017002,0,0
-113.24506829161,2.4681283870784,11.904600460046,2346988.2151011,-64.88526843975,2780014.3008633,17.104600460046,0,0
-113.2450677918,2.4529540791556,11.90903090309,2346988.2151011,-64.88526843975,2780014.3008633,17.10903090309,0,0
-113.24506729199,2.4377797712327,11.913461346135,2346988.2151011,-64.88526843975,2780014.3008633,17.113461346135,0,0
-113.24506679218,2.4226054633099,11.917891789179,2346988.2151011,-64.88526843975,2780014.3008633,17.117891789179,0,0
-113.24506629236,2.407431155387,11.922322232223,2346988.2151011,-64.88526843975,2780014.3008633,17.122322232223,0,0
-113.24506579255,2.3922568474642,11.926752675268,2346988.2151011,-64.88526843975,2780014.3008633,17.126752675268,0,0
-113.24506529274,2.3770825395413,11.931183118312,2346988.2151011,-64.88526843975,2780014.3008633,17.131183118312,0,0
-113.24506479292,2.3619082316185,11.935613561356,2346988.2151011,-64.88526843975,2780014.3008633,17.135613561356,0,0
-113.24506429311,2.3467339236956,11.9400440044,2346988.2151011,-64.88526843975,2780014.3008633,17.1400440044,0,0
-113.2450637933,2.3315596157728,11.944474447445,2346988.2151011,-64.88526843975,2780014.3008633,17.144474447445,0,0
-113.24506329349,2.3163853078499,11.948904890489,2346988.2151011,-64.88526843975,2780014.3008633,17.148904890489,0,0
-113.24506279367,2.3012109999271,11.953335333533,2346988.2151011,-64.88526843975,2780014.3008633,17.153335333533,0,0
-113.24506229386,2.2860366920042,11.957765776578,2346988.2151011,-64.88526843975,2780014.3008633,17.157765776578,0,0
-113.24506179405,2.2708623840813,11.962196219622,2346988.2151011,-64.88526843975,2780014.3008633,17.162196219622,0,0
-113.24506129424,2.2556880761585,11.966626662666,2346988.2151011,-64.88526843975,2780014.3008633,17.166626662666,0,0
-113.24506079442,2.2405137682356,11.971057105711,2346988.2151011,-64.88526843975,2780014.3008633,17.171057105711,0,0
-113.24506029461,2.2253394603128,11.975487548755,2346988.2151011,-64.88526843975,2780014.3008633,17.175487548755,0,0
-113.2450597948,2.2101651523899,11.979917991799,2346988.2151011,-64.88526843975,2780014.3008633,17.179917991799,0,0
-113.24505929498,2.1949908444671,11.984348434843,2346988.2151011,-64.88526843975,2780014.3008633,17.184348434843,0,0
-113.24505879517,2.1798165365442,11.988778877888,2346988.2151011,-64.88526843975,2780014.3008633,17.188778877888,0,0
-113.24505829536,2.1646422286214,11.993209320932,2346988.2151011,-64.88526843975,2780014.3008633,17.193209320932,0,0
-113.24505779555,2.1494679206985,11.997639763976,2346988.2151011,-64.88526843975,2780014.3008633,17.197639763976,0,0
-113.24505729573,2.1342936127757,12.002070207021,2346988.2151011,-64.88526843975,2780014.3008633,17.202070207021,0,0
-113.24505679592,2.1191193048528,12.006500650065,2346988.2151011,-64.88526843975,2780014.3008633,17.206500650065,0,0
-113.24505629611,2.10394499693,12.010931093109,2346988.2151011,-64.88526843975,2780014.3008633,17.210931093109,0,0
-113.24505579629,2.0887706890071,12.015361536154,2346988.2151011,-64.88526843975,2780014.3008633,17.215361536154,0,0
-113.24505529648,2.0735963810843,12.019791979198,2346988.2151011,-64.88526843975,2780014.3008633,17.219791979198,0,0
-113.24505479667,2.0584220731614,12.024222422242,2346988.2151011,-64.88526843975,2780014.3008633,17.224222422242,0,0
-113.24505429686,2.0432477652386,12.028652865287,2346988.2151011,-64.88526843975,2780014.3008633,17.228652865287,0,0
-113.24505379704,2.0280734573157,12.033083308331,2346988.2151011,-64.88526843975,2780014.3008633,17.233083308331,0,0
-113.24505329723,2.0128991493929,12.037513751375,2346988.2151011,-64.88526843975,2780014.3008633,17.237513751375,0,0
-113.24505279742,1.99772484147,12.041944194419,2346988.2151011,-64.88526843975,2780014.3008633,17.241944194419,0,0
-113.2450522976,1.9825505335472,12.046374637464,2346988.2151011,-64.88526843975,2780014.3008633,17.246374637464,0,0
-113.24505179779,1.9673762256243,12.050805080508,2346988.2151011,-64.88526843975,2780014.3008633,17.250805080508,0,0
-113.24505129798,1.9522019177015,12.055235523552,2346988.2151011,-64.88526843975,2780014.3008633,17.255235523552,0,0
-113.24505079817,1.9370276097786,12.059665966597,2346988.2151011,-64.88526843975,2780014.3008633,17.259665966597,0,0
-113.24505029835,1.9218533018558,12.064096409641,2346988.2151011,-64.88526843975,2780014.3008633,17.264096409641,0,0
-113.24504979854,1.9066789939329,12.068526852685,2346988.2151011,-64.88526843975,2780014.3008633,17.268526852685,0,0
-113.24504929873,1.8915046860101,12.07295729573,2346988.2151011,-64.88526843975,2780014.3008633,17.27295729573,0,0
-113.24504879892,1.8763303780872,12.077387738774,2346988.2151011,-64.88526843975,2780014.3008633,17.277387738774,0,0
-113.2450482991,1.8611560701643,12.081818181818,2346988.2151011,-64.88526843975,2780014.3008633,17.281818181818,0,0
-113.24504779929,1.8459817622415,12.086248624862,2346988.2151011,-64.88526843975,2780014.3008633,17.286248624862,0,0
-113.24504729948,1.8308074543186,12.090679067907,2346988.2151011,-64.88526843975,2780014.3008633,17.290679067907,0,0
-113.24504679966,1.8156331463958,12.095109510951,2346988.2151011,-64.88526843975,2780014.3008633,17.295109510951,0,0
-113.24504629985,1.8004588384729,12.099539953995,2346988.2151011,-64.88526843975,2780014.3008633,17.299539953995,0,0
-113.24504580004,1.7852845305501,12.10397039704,2346988.2151011,-64.88526843975,2780014.3008633,17.30397039704,0,0
-113.24504530023,1.7701102226272,12.108400840084,2346988.2151011,-64.88526843975,2780014.3008633,17.308400840084,0,0
-113.24504480041,1.7549359147044,12.112831283128,2346988.2151011,-64.88526843975,2780014.3008633,17.312831283128,0,0
-113.2450443006,1.7397616067815,12.117261726173,2346988.2151011,-64.88526843975,2780014.3008633,17.317261726173,0,0
-113.24504380079,1.7245872988587,12.121692169217,2346988.2151011,-64.88526843975,2780014.3008633,17.321692169217,0,0
-113.24504330097,1.7094129909358,12.126122612261,2346988.2151011,-64.88526843975,2780014.3008633,17.326122612261,0,0
-113.24504280116,1.694238683013,12.130553055306,2346988.2151011,-64.88526843975,2780014.3008633,17.330553055306,0,0
-113.24504230135,1.6790643750901,12.13498349835,2346988.2151011,-64.88526843975,2780014.3008633,17.33498349835,0,0
-113.24504180154,1.6638900671673,12.139413941394,2346988.2151011,-64.88526843975,2780014.3008633,17.339413941394,0,0
-113.24504130172,1.6487157592444,12.143844384438,2346988.2151011,-64.88526843975,2780014.3008633,17.343844384438,0,0
-113.24504080191,1.6335414513216,12.148274827483,2346988.2151011,-64.88526843975,2780014.3008633,17.348274827483,0,0
-113.2450403021,1.6183671433987,12.152705270527,2346988.2151011,-64.88526843975,2780014.3008633,17.352705270527,0,0
-113.24503980229,1.6031928354759,12.157135713571,2346988.2151011,-64.88526843975,2780014.3008633,17.357135713571,0,0
-113.24503930247,1.588018527553,12.161566156616,2346988.2151011,-64.88526843975,2780014.3008633,17.361566156616,0,0
-113.24503880266,1.5728442196302,12.16599659966,2346988.2151011,-64.88526843975,2780014.3008633,17.36599659966,0,0
-113.24503830285,1.5576699117073,12.170427042704,2346988.2151011,-64.88526843975,2780014.3008633,17.370427042704,0,0
-113.24503780303,1.5424956037845,12.174857485749,2346988.2151011,-64.88526843975,2780014.3008633,17.374857485749,0,0
-113.24503730322,1.5273212958616,12.179287928793,2346988.2151011,-64.88526843975,2780014.3008633,17.379287928793,0,0
-113.24503680341,1.5121469879388,12.183718371837,2346988.2151011,-64.88526843975,2780014.3008633,17.383718371837,0,0
-113.2450363036,1.4969726800159,12.188148814881,2346988.2151011,-64.88526843975,2780014.3008633,17.388148814881,0,0
-113.24503580378,1.4817983720931,12.192579257926,2346988.2151011,-64.88526843975,2780014.3008633,17.392579257926,0,0
-113.24503530397,1.4666240641702,12.19700970097,2346988.2151011,-64.88526843975,2780014.3008633,17.39700970097,0,0
-113.24503480416,1.4514497562473,12.201440144014,2346988.2151011,-64.88526843975,2780014.3008633,17.401440144014,0,0
-113.24503430434,1.4362754483245,12.205870587059,2346988.2151011,-64.88526843975,2780014.3008633,17.405870587059,0,0
-113.24503380453,1.4211011404016,12.210301030103,2346988.2151011,-64.88526843975,2780014.3008633,17.410301030103,0,0
-113.24503330472,1.4059268324788,12.214731473147,2346988.2151011,-64.88526843975,2780014.3008633,17.414731473147,0,0
-113.24503280491,1.3907525245559,12.219161916192,2346988.2151011,-64.88526843975,2780014.3008633,17.419161916192,0,0
-113.24503230509,1.3755782166331,12.223592359236,2346988.2151011,-64.88526843975,2780014.3008633,17.423592359236,0,0
-113.24503180528,1.3604039087102,12.22802280228,2346988.2151011,-64.88526843975,2780014.3008633,17.42802280228,0,0
-113.24503130547,1.3452296007874,12.232453245325,2346988.2151011,-64.88526843975,2780014.3008633,17.432453245325,0,0
-113.24503080565,1.3300552928645,12.236883688369,2346988.2151011,-64.88526843975,2780014.3008633,17.436883688369,0,0
-113.24503030584,1.3148809849417,12.241314131413,2346988.2151011,-64.88526843975,2780014.3008633,17.441314131413,0,0
-113.24502980603,1.2997066770188,12.245744574457,2346988.2151011,-64.88526843975,2780014.3008633,17.445744574457,0,0
-113.24502930622,1.284532369096,12.250175017502,2346988.2151011,-64.88526843975,2780014.3008633,17.450175017502,0,0
-113.2450288064,1.2693580611731,12.254605460546,2346988.2151011,-64.88526843975,2780014.3008633,17.454605460546,0,0
-113.24502830659,1.2541837532503,12.25903590359,2346988.2151011,-64.88526843975,2780014.3008633,17.45903590359,0,0
-113.24502780678,1.2390094453274,12.263466346635,2346988.2151011,-64.88526843975,2780014.3008633,17.463466346635,0,0
-113.24502730697,1.2238351374046,12.267896789679,2346988.2151011,-64.88526843975,2780014.3008633,17.467896789679,0,0
-113.24502680715,1.2086608294817,12.272327232723,2346988.2151011,-64.88526843975,2780014.3008633,17.472327232723,0,0
-113.24502630734,1.1934865215589,12.276757675768,2346988.2151011,-64.88526843975,2780014.3008633,17.476757675768,0,0
-113.24502580753,1.178312213636,12.281188118812,2346988.2151011,-64.88526843975,2780014.3008633,17.481188118812,0,0
-113.24502530771,1.1631379057132,12.285618561856,2346988.2151011,-64.88526843975,2780014.3008633,17.485618561856,0,0
-113.2450248079,1.1479635977903,12.2900490049,2346988.2151011,-64.88526843975,2780014.3008633,17.4900490049,0,0
-113.24502430809,1.1327892898675,12.294479447945,2346988.2151011,-64.88526843975,2780014.3008633,17.494479447945,0,0
-113.24502380828,1.1176149819446,12.298909890989,2346988.2151011,-64.88526843975,2780014.3008633,17.498909890989,0,0
-113.24502330846,1.1024406740218,12.303340334033,2346988.2151011,-64.88526843975,2780014.3008633,17.503340334033,0,0
-113.24502280865,1.0872663660989,12.307770777078,2346988.2151011,-64.88526843975,2780014.3008633,17.507770777078,0,0
-113.24502230884,1.0720920581761,12.312201220122,2346988.2151011,-64.88526843975,2780014.3008633,17.512201220122,0,0
-113.24502180902,1.0569177502532,12.316631663166,2346988.2151011,-64.88526843975,2780014.3008633,17.516631663166,0,0
-113.24502130804,1.0417434438727,12.321062106211,2369188.3910987,7808.8999765388,2771417.8754498,17.521062106211,0,0
-113.24502080426,1.0265691411674,12.325492549255,2369188.3910987,7808.8999765388,2771417.8754498,17.525492549255,0,0
-113.24502030049,1.0113948384621,12.329922992299,2369188.3910987,7808.8999765388,2771417.8754498,17.529922992299,0,0
-113.24501979671,0.99622053575686,12.334353435344,2369188.3910987,7808.8999765388,2771417.8754498,17.534353435344,0,0
-113.24501929294,0.98104623305156,12.338783878388,2369188.3910987,7808.8999765388,2771417.8754498,17.538783878388,0,0
-113.24501878916,0.96587193034627,12.343214321432,2369188.3910987,7808.8999765388,2771417.8754498,17.543214321432,0,0
-113.24501828538,0.95069762764099,12.347644764476,2369188.3910987,7808.8999765388,2771417.8754498,17.547644764476,0,0
-113.24501778161,0.93552332493569,12.352075207521,2369188.3910987,7808.8999765388,2771417.8754498,17.552075207521,0,0
-113.24501727783,0.9203490222304,12.356505650565,2369188.3910987,7808.8999765388,2771417.8754498,17.556505650565,0,0
-113.24501677405,0.9051747195251,12.360936093609,2369188.3910987,7808.8999765388,2771417.8754498,17.560936093609,0,0
-113.24501627028,0.89000041681981,12.365366536654,2369188.3910987,7808.8999765388,2771417.8754498,17.565366536654,0,0
-113.2450157665,0.87482611411451,12.369796979698,2369188.3910987,7808.8999765388,2771417.8754498,17.569796979698,0,0
-113.24501526273,0.85965181140923,12.374227422742,2369188.3910987,7808.8999765388,2771417.8754498,17.574227422742,0,0
-113.24501475895,0.84447750870393,12.378657865787,2369188.3910987,7808.8999765388,2771417.8754498,17.578657865787,0,0
-113.24501425517,0.82930320599864,12.383088308831,2369188.3910987,7808.8999765388,2771417.8754498,17.583088308831,0,0
-113.2450137514,0.81412890329334,12.387518751875,2369188.3910987,7808.8999765388,2771417.8754498,17.587518751875,0,0
-113.24501324762,0.79895460058805,12.391949194919,2369188.3910987,7808.8999765388,2771417.8754498,17.591949194919,0,0
-113.24501274384,0.78378029788275,12.396379637964,2369188.3910987,7808.8999765388,2771417.8754498,17.596379637964,0,0
-113.24501224007,0.76860599517747,12.400810081008,2369188.3910987,7808.8999765388,2771417.8754498,17.600810081008,0,0
-113.24501173629,0.75343169247217,12.405240524052,2369188.3910987,7808.8999765388,2771417.8754498,17.605240524052,0,0
-113.24501123252,0.73825738976688,12.409670967097,2369188.3910987,7808.8999765388,2771417.8754498,17.609670967097,0,0
-113.24501072874,0.72308308706158,12.414101410141,2369188.3910987,7808.8999765388,2771417.8754498,17.614101410141,0,0
-113.24501022496,0.70790878435629,12.418531853185,2369188.3910987,7808.8999765388,2771417.8754498,17.618531853185,0,0
-113.24500972119,0.69273448165099,12.42296229623,2369188.3910987,7808.8999765388,2771417.8754498,17.62296229623,0,0
-113.24500921741,0.67756017894571,12.427392739274,2369188.3910987,7808.8999765388,2771417.8754498,17.627392739274,0,0
-113.24500871364,0.66238587624041,12.431823182318,2369188.3910987,7808.8999765388,2771417.8754498,17.631823182318,0,0
-113.24500820986,0.64721157353512,12.436253625363,2369188.3910987,7808.8999765388,2771417.8754498,17.636253625363,0,0
-113.24500770608,0.63203727082983,12.440684068407,2369188.3910987,7808.8999765388,2771417.8754498,17.640684068407,0,0
-113.24500720231,0.61686296812453,12.445114511451,2369188.3910987,7808.8999765388,2771417.8754498,17.645114511451,0,0
-113.24500669853,0.60168866541925,12.449544954495,2369188.3910987,7808.8999765388,2771417.8754498,17.649544954495,0,0
-113.24500619475,0.58651436271395,12.45397539754,2369188.3910987,7808.8999765388,2771417.8754498,17.65397539754,0,0
-113.24500569098,0.57134006000866,12.458405840584,2369188.3910987,7808.8999765388,2771417.8754498,17.658405840584,0,0
-113.2450051872,0.55616575730336,12.462836283628,2369188.3910987,7808.8999765388,2771417.8754498,17.662836283628,0,0
-113.24500468343,0.54099145459807,12.467266726673,2369188.3910987,7808.8999765388,2771417.8754498,17.667266726673,0,0
-113.24500417965,0.52581715189277,12.471697169717,2369188.3910987,7808.8999765388,2771417.8754498,17.671697169717,0,0
-113.24500367587,0.51064284918749,12.476127612761,2369188.3910987,7808.8999765388,2771417.8754498,17.676127612761,0,0
-113.2450031721,0.49546854648219,12.480558055806,2369188.3910987,7808.8999765388,2771417.8754498,17.680558055806,0,0
-113.24500266832,0.4802942437769,12.48498849885,2369188.3910987,7808.8999765388,2771417.8754498,17.68498849885,0,0
-113.24500216455,0.4651199410716,12.489418941894,2369188.3910987,7808.8999765388,2771417.8754498,17.689418941894,0,0
-113.24500166077,0.44994563836631,12.493849384938,2369188.3910987,7808.8999765388,2771417.8754498,17.693849384938,0,0
-113.24500115699,0.43477133566101,12.498279827983,2369188.3910987,7808.8999765388,2771417.8754498,17.698279827983,0,0
-113.24500065322,0.41959703295573,12.502710271027,2369188.3910987,7808.8999765388,2771417.8754498,17.702710271027,0,0
-113.24500014944,0.40442273025043,12.507140714071,2369188.3910987,7808.8999765388,2771417.8754498,17.707140714071,0,0
-113.24499964566,0.38924842754514,12.511571157116,2369188.3910987,7808.8999765388,2771417.8754498,17.711571157116,0,0
-113.24499914189,0.37407412483984,12.51600160016,2369188.3910987,7808.8999765388,2771417.8754498,17.71600160016,0,0
-113.24499863811,0.35889982213455,12.520432043204,2369188.3910987,7808.8999765388,2771417.8754498,17.720432043204,0,0
-113.24499813434,0.34372551942925,12.524862486249,2369188.3910987,7808.8999765388,2771417.8754498,17.724862486249,0,0
-113.24499763056,0.32855121672397,12.529292929293,2369188.3910987,7808.8999765388,2771417.8754498,17.729292929293,0,0
-113.24499712678,0.31337691401867,12.533723372337,2369188.3910987,7808.8999765388,2771417.8754498,17.733723372337,0,0
-113.24499662301,0.29820261131338,12.538153815382,2369188.3910987,7808.8999765388,2771417.8754498,17.738153815382,0,0
-113.24499611923,0.28302830860809,12.542584258426,2369188.3910987,7808.8999765388,2771417.8754498,17.742584258426,0,0
-113.24499561545,0.26785400590279,12.54701470147,2369188.3910987,7808.8999765388,2771417.8754498,17.74701470147,0,0
-113.24499511168,0.25267970319751,12.551445144514,2369188.3910987,7808.8999765388,2771417.8754498,17.751445144514,0,0
-113.2449946079,0.23750540049221,12.555875587559,2369188.3910987,7808.8999765388,2771417.8754498,17.755875587559,0,0
-113.24499410413,0.22233109778692,12.560306030603,2369188.3910987,7808.8999765388,2771417.8754498,17.760306030603,0,0
-113.24499360035,0.20715679508162,12.564736473647,2369188.3910987,7808.8999765388,2771417.8754498,17.764736473647,0,0
-113.24499309657,0.19198249237633,12.569166916692,2369188.3910987,7808.8999765388,2771417.8754498,17.769166916692,0,0
-113.2449925928,0.17680818967104,12.573597359736,2369188.3910987,7808.8999765388,2771417.8754498,17.773597359736,0,0
-113.24499208902,0.16163388696575,12.57802780278,2369188.3910987,7808.8999765388,2771417.8754498,17.77802780278,0,0
-113.24499158525,0.14645958426045,12.582458245825,2369188.3910987,7808.8999765388,2771417.8754498,17.782458245825,0,0
-113.24499108147,0.13128528155516,12.586888688869,2369188.3910987,7808.8999765388,2771417.8754498,17.786888688869,0,0
-113.24499057769,0.11611097884986,12.591319131913,2369188.3910987,7808.8999765388,2771417.8754498,17.791319131913,0,0
-113.24499007392,0.10093667614457,12.595749574957,2369188.3910987,7808.8999765388,2771417.8754498,17.795749574957,0,0
-113.24498957014,0.085762373439275,12.600180018002,2369188.3910987,7808.8999765388,2771417.8754498,17.800180018002,0,0
-113.24498906636,0.070588070733988,12.604610461046,2369188.3910987,7808.8999765388,2771417.8754498,17.804610461046,0,0
-113.24498856259,0.055413768028688,12.60904090409,2369188.3910987,7808.8999765388,2771417.8754498,17.80904090409,0,0
-113.24498805881,0.040239465323401,12.613471347135,2369188.3910987,7808.8999765388,2771417.8754498,17.813471347135,0,0
-113.24498755504,0.025065162618102,12.617901790179,2369188.3910987,7808.8999765388,2771417.8754498,17.817901790179,0,0
-113.24498705126,0.009890859912815,12.622332233223,2369188.3910987,7808.8999765388,2771417.8754498,17.822332233223,0,0
-113.24498654748,-0.0052834427924845,12.626762676268,2369188.3910987,7808.8999765388,2771417.8754498,17.826762676268,0,0
-113.24498604371,-0.020457745497784,12.631193119312,2369188.3910987,7808.8999765388,2771417.8754498,17.831193119312,0,0
-113.24498553993,-0.035632048203059,12.635623562356,2369188.3910987,7808.8999765388,2771417.8754498,17.835623562356,0,0
-113.24498503616,-0.050806350908358,12.640054005401,2369188.3910987,7808.8999765388,2771417.8754498,17.840054005401,0,0
-113.24498453238,-0.065980653613645,12.644484448445,2369188.3910987,7808.8999765388,2771417.8754498,17.844484448445,0,0
-113.2449840286,-0.081154956318945,12.648914891489,2369188.3910987,7808.8999765388,2771417.8754498,17.848914891489,0,0
-113.24498352483,-0.096329259024232,12.653345334533,2369188.3910987,7808.8999765388,2771417.8754498,17.853345334533,0,0
-113.24498302105,-0.11150356172953,12.657775777578,2369188.3910987,7808.8999765388,2771417.8754498,17.857775777578,0,0
-113.24498251727,-0.12667786443482,12.662206220622,2369188.3910987,7808.8999765388,2771417.8754498,17.862206220622,0,0
-113.2449820135,-0.14185216714012,12.666636663666,2369188.3910987,7808.8999765388,2771417.8754498,17.866636663666,0,0
-113.24498150972,-0.15702646984541,12.671067106711,2369188.3910987,7808.8999765388,2771417.8754498,17.871067106711,0,0
-113.24498100595,-0.1722007725507,12.675497549755,2369188.3910987,7808.8999765388,2771417.8754498,17.875497549755,0,0
-113.24498050217,-0.18737507525599,12.679927992799,2369188.3910987,7808.8999765388,2771417.8754498,17.879927992799,0,0
-113.24497999839,-0.20254937796129,12.684358435844,2369188.3910987,7808.8999765388,2771417.8754498,17.884358435844,0,0
-113.24497949462,-0.21772368066658,12.688788878888,2369188.3910987,7808.8999765388,2771417.8754498,17.888788878888,0,0
-113.24497899084,-0.23289798337188,12.693219321932,2369188.3910987,7808.8999765388,2771417.8754498,17.893219321932,0,0
-113.24497848706,-0.24807228607715,12.697649764976,2369188.3910987,7808.8999765388,2771417.8754498,17.897649764976,0,0
-113.24497798329,-0.26324658878248,12.702080208021,2369188.3910987,7808.8999765388,2771417.8754498,17.902080208021,0,0
-113.24497747951,-0.27842089148775,12.706510651065,2369188.3910987,7808.8999765388,2771417.8754498,17.906510651065,0,0
-113.24497697574,-0.29359519419305,12.710941094109,2369188.3910987,7808.8999765388,2771417.8754498,17.910941094109,0,0
-113.24497647196,-0.30876949689834,12.715371537154,2369188.3910987,7808.8999765388,2771417.8754498,17.915371537154,0,0
-113.24497596818,-0.32394379960364,12.719801980198,2369188.3910987,7808.8999765388,2771417.8754498,17.919801980198,0,0
-113.24497546441,-0.33911810230892,12.724232423242,2369188.3910987,7808.8999765388,2771417.8754498,17.924232423242,0,0
-113.24497496063,-0.35429240501422,12.728662866287,2369188.3910987,7808.8999765388,2771417.8754498,17.928662866287,0,0
-113.24497445686,-0.36946670771951,12.733093309331,2369188.3910987,7808.8999765388,2771417.8754498,17.933093309331,0,0
-113.24497395308,-0.38464101042481,12.737523752375,2369188.3910987,7808.8999765388,2771417.8754498,17.937523752375,0,0
-113.24497344854,-0.39981531517344,12.74195419542,2374707.0084493,-1123.556207953,2752413.9878932,17.94195419542,0,0
-113.24497294291,-0.41498962286314,12.746384638464,2374707.0084493,-1123.556207953,2752413.9878932,17.946384638464,0,0
-113.24497243727,-0.43016393055286,12.750815081508,2374707.0084493,-1123.556207953,2752413.9878932,17.950815081508,0,0
-113.24497193164,-0.44533823824254,12.755245524552,2374707.0084493,-1123.556207953,2752413.9878932,17.955245524552,0,0
-113.24497142601,-0.46051254593225,12.759675967597,2374707.0084493,-1123.556207953,2752413.9878932,17.959675967597,0,0
-113.24497092037,-0.47568685362195,12.764106410641,2374707.0084493,-1123.556207953,2752413.9878932,17.964106410641,0,0
-113.24497041474,-0.49086116131165,12.768536853685,2374707.0084493,-1123.556207953,2752413.9878932,17.968536853685,0,0
-113.24496990911,-0.50603546900136,12.77296729673,2374707.0084493,-1123.556207953,2752413.9878932,17.97296729673,0,0
-113.24496940347,-0.52120977669107,12.777397739774,2374707.0084493,-1123.556207953,2752413.9878932,17.977397739774,0,0
-113.24496889784,-0.53638408438076,12.781828182818,2374707.0084493,-1123.556207953,2752413.9878932,17.981828182818,0,0
-113.2449683922,-0.55155839207047,12.786258625863,2374707.0084493,-1123.556207953,2752413.9878932,17.986258625863,0,0
-113.24496788657,-0.56673269976017,12.790689068907,2374707.0084493,-1123.556207953,2752413.9878932,17.990689068907,0,0
-113.24496738094,-0.58190700744988,12.795119511951,2374707.0084493,-1123.556207953,2752413.9878932,17.995119511951,0,0
-113.2449668753,-0.59708131513957,12.799549954995,2374707.0084493,-1123.556207953,2752413.9878932,17.999549954995,0,0
-113.24496636967,-0.61225562282928,12.80398039804,2374707.0084493,-1123.556207953,2752413.9878932,18.00398039804,0,0
-113.24496586404,-0.62742993051898,12.808410841084,2374707.0084493,-1123.556207953,2752413.9878932,18.008410841084,0,0
-113.2449653584,-0.64260423820869,12.812841284128,2374707.0084493,-1123.556207953,2752413.9878932,18.012841284128,0,0
-113.24496485277,-0.65777854589839,12.817271727173,2374707.0084493,-1123.556207953,2752413.9878932,18.017271727173,0,0
-113.24496434714,-0.67295285358808,12.821702170217,2374707.0084493,-1123.556207953,2752413.9878932,18.021702170217,0,0
-113.2449638415,-0.68812716127779,12.826132613261,2374707.0084493,-1123.556207953,2752413.9878932,18.026132613261,0,0
-113.24496333587,-0.70330146896749,12.830563056306,2374707.0084493,-1123.556207953,2752413.9878932,18.030563056306,0,0
-113.24496283023,-0.7184757766572,12.83499349935,2374707.0084493,-1123.556207953,2752413.9878932,18.03499349935,0,0
-113.2449623246,-0.7336500843469,12.839423942394,2374707.0084493,-1123.556207953,2752413.9878932,18.039423942394,0,0
-113.24496181897,-0.74882439203661,12.843854385439,2374707.0084493,-1123.556207953,2752413.9878932,18.043854385439,0,0
-113.24496131333,-0.76399869972631,12.848284828483,2374707.0084493,-1123.556207953,2752413.9878932,18.048284828483,0,0
-113.2449608077,-0.77917300741602,12.852715271527,2374707.0084493,-1123.556207953,2752413.9878932,18.052715271527,0,0
-113.24496030207,-0.79434731510571,12.857145714571,2374707.0084493,-1123.556207953,2752413.9878932,18.057145714571,0,0
-113.24495979643,-0.80952162279542,12.861576157616,2374707.0084493,-1123.556207953,2752413.9878932,18.061576157616,0,0
-113.2449592908,-0.82469593048511,12.86600660066,2374707.0084493,-1123.556207953,2752413.9878932,18.06600660066,0,0
-113.24495878517,-0.83987023817482,12.870437043704,2374707.0084493,-1123.556207953,2752413.9878932,18.070437043704,0,0
-113.24495827953,-0.85504454586452,12.874867486749,2374707.0084493,-1123.556207953,2752413.9878932,18.074867486749,0,0
-113.2449577739,-0.87021885355423,12.879297929793,2374707.0084493,-1123.556207953,2752413.9878932,18.079297929793,0,0
-113.24495726826,-0.88539316124393,12.883728372837,2374707.0084493,-1123.556207953,2752413.9878932,18.083728372837,0,0
-113.24495676263,-0.90056746893364,12.888158815882,2374707.0084493,-1123.556207953,2752413.9878932,18.088158815882,0,0
-113.244956257,-0.91574177662333,12.892589258926,2374707.0084493,-1123.556207953,2752413.9878932,18.092589258926,0,0
-113.24495575136,-0.93091608431304,12.89701970197,2374707.0084493,-1123.556207953,2752413.9878932,18.09701970197,0,0
-113.24495524573,-0.94609039200275,12.901450145015,2374707.0084493,-1123.556207953,2752413.9878932,18.101450145014,0,0
-113.2449547401,-0.96126469969246,12.905880588059,2374707.0084493,-1123.556207953,2752413.9878932,18.105880588059,0,0
-113.24495423446,-0.97643900738214,12.910311031103,2374707.0084493,-1123.556207953,2752413.9878932,18.110311031103,0,0
-113.24495372883,-0.99161331507185,12.914741474147,2374707.0084493,-1123.556207953,2752413.9878932,18.114741474147,0,0
-113.24495322319,-1.0067876227616,12.919171917192,2374707.0084493,-1123.556207953,2752413.9878932,18.119171917192,0,0
-113.24495271756,-1.0219619304513,12.923602360236,2374707.0084493,-1123.556207953,2752413.9878932,18.123602360236,0,0
-113.24495221193,-1.037136238141,12.92803280328,2374707.0084493,-1123.556207953,2752413.9878932,18.12803280328,0,0
-113.24495170629,-1.0523105458307,12.932463246325,2374707.0084493,-1123.556207953,2752413.9878932,18.132463246325,0,0
-113.24495120066,-1.0674848535204,12.936893689369,2374707.0084493,-1123.556207953,2752413.9878932,18.136893689369,0,0
-113.24495069503,-1.0826591612101,12.941324132413,2374707.0084493,-1123.556207953,2752413.9878932,18.141324132413,0,0
-113.24495018939,-1.0978334688998,12.945754575458,2374707.0084493,-1123.556207953,2752413.9878932,18.145754575458,0,0
-113.24494968376,-1.1130077765895,12.950185018502,2374707.0084493,-1123.556207953,2752413.9878932,18.150185018502,0,0
-113.24494917813,-1.1281820842792,12.954615461546,2374707.0084493,-1123.556207953,2752413.9878932,18.154615461546,0,0
-113.24494867249,-1.1433563919689,12.95904590459,2374707.0084493,-1123.556207953,2752413.9878932,18.15904590459,0,0
-113.24494816686,-1.1585306996586,12.963476347635,2374707.0084493,-1123.556207953,2752413.9878932,18.163476347635,0,0
-113.24494766122,-1.1737050073483,12.967906790679,2374707.0084493,-1123.556207953,2752413.9878932,18.167906790679,0,0
-113.24494715559,-1.188879315038,12.972337233723,2374707.0084493,-1123.556207953,2752413.9878932,18.172337233723,0,0
-113.24494664996,-1.2040536227277,12.976767676768,2374707.0084493,-1123.556207953,2752413.9878932,18.176767676768,0,0
-113.24494614432,-1.2192279304174,12.981198119812,2374707.0084493,-1123.556207953,2752413.9878932,18.181198119812,0,0
-113.24494563869,-1.2344022381071,12.985628562856,2374707.0084493,-1123.556207953,2752413.9878932,18.185628562856,0,0
-113.24494513306,-1.2495765457968,12.990059005901,2374707.0084493,-1123.556207953,2752413.9878932,18.190059005901,0,0
-113.24494462742,-1.2647508534865,12.994489448945,2374707.0084493,-1123.556207953,2752413.9878932,18.194489448945,0,0
-113.24494412179,-1.2799251611762,12.998919891989,2374707.0084493,-1123.556207953,2752413.9878932,18.198919891989,0,0
-113.24494361616,-1.2950994688659,13.003350335034,2374707.0084493,-1123.556207953,2752413.9878932,18.203350335034,0,0
-113.24494311052,-1.3102737765556,13.007780778078,2374707.0084493,-1123.556207953,2752413.9878932,18.207780778078,0,0
-113.24494260489,-1.3254480842453,13.012211221122,2374707.0084493,-1123.556207953,2752413.9878932,18.212211221122,0,0
-113.24494209925,-1.340622391935,13.016641664166,2374707.0084493,-1123.556207953,2752413.9878932,18.216641664166,0,0
-113.24494159362,-1.3557966996247,13.021072107211,2374707.0084493,-1123.556207953,2752413.9878932,18.221072107211,0,0
-113.24494108799,-1.3709710073144,13.025502550255,2374707.0084493,-1123.556207953,2752413.9878932,18.225502550255,0,0
-113.24494058235,-1.3861453150041,13.029932993299,2374707.0084493,-1123.556207953,2752413.9878932,18.229932993299,0,0
-113.24494007672,-1.4013196226938,13.034363436344,2374707.0084493,-1123.556207953,2752413.9878932,18.234363436344,0,0
-113.24493957109,-1.4164939303835,13.038793879388,2374707.0084493,-1123.556207953,2752413.9878932,18.238793879388,0,0
-113.24493906545,-1.4316682380732,13.043224322432,2374707.0084493,-1123.556207953,2752413.9878932,18.243224322432,0,0
-113.24493855982,-1.4468425457629,13.047654765477,2374707.0084493,-1123.556207953,2752413.9878932,18.247654765477,0,0
-113.24493805418,-1.4620168534526,13.052085208521,2374707.0084493,-1123.556207953,2752413.9878932,18.252085208521,0,0
-113.24493754855,-1.4771911611423,13.056515651565,2374707.0084493,-1123.556207953,2752413.9878932,18.256515651565,0,0
-113.24493704292,-1.492365468832,13.060946094609,2374707.0084493,-1123.556207953,2752413.9878932,18.260946094609,0,0
-113.24493653728,-1.5075397765217,13.065376537654,2374707.0084493,-1123.556207953,2752413.9878932,18.265376537654,0,0
-113.24493603165,-1.5227140842114,13.069806980698,2374707.0084493,-1123.556207953,2752413.9878932,18.269806980698,0,0
-113.24493552602,-1.5378883919012,13.074237423742,2374707.0084493,-1123.556207953,2752413.9878932,18.274237423742,0,0
-113.24493502038,-1.5530626995908,13.078667866787,2374707.0084493,-1123.556207953,2752413.9878932,18.278667866787,0,0
-113.24493451475,-1.5682370072806,13.083098309831,2374707.0084493,-1123.556207953,2752413.9878932,18.283098309831,0,0
-113.24493400912,-1.5834113149703,13.087528752875,2374707.0084493,-1123.556207953,2752413.9878932,18.287528752875,0,0
-113.24493350348,-1.59858562266,13.09195919592,2374707.0084493,-1123.556207953,2752413.9878932,18.29195919592,0,0
-113.24493299785,-1.6137599303497,13.096389638964,2374707.0084493,-1123.556207953,2752413.9878932,18.296389638964,0,0
-113.24493249221,-1.6289342380394,13.100820082008,2374707.0084493,-1123.556207953,2752413.9878932,18.300820082008,0,0
-113.24493198658,-1.6441085457291,13.105250525053,2374707.0084493,-1123.556207953,2752413.9878932,18.305250525053,0,0
-113.24493148095,-1.6592828534188,13.109680968097,2374707.0084493,-1123.556207953,2752413.9878932,18.309680968097,0,0
-113.24493097531,-1.6744571611085,13.114111411141,2374707.0084493,-1123.556207953,2752413.9878932,18.314111411141,0,0
-113.24493046968,-1.6896314687982,13.118541854185,2374707.0084493,-1123.556207953,2752413.9878932,18.318541854185,0,0
-113.24492996405,-1.7048057764879,13.12297229723,2374707.0084493,-1123.556207953,2752413.9878932,18.32297229723,0,0
-113.24492945841,-1.7199800841776,13.127402740274,2374707.0084493,-1123.556207953,2752413.9878932,18.327402740274,0,0
-113.24492895278,-1.7351543918673,13.131833183318,2374707.0084493,-1123.556207953,2752413.9878932,18.331833183318,0,0
-113.24492844715,-1.750328699557,13.136263626363,2374707.0084493,-1123.556207953,2752413.9878932,18.336263626363,0,0
-113.24492794151,-1.7655030072467,13.140694069407,2374707.0084493,-1123.556207953,2752413.9878932,18.340694069407,0,0
-113.24492743588,-1.7806773149364,13.145124512451,2374707.0084493,-1123.556207953,2752413.9878932,18.345124512451,0,0
-113.24492693024,-1.7958516226261,13.149554955496,2374707.0084493,-1123.556207953,2752413.9878932,18.349554955496,0,0
-113.24492642461,-1.8110259303158,13.15398539854,2374707.0084493,-1123.556207953,2752413.9878932,18.35398539854,0,0
-113.24492591898,-1.8262002380055,13.158415841584,2374707.0084493,-1123.556207953,2752413.9878932,18.358415841584,0,0
-113.24492541334,-1.8413745456952,13.162846284628,2374707.0084493,-1123.556207953,2752413.9878932,18.362846284628,0,0
-113.24492490771,-1.8565488533849,13.167276727673,2374707.0084493,-1123.556207953,2752413.9878932,18.367276727673,0,0
-113.24492440208,-1.8717231610746,13.171707170717,2374707.0084493,-1123.556207953,2752413.9878932,18.371707170717,0,0
-113.24492389644,-1.8868974687643,13.176137613761,2374707.0084493,-1123.556207953,2752413.9878932,18.376137613761,0,0
-113.24492339081,-1.902071776454,13.180568056806,2374707.0084493,-1123.556207953,2752413.9878932,18.380568056806,0,0
-113.24492288518,-1.9172460841437,13.18499849985,2374707.0084493,-1123.556207953,2752413.9878932,18.38499849985,0,0
-113.24492237954,-1.9324203918334,13.189428942894,2374707.0084493,-1123.556207953,2752413.9878932,18.389428942894,0,0
-113.24492187391,-1.9475946995231,13.193859385939,2374707.0084493,-1123.556207953,2752413.9878932,18.393859385939,0,0
-113.24492136827,-1.9627690072128,13.198289828983,2374707.0084493,-1123.556207953,2752413.9878932,18.398289828983,0,0
-113.24492086264,-1.9779433149025,13.202720272027,2374707.0084493,-1123.556207953,2752413.9878932,18.402720272027,0,0
-113.24492035701,-1.9931176225922,13.207150715072,2374707.0084493,-1123.556207953,2752413.9878932,18.407150715072,0,0
-113.24491985137,-2.0082919302819,13.211581158116,2374707.0084493,-1123.556207953,2752413.9878932,18.411581158116,0,0
-113.24491934574,-2.0234662379716,13.21601160116,2374707.0084493,-1123.556207953,2752413.9878932,18.41601160116,0,0
-113.24491884011,-2.0386405456613,13.220442044204,2374707.0084493,-1123.556207953,2752413.9878932,18.420442044204,0,0
-113.24491833447,-2.053814853351,13.224872487249,2374707.0084493,-1123.556207953,2752413.9878932,18.424872487249,0,0
-113.24491782884,-2.0689891610407,13.229302930293,2374707.0084493,-1123.556207953,2752413.9878932,18.429302930293,0,0
-113.2449173232,-2.0841634687304,13.233733373337,2374707.0084493,-1123.556207953,2752413.9878932,18.433733373337,0,0
-113.24491681757,-2.0993377764201,13.238163816382,2374707.0084493,-1123.556207953,2752413.9878932,18.438163816382,0,0
-113.24491631194,-2.1145120841099,13.242594259426,2374707.0084493,-1123.556207953,2752413.9878932,18.442594259426,0,0
-113.2449158063,-2.1296863917996,13.24702470247,2374707.0084493,-1123.556207953,2752413.9878932,18.44702470247,0,0
-113.24491530067,-2.1448606994893,13.251455145515,2374707.0084493,-1123.556207953,2752413.9878932,18.451455145515,0,0
-113.24491479504,-2.160035007179,13.255885588559,2374707.0084493,-1123.556207953,2752413.9878932,18.455885588559,0,0
-113.2449142894,-2.1752093148687,13.260316031603,2374707.0084493,-1123.556207953,2752413.9878932,18.460316031603,0,0
-113.24491378377,-2.1903836225584,13.264746474647,2374707.0084493,-1123.556207953,2752413.9878932,18.464746474647,0,0
-113.24491327814,-2.2055579302481,13.269176917692,2374707.0084493,-1123.556207953,2752413.9878932,18.469176917692,0,0
-113.2449127725,-2.2207322379378,13.273607360736,2374707.0084493,-1123.556207953,2752413.9878932,18.473607360736,0,0
-113.24491226687,-2.2359065456275,13.27803780378,2374707.0084493,-1123.556207953,2752413.9878932,18.47803780378,0,0
-113.24491176123,-2.2510808533172,13.282468246825,2374707.0084493,-1123.556207953,2752413.9878932,18.482468246825,0,0
-113.2449112556,-2.2662551610069,13.286898689869,2374707.0084493,-1123.556207953,2752413.9878932,18.486898689869,0,0
-113.24491074997,-2.2814294686966,13.291329132913,2374707.0084493,-1123.556207953,2752413.9878932,18.491329132913,0,0
-113.24491024433,-2.2966037763863,13.295759575958,2374707.0084493,-1123.556207953,2752413.9878932,18.495759575958,0,0
-113.2449097387,-2.311778084076,13.300190019002,2374707.0084493,-1123.556207953,2752413.9878932,18.500190019002,0,0
-113.24490923307,-2.3269523917657,13.304620462046,2374707.0084493,-1123.556207953,2752413.9878932,18.504620462046,0,0
-113.24490872743,-2.3421266994554,13.309050905091,2374707.0084493,-1123.556207953,2752413.9878932,18.509050905091,0,0
-113.2449082218,-2.3573010071451,13.313481348135,2374707.0084493,-1123.556207953,2752413.9878932,18.513481348135,0,0
-113.24490771617,-2.3724753148348,13.317911791179,2374707.0084493,-1123.556207953,2752413.9878932,18.517911791179,0,0
-113.24490721053,-2.3876496225245,13.322342234223,2374707.0084493,-1123.556207953,2752413.9878932,18.522342234223,0,0
-113.2449067049,-2.4028239302142,13.326772677268,2374707.0084493,-1123.556207953,2752413.9878932,18.526772677268,0,0
-113.24490619926,-2.4179982379039,13.331203120312,2374707.0084493,-1123.556207953,2752413.9878932,18.531203120312,0,0
-113.24490569363,-2.4331725455936,13.335633563356,2374707.0084493,-1123.556207953,2752413.9878932,18.535633563356,0,0
-113.244905188,-2.4483468532833,13.340064006401,2374707.0084493,-1123.556207953,2752413.9878932,18.540064006401,0,0
-113.24490468236,-2.463521160973,13.344494449445,2374707.0084493,-1123.556207953,2752413.9878932,18.544494449445,0,0
-113.24490417673,-2.4786954686627,13.348924892489,2374707.0084493,-1123.556207953,2752413.9878932,18.548924892489,0,0
-113.2449036711,-2.4938697763524,13.353355335534,2374707.0084493,-1123.556207953,2752413.9878932,18.553355335534,0,0
-113.24490316546,-2.5090440840421,13.357785778578,2374707.0084493,-1123.556207953,2752413.9878932,18.557785778578,0,0
-113.24490265983,-2.5242183917318,13.362216221622,2374707.0084493,-1123.556207953,2752413.9878932,18.562216221622,0,0
-113.24490215419,-2.5393926994215,13.366646664666,2374707.0084493,-1123.556207953,2752413.9878932,18.566646664666,0,0
-113.24490164856,-2.5545670071112,13.371077107711,2374707.0084493,-1123.556207953,2752413.9878932,18.571077107711,0,0
-113.24490114293,-2.5697413148009,13.375507550755,2374707.0084493,-1123.556207953,2752413.9878932,18.575507550755,0,0
-113.24490063729,-2.5849156224907,13.379937993799,2374707.0084493,-1123.556207953,2752413.9878932,18.579937993799,0,0
-113.24490013166,-2.6000899301804,13.384368436844,2374707.0084493,-1123.556207953,2752413.9878932,18.584368436844,0,0
-113.24489962603,-2.6152642378701,13.388798879888,2374707.0084493,-1123.556207953,2752413.9878932,18.588798879888,0,0
-113.24489912039,-2.6304385455597,13.393229322932,2374707.0084493,-1123.556207953,2752413.9878932,18.593229322932,0,0
-113.24489861476,-2.6456128532495,13.397659765977,2374707.0084493,-1123.556207953,2752413.9878932,18.597659765977,0,0
-113.24489810913,-2.6607871609392,13.402090209021,2374707.0084493,-1123.556207953,2752413.9878932,18.602090209021,0,0
-113.24489760349,-2.6759614686289,13.406520652065,2374707.0084493,-1123.556207953,2752413.9878932,18.606520652065,0,0
-113.24489709786,-2.6911357763186,13.41095109511,2374707.0084493,-1123.556207953,2752413.9878932,18.61095109511,0,0
-113.24489659222,-2.7063100840083,13.415381538154,2374707.0084493,-1123.556207953,2752413.9878932,18.615381538154,0,0
-113.24489608659,-2.721484391698,13.419811981198,2374707.0084493,-1123.556207953,2752413.9878932,18.619811981198,0,0
-113.24489558096,-2.7366586993877,13.424242424242,2374707.0084493,-1123.556207953,2752413.9878932,18.624242424242,0,0
-113.24489507532,-2.7518330070774,13.428672867287,2374707.0084493,-1123.556207953,2752413.9878932,18.628672867287,0,0
-113.24489456969,-2.7670073147671,13.433103310331,2374707.0084493,-1123.556207953,2752413.9878932,18.633103310331,0,0
-113.24489406406,-2.7821816224568,13.437533753375,2374707.0084493,-1123.556207953,2752413.9878932,18.637533753375,0,0
-113.24489355842,-2.7973559301465,13.44196419642,2374707.0084493,-1123.556207953,2752413.9878932,18.64196419642,0,0
-113.24489305279,-2.8125302378362,13.446394639464,2374707.0084493,-1123.556207953,2752413.9878932,18.646394639464,0,0
-113.24489254716,-2.8277045455259,13.450825082508,2374707.0084493,-1123.556207953,2752413.9878932,18.650825082508,0,0
-113.24489204152,-2.8428788532156,13.455255525553,2374707.0084493,-1123.556207953,2752413.9878932,18.655255525553,0,0
-113.24489153589,-2.8580531609053,13.459685968597,2374707.0084493,-1123.556207953,2752413.9878932,18.659685968597,0,0
-113.24489103025,-2.873227468595,13.464116411641,2374707.0084493,-1123.556207953,2752413.9878932,18.664116411641,0,0
-113.24489052462,-2.8884017762847,13.468546854685,2374707.0084493,-1123.556207953,2752413.9878932,18.668546854685,0,0
-113.24489001899,-2.9035760839744,13.47297729773,2374707.0084493,-1123.556207953,2752413.9878932,18.67297729773,0,0
-113.24488951335,-2.9187503916641,13.477407740774,2374707.0084493,-1123.556207953,2752413.9878932,18.677407740774,0,0
-113.2448890056,-2.9339246967622,13.481838183818,2393899.0442246,4770.3371400391,2746029.644578,18.681838183818,0,0
-113.24488849659,-2.9490990003329,13.486268626863,2393899.0442246,4770.3371400391,2746029.644578,18.686268626863,0,0
-113.24488798759,-2.9642733039036,13.490699069907,2393899.0442246,4770.3371400391,2746029.644578,18.690699069907,0,0
-113.24488747858,-2.9794476074742,13.495129512951,2393899.0442246,4770.3371400391,2746029.644578,18.695129512951,0,0
-113.24488696957,-2.9946219110449,13.499559955996,2393899.0442246,4770.3371400391,2746029.644578,18.699559955996,0,0
-113.24488646057,-3.0097962146156,13.50399039904,2393899.0442246,4770.3371400391,2746029.644578,18.70399039904,0,0
-113.24488595156,-3.0249705181863,13.508420842084,2393899.0442246,4770.3371400391,2746029.644578,18.708420842084,0,0
-113.24488544256,-3.040144821757,13.512851285129,2393899.0442246,4770.3371400391,2746029.644578,18.712851285129,0,0
-113.24488493355,-3.0553191253277,13.517281728173,2393899.0442246,4770.3371400391,2746029.644578,18.717281728173,0,0
-113.24488442455,-3.0704934288984,13.521712171217,2393899.0442246,4770.3371400391,2746029.644578,18.721712171217,0,0
-113.24488391554,-3.085667732469,13.526142614261,2393899.0442246,4770.3371400391,2746029.644578,18.726142614261,0,0
-113.24488340653,-3.1008420360397,13.530573057306,2393899.0442246,4770.3371400391,2746029.644578,18.730573057306,0,0
-113.24488289753,-3.1160163396104,13.53500350035,2393899.0442246,4770.3371400391,2746029.644578,18.73500350035,0,0
-113.24488238852,-3.1311906431811,13.539433943394,2393899.0442246,4770.3371400391,2746029.644578,18.739433943394,0,0
-113.24488187952,-3.1463649467518,13.543864386439,2393899.0442246,4770.3371400391,2746029.644578,18.743864386439,0,0
-113.24488137051,-3.1615392503225,13.548294829483,2393899.0442246,4770.3371400391,2746029.644578,18.748294829483,0,0
-113.2448808615,-3.1767135538932,13.552725272527,2393899.0442246,4770.3371400391,2746029.644578,18.752725272527,0,0
-113.2448803525,-3.1918878574639,13.557155715572,2393899.0442246,4770.3371400391,2746029.644578,18.757155715572,0,0
-113.24487984349,-3.2070621610345,13.561586158616,2393899.0442246,4770.3371400391,2746029.644578,18.761586158616,0,0
-113.24487933449,-3.2222364646052,13.56601660166,2393899.0442246,4770.3371400391,2746029.644578,18.76601660166,0,0
-113.24487882548,-3.2374107681759,13.570447044704,2393899.0442246,4770.3371400391,2746029.644578,18.770447044704,0,0
-113.24487831647,-3.2525850717466,13.574877487749,2393899.0442246,4770.3371400391,2746029.644578,18.774877487749,0,0
-113.24487780747,-3.2677593753173,13.579307930793,2393899.0442246,4770.3371400391,2746029.644578,18.779307930793,0,0
-113.24487729846,-3.282933678888,13.583738373837,2393899.0442246,4770.3371400391,2746029.644578,18.783738373837,0,0
-113.24487678946,-3.2981079824587,13.588168816882,2393899.0442246,4770.3371400391,2746029.644578,18.788168816882,0,0
-113.24487628045,-3.3132822860294,13.592599259926,2393899.0442246,4770.3371400391,2746029.644578,18.792599259926,0,0
-113.24487577145,-3.3284565896,13.59702970297,2393899.0442246,4770.3371400391,2746029.644578,18.79702970297,0,0
-113.24487526244,-3.3436308931707,13.601460146015,2393899.0442246,4770.3371400391,2746029.644578,18.801460146015,0,0
-113.24487475343,-3.3588051967414,13.605890589059,2393899.0442246,4770.3371400391,2746029.644578,18.805890589059,0,0
-113.24487424443,-3.3739795003121,13.610321032103,2393899.0442246,4770.3371400391,2746029.644578,18.810321032103,0,0
-113.24487373542,-3.3891538038828,13.614751475148,2393899.0442246,4770.3371400391,2746029.644578,18.814751475148,0,0
-113.24487322642,-3.4043281074535,13.619181918192,2393899.0442246,4770.3371400391,2746029.644578,18.819181918192,0,0
-113.24487271741,-3.4195024110242,13.623612361236,2393899.0442246,4770.3371400391,2746029.644578,18.823612361236,0,0
-113.2448722084,-3.4346767145948,13.62804280428,2393899.0442246,4770.3371400391,2746029.644578,18.82804280428,0,0
-113.2448716994,-3.4498510181655,13.632473247325,2393899.0442246,4770.3371400391,2746029.644578,18.832473247325,0,0
-113.24487119039,-3.4650253217362,13.636903690369,2393899.0442246,4770.3371400391,2746029.644578,18.836903690369,0,0
-113.24487068139,-3.4801996253069,13.641334133413,2393899.0442246,4770.3371400391,2746029.644578,18.841334133413,0,0
-113.24487017238,-3.4953739288776,13.645764576458,2393899.0442246,4770.3371400391,2746029.644578,18.845764576458,0,0
-113.24486966338,-3.5105482324483,13.650195019502,2393899.0442246,4770.3371400391,2746029.644578,18.850195019502,0,0
-113.24486915437,-3.525722536019,13.654625462546,2393899.0442246,4770.3371400391,2746029.644578,18.854625462546,0,0
-113.24486864536,-3.5408968395897,13.659055905591,2393899.0442246,4770.3371400391,2746029.644578,18.859055905591,0,0
-113.24486813636,-3.5560711431603,13.663486348635,2393899.0442246,4770.3371400391,2746029.644578,18.863486348635,0,0
-113.24486762735,-3.571245446731,13.667916791679,2393899.0442246,4770.3371400391,2746029.644578,18.867916791679,0,0
-113.24486711835,-3.5864197503017,13.672347234723,2393899.0442246,4770.3371400391,2746029.644578,18.872347234723,0,0
-113.24486660934,-3.6015940538724,13.676777677768,2393899.0442246,4770.3371400391,2746029.644578,18.876777677768,0,0
-113.24486610033,-3.6167683574431,13.681208120812,2393899.0442246,4770.3371400391,2746029.644578,18.881208120812,0,0
-113.24486559133,-3.6319426610138,13.685638563856,2393899.0442246,4770.3371400391,2746029.644578,18.885638563856,0,0
-113.24486508232,-3.6471169645845,13.690069006901,2393899.0442246,4770.3371400391,2746029.644578,18.890069006901,0,0
-113.24486457332,-3.6622912681552,13.694499449945,2393899.0442246,4770.3371400391,2746029.644578,18.894499449945,0,0
-113.24486406431,-3.6774655717258,13.698929892989,2393899.0442246,4770.3371400391,2746029.644578,18.898929892989,0,0
-113.24486355531,-3.6926398752965,13.703360336034,2393899.0442246,4770.3371400391,2746029.644578,18.903360336034,0,0
-113.2448630463,-3.7078141788672,13.707790779078,2393899.0442246,4770.3371400391,2746029.644578,18.907790779078,0,0
-113.24486253729,-3.7229884824379,13.712221222122,2393899.0442246,4770.3371400391,2746029.644578,18.912221222122,0,0
-113.24486202829,-3.7381627860086,13.716651665167,2393899.0442246,4770.3371400391,2746029.644578,18.916651665167,0,0
-113.24486151928,-3.7533370895793,13.721082108211,2393899.0442246,4770.3371400391,2746029.644578,18.921082108211,0,0
-113.24486101028,-3.76851139315,13.725512551255,2393899.0442246,4770.3371400391,2746029.644578,18.925512551255,0,0
-113.24486050127,-3.7836856967206,13.729942994299,2393899.0442246,4770.3371400391,2746029.644578,18.929942994299,0,0
-113.24485999226,-3.7988600002913,13.734373437344,2393899.0442246,4770.3371400391,2746029.644578,18.934373437344,0,0
-113.24485948326,-3.814034303862,13.738803880388,2393899.0442246,4770.3371400391,2746029.644578,18.938803880388,0,0
-113.24485897425,-3.8292086074327,13.743234323432,2393899.0442246,4770.3371400391,2746029.644578,18.943234323432,0,0
-113.24485846525,-3.8443829110034,13.747664766477,2393899.0442246,4770.3371400391,2746029.644578,18.947664766477,0,0
-113.24485795624,-3.8595572145741,13.752095209521,2393899.0442246,4770.3371400391,2746029.644578,18.952095209521,0,0
-113.24485744724,-3.8747315181448,13.756525652565,2393899.0442246,4770.3371400391,2746029.644578,18.956525652565,0,0
-113.24485693823,-3.8899058217155,13.76095609561,2393899.0442246,4770.3371400391,2746029.644578,18.96095609561,0,0
-113.24485642922,-3.9050801252861,13.765386538654,2393899.0442246,4770.3371400391,2746029.644578,18.965386538654,0,0
-113.24485592022,-3.9202544288568,13.769816981698,2393899.0442246,4770.3371400391,2746029.644578,18.969816981698,0,0
-113.24485541121,-3.9354287324275,13.774247424742,2393899.0442246,4770.3371400391,2746029.644578,18.974247424742,0,0
-113.24485490221,-3.9506030359982,13.778677867787,2393899.0442246,4770.3371400391,2746029.644578,18.978677867787,0,0
-113.2448543932,-3.9657773395689,13.783108310831,2393899.0442246,4770.3371400391,2746029.644578,18.983108310831,0,0
-113.24485388419,-3.9809516431396,13.787538753875,2393899.0442246,4770.3371400391,2746029.644578,18.987538753875,0,0
-113.24485337519,-3.9961259467103,13.79196919692,2393899.0442246,4770.3371400391,2746029.644578,18.99196919692,0,0
-113.24485286618,-4.011300250281,13.796399639964,2393899.0442246,4770.3371400391,2746029.644578,18.996399639964,0,0
-113.24485235718,-4.0264745538516,13.800830083008,2393899.0442246,4770.3371400391,2746029.644578,19.000830083008,0,0
-113.24485184817,-4.0416488574223,13.805260526053,2393899.0442246,4770.3371400391,2746029.644578,19.005260526053,0,0
-113.24485133916,-4.056823160993,13.809690969097,2393899.0442246,4770.3371400391,2746029.644578,19.009690969097,0,0
-113.24485083016,-4.0719974645637,13.814121412141,2393899.0442246,4770.3371400391,2746029.644578,19.014121412141,0,0
-113.24485032115,-4.0871717681344,13.818551855186,2393899.0442246,4770.3371400391,2746029.644578,19.018551855186,0,0
-113.24484981215,-4.1023460717051,13.82298229823,2393899.0442246,4770.3371400391,2746029.644578,19.02298229823,0,0
-113.24484930314,-4.1175203752758,13.827412741274,2393899.0442246,4770.3371400391,2746029.644578,19.027412741274,0,0
-113.24484879414,-4.1326946788465,13.831843184318,2393899.0442246,4770.3371400391,2746029.644578,19.031843184318,0,0
-113.24484828513,-4.1478689824171,13.836273627363,2393899.0442246,4770.3371400391,2746029.644578,19.036273627363,0,0
-113.24484777612,-4.1630432859878,13.840704070407,2393899.0442246,4770.3371400391,2746029.644578,19.040704070407,0,0
-113.24484726712,-4.1782175895585,13.845134513451,2393899.0442246,4770.3371400391,2746029.644578,19.045134513451,0,0
-113.24484675811,-4.1933918931292,13.849564956496,2393899.0442246,4770.3371400391,2746029.644578,19.049564956496,0,0
-113.24484624911,-4.2085661966999,13.85399539954,2393899.0442246,4770.3371400391,2746029.644578,19.05399539954,0,0
-113.2448457401,-4.2237405002706,13.858425842584,2393899.0442246,4770.3371400391,2746029.644578,19.058425842584,0,0
-113.24484523109,-4.2389148038413,13.862856285629,2393899.0442246,4770.3371400391,2746029.644578,19.062856285629,0,0
-113.24484472209,-4.254089107412,13.867286728673,2393899.0442246,4770.3371400391,2746029.644578,19.067286728673,0,0
-113.24484421308,-4.2692634109826,13.871717171717,2393899.0442246,4770.3371400391,2746029.644578,19.071717171717,0,0
-113.24484370408,-4.2844377145533,13.876147614761,2393899.0442246,4770.3371400391,2746029.644578,19.076147614761,0,0
-113.24484319507,-4.299612018124,13.880578057806,2393899.0442246,4770.3371400391,2746029.644578,19.080578057806,0,0
-113.24484268607,-4.3147863216947,13.88500850085,2393899.0442246,4770.3371400391,2746029.644578,19.08500850085,0,0
-113.24484217706,-4.3299606252654,13.889438943894,2393899.0442246,4770.3371400391,2746029.644578,19.089438943894,0,0
-113.24484166805,-4.3451349288361,13.893869386939,2393899.0442246,4770.3371400391,2746029.644578,19.093869386939,0,0
-113.24484115905,-4.3603092324068,13.898299829983,2393899.0442246,4770.3371400391,2746029.644578,19.098299829983,0,0
-113.24484065004,-4.3754835359774,13.902730273027,2393899.0442246,4770.3371400391,2746029.644578,19.102730273027,0,0
-113.24484014104,-4.3906578395481,13.907160716072,2393899.0442246,4770.3371400391,2746029.644578,19.107160716072,0,0
-113.24483963203,-4.4058321431188,13.911591159116,2393899.0442246,4770.3371400391,2746029.644578,19.111591159116,0,0
-113.24483912302,-4.4210064466895,13.91602160216,2393899.0442246,4770.3371400391,2746029.644578,19.11602160216,0,0
-113.24483861402,-4.4361807502602,13.920452045205,2393899.0442246,4770.3371400391,2746029.644578,19.120452045205,0,0
-113.24483810501,-4.4513550538309,13.924882488249,2393899.0442246,4770.3371400391,2746029.644578,19.124882488249,0,0
-113.24483759601,-4.4665293574016,13.929312931293,2393899.0442246,4770.3371400391,2746029.644578,19.129312931293,0,0
-113.244837087,-4.4817036609722,13.933743374337,2393899.0442246,4770.3371400391,2746029.644578,19.133743374337,0,0
-113.244836578,-4.496877964543,13.938173817382,2393899.0442246,4770.3371400391,2746029.644578,19.138173817382,0,0
-113.24483606899,-4.5120522681136,13.942604260426,2393899.0442246,4770.3371400391,2746029.644578,19.142604260426,0,0
-113.24483555998,-4.5272265716843,13.94703470347,2393899.0442246,4770.3371400391,2746029.644578,19.14703470347,0,0
-113.24483505098,-4.542400875255,13.951465146515,2393899.0442246,4770.3371400391,2746029.644578,19.151465146515,0,0
-113.24483454197,-4.5575751788257,13.955895589559,2393899.0442246,4770.3371400391,2746029.644578,19.155895589559,0,0
-113.24483403297,-4.5727494823964,13.960326032603,2393899.0442246,4770.3371400391,2746029.644578,19.160326032603,0,0
-113.24483352396,-4.5879237859671,13.964756475648,2393899.0442246,4770.3371400391,2746029.644578,19.164756475648,0,0
-113.24483301495,-4.6030980895377,13.969186918692,2393899.0442246,4770.3371400391,2746029.644578,19.169186918692,0,0
-113.24483250595,-4.6182723931084,13.973617361736,2393899.0442246,4770.3371400391,2746029.644578,19.173617361736,0,0
-113.24483199694,-4.6334466966791,13.97804780478,2393899.0442246,4770.3371400391,2746029.644578,19.17804780478,0,0
-113.24483148794,-4.6486210002498,13.982478247825,2393899.0442246,4770.3371400391,2746029.644578,19.182478247825,0,0
-113.24483097893,-4.6637953038205,13.986908690869,2393899.0442246,4770.3371400391,2746029.644578,19.186908690869,0,0
-113.24483046993,-4.6789696073912,13.991339133913,2393899.0442246,4770.3371400391,2746029.644578,19.191339133913,0,0
-113.24482996092,-4.6941439109619,13.995769576958,2393899.0442246,4770.3371400391,2746029.644578,19.195769576958,0,0
-113.24482945191,-4.7093182145326,14.000200020002,2393899.0442246,4770.3371400391,2746029.644578,19.200200020002,0,0
-113.24482894291,-4.7244925181033,14.004630463046,2393899.0442246,4770.3371400391,2746029.644578,19.204630463046,0,0
-113.2448284339,-4.7396668216739,14.009060906091,2393899.0442246,4770.3371400391,2746029.644578,19.209060906091,0,0
-113.2448279249,-4.7548411252446,14.013491349135,2393899.0442246,4770.3371400391,2746029.644578,19.213491349135,0,0
-113.24482741579,-4.7700154290678,14.017921792179,2398955.2701219,-2383.7119920801,2729640.7488557,19.217921792179,0,0
-113.24482690513,-4.7851897367837,14.022352235224,2398955.2701219,-2383.7119920801,2729640.7488557,19.222352235224,0,0
-113.24482639448,-4.8003640444996,14.026782678268,2398955.2701219,-2383.7119920801,2729640.7488557,19.226782678268,0,0
-113.24482588383,-4.8155383522155,14.031213121312,2398955.2701219,-2383.7119920801,2729640.7488557,19.231213121312,0,0
-113.24482537317,-4.8307126599314,14.035643564356,2398955.2701219,-2383.7119920801,2729640.7488557,19.235643564356,0,0
-113.24482486252,-4.8458869676473,14.040074007401,2398955.2701219,-2383.7119920801,2729640.7488557,19.240074007401,0,0
-113.24482435186,-4.8610612753632,14.044504450445,2398955.2701219,-2383.7119920801,2729640.7488557,19.244504450445,0,0
-113.24482384121,-4.8762355830791,14.048934893489,2398955.2701219,-2383.7119920801,2729640.7488557,19.248934893489,0,0
-113.24482333055,-4.891409890795,14.053365336534,2398955.2701219,-2383.7119920801,2729640.7488557,19.253365336534,0,0
-113.2448228199,-4.9065841985109,14.057795779578,2398955.2701219,-2383.7119920801,2729640.7488557,19.257795779578,0,0
-113.24482230924,-4.9217585062268,14.062226222622,2398955.2701219,-2383.7119920801,2729640.7488557,19.262226222622,0,0
-113.24482179859,-4.9369328139427,14.066656665667,2398955.2701219,-2383.7119920801,2729640.7488557,19.266656665667,0,0
-113.24482128793,-4.9521071216586,14.071087108711,2398955.2701219,-2383.7119920801,2729640.7488557,19.271087108711,0,0
-113.24482077728,-4.9672814293745,14.075517551755,2398955.2701219,-2383.7119920801,2729640.7488557,19.275517551755,0,0
-113.24482026662,-4.9824557370904,14.079947994799,2398955.2701219,-2383.7119920801,2729640.7488557,19.279947994799,0,0
-113.24481975597,-4.9976300448063,14.084378437844,2398955.2701219,-2383.7119920801,2729640.7488557,19.284378437844,0,0
-113.24481924531,-5.0128043525222,14.088808880888,2398955.2701219,-2383.7119920801,2729640.7488557,19.288808880888,0,0
-113.24481873466,-5.0279786602381,14.093239323932,2398955.2701219,-2383.7119920801,2729640.7488557,19.293239323932,0,0
-113.244818224,-5.043152967954,14.097669766977,2398955.2701219,-2383.7119920801,2729640.7488557,19.297669766977,0,0
-113.24481771335,-5.0583272756699,14.102100210021,2398955.2701219,-2383.7119920801,2729640.7488557,19.302100210021,0,0
-113.24481720269,-5.0735015833858,14.106530653065,2398955.2701219,-2383.7119920801,2729640.7488557,19.306530653065,0,0
-113.24481669204,-5.0886758911017,14.11096109611,2398955.2701219,-2383.7119920801,2729640.7488557,19.31096109611,0,0
-113.24481618138,-5.1038501988176,14.115391539154,2398955.2701219,-2383.7119920801,2729640.7488557,19.315391539154,0,0
-113.24481567073,-5.1190245065335,14.119821982198,2398955.2701219,-2383.7119920801,2729640.7488557,19.319821982198,0,0
-113.24481516007,-5.1341988142494,14.124252425243,2398955.2701219,-2383.7119920801,2729640.7488557,19.324252425243,0,0
-113.24481464942,-5.1493731219652,14.128682868287,2398955.2701219,-2383.7119920801,2729640.7488557,19.328682868287,0,0
-113.24481413876,-5.1645474296812,14.133113311331,2398955.2701219,-2383.7119920801,2729640.7488557,19.333113311331,0,0
-113.24481362811,-5.179721737397,14.137543754375,2398955.2701219,-2383.7119920801,2729640.7488557,19.337543754375,0,0
-113.24481311745,-5.194896045113,14.14197419742,2398955.2701219,-2383.7119920801,2729640.7488557,19.34197419742,0,0
-113.2448126068,-5.2100703528288,14.146404640464,2398955.2701219,-2383.7119920801,2729640.7488557,19.346404640464,0,0
-113.24481209615,-5.2252446605447,14.150835083508,2398955.2701219,-2383.7119920801,2729640.7488557,19.350835083508,0,0
-113.24481158549,-5.2404189682606,14.155265526553,2398955.2701219,-2383.7119920801,2729640.7488557,19.355265526553,0,0
-113.24481107484,-5.2555932759765,14.159695969597,2398955.2701219,-2383.7119920801,2729640.7488557,19.359695969597,0,0
-113.24481056418,-5.2707675836924,14.164126412641,2398955.2701219,-2383.7119920801,2729640.7488557,19.364126412641,0,0
-113.24481005353,-5.2859418914083,14.168556855686,2398955.2701219,-2383.7119920801,2729640.7488557,19.368556855686,0,0
-113.24480954287,-5.3011161991242,14.17298729873,2398955.2701219,-2383.7119920801,2729640.7488557,19.37298729873,0,0
-113.24480903222,-5.3162905068401,14.177417741774,2398955.2701219,-2383.7119920801,2729640.7488557,19.377417741774,0,0
-113.24480852156,-5.331464814556,14.181848184818,2398955.2701219,-2383.7119920801,2729640.7488557,19.381848184818,0,0
-113.24480801091,-5.3466391222719,14.186278627863,2398955.2701219,-2383.7119920801,2729640.7488557,19.386278627863,0,0
-113.24480750025,-5.3618134299878,14.190709070907,2398955.2701219,-2383.7119920801,2729640.7488557,19.390709070907,0,0
-113.2448069896,-5.3769877377037,14.195139513951,2398955.2701219,-2383.7119920801,2729640.7488557,19.395139513951,0,0
-113.24480647894,-5.3921620454196,14.199569956996,2398955.2701219,-2383.7119920801,2729640.7488557,19.399569956996,0,0
-113.24480596829,-5.4073363531355,14.20400040004,2398955.2701219,-2383.7119920801,2729640.7488557,19.40400040004,0,0
-113.24480545763,-5.4225106608514,14.208430843084,2398955.2701219,-2383.7119920801,2729640.7488557,19.408430843084,0,0
-113.24480494698,-5.4376849685673,14.212861286129,2398955.2701219,-2383.7119920801,2729640.7488557,19.412861286129,0,0
-113.24480443632,-5.4528592762832,14.217291729173,2398955.2701219,-2383.7119920801,2729640.7488557,19.417291729173,0,0
-113.24480392567,-5.4680335839991,14.221722172217,2398955.2701219,-2383.7119920801,2729640.7488557,19.421722172217,0,0
-113.24480341501,-5.483207891715,14.226152615262,2398955.2701219,-2383.7119920801,2729640.7488557,19.426152615262,0,0
-113.24480290436,-5.4983821994309,14.230583058306,2398955.2701219,-2383.7119920801,2729640.7488557,19.430583058306,0,0
-113.2448023937,-5.5135565071468,14.23501350135,2398955.2701219,-2383.7119920801,2729640.7488557,19.43501350135,0,0
-113.24480188305,-5.5287308148627,14.239443944394,2398955.2701219,-2383.7119920801,2729640.7488557,19.439443944394,0,0
-113.24480137239,-5.5439051225786,14.243874387439,2398955.2701219,-2383.7119920801,2729640.7488557,19.443874387439,0,0
-113.24480086174,-5.5590794302945,14.248304830483,2398955.2701219,-2383.7119920801,2729640.7488557,19.448304830483,0,0
-113.24480035108,-5.5742537380104,14.252735273527,2398955.2701219,-2383.7119920801,2729640.7488557,19.452735273527,0,0
-113.24479984043,-5.5894280457263,14.257165716572,2398955.2701219,-2383.7119920801,2729640.7488557,19.457165716572,0,0
-113.24479932977,-5.6046023534422,14.261596159616,2398955.2701219,-2383.7119920801,2729640.7488557,19.461596159616,0,0
-113.24479881912,-5.6197766611581,14.26602660266,2398955.2701219,-2383.7119920801,2729640.7488557,19.46602660266,0,0
-113.24479830847,-5.634950968874,14.270457045705,2398955.2701219,-2383.7119920801,2729640.7488557,19.470457045705,0,0
-113.24479779781,-5.6501252765899,14.274887488749,2398955.2701219,-2383.7119920801,2729640.7488557,19.474887488749,0,0
-113.24479728716,-5.6652995843058,14.279317931793,2398955.2701219,-2383.7119920801,2729640.7488557,19.479317931793,0,0
-113.2447967765,-5.6804738920217,14.283748374837,2398955.2701219,-2383.7119920801,2729640.7488557,19.483748374837,0,0
-113.24479626585,-5.6956481997376,14.288178817882,2398955.2701219,-2383.7119920801,2729640.7488557,19.488178817882,0,0
-113.24479575519,-5.7108225074535,14.292609260926,2398955.2701219,-2383.7119920801,2729640.7488557,19.492609260926,0,0
-113.24479524454,-5.7259968151694,14.29703970397,2398955.2701219,-2383.7119920801,2729640.7488557,19.49703970397,0,0
-113.24479473388,-5.7411711228853,14.301470147015,2398955.2701219,-2383.7119920801,2729640.7488557,19.501470147015,0,0
-113.24479422323,-5.7563454306012,14.305900590059,2398955.2701219,-2383.7119920801,2729640.7488557,19.505900590059,0,0
-113.24479371257,-5.7715197383171,14.310331033103,2398955.2701219,-2383.7119920801,2729640.7488557,19.510331033103,0,0
-113.24479320192,-5.7866940460329,14.314761476148,2398955.2701219,-2383.7119920801,2729640.7488557,19.514761476148,0,0
-113.24479269126,-5.8018683537489,14.319191919192,2398955.2701219,-2383.7119920801,2729640.7488557,19.519191919192,0,0
-113.24479218061,-5.8170426614647,14.323622362236,2398955.2701219,-2383.7119920801,2729640.7488557,19.523622362236,0,0
-113.24479166995,-5.8322169691806,14.328052805281,2398955.2701219,-2383.7119920801,2729640.7488557,19.528052805281,0,0
-113.2447911593,-5.8473912768965,14.332483248325,2398955.2701219,-2383.7119920801,2729640.7488557,19.532483248325,0,0
-113.24479064864,-5.8625655846124,14.336913691369,2398955.2701219,-2383.7119920801,2729640.7488557,19.536913691369,0,0
-113.24479013799,-5.8777398923283,14.341344134413,2398955.2701219,-2383.7119920801,2729640.7488557,19.541344134413,0,0
-113.24478962733,-5.8929142000443,14.345774577458,2398955.2701219,-2383.7119920801,2729640.7488557,19.545774577458,0,0
-113.24478911668,-5.9080885077601,14.350205020502,2398955.2701219,-2383.7119920801,2729640.7488557,19.550205020502,0,0
-113.24478860602,-5.923262815476,14.354635463546,2398955.2701219,-2383.7119920801,2729640.7488557,19.554635463546,0,0
-113.24478809537,-5.9384371231919,14.359065906591,2398955.2701219,-2383.7119920801,2729640.7488557,19.559065906591,0,0
-113.24478758471,-5.9536114309078,14.363496349635,2398955.2701219,-2383.7119920801,2729640.7488557,19.563496349635,0,0
-113.24478707406,-5.9687857386237,14.367926792679,2398955.2701219,-2383.7119920801,2729640.7488557,19.567926792679,0,0
-113.2447865634,-5.9839600463396,14.372357235724,2398955.2701219,-2383.7119920801,2729640.7488557,19.572357235724,0,0
-113.24478605275,-5.9991343540555,14.376787678768,2398955.2701219,-2383.7119920801,2729640.7488557,19.576787678768,0,0
-113.24478554209,-6.0143086617714,14.381218121812,2398955.2701219,-2383.7119920801,2729640.7488557,19.581218121812,0,0
-113.24478503144,-6.0294829694873,14.385648564856,2398955.2701219,-2383.7119920801,2729640.7488557,19.585648564856,0,0
-113.24478452079,-6.0446572772032,14.390079007901,2398955.2701219,-2383.7119920801,2729640.7488557,19.590079007901,0,0
-113.24478401013,-6.0598315849191,14.394509450945,2398955.2701219,-2383.7119920801,2729640.7488557,19.594509450945,0,0
-113.24478349948,-6.075005892635,14.398939893989,2398955.2701219,-2383.7119920801,2729640.7488557,19.598939893989,0,0
-113.24478298882,-6.0901802003509,14.403370337034,2398955.2701219,-2383.7119920801,2729640.7488557,19.603370337034,0,0
-113.24478247817,-6.1053545080668,14.407800780078,2398955.2701219,-2383.7119920801,2729640.7488557,19.607800780078,0,0
-113.24478196751,-6.1205288157827,14.412231223122,2398955.2701219,-2383.7119920801,2729640.7488557,19.612231223122,0,0
-113.24478145686,-6.1357031234986,14.416661666167,2398955.2701219,-2383.7119920801,2729640.7488557,19.616661666167,0,0
-113.2447809462,-6.1508774312145,14.421092109211,2398955.2701219,-2383.7119920801,2729640.7488557,19.621092109211,0,0
-113.24478043555,-6.1660517389304,14.425522552255,2398955.2701219,-2383.7119920801,2729640.7488557,19.625522552255,0,0
-113.24477992489,-6.1812260466463,14.4299529953,2398955.2701219,-2383.7119920801,2729640.7488557,19.6299529953,0,0
-113.24477941424,-6.1964003543622,14.434383438344,2398955.2701219,-2383.7119920801,2729640.7488557,19.634383438344,0,0
-113.24477890358,-6.2115746620781,14.438813881388,2398955.2701219,-2383.7119920801,2729640.7488557,19.638813881388,0,0
-113.24477839293,-6.226748969794,14.443244324432,2398955.2701219,-2383.7119920801,2729640.7488557,19.643244324432,0,0
-113.24477788227,-6.2419232775099,14.447674767477,2398955.2701219,-2383.7119920801,2729640.7488557,19.647674767477,0,0
-113.24477737162,-6.2570975852258,14.452105210521,2398955.2701219,-2383.7119920801,2729640.7488557,19.652105210521,0,0
-113.24477686096,-6.2722718929417,14.456535653565,2398955.2701219,-2383.7119920801,2729640.7488557,19.656535653565,0,0
-113.24477635031,-6.2874462006576,14.46096609661,2398955.2701219,-2383.7119920801,2729640.7488557,19.66096609661,0,0
-113.24477583965,-6.3026205083735,14.465396539654,2398955.2701219,-2383.7119920801,2729640.7488557,19.665396539654,0,0
-113.244775329,-6.3177948160894,14.469826982698,2398955.2701219,-2383.7119920801,2729640.7488557,19.669826982698,0,0
-113.24477481834,-6.3329691238053,14.474257425743,2398955.2701219,-2383.7119920801,2729640.7488557,19.674257425743,0,0
-113.24477430769,-6.3481434315212,14.478687868787,2398955.2701219,-2383.7119920801,2729640.7488557,19.678687868787,0,0
-113.24477379703,-6.3633177392371,14.483118311831,2398955.2701219,-2383.7119920801,2729640.7488557,19.683118311831,0,0
-113.24477328638,-6.378492046953,14.487548754875,2398955.2701219,-2383.7119920801,2729640.7488557,19.687548754875,0,0
-113.24477277572,-6.3936663546688,14.49197919792,2398955.2701219,-2383.7119920801,2729640.7488557,19.69197919792,0,0
-113.24477226507,-6.4088406623848,14.496409640964,2398955.2701219,-2383.7119920801,2729640.7488557,19.696409640964,0,0
-113.24477175441,-6.4240149701006,14.500840084008,2398955.2701219,-2383.7119920801,2729640.7488557,19.700840084008,0,0
-113.24477124376,-6.4391892778165,14.505270527053,2398955.2701219,-2383.7119920801,2729640.7488557,19.705270527053,0,0
-113.24477073311,-6.4543635855324,14.509700970097,2398955.2701219,-2383.7119920801,2729640.7488557,19.709700970097,0,0
-113.24477022245,-6.4695378932483,14.514131413141,2398955.2701219,-2383.7119920801,2729640.7488557,19.714131413141,0,0
-113.2447697118,-6.4847122009642,14.518561856186,2398955.2701219,-2383.7119920801,2729640.7488557,19.718561856186,0,0
-113.24476920114,-6.4998865086801,14.52299229923,2398955.2701219,-2383.7119920801,2729640.7488557,19.72299229923,0,0
-113.24476869049,-6.515060816396,14.527422742274,2398955.2701219,-2383.7119920801,2729640.7488557,19.727422742274,0,0
-113.24476817983,-6.5302351241119,14.531853185319,2398955.2701219,-2383.7119920801,2729640.7488557,19.731853185319,0,0
-113.24476766918,-6.5454094318278,14.536283628363,2398955.2701219,-2383.7119920801,2729640.7488557,19.736283628363,0,0
-113.24476715852,-6.5605837395437,14.540714071407,2398955.2701219,-2383.7119920801,2729640.7488557,19.740714071407,0,0
-113.24476664787,-6.5757580472596,14.545144514451,2398955.2701219,-2383.7119920801,2729640.7488557,19.745144514451,0,0
-113.24476613721,-6.5909323549755,14.549574957496,2398955.2701219,-2383.7119920801,2729640.7488557,19.749574957496,0,0
-113.24476562656,-6.6061066626914,14.55400540054,2398955.2701219,-2383.7119920801,2729640.7488557,19.75400540054,0,0
-113.2447651159,-6.6212809704073,14.558435843584,2398955.2701219,-2383.7119920801,2729640.7488557,19.758435843584,0,0
-113.24476460525,-6.6364552781232,14.562866286629,2398955.2701219,-2383.7119920801,2729640.7488557,19.762866286629,0,0
-113.24476409459,-6.6516295858391,14.567296729673,2398955.2701219,-2383.7119920801,2729640.7488557,19.767296729673,0,0
-113.24476358394,-6.666803893555,14.571727172717,2398955.2701219,-2383.7119920801,2729640.7488557,19.771727172717,0,0
-113.24476307328,-6.6819782012709,14.576157615762,2398955.2701219,-2383.7119920801,2729640.7488557,19.776157615762,0,0
-113.24476256263,-6.6971525089868,14.580588058806,2398955.2701219,-2383.7119920801,2729640.7488557,19.780588058806,0,0
-113.24476205197,-6.7123268167027,14.58501850185,2398955.2701219,-2383.7119920801,2729640.7488557,19.78501850185,0,0
-113.24476154132,-6.7275011244186,14.589448944894,2398955.2701219,-2383.7119920801,2729640.7488557,19.789448944894,0,0
-113.24476103066,-6.7426754321345,14.593879387939,2398955.2701219,-2383.7119920801,2729640.7488557,19.793879387939,0,0
-113.24476052001,-6.7578497398504,14.598309830983,2398955.2701219,-2383.7119920801,2729640.7488557,19.798309830983,0,0
-113.24476000935,-6.7730240475663,14.602740274027,2398955.2701219,-2383.7119920801,2729640.7488557,19.802740274027,0,0
-113.2447594987,-6.7881983552822,14.607170717072,2398955.2701219,-2383.7119920801,2729640.7488557,19.807170717072,0,0
-113.24475898804,-6.8033726629981,14.611601160116,2398955.2701219,-2383.7119920801,2729640.7488557,19.811601160116,0,0
-113.24475847739,-6.818546970714,14.61603160316,2398955.2701219,-2383.7119920801,2729640.7488557,19.81603160316,0,0
-113.24475796673,-6.8337212784299,14.620462046205,2398955.2701219,-2383.7119920801,2729640.7488557,19.820462046205,0,0
-113.24475745608,-6.8488955861458,14.624892489249,2398955.2701219,-2383.7119920801,2729640.7488557,19.824892489249,0,0
-113.24475694543,-6.8640698938617,14.629322932293,2398955.2701219,-2383.7119920801,2729640.7488557,19.829322932293,0,0
-113.24475643477,-6.8792442015776,14.633753375338,2398955.2701219,-2383.7119920801,2729640.7488557,19.833753375338,0,0
-113.24475592412,-6.8944185092935,14.638183818382,2398955.2701219,-2383.7119920801,2729640.7488557,19.838183818382,0,0
-113.24475541346,-6.9095928170094,14.642614261426,2398955.2701219,-2383.7119920801,2729640.7488557,19.842614261426,0,0
-113.24475490281,-6.9247671247253,14.64704470447,2398955.2701219,-2383.7119920801,2729640.7488557,19.84704470447,0,0
-113.24475439215,-6.9399414324412,14.651475147515,2398955.2701219,-2383.7119920801,2729640.7488557,19.851475147515,0,0
-113.2447538815,-6.9551157401571,14.655905590559,2398955.2701219,-2383.7119920801,2729640.7488557,19.855905590559,0,0
-113.24475337084,-6.970290047873,14.660336033603,2398955.2701219,-2383.7119920801,2729640.7488557,19.860336033603,0,0
-113.24475286019,-6.9854643555889,14.664766476648,2398955.2701219,-2383.7119920801,2729640.7488557,19.864766476648,0,0
-113.24475234953,-7.0006386633048,14.669196919692,2398955.2701219,-2383.7119920801,2729640.7488557,19.869196919692,0,0
-113.24475183888,-7.0158129710207,14.673627362736,2398955.2701219,-2383.7119920801,2729640.7488557,19.873627362736,0,0
-113.24475132822,-7.0309872787366,14.678057805781,2398955.2701219,-2383.7119920801,2729640.7488557,19.878057805781,0,0
-113.24475081757,-7.0461615864525,14.682488248825,2398955.2701219,-2383.7119920801,2729640.7488557,19.882488248825,0,0
-113.24475030691,-7.0613358941683,14.686918691869,2398955.2701219,-2383.7119920801,2729640.7488557,19.886918691869,0,0
-113.24474979352,-7.0765101985296,14.691349134913,2414847.6897466,2412.1681712282,2723532.4157513,19.891349134913,0,0
-113.24474928003,-7.0916845027693,14.695779577958,2414847.6897466,2412.1681712282,2723532.4157513,19.895779577958,0,0
-113.24474876654,-7.106858807009,14.700210021002,2414847.6897466,2412.1681712282,2723532.4157513,19.900210021002,0,0
-113.24474825305,-7.1220331112487,14.704640464046,2414847.6897466,2412.1681712282,2723532.4157513,19.904640464046,0,0
-113.24474773956,-7.1372074154885,14.709070907091,2414847.6897466,2412.1681712282,2723532.4157513,19.909070907091,0,0
-113.24474722607,-7.1523817197282,14.713501350135,2414847.6897466,2412.1681712282,2723532.4157513,19.913501350135,0,0
-113.24474671258,-7.1675560239679,14.717931793179,2414847.6897466,2412.1681712282,2723532.4157513,19.917931793179,0,0
-113.24474619909,-7.1827303282076,14.722362236224,2414847.6897466,2412.1681712282,2723532.4157513,19.922362236224,0,0
-113.2447456856,-7.1979046324473,14.726792679268,2414847.6897466,2412.1681712282,2723532.4157513,19.926792679268,0,0
-113.24474517211,-7.213078936687,14.731223122312,2414847.6897466,2412.1681712282,2723532.4157513,19.931223122312,0,0
-113.24474465862,-7.2282532409267,14.735653565357,2414847.6897466,2412.1681712282,2723532.4157513,19.935653565357,0,0
-113.24474414514,-7.2434275451664,14.740084008401,2414847.6897466,2412.1681712282,2723532.4157513,19.940084008401,0,0
-113.24474363165,-7.2586018494061,14.744514451445,2414847.6897466,2412.1681712282,2723532.4157513,19.944514451445,0,0
-113.24474311816,-7.2737761536458,14.748944894489,2414847.6897466,2412.1681712282,2723532.4157513,19.948944894489,0,0
-113.24474260467,-7.2889504578855,14.753375337534,2414847.6897466,2412.1681712282,2723532.4157513,19.953375337534,0,0
-113.24474209118,-7.3041247621252,14.757805780578,2414847.6897466,2412.1681712282,2723532.4157513,19.957805780578,0,0
-113.24474157769,-7.3192990663649,14.762236223622,2414847.6897466,2412.1681712282,2723532.4157513,19.962236223622,0,0
-113.2447410642,-7.3344733706046,14.766666666667,2414847.6897466,2412.1681712282,2723532.4157513,19.966666666667,0,0
-113.24474055071,-7.3496476748444,14.771097109711,2414847.6897466,2412.1681712282,2723532.4157513,19.971097109711,0,0
-113.24474003722,-7.3648219790841,14.775527552755,2414847.6897466,2412.1681712282,2723532.4157513,19.975527552755,0,0
-113.24473952373,-7.3799962833238,14.7799579958,2414847.6897466,2412.1681712282,2723532.4157513,19.9799579958,0,0
-113.24473901024,-7.3951705875635,14.784388438844,2414847.6897466,2412.1681712282,2723532.4157513,19.984388438844,0,0
-113.24473849675,-7.4103448918032,14.788818881888,2414847.6897466,2412.1681712282,2723532.4157513,19.988818881888,0,0
-113.24473798326,-7.4255191960429,14.793249324932,2414847.6897466,2412.1681712282,2723532.4157513,19.993249324932,0,0
-113.24473746977,-7.4406935002826,14.797679767977,2414847.6897466,2412.1681712282,2723532.4157513,19.997679767977,0,0
-113.24473695628,-7.4558678045223,14.802110211021,2414847.6897466,2412.1681712282,2723532.4157513,20.002110211021,0,0
-113.24473644279,-7.471042108762,14.806540654065,2414847.6897466,2412.1681712282,2723532.4157513,20.006540654065,0,0
-113.2447359293,-7.4862164130017,14.81097109711,2414847.6897466,2412.1681712282,2723532.4157513,20.01097109711,0,0
-113.24473541581,-7.5013907172414,14.815401540154,2414847.6897466,2412.1681712282,2723532.4157513,20.015401540154,0,0
-113.24473490232,-7.5165650214811,14.819831983198,2414847.6897466,2412.1681712282,2723532.4157513,20.019831983198,0,0
-113.24473438883,-7.5317393257208,14.824262426243,2414847.6897466,2412.1681712282,2723532.4157513,20.024262426243,0,0
-113.24473387534,-7.5469136299606,14.828692869287,2414847.6897466,2412.1681712282,2723532.4157513,20.028692869287,0,0
-113.24473336185,-7.5620879342003,14.833123312331,2414847.6897466,2412.1681712282,2723532.4157513,20.033123312331,0,0
-113.24473284836,-7.57726223844,14.837553755376,2414847.6897466,2412.1681712282,2723532.4157513,20.037553755376,0,0
-113.24473233487,-7.5924365426797,14.84198419842,2414847.6897466,2412.1681712282,2723532.4157513,20.04198419842,0,0
-113.24473182138,-7.6076108469194,14.846414641464,2414847.6897466,2412.1681712282,2723532.4157513,20.046414641464,0,0
-113.24473130789,-7.6227851511591,14.850845084508,2414847.6897466,2412.1681712282,2723532.4157513,20.050845084508,0,0
-113.2447307944,-7.6379594553988,14.855275527553,2414847.6897466,2412.1681712282,2723532.4157513,20.055275527553,0,0
-113.24473028091,-7.6531337596385,14.859705970597,2414847.6897466,2412.1681712282,2723532.4157513,20.059705970597,0,0
-113.24472976742,-7.6683080638782,14.864136413641,2414847.6897466,2412.1681712282,2723532.4157513,20.064136413641,0,0
-113.24472925393,-7.6834823681179,14.868566856686,2414847.6897466,2412.1681712282,2723532.4157513,20.068566856686,0,0
-113.24472874044,-7.6986566723576,14.87299729973,2414847.6897466,2412.1681712282,2723532.4157513,20.07299729973,0,0
-113.24472822695,-7.7138309765973,14.877427742774,2414847.6897466,2412.1681712282,2723532.4157513,20.077427742774,0,0
-113.24472771346,-7.729005280837,14.881858185819,2414847.6897466,2412.1681712282,2723532.4157513,20.081858185819,0,0
-113.24472719997,-7.7441795850767,14.886288628863,2414847.6897466,2412.1681712282,2723532.4157513,20.086288628863,0,0
-113.24472668648,-7.7593538893164,14.890719071907,2414847.6897466,2412.1681712282,2723532.4157513,20.090719071907,0,0
-113.24472617299,-7.7745281935562,14.895149514951,2414847.6897466,2412.1681712282,2723532.4157513,20.095149514951,0,0
-113.24472565951,-7.7897024977959,14.899579957996,2414847.6897466,2412.1681712282,2723532.4157513,20.099579957996,0,0
-113.24472514602,-7.8048768020356,14.90401040104,2414847.6897466,2412.1681712282,2723532.4157513,20.10401040104,0,0
-113.24472463253,-7.8200511062753,14.908440844084,2414847.6897466,2412.1681712282,2723532.4157513,20.108440844084,0,0
-113.24472411904,-7.835225410515,14.912871287129,2414847.6897466,2412.1681712282,2723532.4157513,20.112871287129,0,0
-113.24472360555,-7.8503997147547,14.917301730173,2414847.6897466,2412.1681712282,2723532.4157513,20.117301730173,0,0
-113.24472309206,-7.8655740189944,14.921732173217,2414847.6897466,2412.1681712282,2723532.4157513,20.121732173217,0,0
-113.24472257857,-7.8807483232341,14.926162616262,2414847.6897466,2412.1681712282,2723532.4157513,20.126162616262,0,0
-113.24472206508,-7.8959226274738,14.930593059306,2414847.6897466,2412.1681712282,2723532.4157513,20.130593059306,0,0
-113.24472155159,-7.9110969317135,14.93502350235,2414847.6897466,2412.1681712282,2723532.4157513,20.13502350235,0,0
-113.2447210381,-7.9262712359532,14.939453945395,2414847.6897466,2412.1681712282,2723532.4157513,20.139453945395,0,0
-113.24472052461,-7.9414455401929,14.943884388439,2414847.6897466,2412.1681712282,2723532.4157513,20.143884388439,0,0
-113.24472001112,-7.9566198444327,14.948314831483,2414847.6897466,2412.1681712282,2723532.4157513,20.148314831483,0,0
-113.24471949763,-7.9717941486723,14.952745274527,2414847.6897466,2412.1681712282,2723532.4157513,20.152745274527,0,0
-113.24471898414,-7.9869684529121,14.957175717572,2414847.6897466,2412.1681712282,2723532.4157513,20.157175717572,0,0
-113.24471847065,-8.0021427571518,14.961606160616,2414847.6897466,2412.1681712282,2723532.4157513,20.161606160616,0,0
-113.24471795716,-8.0173170613915,14.96603660366,2414847.6897466,2412.1681712282,2723532.4157513,20.16603660366,0,0
-113.24471744367,-8.0324913656312,14.970467046705,2414847.6897466,2412.1681712282,2723532.4157513,20.170467046705,0,0
-113.24471693018,-8.0476656698709,14.974897489749,2414847.6897466,2412.1681712282,2723532.4157513,20.174897489749,0,0
-113.24471641669,-8.0628399741106,14.979327932793,2414847.6897466,2412.1681712282,2723532.4157513,20.179327932793,0,0
-113.2447159032,-8.0780142783503,14.983758375838,2414847.6897466,2412.1681712282,2723532.4157513,20.183758375838,0,0
-113.24471538971,-8.09318858259,14.988188818882,2414847.6897466,2412.1681712282,2723532.4157513,20.188188818882,0,0
-113.24471487622,-8.1083628868297,14.992619261926,2414847.6897466,2412.1681712282,2723532.4157513,20.192619261926,0,0
-113.24471436273,-8.1235371910694,14.99704970497,2414847.6897466,2412.1681712282,2723532.4157513,20.19704970497,0,0
-113.24471384924,-8.1387114953091,15.001480148015,2414847.6897466,2412.1681712282,2723532.4157513,20.201480148015,0,0
-113.24471333575,-8.1538857995488,15.005910591059,2414847.6897466,2412.1681712282,2723532.4157513,20.205910591059,0,0
-113.24471282226,-8.1690601037885,15.010341034103,2414847.6897466,2412.1681712282,2723532.4157513,20.210341034103,0,0
-113.24471230877,-8.1842344080283,15.014771477148,2414847.6897466,2412.1681712282,2723532.4157513,20.214771477148,0,0
-113.24471179528,-8.199408712268,15.019201920192,2414847.6897466,2412.1681712282,2723532.4157513,20.219201920192,0,0
-113.24471128179,-8.2145830165077,15.023632363236,2414847.6897466,2412.1681712282,2723532.4157513,20.223632363236,0,0
-113.2447107683,-8.2297573207474,15.028062806281,2414847.6897466,2412.1681712282,2723532.4157513,20.228062806281,0,0
-113.24471025481,-8.2449316249871,15.032493249325,2414847.6897466,2412.1681712282,2723532.4157513,20.232493249325,0,0
-113.24470974132,-8.2601059292268,15.036923692369,2414847.6897466,2412.1681712282,2723532.4157513,20.236923692369,0,0
-113.24470922783,-8.2752802334665,15.041354135414,2414847.6897466,2412.1681712282,2723532.4157513,20.241354135414,0,0
-113.24470871434,-8.2904545377062,15.045784578458,2414847.6897466,2412.1681712282,2723532.4157513,20.245784578458,0,0
-113.24470820085,-8.3056288419459,15.050215021502,2414847.6897466,2412.1681712282,2723532.4157513,20.250215021502,0,0
-113.24470768736,-8.3208031461856,15.054645464546,2414847.6897466,2412.1681712282,2723532.4157513,20.254645464546,0,0
-113.24470717388,-8.3359774504253,15.059075907591,2414847.6897466,2412.1681712282,2723532.4157513,20.259075907591,0,0
-113.24470666039,-8.351151754665,15.063506350635,2414847.6897466,2412.1681712282,2723532.4157513,20.263506350635,0,0
-113.2447061469,-8.3663260589048,15.067936793679,2414847.6897466,2412.1681712282,2723532.4157513,20.267936793679,0,0
-113.24470563341,-8.3815003631445,15.072367236724,2414847.6897466,2412.1681712282,2723532.4157513,20.272367236724,0,0
-113.24470511992,-8.3966746673842,15.076797679768,2414847.6897466,2412.1681712282,2723532.4157513,20.276797679768,0,0
-113.24470460643,-8.4118489716239,15.081228122812,2414847.6897466,2412.1681712282,2723532.4157513,20.281228122812,0,0
-113.24470409294,-8.4270232758636,15.085658565857,2414847.6897466,2412.1681712282,2723532.4157513,20.285658565857,0,0
-113.24470357945,-8.4421975801033,15.090089008901,2414847.6897466,2412.1681712282,2723532.4157513,20.290089008901,0,0
-113.24470306596,-8.457371884343,15.094519451945,2414847.6897466,2412.1681712282,2723532.4157513,20.294519451945,0,0
-113.24470255247,-8.4725461885827,15.098949894989,2414847.6897466,2412.1681712282,2723532.4157513,20.298949894989,0,0
-113.24470203898,-8.4877204928224,15.103380338034,2414847.6897466,2412.1681712282,2723532.4157513,20.303380338034,0,0
-113.24470152549,-8.5028947970621,15.107810781078,2414847.6897466,2412.1681712282,2723532.4157513,20.307810781078,0,0
-113.244701012,-8.5180691013018,15.112241224122,2414847.6897466,2412.1681712282,2723532.4157513,20.312241224122,0,0
-113.24470049851,-8.5332434055415,15.116671667167,2414847.6897466,2412.1681712282,2723532.4157513,20.316671667167,0,0
-113.24469998502,-8.5484177097812,15.121102110211,2414847.6897466,2412.1681712282,2723532.4157513,20.321102110211,0,0
-113.24469947153,-8.563592014021,15.125532553255,2414847.6897466,2412.1681712282,2723532.4157513,20.325532553255,0,0
-113.24469895804,-8.5787663182606,15.1299629963,2414847.6897466,2412.1681712282,2723532.4157513,20.3299629963,0,0
-113.24469844455,-8.5939406225004,15.134393439344,2414847.6897466,2412.1681712282,2723532.4157513,20.334393439344,0,0
-113.24469793106,-8.6091149267401,15.138823882388,2414847.6897466,2412.1681712282,2723532.4157513,20.338823882388,0,0
-113.24469741757,-8.6242892309798,15.143254325433,2414847.6897466,2412.1681712282,2723532.4157513,20.343254325433,0,0
-113.24469690408,-8.6394635352195,15.147684768477,2414847.6897466,2412.1681712282,2723532.4157513,20.347684768477,0,0
-113.24469639059,-8.6546378394592,15.152115211521,2414847.6897466,2412.1681712282,2723532.4157513,20.352115211521,0,0
-113.2446958771,-8.6698121436989,15.156545654565,2414847.6897466,2412.1681712282,2723532.4157513,20.356545654565,0,0
-113.24469536361,-8.6849864479386,15.16097609761,2414847.6897466,2412.1681712282,2723532.4157513,20.36097609761,0,0
-113.24469485012,-8.7001607521783,15.165406540654,2414847.6897466,2412.1681712282,2723532.4157513,20.365406540654,0,0
-113.24469433663,-8.715335056418,15.169836983698,2414847.6897466,2412.1681712282,2723532.4157513,20.369836983698,0,0
-113.24469382314,-8.7305093606577,15.174267426743,2414847.6897466,2412.1681712282,2723532.4157513,20.374267426743,0,0
-113.24469330965,-8.7456836648974,15.178697869787,2414847.6897466,2412.1681712282,2723532.4157513,20.378697869787,0,0
-113.24469279616,-8.7608579691371,15.183128312831,2414847.6897466,2412.1681712282,2723532.4157513,20.383128312831,0,0
-113.24469228267,-8.7760322733768,15.187558755876,2414847.6897466,2412.1681712282,2723532.4157513,20.387558755876,0,0
-113.24469176918,-8.7912065776166,15.19198919892,2414847.6897466,2412.1681712282,2723532.4157513,20.39198919892,0,0
-113.24469125569,-8.8063808818563,15.196419641964,2414847.6897466,2412.1681712282,2723532.4157513,20.396419641964,0,0
-113.2446907422,-8.821555186096,15.200850085009,2414847.6897466,2412.1681712282,2723532.4157513,20.400850085008,0,0
-113.24469022871,-8.8367294903357,15.205280528053,2414847.6897466,2412.1681712282,2723532.4157513,20.405280528053,0,0
-113.24468971522,-8.8519037945754,15.209710971097,2414847.6897466,2412.1681712282,2723532.4157513,20.409710971097,0,0
-113.24468920173,-8.8670780988151,15.214141414141,2414847.6897466,2412.1681712282,2723532.4157513,20.414141414141,0,0
-113.24468868825,-8.8822524030548,15.218571857186,2414847.6897466,2412.1681712282,2723532.4157513,20.418571857186,0,0
-113.24468817476,-8.8974267072945,15.22300230023,2414847.6897466,2412.1681712282,2723532.4157513,20.42300230023,0,0
-113.24468766127,-8.9126010115342,15.227432743274,2414847.6897466,2412.1681712282,2723532.4157513,20.427432743274,0,0
-113.24468714778,-8.9277753157739,15.231863186319,2414847.6897466,2412.1681712282,2723532.4157513,20.431863186319,0,0
-113.24468663429,-8.9429496200136,15.236293629363,2414847.6897466,2412.1681712282,2723532.4157513,20.436293629363,0,0
-113.2446861208,-8.9581239242533,15.240724072407,2414847.6897466,2412.1681712282,2723532.4157513,20.440724072407,0,0
-113.24468560731,-8.973298228493,15.245154515452,2414847.6897466,2412.1681712282,2723532.4157513,20.445154515452,0,0
-113.24468509382,-8.9884725327327,15.249584958496,2414847.6897466,2412.1681712282,2723532.4157513,20.449584958496,0,0
-113.24468458033,-9.0036468369725,15.25401540154,2414847.6897466,2412.1681712282,2723532.4157513,20.45401540154,0,0
-113.24468406684,-9.0188211412122,15.258445844584,2414847.6897466,2412.1681712282,2723532.4157513,20.458445844584,0,0
-113.24468355335,-9.0339954454519,15.262876287629,2414847.6897466,2412.1681712282,2723532.4157513,20.462876287629,0,0
-113.24468303986,-9.0491697496916,15.267306730673,2414847.6897466,2412.1681712282,2723532.4157513,20.467306730673,0,0
-113.24468252637,-9.0643440539313,15.271737173717,2414847.6897466,2412.1681712282,2723532.4157513,20.471737173717,0,0
-113.24468201288,-9.079518358171,15.276167616762,2414847.6897466,2412.1681712282,2723532.4157513,20.476167616762,0,0
-113.24468149939,-9.0946926624107,15.280598059806,2414847.6897466,2412.1681712282,2723532.4157513,20.480598059806,0,0
-113.2446809859,-9.1098669666504,15.28502850285,2414847.6897466,2412.1681712282,2723532.4157513,20.48502850285,0,0
-113.24468047241,-9.1250412708901,15.289458945895,2414847.6897466,2412.1681712282,2723532.4157513,20.489458945895,0,0
-113.24467995892,-9.1402155751298,15.293889388939,2414847.6897466,2412.1681712282,2723532.4157513,20.493889388939,0,0
-113.24467944543,-9.1553898793695,15.298319831983,2414847.6897466,2412.1681712282,2723532.4157513,20.498319831983,0,0
-113.24467893194,-9.1705641836092,15.302750275028,2414847.6897466,2412.1681712282,2723532.4157513,20.502750275028,0,0
-113.24467841845,-9.1857384878489,15.307180718072,2414847.6897466,2412.1681712282,2723532.4157513,20.507180718072,0,0
-113.24467790496,-9.2009127920886,15.311611161116,2414847.6897466,2412.1681712282,2723532.4157513,20.511611161116,0,0
-113.24467739147,-9.2160870963283,15.31604160416,2414847.6897466,2412.1681712282,2723532.4157513,20.51604160416,0,0
-113.24467687798,-9.2312614005681,15.320472047205,2414847.6897466,2412.1681712282,2723532.4157513,20.520472047205,0,0
-113.24467636449,-9.2464357048078,15.324902490249,2414847.6897466,2412.1681712282,2723532.4157513,20.524902490249,0,0
-113.244675851,-9.2616100090475,15.329332933293,2414847.6897466,2412.1681712282,2723532.4157513,20.529332933293,0,0
-113.24467533751,-9.2767843132872,15.333763376338,2414847.6897466,2412.1681712282,2723532.4157513,20.533763376338,0,0
-113.24467482402,-9.2919586175269,15.338193819382,2414847.6897466,2412.1681712282,2723532.4157513,20.538193819382,0,0
-113.24467431053,-9.3071329217666,15.342624262426,2414847.6897466,2412.1681712282,2723532.4157513,20.542624262426,0,0
-113.24467379704,-9.3223072260063,15.347054705471,2414847.6897466,2412.1681712282,2723532.4157513,20.547054705471,0,0
-113.24467328355,-9.337481530246,15.351485148515,2414847.6897466,2412.1681712282,2723532.4157513,20.551485148515,0,0
-113.24467276904,-9.3526558368199,15.355915591559,2419877.3671787,-3234.8478680341,2709866.0754587,20.555915591559,0,0
-113.24467225405,-9.3678301444958,15.360346034603,2419877.3671787,-3234.8478680341,2709866.0754587,20.560346034603,0,0
-113.24467173905,-9.3830044521717,15.364776477648,2419877.3671787,-3234.8478680341,2709866.0754587,20.564776477648,0,0
-113.24467122406,-9.3981787598475,15.369206920692,2419877.3671787,-3234.8478680341,2709866.0754587,20.569206920692,0,0
-113.24467070907,-9.4133530675234,15.373637363736,2419877.3671787,-3234.8478680341,2709866.0754587,20.573637363736,0,0
-113.24467019407,-9.4285273751993,15.378067806781,2419877.3671787,-3234.8478680341,2709866.0754587,20.578067806781,0,0
-113.24466967908,-9.4437016828751,15.382498249825,2419877.3671787,-3234.8478680341,2709866.0754587,20.582498249825,0,0
-113.24466916409,-9.458875990551,15.386928692869,2419877.3671787,-3234.8478680341,2709866.0754587,20.586928692869,0,0
-113.24466864909,-9.4740502982269,15.391359135914,2419877.3671787,-3234.8478680341,2709866.0754587,20.591359135914,0,0
-113.2446681341,-9.4892246059027,15.395789578958,2419877.3671787,-3234.8478680341,2709866.0754587,20.595789578958,0,0
-113.24466761911,-9.5043989135786,15.400220022002,2419877.3671787,-3234.8478680341,2709866.0754587,20.600220022002,0,0
-113.24466710411,-9.5195732212545,15.404650465047,2419877.3671787,-3234.8478680341,2709866.0754587,20.604650465047,0,0
-113.24466658912,-9.5347475289304,15.409080908091,2419877.3671787,-3234.8478680341,2709866.0754587,20.609080908091,0,0
-113.24466607412,-9.5499218366062,15.413511351135,2419877.3671787,-3234.8478680341,2709866.0754587,20.613511351135,0,0
-113.24466555913,-9.5650961442821,15.417941794179,2419877.3671787,-3234.8478680341,2709866.0754587,20.617941794179,0,0
-113.24466504414,-9.580270451958,15.422372237224,2419877.3671787,-3234.8478680341,2709866.0754587,20.622372237224,0,0
-113.24466452914,-9.5954447596338,15.426802680268,2419877.3671787,-3234.8478680341,2709866.0754587,20.626802680268,0,0
-113.24466401415,-9.6106190673097,15.431233123312,2419877.3671787,-3234.8478680341,2709866.0754587,20.631233123312,0,0
-113.24466349916,-9.6257933749856,15.435663566357,2419877.3671787,-3234.8478680341,2709866.0754587,20.635663566357,0,0
-113.24466298416,-9.6409676826615,15.440094009401,2419877.3671787,-3234.8478680341,2709866.0754587,20.640094009401,0,0
-113.24466246917,-9.6561419903373,15.444524452445,2419877.3671787,-3234.8478680341,2709866.0754587,20.644524452445,0,0
-113.24466195417,-9.6713162980132,15.44895489549,2419877.3671787,-3234.8478680341,2709866.0754587,20.64895489549,0,0
-113.24466143918,-9.6864906056891,15.453385338534,2419877.3671787,-3234.8478680341,2709866.0754587,20.653385338534,0,0
-113.24466092419,-9.7016649133649,15.457815781578,2419877.3671787,-3234.8478680341,2709866.0754587,20.657815781578,0,0
-113.24466040919,-9.7168392210408,15.462246224622,2419877.3671787,-3234.8478680341,2709866.0754587,20.662246224622,0,0
-113.2446598942,-9.7320135287167,15.466676667667,2419877.3671787,-3234.8478680341,2709866.0754587,20.666676667667,0,0
-113.24465937921,-9.7471878363925,15.471107110711,2419877.3671787,-3234.8478680341,2709866.0754587,20.671107110711,0,0
-113.24465886421,-9.7623621440684,15.475537553755,2419877.3671787,-3234.8478680341,2709866.0754587,20.675537553755,0,0
-113.24465834922,-9.7775364517443,15.4799679968,2419877.3671787,-3234.8478680341,2709866.0754587,20.6799679968,0,0
-113.24465783423,-9.7927107594202,15.484398439844,2419877.3671787,-3234.8478680341,2709866.0754587,20.684398439844,0,0
-113.24465731923,-9.807885067096,15.488828882888,2419877.3671787,-3234.8478680341,2709866.0754587,20.688828882888,0,0
-113.24465680424,-9.8230593747719,15.493259325933,2419877.3671787,-3234.8478680341,2709866.0754587,20.693259325933,0,0
-113.24465628924,-9.8382336824478,15.497689768977,2419877.3671787,-3234.8478680341,2709866.0754587,20.697689768977,0,0
-113.24465577425,-9.8534079901236,15.502120212021,2419877.3671787,-3234.8478680341,2709866.0754587,20.702120212021,0,0
-113.24465525926,-9.8685822977995,15.506550655066,2419877.3671787,-3234.8478680341,2709866.0754587,20.706550655066,0,0
-113.24465474426,-9.8837566054754,15.51098109811,2419877.3671787,-3234.8478680341,2709866.0754587,20.71098109811,0,0
-113.24465422927,-9.8989309131513,15.515411541154,2419877.3671787,-3234.8478680341,2709866.0754587,20.715411541154,0,0
-113.24465371428,-9.9141052208271,15.519841984198,2419877.3671787,-3234.8478680341,2709866.0754587,20.719841984198,0,0
-113.24465319928,-9.929279528503,15.524272427243,2419877.3671787,-3234.8478680341,2709866.0754587,20.724272427243,0,0
-113.24465268429,-9.9444538361789,15.528702870287,2419877.3671787,-3234.8478680341,2709866.0754587,20.728702870287,0,0
-113.24465216929,-9.9596281438547,15.533133313331,2419877.3671787,-3234.8478680341,2709866.0754587,20.733133313331,0,0
-113.2446516543,-9.9748024515306,15.537563756376,2419877.3671787,-3234.8478680341,2709866.0754587,20.737563756376,0,0
-113.24465113931,-9.9899767592065,15.54199419942,2419877.3671787,-3234.8478680341,2709866.0754587,20.74199419942,0,0
-113.24465062431,-10.005151066882,15.546424642464,2419877.3671787,-3234.8478680341,2709866.0754587,20.746424642464,0,0
-113.24465010932,-10.020325374558,15.550855085509,2419877.3671787,-3234.8478680341,2709866.0754587,20.750855085509,0,0
-113.24464959433,-10.035499682234,15.555285528553,2419877.3671787,-3234.8478680341,2709866.0754587,20.755285528553,0,0
-113.24464907933,-10.05067398991,15.559715971597,2419877.3671787,-3234.8478680341,2709866.0754587,20.759715971597,0,0
-113.24464856434,-10.065848297586,15.564146414641,2419877.3671787,-3234.8478680341,2709866.0754587,20.764146414641,0,0
-113.24464804935,-10.081022605262,15.568576857686,2419877.3671787,-3234.8478680341,2709866.0754587,20.768576857686,0,0
-113.24464753435,-10.096196912938,15.57300730073,2419877.3671787,-3234.8478680341,2709866.0754587,20.77300730073,0,0
-113.24464701936,-10.111371220613,15.577437743774,2419877.3671787,-3234.8478680341,2709866.0754587,20.777437743774,0,0
-113.24464650436,-10.126545528289,15.581868186819,2419877.3671787,-3234.8478680341,2709866.0754587,20.781868186819,0,0
-113.24464598937,-10.141719835965,15.586298629863,2419877.3671787,-3234.8478680341,2709866.0754587,20.786298629863,0,0
-113.24464547438,-10.156894143641,15.590729072907,2419877.3671787,-3234.8478680341,2709866.0754587,20.790729072907,0,0
-113.24464495938,-10.172068451317,15.595159515952,2419877.3671787,-3234.8478680341,2709866.0754587,20.795159515952,0,0
-113.24464444439,-10.187242758993,15.599589958996,2419877.3671787,-3234.8478680341,2709866.0754587,20.799589958996,0,0
-113.2446439294,-10.202417066669,15.60402040204,2419877.3671787,-3234.8478680341,2709866.0754587,20.80402040204,0,0
-113.2446434144,-10.217591374345,15.608450845085,2419877.3671787,-3234.8478680341,2709866.0754587,20.808450845085,0,0
-113.24464289941,-10.23276568202,15.612881288129,2419877.3671787,-3234.8478680341,2709866.0754587,20.812881288129,0,0
-113.24464238441,-10.247939989696,15.617311731173,2419877.3671787,-3234.8478680341,2709866.0754587,20.817311731173,0,0
-113.24464186942,-10.263114297372,15.621742174217,2419877.3671787,-3234.8478680341,2709866.0754587,20.821742174217,0,0
-113.24464135443,-10.278288605048,15.626172617262,2419877.3671787,-3234.8478680341,2709866.0754587,20.826172617262,0,0
-113.24464083943,-10.293462912724,15.630603060306,2419877.3671787,-3234.8478680341,2709866.0754587,20.830603060306,0,0
-113.24464032444,-10.3086372204,15.63503350335,2419877.3671787,-3234.8478680341,2709866.0754587,20.83503350335,0,0
-113.24463980945,-10.323811528076,15.639463946395,2419877.3671787,-3234.8478680341,2709866.0754587,20.839463946395,0,0
-113.24463929445,-10.338985835752,15.643894389439,2419877.3671787,-3234.8478680341,2709866.0754587,20.843894389439,0,0
-113.24463877946,-10.354160143427,15.648324832483,2419877.3671787,-3234.8478680341,2709866.0754587,20.848324832483,0,0
-113.24463826447,-10.369334451103,15.652755275528,2419877.3671787,-3234.8478680341,2709866.0754587,20.852755275528,0,0
-113.24463774947,-10.384508758779,15.657185718572,2419877.3671787,-3234.8478680341,2709866.0754587,20.857185718572,0,0
-113.24463723448,-10.399683066455,15.661616161616,2419877.3671787,-3234.8478680341,2709866.0754587,20.861616161616,0,0
-113.24463671948,-10.414857374131,15.66604660466,2419877.3671787,-3234.8478680341,2709866.0754587,20.86604660466,0,0
-113.24463620449,-10.430031681807,15.670477047705,2419877.3671787,-3234.8478680341,2709866.0754587,20.870477047705,0,0
-113.2446356895,-10.445205989483,15.674907490749,2419877.3671787,-3234.8478680341,2709866.0754587,20.874907490749,0,0
-113.2446351745,-10.460380297158,15.679337933793,2419877.3671787,-3234.8478680341,2709866.0754587,20.879337933793,0,0
-113.24463465951,-10.475554604834,15.683768376838,2419877.3671787,-3234.8478680341,2709866.0754587,20.883768376838,0,0
-113.24463414452,-10.49072891251,15.688198819882,2419877.3671787,-3234.8478680341,2709866.0754587,20.888198819882,0,0
-113.24463362952,-10.505903220186,15.692629262926,2419877.3671787,-3234.8478680341,2709866.0754587,20.892629262926,0,0
-113.24463311453,-10.521077527862,15.697059705971,2419877.3671787,-3234.8478680341,2709866.0754587,20.897059705971,0,0
-113.24463259953,-10.536251835538,15.701490149015,2419877.3671787,-3234.8478680341,2709866.0754587,20.901490149015,0,0
-113.24463208454,-10.551426143214,15.705920592059,2419877.3671787,-3234.8478680341,2709866.0754587,20.905920592059,0,0
-113.24463156955,-10.56660045089,15.710351035104,2419877.3671787,-3234.8478680341,2709866.0754587,20.910351035104,0,0
-113.24463105455,-10.581774758565,15.714781478148,2419877.3671787,-3234.8478680341,2709866.0754587,20.914781478148,0,0
-113.24463053956,-10.596949066241,15.719211921192,2419877.3671787,-3234.8478680341,2709866.0754587,20.919211921192,0,0
-113.24463002457,-10.612123373917,15.723642364236,2419877.3671787,-3234.8478680341,2709866.0754587,20.923642364236,0,0
-113.24462950957,-10.627297681593,15.728072807281,2419877.3671787,-3234.8478680341,2709866.0754587,20.928072807281,0,0
-113.24462899458,-10.642471989269,15.732503250325,2419877.3671787,-3234.8478680341,2709866.0754587,20.932503250325,0,0
-113.24462847959,-10.657646296945,15.736933693369,2419877.3671787,-3234.8478680341,2709866.0754587,20.936933693369,0,0
-113.24462796459,-10.672820604621,15.741364136414,2419877.3671787,-3234.8478680341,2709866.0754587,20.941364136414,0,0
-113.2446274496,-10.687994912297,15.745794579458,2419877.3671787,-3234.8478680341,2709866.0754587,20.945794579458,0,0
-113.2446269346,-10.703169219972,15.750225022502,2419877.3671787,-3234.8478680341,2709866.0754587,20.950225022502,0,0
-113.24462641961,-10.718343527648,15.754655465547,2419877.3671787,-3234.8478680341,2709866.0754587,20.954655465547,0,0
-113.24462590462,-10.733517835324,15.759085908591,2419877.3671787,-3234.8478680341,2709866.0754587,20.959085908591,0,0
-113.24462538962,-10.748692143,15.763516351635,2419877.3671787,-3234.8478680341,2709866.0754587,20.963516351635,0,0
-113.24462487463,-10.763866450676,15.767946794679,2419877.3671787,-3234.8478680341,2709866.0754587,20.967946794679,0,0
-113.24462435964,-10.779040758352,15.772377237724,2419877.3671787,-3234.8478680341,2709866.0754587,20.972377237724,0,0
-113.24462384464,-10.794215066028,15.776807680768,2419877.3671787,-3234.8478680341,2709866.0754587,20.976807680768,0,0
-113.24462332965,-10.809389373703,15.781238123812,2419877.3671787,-3234.8478680341,2709866.0754587,20.981238123812,0,0
-113.24462281465,-10.824563681379,15.785668566857,2419877.3671787,-3234.8478680341,2709866.0754587,20.985668566857,0,0
-113.24462229966,-10.839737989055,15.790099009901,2419877.3671787,-3234.8478680341,2709866.0754587,20.990099009901,0,0
-113.24462178467,-10.854912296731,15.794529452945,2419877.3671787,-3234.8478680341,2709866.0754587,20.994529452945,0,0
-113.24462126967,-10.870086604407,15.79895989599,2419877.3671787,-3234.8478680341,2709866.0754587,20.99895989599,0,0
-113.24462075468,-10.885260912083,15.803390339034,2419877.3671787,-3234.8478680341,2709866.0754587,21.003390339034,0,0
-113.24462023969,-10.900435219759,15.807820782078,2419877.3671787,-3234.8478680341,2709866.0754587,21.007820782078,0,0
-113.24461972469,-10.915609527435,15.812251225123,2419877.3671787,-3234.8478680341,2709866.0754587,21.012251225123,0,0
-113.2446192097,-10.93078383511,15.816681668167,2419877.3671787,-3234.8478680341,2709866.0754587,21.016681668167,0,0
-113.24461869471,-10.945958142786,15.821112111211,2419877.3671787,-3234.8478680341,2709866.0754587,21.021112111211,0,0
-113.24461817971,-10.961132450462,15.825542554255,2419877.3671787,-3234.8478680341,2709866.0754587,21.025542554255,0,0
-113.24461766472,-10.976306758138,15.8299729973,2419877.3671787,-3234.8478680341,2709866.0754587,21.0299729973,0,0
-113.24461714972,-10.991481065814,15.834403440344,2419877.3671787,-3234.8478680341,2709866.0754587,21.034403440344,0,0
-113.24461663473,-11.00665537349,15.838833883388,2419877.3671787,-3234.8478680341,2709866.0754587,21.038833883388,0,0
-113.24461611974,-11.021829681166,15.843264326433,2419877.3671787,-3234.8478680341,2709866.0754587,21.043264326433,0,0
-113.24461560474,-11.037003988842,15.847694769477,2419877.3671787,-3234.8478680341,2709866.0754587,21.047694769477,0,0
-113.24461508975,-11.052178296517,15.852125212521,2419877.3671787,-3234.8478680341,2709866.0754587,21.052125212521,0,0
-113.24461457476,-11.067352604193,15.856555655566,2419877.3671787,-3234.8478680341,2709866.0754587,21.056555655566,0,0
-113.24461405976,-11.082526911869,15.86098609861,2419877.3671787,-3234.8478680341,2709866.0754587,21.06098609861,0,0
-113.24461354477,-11.097701219545,15.865416541654,2419877.3671787,-3234.8478680341,2709866.0754587,21.065416541654,0,0
-113.24461302977,-11.112875527221,15.869846984698,2419877.3671787,-3234.8478680341,2709866.0754587,21.069846984698,0,0
-113.24461251478,-11.128049834897,15.874277427743,2419877.3671787,-3234.8478680341,2709866.0754587,21.074277427743,0,0
-113.24461199979,-11.143224142573,15.878707870787,2419877.3671787,-3234.8478680341,2709866.0754587,21.078707870787,0,0
-113.24461148479,-11.158398450249,15.883138313831,2419877.3671787,-3234.8478680341,2709866.0754587,21.083138313831,0,0
-113.2446109698,-11.173572757924,15.887568756876,2419877.3671787,-3234.8478680341,2709866.0754587,21.087568756876,0,0
-113.24461045481,-11.1887470656,15.89199919992,2419877.3671787,-3234.8478680341,2709866.0754587,21.09199919992,0,0
-113.24460993981,-11.203921373276,15.896429642964,2419877.3671787,-3234.8478680341,2709866.0754587,21.096429642964,0,0
-113.24460942482,-11.219095680952,15.900860086009,2419877.3671787,-3234.8478680341,2709866.0754587,21.100860086009,0,0
-113.24460890983,-11.234269988628,15.905290529053,2419877.3671787,-3234.8478680341,2709866.0754587,21.105290529053,0,0
-113.24460839483,-11.249444296304,15.909720972097,2419877.3671787,-3234.8478680341,2709866.0754587,21.109720972097,0,0
-113.24460787984,-11.26461860398,15.914151415142,2419877.3671787,-3234.8478680341,2709866.0754587,21.114151415142,0,0
-113.24460736484,-11.279792911655,15.918581858186,2419877.3671787,-3234.8478680341,2709866.0754587,21.118581858186,0,0
-113.24460684985,-11.294967219331,15.92301230123,2419877.3671787,-3234.8478680341,2709866.0754587,21.12301230123,0,0
-113.24460633486,-11.310141527007,15.927442744274,2419877.3671787,-3234.8478680341,2709866.0754587,21.127442744274,0,0
-113.24460581986,-11.325315834683,15.931873187319,2419877.3671787,-3234.8478680341,2709866.0754587,21.131873187319,0,0
-113.24460530295,-11.340490140196,15.936303630363,2434069.0710416,199.47922967167,2704554.6426564,21.136303630363,0,0
-113.24460478543,-11.355664445029,15.940734073407,2434069.0710416,199.47922967167,2704554.6426564,21.140734073407,0,0
-113.24460426791,-11.370838749862,15.945164516452,2434069.0710416,199.47922967167,2704554.6426564,21.145164516452,0,0
-113.2446037504,-11.386013054695,15.949594959496,2434069.0710416,199.47922967167,2704554.6426564,21.149594959496,0,0
-113.24460323288,-11.401187359528,15.95402540254,2434069.0710416,199.47922967167,2704554.6426564,21.15402540254,0,0
-113.24460271536,-11.416361664361,15.958455845585,2434069.0710416,199.47922967167,2704554.6426564,21.158455845585,0,0
-113.24460219784,-11.431535969194,15.962886288629,2434069.0710416,199.47922967167,2704554.6426564,21.162886288629,0,0
-113.24460168032,-11.446710274026,15.967316731673,2434069.0710416,199.47922967167,2704554.6426564,21.167316731673,0,0
-113.24460116281,-11.461884578859,15.971747174717,2434069.0710416,199.47922967167,2704554.6426564,21.171747174717,0,0
-113.24460064529,-11.477058883692,15.976177617762,2434069.0710416,199.47922967167,2704554.6426564,21.176177617762,0,0
-113.24460012777,-11.492233188525,15.980608060806,2434069.0710416,199.47922967167,2704554.6426564,21.180608060806,0,0
-113.24459961025,-11.507407493358,15.98503850385,2434069.0710416,199.47922967167,2704554.6426564,21.18503850385,0,0
-113.24459909274,-11.522581798191,15.989468946895,2434069.0710416,199.47922967167,2704554.6426564,21.189468946895,0,0
-113.24459857522,-11.537756103024,15.993899389939,2434069.0710416,199.47922967167,2704554.6426564,21.193899389939,0,0
-113.2445980577,-11.552930407857,15.998329832983,2434069.0710416,199.47922967167,2704554.6426564,21.198329832983,0,0
-113.24459754018,-11.56810471269,16.002760276028,2434069.0710416,199.47922967167,2704554.6426564,21.202760276028,0,0
-113.24459702266,-11.583279017522,16.007190719072,2434069.0710416,199.47922967167,2704554.6426564,21.207190719072,0,0
-113.24459650515,-11.598453322355,16.011621162116,2434069.0710416,199.47922967167,2704554.6426564,21.211621162116,0,0
-113.24459598763,-11.613627627188,16.016051605161,2434069.0710416,199.47922967167,2704554.6426564,21.216051605161,0,0
-113.24459547011,-11.628801932021,16.020482048205,2434069.0710416,199.47922967167,2704554.6426564,21.220482048205,0,0
-113.24459495259,-11.643976236854,16.024912491249,2434069.0710416,199.47922967167,2704554.6426564,21.224912491249,0,0
-113.24459443508,-11.659150541687,16.029342934293,2434069.0710416,199.47922967167,2704554.6426564,21.229342934293,0,0
-113.24459391756,-11.67432484652,16.033773377338,2434069.0710416,199.47922967167,2704554.6426564,21.233773377338,0,0
-113.24459340004,-11.689499151353,16.038203820382,2434069.0710416,199.47922967167,2704554.6426564,21.238203820382,0,0
-113.24459288252,-11.704673456186,16.042634263426,2434069.0710416,199.47922967167,2704554.6426564,21.242634263426,0,0
-113.244592365,-11.719847761019,16.047064706471,2434069.0710416,199.47922967167,2704554.6426564,21.247064706471,0,0
-113.24459184749,-11.735022065851,16.051495149515,2434069.0710416,199.47922967167,2704554.6426564,21.251495149515,0,0
-113.24459132997,-11.750196370684,16.055925592559,2434069.0710416,199.47922967167,2704554.6426564,21.255925592559,0,0
-113.24459081245,-11.765370675517,16.060356035604,2434069.0710416,199.47922967167,2704554.6426564,21.260356035604,0,0
-113.24459029493,-11.78054498035,16.064786478648,2434069.0710416,199.47922967167,2704554.6426564,21.264786478648,0,0
-113.24458977742,-11.795719285183,16.069216921692,2434069.0710416,199.47922967167,2704554.6426564,21.269216921692,0,0
-113.2445892599,-11.810893590016,16.073647364736,2434069.0710416,199.47922967167,2704554.6426564,21.273647364736,0,0
-113.24458874238,-11.826067894849,16.078077807781,2434069.0710416,199.47922967167,2704554.6426564,21.278077807781,0,0
-113.24458822486,-11.841242199682,16.082508250825,2434069.0710416,199.47922967167,2704554.6426564,21.282508250825,0,0
-113.24458770734,-11.856416504515,16.086938693869,2434069.0710416,199.47922967167,2704554.6426564,21.286938693869,0,0
-113.24458718983,-11.871590809347,16.091369136914,2434069.0710416,199.47922967167,2704554.6426564,21.291369136914,0,0
-113.24458667231,-11.88676511418,16.095799579958,2434069.0710416,199.47922967167,2704554.6426564,21.295799579958,0,0
-113.24458615479,-11.901939419013,16.100230023002,2434069.0710416,199.47922967167,2704554.6426564,21.300230023002,0,0
-113.24458563727,-11.917113723846,16.104660466047,2434069.0710416,199.47922967167,2704554.6426564,21.304660466047,0,0
-113.24458511975,-11.932288028679,16.109090909091,2434069.0710416,199.47922967167,2704554.6426564,21.309090909091,0,0
-113.24458460224,-11.947462333512,16.113521352135,2434069.0710416,199.47922967167,2704554.6426564,21.313521352135,0,0
-113.24458408472,-11.962636638345,16.11795179518,2434069.0710416,199.47922967167,2704554.6426564,21.31795179518,0,0
-113.2445835672,-11.977810943178,16.122382238224,2434069.0710416,199.47922967167,2704554.6426564,21.322382238224,0,0
-113.24458304968,-11.992985248011,16.126812681268,2434069.0710416,199.47922967167,2704554.6426564,21.326812681268,0,0
-113.24458253217,-12.008159552844,16.131243124312,2434069.0710416,199.47922967167,2704554.6426564,21.331243124312,0,0
-113.24458201465,-12.023333857676,16.135673567357,2434069.0710416,199.47922967167,2704554.6426564,21.335673567357,0,0
-113.24458149713,-12.038508162509,16.140104010401,2434069.0710416,199.47922967167,2704554.6426564,21.340104010401,0,0
-113.24458097961,-12.053682467342,16.144534453445,2434069.0710416,199.47922967167,2704554.6426564,21.344534453445,0,0
-113.24458046209,-12.068856772175,16.14896489649,2434069.0710416,199.47922967167,2704554.6426564,21.34896489649,0,0
-113.24457994458,-12.084031077008,16.153395339534,2434069.0710416,199.47922967167,2704554.6426564,21.353395339534,0,0
-113.24457942706,-12.099205381841,16.157825782578,2434069.0710416,199.47922967167,2704554.6426564,21.357825782578,0,0
-113.24457890954,-12.114379686674,16.162256225623,2434069.0710416,199.47922967167,2704554.6426564,21.362256225623,0,0
-113.24457839202,-12.129553991507,16.166686668667,2434069.0710416,199.47922967167,2704554.6426564,21.366686668667,0,0
-113.24457787451,-12.14472829634,16.171117111711,2434069.0710416,199.47922967167,2704554.6426564,21.371117111711,0,0
-113.24457735699,-12.159902601172,16.175547554755,2434069.0710416,199.47922967167,2704554.6426564,21.375547554755,0,0
-113.24457683947,-12.175076906005,16.1799779978,2434069.0710416,199.47922967167,2704554.6426564,21.3799779978,0,0
-113.24457632195,-12.190251210838,16.184408440844,2434069.0710416,199.47922967167,2704554.6426564,21.384408440844,0,0
-113.24457580443,-12.205425515671,16.188838883888,2434069.0710416,199.47922967167,2704554.6426564,21.388838883888,0,0
-113.24457528692,-12.220599820504,16.193269326933,2434069.0710416,199.47922967167,2704554.6426564,21.393269326933,0,0
-113.2445747694,-12.235774125337,16.197699769977,2434069.0710416,199.47922967167,2704554.6426564,21.397699769977,0,0
-113.24457425188,-12.25094843017,16.202130213021,2434069.0710416,199.47922967167,2704554.6426564,21.402130213021,0,0
-113.24457373436,-12.266122735003,16.206560656066,2434069.0710416,199.47922967167,2704554.6426564,21.406560656066,0,0
-113.24457321685,-12.281297039836,16.21099109911,2434069.0710416,199.47922967167,2704554.6426564,21.41099109911,0,0
-113.24457269933,-12.296471344669,16.215421542154,2434069.0710416,199.47922967167,2704554.6426564,21.415421542154,0,0
-113.24457218181,-12.311645649501,16.219851985199,2434069.0710416,199.47922967167,2704554.6426564,21.419851985199,0,0
-113.24457166429,-12.326819954334,16.224282428243,2434069.0710416,199.47922967167,2704554.6426564,21.424282428243,0,0
-113.24457114677,-12.341994259167,16.228712871287,2434069.0710416,199.47922967167,2704554.6426564,21.428712871287,0,0
-113.24457062926,-12.357168564,16.233143314331,2434069.0710416,199.47922967167,2704554.6426564,21.433143314331,0,0
-113.24457011174,-12.372342868833,16.237573757376,2434069.0710416,199.47922967167,2704554.6426564,21.437573757376,0,0
-113.24456959422,-12.387517173666,16.24200420042,2434069.0710416,199.47922967167,2704554.6426564,21.44200420042,0,0
-113.2445690767,-12.402691478499,16.246434643464,2434069.0710416,199.47922967167,2704554.6426564,21.446434643464,0,0
-113.24456855918,-12.417865783332,16.250865086509,2434069.0710416,199.47922967167,2704554.6426564,21.450865086509,0,0
-113.24456804167,-12.433040088165,16.255295529553,2434069.0710416,199.47922967167,2704554.6426564,21.455295529553,0,0
-113.24456752415,-12.448214392997,16.259725972597,2434069.0710416,199.47922967167,2704554.6426564,21.459725972597,0,0
-113.24456700663,-12.46338869783,16.264156415642,2434069.0710416,199.47922967167,2704554.6426564,21.464156415642,0,0
-113.24456648911,-12.478563002663,16.268586858686,2434069.0710416,199.47922967167,2704554.6426564,21.468586858686,0,0
-113.2445659716,-12.493737307496,16.27301730173,2434069.0710416,199.47922967167,2704554.6426564,21.47301730173,0,0
-113.24456545408,-12.508911612329,16.277447744774,2434069.0710416,199.47922967167,2704554.6426564,21.477447744774,0,0
-113.24456493656,-12.524085917162,16.281878187819,2434069.0710416,199.47922967167,2704554.6426564,21.481878187819,0,0
-113.24456441904,-12.539260221995,16.286308630863,2434069.0710416,199.47922967167,2704554.6426564,21.486308630863,0,0
-113.24456390152,-12.554434526828,16.290739073907,2434069.0710416,199.47922967167,2704554.6426564,21.490739073907,0,0
-113.24456338401,-12.569608831661,16.295169516952,2434069.0710416,199.47922967167,2704554.6426564,21.495169516952,0,0
-113.24456286649,-12.584783136494,16.299599959996,2434069.0710416,199.47922967167,2704554.6426564,21.499599959996,0,0
-113.24456234897,-12.599957441326,16.30403040304,2434069.0710416,199.47922967167,2704554.6426564,21.50403040304,0,0
-113.24456183145,-12.615131746159,16.308460846085,2434069.0710416,199.47922967167,2704554.6426564,21.508460846085,0,0
-113.24456131394,-12.630306050992,16.312891289129,2434069.0710416,199.47922967167,2704554.6426564,21.512891289129,0,0
-113.24456079642,-12.645480355825,16.317321732173,2434069.0710416,199.47922967167,2704554.6426564,21.517321732173,0,0
-113.2445602789,-12.660654660658,16.321752175218,2434069.0710416,199.47922967167,2704554.6426564,21.521752175218,0,0
-113.24455976138,-12.675828965491,16.326182618262,2434069.0710416,199.47922967167,2704554.6426564,21.526182618262,0,0
-113.24455924386,-12.691003270324,16.330613061306,2434069.0710416,199.47922967167,2704554.6426564,21.530613061306,0,0
-113.24455872635,-12.706177575157,16.33504350435,2434069.0710416,199.47922967167,2704554.6426564,21.53504350435,0,0
-113.24455820883,-12.72135187999,16.339473947395,2434069.0710416,199.47922967167,2704554.6426564,21.539473947395,0,0
-113.24455769131,-12.736526184822,16.343904390439,2434069.0710416,199.47922967167,2704554.6426564,21.543904390439,0,0
-113.24455717379,-12.751700489655,16.348334833483,2434069.0710416,199.47922967167,2704554.6426564,21.548334833483,0,0
-113.24455665628,-12.766874794488,16.352765276528,2434069.0710416,199.47922967167,2704554.6426564,21.552765276528,0,0
-113.24455613876,-12.782049099321,16.357195719572,2434069.0710416,199.47922967167,2704554.6426564,21.557195719572,0,0
-113.24455562124,-12.797223404154,16.361626162616,2434069.0710416,199.47922967167,2704554.6426564,21.561626162616,0,0
-113.24455510372,-12.812397708987,16.366056605661,2434069.0710416,199.47922967167,2704554.6426564,21.566056605661,0,0
-113.2445545862,-12.82757201382,16.370487048705,2434069.0710416,199.47922967167,2704554.6426564,21.570487048705,0,0
-113.24455406869,-12.842746318653,16.374917491749,2434069.0710416,199.47922967167,2704554.6426564,21.574917491749,0,0
-113.24455355117,-12.857920623486,16.379347934793,2434069.0710416,199.47922967167,2704554.6426564,21.579347934793,0,0
-113.24455303365,-12.873094928318,16.383778377838,2434069.0710416,199.47922967167,2704554.6426564,21.583778377838,0,0
-113.24455251613,-12.888269233151,16.388208820882,2434069.0710416,199.47922967167,2704554.6426564,21.588208820882,0,0
-113.24455199862,-12.903443537984,16.392639263926,2434069.0710416,199.47922967167,2704554.6426564,21.592639263926,0,0
-113.2445514811,-12.918617842817,16.397069706971,2434069.0710416,199.47922967167,2704554.6426564,21.597069706971,0,0
-113.24455096358,-12.93379214765,16.401500150015,2434069.0710416,199.47922967167,2704554.6426564,21.601500150015,0,0
-113.24455044606,-12.948966452483,16.405930593059,2434069.0710416,199.47922967167,2704554.6426564,21.605930593059,0,0
-113.24454992854,-12.964140757316,16.410361036104,2434069.0710416,199.47922967167,2704554.6426564,21.610361036104,0,0
-113.24454941103,-12.979315062149,16.414791479148,2434069.0710416,199.47922967167,2704554.6426564,21.614791479148,0,0
-113.24454889351,-12.994489366982,16.419221922192,2434069.0710416,199.47922967167,2704554.6426564,21.619221922192,0,0
-113.24454837599,-13.009663671815,16.423652365237,2434069.0710416,199.47922967167,2704554.6426564,21.623652365237,0,0
-113.24454785847,-13.024837976647,16.428082808281,2434069.0710416,199.47922967167,2704554.6426564,21.628082808281,0,0
-113.24454734095,-13.04001228148,16.432513251325,2434069.0710416,199.47922967167,2704554.6426564,21.632513251325,0,0
-113.24454682344,-13.055186586313,16.436943694369,2434069.0710416,199.47922967167,2704554.6426564,21.636943694369,0,0
-113.24454630592,-13.070360891146,16.441374137414,2434069.0710416,199.47922967167,2704554.6426564,21.641374137414,0,0
-113.2445457884,-13.085535195979,16.445804580458,2434069.0710416,199.47922967167,2704554.6426564,21.645804580458,0,0
-113.24454527088,-13.100709500812,16.450235023502,2434069.0710416,199.47922967167,2704554.6426564,21.650235023502,0,0
-113.24454475337,-13.115883805645,16.454665466547,2434069.0710416,199.47922967167,2704554.6426564,21.654665466547,0,0
-113.24454423585,-13.131058110478,16.459095909591,2434069.0710416,199.47922967167,2704554.6426564,21.659095909591,0,0
-113.24454371833,-13.146232415311,16.463526352635,2434069.0710416,199.47922967167,2704554.6426564,21.663526352635,0,0
-113.24454320081,-13.161406720143,16.46795679568,2434069.0710416,199.47922967167,2704554.6426564,21.66795679568,0,0
-113.24454268329,-13.176581024976,16.472387238724,2434069.0710416,199.47922967167,2704554.6426564,21.672387238724,0,0
-113.24454216578,-13.191755329809,16.476817681768,2434069.0710416,199.47922967167,2704554.6426564,21.676817681768,0,0
-113.24454164826,-13.206929634642,16.481248124812,2434069.0710416,199.47922967167,2704554.6426564,21.681248124812,0,0
-113.24454113074,-13.222103939475,16.485678567857,2434069.0710416,199.47922967167,2704554.6426564,21.685678567857,0,0
-113.24454061322,-13.237278244308,16.490109010901,2434069.0710416,199.47922967167,2704554.6426564,21.690109010901,0,0
-113.24454009571,-13.252452549141,16.494539453945,2434069.0710416,199.47922967167,2704554.6426564,21.694539453945,0,0
-113.24453957819,-13.267626853974,16.49896989699,2434069.0710416,199.47922967167,2704554.6426564,21.69896989699,0,0
-113.24453906067,-13.282801158807,16.503400340034,2434069.0710416,199.47922967167,2704554.6426564,21.703400340034,0,0
-113.24453854315,-13.29797546364,16.507830783078,2434069.0710416,199.47922967167,2704554.6426564,21.707830783078,0,0
-113.24453802563,-13.313149768472,16.512261226123,2434069.0710416,199.47922967167,2704554.6426564,21.712261226123,0,0
-113.24453750812,-13.328324073305,16.516691669167,2434069.0710416,199.47922967167,2704554.6426564,21.716691669167,0,0
-113.2445369906,-13.343498378138,16.521122112211,2434069.0710416,199.47922967167,2704554.6426564,21.721122112211,0,0
-113.24453647308,-13.358672682971,16.525552555256,2434069.0710416,199.47922967167,2704554.6426564,21.725552555256,0,0
-113.24453595556,-13.373846987804,16.5299829983,2434069.0710416,199.47922967167,2704554.6426564,21.7299829983,0,0
-113.24453543805,-13.389021292637,16.534413441344,2434069.0710416,199.47922967167,2704554.6426564,21.734413441344,0,0
-113.24453492053,-13.40419559747,16.538843884388,2434069.0710416,199.47922967167,2704554.6426564,21.738843884388,0,0
-113.24453440301,-13.419369902303,16.543274327433,2434069.0710416,199.47922967167,2704554.6426564,21.743274327433,0,0
-113.24453388549,-13.434544207136,16.547704770477,2434069.0710416,199.47922967167,2704554.6426564,21.747704770477,0,0
-113.24453336797,-13.449718511968,16.552135213521,2434069.0710416,199.47922967167,2704554.6426564,21.752135213521,0,0
-113.24453285046,-13.464892816801,16.556565656566,2434069.0710416,199.47922967167,2704554.6426564,21.756565656566,0,0
-113.24453233294,-13.480067121634,16.56099609961,2434069.0710416,199.47922967167,2704554.6426564,21.76099609961,0,0
-113.24453181542,-13.495241426467,16.565426542654,2434069.0710416,199.47922967167,2704554.6426564,21.765426542654,0,0
-113.2445312979,-13.5104157313,16.569856985699,2434069.0710416,199.47922967167,2704554.6426564,21.769856985699,0,0
-113.24453078039,-13.525590036133,16.574287428743,2434069.0710416,199.47922967167,2704554.6426564,21.774287428743,0,0
-113.24453026287,-13.540764340966,16.578717871787,2434069.0710416,199.47922967167,2704554.6426564,21.778717871787,0,0
-113.24452974535,-13.555938645799,16.583148314831,2434069.0710416,199.47922967167,2704554.6426564,21.783148314831,0,0
-113.24452922783,-13.571112950632,16.587578757876,2434069.0710416,199.47922967167,2704554.6426564,21.787578757876,0,0
-113.24452871031,-13.586287255465,16.59200920092,2434069.0710416,199.47922967167,2704554.6426564,21.79200920092,0,0
-113.2445281928,-13.601461560297,16.596439643964,2434069.0710416,199.47922967167,2704554.6426564,21.796439643964,0,0
-113.24452767528,-13.61663586513,16.600870087009,2434069.0710416,199.47922967167,2704554.6426564,21.800870087009,0,0
-113.24452715776,-13.631810169963,16.605300530053,2434069.0710416,199.47922967167,2704554.6426564,21.805300530053,0,0
-113.24452664024,-13.646984474796,16.609730973097,2434069.0710416,199.47922967167,2704554.6426564,21.809730973097,0,0
-113.24452612272,-13.662158779629,16.614161416142,2434069.0710416,199.47922967167,2704554.6426564,21.814161416142,0,0
-113.24452560521,-13.677333084462,16.618591859186,2434069.0710416,199.47922967167,2704554.6426564,21.818591859186,0,0
-113.24452508769,-13.692507389295,16.62302230223,2434069.0710416,199.47922967167,2704554.6426564,21.82302230223,0,0
-113.24452457017,-13.707681694128,16.627452745275,2434069.0710416,199.47922967167,2704554.6426564,21.827452745275,0,0
-113.24452405265,-13.722855998961,16.631883188319,2434069.0710416,199.47922967167,2704554.6426564,21.831883188319,0,0
-113.24452353514,-13.738030303793,16.636313631363,2434069.0710416,199.47922967167,2704554.6426564,21.836313631363,0,0
-113.24452301762,-13.753204608626,16.640744074407,2434069.0710416,199.47922967167,2704554.6426564,21.840744074407,0,0
-113.2445225001,-13.768378913459,16.645174517452,2434069.0710416,199.47922967167,2704554.6426564,21.845174517452,0,0
-113.24452198258,-13.783553218292,16.649604960496,2434069.0710416,199.47922967167,2704554.6426564,21.849604960496,0,0
-113.24452146506,-13.798727523125,16.65403540354,2434069.0710416,199.47922967167,2704554.6426564,21.85403540354,0,0
-113.24452094755,-13.813901827958,16.658465846585,2434069.0710416,199.47922967167,2704554.6426564,21.858465846585,0,0
-113.24452043003,-13.829076132791,16.662896289629,2434069.0710416,199.47922967167,2704554.6426564,21.862896289629,0,0
-113.24451991251,-13.844250437624,16.667326732673,2434069.0710416,199.47922967167,2704554.6426564,21.867326732673,0,0
-113.24451939499,-13.859424742457,16.671757175718,2434069.0710416,199.47922967167,2704554.6426564,21.871757175718,0,0
-113.24451887748,-13.87459904729,16.676187618762,2434069.0710416,199.47922967167,2704554.6426564,21.876187618762,0,0
-113.24451835996,-13.889773352122,16.680618061806,2434069.0710416,199.47922967167,2704554.6426564,21.880618061806,0,0
-113.24451784244,-13.904947656955,16.68504850485,2434069.0710416,199.47922967167,2704554.6426564,21.88504850485,0,0
-113.24451732492,-13.920121961788,16.689478947895,2434069.0710416,199.47922967167,2704554.6426564,21.889478947895,0,0
-113.2445168074,-13.935296266621,16.693909390939,2434069.0710416,199.47922967167,2704554.6426564,21.893909390939,0,0
-113.24451628989,-13.950470571454,16.698339833983,2434069.0710416,199.47922967167,2704554.6426564,21.898339833983,0,0
-113.24451577237,-13.965644876287,16.702770277028,2434069.0710416,199.47922967167,2704554.6426564,21.902770277028,0,0
-113.24451525485,-13.98081918112,16.707200720072,2434069.0710416,199.47922967167,2704554.6426564,21.907200720072,0,0
-113.24451473733,-13.995993485953,16.711631163116,2434069.0710416,199.47922967167,2704554.6426564,21.911631163116,0,0
-113.24451421982,-14.011167790786,16.716061606161,2434069.0710416,199.47922967167,2704554.6426564,21.916061606161,0,0
-113.2445137023,-14.026342095618,16.720492049205,2434069.0710416,199.47922967167,2704554.6426564,21.920492049205,0,0
-113.24451318478,-14.041516400451,16.724922492249,2434069.0710416,199.47922967167,2704554.6426564,21.924922492249,0,0
-113.24451266726,-14.056690705284,16.729352935294,2434069.0710416,199.47922967167,2704554.6426564,21.929352935294,0,0
-113.24451214974,-14.071865010117,16.733783378338,2434069.0710416,199.47922967167,2704554.6426564,21.933783378338,0,0
-113.24451163223,-14.08703931495,16.738213821382,2434069.0710416,199.47922967167,2704554.6426564,21.938213821382,0,0
-113.24451111471,-14.102213619783,16.742644264426,2434069.0710416,199.47922967167,2704554.6426564,21.942644264426,0,0
-113.24451059719,-14.117387924616,16.747074707471,2434069.0710416,199.47922967167,2704554.6426564,21.947074707471,0,0
-113.24451007967,-14.132562229449,16.751505150515,2434069.0710416,199.47922967167,2704554.6426564,21.951505150515,0,0
-113.24450956215,-14.147736534282,16.755935593559,2434069.0710416,199.47922967167,2704554.6426564,21.955935593559,0,0
-113.24450904464,-14.162910839115,16.760366036604,2434069.0710416,199.47922967167,2704554.6426564,21.960366036604,0,0
-113.24450852712,-14.178085143947,16.764796479648,2434069.0710416,199.47922967167,2704554.6426564,21.964796479648,0,0
-113.2445080096,-14.19325944878,16.769226922692,2434069.0710416,199.47922967167,2704554.6426564,21.969226922692,0,0
-113.24450749208,-14.208433753613,16.773657365737,2434069.0710416,199.47922967167,2704554.6426564,21.973657365737,0,0
-113.24450697457,-14.223608058446,16.778087808781,2434069.0710416,199.47922967167,2704554.6426564,21.978087808781,0,0
-113.24450645705,-14.238782363279,16.782518251825,2434069.0710416,199.47922967167,2704554.6426564,21.982518251825,0,0
-113.24450593904,-14.253956669177,16.786948694869,2437614.6351406,-3643.4357754834,2692728.5469594,21.986948694869,0,0
-113.24450542035,-14.269130976569,16.791379137914,2437614.6351406,-3643.4357754834,2692728.5469594,21.991379137914,0,0
-113.24450490166,-14.284305283962,16.795809580958,2437614.6351406,-3643.4357754834,2692728.5469594,21.995809580958,0,0
-113.24450438297,-14.299479591354,16.800240024002,2437614.6351406,-3643.4357754834,2692728.5469594,22.000240024002,0,0
-113.24450386428,-14.314653898746,16.804670467047,2437614.6351406,-3643.4357754834,2692728.5469594,22.004670467047,0,0
-113.24450334558,-14.329828206138,16.809100910091,2437614.6351406,-3643.4357754834,2692728.5469594,22.009100910091,0,0
-113.24450282689,-14.345002513531,16.813531353135,2437614.6351406,-3643.4357754834,2692728.5469594,22.013531353135,0,0
-113.2445023082,-14.360176820923,16.81796179618,2437614.6351406,-3643.4357754834,2692728.5469594,22.01796179618,0,0
-113.24450178951,-14.375351128315,16.822392239224,2437614.6351406,-3643.4357754834,2692728.5469594,22.022392239224,0,0
-113.24450127082,-14.390525435707,16.826822682268,2437614.6351406,-3643.4357754834,2692728.5469594,22.026822682268,0,0
-113.24450075213,-14.405699743099,16.831253125313,2437614.6351406,-3643.4357754834,2692728.5469594,22.031253125313,0,0
-113.24450023344,-14.420874050492,16.835683568357,2437614.6351406,-3643.4357754834,2692728.5469594,22.035683568357,0,0
-113.24449971475,-14.436048357884,16.840114011401,2437614.6351406,-3643.4357754834,2692728.5469594,22.040114011401,0,0
-113.24449919605,-14.451222665276,16.844544454445,2437614.6351406,-3643.4357754834,2692728.5469594,22.044544454445,0,0
-113.24449867736,-14.466396972668,16.84897489749,2437614.6351406,-3643.4357754834,2692728.5469594,22.04897489749,0,0
-113.24449815867,-14.48157128006,16.853405340534,2437614.6351406,-3643.4357754834,2692728.5469594,22.053405340534,0,0
-113.24449763998,-14.496745587453,16.857835783578,2437614.6351406,-3643.4357754834,2692728.5469594,22.057835783578,0,0
-113.24449712129,-14.511919894845,16.862266226623,2437614.6351406,-3643.4357754834,2692728.5469594,22.062266226623,0,0
-113.2444966026,-14.527094202237,16.866696669667,2437614.6351406,-3643.4357754834,2692728.5469594,22.066696669667,0,0
-113.24449608391,-14.542268509629,16.871127112711,2437614.6351406,-3643.4357754834,2692728.5469594,22.071127112711,0,0
-113.24449556521,-14.557442817021,16.875557555756,2437614.6351406,-3643.4357754834,2692728.5469594,22.075557555756,0,0
-113.24449504652,-14.572617124414,16.8799879988,2437614.6351406,-3643.4357754834,2692728.5469594,22.0799879988,0,0
-113.24449452783,-14.587791431806,16.884418441844,2437614.6351406,-3643.4357754834,2692728.5469594,22.084418441844,0,0
-113.24449400914,-14.602965739198,16.888848884888,2437614.6351406,-3643.4357754834,2692728.5469594,22.088848884888,0,0
-113.24449349045,-14.61814004659,16.893279327933,2437614.6351406,-3643.4357754834,2692728.5469594,22.093279327933,0,0
-113.24449297176,-14.633314353982,16.897709770977,2437614.6351406,-3643.4357754834,2692728.5469594,22.097709770977,0,0
-113.24449245307,-14.648488661375,16.902140214021,2437614.6351406,-3643.4357754834,2692728.5469594,22.102140214021,0,0
-113.24449193437,-14.663662968767,16.906570657066,2437614.6351406,-3643.4357754834,2692728.5469594,22.106570657066,0,0
-113.24449141568,-14.678837276159,16.91100110011,2437614.6351406,-3643.4357754834,2692728.5469594,22.11100110011,0,0
-113.24449089699,-14.694011583551,16.915431543154,2437614.6351406,-3643.4357754834,2692728.5469594,22.115431543154,0,0
-113.2444903783,-14.709185890944,16.919861986199,2437614.6351406,-3643.4357754834,2692728.5469594,22.119861986199,0,0
-113.24448985961,-14.724360198336,16.924292429243,2437614.6351406,-3643.4357754834,2692728.5469594,22.124292429243,0,0
-113.24448934092,-14.739534505728,16.928722872287,2437614.6351406,-3643.4357754834,2692728.5469594,22.128722872287,0,0
-113.24448882223,-14.75470881312,16.933153315332,2437614.6351406,-3643.4357754834,2692728.5469594,22.133153315332,0,0
-113.24448830354,-14.769883120512,16.937583758376,2437614.6351406,-3643.4357754834,2692728.5469594,22.137583758376,0,0
-113.24448778484,-14.785057427905,16.94201420142,2437614.6351406,-3643.4357754834,2692728.5469594,22.14201420142,0,0
-113.24448726615,-14.800231735297,16.946444644464,2437614.6351406,-3643.4357754834,2692728.5469594,22.146444644464,0,0
-113.24448674746,-14.815406042689,16.950875087509,2437614.6351406,-3643.4357754834,2692728.5469594,22.150875087509,0,0
-113.24448622877,-14.830580350081,16.955305530553,2437614.6351406,-3643.4357754834,2692728.5469594,22.155305530553,0,0
-113.24448571008,-14.845754657473,16.959735973597,2437614.6351406,-3643.4357754834,2692728.5469594,22.159735973597,0,0
-113.24448519139,-14.860928964866,16.964166416642,2437614.6351406,-3643.4357754834,2692728.5469594,22.164166416642,0,0
-113.2444846727,-14.876103272258,16.968596859686,2437614.6351406,-3643.4357754834,2692728.5469594,22.168596859686,0,0
-113.244484154,-14.89127757965,16.97302730273,2437614.6351406,-3643.4357754834,2692728.5469594,22.17302730273,0,0
-113.24448363531,-14.906451887042,16.977457745775,2437614.6351406,-3643.4357754834,2692728.5469594,22.177457745775,0,0
-113.24448311662,-14.921626194434,16.981888188819,2437614.6351406,-3643.4357754834,2692728.5469594,22.181888188819,0,0
-113.24448259793,-14.936800501827,16.986318631863,2437614.6351406,-3643.4357754834,2692728.5469594,22.186318631863,0,0
-113.24448207924,-14.951974809219,16.990749074907,2437614.6351406,-3643.4357754834,2692728.5469594,22.190749074907,0,0
-113.24448156055,-14.967149116611,16.995179517952,2437614.6351406,-3643.4357754834,2692728.5469594,22.195179517952,0,0
-113.24448104186,-14.982323424003,16.999609960996,2437614.6351406,-3643.4357754834,2692728.5469594,22.199609960996,0,0
-113.24448052316,-14.997497731395,17.00404040404,2437614.6351406,-3643.4357754834,2692728.5469594,22.20404040404,0,0
-113.24448000447,-15.012672038788,17.008470847085,2437614.6351406,-3643.4357754834,2692728.5469594,22.208470847085,0,0
-113.24447948578,-15.02784634618,17.012901290129,2437614.6351406,-3643.4357754834,2692728.5469594,22.212901290129,0,0
-113.24447896709,-15.043020653572,17.017331733173,2437614.6351406,-3643.4357754834,2692728.5469594,22.217331733173,0,0
-113.2444784484,-15.058194960964,17.021762176218,2437614.6351406,-3643.4357754834,2692728.5469594,22.221762176218,0,0
-113.24447792971,-15.073369268357,17.026192619262,2437614.6351406,-3643.4357754834,2692728.5469594,22.226192619262,0,0
-113.24447741102,-15.088543575749,17.030623062306,2437614.6351406,-3643.4357754834,2692728.5469594,22.230623062306,0,0
-113.24447689233,-15.103717883141,17.035053505351,2437614.6351406,-3643.4357754834,2692728.5469594,22.235053505351,0,0
-113.24447637363,-15.118892190533,17.039483948395,2437614.6351406,-3643.4357754834,2692728.5469594,22.239483948395,0,0
-113.24447585494,-15.134066497925,17.043914391439,2437614.6351406,-3643.4357754834,2692728.5469594,22.243914391439,0,0
-113.24447533625,-15.149240805318,17.048344834483,2437614.6351406,-3643.4357754834,2692728.5469594,22.248344834483,0,0
-113.24447481756,-15.16441511271,17.052775277528,2437614.6351406,-3643.4357754834,2692728.5469594,22.252775277528,0,0
-113.24447429887,-15.179589420102,17.057205720572,2437614.6351406,-3643.4357754834,2692728.5469594,22.257205720572,0,0
-113.24447378018,-15.194763727494,17.061636163616,2437614.6351406,-3643.4357754834,2692728.5469594,22.261636163616,0,0
-113.24447326149,-15.209938034886,17.066066606661,2437614.6351406,-3643.4357754834,2692728.5469594,22.266066606661,0,0
-113.24447274279,-15.225112342279,17.070497049705,2437614.6351406,-3643.4357754834,2692728.5469594,22.270497049705,0,0
-113.2444722241,-15.240286649671,17.074927492749,2437614.6351406,-3643.4357754834,2692728.5469594,22.274927492749,0,0
-113.24447170541,-15.255460957063,17.079357935794,2437614.6351406,-3643.4357754834,2692728.5469594,22.279357935794,0,0
-113.24447118672,-15.270635264455,17.083788378838,2437614.6351406,-3643.4357754834,2692728.5469594,22.283788378838,0,0
-113.24447066803,-15.285809571847,17.088218821882,2437614.6351406,-3643.4357754834,2692728.5469594,22.288218821882,0,0
-113.24447014934,-15.30098387924,17.092649264926,2437614.6351406,-3643.4357754834,2692728.5469594,22.292649264926,0,0
-113.24446963065,-15.316158186632,17.097079707971,2437614.6351406,-3643.4357754834,2692728.5469594,22.297079707971,0,0
-113.24446911195,-15.331332494024,17.101510151015,2437614.6351406,-3643.4357754834,2692728.5469594,22.301510151015,0,0
-113.24446859326,-15.346506801416,17.105940594059,2437614.6351406,-3643.4357754834,2692728.5469594,22.305940594059,0,0
-113.24446807457,-15.361681108809,17.110371037104,2437614.6351406,-3643.4357754834,2692728.5469594,22.310371037104,0,0
-113.24446755588,-15.376855416201,17.114801480148,2437614.6351406,-3643.4357754834,2692728.5469594,22.314801480148,0,0
-113.24446703719,-15.392029723593,17.119231923192,2437614.6351406,-3643.4357754834,2692728.5469594,22.319231923192,0,0
-113.2444665185,-15.407204030985,17.123662366237,2437614.6351406,-3643.4357754834,2692728.5469594,22.323662366237,0,0
-113.24446599981,-15.422378338377,17.128092809281,2437614.6351406,-3643.4357754834,2692728.5469594,22.328092809281,0,0
-113.24446548112,-15.43755264577,17.132523252325,2437614.6351406,-3643.4357754834,2692728.5469594,22.332523252325,0,0
-113.24446496242,-15.452726953162,17.13695369537,2437614.6351406,-3643.4357754834,2692728.5469594,22.33695369537,0,0
-113.24446444373,-15.467901260554,17.141384138414,2437614.6351406,-3643.4357754834,2692728.5469594,22.341384138414,0,0
-113.24446392504,-15.483075567946,17.145814581458,2437614.6351406,-3643.4357754834,2692728.5469594,22.345814581458,0,0
-113.24446340635,-15.498249875338,17.150245024502,2437614.6351406,-3643.4357754834,2692728.5469594,22.350245024502,0,0
-113.24446288766,-15.513424182731,17.154675467547,2437614.6351406,-3643.4357754834,2692728.5469594,22.354675467547,0,0
-113.24446236897,-15.528598490123,17.159105910591,2437614.6351406,-3643.4357754834,2692728.5469594,22.359105910591,0,0
-113.24446185028,-15.543772797515,17.163536353635,2437614.6351406,-3643.4357754834,2692728.5469594,22.363536353635,0,0
-113.24446133158,-15.558947104907,17.16796679668,2437614.6351406,-3643.4357754834,2692728.5469594,22.36796679668,0,0
-113.24446081289,-15.574121412299,17.172397239724,2437614.6351406,-3643.4357754834,2692728.5469594,22.372397239724,0,0
-113.2444602942,-15.589295719692,17.176827682768,2437614.6351406,-3643.4357754834,2692728.5469594,22.376827682768,0,0
-113.24445977551,-15.604470027084,17.181258125813,2437614.6351406,-3643.4357754834,2692728.5469594,22.381258125813,0,0
-113.24445925682,-15.619644334476,17.185688568857,2437614.6351406,-3643.4357754834,2692728.5469594,22.385688568857,0,0
-113.24445873608,-15.634818640198,17.190119011901,2451384.7959768,-2489.1187086152,2689980.4125985,22.390119011901,0,0
-113.24445821506,-15.649992945696,17.194549454945,2451384.7959768,-2489.1187086152,2689980.4125985,22.394549454945,0,0
-113.24445769404,-15.665167251194,17.19897989799,2451384.7959768,-2489.1187086152,2689980.4125985,22.39897989799,0,0
-113.24445717303,-15.680341556692,17.203410341034,2451384.7959768,-2489.1187086152,2689980.4125985,22.403410341034,0,0
-113.24445665201,-15.695515862191,17.207840784078,2451384.7959768,-2489.1187086152,2689980.4125985,22.407840784078,0,0
-113.244456131,-15.710690167689,17.212271227123,2451384.7959768,-2489.1187086152,2689980.4125985,22.412271227123,0,0
-113.24445560998,-15.725864473187,17.216701670167,2451384.7959768,-2489.1187086152,2689980.4125985,22.416701670167,0,0
-113.24445508896,-15.741038778685,17.221132113211,2451384.7959768,-2489.1187086152,2689980.4125985,22.421132113211,0,0
-113.24445456795,-15.756213084183,17.225562556256,2451384.7959768,-2489.1187086152,2689980.4125985,22.425562556256,0,0
-113.24445404693,-15.771387389681,17.2299929993,2451384.7959768,-2489.1187086152,2689980.4125985,22.4299929993,0,0
-113.24445352592,-15.78656169518,17.234423442344,2451384.7959768,-2489.1187086152,2689980.4125985,22.434423442344,0,0
-113.2444530049,-15.801736000678,17.238853885389,2451384.7959768,-2489.1187086152,2689980.4125985,22.438853885389,0,0
-113.24445248388,-15.816910306176,17.243284328433,2451384.7959768,-2489.1187086152,2689980.4125985,22.443284328433,0,0
-113.24445196287,-15.832084611674,17.247714771477,2451384.7959768,-2489.1187086152,2689980.4125985,22.447714771477,0,0
-113.24445144185,-15.847258917172,17.252145214521,2451384.7959768,-2489.1187086152,2689980.4125985,22.452145214521,0,0
-113.24445092084,-15.862433222671,17.256575657566,2451384.7959768,-2489.1187086152,2689980.4125985,22.456575657566,0,0
-113.24445039982,-15.877607528169,17.26100610061,2451384.7959768,-2489.1187086152,2689980.4125985,22.46100610061,0,0
-113.2444498788,-15.892781833667,17.265436543654,2451384.7959768,-2489.1187086152,2689980.4125985,22.465436543654,0,0
-113.24444935779,-15.907956139165,17.269866986699,2451384.7959768,-2489.1187086152,2689980.4125985,22.469866986699,0,0
-113.24444883677,-15.923130444663,17.274297429743,2451384.7959768,-2489.1187086152,2689980.4125985,22.474297429743,0,0
-113.24444831575,-15.938304750162,17.278727872787,2451384.7959768,-2489.1187086152,2689980.4125985,22.478727872787,0,0
-113.24444779474,-15.95347905566,17.283158315832,2451384.7959768,-2489.1187086152,2689980.4125985,22.483158315832,0,0
-113.24444727372,-15.968653361158,17.287588758876,2451384.7959768,-2489.1187086152,2689980.4125985,22.487588758876,0,0
-113.24444675271,-15.983827666656,17.29201920192,2451384.7959768,-2489.1187086152,2689980.4125985,22.49201920192,0,0
-113.24444623169,-15.999001972154,17.296449644964,2451384.7959768,-2489.1187086152,2689980.4125985,22.496449644964,0,0
-113.24444571067,-16.014176277653,17.300880088009,2451384.7959768,-2489.1187086152,2689980.4125985,22.500880088009,0,0
-113.24444518966,-16.029350583151,17.305310531053,2451384.7959768,-2489.1187086152,2689980.4125985,22.505310531053,0,0
-113.24444466864,-16.044524888649,17.309740974097,2451384.7959768,-2489.1187086152,2689980.4125985,22.509740974097,0,0
-113.24444414763,-16.059699194147,17.314171417142,2451384.7959768,-2489.1187086152,2689980.4125985,22.514171417142,0,0
-113.24444362661,-16.074873499645,17.318601860186,2451384.7959768,-2489.1187086152,2689980.4125985,22.518601860186,0,0
-113.24444310559,-16.090047805143,17.32303230323,2451384.7959768,-2489.1187086152,2689980.4125985,22.52303230323,0,0
-113.24444258458,-16.105222110642,17.327462746275,2451384.7959768,-2489.1187086152,2689980.4125985,22.527462746275,0,0
-113.24444206356,-16.12039641614,17.331893189319,2451384.7959768,-2489.1187086152,2689980.4125985,22.531893189319,0,0
-113.24444154254,-16.135570721638,17.336323632363,2451384.7959768,-2489.1187086152,2689980.4125985,22.536323632363,0,0
-113.24444102153,-16.150745027136,17.340754075408,2451384.7959768,-2489.1187086152,2689980.4125985,22.540754075408,0,0
-113.24444050051,-16.165919332634,17.345184518452,2451384.7959768,-2489.1187086152,2689980.4125985,22.545184518452,0,0
-113.2444399795,-16.181093638133,17.349614961496,2451384.7959768,-2489.1187086152,2689980.4125985,22.549614961496,0,0
-113.24443945848,-16.196267943631,17.35404540454,2451384.7959768,-2489.1187086152,2689980.4125985,22.55404540454,0,0
-113.24443893746,-16.211442249129,17.358475847585,2451384.7959768,-2489.1187086152,2689980.4125985,22.558475847585,0,0
-113.24443841645,-16.226616554627,17.362906290629,2451384.7959768,-2489.1187086152,2689980.4125985,22.562906290629,0,0
-113.24443789543,-16.241790860125,17.367336733673,2451384.7959768,-2489.1187086152,2689980.4125985,22.567336733673,0,0
-113.24443737442,-16.256965165624,17.371767176718,2451384.7959768,-2489.1187086152,2689980.4125985,22.571767176718,0,0
-113.2444368534,-16.272139471122,17.376197619762,2451384.7959768,-2489.1187086152,2689980.4125985,22.576197619762,0,0
-113.24443633238,-16.28731377662,17.380628062806,2451384.7959768,-2489.1187086152,2689980.4125985,22.580628062806,0,0
-113.24443581137,-16.302488082118,17.385058505851,2451384.7959768,-2489.1187086152,2689980.4125985,22.585058505851,0,0
-113.24443529035,-16.317662387616,17.389488948895,2451384.7959768,-2489.1187086152,2689980.4125985,22.589488948895,0,0
-113.24443476934,-16.332836693114,17.393919391939,2451384.7959768,-2489.1187086152,2689980.4125985,22.593919391939,0,0
-113.24443424832,-16.348010998613,17.398349834983,2451384.7959768,-2489.1187086152,2689980.4125985,22.598349834983,0,0
-113.2444337273,-16.363185304111,17.402780278028,2451384.7959768,-2489.1187086152,2689980.4125985,22.602780278028,0,0
-113.24443320629,-16.378359609609,17.407210721072,2451384.7959768,-2489.1187086152,2689980.4125985,22.607210721072,0,0
-113.24443268527,-16.393533915107,17.411641164116,2451384.7959768,-2489.1187086152,2689980.4125985,22.611641164116,0,0
-113.24443216425,-16.408708220605,17.416071607161,2451384.7959768,-2489.1187086152,2689980.4125985,22.616071607161,0,0
-113.24443164324,-16.423882526104,17.420502050205,2451384.7959768,-2489.1187086152,2689980.4125985,22.620502050205,0,0
-113.24443112222,-16.439056831602,17.424932493249,2451384.7959768,-2489.1187086152,2689980.4125985,22.624932493249,0,0
-113.24443060121,-16.4542311371,17.429362936294,2451384.7959768,-2489.1187086152,2689980.4125985,22.629362936294,0,0
-113.24443008019,-16.469405442598,17.433793379338,2451384.7959768,-2489.1187086152,2689980.4125985,22.633793379338,0,0
-113.24442955917,-16.484579748096,17.438223822382,2451384.7959768,-2489.1187086152,2689980.4125985,22.638223822382,0,0
-113.24442903816,-16.499754053595,17.442654265427,2451384.7959768,-2489.1187086152,2689980.4125985,22.642654265427,0,0
-113.24442851714,-16.514928359093,17.447084708471,2451384.7959768,-2489.1187086152,2689980.4125985,22.647084708471,0,0
-113.24442799613,-16.530102664591,17.451515151515,2451384.7959768,-2489.1187086152,2689980.4125985,22.651515151515,0,0
-113.24442747511,-16.545276970089,17.455945594559,2451384.7959768,-2489.1187086152,2689980.4125985,22.655945594559,0,0
-113.24442695409,-16.560451275587,17.460376037604,2451384.7959768,-2489.1187086152,2689980.4125985,22.660376037604,0,0
-113.24442643308,-16.575625581086,17.464806480648,2451384.7959768,-2489.1187086152,2689980.4125985,22.664806480648,0,0
-113.24442591206,-16.590799886584,17.469236923692,2451384.7959768,-2489.1187086152,2689980.4125985,22.669236923692,0,0
-113.24442539105,-16.605974192082,17.473667366737,2451384.7959768,-2489.1187086152,2689980.4125985,22.673667366737,0,0
-113.24442487003,-16.62114849758,17.478097809781,2451384.7959768,-2489.1187086152,2689980.4125985,22.678097809781,0,0
-113.24442434901,-16.636322803078,17.482528252825,2451384.7959768,-2489.1187086152,2689980.4125985,22.682528252825,0,0
-113.244423828,-16.651497108576,17.48695869587,2451384.7959768,-2489.1187086152,2689980.4125985,22.68695869587,0,0
-113.24442330698,-16.666671414075,17.491389138914,2451384.7959768,-2489.1187086152,2689980.4125985,22.691389138914,0,0
-113.24442278596,-16.681845719573,17.495819581958,2451384.7959768,-2489.1187086152,2689980.4125985,22.695819581958,0,0
-113.24442226495,-16.697020025071,17.500250025002,2451384.7959768,-2489.1187086152,2689980.4125985,22.700250025002,0,0
-113.24442174393,-16.712194330569,17.504680468047,2451384.7959768,-2489.1187086152,2689980.4125985,22.704680468047,0,0
-113.24442122292,-16.727368636067,17.509110911091,2451384.7959768,-2489.1187086152,2689980.4125985,22.709110911091,0,0
-113.2444207019,-16.742542941566,17.513541354135,2451384.7959768,-2489.1187086152,2689980.4125985,22.713541354135,0,0
-113.24442018088,-16.757717247064,17.51797179718,2451384.7959768,-2489.1187086152,2689980.4125985,22.71797179718,0,0
-113.24441965987,-16.772891552562,17.522402240224,2451384.7959768,-2489.1187086152,2689980.4125985,22.722402240224,0,0
-113.24441913885,-16.78806585806,17.526832683268,2451384.7959768,-2489.1187086152,2689980.4125985,22.726832683268,0,0
-113.24441861784,-16.803240163558,17.531263126313,2451384.7959768,-2489.1187086152,2689980.4125985,22.731263126313,0,0
-113.24441809682,-16.818414469057,17.535693569357,2451384.7959768,-2489.1187086152,2689980.4125985,22.735693569357,0,0
-113.2444175758,-16.833588774555,17.540124012401,2451384.7959768,-2489.1187086152,2689980.4125985,22.740124012401,0,0
-113.24441705479,-16.848763080053,17.544554455446,2451384.7959768,-2489.1187086152,2689980.4125985,22.744554455446,0,0
-113.24441653377,-16.863937385551,17.54898489849,2451384.7959768,-2489.1187086152,2689980.4125985,22.74898489849,0,0
-113.24441601276,-16.879111691049,17.553415341534,2451384.7959768,-2489.1187086152,2689980.4125985,22.753415341534,0,0
-113.24441549174,-16.894285996548,17.557845784578,2451384.7959768,-2489.1187086152,2689980.4125985,22.757845784578,0,0
-113.24441497072,-16.909460302046,17.562276227623,2451384.7959768,-2489.1187086152,2689980.4125985,22.762276227623,0,0
-113.24441444971,-16.924634607544,17.566706670667,2451384.7959768,-2489.1187086152,2689980.4125985,22.766706670667,0,0
-113.24441392869,-16.939808913042,17.571137113711,2451384.7959768,-2489.1187086152,2689980.4125985,22.771137113711,0,0
-113.24441340767,-16.95498321854,17.575567556756,2451384.7959768,-2489.1187086152,2689980.4125985,22.775567556756,0,0
-113.24441288666,-16.970157524038,17.5799979998,2451384.7959768,-2489.1187086152,2689980.4125985,22.7799979998,0,0
-113.24441236564,-16.985331829537,17.584428442844,2451384.7959768,-2489.1187086152,2689980.4125985,22.784428442844,0,0
-113.24441184463,-17.000506135035,17.588858885889,2451384.7959768,-2489.1187086152,2689980.4125985,22.788858885889,0,0
-113.24441132361,-17.015680440533,17.593289328933,2451384.7959768,-2489.1187086152,2689980.4125985,22.793289328933,0,0
-113.24441080259,-17.030854746031,17.597719771977,2451384.7959768,-2489.1187086152,2689980.4125985,22.797719771977,0,0
-113.24441028158,-17.046029051529,17.602150215021,2451384.7959768,-2489.1187086152,2689980.4125985,22.802150215021,0,0
-113.24440976056,-17.061203357028,17.606580658066,2451384.7959768,-2489.1187086152,2689980.4125985,22.806580658066,0,0
-113.24440923955,-17.076377662526,17.61101110111,2451384.7959768,-2489.1187086152,2689980.4125985,22.81101110111,0,0
-113.24440871853,-17.091551968024,17.615441544154,2451384.7959768,-2489.1187086152,2689980.4125985,22.815441544154,0,0
-113.24440819751,-17.106726273522,17.619871987199,2451384.7959768,-2489.1187086152,2689980.4125985,22.819871987199,0,0
-113.2444076765,-17.12190057902,17.624302430243,2451384.7959768,-2489.1187086152,2689980.4125985,22.824302430243,0,0
-113.24440715548,-17.137074884519,17.628732873287,2451384.7959768,-2489.1187086152,2689980.4125985,22.828732873287,0,0
-113.24440663447,-17.152249190017,17.633163316332,2451384.7959768,-2489.1187086152,2689980.4125985,22.833163316332,0,0
-113.24440611345,-17.167423495515,17.637593759376,2451384.7959768,-2489.1187086152,2689980.4125985,22.837593759376,0,0
-113.24440559243,-17.182597801013,17.64202420242,2451384.7959768,-2489.1187086152,2689980.4125985,22.84202420242,0,0
-113.24440507142,-17.197772106511,17.646454645465,2451384.7959768,-2489.1187086152,2689980.4125985,22.846454645465,0,0
-113.2444045504,-17.21294641201,17.650885088509,2451384.7959768,-2489.1187086152,2689980.4125985,22.850885088509,0,0
-113.24440402938,-17.228120717508,17.655315531553,2451384.7959768,-2489.1187086152,2689980.4125985,22.855315531553,0,0
-113.24440350837,-17.243295023006,17.659745974597,2451384.7959768,-2489.1187086152,2689980.4125985,22.859745974597,0,0
-113.24440298735,-17.258469328504,17.664176417642,2451384.7959768,-2489.1187086152,2689980.4125985,22.864176417642,0,0
-113.24440246634,-17.273643634002,17.668606860686,2451384.7959768,-2489.1187086152,2689980.4125985,22.868606860686,0,0
-113.24440194532,-17.2888179395,17.67303730373,2451384.7959768,-2489.1187086152,2689980.4125985,22.87303730373,0,0
-113.2444014243,-17.303992244999,17.677467746775,2451384.7959768,-2489.1187086152,2689980.4125985,22.877467746775,0,0
-113.24440090329,-17.319166550497,17.681898189819,2451384.7959768,-2489.1187086152,2689980.4125985,22.881898189819,0,0
-113.24440038227,-17.334340855995,17.686328632863,2451384.7959768,-2489.1187086152,2689980.4125985,22.886328632863,0,0
-113.24439986126,-17.349515161493,17.690759075908,2451384.7959768,-2489.1187086152,2689980.4125985,22.890759075908,0,0
-113.24439934024,-17.364689466991,17.695189518952,2451384.7959768,-2489.1187086152,2689980.4125985,22.895189518952,0,0
-113.24439881922,-17.37986377249,17.699619961996,2451384.7959768,-2489.1187086152,2689980.4125985,22.899619961996,0,0
-113.24439829821,-17.395038077988,17.704050405041,2451384.7959768,-2489.1187086152,2689980.4125985,22.904050405041,0,0
-113.24439777719,-17.410212383486,17.708480848085,2451384.7959768,-2489.1187086152,2689980.4125985,22.908480848085,0,0
-113.24439725618,-17.425386688984,17.712911291129,2451384.7959768,-2489.1187086152,2689980.4125985,22.912911291129,0,0
-113.24439673516,-17.440560994482,17.717341734173,2451384.7959768,-2489.1187086152,2689980.4125985,22.917341734173,0,0
-113.24439621414,-17.455735299981,17.721772177218,2451384.7959768,-2489.1187086152,2689980.4125985,22.921772177218,0,0
-113.24439569313,-17.470909605479,17.726202620262,2451384.7959768,-2489.1187086152,2689980.4125985,22.926202620262,0,0
-113.24439517211,-17.486083910977,17.730633063306,2451384.7959768,-2489.1187086152,2689980.4125985,22.930633063306,0,0
-113.24439465109,-17.501258216475,17.735063506351,2451384.7959768,-2489.1187086152,2689980.4125985,22.935063506351,0,0
-113.24439413008,-17.516432521973,17.739493949395,2451384.7959768,-2489.1187086152,2689980.4125985,22.939493949395,0,0
-113.24439360906,-17.531606827471,17.743924392439,2451384.7959768,-2489.1187086152,2689980.4125985,22.943924392439,0,0
-113.24439308805,-17.54678113297,17.748354835484,2451384.7959768,-2489.1187086152,2689980.4125985,22.948354835484,0,0
-113.24439256703,-17.561955438468,17.752785278528,2451384.7959768,-2489.1187086152,2689980.4125985,22.952785278528,0,0
-113.24439204601,-17.577129743966,17.757215721572,2451384.7959768,-2489.1187086152,2689980.4125985,22.957215721572,0,0
-113.244391525,-17.592304049464,17.761646164616,2451384.7959768,-2489.1187086152,2689980.4125985,22.961646164616,0,0
-113.24439100398,-17.607478354962,17.766076607661,2451384.7959768,-2489.1187086152,2689980.4125985,22.966076607661,0,0
-113.24439048297,-17.622652660461,17.770507050705,2451384.7959768,-2489.1187086152,2689980.4125985,22.970507050705,0,0
-113.24438996195,-17.637826965959,17.774937493749,2451384.7959768,-2489.1187086152,2689980.4125985,22.974937493749,0,0
-113.24438944093,-17.653001271457,17.779367936794,2451384.7959768,-2489.1187086152,2689980.4125985,22.979367936794,0,0
-113.24438891992,-17.668175576955,17.783798379838,2451384.7959768,-2489.1187086152,2689980.4125985,22.983798379838,0,0
-113.2443883989,-17.683349882453,17.788228822882,2451384.7959768,-2489.1187086152,2689980.4125985,22.988228822882,0,0
-113.24438787788,-17.698524187952,17.792659265927,2451384.7959768,-2489.1187086152,2689980.4125985,22.992659265927,0,0
-113.24438735687,-17.71369849345,17.797089708971,2451384.7959768,-2489.1187086152,2689980.4125985,22.997089708971,0,0
-113.24438683585,-17.728872798948,17.801520152015,2451384.7959768,-2489.1187086152,2689980.4125985,23.001520152015,0,0
-113.24438631484,-17.744047104446,17.80595059506,2451384.7959768,-2489.1187086152,2689980.4125985,23.00595059506,0,0
-113.24438579382,-17.759221409944,17.810381038104,2451384.7959768,-2489.1187086152,2689980.4125985,23.010381038104,0,0
-113.2443852728,-17.774395715442,17.814811481148,2451384.7959768,-2489.1187086152,2689980.4125985,23.014811481148,0,0
-113.24438475179,-17.789570020941,17.819241924192,2451384.7959768,-2489.1187086152,2689980.4125985,23.019241924192,0,0
-113.24438423077,-17.804744326439,17.823672367237,2451384.7959768,-2489.1187086152,2689980.4125985,23.023672367237,0,0
-113.24438370976,-17.819918631937,17.828102810281,2451384.7959768,-2489.1187086152,2689980.4125985,23.028102810281,0,0
-113.24438318874,-17.835092937435,17.832533253325,2451384.7959768,-2489.1187086152,2689980.4125985,23.032533253325,0,0
-113.24438266772,-17.850267242933,17.83696369637,2451384.7959768,-2489.1187086152,2689980.4125985,23.03696369637,0,0
-113.24438214671,-17.865441548432,17.841394139414,2451384.7959768,-2489.1187086152,2689980.4125985,23.041394139414,0,0
-113.24438162569,-17.88061585393,17.845824582458,2451384.7959768,-2489.1187086152,2689980.4125985,23.045824582458,0,0
-113.24438110468,-17.895790159428,17.850255025503,2451384.7959768,-2489.1187086152,2689980.4125985,23.050255025503,0,0
-113.24438058366,-17.910964464926,17.854685468547,2451384.7959768,-2489.1187086152,2689980.4125985,23.054685468547,0,0
-113.24438006264,-17.926138770424,17.859115911591,2451384.7959768,-2489.1187086152,2689980.4125985,23.059115911591,0,0
-113.24437954163,-17.941313075923,17.863546354635,2451384.7959768,-2489.1187086152,2689980.4125985,23.063546354635,0,0
-113.24437902061,-17.956487381421,17.86797679768,2451384.7959768,-2489.1187086152,2689980.4125985,23.06797679768,0,0
-113.24437849959,-17.971661686919,17.872407240724,2451384.7959768,-2489.1187086152,2689980.4125985,23.072407240724,0,0
-113.24437797858,-17.986835992417,17.876837683768,2451384.7959768,-2489.1187086152,2689980.4125985,23.076837683768,0,0
-113.24437745756,-18.002010297915,17.881268126813,2451384.7959768,-2489.1187086152,2689980.4125985,23.081268126813,0,0
-113.24437693655,-18.017184603414,17.885698569857,2451384.7959768,-2489.1187086152,2689980.4125985,23.085698569857,0,0
-113.24437641553,-18.032358908912,17.890129012901,2451384.7959768,-2489.1187086152,2689980.4125985,23.090129012901,0,0
-113.24437589451,-18.04753321441,17.894559455946,2451384.7959768,-2489.1187086152,2689980.4125985,23.094559455946,0,0
-113.2443753735,-18.062707519908,17.89898989899,2451384.7959768,-2489.1187086152,2689980.4125985,23.09898989899,0,0
-113.24437485248,-18.077881825406,17.903420342034,2451384.7959768,-2489.1187086152,2689980.4125985,23.103420342034,0,0
-113.24437433147,-18.093056130904,17.907850785079,2451384.7959768,-2489.1187086152,2689980.4125985,23.107850785079,0,0
-113.24437381045,-18.108230436403,17.912281228123,2451384.7959768,-2489.1187086152,2689980.4125985,23.112281228123,0,0
-113.24437328943,-18.123404741901,17.916711671167,2451384.7959768,-2489.1187086152,2689980.4125985,23.116711671167,0,0
-113.24437276842,-18.138579047399,17.921142114211,2451384.7959768,-2489.1187086152,2689980.4125985,23.121142114211,0,0
-113.2443722474,-18.153753352897,17.925572557256,2451384.7959768,-2489.1187086152,2689980.4125985,23.125572557256,0,0
-113.24437172639,-18.168927658395,17.9300030003,2451384.7959768,-2489.1187086152,2689980.4125985,23.1300030003,0,0
-113.24437120537,-18.184101963894,17.934433443344,2451384.7959768,-2489.1187086152,2689980.4125985,23.134433443344,0,0
-113.24437068435,-18.199276269392,17.938863886389,2451384.7959768,-2489.1187086152,2689980.4125985,23.138863886389,0,0
-113.24437016334,-18.21445057489,17.943294329433,2451384.7959768,-2489.1187086152,2689980.4125985,23.143294329433,0,0
-113.24436964232,-18.229624880388,17.947724772477,2451384.7959768,-2489.1187086152,2689980.4125985,23.147724772477,0,0
-113.2443691213,-18.244799185886,17.952155215522,2451384.7959768,-2489.1187086152,2689980.4125985,23.152155215522,0,0
-113.24436860029,-18.259973491385,17.956585658566,2451384.7959768,-2489.1187086152,2689980.4125985,23.156585658566,0,0
-113.24436807927,-18.275147796883,17.96101610161,2451384.7959768,-2489.1187086152,2689980.4125985,23.16101610161,0,0
-113.24436755826,-18.290322102381,17.965446544654,2451384.7959768,-2489.1187086152,2689980.4125985,23.165446544654,0,0
-113.24436703724,-18.305496407879,17.969876987699,2451384.7959768,-2489.1187086152,2689980.4125985,23.169876987699,0,0
-113.24436651622,-18.320670713377,17.974307430743,2451384.7959768,-2489.1187086152,2689980.4125985,23.174307430743,0,0
-113.24436599521,-18.335845018876,17.978737873787,2451384.7959768,-2489.1187086152,2689980.4125985,23.178737873787,0,0
-113.24436547419,-18.351019324374,17.983168316832,2451384.7959768,-2489.1187086152,2689980.4125985,23.183168316832,0,0
-113.24436495318,-18.366193629872,17.987598759876,2451384.7959768,-2489.1187086152,2689980.4125985,23.187598759876,0,0
-113.24436443216,-18.38136793537,17.99202920292,2451384.7959768,-2489.1187086152,2689980.4125985,23.19202920292,0,0
-113.24436391114,-18.396542240868,17.996459645965,2451384.7959768,-2489.1187086152,2689980.4125985,23.196459645965,0,0
-113.24436339013,-18.411716546366,18.000890089009,2451384.7959768,-2489.1187086152,2689980.4125985,23.200890089009,0,0
-113.24436286911,-18.426890851865,18.005320532053,2451384.7959768,-2489.1187086152,2689980.4125985,23.205320532053,0,0
-113.2443623481,-18.442065157363,18.009750975098,2451384.7959768,-2489.1187086152,2689980.4125985,23.209750975098,0,0
-113.24436182708,-18.457239462861,18.014181418142,2451384.7959768,-2489.1187086152,2689980.4125985,23.214181418142,0,0
-113.24436130606,-18.472413768359,18.018611861186,2451384.7959768,-2489.1187086152,2689980.4125985,23.218611861186,0,0
-113.24436078505,-18.487588073857,18.02304230423,2451384.7959768,-2489.1187086152,2689980.4125985,23.22304230423,0,0
-113.24436026403,-18.502762379356,18.027472747275,2451384.7959768,-2489.1187086152,2689980.4125985,23.227472747275,0,0
-113.24435974301,-18.517936684854,18.031903190319,2451384.7959768,-2489.1187086152,2689980.4125985,23.231903190319,0,0
-113.244359222,-18.533110990352,18.036333633363,2451384.7959768,-2489.1187086152,2689980.4125985,23.236333633363,0,0
-113.24435870098,-18.54828529585,18.040764076408,2451384.7959768,-2489.1187086152,2689980.4125985,23.240764076408,0,0
-113.24435817997,-18.563459601348,18.045194519452,2451384.7959768,-2489.1187086152,2689980.4125985,23.245194519452,0,0
-113.24435765895,-18.578633906847,18.049624962496,2451384.7959768,-2489.1187086152,2689980.4125985,23.249624962496,0,0
-113.24435713793,-18.593808212345,18.054055405541,2451384.7959768,-2489.1187086152,2689980.4125985,23.254055405541,0,0
-113.24435661692,-18.608982517843,18.058485848585,2451384.7959768,-2489.1187086152,2689980.4125985,23.258485848585,0,0
-113.2443560959,-18.624156823341,18.062916291629,2451384.7959768,-2489.1187086152,2689980.4125985,23.262916291629,0,0
-113.24435557489,-18.639331128839,18.067346734673,2451384.7959768,-2489.1187086152,2689980.4125985,23.267346734673,0,0
-113.24435505387,-18.654505434338,18.071777177718,2451384.7959768,-2489.1187086152,2689980.4125985,23.271777177718,0,0
-113.24435453285,-18.669679739836,18.076207620762,2451384.7959768,-2489.1187086152,2689980.4125985,23.276207620762,0,0
-113.24435401184,-18.684854045334,18.080638063806,2451384.7959768,-2489.1187086152,2689980.4125985,23.280638063806,0,0
-113.24435349082,-18.700028350832,18.085068506851,2451384.7959768,-2489.1187086152,2689980.4125985,23.285068506851,0,0
-113.24435296981,-18.71520265633,18.089498949895,2451384.7959768,-2489.1187086152,2689980.4125985,23.289498949895,0,0
-113.24435244879,-18.730376961828,18.093929392939,2451384.7959768,-2489.1187086152,2689980.4125985,23.293929392939,0,0
-113.24435192777,-18.745551267327,18.098359835984,2451384.7959768,-2489.1187086152,2689980.4125985,23.298359835984,0,0
-113.24435140676,-18.760725572825,18.102790279028,2451384.7959768,-2489.1187086152,2689980.4125985,23.302790279028,0,0
-113.24435088574,-18.775899878323,18.107220722072,2451384.7959768,-2489.1187086152,2689980.4125985,23.307220722072,0,0
-113.24435036472,-18.791074183821,18.111651165117,2451384.7959768,-2489.1187086152,2689980.4125985,23.311651165117,0,0
-113.24434984371,-18.806248489319,18.116081608161,2451384.7959768,-2489.1187086152,2689980.4125985,23.316081608161,0,0
-113.24434932269,-18.821422794818,18.120512051205,2451384.7959768,-2489.1187086152,2689980.4125985,23.320512051205,0,0
-113.24434880168,-18.836597100316,18.124942494249,2451384.7959768,-2489.1187086152,2689980.4125985,23.324942494249,0,0
-113.24434828066,-18.851771405814,18.129372937294,2451384.7959768,-2489.1187086152,2689980.4125985,23.329372937294,0,0
-113.24434775964,-18.866945711312,18.133803380338,2451384.7959768,-2489.1187086152,2689980.4125985,23.333803380338,0,0
-113.24434723863,-18.88212001681,18.138233823382,2451384.7959768,-2489.1187086152,2689980.4125985,23.338233823382,0,0
-113.24434671761,-18.897294322309,18.142664266427,2451384.7959768,-2489.1187086152,2689980.4125985,23.342664266427,0,0
-113.2443461966,-18.912468627807,18.147094709471,2451384.7959768,-2489.1187086152,2689980.4125985,23.347094709471,0,0
-113.24434567558,-18.927642933305,18.151525152515,2451384.7959768,-2489.1187086152,2689980.4125985,23.351525152515,0,0
-113.24434515456,-18.942817238803,18.15595559556,2451384.7959768,-2489.1187086152,2689980.4125985,23.35595559556,0,0
-113.24434463355,-18.957991544301,18.160386038604,2451384.7959768,-2489.1187086152,2689980.4125985,23.360386038604,0,0
-113.24434411253,-18.973165849799,18.164816481648,2451384.7959768,-2489.1187086152,2689980.4125985,23.364816481648,0,0
-113.24434359151,-18.988340155298,18.169246924692,2451384.7959768,-2489.1187086152,2689980.4125985,23.369246924692,0,0
-113.2443430705,-19.003514460796,18.173677367737,2451384.7959768,-2489.1187086152,2689980.4125985,23.373677367737,0,0
-113.24434254948,-19.018688766294,18.178107810781,2451384.7959768,-2489.1187086152,2689980.4125985,23.378107810781,0,0
-113.24434202847,-19.033863071792,18.182538253825,2451384.7959768,-2489.1187086152,2689980.4125985,23.382538253825,0,0
-113.24434150745,-19.04903737729,18.18696869687,2451384.7959768,-2489.1187086152,2689980.4125985,23.38696869687,0,0
-113.24434098643,-19.064211682789,18.191399139914,2451384.7959768,-2489.1187086152,2689980.4125985,23.391399139914,0,0
-113.24434046542,-19.079385988287,18.195829582958,2451384.7959768,-2489.1187086152,2689980.4125985,23.395829582958,0,0
-113.2443399444,-19.094560293785,18.200260026003,2451384.7959768,-2489.1187086152,2689980.4125985,23.400260026003,0,0
-113.24433942339,-19.109734599283,18.204690469047,2451384.7959768,-2489.1187086152,2689980.4125985,23.404690469047,0,0
-113.24433890237,-19.124908904781,18.209120912091,2451384.7959768,-2489.1187086152,2689980.4125985,23.409120912091,0,0
-113.24433838135,-19.14008321028,18.213551355136,2451384.7959768,-2489.1187086152,2689980.4125985,23.413551355136,0,0
-113.24433786034,-19.155257515778,18.21798179818,2451384.7959768,-2489.1187086152,2689980.4125985,23.41798179818,0,0
-113.24433733932,-19.170431821276,18.222412241224,2451384.7959768,-2489.1187086152,2689980.4125985,23.422412241224,0,0
-113.24433681831,-19.185606126774,18.226842684268,2451384.7959768,-2489.1187086152,2689980.4125985,23.426842684268,0,0
-113.24433629729,-19.200780432272,18.231273127313,2451384.7959768,-2489.1187086152,2689980.4125985,23.431273127313,0,0
-113.24433577627,-19.21595473777,18.235703570357,2451384.7959768,-2489.1187086152,2689980.4125985,23.435703570357,0,0
-113.24433525526,-19.231129043269,18.240134013401,2451384.7959768,-2489.1187086152,2689980.4125985,23.440134013401,0,0
-113.24433473424,-19.246303348767,18.244564456446,2451384.7959768,-2489.1187086152,2689980.4125985,23.444564456446,0,0
-113.24433421322,-19.261477654265,18.24899489949,2451384.7959768,-2489.1187086152,2689980.4125985,23.44899489949,0,0
-113.24433369221,-19.276651959763,18.253425342534,2451384.7959768,-2489.1187086152,2689980.4125985,23.453425342534,0,0
-113.24433317119,-19.291826265261,18.257855785579,2451384.7959768,-2489.1187086152,2689980.4125985,23.457855785579,0,0
-113.24433265018,-19.30700057076,18.262286228623,2451384.7959768,-2489.1187086152,2689980.4125985,23.462286228623,0,0
-113.24433212916,-19.322174876258,18.266716671667,2451384.7959768,-2489.1187086152,2689980.4125985,23.466716671667,0,0
-113.24433160814,-19.337349181756,18.271147114711,2451384.7959768,-2489.1187086152,2689980.4125985,23.471147114711,0,0
-113.24433108713,-19.352523487254,18.275577557756,2451384.7959768,-2489.1187086152,2689980.4125985,23.475577557756,0,0
-113.24433056611,-19.367697792752,18.2800080008,2451384.7959768,-2489.1187086152,2689980.4125985,23.4800080008,0,0
-113.2443300451,-19.382872098251,18.284438443844,2451384.7959768,-2489.1187086152,2689980.4125985,23.484438443844,0,0
-113.24432952408,-19.398046403749,18.288868886889,2451384.7959768,-2489.1187086152,2689980.4125985,23.488868886889,0,0
-113.24432900306,-19.413220709247,18.293299329933,2451384.7959768,-2489.1187086152,2689980.4125985,23.493299329933,0,0
-113.24432848205,-19.428395014745,18.297729772977,2451384.7959768,-2489.1187086152,2689980.4125985,23.497729772977,0,0
-113.24432796103,-19.443569320243,18.302160216022,2451384.7959768,-2489.1187086152,2689980.4125985,23.502160216022,0,0
-113.24432744002,-19.458743625742,18.306590659066,2451384.7959768,-2489.1187086152,2689980.4125985,23.506590659066,0,0
-113.244326919,-19.47391793124,18.31102110211,2451384.7959768,-2489.1187086152,2689980.4125985,23.51102110211,0,0
-113.24432639798,-19.489092236738,18.315451545155,2451384.7959768,-2489.1187086152,2689980.4125985,23.515451545155,0,0
-113.24432587697,-19.504266542236,18.319881988199,2451384.7959768,-2489.1187086152,2689980.4125985,23.519881988199,0,0
-113.24432535595,-19.519440847734,18.324312431243,2451384.7959768,-2489.1187086152,2689980.4125985,23.524312431243,0,0
-113.24432483491,-19.534615153809,18.328742874287,2446767.2384201,-7318.3115215338,2673834.0032686,23.528742874287,0,0
-113.24432431379,-19.549789461449,18.333173317332,2446767.2384201,-7318.3115215338,2673834.0032686,23.533173317332,0,0
-113.24432379267,-19.56496376909,18.337603760376,2446767.2384201,-7318.3115215338,2673834.0032686,23.537603760376,0,0
-113.24432327155,-19.58013807673,18.34203420342,2446767.2384201,-7318.3115215338,2673834.0032686,23.54203420342,0,0
-113.24432275043,-19.59531238437,18.346464646465,2446767.2384201,-7318.3115215338,2673834.0032686,23.546464646465,0,0
-113.24432222931,-19.61048669201,18.350895089509,2446767.2384201,-7318.3115215338,2673834.0032686,23.550895089509,0,0
-113.24432170819,-19.62566099965,18.355325532553,2446767.2384201,-7318.3115215338,2673834.0032686,23.555325532553,0,0
-113.24432118707,-19.640835307291,18.359755975598,2446767.2384201,-7318.3115215338,2673834.0032686,23.559755975598,0,0
-113.24432066595,-19.656009614931,18.364186418642,2446767.2384201,-7318.3115215338,2673834.0032686,23.564186418642,0,0
-113.24432014483,-19.671183922571,18.368616861686,2446767.2384201,-7318.3115215338,2673834.0032686,23.568616861686,0,0
-113.24431962371,-19.686358230211,18.37304730473,2446767.2384201,-7318.3115215338,2673834.0032686,23.57304730473,0,0
-113.2443191026,-19.701532537852,18.377477747775,2446767.2384201,-7318.3115215338,2673834.0032686,23.577477747775,0,0
-113.24431858148,-19.716706845492,18.381908190819,2446767.2384201,-7318.3115215338,2673834.0032686,23.581908190819,0,0
-113.24431806036,-19.731881153132,18.386338633863,2446767.2384201,-7318.3115215338,2673834.0032686,23.586338633863,0,0
-113.24431753924,-19.747055460772,18.390769076908,2446767.2384201,-7318.3115215338,2673834.0032686,23.590769076908,0,0
-113.24431701812,-19.762229768413,18.395199519952,2446767.2384201,-7318.3115215338,2673834.0032686,23.595199519952,0,0
-113.244316497,-19.777404076053,18.399629962996,2446767.2384201,-7318.3115215338,2673834.0032686,23.599629962996,0,0
-113.24431597588,-19.792578383693,18.404060406041,2446767.2384201,-7318.3115215338,2673834.0032686,23.604060406041,0,0
-113.24431545476,-19.807752691333,18.408490849085,2446767.2384201,-7318.3115215338,2673834.0032686,23.608490849085,0,0
-113.24431493364,-19.822926998973,18.412921292129,2446767.2384201,-7318.3115215338,2673834.0032686,23.612921292129,0,0
-113.24431441252,-19.838101306614,18.417351735174,2446767.2384201,-7318.3115215338,2673834.0032686,23.617351735174,0,0
-113.2443138914,-19.853275614254,18.421782178218,2446767.2384201,-7318.3115215338,2673834.0032686,23.621782178218,0,0
-113.24431337028,-19.868449921894,18.426212621262,2446767.2384201,-7318.3115215338,2673834.0032686,23.626212621262,0,0
-113.24431284917,-19.883624229534,18.430643064306,2446767.2384201,-7318.3115215338,2673834.0032686,23.630643064306,0,0
-113.24431232805,-19.898798537175,18.435073507351,2446767.2384201,-7318.3115215338,2673834.0032686,23.635073507351,0,0
-113.24431180693,-19.913972844815,18.439503950395,2446767.2384201,-7318.3115215338,2673834.0032686,23.639503950395,0,0
-113.24431128581,-19.929147152455,18.443934393439,2446767.2384201,-7318.3115215338,2673834.0032686,23.643934393439,0,0
-113.24431076219,-19.944321459028,18.448364836484,2464778.3935471,-5077.2513627416,2679295.0233581,23.648364836484,0,0
-113.24431023849,-19.959495765572,18.452795279528,2464778.3935471,-5077.2513627416,2679295.0233581,23.652795279528,0,0
-113.2443097148,-19.974670072116,18.457225722572,2464778.3935471,-5077.2513627416,2679295.0233581,23.657225722572,0,0
-113.24430919111,-19.989844378659,18.461656165617,2464778.3935471,-5077.2513627416,2679295.0233581,23.661656165617,0,0
-113.24430866742,-20.005018685203,18.466086608661,2464778.3935471,-5077.2513627416,2679295.0233581,23.666086608661,0,0
-113.24430814373,-20.020192991746,18.470517051705,2464778.3935471,-5077.2513627416,2679295.0233581,23.670517051705,0,0
-113.24430762004,-20.03536729829,18.474947494749,2464778.3935471,-5077.2513627416,2679295.0233581,23.674947494749,0,0
-113.24430709634,-20.050541604834,18.479377937794,2464778.3935471,-5077.2513627416,2679295.0233581,23.679377937794,0,0
-113.24430657265,-20.065715911377,18.483808380838,2464778.3935471,-5077.2513627416,2679295.0233581,23.683808380838,0,0
-113.24430604896,-20.080890217921,18.488238823882,2464778.3935471,-5077.2513627416,2679295.0233581,23.688238823882,0,0
-113.24430552527,-20.096064524464,18.492669266927,2464778.3935471,-5077.2513627416,2679295.0233581,23.692669266927,0,0
-113.24430500158,-20.111238831008,18.497099709971,2464778.3935471,-5077.2513627416,2679295.0233581,23.697099709971,0,0
-113.24430447789,-20.126413137552,18.501530153015,2464778.3935471,-5077.2513627416,2679295.0233581,23.701530153015,0,0
-113.24430395419,-20.141587444095,18.50596059606,2464778.3935471,-5077.2513627416,2679295.0233581,23.70596059606,0,0
-113.2443034305,-20.156761750639,18.510391039104,2464778.3935471,-5077.2513627416,2679295.0233581,23.710391039104,0,0
-113.24430290681,-20.171936057182,18.514821482148,2464778.3935471,-5077.2513627416,2679295.0233581,23.714821482148,0,0
-113.24430238312,-20.187110363726,18.519251925193,2464778.3935471,-5077.2513627416,2679295.0233581,23.719251925193,0,0
-113.24430185943,-20.20228467027,18.523682368237,2464778.3935471,-5077.2513627416,2679295.0233581,23.723682368237,0,0
-113.24430133574,-20.217458976813,18.528112811281,2464778.3935471,-5077.2513627416,2679295.0233581,23.728112811281,0,0
-113.24430081204,-20.232633283357,18.532543254325,2464778.3935471,-5077.2513627416,2679295.0233581,23.732543254325,0,0
-113.24430028835,-20.2478075899,18.53697369737,2464778.3935471,-5077.2513627416,2679295.0233581,23.73697369737,0,0
-113.24429976466,-20.262981896444,18.541404140414,2464778.3935471,-5077.2513627416,2679295.0233581,23.741404140414,0,0
-113.24429924097,-20.278156202988,18.545834583458,2464778.3935471,-5077.2513627416,2679295.0233581,23.745834583458,0,0
-113.24429871728,-20.293330509531,18.550265026503,2464778.3935471,-5077.2513627416,2679295.0233581,23.750265026503,0,0
-113.24429819359,-20.308504816075,18.554695469547,2464778.3935471,-5077.2513627416,2679295.0233581,23.754695469547,0,0
-113.24429766989,-20.323679122618,18.559125912591,2464778.3935471,-5077.2513627416,2679295.0233581,23.759125912591,0,0
-113.2442971462,-20.338853429162,18.563556355636,2464778.3935471,-5077.2513627416,2679295.0233581,23.763556355636,0,0
-113.24429662251,-20.354027735706,18.56798679868,2464778.3935471,-5077.2513627416,2679295.0233581,23.76798679868,0,0
-113.24429609882,-20.369202042249,18.572417241724,2464778.3935471,-5077.2513627416,2679295.0233581,23.772417241724,0,0
-113.24429557513,-20.384376348793,18.576847684768,2464778.3935471,-5077.2513627416,2679295.0233581,23.776847684768,0,0
-113.24429505144,-20.399550655336,18.581278127813,2464778.3935471,-5077.2513627416,2679295.0233581,23.781278127813,0,0
-113.24429452774,-20.41472496188,18.585708570857,2464778.3935471,-5077.2513627416,2679295.0233581,23.785708570857,0,0
-113.24429400405,-20.429899268424,18.590139013901,2464778.3935471,-5077.2513627416,2679295.0233581,23.790139013901,0,0
-113.24429348036,-20.445073574967,18.594569456946,2464778.3935471,-5077.2513627416,2679295.0233581,23.794569456946,0,0
-113.24429295667,-20.460247881511,18.59899989999,2464778.3935471,-5077.2513627416,2679295.0233581,23.79899989999,0,0
-113.24429243298,-20.475422188054,18.603430343034,2464778.3935471,-5077.2513627416,2679295.0233581,23.803430343034,0,0
-113.24429190929,-20.490596494598,18.607860786079,2464778.3935471,-5077.2513627416,2679295.0233581,23.807860786079,0,0
-113.2442913856,-20.505770801142,18.612291229123,2464778.3935471,-5077.2513627416,2679295.0233581,23.812291229123,0,0
-113.2442908619,-20.520945107685,18.616721672167,2464778.3935471,-5077.2513627416,2679295.0233581,23.816721672167,0,0
-113.24429033821,-20.536119414229,18.621152115212,2464778.3935471,-5077.2513627416,2679295.0233581,23.821152115212,0,0
-113.24428981452,-20.551293720772,18.625582558256,2464778.3935471,-5077.2513627416,2679295.0233581,23.825582558256,0,0
-113.24428929083,-20.566468027316,18.6300130013,2464778.3935471,-5077.2513627416,2679295.0233581,23.8300130013,0,0
-113.24428876714,-20.58164233386,18.634443444344,2464778.3935471,-5077.2513627416,2679295.0233581,23.834443444344,0,0
-113.24428824345,-20.596816640403,18.638873887389,2464778.3935471,-5077.2513627416,2679295.0233581,23.838873887389,0,0
-113.24428771975,-20.611990946947,18.643304330433,2464778.3935471,-5077.2513627416,2679295.0233581,23.843304330433,0,0
-113.24428719606,-20.62716525349,18.647734773477,2464778.3935471,-5077.2513627416,2679295.0233581,23.847734773477,0,0
-113.24428667237,-20.642339560034,18.652165216522,2464778.3935471,-5077.2513627416,2679295.0233581,23.852165216522,0,0
-113.24428614868,-20.657513866578,18.656595659566,2464778.3935471,-5077.2513627416,2679295.0233581,23.856595659566,0,0
-113.24428562499,-20.672688173121,18.66102610261,2464778.3935471,-5077.2513627416,2679295.0233581,23.86102610261,0,0
-113.2442851013,-20.687862479665,18.665456545655,2464778.3935471,-5077.2513627416,2679295.0233581,23.865456545655,0,0
-113.2442845776,-20.703036786208,18.669886988699,2464778.3935471,-5077.2513627416,2679295.0233581,23.869886988699,0,0
-113.24428405391,-20.718211092752,18.674317431743,2464778.3935471,-5077.2513627416,2679295.0233581,23.874317431743,0,0
-113.24428353022,-20.733385399295,18.678747874787,2464778.3935471,-5077.2513627416,2679295.0233581,23.878747874787,0,0
-113.24428300653,-20.748559705839,18.683178317832,2464778.3935471,-5077.2513627416,2679295.0233581,23.883178317832,0,0
-113.24428248284,-20.763734012383,18.687608760876,2464778.3935471,-5077.2513627416,2679295.0233581,23.887608760876,0,0
-113.24428195915,-20.778908318926,18.69203920392,2464778.3935471,-5077.2513627416,2679295.0233581,23.89203920392,0,0
-113.24428143545,-20.79408262547,18.696469646965,2464778.3935471,-5077.2513627416,2679295.0233581,23.896469646965,0,0
-113.24428091176,-20.809256932013,18.700900090009,2464778.3935471,-5077.2513627416,2679295.0233581,23.900900090009,0,0
-113.24428038807,-20.824431238557,18.705330533053,2464778.3935471,-5077.2513627416,2679295.0233581,23.905330533053,0,0
-113.24427986438,-20.839605545101,18.709760976098,2464778.3935471,-5077.2513627416,2679295.0233581,23.909760976098,0,0
-113.24427934069,-20.854779851644,18.714191419142,2464778.3935471,-5077.2513627416,2679295.0233581,23.914191419142,0,0
-113.244278817,-20.869954158188,18.718621862186,2464778.3935471,-5077.2513627416,2679295.0233581,23.918621862186,0,0
-113.2442782933,-20.885128464731,18.723052305231,2464778.3935471,-5077.2513627416,2679295.0233581,23.923052305231,0,0
-113.24427776961,-20.900302771275,18.727482748275,2464778.3935471,-5077.2513627416,2679295.0233581,23.927482748275,0,0
-113.24427724592,-20.915477077819,18.731913191319,2464778.3935471,-5077.2513627416,2679295.0233581,23.931913191319,0,0
-113.24427672223,-20.930651384362,18.736343634363,2464778.3935471,-5077.2513627416,2679295.0233581,23.936343634363,0,0
-113.24427619854,-20.945825690906,18.740774077408,2464778.3935471,-5077.2513627416,2679295.0233581,23.940774077408,0,0
-113.24427567485,-20.960999997449,18.745204520452,2464778.3935471,-5077.2513627416,2679295.0233581,23.945204520452,0,0
-113.24427515115,-20.976174303993,18.749634963496,2464778.3935471,-5077.2513627416,2679295.0233581,23.949634963496,0,0
-113.24427462746,-20.991348610537,18.754065406541,2464778.3935471,-5077.2513627416,2679295.0233581,23.954065406541,0,0
-113.24427410377,-21.00652291708,18.758495849585,2464778.3935471,-5077.2513627416,2679295.0233581,23.958495849585,0,0
-113.24427358008,-21.021697223624,18.762926292629,2464778.3935471,-5077.2513627416,2679295.0233581,23.962926292629,0,0
-113.24427305639,-21.036871530167,18.767356735674,2464778.3935471,-5077.2513627416,2679295.0233581,23.967356735674,0,0
-113.24427253295,-21.052045836605,18.771787178718,2455957.3966521,2481.6377567751,2668935.9566261,23.971787178718,0,0
-113.24427201012,-21.067220142785,18.776217621762,2455957.3966521,2481.6377567751,2668935.9566261,23.976217621762,0,0
-113.24427148729,-21.082394448965,18.780648064806,2455957.3966521,2481.6377567751,2668935.9566261,23.980648064806,0,0
-113.24427096446,-21.097568755145,18.785078507851,2455957.3966521,2481.6377567751,2668935.9566261,23.985078507851,0,0
-113.24427044163,-21.112743061326,18.789508950895,2455957.3966521,2481.6377567751,2668935.9566261,23.989508950895,0,0
-113.2442699188,-21.127917367506,18.793939393939,2455957.3966521,2481.6377567751,2668935.9566261,23.993939393939,0,0
-113.24426939597,-21.143091673686,18.798369836984,2455957.3966521,2481.6377567751,2668935.9566261,23.998369836984,0,0
-113.24426887314,-21.158265979866,18.802800280028,2455957.3966521,2481.6377567751,2668935.9566261,24.002800280028,0,0
-113.24426835031,-21.173440286047,18.807230723072,2455957.3966521,2481.6377567751,2668935.9566261,24.007230723072,0,0
-113.24426782749,-21.188614592227,18.811661166117,2455957.3966521,2481.6377567751,2668935.9566261,24.011661166117,0,0
-113.24426730466,-21.203788898407,18.816091609161,2455957.3966521,2481.6377567751,2668935.9566261,24.016091609161,0,0
-113.24426678183,-21.218963204587,18.820522052205,2455957.3966521,2481.6377567751,2668935.9566261,24.020522052205,0,0
-113.244266259,-21.234137510768,18.82495249525,2455957.3966521,2481.6377567751,2668935.9566261,24.02495249525,0,0
-113.24426573617,-21.249311816948,18.829382938294,2455957.3966521,2481.6377567751,2668935.9566261,24.029382938294,0,0
-113.24426521334,-21.264486123128,18.833813381338,2455957.3966521,2481.6377567751,2668935.9566261,24.033813381338,0,0
-113.24426469051,-21.279660429308,18.838243824382,2455957.3966521,2481.6377567751,2668935.9566261,24.038243824382,0,0
-113.24426416768,-21.294834735489,18.842674267427,2455957.3966521,2481.6377567751,2668935.9566261,24.042674267427,0,0
-113.24426364485,-21.310009041669,18.847104710471,2455957.3966521,2481.6377567751,2668935.9566261,24.047104710471,0,0
-113.24426312202,-21.325183347849,18.851535153515,2455957.3966521,2481.6377567751,2668935.9566261,24.051535153515,0,0
-113.24426259919,-21.340357654029,18.85596559656,2455957.3966521,2481.6377567751,2668935.9566261,24.05596559656,0,0
-113.24426207636,-21.35553196021,18.860396039604,2455957.3966521,2481.6377567751,2668935.9566261,24.060396039604,0,0
-113.24426155354,-21.37070626639,18.864826482648,2455957.3966521,2481.6377567751,2668935.9566261,24.064826482648,0,0
-113.24426103071,-21.38588057257,18.869256925693,2455957.3966521,2481.6377567751,2668935.9566261,24.069256925693,0,0
-113.24426050788,-21.40105487875,18.873687368737,2455957.3966521,2481.6377567751,2668935.9566261,24.073687368737,0,0
-113.24425998505,-21.416229184931,18.878117811781,2455957.3966521,2481.6377567751,2668935.9566261,24.078117811781,0,0
-113.24425946222,-21.431403491111,18.882548254825,2455957.3966521,2481.6377567751,2668935.9566261,24.082548254825,0,0
-113.24425893939,-21.446577797291,18.88697869787,2455957.3966521,2481.6377567751,2668935.9566261,24.08697869787,0,0
-113.24425841656,-21.461752103471,18.891409140914,2455957.3966521,2481.6377567751,2668935.9566261,24.091409140914,0,0
-113.24425789373,-21.476926409652,18.895839583958,2455957.3966521,2481.6377567751,2668935.9566261,24.095839583958,0,0
-113.2442573709,-21.492100715832,18.900270027003,2455957.3966521,2481.6377567751,2668935.9566261,24.100270027003,0,0
-113.24425684807,-21.507275022012,18.904700470047,2455957.3966521,2481.6377567751,2668935.9566261,24.104700470047,0,0
-113.24425632524,-21.522449328192,18.909130913091,2455957.3966521,2481.6377567751,2668935.9566261,24.109130913091,0,0
-113.24425580241,-21.537623634373,18.913561356136,2455957.3966521,2481.6377567751,2668935.9566261,24.113561356136,0,0
-113.24425527959,-21.552797940553,18.91799179918,2455957.3966521,2481.6377567751,2668935.9566261,24.11799179918,0,0
-113.24425475676,-21.567972246733,18.922422242224,2455957.3966521,2481.6377567751,2668935.9566261,24.122422242224,0,0
-113.24425423393,-21.583146552913,18.926852685269,2455957.3966521,2481.6377567751,2668935.9566261,24.126852685269,0,0
-113.2442537111,-21.598320859094,18.931283128313,2455957.3966521,2481.6377567751,2668935.9566261,24.131283128313,0,0
-113.24425318827,-21.613495165274,18.935713571357,2455957.3966521,2481.6377567751,2668935.9566261,24.135713571357,0,0
-113.24425266544,-21.628669471454,18.940144014401,2455957.3966521,2481.6377567751,2668935.9566261,24.140144014401,0,0
-113.24425214261,-21.643843777634,18.944574457446,2455957.3966521,2481.6377567751,2668935.9566261,24.144574457446,0,0
-113.24425161978,-21.659018083815,18.94900490049,2455957.3966521,2481.6377567751,2668935.9566261,24.14900490049,0,0
-113.24425109695,-21.674192389995,18.953435343534,2455957.3966521,2481.6377567751,2668935.9566261,24.153435343534,0,0
-113.24425057412,-21.689366696175,18.957865786579,2455957.3966521,2481.6377567751,2668935.9566261,24.157865786579,0,0
-113.24425005129,-21.704541002355,18.962296229623,2455957.3966521,2481.6377567751,2668935.9566261,24.162296229623,0,0
-113.24424952846,-21.719715308536,18.966726672667,2455957.3966521,2481.6377567751,2668935.9566261,24.166726672667,0,0
-113.24424900564,-21.734889614716,18.971157115712,2455957.3966521,2481.6377567751,2668935.9566261,24.171157115712,0,0
-113.24424848281,-21.750063920896,18.975587558756,2455957.3966521,2481.6377567751,2668935.9566261,24.175587558756,0,0
-113.24424795998,-21.765238227076,18.9800180018,2455957.3966521,2481.6377567751,2668935.9566261,24.1800180018,0,0
-113.24424743715,-21.780412533257,18.984448444844,2455957.3966521,2481.6377567751,2668935.9566261,24.184448444844,0,0
-113.24424691432,-21.795586839437,18.988878887889,2455957.3966521,2481.6377567751,2668935.9566261,24.188878887889,0,0
-113.24424639149,-21.810761145617,18.993309330933,2455957.3966521,2481.6377567751,2668935.9566261,24.193309330933,0,0
-113.24424586866,-21.825935451797,18.997739773977,2455957.3966521,2481.6377567751,2668935.9566261,24.197739773977,0,0
-113.24424534583,-21.841109757978,19.002170217022,2455957.3966521,2481.6377567751,2668935.9566261,24.202170217022,0,0
-113.244244823,-21.856284064158,19.006600660066,2455957.3966521,2481.6377567751,2668935.9566261,24.206600660066,0,0
-113.24424430017,-21.871458370338,19.01103110311,2455957.3966521,2481.6377567751,2668935.9566261,24.21103110311,0,0
-113.24424377734,-21.886632676518,19.015461546155,2455957.3966521,2481.6377567751,2668935.9566261,24.215461546155,0,0
-113.24424325451,-21.901806982699,19.019891989199,2455957.3966521,2481.6377567751,2668935.9566261,24.219891989199,0,0
-113.24424273168,-21.916981288879,19.024322432243,2455957.3966521,2481.6377567751,2668935.9566261,24.224322432243,0,0
-113.24424220886,-21.932155595059,19.028752875288,2455957.3966521,2481.6377567751,2668935.9566261,24.228752875288,0,0
-113.24424168603,-21.947329901239,19.033183318332,2455957.3966521,2481.6377567751,2668935.9566261,24.233183318332,0,0
-113.2442411632,-21.96250420742,19.037613761376,2455957.3966521,2481.6377567751,2668935.9566261,24.237613761376,0,0
-113.24424064037,-21.9776785136,19.04204420442,2455957.3966521,2481.6377567751,2668935.9566261,24.24204420442,0,0
-113.24424011754,-21.99285281978,19.046474647465,2455957.3966521,2481.6377567751,2668935.9566261,24.246474647465,0,0
-113.24423959471,-22.008027125961,19.050905090509,2455957.3966521,2481.6377567751,2668935.9566261,24.250905090509,0,0
-113.24423907188,-22.023201432141,19.055335533553,2455957.3966521,2481.6377567751,2668935.9566261,24.255335533553,0,0
-113.24423854905,-22.038375738321,19.059765976598,2455957.3966521,2481.6377567751,2668935.9566261,24.259765976598,0,0
-113.24423802622,-22.053550044501,19.064196419642,2455957.3966521,2481.6377567751,2668935.9566261,24.264196419642,0,0
-113.24423750339,-22.068724350681,19.068626862686,2455957.3966521,2481.6377567751,2668935.9566261,24.268626862686,0,0
-113.24423698056,-22.083898656862,19.073057305731,2455957.3966521,2481.6377567751,2668935.9566261,24.273057305731,0,0
-113.24423645773,-22.099072963042,19.077487748775,2455957.3966521,2481.6377567751,2668935.9566261,24.277487748775,0,0
-113.24423593491,-22.114247269222,19.081918191819,2455957.3966521,2481.6377567751,2668935.9566261,24.281918191819,0,0
-113.24423541208,-22.129421575402,19.086348634863,2455957.3966521,2481.6377567751,2668935.9566261,24.286348634863,0,0
-113.24423488925,-22.144595881583,19.090779077908,2455957.3966521,2481.6377567751,2668935.9566261,24.290779077908,0,0
-113.24423436642,-22.159770187763,19.095209520952,2455957.3966521,2481.6377567751,2668935.9566261,24.295209520952,0,0
-113.24423384359,-22.174944493943,19.099639963996,2455957.3966521,2481.6377567751,2668935.9566261,24.299639963996,0,0
-113.24423332076,-22.190118800124,19.104070407041,2455957.3966521,2481.6377567751,2668935.9566261,24.304070407041,0,0
-113.24423279793,-22.205293106304,19.108500850085,2455957.3966521,2481.6377567751,2668935.9566261,24.308500850085,0,0
-113.2442322751,-22.220467412484,19.112931293129,2455957.3966521,2481.6377567751,2668935.9566261,24.312931293129,0,0
-113.24423175227,-22.235641718664,19.117361736174,2455957.3966521,2481.6377567751,2668935.9566261,24.317361736174,0,0
-113.24423122944,-22.250816024845,19.121792179218,2455957.3966521,2481.6377567751,2668935.9566261,24.321792179218,0,0
-113.24423070661,-22.265990331025,19.126222622262,2455957.3966521,2481.6377567751,2668935.9566261,24.326222622262,0,0
-113.24423018378,-22.281164637205,19.130653065307,2455957.3966521,2481.6377567751,2668935.9566261,24.330653065307,0,0
-113.24422966096,-22.296338943385,19.135083508351,2455957.3966521,2481.6377567751,2668935.9566261,24.335083508351,0,0
-113.24422913813,-22.311513249566,19.139513951395,2455957.3966521,2481.6377567751,2668935.9566261,24.339513951395,0,0
-113.2442286153,-22.326687555746,19.143944394439,2455957.3966521,2481.6377567751,2668935.9566261,24.343944394439,0,0
-113.24422809247,-22.341861861926,19.148374837484,2455957.3966521,2481.6377567751,2668935.9566261,24.348374837484,0,0
-113.24422756964,-22.357036168106,19.152805280528,2455957.3966521,2481.6377567751,2668935.9566261,24.352805280528,0,0
-113.24422704681,-22.372210474287,19.157235723572,2455957.3966521,2481.6377567751,2668935.9566261,24.357235723572,0,0
-113.24422652398,-22.387384780467,19.161666166617,2455957.3966521,2481.6377567751,2668935.9566261,24.361666166617,0,0
-113.24422600115,-22.402559086647,19.166096609661,2455957.3966521,2481.6377567751,2668935.9566261,24.366096609661,0,0
-113.24422547832,-22.417733392827,19.170527052705,2455957.3966521,2481.6377567751,2668935.9566261,24.370527052705,0,0
-113.24422495549,-22.432907699008,19.17495749575,2455957.3966521,2481.6377567751,2668935.9566261,24.37495749575,0,0
-113.24422443266,-22.448082005188,19.179387938794,2455957.3966521,2481.6377567751,2668935.9566261,24.379387938794,0,0
-113.24422390983,-22.463256311368,19.183818381838,2455957.3966521,2481.6377567751,2668935.9566261,24.383818381838,0,0
-113.24422338701,-22.478430617548,19.188248824882,2455957.3966521,2481.6377567751,2668935.9566261,24.388248824882,0,0
-113.24422286418,-22.493604923729,19.192679267927,2455957.3966521,2481.6377567751,2668935.9566261,24.392679267927,0,0
-113.24422234135,-22.508779229909,19.197109710971,2455957.3966521,2481.6377567751,2668935.9566261,24.397109710971,0,0
-113.24422181852,-22.523953536089,19.201540154015,2455957.3966521,2481.6377567751,2668935.9566261,24.401540154015,0,0
-113.24422129569,-22.539127842269,19.20597059706,2455957.3966521,2481.6377567751,2668935.9566261,24.40597059706,0,0
-113.24422077286,-22.55430214845,19.210401040104,2455957.3966521,2481.6377567751,2668935.9566261,24.410401040104,0,0
-113.24422025003,-22.56947645463,19.214831483148,2455957.3966521,2481.6377567751,2668935.9566261,24.414831483148,0,0
-113.2442197272,-22.58465076081,19.219261926193,2455957.3966521,2481.6377567751,2668935.9566261,24.419261926193,0,0
-113.24421920437,-22.59982506699,19.223692369237,2455957.3966521,2481.6377567751,2668935.9566261,24.423692369237,0,0
-113.24421868154,-22.614999373171,19.228122812281,2455957.3966521,2481.6377567751,2668935.9566261,24.428122812281,0,0
-113.24421815871,-22.630173679351,19.232553255326,2455957.3966521,2481.6377567751,2668935.9566261,24.432553255326,0,0
-113.24421763588,-22.645347985531,19.23698369837,2455957.3966521,2481.6377567751,2668935.9566261,24.43698369837,0,0
-113.24421711305,-22.660522291711,19.241414141414,2455957.3966521,2481.6377567751,2668935.9566261,24.441414141414,0,0
-113.24421659023,-22.675696597892,19.245844584458,2455957.3966521,2481.6377567751,2668935.9566261,24.445844584458,0,0
-113.2442160674,-22.690870904072,19.250275027503,2455957.3966521,2481.6377567751,2668935.9566261,24.450275027503,0,0
-113.24421554457,-22.706045210252,19.254705470547,2455957.3966521,2481.6377567751,2668935.9566261,24.454705470547,0,0
-113.24421502174,-22.721219516432,19.259135913591,2455957.3966521,2481.6377567751,2668935.9566261,24.459135913591,0,0
-113.24421449891,-22.736393822613,19.263566356636,2455957.3966521,2481.6377567751,2668935.9566261,24.463566356636,0,0
-113.24421397608,-22.751568128793,19.26799679968,2455957.3966521,2481.6377567751,2668935.9566261,24.46799679968,0,0
-113.24421345325,-22.766742434973,19.272427242724,2455957.3966521,2481.6377567751,2668935.9566261,24.472427242724,0,0
-113.24421293042,-22.781916741153,19.276857685769,2455957.3966521,2481.6377567751,2668935.9566261,24.476857685769,0,0
-113.24421240759,-22.797091047334,19.281288128813,2455957.3966521,2481.6377567751,2668935.9566261,24.481288128813,0,0
-113.24421188476,-22.812265353514,19.285718571857,2455957.3966521,2481.6377567751,2668935.9566261,24.485718571857,0,0
-113.24421136193,-22.827439659694,19.290149014901,2455957.3966521,2481.6377567751,2668935.9566261,24.490149014901,0,0
-113.2442108391,-22.842613965874,19.294579457946,2455957.3966521,2481.6377567751,2668935.9566261,24.494579457946,0,0
-113.24421031628,-22.857788272055,19.29900990099,2455957.3966521,2481.6377567751,2668935.9566261,24.49900990099,0,0
-113.24420979345,-22.872962578235,19.303440344034,2455957.3966521,2481.6377567751,2668935.9566261,24.503440344034,0,0
-113.24420927062,-22.888136884415,19.307870787079,2455957.3966521,2481.6377567751,2668935.9566261,24.507870787079,0,0
-113.24420874779,-22.903311190595,19.312301230123,2455957.3966521,2481.6377567751,2668935.9566261,24.512301230123,0,0
-113.24420822496,-22.918485496776,19.316731673167,2455957.3966521,2481.6377567751,2668935.9566261,24.516731673167,0,0
-113.24420770213,-22.933659802956,19.321162116212,2455957.3966521,2481.6377567751,2668935.9566261,24.521162116212,0,0
-113.2442071793,-22.948834109136,19.325592559256,2455957.3966521,2481.6377567751,2668935.9566261,24.525592559256,0,0
-113.24420665647,-22.964008415316,19.3300230023,2455957.3966521,2481.6377567751,2668935.9566261,24.5300230023,0,0
-113.24420613364,-22.979182721497,19.334453445345,2455957.3966521,2481.6377567751,2668935.9566261,24.534453445345,0,0
-113.24420561081,-22.994357027677,19.338883888389,2455957.3966521,2481.6377567751,2668935.9566261,24.538883888389,0,0
-113.24420508798,-23.009531333857,19.343314331433,2455957.3966521,2481.6377567751,2668935.9566261,24.543314331433,0,0
-113.24420456515,-23.024705640037,19.347744774477,2455957.3966521,2481.6377567751,2668935.9566261,24.547744774477,0,0
-113.24420404233,-23.039879946218,19.352175217522,2455957.3966521,2481.6377567751,2668935.9566261,24.552175217522,0,0
-113.2442035195,-23.055054252398,19.356605660566,2455957.3966521,2481.6377567751,2668935.9566261,24.556605660566,0,0
-113.24420299667,-23.070228558578,19.36103610361,2455957.3966521,2481.6377567751,2668935.9566261,24.56103610361,0,0
-113.24420247384,-23.085402864758,19.365466546655,2455957.3966521,2481.6377567751,2668935.9566261,24.565466546655,0,0
-113.24420195101,-23.100577170939,19.369896989699,2455957.3966521,2481.6377567751,2668935.9566261,24.569896989699,0,0
-113.24420142818,-23.115751477119,19.374327432743,2455957.3966521,2481.6377567751,2668935.9566261,24.574327432743,0,0
-113.24420090535,-23.130925783299,19.378757875788,2455957.3966521,2481.6377567751,2668935.9566261,24.578757875788,0,0
-113.24420038252,-23.146100089479,19.383188318832,2455957.3966521,2481.6377567751,2668935.9566261,24.583188318832,0,0
-113.24419985969,-23.16127439566,19.387618761876,2455957.3966521,2481.6377567751,2668935.9566261,24.587618761876,0,0
-113.24419933686,-23.17644870184,19.39204920492,2455957.3966521,2481.6377567751,2668935.9566261,24.59204920492,0,0
-113.24419881403,-23.19162300802,19.396479647965,2455957.3966521,2481.6377567751,2668935.9566261,24.596479647965,0,0
-113.2441982912,-23.2067973142,19.400910091009,2455957.3966521,2481.6377567751,2668935.9566261,24.600910091009,0,0
-113.24419776838,-23.221971620381,19.405340534053,2455957.3966521,2481.6377567751,2668935.9566261,24.605340534053,0,0
-113.24419724555,-23.237145926561,19.409770977098,2455957.3966521,2481.6377567751,2668935.9566261,24.609770977098,0,0
-113.24419672272,-23.252320232741,19.414201420142,2455957.3966521,2481.6377567751,2668935.9566261,24.614201420142,0,0
-113.24419619989,-23.267494538921,19.418631863186,2455957.3966521,2481.6377567751,2668935.9566261,24.618631863186,0,0
-113.24419567706,-23.282668845102,19.423062306231,2455957.3966521,2481.6377567751,2668935.9566261,24.623062306231,0,0
-113.24419515423,-23.297843151282,19.427492749275,2455957.3966521,2481.6377567751,2668935.9566261,24.627492749275,0,0
-113.2441946314,-23.313017457462,19.431923192319,2455957.3966521,2481.6377567751,2668935.9566261,24.631923192319,0,0
-113.24419410857,-23.328191763642,19.436353635364,2455957.3966521,2481.6377567751,2668935.9566261,24.636353635364,0,0
-113.24419358574,-23.343366069823,19.440784078408,2455957.3966521,2481.6377567751,2668935.9566261,24.640784078408,0,0
-113.24419306291,-23.358540376003,19.445214521452,2455957.3966521,2481.6377567751,2668935.9566261,24.645214521452,0,0
-113.24419254008,-23.373714682183,19.449644964496,2455957.3966521,2481.6377567751,2668935.9566261,24.649644964496,0,0
-113.24419201725,-23.388888988363,19.454075407541,2455957.3966521,2481.6377567751,2668935.9566261,24.654075407541,0,0
-113.24419149443,-23.404063294544,19.458505850585,2455957.3966521,2481.6377567751,2668935.9566261,24.658505850585,0,0
-113.2441909716,-23.419237600724,19.462936293629,2455957.3966521,2481.6377567751,2668935.9566261,24.662936293629,0,0
-113.24419044877,-23.434411906904,19.467366736674,2455957.3966521,2481.6377567751,2668935.9566261,24.667366736674,0,0
-113.24418992594,-23.449586213084,19.471797179718,2455957.3966521,2481.6377567751,2668935.9566261,24.671797179718,0,0
-113.24418940311,-23.464760519265,19.476227622762,2455957.3966521,2481.6377567751,2668935.9566261,24.676227622762,0,0
-113.24418888028,-23.479934825445,19.480658065807,2455957.3966521,2481.6377567751,2668935.9566261,24.680658065807,0,0
-113.24418835745,-23.495109131625,19.485088508851,2455957.3966521,2481.6377567751,2668935.9566261,24.685088508851,0,0
-113.24418783462,-23.510283437805,19.489518951895,2455957.3966521,2481.6377567751,2668935.9566261,24.689518951895,0,0
-113.24418731179,-23.525457743986,19.493949394939,2455957.3966521,2481.6377567751,2668935.9566261,24.693949394939,0,0
-113.24418678896,-23.540632050166,19.498379837984,2455957.3966521,2481.6377567751,2668935.9566261,24.698379837984,0,0
-113.24418626613,-23.555806356346,19.502810281028,2455957.3966521,2481.6377567751,2668935.9566261,24.702810281028,0,0
-113.2441857433,-23.570980662526,19.507240724072,2455957.3966521,2481.6377567751,2668935.9566261,24.707240724072,0,0
-113.24418522047,-23.586154968707,19.511671167117,2455957.3966521,2481.6377567751,2668935.9566261,24.711671167117,0,0
-113.24418469765,-23.601329274887,19.516101610161,2455957.3966521,2481.6377567751,2668935.9566261,24.716101610161,0,0
-113.24418417482,-23.616503581067,19.520532053205,2455957.3966521,2481.6377567751,2668935.9566261,24.720532053205,0,0
-113.24418365199,-23.631677887247,19.52496249625,2455957.3966521,2481.6377567751,2668935.9566261,24.72496249625,0,0
-113.24418312916,-23.646852193428,19.529392939294,2455957.3966521,2481.6377567751,2668935.9566261,24.729392939294,0,0
-113.24418260633,-23.662026499608,19.533823382338,2455957.3966521,2481.6377567751,2668935.9566261,24.733823382338,0,0
-113.2441820835,-23.677200805788,19.538253825383,2455957.3966521,2481.6377567751,2668935.9566261,24.738253825383,0,0
-113.24418156067,-23.692375111968,19.542684268427,2455957.3966521,2481.6377567751,2668935.9566261,24.742684268427,0,0
-113.24418103784,-23.707549418149,19.547114711471,2455957.3966521,2481.6377567751,2668935.9566261,24.747114711471,0,0
-113.24418051501,-23.722723724329,19.551545154515,2455957.3966521,2481.6377567751,2668935.9566261,24.751545154515,0,0
-113.24417999218,-23.737898030509,19.55597559756,2455957.3966521,2481.6377567751,2668935.9566261,24.75597559756,0,0
-113.24417946935,-23.753072336689,19.560406040604,2455957.3966521,2481.6377567751,2668935.9566261,24.760406040604,0,0
-113.24417894652,-23.76824664287,19.564836483648,2455957.3966521,2481.6377567751,2668935.9566261,24.764836483648,0,0
-113.2441784237,-23.78342094905,19.569266926693,2455957.3966521,2481.6377567751,2668935.9566261,24.769266926693,0,0
-113.24417789887,-23.798595253072,19.573697369737,2469925.5073758,6512.9293650711,2668683.0627226,24.773697369737,0,0
-113.24417737381,-23.813769556851,19.578127812781,2469925.5073758,6512.9293650711,2668683.0627226,24.778127812781,0,0
-113.24417684875,-23.828943860629,19.582558255826,2469925.5073758,6512.9293650711,2668683.0627226,24.782558255826,0,0
-113.2441763237,-23.844118164408,19.58698869887,2469925.5073758,6512.9293650711,2668683.0627226,24.78698869887,0,0
-113.24417579864,-23.859292468186,19.591419141914,2469925.5073758,6512.9293650711,2668683.0627226,24.791419141914,0,0
-113.24417527358,-23.874466771964,19.595849584958,2469925.5073758,6512.9293650711,2668683.0627226,24.795849584958,0,0
-113.24417474853,-23.889641075743,19.600280028003,2469925.5073758,6512.9293650711,2668683.0627226,24.800280028003,0,0
-113.24417422347,-23.904815379521,19.604710471047,2469925.5073758,6512.9293650711,2668683.0627226,24.804710471047,0,0
-113.24417369842,-23.9199896833,19.609140914091,2469925.5073758,6512.9293650711,2668683.0627226,24.809140914091,0,0
-113.24417317336,-23.935163987078,19.613571357136,2469925.5073758,6512.9293650711,2668683.0627226,24.813571357136,0,0
-113.2441726483,-23.950338290856,19.61800180018,2469925.5073758,6512.9293650711,2668683.0627226,24.81800180018,0,0
-113.24417212325,-23.965512594635,19.622432243224,2469925.5073758,6512.9293650711,2668683.0627226,24.822432243224,0,0
-113.24417159819,-23.980686898413,19.626862686269,2469925.5073758,6512.9293650711,2668683.0627226,24.826862686269,0,0
-113.24417107313,-23.995861202192,19.631293129313,2469925.5073758,6512.9293650711,2668683.0627226,24.831293129313,0,0
-113.24417054808,-24.01103550597,19.635723572357,2469925.5073758,6512.9293650711,2668683.0627226,24.835723572357,0,0
-113.24417002302,-24.026209809748,19.640154015402,2469925.5073758,6512.9293650711,2668683.0627226,24.840154015402,0,0
-113.24416949797,-24.041384113527,19.644584458446,2469925.5073758,6512.9293650711,2668683.0627226,24.844584458446,0,0
-113.24416897291,-24.056558417305,19.64901490149,2469925.5073758,6512.9293650711,2668683.0627226,24.84901490149,0,0
-113.24416844785,-24.071732721084,19.653445344534,2469925.5073758,6512.9293650711,2668683.0627226,24.853445344534,0,0
-113.2441679228,-24.086907024862,19.657875787579,2469925.5073758,6512.9293650711,2668683.0627226,24.857875787579,0,0
-113.24416739774,-24.10208132864,19.662306230623,2469925.5073758,6512.9293650711,2668683.0627226,24.862306230623,0,0
-113.24416687268,-24.117255632419,19.666736673667,2469925.5073758,6512.9293650711,2668683.0627226,24.866736673667,0,0
-113.24416634763,-24.132429936197,19.671167116712,2469925.5073758,6512.9293650711,2668683.0627226,24.871167116712,0,0
-113.24416582257,-24.147604239976,19.675597559756,2469925.5073758,6512.9293650711,2668683.0627226,24.875597559756,0,0
-113.24416529752,-24.162778543754,19.6800280028,2469925.5073758,6512.9293650711,2668683.0627226,24.8800280028,0,0
-113.24416477246,-24.177952847532,19.684458445845,2469925.5073758,6512.9293650711,2668683.0627226,24.884458445845,0,0
-113.2441642474,-24.193127151311,19.688888888889,2469925.5073758,6512.9293650711,2668683.0627226,24.888888888889,0,0
-113.24416372235,-24.208301455089,19.693319331933,2469925.5073758,6512.9293650711,2668683.0627226,24.893319331933,0,0
-113.24416319729,-24.223475758868,19.697749774977,2469925.5073758,6512.9293650711,2668683.0627226,24.897749774977,0,0
-113.24416267223,-24.238650062646,19.702180218022,2469925.5073758,6512.9293650711,2668683.0627226,24.902180218022,0,0
-113.24416214718,-24.253824366424,19.706610661066,2469925.5073758,6512.9293650711,2668683.0627226,24.906610661066,0,0
-113.24416162212,-24.268998670203,19.71104110411,2469925.5073758,6512.9293650711,2668683.0627226,24.91104110411,0,0
-113.24416109707,-24.284172973981,19.715471547155,2469925.5073758,6512.9293650711,2668683.0627226,24.915471547155,0,0
-113.24416057201,-24.29934727776,19.719901990199,2469925.5073758,6512.9293650711,2668683.0627226,24.919901990199,0,0
-113.24416004695,-24.314521581538,19.724332433243,2469925.5073758,6512.9293650711,2668683.0627226,24.924332433243,0,0
-113.2441595219,-24.329695885316,19.728762876288,2469925.5073758,6512.9293650711,2668683.0627226,24.928762876288,0,0
-113.24415899684,-24.344870189095,19.733193319332,2469925.5073758,6512.9293650711,2668683.0627226,24.933193319332,0,0
-113.24415847178,-24.360044492873,19.737623762376,2469925.5073758,6512.9293650711,2668683.0627226,24.937623762376,0,0
-113.24415794673,-24.375218796652,19.742054205421,2469925.5073758,6512.9293650711,2668683.0627226,24.942054205421,0,0
-113.24415742167,-24.39039310043,19.746484648465,2469925.5073758,6512.9293650711,2668683.0627226,24.946484648465,0,0
-113.24415689661,-24.405567404208,19.750915091509,2469925.5073758,6512.9293650711,2668683.0627226,24.950915091509,0,0
-113.24415637156,-24.420741707987,19.755345534553,2469925.5073758,6512.9293650711,2668683.0627226,24.955345534553,0,0
-113.2441558465,-24.435916011765,19.759775977598,2469925.5073758,6512.9293650711,2668683.0627226,24.959775977598,0,0
-113.24415532145,-24.451090315544,19.764206420642,2469925.5073758,6512.9293650711,2668683.0627226,24.964206420642,0,0
-113.24415479639,-24.466264619322,19.768636863686,2469925.5073758,6512.9293650711,2668683.0627226,24.968636863686,0,0
-113.24415427133,-24.4814389231,19.773067306731,2469925.5073758,6512.9293650711,2668683.0627226,24.973067306731,0,0
-113.24415374628,-24.496613226879,19.777497749775,2469925.5073758,6512.9293650711,2668683.0627226,24.977497749775,0,0
-113.24415322122,-24.511787530657,19.781928192819,2469925.5073758,6512.9293650711,2668683.0627226,24.981928192819,0,0
-113.24415269616,-24.526961834436,19.786358635864,2469925.5073758,6512.9293650711,2668683.0627226,24.986358635864,0,0
-113.24415217111,-24.542136138214,19.790789078908,2469925.5073758,6512.9293650711,2668683.0627226,24.990789078908,0,0
-113.24415164605,-24.557310441992,19.795219521952,2469925.5073758,6512.9293650711,2668683.0627226,24.995219521952,0,0
-113.244151121,-24.572484745771,19.799649964996,2469925.5073758,6512.9293650711,2668683.0627226,24.999649964996,0,0
-113.24415059594,-24.587659049549,19.804080408041,2469925.5073758,6512.9293650711,2668683.0627226,25.004080408041,0,0
-113.24415007088,-24.602833353328,19.808510851085,2469925.5073758,6512.9293650711,2668683.0627226,25.008510851085,0,0
-113.24414954583,-24.618007657106,19.812941294129,2469925.5073758,6512.9293650711,2668683.0627226,25.012941294129,0,0
-113.24414902077,-24.633181960884,19.817371737174,2469925.5073758,6512.9293650711,2668683.0627226,25.017371737174,0,0
-113.24414849545,-24.648356265492,19.821802180218,2471944.558661,1936.0307542438,2660228.0461551,25.021802180218,0,0
-113.24414796964,-24.663530571653,19.826232623262,2471944.558661,1936.0307542438,2660228.0461551,25.026232623262,0,0
-113.24414744382,-24.678704877815,19.830663066307,2471944.558661,1936.0307542438,2660228.0461551,25.030663066307,0,0
-113.24414691801,-24.693879183977,19.835093509351,2471944.558661,1936.0307542438,2660228.0461551,25.035093509351,0,0
-113.2441463922,-24.709053490138,19.839523952395,2471944.558661,1936.0307542438,2660228.0461551,25.039523952395,0,0
-113.24414586638,-24.7242277963,19.84395439544,2471944.558661,1936.0307542438,2660228.0461551,25.04395439544,0,0
-113.24414534057,-24.739402102462,19.848384838484,2471944.558661,1936.0307542438,2660228.0461551,25.048384838484,0,0
-113.24414481476,-24.754576408623,19.852815281528,2471944.558661,1936.0307542438,2660228.0461551,25.052815281528,0,0
-113.24414428894,-24.769750714785,19.857245724572,2471944.558661,1936.0307542438,2660228.0461551,25.057245724572,0,0
-113.24414376313,-24.784925020947,19.861676167617,2471944.558661,1936.0307542438,2660228.0461551,25.061676167617,0,0
-113.24414323732,-24.800099327109,19.866106610661,2471944.558661,1936.0307542438,2660228.0461551,25.066106610661,0,0
-113.2441427115,-24.81527363327,19.870537053705,2471944.558661,1936.0307542438,2660228.0461551,25.070537053705,0,0
-113.24414218569,-24.830447939432,19.87496749675,2471944.558661,1936.0307542438,2660228.0461551,25.07496749675,0,0
-113.24414165988,-24.845622245594,19.879397939794,2471944.558661,1936.0307542438,2660228.0461551,25.079397939794,0,0
-113.24414113406,-24.860796551755,19.883828382838,2471944.558661,1936.0307542438,2660228.0461551,25.083828382838,0,0
-113.24414060825,-24.875970857917,19.888258825883,2471944.558661,1936.0307542438,2660228.0461551,25.088258825883,0,0
-113.24414008243,-24.891145164079,19.892689268927,2471944.558661,1936.0307542438,2660228.0461551,25.092689268927,0,0
-113.24413955662,-24.90631947024,19.897119711971,2471944.558661,1936.0307542438,2660228.0461551,25.097119711971,0,0
-113.24413903081,-24.921493776402,19.901550155015,2471944.558661,1936.0307542438,2660228.0461551,25.101550155015,0,0
-113.24413850499,-24.936668082564,19.90598059806,2471944.558661,1936.0307542438,2660228.0461551,25.10598059806,0,0
-113.24413797918,-24.951842388725,19.910411041104,2471944.558661,1936.0307542438,2660228.0461551,25.110411041104,0,0
-113.24413745337,-24.967016694887,19.914841484148,2471944.558661,1936.0307542438,2660228.0461551,25.114841484148,0,0
-113.24413692755,-24.982191001049,19.919271927193,2471944.558661,1936.0307542438,2660228.0461551,25.119271927193,0,0
-113.24413640174,-24.997365307211,19.923702370237,2471944.558661,1936.0307542438,2660228.0461551,25.123702370237,0,0
-113.24413587593,-25.012539613372,19.928132813281,2471944.558661,1936.0307542438,2660228.0461551,25.128132813281,0,0
-113.24413535011,-25.027713919534,19.932563256326,2471944.558661,1936.0307542438,2660228.0461551,25.132563256326,0,0
-113.2441348243,-25.042888225696,19.93699369937,2471944.558661,1936.0307542438,2660228.0461551,25.13699369937,0,0
-113.24413429849,-25.058062531857,19.941424142414,2471944.558661,1936.0307542438,2660228.0461551,25.141424142414,0,0
-113.24413377267,-25.073236838019,19.945854585459,2471944.558661,1936.0307542438,2660228.0461551,25.145854585459,0,0
-113.24413324686,-25.088411144181,19.950285028503,2471944.558661,1936.0307542438,2660228.0461551,25.150285028503,0,0
-113.24413272105,-25.103585450342,19.954715471547,2471944.558661,1936.0307542438,2660228.0461551,25.154715471547,0,0
-113.24413219523,-25.118759756504,19.959145914591,2471944.558661,1936.0307542438,2660228.0461551,25.159145914591,0,0
-113.24413166942,-25.133934062666,19.963576357636,2471944.558661,1936.0307542438,2660228.0461551,25.163576357636,0,0
-113.2441311436,-25.149108368827,19.96800680068,2471944.558661,1936.0307542438,2660228.0461551,25.16800680068,0,0
-113.24413061779,-25.164282674989,19.972437243724,2471944.558661,1936.0307542438,2660228.0461551,25.172437243724,0,0
-113.24413009198,-25.179456981151,19.976867686769,2471944.558661,1936.0307542438,2660228.0461551,25.176867686769,0,0
-113.24412956616,-25.194631287313,19.981298129813,2471944.558661,1936.0307542438,2660228.0461551,25.181298129813,0,0
-113.24412904035,-25.209805593474,19.985728572857,2471944.558661,1936.0307542438,2660228.0461551,25.185728572857,0,0
-113.24412851454,-25.224979899636,19.990159015902,2471944.558661,1936.0307542438,2660228.0461551,25.190159015902,0,0
-113.24412798872,-25.240154205798,19.994589458946,2471944.558661,1936.0307542438,2660228.0461551,25.194589458946,0,0
-113.24412746291,-25.255328511959,19.99901990199,2471944.558661,1936.0307542438,2660228.0461551,25.19901990199,0,0
-113.2441269371,-25.270502818121,20.003450345035,2471944.558661,1936.0307542438,2660228.0461551,25.203450345035,0,0
-113.24412641128,-25.285677124283,20.007880788079,2471944.558661,1936.0307542438,2660228.0461551,25.207880788079,0,0
-113.24412588547,-25.300851430444,20.012311231123,2471944.558661,1936.0307542438,2660228.0461551,25.212311231123,0,0
-113.24412535966,-25.316025736606,20.016741674167,2471944.558661,1936.0307542438,2660228.0461551,25.216741674167,0,0
-113.24412483384,-25.331200042768,20.021172117212,2471944.558661,1936.0307542438,2660228.0461551,25.221172117212,0,0
-113.24412430803,-25.346374348929,20.025602560256,2471944.558661,1936.0307542438,2660228.0461551,25.225602560256,0,0
-113.24412378221,-25.361548655091,20.0300330033,2471944.558661,1936.0307542438,2660228.0461551,25.2300330033,0,0
-113.2441232564,-25.376722961253,20.034463446345,2471944.558661,1936.0307542438,2660228.0461551,25.234463446345,0,0
-113.24412273059,-25.391897267415,20.038893889389,2471944.558661,1936.0307542438,2660228.0461551,25.238893889389,0,0
-113.24412220477,-25.407071573576,20.043324332433,2471944.558661,1936.0307542438,2660228.0461551,25.243324332433,0,0
-113.24412167896,-25.422245879738,20.047754775478,2471944.558661,1936.0307542438,2660228.0461551,25.247754775478,0,0
-113.24412115315,-25.4374201859,20.052185218522,2471944.558661,1936.0307542438,2660228.0461551,25.252185218522,0,0
-113.24412062733,-25.452594492061,20.056615661566,2471944.558661,1936.0307542438,2660228.0461551,25.256615661566,0,0
-113.24412010152,-25.467768798223,20.06104610461,2471944.558661,1936.0307542438,2660228.0461551,25.26104610461,0,0
-113.24411957571,-25.482943104385,20.065476547655,2471944.558661,1936.0307542438,2660228.0461551,25.265476547655,0,0
-113.24411904989,-25.498117410546,20.069906990699,2471944.558661,1936.0307542438,2660228.0461551,25.269906990699,0,0
-113.24411852408,-25.513291716708,20.074337433743,2471944.558661,1936.0307542438,2660228.0461551,25.274337433743,0,0
-113.24411799827,-25.52846602287,20.078767876788,2471944.558661,1936.0307542438,2660228.0461551,25.278767876788,0,0
-113.24411747245,-25.543640329031,20.083198319832,2471944.558661,1936.0307542438,2660228.0461551,25.283198319832,0,0
-113.24411694664,-25.558814635193,20.087628762876,2471944.558661,1936.0307542438,2660228.0461551,25.287628762876,0,0
-113.24411642083,-25.573988941355,20.092059205921,2471944.558661,1936.0307542438,2660228.0461551,25.292059205921,0,0
-113.24411589501,-25.589163247517,20.096489648965,2471944.558661,1936.0307542438,2660228.0461551,25.296489648965,0,0
-113.2441153692,-25.604337553678,20.100920092009,2471944.558661,1936.0307542438,2660228.0461551,25.300920092009,0,0
-113.24411484338,-25.61951185984,20.105350535054,2471944.558661,1936.0307542438,2660228.0461551,25.305350535054,0,0
-113.24411431757,-25.634686166002,20.109780978098,2471944.558661,1936.0307542438,2660228.0461551,25.309780978098,0,0
-113.24411379176,-25.649860472163,20.114211421142,2471944.558661,1936.0307542438,2660228.0461551,25.314211421142,0,0
-113.24411326594,-25.665034778325,20.118641864186,2471944.558661,1936.0307542438,2660228.0461551,25.318641864186,0,0
-113.24411274013,-25.680209084487,20.123072307231,2471944.558661,1936.0307542438,2660228.0461551,25.323072307231,0,0
-113.24411221432,-25.695383390648,20.127502750275,2471944.558661,1936.0307542438,2660228.0461551,25.327502750275,0,0
-113.2441116885,-25.71055769681,20.131933193319,2471944.558661,1936.0307542438,2660228.0461551,25.331933193319,0,0
-113.24411116269,-25.725732002972,20.136363636364,2471944.558661,1936.0307542438,2660228.0461551,25.336363636364,0,0
-113.24411063688,-25.740906309133,20.140794079408,2471944.558661,1936.0307542438,2660228.0461551,25.340794079408,0,0
-113.24411011106,-25.756080615295,20.145224522452,2471944.558661,1936.0307542438,2660228.0461551,25.345224522452,0,0
-113.24410958525,-25.771254921457,20.149654965497,2471944.558661,1936.0307542438,2660228.0461551,25.349654965497,0,0
-113.24410905944,-25.786429227619,20.154085408541,2471944.558661,1936.0307542438,2660228.0461551,25.354085408541,0,0
-113.24410853362,-25.80160353378,20.158515851585,2471944.558661,1936.0307542438,2660228.0461551,25.358515851585,0,0
-113.24410800781,-25.816777839942,20.162946294629,2471944.558661,1936.0307542438,2660228.0461551,25.362946294629,0,0
-113.244107482,-25.831952146104,20.167376737674,2471944.558661,1936.0307542438,2660228.0461551,25.367376737674,0,0
-113.24410695618,-25.847126452265,20.171807180718,2471944.558661,1936.0307542438,2660228.0461551,25.371807180718,0,0
-113.24410643037,-25.862300758427,20.176237623762,2471944.558661,1936.0307542438,2660228.0461551,25.376237623762,0,0
-113.24410590455,-25.877475064589,20.180668066807,2471944.558661,1936.0307542438,2660228.0461551,25.380668066807,0,0
-113.24410537874,-25.89264937075,20.185098509851,2471944.558661,1936.0307542438,2660228.0461551,25.385098509851,0,0
-113.24410485293,-25.907823676912,20.189528952895,2471944.558661,1936.0307542438,2660228.0461551,25.389528952895,0,0
-113.24410432711,-25.922997983074,20.19395939594,2471944.558661,1936.0307542438,2660228.0461551,25.39395939594,0,0
-113.2441038013,-25.938172289235,20.198389838984,2471944.558661,1936.0307542438,2660228.0461551,25.398389838984,0,0
-113.24410327549,-25.953346595397,20.202820282028,2471944.558661,1936.0307542438,2660228.0461551,25.402820282028,0,0
-113.24410274967,-25.968520901559,20.207250725073,2471944.558661,1936.0307542438,2660228.0461551,25.407250725073,0,0
-113.24410222386,-25.98369520772,20.211681168117,2471944.558661,1936.0307542438,2660228.0461551,25.411681168117,0,0
-113.24410169805,-25.998869513882,20.216111611161,2471944.558661,1936.0307542438,2660228.0461551,25.416111611161,0,0
-113.24410117223,-26.014043820044,20.220542054205,2471944.558661,1936.0307542438,2660228.0461551,25.420542054205,0,0
-113.24410064642,-26.029218126206,20.22497249725,2471944.558661,1936.0307542438,2660228.0461551,25.42497249725,0,0
-113.24410012061,-26.044392432367,20.229402940294,2471944.558661,1936.0307542438,2660228.0461551,25.429402940294,0,0
-113.24409959479,-26.059566738529,20.233833383338,2471944.558661,1936.0307542438,2660228.0461551,25.433833383338,0,0
-113.24409906898,-26.074741044691,20.238263826383,2471944.558661,1936.0307542438,2660228.0461551,25.438263826383,0,0
-113.24409854316,-26.089915350852,20.242694269427,2471944.558661,1936.0307542438,2660228.0461551,25.442694269427,0,0
-113.24409801735,-26.105089657014,20.247124712471,2471944.558661,1936.0307542438,2660228.0461551,25.447124712471,0,0
-113.24409749154,-26.120263963176,20.251555155516,2471944.558661,1936.0307542438,2660228.0461551,25.451555155516,0,0
-113.24409696572,-26.135438269337,20.25598559856,2471944.558661,1936.0307542438,2660228.0461551,25.45598559856,0,0
-113.24409643991,-26.150612575499,20.260416041604,2471944.558661,1936.0307542438,2660228.0461551,25.460416041604,0,0
-113.2440959141,-26.165786881661,20.264846484648,2471944.558661,1936.0307542438,2660228.0461551,25.464846484648,0,0
-113.24409538828,-26.180961187822,20.269276927693,2471944.558661,1936.0307542438,2660228.0461551,25.469276927693,0,0
-113.24409486247,-26.196135493984,20.273707370737,2471944.558661,1936.0307542438,2660228.0461551,25.473707370737,0,0
-113.24409433666,-26.211309800146,20.278137813781,2471944.558661,1936.0307542438,2660228.0461551,25.478137813781,0,0
-113.24409381084,-26.226484106308,20.282568256826,2471944.558661,1936.0307542438,2660228.0461551,25.482568256826,0,0
-113.24409328503,-26.241658412469,20.28699869987,2471944.558661,1936.0307542438,2660228.0461551,25.48699869987,0,0
-113.24409275922,-26.256832718631,20.291429142914,2471944.558661,1936.0307542438,2660228.0461551,25.491429142914,0,0
-113.2440922334,-26.272007024793,20.295859585959,2471944.558661,1936.0307542438,2660228.0461551,25.495859585959,0,0
-113.24409170759,-26.287181330954,20.300290029003,2471944.558661,1936.0307542438,2660228.0461551,25.500290029003,0,0
-113.24409118178,-26.302355637116,20.304720472047,2471944.558661,1936.0307542438,2660228.0461551,25.504720472047,0,0
-113.24409065596,-26.317529943278,20.309150915092,2471944.558661,1936.0307542438,2660228.0461551,25.509150915092,0,0
-113.24409013015,-26.332704249439,20.313581358136,2471944.558661,1936.0307542438,2660228.0461551,25.513581358136,0,0
-113.24408960433,-26.347878555601,20.31801180118,2471944.558661,1936.0307542438,2660228.0461551,25.51801180118,0,0
-113.24408907852,-26.363052861763,20.322442244224,2471944.558661,1936.0307542438,2660228.0461551,25.522442244224,0,0
-113.24408855271,-26.378227167924,20.326872687269,2471944.558661,1936.0307542438,2660228.0461551,25.526872687269,0,0
-113.24408802689,-26.393401474086,20.331303130313,2471944.558661,1936.0307542438,2660228.0461551,25.531303130313,0,0
-113.24408750108,-26.408575780248,20.335733573357,2471944.558661,1936.0307542438,2660228.0461551,25.535733573357,0,0
-113.24408697527,-26.42375008641,20.340164016402,2471944.558661,1936.0307542438,2660228.0461551,25.540164016402,0,0
-113.24408644945,-26.438924392571,20.344594459446,2471944.558661,1936.0307542438,2660228.0461551,25.544594459446,0,0
-113.24408592364,-26.454098698733,20.34902490249,2471944.558661,1936.0307542438,2660228.0461551,25.54902490249,0,0
-113.24408539783,-26.469273004895,20.353455345535,2471944.558661,1936.0307542438,2660228.0461551,25.553455345535,0,0
-113.24408487201,-26.484447311056,20.357885788579,2471944.558661,1936.0307542438,2660228.0461551,25.557885788579,0,0
-113.2440843462,-26.499621617218,20.362316231623,2471944.558661,1936.0307542438,2660228.0461551,25.562316231623,0,0
-113.24408382039,-26.51479592338,20.366746674667,2471944.558661,1936.0307542438,2660228.0461551,25.566746674667,0,0
-113.24408329457,-26.529970229541,20.371177117712,2471944.558661,1936.0307542438,2660228.0461551,25.571177117712,0,0
-113.24408276876,-26.545144535703,20.375607560756,2471944.558661,1936.0307542438,2660228.0461551,25.575607560756,0,0
-113.24408224295,-26.560318841865,20.3800380038,2471944.558661,1936.0307542438,2660228.0461551,25.5800380038,0,0
-113.24408171713,-26.575493148026,20.384468446845,2471944.558661,1936.0307542438,2660228.0461551,25.584468446845,0,0
-113.24408119132,-26.590667454188,20.388898889889,2471944.558661,1936.0307542438,2660228.0461551,25.588898889889,0,0
-113.2440806655,-26.60584176035,20.393329332933,2471944.558661,1936.0307542438,2660228.0461551,25.593329332933,0,0
-113.24408013969,-26.621016066512,20.397759775978,2471944.558661,1936.0307542438,2660228.0461551,25.597759775978,0,0
-113.24407961388,-26.636190372673,20.402190219022,2471944.558661,1936.0307542438,2660228.0461551,25.602190219022,0,0
-113.24407908806,-26.651364678835,20.406620662066,2471944.558661,1936.0307542438,2660228.0461551,25.606620662066,0,0
-113.24407856225,-26.666538984997,20.411051105111,2471944.558661,1936.0307542438,2660228.0461551,25.611051105111,0,0
-113.24407803644,-26.681713291158,20.415481548155,2471944.558661,1936.0307542438,2660228.0461551,25.615481548155,0,0
-113.24407751062,-26.69688759732,20.419911991199,2471944.558661,1936.0307542438,2660228.0461551,25.619911991199,0,0
-113.24407698481,-26.712061903482,20.424342434243,2471944.558661,1936.0307542438,2660228.0461551,25.624342434243,0,0
-113.244076459,-26.727236209643,20.428772877288,2471944.558661,1936.0307542438,2660228.0461551,25.628772877288,0,0
-113.24407593318,-26.742410515805,20.433203320332,2471944.558661,1936.0307542438,2660228.0461551,25.633203320332,0,0
-113.24407540737,-26.757584821967,20.437633763376,2471944.558661,1936.0307542438,2660228.0461551,25.637633763376,0,0
-113.24407488156,-26.772759128128,20.442064206421,2471944.558661,1936.0307542438,2660228.0461551,25.642064206421,0,0
-113.24407435574,-26.78793343429,20.446494649465,2471944.558661,1936.0307542438,2660228.0461551,25.646494649465,0,0
-113.24407382993,-26.803107740452,20.450925092509,2471944.558661,1936.0307542438,2660228.0461551,25.650925092509,0,0
-113.24407330412,-26.818282046614,20.455355535554,2471944.558661,1936.0307542438,2660228.0461551,25.655355535554,0,0
-113.2440727783,-26.833456352775,20.459785978598,2471944.558661,1936.0307542438,2660228.0461551,25.659785978598,0,0
-113.24407225249,-26.848630658937,20.464216421642,2471944.558661,1936.0307542438,2660228.0461551,25.664216421642,0,0
-113.24407172667,-26.863804965099,20.468646864686,2471944.558661,1936.0307542438,2660228.0461551,25.668646864686,0,0
-113.24407120086,-26.87897927126,20.473077307731,2471944.558661,1936.0307542438,2660228.0461551,25.673077307731,0,0
-113.24407067505,-26.894153577422,20.477507750775,2471944.558661,1936.0307542438,2660228.0461551,25.677507750775,0,0
-113.24407014923,-26.909327883584,20.481938193819,2471944.558661,1936.0307542438,2660228.0461551,25.681938193819,0,0
-113.24406962342,-26.924502189745,20.486368636864,2471944.558661,1936.0307542438,2660228.0461551,25.686368636864,0,0
-113.24406909761,-26.939676495907,20.490799079908,2471944.558661,1936.0307542438,2660228.0461551,25.690799079908,0,0
-113.24406857179,-26.954850802069,20.495229522952,2471944.558661,1936.0307542438,2660228.0461551,25.695229522952,0,0
-113.24406804598,-26.97002510823,20.499659965997,2471944.558661,1936.0307542438,2660228.0461551,25.699659965997,0,0
-113.24406752017,-26.985199414392,20.504090409041,2471944.558661,1936.0307542438,2660228.0461551,25.704090409041,0,0
-113.24406699435,-27.000373720554,20.508520852085,2471944.558661,1936.0307542438,2660228.0461551,25.708520852085,0,0
-113.24406646854,-27.015548026716,20.51295129513,2471944.558661,1936.0307542438,2660228.0461551,25.71295129513,0,0
-113.24406594273,-27.030722332877,20.517381738174,2471944.558661,1936.0307542438,2660228.0461551,25.717381738174,0,0
-113.24406541691,-27.045896639039,20.521812181218,2471944.558661,1936.0307542438,2660228.0461551,25.721812181218,0,0
-113.2440648911,-27.061070945201,20.526242624262,2471944.558661,1936.0307542438,2660228.0461551,25.726242624262,0,0
-113.24406436528,-27.076245251362,20.530673067307,2471944.558661,1936.0307542438,2660228.0461551,25.730673067307,0,0
-113.24406383947,-27.091419557524,20.535103510351,2471944.558661,1936.0307542438,2660228.0461551,25.735103510351,0,0
-113.24406331366,-27.106593863686,20.539533953395,2471944.558661,1936.0307542438,2660228.0461551,25.739533953395,0,0
-113.24406278784,-27.121768169847,20.54396439644,2471944.558661,1936.0307542438,2660228.0461551,25.74396439644,0,0
-113.24406226203,-27.136942476009,20.548394839484,2471944.558661,1936.0307542438,2660228.0461551,25.748394839484,0,0
-113.24406173622,-27.152116782171,20.552825282528,2471944.558661,1936.0307542438,2660228.0461551,25.752825282528,0,0
-113.2440612104,-27.167291088332,20.557255725573,2471944.558661,1936.0307542438,2660228.0461551,25.757255725573,0,0
-113.24406068459,-27.182465394494,20.561686168617,2471944.558661,1936.0307542438,2660228.0461551,25.761686168617,0,0
-113.24406015878,-27.197639700656,20.566116611661,2471944.558661,1936.0307542438,2660228.0461551,25.766116611661,0,0
-113.24405963296,-27.212814006818,20.570547054705,2471944.558661,1936.0307542438,2660228.0461551,25.770547054705,0,0
-113.24405910715,-27.227988312979,20.57497749775,2471944.558661,1936.0307542438,2660228.0461551,25.77497749775,0,0
-113.24405858134,-27.243162619141,20.579407940794,2471944.558661,1936.0307542438,2660228.0461551,25.779407940794,0,0
-113.24405805552,-27.258336925303,20.583838383838,2471944.558661,1936.0307542438,2660228.0461551,25.783838383838,0,0
-113.24405752971,-27.273511231464,20.588268826883,2471944.558661,1936.0307542438,2660228.0461551,25.788268826883,0,0
-113.2440570039,-27.288685537626,20.592699269927,2471944.558661,1936.0307542438,2660228.0461551,25.792699269927,0,0
-113.24405647808,-27.303859843788,20.597129712971,2471944.558661,1936.0307542438,2660228.0461551,25.797129712971,0,0
-113.24405595227,-27.319034149949,20.601560156016,2471944.558661,1936.0307542438,2660228.0461551,25.801560156016,0,0
-113.24405542645,-27.334208456111,20.60599059906,2471944.558661,1936.0307542438,2660228.0461551,25.80599059906,0,0
-113.24405490064,-27.349382762273,20.610421042104,2471944.558661,1936.0307542438,2660228.0461551,25.810421042104,0,0
-113.24405437483,-27.364557068434,20.614851485149,2471944.558661,1936.0307542438,2660228.0461551,25.814851485149,0,0
-113.24405384901,-27.379731374596,20.619281928193,2471944.558661,1936.0307542438,2660228.0461551,25.819281928193,0,0
-113.2440533232,-27.394905680758,20.623712371237,2471944.558661,1936.0307542438,2660228.0461551,25.823712371237,0,0
-113.24405279739,-27.41007998692,20.628142814281,2471944.558661,1936.0307542438,2660228.0461551,25.828142814281,0,0
-113.24405227157,-27.425254293081,20.632573257326,2471944.558661,1936.0307542438,2660228.0461551,25.832573257326,0,0
-113.24405174576,-27.440428599243,20.63700370037,2471944.558661,1936.0307542438,2660228.0461551,25.83700370037,0,0
-113.24405121995,-27.455602905405,20.641434143414,2471944.558661,1936.0307542438,2660228.0461551,25.841434143414,0,0
-113.24405069413,-27.470777211566,20.645864586459,2471944.558661,1936.0307542438,2660228.0461551,25.845864586459,0,0
-113.24405016832,-27.485951517728,20.650295029503,2471944.558661,1936.0307542438,2660228.0461551,25.850295029503,0,0
-113.24404964251,-27.50112582389,20.654725472547,2471944.558661,1936.0307542438,2660228.0461551,25.854725472547,0,0
-113.24404911669,-27.516300130051,20.659155915592,2471944.558661,1936.0307542438,2660228.0461551,25.859155915592,0,0
-113.24404859088,-27.531474436213,20.663586358636,2471944.558661,1936.0307542438,2660228.0461551,25.863586358636,0,0
-113.24404806507,-27.546648742375,20.66801680168,2471944.558661,1936.0307542438,2660228.0461551,25.86801680168,0,0
-113.24404753925,-27.561823048536,20.672447244724,2471944.558661,1936.0307542438,2660228.0461551,25.872447244724,0,0
-113.24404701344,-27.576997354698,20.676877687769,2471944.558661,1936.0307542438,2660228.0461551,25.876877687769,0,0
-113.24404648762,-27.59217166086,20.681308130813,2471944.558661,1936.0307542438,2660228.0461551,25.881308130813,0,0
-113.24404596181,-27.607345967022,20.685738573857,2471944.558661,1936.0307542438,2660228.0461551,25.885738573857,0,0
-113.244045436,-27.622520273183,20.690169016902,2471944.558661,1936.0307542438,2660228.0461551,25.890169016902,0,0
-113.24404491018,-27.637694579345,20.694599459946,2471944.558661,1936.0307542438,2660228.0461551,25.894599459946,0,0
-113.24404438437,-27.652868885507,20.69902990299,2471944.558661,1936.0307542438,2660228.0461551,25.89902990299,0,0
-113.24404385856,-27.668043191668,20.703460346035,2471944.558661,1936.0307542438,2660228.0461551,25.903460346035,0,0
-113.24404333274,-27.68321749783,20.707890789079,2471944.558661,1936.0307542438,2660228.0461551,25.907890789079,0,0
-113.24404280693,-27.698391803992,20.712321232123,2471944.558661,1936.0307542438,2660228.0461551,25.912321232123,0,0
-113.24404228112,-27.713566110153,20.716751675168,2471944.558661,1936.0307542438,2660228.0461551,25.916751675168,0,0
-113.2440417553,-27.728740416315,20.721182118212,2471944.558661,1936.0307542438,2660228.0461551,25.921182118212,0,0
-113.24404122949,-27.743914722477,20.725612561256,2471944.558661,1936.0307542438,2660228.0461551,25.925612561256,0,0
-113.24404070368,-27.759089028638,20.7300430043,2471944.558661,1936.0307542438,2660228.0461551,25.9300430043,0,0
-113.24404017786,-27.7742633348,20.734473447345,2471944.558661,1936.0307542438,2660228.0461551,25.934473447345,0,0
-113.24403965205,-27.789437640962,20.738903890389,2471944.558661,1936.0307542438,2660228.0461551,25.938903890389,0,0
-113.24403912624,-27.804611947124,20.743334333433,2471944.558661,1936.0307542438,2660228.0461551,25.943334333433,0,0
-113.24403860042,-27.819786253285,20.747764776478,2471944.558661,1936.0307542438,2660228.0461551,25.947764776478,0,0
-113.24403807461,-27.834960559447,20.752195219522,2471944.558661,1936.0307542438,2660228.0461551,25.952195219522,0,0
-113.24403754879,-27.850134865609,20.756625662566,2471944.558661,1936.0307542438,2660228.0461551,25.956625662566,0,0
-113.24403702298,-27.86530917177,20.761056105611,2471944.558661,1936.0307542438,2660228.0461551,25.961056105611,0,0
-113.24403649717,-27.880483477932,20.765486548655,2471944.558661,1936.0307542438,2660228.0461551,25.965486548655,0,0
-113.24403597135,-27.895657784094,20.769916991699,2471944.558661,1936.0307542438,2660228.0461551,25.969916991699,0,0
-113.24403544554,-27.910832090255,20.774347434743,2471944.558661,1936.0307542438,2660228.0461551,25.974347434743,0,0
-113.24403491973,-27.926006396417,20.778777877788,2471944.558661,1936.0307542438,2660228.0461551,25.978777877788,0,0
-113.24403439391,-27.941180702579,20.783208320832,2471944.558661,1936.0307542438,2660228.0461551,25.983208320832,0,0
-113.2440338681,-27.95635500874,20.787638763876,2471944.558661,1936.0307542438,2660228.0461551,25.987638763876,0,0
-113.24403334229,-27.971529314902,20.792069206921,2471944.558661,1936.0307542438,2660228.0461551,25.992069206921,0,0
-113.24403281647,-27.986703621064,20.796499649965,2471944.558661,1936.0307542438,2660228.0461551,25.996499649965,0,0
-113.24403229066,-28.001877927226,20.800930093009,2471944.558661,1936.0307542438,2660228.0461551,26.000930093009,0,0
-113.24403176485,-28.017052233387,20.805360536054,2471944.558661,1936.0307542438,2660228.0461551,26.005360536054,0,0
-113.24403123903,-28.032226539549,20.809790979098,2471944.558661,1936.0307542438,2660228.0461551,26.009790979098,0,0
-113.24403071322,-28.047400845711,20.814221422142,2471944.558661,1936.0307542438,2660228.0461551,26.014221422142,0,0
-113.2440301874,-28.062575151872,20.818651865187,2471944.558661,1936.0307542438,2660228.0461551,26.018651865187,0,0
-113.24402966159,-28.077749458034,20.823082308231,2471944.558661,1936.0307542438,2660228.0461551,26.023082308231,0,0
-113.24402913578,-28.092923764196,20.827512751275,2471944.558661,1936.0307542438,2660228.0461551,26.027512751275,0,0
-113.24402860996,-28.108098070357,20.831943194319,2471944.558661,1936.0307542438,2660228.0461551,26.031943194319,0,0
-113.24402808415,-28.123272376519,20.836373637364,2471944.558661,1936.0307542438,2660228.0461551,26.036373637364,0,0
-113.24402755834,-28.138446682681,20.840804080408,2471944.558661,1936.0307542438,2660228.0461551,26.040804080408,0,0
-113.24402703252,-28.153620988842,20.845234523452,2471944.558661,1936.0307542438,2660228.0461551,26.045234523452,0,0
-113.24402650671,-28.168795295004,20.849664966497,2471944.558661,1936.0307542438,2660228.0461551,26.049664966497,0,0
-113.2440259809,-28.183969601166,20.854095409541,2471944.558661,1936.0307542438,2660228.0461551,26.054095409541,0,0
-113.24402545508,-28.199143907328,20.858525852585,2471944.558661,1936.0307542438,2660228.0461551,26.058525852585,0,0
-113.24402492927,-28.214318213489,20.86295629563,2471944.558661,1936.0307542438,2660228.0461551,26.06295629563,0,0
-113.24402440346,-28.229492519651,20.867386738674,2471944.558661,1936.0307542438,2660228.0461551,26.067386738674,0,0
-113.24402387764,-28.244666825813,20.871817181718,2471944.558661,1936.0307542438,2660228.0461551,26.071817181718,0,0
-113.24402335183,-28.259841131974,20.876247624762,2471944.558661,1936.0307542438,2660228.0461551,26.076247624762,0,0
-113.24402282602,-28.275015438136,20.880678067807,2471944.558661,1936.0307542438,2660228.0461551,26.080678067807,0,0
-113.2440223002,-28.290189744298,20.885108510851,2471944.558661,1936.0307542438,2660228.0461551,26.085108510851,0,0
-113.24402177439,-28.305364050459,20.889538953895,2471944.558661,1936.0307542438,2660228.0461551,26.089538953895,0,0
-113.24402124857,-28.320538356621,20.89396939694,2471944.558661,1936.0307542438,2660228.0461551,26.09396939694,0,0
-113.24402072276,-28.335712662783,20.898399839984,2471944.558661,1936.0307542438,2660228.0461551,26.098399839984,0,0
-113.24402019695,-28.350886968944,20.902830283028,2471944.558661,1936.0307542438,2660228.0461551,26.102830283028,0,0
-113.24401967113,-28.366061275106,20.907260726073,2471944.558661,1936.0307542438,2660228.0461551,26.107260726073,0,0
-113.24401914532,-28.381235581268,20.911691169117,2471944.558661,1936.0307542438,2660228.0461551,26.111691169117,0,0
-113.24401861951,-28.39640988743,20.916121612161,2471944.558661,1936.0307542438,2660228.0461551,26.116121612161,0,0
-113.24401809369,-28.411584193591,20.920552055206,2471944.558661,1936.0307542438,2660228.0461551,26.120552055206,0,0
-113.24401756788,-28.426758499753,20.92498249825,2471944.558661,1936.0307542438,2660228.0461551,26.12498249825,0,0
-113.24401704207,-28.441932805915,20.929412941294,2471944.558661,1936.0307542438,2660228.0461551,26.129412941294,0,0
-113.24401651625,-28.457107112076,20.933843384338,2471944.558661,1936.0307542438,2660228.0461551,26.133843384338,0,0
-113.24401599044,-28.472281418238,20.938273827383,2471944.558661,1936.0307542438,2660228.0461551,26.138273827383,0,0
-113.24401546463,-28.4874557244,20.942704270427,2471944.558661,1936.0307542438,2660228.0461551,26.142704270427,0,0
-113.24401493881,-28.502630030561,20.947134713471,2471944.558661,1936.0307542438,2660228.0461551,26.147134713471,0,0
-113.244014413,-28.517804336723,20.951565156516,2471944.558661,1936.0307542438,2660228.0461551,26.151565156516,0,0
-113.24401388719,-28.532978642885,20.95599559956,2471944.558661,1936.0307542438,2660228.0461551,26.15599559956,0,0
-113.24401336137,-28.548152949046,20.960426042604,2471944.558661,1936.0307542438,2660228.0461551,26.160426042604,0,0
-113.24401283556,-28.563327255208,20.964856485649,2471944.558661,1936.0307542438,2660228.0461551,26.164856485649,0,0
-113.24401230974,-28.57850156137,20.969286928693,2471944.558661,1936.0307542438,2660228.0461551,26.169286928693,0,0
-113.24401178393,-28.593675867532,20.973717371737,2471944.558661,1936.0307542438,2660228.0461551,26.173717371737,0,0
-113.24401125812,-28.608850173693,20.978147814781,2471944.558661,1936.0307542438,2660228.0461551,26.178147814781,0,0
-113.24401073229,-28.62402447983,20.982578257826,2479615.074277,5878.4580344447,2657728.2749985,26.182578257826,0,0
-113.24401020513,-28.639198783839,20.98700870087,2479615.074277,5878.4580344447,2657728.2749985,26.18700870087,0,0
-113.24400967797,-28.654373087848,20.991439143914,2479615.074277,5878.4580344447,2657728.2749985,26.191439143914,0,0
-113.24400915081,-28.669547391857,20.995869586959,2479615.074277,5878.4580344447,2657728.2749985,26.195869586959,0,0
-113.24400862365,-28.684721695866,21.000300030003,2479615.074277,5878.4580344447,2657728.2749985,26.200300030003,0,0
-113.2440080965,-28.699895999874,21.004730473047,2479615.074277,5878.4580344447,2657728.2749985,26.204730473047,0,0
-113.24400756934,-28.715070303883,21.009160916092,2479615.074277,5878.4580344447,2657728.2749985,26.209160916092,0,0
-113.24400704218,-28.730244607892,21.013591359136,2479615.074277,5878.4580344447,2657728.2749985,26.213591359136,0,0
-113.24400651502,-28.745418911901,21.01802180218,2479615.074277,5878.4580344447,2657728.2749985,26.21802180218,0,0
-113.24400598786,-28.760593215909,21.022452245225,2479615.074277,5878.4580344447,2657728.2749985,26.222452245225,0,0
-113.2440054607,-28.775767519918,21.026882688269,2479615.074277,5878.4580344447,2657728.2749985,26.226882688269,0,0
-113.24400493354,-28.790941823927,21.031313131313,2479615.074277,5878.4580344447,2657728.2749985,26.231313131313,0,0
-113.24400440639,-28.806116127936,21.035743574357,2479615.074277,5878.4580344447,2657728.2749985,26.235743574357,0,0
-113.24400387923,-28.821290431945,21.040174017402,2479615.074277,5878.4580344447,2657728.2749985,26.240174017402,0,0
-113.24400335207,-28.836464735953,21.044604460446,2479615.074277,5878.4580344447,2657728.2749985,26.244604460446,0,0
-113.24400282491,-28.851639039962,21.04903490349,2479615.074277,5878.4580344447,2657728.2749985,26.24903490349,0,0
-113.24400229775,-28.866813343971,21.053465346535,2479615.074277,5878.4580344447,2657728.2749985,26.253465346535,0,0
-113.24400177059,-28.88198764798,21.057895789579,2479615.074277,5878.4580344447,2657728.2749985,26.257895789579,0,0
-113.24400124343,-28.897161951988,21.062326232623,2479615.074277,5878.4580344447,2657728.2749985,26.262326232623,0,0
-113.24400071627,-28.912336255997,21.066756675668,2479615.074277,5878.4580344447,2657728.2749985,26.266756675668,0,0
-113.24400018912,-28.927510560006,21.071187118712,2479615.074277,5878.4580344447,2657728.2749985,26.271187118712,0,0
-113.24399966196,-28.942684864015,21.075617561756,2479615.074277,5878.4580344447,2657728.2749985,26.275617561756,0,0
-113.2439991348,-28.957859168023,21.0800480048,2479615.074277,5878.4580344447,2657728.2749985,26.2800480048,0,0
-113.24399860764,-28.973033472032,21.084478447845,2479615.074277,5878.4580344447,2657728.2749985,26.284478447845,0,0
-113.24399808048,-28.988207776041,21.088908890889,2479615.074277,5878.4580344447,2657728.2749985,26.288908890889,0,0
-113.24399755332,-29.00338208005,21.093339333933,2479615.074277,5878.4580344447,2657728.2749985,26.293339333933,0,0
-113.24399702616,-29.018556384059,21.097769776978,2479615.074277,5878.4580344447,2657728.2749985,26.297769776978,0,0
-113.24399649901,-29.033730688067,21.102200220022,2479615.074277,5878.4580344447,2657728.2749985,26.302200220022,0,0
-113.24399597185,-29.048904992076,21.106630663066,2479615.074277,5878.4580344447,2657728.2749985,26.306630663066,0,0
-113.24399544469,-29.064079296085,21.111061106111,2479615.074277,5878.4580344447,2657728.2749985,26.311061106111,0,0
-113.24399491753,-29.079253600094,21.115491549155,2479615.074277,5878.4580344447,2657728.2749985,26.315491549155,0,0
-113.24399439037,-29.094427904102,21.119921992199,2479615.074277,5878.4580344447,2657728.2749985,26.319921992199,0,0
-113.24399386321,-29.109602208111,21.124352435244,2479615.074277,5878.4580344447,2657728.2749985,26.324352435244,0,0
-113.24399333605,-29.12477651212,21.128782878288,2479615.074277,5878.4580344447,2657728.2749985,26.328782878288,0,0
-113.2439928089,-29.139950816129,21.133213321332,2479615.074277,5878.4580344447,2657728.2749985,26.333213321332,0,0
-113.24399228174,-29.155125120138,21.137643764376,2479615.074277,5878.4580344447,2657728.2749985,26.337643764376,0,0
-113.24399175458,-29.170299424146,21.142074207421,2479615.074277,5878.4580344447,2657728.2749985,26.342074207421,0,0
-113.24399122742,-29.185473728155,21.146504650465,2479615.074277,5878.4580344447,2657728.2749985,26.346504650465,0,0
-113.24399070026,-29.200648032164,21.150935093509,2479615.074277,5878.4580344447,2657728.2749985,26.350935093509,0,0
-113.2439901731,-29.215822336173,21.155365536554,2479615.074277,5878.4580344447,2657728.2749985,26.355365536554,0,0
-113.24398964594,-29.230996640181,21.159795979598,2479615.074277,5878.4580344447,2657728.2749985,26.359795979598,0,0
-113.24398911879,-29.24617094419,21.164226422642,2479615.074277,5878.4580344447,2657728.2749985,26.364226422642,0,0
-113.24398859104,-29.261345249693,21.168656865687,2482508.6194678,2053.1685596098,2650563.4787384,26.368656865687,0,0
-113.24398806305,-29.276519555814,21.173087308731,2482508.6194678,2053.1685596098,2650563.4787384,26.373087308731,0,0
-113.24398753506,-29.291693861936,21.177517751775,2482508.6194678,2053.1685596098,2650563.4787384,26.377517751775,0,0
-113.24398700708,-29.306868168057,21.181948194819,2482508.6194678,2053.1685596098,2650563.4787384,26.381948194819,0,0
-113.24398647909,-29.322042474179,21.186378637864,2482508.6194678,2053.1685596098,2650563.4787384,26.386378637864,0,0
-113.2439859511,-29.3372167803,21.190809080908,2482508.6194678,2053.1685596098,2650563.4787384,26.390809080908,0,0
-113.24398542311,-29.352391086422,21.195239523952,2482508.6194678,2053.1685596098,2650563.4787384,26.395239523952,0,0
-113.24398489513,-29.367565392543,21.199669966997,2482508.6194678,2053.1685596098,2650563.4787384,26.399669966997,0,0
-113.24398436714,-29.382739698665,21.204100410041,2482508.6194678,2053.1685596098,2650563.4787384,26.404100410041,0,0
-113.24398383915,-29.397914004786,21.208530853085,2482508.6194678,2053.1685596098,2650563.4787384,26.408530853085,0,0
-113.24398331116,-29.413088310908,21.21296129613,2482508.6194678,2053.1685596098,2650563.4787384,26.41296129613,0,0
-113.24398278317,-29.428262617029,21.217391739174,2482508.6194678,2053.1685596098,2650563.4787384,26.417391739174,0,0
-113.24398225519,-29.443436923151,21.221822182218,2482508.6194678,2053.1685596098,2650563.4787384,26.421822182218,0,0
-113.2439817272,-29.458611229272,21.226252625263,2482508.6194678,2053.1685596098,2650563.4787384,26.426252625263,0,0
-113.24398119921,-29.473785535394,21.230683068307,2482508.6194678,2053.1685596098,2650563.4787384,26.430683068307,0,0
-113.24398067122,-29.488959841515,21.235113511351,2482508.6194678,2053.1685596098,2650563.4787384,26.435113511351,0,0
-113.24398014324,-29.504134147637,21.239543954395,2482508.6194678,2053.1685596098,2650563.4787384,26.439543954395,0,0
-113.24397961525,-29.519308453758,21.24397439744,2482508.6194678,2053.1685596098,2650563.4787384,26.44397439744,0,0
-113.24397908726,-29.53448275988,21.248404840484,2482508.6194678,2053.1685596098,2650563.4787384,26.448404840484,0,0
-113.24397855927,-29.549657066001,21.252835283528,2482508.6194678,2053.1685596098,2650563.4787384,26.452835283528,0,0
-113.24397803128,-29.564831372123,21.257265726573,2482508.6194678,2053.1685596098,2650563.4787384,26.457265726573,0,0
-113.2439775033,-29.580005678244,21.261696169617,2482508.6194678,2053.1685596098,2650563.4787384,26.461696169617,0,0
-113.24397697531,-29.595179984366,21.266126612661,2482508.6194678,2053.1685596098,2650563.4787384,26.466126612661,0,0
-113.24397644732,-29.610354290487,21.270557055706,2482508.6194678,2053.1685596098,2650563.4787384,26.470557055706,0,0
-113.24397591933,-29.625528596609,21.27498749875,2482508.6194678,2053.1685596098,2650563.4787384,26.47498749875,0,0
-113.24397539135,-29.64070290273,21.279417941794,2482508.6194678,2053.1685596098,2650563.4787384,26.479417941794,0,0
-113.24397486336,-29.655877208852,21.283848384838,2482508.6194678,2053.1685596098,2650563.4787384,26.483848384838,0,0
-113.24397433537,-29.671051514973,21.288278827883,2482508.6194678,2053.1685596098,2650563.4787384,26.488278827883,0,0
-113.24397380738,-29.686225821095,21.292709270927,2482508.6194678,2053.1685596098,2650563.4787384,26.492709270927,0,0
-113.24397327939,-29.701400127216,21.297139713971,2482508.6194678,2053.1685596098,2650563.4787384,26.497139713971,0,0
-113.24397275141,-29.716574433338,21.301570157016,2482508.6194678,2053.1685596098,2650563.4787384,26.501570157016,0,0
-113.24397222342,-29.731748739459,21.30600060006,2482508.6194678,2053.1685596098,2650563.4787384,26.50600060006,0,0
-113.24397169543,-29.746923045581,21.310431043104,2482508.6194678,2053.1685596098,2650563.4787384,26.510431043104,0,0
-113.24397116744,-29.762097351702,21.314861486149,2482508.6194678,2053.1685596098,2650563.4787384,26.514861486149,0,0
-113.24397063946,-29.777271657824,21.319291929193,2482508.6194678,2053.1685596098,2650563.4787384,26.519291929193,0,0
-113.24397011147,-29.792445963945,21.323722372237,2482508.6194678,2053.1685596098,2650563.4787384,26.523722372237,0,0
-113.24396958348,-29.807620270066,21.328152815282,2482508.6194678,2053.1685596098,2650563.4787384,26.528152815282,0,0
-113.24396905549,-29.822794576188,21.332583258326,2482508.6194678,2053.1685596098,2650563.4787384,26.532583258326,0,0
-113.2439685275,-29.837968882309,21.33701370137,2482508.6194678,2053.1685596098,2650563.4787384,26.53701370137,0,0
-113.24396799952,-29.853143188431,21.341444144414,2482508.6194678,2053.1685596098,2650563.4787384,26.541444144414,0,0
-113.24396747153,-29.868317494552,21.345874587459,2482508.6194678,2053.1685596098,2650563.4787384,26.545874587459,0,0
-113.24396694354,-29.883491800674,21.350305030503,2482508.6194678,2053.1685596098,2650563.4787384,26.550305030503,0,0
-113.24396641555,-29.898666106795,21.354735473547,2482508.6194678,2053.1685596098,2650563.4787384,26.554735473547,0,0
-113.24396588757,-29.913840412917,21.359165916592,2482508.6194678,2053.1685596098,2650563.4787384,26.559165916592,0,0
-113.24396535958,-29.929014719038,21.363596359636,2482508.6194678,2053.1685596098,2650563.4787384,26.563596359636,0,0
-113.24396483159,-29.94418902516,21.36802680268,2482508.6194678,2053.1685596098,2650563.4787384,26.56802680268,0,0
-113.2439643036,-29.959363331281,21.372457245725,2482508.6194678,2053.1685596098,2650563.4787384,26.572457245725,0,0
-113.24396377561,-29.974537637403,21.376887688769,2482508.6194678,2053.1685596098,2650563.4787384,26.576887688769,0,0
-113.24396324763,-29.989711943524,21.381318131813,2482508.6194678,2053.1685596098,2650563.4787384,26.581318131813,0,0
-113.24396271964,-30.004886249646,21.385748574857,2482508.6194678,2053.1685596098,2650563.4787384,26.585748574857,0,0
-113.24396219165,-30.020060555767,21.390179017902,2482508.6194678,2053.1685596098,2650563.4787384,26.590179017902,0,0
-113.24396166366,-30.035234861889,21.394609460946,2482508.6194678,2053.1685596098,2650563.4787384,26.594609460946,0,0
-113.24396113568,-30.05040916801,21.39903990399,2482508.6194678,2053.1685596098,2650563.4787384,26.59903990399,0,0
-113.24396060769,-30.065583474132,21.403470347035,2482508.6194678,2053.1685596098,2650563.4787384,26.603470347035,0,0
-113.2439600797,-30.080757780253,21.407900790079,2482508.6194678,2053.1685596098,2650563.4787384,26.607900790079,0,0
-113.24395955171,-30.095932086375,21.412331233123,2482508.6194678,2053.1685596098,2650563.4787384,26.612331233123,0,0
-113.24395902372,-30.111106392496,21.416761676168,2482508.6194678,2053.1685596098,2650563.4787384,26.616761676168,0,0
-113.24395849574,-30.126280698618,21.421192119212,2482508.6194678,2053.1685596098,2650563.4787384,26.621192119212,0,0
-113.24395796775,-30.141455004739,21.425622562256,2482508.6194678,2053.1685596098,2650563.4787384,26.625622562256,0,0
-113.24395743976,-30.156629310861,21.430053005301,2482508.6194678,2053.1685596098,2650563.4787384,26.630053005301,0,0
-113.24395691177,-30.171803616982,21.434483448345,2482508.6194678,2053.1685596098,2650563.4787384,26.634483448345,0,0
-113.24395638379,-30.186977923104,21.438913891389,2482508.6194678,2053.1685596098,2650563.4787384,26.638913891389,0,0
-113.2439558558,-30.202152229225,21.443344334433,2482508.6194678,2053.1685596098,2650563.4787384,26.643344334433,0,0
-113.24395532781,-30.217326535347,21.447774777478,2482508.6194678,2053.1685596098,2650563.4787384,26.647774777478,0,0
-113.24395479982,-30.232500841468,21.452205220522,2482508.6194678,2053.1685596098,2650563.4787384,26.652205220522,0,0
-113.24395427183,-30.24767514759,21.456635663566,2482508.6194678,2053.1685596098,2650563.4787384,26.656635663566,0,0
-113.24395374385,-30.262849453711,21.461066106611,2482508.6194678,2053.1685596098,2650563.4787384,26.661066106611,0,0
-113.24395321586,-30.278023759833,21.465496549655,2482508.6194678,2053.1685596098,2650563.4787384,26.665496549655,0,0
-113.24395268787,-30.293198065954,21.469926992699,2482508.6194678,2053.1685596098,2650563.4787384,26.669926992699,0,0
-113.24395215988,-30.308372372076,21.474357435744,2482508.6194678,2053.1685596098,2650563.4787384,26.674357435744,0,0
-113.2439516319,-30.323546678197,21.478787878788,2482508.6194678,2053.1685596098,2650563.4787384,26.678787878788,0,0
-113.24395110391,-30.338720984319,21.483218321832,2482508.6194678,2053.1685596098,2650563.4787384,26.683218321832,0,0
-113.24395057592,-30.35389529044,21.487648764876,2482508.6194678,2053.1685596098,2650563.4787384,26.687648764876,0,0
-113.24395004793,-30.369069596562,21.492079207921,2482508.6194678,2053.1685596098,2650563.4787384,26.692079207921,0,0
-113.24394951994,-30.384243902683,21.496509650965,2482508.6194678,2053.1685596098,2650563.4787384,26.696509650965,0,0
-113.24394899196,-30.399418208805,21.500940094009,2482508.6194678,2053.1685596098,2650563.4787384,26.700940094009,0,0
-113.24394846397,-30.414592514926,21.505370537054,2482508.6194678,2053.1685596098,2650563.4787384,26.705370537054,0,0
-113.24394793598,-30.429766821048,21.509800980098,2482508.6194678,2053.1685596098,2650563.4787384,26.709800980098,0,0
-113.24394740799,-30.444941127169,21.514231423142,2482508.6194678,2053.1685596098,2650563.4787384,26.714231423142,0,0
-113.24394688001,-30.460115433291,21.518661866187,2482508.6194678,2053.1685596098,2650563.4787384,26.718661866187,0,0
-113.24394635202,-30.475289739412,21.523092309231,2482508.6194678,2053.1685596098,2650563.4787384,26.723092309231,0,0
-113.24394582403,-30.490464045533,21.527522752275,2482508.6194678,2053.1685596098,2650563.4787384,26.727522752275,0,0
-113.24394529604,-30.505638351655,21.53195319532,2482508.6194678,2053.1685596098,2650563.4787384,26.73195319532,0,0
-113.24394476805,-30.520812657776,21.536383638364,2482508.6194678,2053.1685596098,2650563.4787384,26.736383638364,0,0
-113.24394424007,-30.535986963898,21.540814081408,2482508.6194678,2053.1685596098,2650563.4787384,26.740814081408,0,0
-113.24394371208,-30.551161270019,21.545244524452,2482508.6194678,2053.1685596098,2650563.4787384,26.745244524452,0,0
-113.24394318409,-30.566335576141,21.549674967497,2482508.6194678,2053.1685596098,2650563.4787384,26.749674967497,0,0
-113.2439426561,-30.581509882262,21.554105410541,2482508.6194678,2053.1685596098,2650563.4787384,26.754105410541,0,0
-113.24394212812,-30.596684188384,21.558535853585,2482508.6194678,2053.1685596098,2650563.4787384,26.758535853585,0,0
-113.24394160013,-30.611858494505,21.56296629663,2482508.6194678,2053.1685596098,2650563.4787384,26.76296629663,0,0
-113.24394107214,-30.627032800627,21.567396739674,2482508.6194678,2053.1685596098,2650563.4787384,26.767396739674,0,0
-113.24394054415,-30.642207106748,21.571827182718,2482508.6194678,2053.1685596098,2650563.4787384,26.771827182718,0,0
-113.24394001616,-30.65738141287,21.576257625763,2482508.6194678,2053.1685596098,2650563.4787384,26.776257625763,0,0
-113.24393948818,-30.672555718991,21.580688068807,2482508.6194678,2053.1685596098,2650563.4787384,26.780688068807,0,0
-113.24393896019,-30.687730025113,21.585118511851,2482508.6194678,2053.1685596098,2650563.4787384,26.785118511851,0,0
-113.2439384322,-30.702904331234,21.589548954895,2482508.6194678,2053.1685596098,2650563.4787384,26.789548954895,0,0
-113.24393790421,-30.718078637356,21.59397939794,2482508.6194678,2053.1685596098,2650563.4787384,26.79397939794,0,0
-113.24393737623,-30.733252943477,21.598409840984,2482508.6194678,2053.1685596098,2650563.4787384,26.798409840984,0,0
-113.24393684824,-30.748427249599,21.602840284028,2482508.6194678,2053.1685596098,2650563.4787384,26.802840284028,0,0
-113.24393632025,-30.76360155572,21.607270727073,2482508.6194678,2053.1685596098,2650563.4787384,26.807270727073,0,0
-113.24393579226,-30.778775861842,21.611701170117,2482508.6194678,2053.1685596098,2650563.4787384,26.811701170117,0,0
-113.24393526427,-30.793950167963,21.616131613161,2482508.6194678,2053.1685596098,2650563.4787384,26.816131613161,0,0
-113.24393473629,-30.809124474085,21.620562056206,2482508.6194678,2053.1685596098,2650563.4787384,26.820562056206,0,0
-113.2439342083,-30.824298780206,21.62499249925,2482508.6194678,2053.1685596098,2650563.4787384,26.82499249925,0,0
-113.24393368031,-30.839473086328,21.629422942294,2482508.6194678,2053.1685596098,2650563.4787384,26.829422942294,0,0
-113.24393315232,-30.854647392449,21.633853385339,2482508.6194678,2053.1685596098,2650563.4787384,26.833853385339,0,0
-113.24393262434,-30.869821698571,21.638283828383,2482508.6194678,2053.1685596098,2650563.4787384,26.838283828383,0,0
-113.24393209635,-30.884996004692,21.642714271427,2482508.6194678,2053.1685596098,2650563.4787384,26.842714271427,0,0
-113.24393156836,-30.900170310814,21.647144714471,2482508.6194678,2053.1685596098,2650563.4787384,26.847144714471,0,0
-113.24393104037,-30.915344616935,21.651575157516,2482508.6194678,2053.1685596098,2650563.4787384,26.851575157516,0,0
-113.24393051238,-30.930518923057,21.65600560056,2482508.6194678,2053.1685596098,2650563.4787384,26.85600560056,0,0
-113.2439299844,-30.945693229178,21.660436043604,2482508.6194678,2053.1685596098,2650563.4787384,26.860436043604,0,0
-113.24392945641,-30.9608675353,21.664866486649,2482508.6194678,2053.1685596098,2650563.4787384,26.864866486649,0,0
-113.24392892842,-30.976041841421,21.669296929693,2482508.6194678,2053.1685596098,2650563.4787384,26.869296929693,0,0
-113.24392840043,-30.991216147543,21.673727372737,2482508.6194678,2053.1685596098,2650563.4787384,26.873727372737,0,0
-113.24392787245,-31.006390453664,21.678157815782,2482508.6194678,2053.1685596098,2650563.4787384,26.878157815782,0,0
-113.24392734446,-31.021564759786,21.682588258826,2482508.6194678,2053.1685596098,2650563.4787384,26.882588258826,0,0
-113.24392681647,-31.036739065907,21.68701870187,2482508.6194678,2053.1685596098,2650563.4787384,26.88701870187,0,0
-113.24392628848,-31.051913372029,21.691449144914,2482508.6194678,2053.1685596098,2650563.4787384,26.891449144914,0,0
-113.24392576049,-31.06708767815,21.695879587959,2482508.6194678,2053.1685596098,2650563.4787384,26.895879587959,0,0
-113.24392523251,-31.082261984272,21.700310031003,2482508.6194678,2053.1685596098,2650563.4787384,26.900310031003,0,0
-113.24392470452,-31.097436290393,21.704740474047,2482508.6194678,2053.1685596098,2650563.4787384,26.904740474047,0,0
-113.24392417653,-31.112610596515,21.709170917092,2482508.6194678,2053.1685596098,2650563.4787384,26.909170917092,0,0
-113.24392364854,-31.127784902636,21.713601360136,2482508.6194678,2053.1685596098,2650563.4787384,26.913601360136,0,0
-113.24392312056,-31.142959208758,21.71803180318,2482508.6194678,2053.1685596098,2650563.4787384,26.91803180318,0,0
-113.24392259257,-31.158133514879,21.722462246225,2482508.6194678,2053.1685596098,2650563.4787384,26.922462246225,0,0
-113.24392206458,-31.173307821001,21.726892689269,2482508.6194678,2053.1685596098,2650563.4787384,26.926892689269,0,0
-113.24392153659,-31.188482127122,21.731323132313,2482508.6194678,2053.1685596098,2650563.4787384,26.931323132313,0,0
-113.2439210086,-31.203656433243,21.735753575358,2482508.6194678,2053.1685596098,2650563.4787384,26.935753575358,0,0
-113.24392048062,-31.218830739365,21.740184018402,2482508.6194678,2053.1685596098,2650563.4787384,26.940184018402,0,0
-113.24391995263,-31.234005045486,21.744614461446,2482508.6194678,2053.1685596098,2650563.4787384,26.944614461446,0,0
-113.24391942464,-31.249179351608,21.74904490449,2482508.6194678,2053.1685596098,2650563.4787384,26.94904490449,0,0
-113.24391889665,-31.264353657729,21.753475347535,2482508.6194678,2053.1685596098,2650563.4787384,26.953475347535,0,0
-113.24391836867,-31.279527963851,21.757905790579,2482508.6194678,2053.1685596098,2650563.4787384,26.957905790579,0,0
-113.24391784068,-31.294702269972,21.762336233623,2482508.6194678,2053.1685596098,2650563.4787384,26.962336233623,0,0
-113.24391731269,-31.309876576094,21.766766676668,2482508.6194678,2053.1685596098,2650563.4787384,26.966766676668,0,0
-113.2439167847,-31.325050882215,21.771197119712,2482508.6194678,2053.1685596098,2650563.4787384,26.971197119712,0,0
-113.24391625671,-31.340225188337,21.775627562756,2482508.6194678,2053.1685596098,2650563.4787384,26.975627562756,0,0
-113.24391572873,-31.355399494458,21.780058005801,2482508.6194678,2053.1685596098,2650563.4787384,26.980058005801,0,0
-113.24391520074,-31.37057380058,21.784488448845,2482508.6194678,2053.1685596098,2650563.4787384,26.984488448845,0,0
-113.24391467275,-31.385748106701,21.788918891889,2482508.6194678,2053.1685596098,2650563.4787384,26.988918891889,0,0
-113.24391414476,-31.400922412823,21.793349334933,2482508.6194678,2053.1685596098,2650563.4787384,26.993349334933,0,0
-113.24391361678,-31.416096718944,21.797779777978,2482508.6194678,2053.1685596098,2650563.4787384,26.997779777978,0,0
-113.24391308879,-31.431271025066,21.802210221022,2482508.6194678,2053.1685596098,2650563.4787384,27.002210221022,0,0
-113.2439125608,-31.446445331187,21.806640664066,2482508.6194678,2053.1685596098,2650563.4787384,27.006640664066,0,0
-113.24391203281,-31.461619637309,21.811071107111,2482508.6194678,2053.1685596098,2650563.4787384,27.011071107111,0,0
-113.24391150482,-31.47679394343,21.815501550155,2482508.6194678,2053.1685596098,2650563.4787384,27.015501550155,0,0
-113.24391097684,-31.491968249552,21.819931993199,2482508.6194678,2053.1685596098,2650563.4787384,27.019931993199,0,0
-113.24391044885,-31.507142555673,21.824362436244,2482508.6194678,2053.1685596098,2650563.4787384,27.024362436244,0,0
-113.24390992086,-31.522316861795,21.828792879288,2482508.6194678,2053.1685596098,2650563.4787384,27.028792879288,0,0
-113.24390939287,-31.537491167916,21.833223322332,2482508.6194678,2053.1685596098,2650563.4787384,27.033223322332,0,0
-113.24390886489,-31.552665474038,21.837653765377,2482508.6194678,2053.1685596098,2650563.4787384,27.037653765377,0,0
-113.2439083369,-31.567839780159,21.842084208421,2482508.6194678,2053.1685596098,2650563.4787384,27.042084208421,0,0
-113.24390780891,-31.583014086281,21.846514651465,2482508.6194678,2053.1685596098,2650563.4787384,27.046514651465,0,0
-113.24390728092,-31.598188392402,21.850945094509,2482508.6194678,2053.1685596098,2650563.4787384,27.050945094509,0,0
-113.24390675293,-31.613362698524,21.855375537554,2482508.6194678,2053.1685596098,2650563.4787384,27.055375537554,0,0
-113.24390622495,-31.628537004645,21.859805980598,2482508.6194678,2053.1685596098,2650563.4787384,27.059805980598,0,0
-113.24390569696,-31.643711310767,21.864236423642,2482508.6194678,2053.1685596098,2650563.4787384,27.064236423642,0,0
-113.24390516897,-31.658885616888,21.868666866687,2482508.6194678,2053.1685596098,2650563.4787384,27.068666866687,0,0
-113.24390464098,-31.67405992301,21.873097309731,2482508.6194678,2053.1685596098,2650563.4787384,27.073097309731,0,0
-113.243904113,-31.689234229131,21.877527752775,2482508.6194678,2053.1685596098,2650563.4787384,27.077527752775,0,0
-113.24390358501,-31.704408535253,21.88195819582,2482508.6194678,2053.1685596098,2650563.4787384,27.08195819582,0,0
-113.24390305702,-31.719582841374,21.886388638864,2482508.6194678,2053.1685596098,2650563.4787384,27.086388638864,0,0
-113.24390252903,-31.734757147496,21.890819081908,2482508.6194678,2053.1685596098,2650563.4787384,27.090819081908,0,0
-113.24390200104,-31.749931453617,21.895249524952,2482508.6194678,2053.1685596098,2650563.4787384,27.095249524952,0,0
-113.24390147306,-31.765105759739,21.899679967997,2482508.6194678,2053.1685596098,2650563.4787384,27.099679967997,0,0
-113.24390094507,-31.78028006586,21.904110411041,2482508.6194678,2053.1685596098,2650563.4787384,27.104110411041,0,0
-113.24390041708,-31.795454371982,21.908540854085,2482508.6194678,2053.1685596098,2650563.4787384,27.108540854085,0,0
-113.24389988909,-31.810628678103,21.91297129713,2482508.6194678,2053.1685596098,2650563.4787384,27.11297129713,0,0
-113.24389936111,-31.825802984225,21.917401740174,2482508.6194678,2053.1685596098,2650563.4787384,27.117401740174,0,0
-113.24389883312,-31.840977290346,21.921832183218,2482508.6194678,2053.1685596098,2650563.4787384,27.121832183218,0,0
-113.24389830513,-31.856151596467,21.926262626263,2482508.6194678,2053.1685596098,2650563.4787384,27.126262626263,0,0
-113.24389777714,-31.871325902589,21.930693069307,2482508.6194678,2053.1685596098,2650563.4787384,27.130693069307,0,0
-113.24389724915,-31.88650020871,21.935123512351,2482508.6194678,2053.1685596098,2650563.4787384,27.135123512351,0,0
-113.24389672117,-31.901674514832,21.939553955396,2482508.6194678,2053.1685596098,2650563.4787384,27.139553955396,0,0
-113.24389619318,-31.916848820953,21.94398439844,2482508.6194678,2053.1685596098,2650563.4787384,27.14398439844,0,0
-113.24389566519,-31.932023127075,21.948414841484,2482508.6194678,2053.1685596098,2650563.4787384,27.148414841484,0,0
-113.2438951372,-31.947197433196,21.952845284528,2482508.6194678,2053.1685596098,2650563.4787384,27.152845284528,0,0
-113.24389460922,-31.962371739318,21.957275727573,2482508.6194678,2053.1685596098,2650563.4787384,27.157275727573,0,0
-113.24389408123,-31.977546045439,21.961706170617,2482508.6194678,2053.1685596098,2650563.4787384,27.161706170617,0,0
-113.24389355324,-31.992720351561,21.966136613661,2482508.6194678,2053.1685596098,2650563.4787384,27.166136613661,0,0
-113.24389302525,-32.007894657682,21.970567056706,2482508.6194678,2053.1685596098,2650563.4787384,27.170567056706,0,0
-113.24389249726,-32.023068963804,21.97499749975,2482508.6194678,2053.1685596098,2650563.4787384,27.17499749975,0,0
-113.24389196928,-32.038243269925,21.979427942794,2482508.6194678,2053.1685596098,2650563.4787384,27.179427942794,0,0
-113.24389144129,-32.053417576047,21.983858385839,2482508.6194678,2053.1685596098,2650563.4787384,27.183858385839,0,0
-113.2438909133,-32.068591882168,21.988288828883,2482508.6194678,2053.1685596098,2650563.4787384,27.188288828883,0,0
-113.24389038531,-32.08376618829,21.992719271927,2482508.6194678,2053.1685596098,2650563.4787384,27.192719271927,0,0
-113.24388985733,-32.098940494411,21.997149714971,2482508.6194678,2053.1685596098,2650563.4787384,27.197149714971,0,0
-113.24388932934,-32.114114800533,22.001580158016,2482508.6194678,2053.1685596098,2650563.4787384,27.201580158016,0,0
-113.24388880135,-32.129289106654,22.00601060106,2482508.6194678,2053.1685596098,2650563.4787384,27.20601060106,0,0
-113.24388827336,-32.144463412776,22.010441044104,2482508.6194678,2053.1685596098,2650563.4787384,27.210441044104,0,0
-113.24388774537,-32.159637718897,22.014871487149,2482508.6194678,2053.1685596098,2650563.4787384,27.214871487149,0,0
-113.24388721739,-32.174812025019,22.019301930193,2482508.6194678,2053.1685596098,2650563.4787384,27.219301930193,0,0
-113.2438866894,-32.18998633114,22.023732373237,2482508.6194678,2053.1685596098,2650563.4787384,27.223732373237,0,0
-113.24388616141,-32.205160637262,22.028162816282,2482508.6194678,2053.1685596098,2650563.4787384,27.228162816282,0,0
-113.24388563342,-32.220334943383,22.032593259326,2482508.6194678,2053.1685596098,2650563.4787384,27.232593259326,0,0
-113.24388510544,-32.235509249505,22.03702370237,2482508.6194678,2053.1685596098,2650563.4787384,27.23702370237,0,0
-113.24388457745,-32.250683555626,22.041454145415,2482508.6194678,2053.1685596098,2650563.4787384,27.241454145415,0,0
-113.24388404946,-32.265857861748,22.045884588459,2482508.6194678,2053.1685596098,2650563.4787384,27.245884588459,0,0
-113.24388352147,-32.281032167869,22.050315031503,2482508.6194678,2053.1685596098,2650563.4787384,27.250315031503,0,0
-113.24388299348,-32.296206473991,22.054745474547,2482508.6194678,2053.1685596098,2650563.4787384,27.254745474547,0,0
-113.2438824655,-32.311380780112,22.059175917592,2482508.6194678,2053.1685596098,2650563.4787384,27.259175917592,0,0
-113.24388193751,-32.326555086234,22.063606360636,2482508.6194678,2053.1685596098,2650563.4787384,27.263606360636,0,0
-113.24388140952,-32.341729392355,22.06803680368,2482508.6194678,2053.1685596098,2650563.4787384,27.26803680368,0,0
-113.24388088153,-32.356903698477,22.072467246725,2482508.6194678,2053.1685596098,2650563.4787384,27.272467246725,0,0
-113.24388035355,-32.372078004598,22.076897689769,2482508.6194678,2053.1685596098,2650563.4787384,27.276897689769,0,0
-113.24387982556,-32.38725231072,22.081328132813,2482508.6194678,2053.1685596098,2650563.4787384,27.281328132813,0,0
-113.24387929757,-32.402426616841,22.085758575858,2482508.6194678,2053.1685596098,2650563.4787384,27.285758575858,0,0
-113.24387876958,-32.417600922963,22.090189018902,2482508.6194678,2053.1685596098,2650563.4787384,27.290189018902,0,0
-113.24387824159,-32.432775229084,22.094619461946,2482508.6194678,2053.1685596098,2650563.4787384,27.294619461946,0,0
-113.24387771361,-32.447949535206,22.09904990499,2482508.6194678,2053.1685596098,2650563.4787384,27.29904990499,0,0
-113.24387718562,-32.463123841327,22.103480348035,2482508.6194678,2053.1685596098,2650563.4787384,27.303480348035,0,0
-113.24387665763,-32.478298147449,22.107910791079,2482508.6194678,2053.1685596098,2650563.4787384,27.307910791079,0,0
-113.24387612964,-32.49347245357,22.112341234123,2482508.6194678,2053.1685596098,2650563.4787384,27.312341234123,0,0
-113.24387560166,-32.508646759692,22.116771677168,2482508.6194678,2053.1685596098,2650563.4787384,27.316771677168,0,0
-113.24387507367,-32.523821065813,22.121202120212,2482508.6194678,2053.1685596098,2650563.4787384,27.321202120212,0,0
-113.24387454568,-32.538995371935,22.125632563256,2482508.6194678,2053.1685596098,2650563.4787384,27.325632563256,0,0
-113.24387401769,-32.554169678056,22.130063006301,2482508.6194678,2053.1685596098,2650563.4787384,27.330063006301,0,0
-113.2438734897,-32.569343984178,22.134493449345,2482508.6194678,2053.1685596098,2650563.4787384,27.334493449345,0,0
-113.24387296172,-32.584518290299,22.138923892389,2482508.6194678,2053.1685596098,2650563.4787384,27.338923892389,0,0
-113.24387243373,-32.599692596421,22.143354335434,2482508.6194678,2053.1685596098,2650563.4787384,27.343354335434,0,0
-113.24387190574,-32.614866902542,22.147784778478,2482508.6194678,2053.1685596098,2650563.4787384,27.347784778478,0,0
-113.24387137775,-32.630041208663,22.152215221522,2482508.6194678,2053.1685596098,2650563.4787384,27.352215221522,0,0
-113.24387084977,-32.645215514785,22.156645664566,2482508.6194678,2053.1685596098,2650563.4787384,27.356645664566,0,0
-113.24387032178,-32.660389820906,22.161076107611,2482508.6194678,2053.1685596098,2650563.4787384,27.361076107611,0,0
-113.24386979379,-32.675564127028,22.165506550655,2482508.6194678,2053.1685596098,2650563.4787384,27.365506550655,0,0
-113.2438692658,-32.690738433149,22.169936993699,2482508.6194678,2053.1685596098,2650563.4787384,27.369936993699,0,0
-113.24386873781,-32.705912739271,22.174367436744,2482508.6194678,2053.1685596098,2650563.4787384,27.374367436744,0,0
-113.24386820983,-32.721087045392,22.178797879788,2482508.6194678,2053.1685596098,2650563.4787384,27.378797879788,0,0
-113.24386768184,-32.736261351514,22.183228322832,2482508.6194678,2053.1685596098,2650563.4787384,27.383228322832,0,0
-113.24386715385,-32.751435657635,22.187658765877,2482508.6194678,2053.1685596098,2650563.4787384,27.387658765877,0,0
-113.24386662586,-32.766609963757,22.192089208921,2482508.6194678,2053.1685596098,2650563.4787384,27.392089208921,0,0
-113.24386609788,-32.781784269878,22.196519651965,2482508.6194678,2053.1685596098,2650563.4787384,27.396519651965,0,0
-113.24386556989,-32.796958576,22.200950095009,2482508.6194678,2053.1685596098,2650563.4787384,27.400950095009,0,0
-113.2438650419,-32.812132882121,22.205380538054,2482508.6194678,2053.1685596098,2650563.4787384,27.405380538054,0,0
-113.24386451391,-32.827307188243,22.209810981098,2482508.6194678,2053.1685596098,2650563.4787384,27.409810981098,0,0
-113.24386398592,-32.842481494364,22.214241424142,2482508.6194678,2053.1685596098,2650563.4787384,27.414241424142,0,0
-113.24386345794,-32.857655800486,22.218671867187,2482508.6194678,2053.1685596098,2650563.4787384,27.418671867187,0,0
-113.24386292995,-32.872830106607,22.223102310231,2482508.6194678,2053.1685596098,2650563.4787384,27.423102310231,0,0
-113.24386240196,-32.888004412729,22.227532753275,2482508.6194678,2053.1685596098,2650563.4787384,27.427532753275,0,0
-113.24386187397,-32.90317871885,22.23196319632,2482508.6194678,2053.1685596098,2650563.4787384,27.43196319632,0,0
-113.24386134599,-32.918353024972,22.236393639364,2482508.6194678,2053.1685596098,2650563.4787384,27.436393639364,0,0
-113.243860818,-32.933527331093,22.240824082408,2482508.6194678,2053.1685596098,2650563.4787384,27.440824082408,0,0
-113.24386029001,-32.948701637215,22.245254525453,2482508.6194678,2053.1685596098,2650563.4787384,27.445254525453,0,0
-113.24385976202,-32.963875943336,22.249684968497,2482508.6194678,2053.1685596098,2650563.4787384,27.449684968497,0,0
-113.24385923403,-32.979050249458,22.254115411541,2482508.6194678,2053.1685596098,2650563.4787384,27.454115411541,0,0
-113.24385870605,-32.994224555579,22.258545854585,2482508.6194678,2053.1685596098,2650563.4787384,27.458545854585,0,0
-113.24385817806,-33.009398861701,22.26297629763,2482508.6194678,2053.1685596098,2650563.4787384,27.46297629763,0,0
-113.24385765007,-33.024573167822,22.267406740674,2482508.6194678,2053.1685596098,2650563.4787384,27.467406740674,0,0
-113.24385712208,-33.039747473944,22.271837183718,2482508.6194678,2053.1685596098,2650563.4787384,27.471837183718,0,0
-113.24385659409,-33.054921780065,22.276267626763,2482508.6194678,2053.1685596098,2650563.4787384,27.476267626763,0,0
-113.24385606611,-33.070096086187,22.280698069807,2482508.6194678,2053.1685596098,2650563.4787384,27.480698069807,0,0
-113.24385553812,-33.085270392308,22.285128512851,2482508.6194678,2053.1685596098,2650563.4787384,27.485128512851,0,0
-113.24385501013,-33.10044469843,22.289558955896,2482508.6194678,2053.1685596098,2650563.4787384,27.489558955896,0,0
-113.24385448214,-33.115619004551,22.29398939894,2482508.6194678,2053.1685596098,2650563.4787384,27.49398939894,0,0
-113.24385395416,-33.130793310673,22.298419841984,2482508.6194678,2053.1685596098,2650563.4787384,27.498419841984,0,0
-113.24385342617,-33.145967616794,22.302850285029,2482508.6194678,2053.1685596098,2650563.4787384,27.502850285029,0,0
-113.24385289818,-33.161141922916,22.307280728073,2482508.6194678,2053.1685596098,2650563.4787384,27.507280728073,0,0
-113.24385237019,-33.176316229037,22.311711171117,2482508.6194678,2053.1685596098,2650563.4787384,27.511711171117,0,0
-113.2438518422,-33.191490535159,22.316141614161,2482508.6194678,2053.1685596098,2650563.4787384,27.516141614161,0,0
-113.24385131422,-33.20666484128,22.320572057206,2482508.6194678,2053.1685596098,2650563.4787384,27.520572057206,0,0
-113.24385078623,-33.221839147402,22.32500250025,2482508.6194678,2053.1685596098,2650563.4787384,27.52500250025,0,0
-113.24385025824,-33.237013453523,22.329432943294,2482508.6194678,2053.1685596098,2650563.4787384,27.529432943294,0,0
-113.24384973025,-33.252187759644,22.333863386339,2482508.6194678,2053.1685596098,2650563.4787384,27.533863386339,0,0
-113.24384920227,-33.267362065766,22.338293829383,2482508.6194678,2053.1685596098,2650563.4787384,27.538293829383,0,0
-113.24384867428,-33.282536371888,22.342724272427,2482508.6194678,2053.1685596098,2650563.4787384,27.542724272427,0,0
-113.24384814629,-33.297710678009,22.347154715472,2482508.6194678,2053.1685596098,2650563.4787384,27.547154715472,0,0
-113.2438476183,-33.31288498413,22.351585158516,2482508.6194678,2053.1685596098,2650563.4787384,27.551585158516,0,0
-113.24384709031,-33.328059290252,22.35601560156,2482508.6194678,2053.1685596098,2650563.4787384,27.55601560156,0,0
-113.24384656233,-33.343233596373,22.360446044604,2482508.6194678,2053.1685596098,2650563.4787384,27.560446044604,0,0
-113.24384603434,-33.358407902495,22.364876487649,2482508.6194678,2053.1685596098,2650563.4787384,27.564876487649,0,0
-113.24384550635,-33.373582208616,22.369306930693,2482508.6194678,2053.1685596098,2650563.4787384,27.569306930693,0,0
-113.24384497836,-33.388756514738,22.373737373737,2482508.6194678,2053.1685596098,2650563.4787384,27.573737373737,0,0
-113.24384445038,-33.403930820859,22.378167816782,2482508.6194678,2053.1685596098,2650563.4787384,27.578167816782,0,0
-113.24384392239,-33.419105126981,22.382598259826,2482508.6194678,2053.1685596098,2650563.4787384,27.582598259826,0,0
-113.2438433944,-33.434279433102,22.38702870287,2482508.6194678,2053.1685596098,2650563.4787384,27.58702870287,0,0
-113.24384286641,-33.449453739224,22.391459145915,2482508.6194678,2053.1685596098,2650563.4787384,27.591459145915,0,0
-113.24384233842,-33.464628045345,22.395889588959,2482508.6194678,2053.1685596098,2650563.4787384,27.595889588959,0,0
-113.24384181044,-33.479802351467,22.400320032003,2482508.6194678,2053.1685596098,2650563.4787384,27.600320032003,0,0
-113.24384128245,-33.494976657588,22.404750475048,2482508.6194678,2053.1685596098,2650563.4787384,27.604750475048,0,0
-113.24384075446,-33.51015096371,22.409180918092,2482508.6194678,2053.1685596098,2650563.4787384,27.609180918092,0,0
-113.24384022647,-33.525325269831,22.413611361136,2482508.6194678,2053.1685596098,2650563.4787384,27.613611361136,0,0
-113.24383969849,-33.540499575953,22.41804180418,2482508.6194678,2053.1685596098,2650563.4787384,27.61804180418,0,0
-113.2438391705,-33.555673882074,22.422472247225,2482508.6194678,2053.1685596098,2650563.4787384,27.622472247225,0,0
-113.24383864251,-33.570848188196,22.426902690269,2482508.6194678,2053.1685596098,2650563.4787384,27.626902690269,0,0
-113.24383811452,-33.586022494317,22.431333133313,2482508.6194678,2053.1685596098,2650563.4787384,27.631333133313,0,0
-113.24383758653,-33.601196800439,22.435763576358,2482508.6194678,2053.1685596098,2650563.4787384,27.635763576358,0,0
-113.24383705855,-33.61637110656,22.440194019402,2482508.6194678,2053.1685596098,2650563.4787384,27.640194019402,0,0
-113.24383653056,-33.631545412682,22.444624462446,2482508.6194678,2053.1685596098,2650563.4787384,27.644624462446,0,0
-113.24383600257,-33.646719718803,22.449054905491,2482508.6194678,2053.1685596098,2650563.4787384,27.649054905491,0,0
-113.24383547458,-33.661894024925,22.453485348535,2482508.6194678,2053.1685596098,2650563.4787384,27.653485348535,0,0
-113.2438349466,-33.677068331046,22.457915791579,2482508.6194678,2053.1685596098,2650563.4787384,27.657915791579,0,0
-113.24383441861,-33.692242637168,22.462346234623,2482508.6194678,2053.1685596098,2650563.4787384,27.662346234623,0,0
-113.24383389062,-33.707416943289,22.466776677668,2482508.6194678,2053.1685596098,2650563.4787384,27.666776677668,0,0
-113.24383336263,-33.722591249411,22.471207120712,2482508.6194678,2053.1685596098,2650563.4787384,27.671207120712,0,0
-113.24383283464,-33.737765555532,22.475637563756,2482508.6194678,2053.1685596098,2650563.4787384,27.675637563756,0,0
-113.24383230666,-33.752939861654,22.480068006801,2482508.6194678,2053.1685596098,2650563.4787384,27.680068006801,0,0
-113.24383177867,-33.768114167775,22.484498449845,2482508.6194678,2053.1685596098,2650563.4787384,27.684498449845,0,0
-113.24383125068,-33.783288473897,22.488928892889,2482508.6194678,2053.1685596098,2650563.4787384,27.688928892889,0,0
-113.24383072269,-33.798462780018,22.493359335934,2482508.6194678,2053.1685596098,2650563.4787384,27.693359335934,0,0
-113.24383019471,-33.81363708614,22.497789778978,2482508.6194678,2053.1685596098,2650563.4787384,27.697789778978,0,0
-113.24382966672,-33.828811392261,22.502220222022,2482508.6194678,2053.1685596098,2650563.4787384,27.702220222022,0,0
-113.24382913873,-33.843985698383,22.506650665067,2482508.6194678,2053.1685596098,2650563.4787384,27.706650665067,0,0
-113.24382861074,-33.859160004504,22.511081108111,2482508.6194678,2053.1685596098,2650563.4787384,27.711081108111,0,0
-113.24382808275,-33.874334310626,22.515511551155,2482508.6194678,2053.1685596098,2650563.4787384,27.715511551155,0,0
-113.24382755477,-33.889508616747,22.519941994199,2482508.6194678,2053.1685596098,2650563.4787384,27.719941994199,0,0
-113.24382702678,-33.904682922869,22.524372437244,2482508.6194678,2053.1685596098,2650563.4787384,27.724372437244,0,0
-113.24382649879,-33.91985722899,22.528802880288,2482508.6194678,2053.1685596098,2650563.4787384,27.728802880288,0,0
-113.2438259708,-33.935031535112,22.533233323332,2482508.6194678,2053.1685596098,2650563.4787384,27.733233323332,0,0
-113.24382544282,-33.950205841233,22.537663766377,2482508.6194678,2053.1685596098,2650563.4787384,27.737663766377,0,0
-113.24382491483,-33.965380147354,22.542094209421,2482508.6194678,2053.1685596098,2650563.4787384,27.742094209421,0,0
-113.24382438684,-33.980554453476,22.546524652465,2482508.6194678,2053.1685596098,2650563.4787384,27.746524652465,0,0
-113.24382385885,-33.995728759597,22.55095509551,2482508.6194678,2053.1685596098,2650563.4787384,27.75095509551,0,0
-113.24382333086,-34.010903065719,22.555385538554,2482508.6194678,2053.1685596098,2650563.4787384,27.755385538554,0,0
-113.24382280288,-34.02607737184,22.559815981598,2482508.6194678,2053.1685596098,2650563.4787384,27.759815981598,0,0
-113.24382227489,-34.041251677962,22.564246424642,2482508.6194678,2053.1685596098,2650563.4787384,27.764246424642,0,0
-113.24382174615,-34.056425983181,22.568676867687,2490307.7723923,4380.251670937,2648080.2680879,27.768676867687,0,0
-113.2438212168,-34.071600287662,22.573107310731,2490307.7723923,4380.251670937,2648080.2680879,27.773107310731,0,0
-113.24382068745,-34.086774592142,22.577537753775,2490307.7723923,4380.251670937,2648080.2680879,27.777537753775,0,0
-113.24382015809,-34.101948896623,22.58196819682,2490307.7723923,4380.251670937,2648080.2680879,27.78196819682,0,0
-113.24381962874,-34.117123201103,22.586398639864,2490307.7723923,4380.251670937,2648080.2680879,27.786398639864,0,0
-113.24381909939,-34.132297505584,22.590829082908,2490307.7723923,4380.251670937,2648080.2680879,27.790829082908,0,0
-113.24381857004,-34.147471810064,22.595259525953,2490307.7723923,4380.251670937,2648080.2680879,27.795259525953,0,0
-113.24381804068,-34.162646114544,22.599689968997,2490307.7723923,4380.251670937,2648080.2680879,27.799689968997,0,0
-113.24381751133,-34.177820419025,22.604120412041,2490307.7723923,4380.251670937,2648080.2680879,27.804120412041,0,0
-113.24381698198,-34.192994723505,22.608550855086,2490307.7723923,4380.251670937,2648080.2680879,27.808550855086,0,0
-113.24381645263,-34.208169027986,22.61298129813,2490307.7723923,4380.251670937,2648080.2680879,27.81298129813,0,0
-113.24381592327,-34.223343332466,22.617411741174,2490307.7723923,4380.251670937,2648080.2680879,27.817411741174,0,0
-113.24381539392,-34.238517636946,22.621842184218,2490307.7723923,4380.251670937,2648080.2680879,27.821842184218,0,0
-113.24381486457,-34.253691941427,22.626272627263,2490307.7723923,4380.251670937,2648080.2680879,27.826272627263,0,0
-113.24381433522,-34.268866245907,22.630703070307,2490307.7723923,4380.251670937,2648080.2680879,27.830703070307,0,0
-113.24381380587,-34.284040550388,22.635133513351,2490307.7723923,4380.251670937,2648080.2680879,27.835133513351,0,0
-113.24381327651,-34.299214854868,22.639563956396,2490307.7723923,4380.251670937,2648080.2680879,27.839563956396,0,0
-113.24381274716,-34.314389159349,22.64399439944,2490307.7723923,4380.251670937,2648080.2680879,27.84399439944,0,0
-113.24381221781,-34.329563463829,22.648424842484,2490307.7723923,4380.251670937,2648080.2680879,27.848424842484,0,0
-113.24381168846,-34.344737768309,22.652855285529,2490307.7723923,4380.251670937,2648080.2680879,27.852855285529,0,0
-113.2438111591,-34.35991207279,22.657285728573,2490307.7723923,4380.251670937,2648080.2680879,27.857285728573,0,0
-113.24381062975,-34.37508637727,22.661716171617,2490307.7723923,4380.251670937,2648080.2680879,27.861716171617,0,0
-113.2438101004,-34.390260681751,22.666146614661,2490307.7723923,4380.251670937,2648080.2680879,27.866146614661,0,0
-113.24380957105,-34.405434986231,22.670577057706,2490307.7723923,4380.251670937,2648080.2680879,27.870577057706,0,0
-113.24380904169,-34.420609290712,22.67500750075,2490307.7723923,4380.251670937,2648080.2680879,27.87500750075,0,0
-113.24380851234,-34.435783595192,22.679437943794,2490307.7723923,4380.251670937,2648080.2680879,27.879437943794,0,0
-113.24380798299,-34.450957899672,22.683868386839,2490307.7723923,4380.251670937,2648080.2680879,27.883868386839,0,0
-113.24380745364,-34.466132204153,22.688298829883,2490307.7723923,4380.251670937,2648080.2680879,27.888298829883,0,0
-113.24380692428,-34.481306508633,22.692729272927,2490307.7723923,4380.251670937,2648080.2680879,27.892729272927,0,0
-113.24380639493,-34.496480813114,22.697159715972,2490307.7723923,4380.251670937,2648080.2680879,27.897159715972,0,0
-113.24380586558,-34.511655117594,22.701590159016,2490307.7723923,4380.251670937,2648080.2680879,27.901590159016,0,0
-113.24380533623,-34.526829422075,22.70602060206,2490307.7723923,4380.251670937,2648080.2680879,27.90602060206,0,0
-113.24380480687,-34.542003726555,22.710451045105,2490307.7723923,4380.251670937,2648080.2680879,27.910451045105,0,0
-113.24380427752,-34.557178031035,22.714881488149,2490307.7723923,4380.251670937,2648080.2680879,27.914881488149,0,0
-113.24380374817,-34.572352335516,22.719311931193,2490307.7723923,4380.251670937,2648080.2680879,27.919311931193,0,0
-113.24380321882,-34.587526639996,22.723742374237,2490307.7723923,4380.251670937,2648080.2680879,27.923742374237,0,0
-113.24380268946,-34.602700944477,22.728172817282,2490307.7723923,4380.251670937,2648080.2680879,27.928172817282,0,0
-113.24380216011,-34.617875248957,22.732603260326,2490307.7723923,4380.251670937,2648080.2680879,27.932603260326,0,0
-113.24380163076,-34.633049553437,22.73703370337,2490307.7723923,4380.251670937,2648080.2680879,27.93703370337,0,0
-113.24380110141,-34.648223857918,22.741464146415,2490307.7723923,4380.251670937,2648080.2680879,27.941464146415,0,0
-113.24380057206,-34.663398162398,22.745894589459,2490307.7723923,4380.251670937,2648080.2680879,27.945894589459,0,0
-113.2438000427,-34.678572466879,22.750325032503,2490307.7723923,4380.251670937,2648080.2680879,27.950325032503,0,0
-113.24379951335,-34.693746771359,22.754755475548,2490307.7723923,4380.251670937,2648080.2680879,27.954755475548,0,0
-113.243798984,-34.70892107584,22.759185918592,2490307.7723923,4380.251670937,2648080.2680879,27.959185918592,0,0
-113.24379845465,-34.72409538032,22.763616361636,2490307.7723923,4380.251670937,2648080.2680879,27.963616361636,0,0
-113.24379792529,-34.7392696848,22.76804680468,2490307.7723923,4380.251670937,2648080.2680879,27.96804680468,0,0
-113.24379739594,-34.754443989281,22.772477247725,2490307.7723923,4380.251670937,2648080.2680879,27.972477247725,0,0
-113.24379686659,-34.769618293761,22.776907690769,2490307.7723923,4380.251670937,2648080.2680879,27.976907690769,0,0
-113.24379633724,-34.784792598242,22.781338133813,2490307.7723923,4380.251670937,2648080.2680879,27.981338133813,0,0
-113.24379580788,-34.799966902722,22.785768576858,2490307.7723923,4380.251670937,2648080.2680879,27.985768576858,0,0
-113.24379527853,-34.815141207203,22.790199019902,2490307.7723923,4380.251670937,2648080.2680879,27.990199019902,0,0
-113.24379474918,-34.830315511683,22.794629462946,2490307.7723923,4380.251670937,2648080.2680879,27.994629462946,0,0
-113.24379421983,-34.845489816163,22.799059905991,2490307.7723923,4380.251670937,2648080.2680879,27.999059905991,0,0
-113.24379369047,-34.860664120644,22.803490349035,2490307.7723923,4380.251670937,2648080.2680879,28.003490349035,0,0
-113.24379316112,-34.875838425124,22.807920792079,2490307.7723923,4380.251670937,2648080.2680879,28.007920792079,0,0
-113.24379263177,-34.891012729605,22.812351235124,2490307.7723923,4380.251670937,2648080.2680879,28.012351235124,0,0
-113.24379210242,-34.906187034085,22.816781678168,2490307.7723923,4380.251670937,2648080.2680879,28.016781678168,0,0
-113.24379157306,-34.921361338566,22.821212121212,2490307.7723923,4380.251670937,2648080.2680879,28.021212121212,0,0
-113.24379104371,-34.936535643046,22.825642564256,2490307.7723923,4380.251670937,2648080.2680879,28.025642564256,0,0
-113.24379051401,-34.951709948525,22.830073007301,2492098.3101186,941.61010674434,2640829.8153748,28.030073007301,0,0
-113.243789984,-34.966884254886,22.834503450345,2492098.3101186,941.61010674434,2640829.8153748,28.034503450345,0,0
-113.24378945399,-34.982058561248,22.838933893389,2492098.3101186,941.61010674434,2640829.8153748,28.038933893389,0,0
-113.24378892398,-34.997232867609,22.843364336434,2492098.3101186,941.61010674434,2640829.8153748,28.043364336434,0,0
-113.24378839397,-35.01240717397,22.847794779478,2492098.3101186,941.61010674434,2640829.8153748,28.047794779478,0,0
-113.24378786395,-35.027581480331,22.852225222522,2492098.3101186,941.61010674434,2640829.8153748,28.052225222522,0,0
-113.24378733394,-35.042755786692,22.856655665567,2492098.3101186,941.61010674434,2640829.8153748,28.056655665567,0,0
-113.24378680393,-35.057930093053,22.861086108611,2492098.3101186,941.61010674434,2640829.8153748,28.061086108611,0,0
-113.24378627392,-35.073104399414,22.865516551655,2492098.3101186,941.61010674434,2640829.8153748,28.065516551655,0,0
-113.24378574391,-35.088278705775,22.869946994699,2492098.3101186,941.61010674434,2640829.8153748,28.069946994699,0,0
-113.2437852139,-35.103453012137,22.874377437744,2492098.3101186,941.61010674434,2640829.8153748,28.074377437744,0,0
-113.24378468389,-35.118627318498,22.878807880788,2492098.3101186,941.61010674434,2640829.8153748,28.078807880788,0,0
-113.24378415388,-35.133801624859,22.883238323832,2492098.3101186,941.61010674434,2640829.8153748,28.083238323832,0,0
-113.24378362386,-35.14897593122,22.887668766877,2492098.3101186,941.61010674434,2640829.8153748,28.087668766877,0,0
-113.24378309385,-35.164150237581,22.892099209921,2492098.3101186,941.61010674434,2640829.8153748,28.092099209921,0,0
-113.24378256384,-35.179324543942,22.896529652965,2492098.3101186,941.61010674434,2640829.8153748,28.096529652965,0,0
-113.24378203383,-35.194498850303,22.90096009601,2492098.3101186,941.61010674434,2640829.8153748,28.10096009601,0,0
-113.24378150382,-35.209673156664,22.905390539054,2492098.3101186,941.61010674434,2640829.8153748,28.105390539054,0,0
-113.24378097381,-35.224847463026,22.909820982098,2492098.3101186,941.61010674434,2640829.8153748,28.109820982098,0,0
-113.2437804438,-35.240021769387,22.914251425143,2492098.3101186,941.61010674434,2640829.8153748,28.114251425143,0,0
-113.24377991379,-35.255196075748,22.918681868187,2492098.3101186,941.61010674434,2640829.8153748,28.118681868187,0,0
-113.24377938378,-35.270370382109,22.923112311231,2492098.3101186,941.61010674434,2640829.8153748,28.123112311231,0,0
-113.24377885376,-35.28554468847,22.927542754275,2492098.3101186,941.61010674434,2640829.8153748,28.127542754275,0,0
-113.24377832375,-35.300718994831,22.93197319732,2492098.3101186,941.61010674434,2640829.8153748,28.13197319732,0,0
-113.24377779374,-35.315893301192,22.936403640364,2492098.3101186,941.61010674434,2640829.8153748,28.136403640364,0,0
-113.24377726373,-35.331067607553,22.940834083408,2492098.3101186,941.61010674434,2640829.8153748,28.140834083408,0,0
-113.24377673372,-35.346241913915,22.945264526453,2492098.3101186,941.61010674434,2640829.8153748,28.145264526453,0,0
-113.24377620371,-35.361416220276,22.949694969497,2492098.3101186,941.61010674434,2640829.8153748,28.149694969497,0,0
-113.2437756737,-35.376590526637,22.954125412541,2492098.3101186,941.61010674434,2640829.8153748,28.154125412541,0,0
-113.24377514369,-35.391764832998,22.958555855586,2492098.3101186,941.61010674434,2640829.8153748,28.158555855586,0,0
-113.24377461368,-35.406939139359,22.96298629863,2492098.3101186,941.61010674434,2640829.8153748,28.16298629863,0,0
-113.24377408366,-35.42211344572,22.967416741674,2492098.3101186,941.61010674434,2640829.8153748,28.167416741674,0,0
-113.24377355365,-35.437287752081,22.971847184718,2492098.3101186,941.61010674434,2640829.8153748,28.171847184718,0,0
-113.24377302364,-35.452462058442,22.976277627763,2492098.3101186,941.61010674434,2640829.8153748,28.176277627763,0,0
-113.24377249363,-35.467636364804,22.980708070807,2492098.3101186,941.61010674434,2640829.8153748,28.180708070807,0,0
-113.24377196362,-35.482810671165,22.985138513851,2492098.3101186,941.61010674434,2640829.8153748,28.185138513851,0,0
-113.24377143361,-35.497984977526,22.989568956896,2492098.3101186,941.61010674434,2640829.8153748,28.189568956896,0,0
-113.2437709036,-35.513159283887,22.99399939994,2492098.3101186,941.61010674434,2640829.8153748,28.19399939994,0,0
-113.24377037359,-35.528333590248,22.998429842984,2492098.3101186,941.61010674434,2640829.8153748,28.198429842984,0,0
-113.24376984357,-35.543507896609,23.002860286029,2492098.3101186,941.61010674434,2640829.8153748,28.202860286029,0,0
-113.24376931356,-35.55868220297,23.007290729073,2492098.3101186,941.61010674434,2640829.8153748,28.207290729073,0,0
-113.24376878355,-35.573856509332,23.011721172117,2492098.3101186,941.61010674434,2640829.8153748,28.211721172117,0,0
-113.24376825354,-35.589030815693,23.016151615162,2492098.3101186,941.61010674434,2640829.8153748,28.216151615162,0,0
-113.24376772353,-35.604205122054,23.020582058206,2492098.3101186,941.61010674434,2640829.8153748,28.220582058206,0,0
-113.24376719352,-35.619379428415,23.02501250125,2492098.3101186,941.61010674434,2640829.8153748,28.22501250125,0,0
-113.24376666351,-35.634553734776,23.029442944294,2492098.3101186,941.61010674434,2640829.8153748,28.229442944294,0,0
-113.2437661335,-35.649728041137,23.033873387339,2492098.3101186,941.61010674434,2640829.8153748,28.233873387339,0,0
-113.24376560349,-35.664902347498,23.038303830383,2492098.3101186,941.61010674434,2640829.8153748,28.238303830383,0,0
-113.24376507347,-35.680076653859,23.042734273427,2492098.3101186,941.61010674434,2640829.8153748,28.242734273427,0,0
-113.24376454346,-35.695250960221,23.047164716472,2492098.3101186,941.61010674434,2640829.8153748,28.247164716472,0,0
-113.24376401345,-35.710425266582,23.051595159516,2492098.3101186,941.61010674434,2640829.8153748,28.251595159516,0,0
-113.24376348344,-35.725599572943,23.05602560256,2492098.3101186,941.61010674434,2640829.8153748,28.25602560256,0,0
-113.24376295343,-35.740773879304,23.060456045605,2492098.3101186,941.61010674434,2640829.8153748,28.260456045605,0,0
-113.24376242342,-35.755948185665,23.064886488649,2492098.3101186,941.61010674434,2640829.8153748,28.264886488649,0,0
-113.24376189341,-35.771122492026,23.069316931693,2492098.3101186,941.61010674434,2640829.8153748,28.269316931693,0,0
-113.2437613634,-35.786296798387,23.073747374737,2492098.3101186,941.61010674434,2640829.8153748,28.273747374737,0,0
-113.24376083339,-35.801471104748,23.078177817782,2492098.3101186,941.61010674434,2640829.8153748,28.278177817782,0,0
-113.24376030337,-35.81664541111,23.082608260826,2492098.3101186,941.61010674434,2640829.8153748,28.282608260826,0,0
-113.24375977336,-35.831819717471,23.08703870387,2492098.3101186,941.61010674434,2640829.8153748,28.28703870387,0,0
-113.24375924335,-35.846994023832,23.091469146915,2492098.3101186,941.61010674434,2640829.8153748,28.291469146915,0,0
-113.24375871334,-35.862168330193,23.095899589959,2492098.3101186,941.61010674434,2640829.8153748,28.295899589959,0,0
-113.24375818333,-35.877342636554,23.100330033003,2492098.3101186,941.61010674434,2640829.8153748,28.300330033003,0,0
-113.24375765332,-35.892516942915,23.104760476048,2492098.3101186,941.61010674434,2640829.8153748,28.304760476048,0,0
-113.24375712331,-35.907691249276,23.109190919092,2492098.3101186,941.61010674434,2640829.8153748,28.309190919092,0,0
-113.2437565933,-35.922865555637,23.113621362136,2492098.3101186,941.61010674434,2640829.8153748,28.313621362136,0,0
-113.24375606328,-35.938039861999,23.118051805181,2492098.3101186,941.61010674434,2640829.8153748,28.318051805181,0,0
-113.24375553327,-35.95321416836,23.122482248225,2492098.3101186,941.61010674434,2640829.8153748,28.322482248225,0,0
-113.24375500326,-35.968388474721,23.126912691269,2492098.3101186,941.61010674434,2640829.8153748,28.326912691269,0,0
-113.24375447325,-35.983562781082,23.131343134313,2492098.3101186,941.61010674434,2640829.8153748,28.331343134313,0,0
-113.24375394324,-35.998737087443,23.135773577358,2492098.3101186,941.61010674434,2640829.8153748,28.335773577358,0,0
-113.24375341323,-36.013911393804,23.140204020402,2492098.3101186,941.61010674434,2640829.8153748,28.340204020402,0,0
-113.24375288322,-36.029085700165,23.144634463446,2492098.3101186,941.61010674434,2640829.8153748,28.344634463446,0,0
-113.24375235321,-36.044260006526,23.149064906491,2492098.3101186,941.61010674434,2640829.8153748,28.349064906491,0,0
-113.2437518232,-36.059434312888,23.153495349535,2492098.3101186,941.61010674434,2640829.8153748,28.353495349535,0,0
-113.24375129318,-36.074608619249,23.157925792579,2492098.3101186,941.61010674434,2640829.8153748,28.357925792579,0,0
-113.24375076317,-36.08978292561,23.162356235624,2492098.3101186,941.61010674434,2640829.8153748,28.362356235624,0,0
-113.24375023316,-36.104957231971,23.166786678668,2492098.3101186,941.61010674434,2640829.8153748,28.366786678668,0,0
-113.24374970315,-36.120131538332,23.171217121712,2492098.3101186,941.61010674434,2640829.8153748,28.371217121712,0,0
-113.24374917314,-36.135305844693,23.175647564756,2492098.3101186,941.61010674434,2640829.8153748,28.375647564756,0,0
-113.24374864313,-36.150480151054,23.180078007801,2492098.3101186,941.61010674434,2640829.8153748,28.380078007801,0,0
-113.24374811312,-36.165654457416,23.184508450845,2492098.3101186,941.61010674434,2640829.8153748,28.384508450845,0,0
-113.24374758311,-36.180828763777,23.188938893889,2492098.3101186,941.61010674434,2640829.8153748,28.388938893889,0,0
-113.2437470531,-36.196003070138,23.193369336934,2492098.3101186,941.61010674434,2640829.8153748,28.393369336934,0,0
-113.24374652308,-36.211177376499,23.197799779978,2492098.3101186,941.61010674434,2640829.8153748,28.397799779978,0,0
-113.24374599307,-36.22635168286,23.202230223022,2492098.3101186,941.61010674434,2640829.8153748,28.402230223022,0,0
-113.24374546306,-36.241525989221,23.206660666067,2492098.3101186,941.61010674434,2640829.8153748,28.406660666067,0,0
-113.24374493305,-36.256700295582,23.211091109111,2492098.3101186,941.61010674434,2640829.8153748,28.411091109111,0,0
-113.24374440304,-36.271874601943,23.215521552155,2492098.3101186,941.61010674434,2640829.8153748,28.415521552155,0,0
-113.24374387303,-36.287048908305,23.2199519952,2492098.3101186,941.61010674434,2640829.8153748,28.4199519952,0,0
-113.24374334302,-36.302223214666,23.224382438244,2492098.3101186,941.61010674434,2640829.8153748,28.424382438244,0,0
-113.24374281301,-36.317397521027,23.228812881288,2492098.3101186,941.61010674434,2640829.8153748,28.428812881288,0,0
-113.24374228299,-36.332571827388,23.233243324332,2492098.3101186,941.61010674434,2640829.8153748,28.433243324332,0,0
-113.24374175298,-36.347746133749,23.237673767377,2492098.3101186,941.61010674434,2640829.8153748,28.437673767377,0,0
-113.24374122297,-36.36292044011,23.242104210421,2492098.3101186,941.61010674434,2640829.8153748,28.442104210421,0,0
-113.24374069296,-36.378094746471,23.246534653465,2492098.3101186,941.61010674434,2640829.8153748,28.446534653465,0,0
-113.24374016295,-36.393269052832,23.25096509651,2492098.3101186,941.61010674434,2640829.8153748,28.45096509651,0,0
-113.24373963294,-36.408443359194,23.255395539554,2492098.3101186,941.61010674434,2640829.8153748,28.455395539554,0,0
-113.24373910293,-36.423617665555,23.259825982598,2492098.3101186,941.61010674434,2640829.8153748,28.459825982598,0,0
-113.24373857292,-36.438791971916,23.264256425643,2492098.3101186,941.61010674434,2640829.8153748,28.464256425643,0,0
-113.24373804291,-36.453966278277,23.268686868687,2492098.3101186,941.61010674434,2640829.8153748,28.468686868687,0,0
-113.24373751289,-36.469140584638,23.273117311731,2492098.3101186,941.61010674434,2640829.8153748,28.473117311731,0,0
-113.24373698288,-36.484314890999,23.277547754775,2492098.3101186,941.61010674434,2640829.8153748,28.477547754775,0,0
-113.24373645287,-36.49948919736,23.28197819782,2492098.3101186,941.61010674434,2640829.8153748,28.48197819782,0,0
-113.24373592286,-36.514663503721,23.286408640864,2492098.3101186,941.61010674434,2640829.8153748,28.486408640864,0,0
-113.24373539285,-36.529837810083,23.290839083908,2492098.3101186,941.61010674434,2640829.8153748,28.490839083908,0,0
-113.24373486284,-36.545012116444,23.295269526953,2492098.3101186,941.61010674434,2640829.8153748,28.495269526953,0,0
-113.24373433283,-36.560186422805,23.299699969997,2492098.3101186,941.61010674434,2640829.8153748,28.499699969997,0,0
-113.24373380282,-36.575360729166,23.304130413041,2492098.3101186,941.61010674434,2640829.8153748,28.504130413041,0,0
-113.24373327281,-36.590535035527,23.308560856086,2492098.3101186,941.61010674434,2640829.8153748,28.508560856086,0,0
-113.24373274279,-36.605709341888,23.31299129913,2492098.3101186,941.61010674434,2640829.8153748,28.51299129913,0,0
-113.24373221278,-36.620883648249,23.317421742174,2492098.3101186,941.61010674434,2640829.8153748,28.517421742174,0,0
-113.24373168277,-36.63605795461,23.321852185219,2492098.3101186,941.61010674434,2640829.8153748,28.521852185219,0,0
-113.24373115276,-36.651232260972,23.326282628263,2492098.3101186,941.61010674434,2640829.8153748,28.526282628263,0,0
-113.24373062275,-36.666406567333,23.330713071307,2492098.3101186,941.61010674434,2640829.8153748,28.530713071307,0,0
-113.24373009274,-36.681580873694,23.335143514351,2492098.3101186,941.61010674434,2640829.8153748,28.535143514351,0,0
-113.24372956273,-36.696755180055,23.339573957396,2492098.3101186,941.61010674434,2640829.8153748,28.539573957396,0,0
-113.24372903272,-36.711929486416,23.34400440044,2492098.3101186,941.61010674434,2640829.8153748,28.54400440044,0,0
-113.2437285027,-36.727103792777,23.348434843484,2492098.3101186,941.61010674434,2640829.8153748,28.548434843484,0,0
-113.24372797269,-36.742278099138,23.352865286529,2492098.3101186,941.61010674434,2640829.8153748,28.552865286529,0,0
-113.24372744268,-36.7574524055,23.357295729573,2492098.3101186,941.61010674434,2640829.8153748,28.557295729573,0,0
-113.24372691267,-36.772626711861,23.361726172617,2492098.3101186,941.61010674434,2640829.8153748,28.561726172617,0,0
-113.24372638266,-36.787801018222,23.366156615662,2492098.3101186,941.61010674434,2640829.8153748,28.566156615662,0,0
-113.24372585265,-36.802975324583,23.370587058706,2492098.3101186,941.61010674434,2640829.8153748,28.570587058706,0,0
-113.24372532264,-36.818149630944,23.37501750175,2492098.3101186,941.61010674434,2640829.8153748,28.57501750175,0,0
-113.24372479263,-36.833323937305,23.379447944794,2492098.3101186,941.61010674434,2640829.8153748,28.579447944794,0,0
-113.24372426262,-36.848498243666,23.383878387839,2492098.3101186,941.61010674434,2640829.8153748,28.583878387839,0,0
-113.2437237326,-36.863672550027,23.388308830883,2492098.3101186,941.61010674434,2640829.8153748,28.588308830883,0,0
-113.24372320259,-36.878846856389,23.392739273927,2492098.3101186,941.61010674434,2640829.8153748,28.592739273927,0,0
-113.24372267258,-36.89402116275,23.397169716972,2492098.3101186,941.61010674434,2640829.8153748,28.597169716972,0,0
-113.24372214257,-36.909195469111,23.401600160016,2492098.3101186,941.61010674434,2640829.8153748,28.601600160016,0,0
-113.24372161256,-36.924369775472,23.40603060306,2492098.3101186,941.61010674434,2640829.8153748,28.60603060306,0,0
-113.24372108255,-36.939544081833,23.410461046105,2492098.3101186,941.61010674434,2640829.8153748,28.610461046105,0,0
-113.24372055254,-36.954718388194,23.414891489149,2492098.3101186,941.61010674434,2640829.8153748,28.614891489149,0,0
-113.24372002253,-36.969892694555,23.419321932193,2492098.3101186,941.61010674434,2640829.8153748,28.619321932193,0,0
-113.24371949252,-36.985067000916,23.423752375238,2492098.3101186,941.61010674434,2640829.8153748,28.623752375238,0,0
-113.2437189625,-37.000241307278,23.428182818282,2492098.3101186,941.61010674434,2640829.8153748,28.628182818282,0,0
-113.24371843249,-37.015415613639,23.432613261326,2492098.3101186,941.61010674434,2640829.8153748,28.632613261326,0,0
-113.24371790248,-37.03058992,23.43704370437,2492098.3101186,941.61010674434,2640829.8153748,28.63704370437,0,0
-113.24371737247,-37.045764226361,23.441474147415,2492098.3101186,941.61010674434,2640829.8153748,28.641474147415,0,0
-113.24371684246,-37.060938532722,23.445904590459,2492098.3101186,941.61010674434,2640829.8153748,28.645904590459,0,0
-113.24371631245,-37.076112839083,23.450335033503,2492098.3101186,941.61010674434,2640829.8153748,28.650335033503,0,0
-113.24371578244,-37.091287145444,23.454765476548,2492098.3101186,941.61010674434,2640829.8153748,28.654765476548,0,0
-113.24371525243,-37.106461451805,23.459195919592,2492098.3101186,941.61010674434,2640829.8153748,28.659195919592,0,0
-113.24371472241,-37.121635758167,23.463626362636,2492098.3101186,941.61010674434,2640829.8153748,28.663626362636,0,0
-113.2437141924,-37.136810064528,23.468056805681,2492098.3101186,941.61010674434,2640829.8153748,28.668056805681,0,0
-113.24371366239,-37.151984370889,23.472487248725,2492098.3101186,941.61010674434,2640829.8153748,28.672487248725,0,0
-113.24371313238,-37.16715867725,23.476917691769,2492098.3101186,941.61010674434,2640829.8153748,28.676917691769,0,0
-113.24371260237,-37.182332983611,23.481348134813,2492098.3101186,941.61010674434,2640829.8153748,28.681348134813,0,0
-113.24371207236,-37.197507289972,23.485778577858,2492098.3101186,941.61010674434,2640829.8153748,28.685778577858,0,0
-113.24371154235,-37.212681596333,23.490209020902,2492098.3101186,941.61010674434,2640829.8153748,28.690209020902,0,0
-113.24371101234,-37.227855902694,23.494639463946,2492098.3101186,941.61010674434,2640829.8153748,28.694639463946,0,0
-113.24371048233,-37.243030209056,23.499069906991,2492098.3101186,941.61010674434,2640829.8153748,28.699069906991,0,0
-113.24370995231,-37.258204515417,23.503500350035,2492098.3101186,941.61010674434,2640829.8153748,28.703500350035,0,0
-113.2437094223,-37.273378821778,23.507930793079,2492098.3101186,941.61010674434,2640829.8153748,28.707930793079,0,0
-113.24370889229,-37.288553128139,23.512361236124,2492098.3101186,941.61010674434,2640829.8153748,28.712361236124,0,0
-113.24370836228,-37.3037274345,23.516791679168,2492098.3101186,941.61010674434,2640829.8153748,28.716791679168,0,0
-113.24370783227,-37.318901740861,23.521222122212,2492098.3101186,941.61010674434,2640829.8153748,28.721222122212,0,0
-113.24370730226,-37.334076047222,23.525652565257,2492098.3101186,941.61010674434,2640829.8153748,28.725652565257,0,0
-113.24370677225,-37.349250353584,23.530083008301,2492098.3101186,941.61010674434,2640829.8153748,28.730083008301,0,0
-113.24370624224,-37.364424659945,23.534513451345,2492098.3101186,941.61010674434,2640829.8153748,28.734513451345,0,0
-113.24370571223,-37.379598966306,23.538943894389,2492098.3101186,941.61010674434,2640829.8153748,28.738943894389,0,0
-113.24370518221,-37.394773272667,23.543374337434,2492098.3101186,941.61010674434,2640829.8153748,28.743374337434,0,0
-113.2437046522,-37.409947579028,23.547804780478,2492098.3101186,941.61010674434,2640829.8153748,28.747804780478,0,0
-113.24370412219,-37.425121885389,23.552235223522,2492098.3101186,941.61010674434,2640829.8153748,28.752235223522,0,0
-113.24370359218,-37.44029619175,23.556665666567,2492098.3101186,941.61010674434,2640829.8153748,28.756665666567,0,0
-113.24370306217,-37.455470498111,23.561096109611,2492098.3101186,941.61010674434,2640829.8153748,28.761096109611,0,0
-113.24370253216,-37.470644804473,23.565526552655,2492098.3101186,941.61010674434,2640829.8153748,28.765526552655,0,0
-113.24370200215,-37.485819110834,23.5699569957,2492098.3101186,941.61010674434,2640829.8153748,28.7699569957,0,0
-113.24370147214,-37.500993417195,23.574387438744,2492098.3101186,941.61010674434,2640829.8153748,28.774387438744,0,0
-113.24370094212,-37.516167723556,23.578817881788,2492098.3101186,941.61010674434,2640829.8153748,28.778817881788,0,0
-113.24370041211,-37.531342029917,23.583248324832,2492098.3101186,941.61010674434,2640829.8153748,28.783248324832,0,0
-113.2436998821,-37.546516336278,23.587678767877,2492098.3101186,941.61010674434,2640829.8153748,28.787678767877,0,0
-113.24369935209,-37.561690642639,23.592109210921,2492098.3101186,941.61010674434,2640829.8153748,28.792109210921,0,0
-113.24369882208,-37.576864949,23.596539653965,2492098.3101186,941.61010674434,2640829.8153748,28.796539653965,0,0
-113.24369829207,-37.592039255362,23.60097009701,2492098.3101186,941.61010674434,2640829.8153748,28.80097009701,0,0
-113.24369776206,-37.607213561723,23.605400540054,2492098.3101186,941.61010674434,2640829.8153748,28.805400540054,0,0
-113.24369723205,-37.622387868084,23.609830983098,2492098.3101186,941.61010674434,2640829.8153748,28.809830983098,0,0
-113.24369670204,-37.637562174445,23.614261426143,2492098.3101186,941.61010674434,2640829.8153748,28.814261426143,0,0
-113.24369617202,-37.652736480806,23.618691869187,2492098.3101186,941.61010674434,2640829.8153748,28.818691869187,0,0
-113.24369564201,-37.667910787167,23.623122312231,2492098.3101186,941.61010674434,2640829.8153748,28.823122312231,0,0
-113.243695112,-37.683085093528,23.627552755276,2492098.3101186,941.61010674434,2640829.8153748,28.827552755276,0,0
-113.24369458199,-37.698259399889,23.63198319832,2492098.3101186,941.61010674434,2640829.8153748,28.83198319832,0,0
-113.24369405198,-37.713433706251,23.636413641364,2492098.3101186,941.61010674434,2640829.8153748,28.836413641364,0,0
-113.24369352197,-37.728608012612,23.640844084408,2492098.3101186,941.61010674434,2640829.8153748,28.840844084408,0,0
-113.24369299196,-37.743782318973,23.645274527453,2492098.3101186,941.61010674434,2640829.8153748,28.845274527453,0,0
-113.24369246195,-37.758956625334,23.649704970497,2492098.3101186,941.61010674434,2640829.8153748,28.849704970497,0,0
-113.24369193194,-37.774130931695,23.654135413541,2492098.3101186,941.61010674434,2640829.8153748,28.854135413541,0,0
-113.24369140192,-37.789305238056,23.658565856586,2492098.3101186,941.61010674434,2640829.8153748,28.858565856586,0,0
-113.24369087191,-37.804479544417,23.66299629963,2492098.3101186,941.61010674434,2640829.8153748,28.86299629963,0,0
-113.2436903419,-37.819653850778,23.667426742674,2492098.3101186,941.61010674434,2640829.8153748,28.867426742674,0,0
-113.24368981189,-37.83482815714,23.671857185719,2492098.3101186,941.61010674434,2640829.8153748,28.871857185719,0,0
-113.24368928188,-37.850002463501,23.676287628763,2492098.3101186,941.61010674434,2640829.8153748,28.876287628763,0,0
-113.24368875187,-37.865176769862,23.680718071807,2492098.3101186,941.61010674434,2640829.8153748,28.880718071807,0,0
-113.24368822186,-37.880351076223,23.685148514851,2492098.3101186,941.61010674434,2640829.8153748,28.885148514851,0,0
-113.24368769185,-37.895525382584,23.689578957896,2492098.3101186,941.61010674434,2640829.8153748,28.889578957896,0,0
-113.24368716183,-37.910699688945,23.69400940094,2492098.3101186,941.61010674434,2640829.8153748,28.89400940094,0,0
-113.24368663182,-37.925873995306,23.698439843984,2492098.3101186,941.61010674434,2640829.8153748,28.898439843984,0,0
-113.24368610181,-37.941048301668,23.702870287029,2492098.3101186,941.61010674434,2640829.8153748,28.902870287029,0,0
-113.2436855718,-37.956222608029,23.707300730073,2492098.3101186,941.61010674434,2640829.8153748,28.907300730073,0,0
-113.24368504179,-37.97139691439,23.711731173117,2492098.3101186,941.61010674434,2640829.8153748,28.911731173117,0,0
-113.24368451178,-37.986571220751,23.716161616162,2492098.3101186,941.61010674434,2640829.8153748,28.916161616162,0,0
-113.24368398177,-38.001745527112,23.720592059206,2492098.3101186,941.61010674434,2640829.8153748,28.920592059206,0,0
-113.24368345176,-38.016919833473,23.72502250225,2492098.3101186,941.61010674434,2640829.8153748,28.92502250225,0,0
-113.24368292175,-38.032094139834,23.729452945295,2492098.3101186,941.61010674434,2640829.8153748,28.929452945295,0,0
-113.24368239173,-38.047268446195,23.733883388339,2492098.3101186,941.61010674434,2640829.8153748,28.933883388339,0,0
-113.24368186172,-38.062442752557,23.738313831383,2492098.3101186,941.61010674434,2640829.8153748,28.938313831383,0,0
-113.24368133171,-38.077617058918,23.742744274427,2492098.3101186,941.61010674434,2640829.8153748,28.942744274427,0,0
-113.2436808017,-38.092791365279,23.747174717472,2492098.3101186,941.61010674434,2640829.8153748,28.947174717472,0,0
-113.24368027169,-38.10796567164,23.751605160516,2492098.3101186,941.61010674434,2640829.8153748,28.951605160516,0,0
-113.24367974168,-38.123139978001,23.75603560356,2492098.3101186,941.61010674434,2640829.8153748,28.95603560356,0,0
-113.24367921167,-38.138314284362,23.760466046605,2492098.3101186,941.61010674434,2640829.8153748,28.960466046605,0,0
-113.24367868166,-38.153488590723,23.764896489649,2492098.3101186,941.61010674434,2640829.8153748,28.964896489649,0,0
-113.24367815165,-38.168662897084,23.769326932693,2492098.3101186,941.61010674434,2640829.8153748,28.969326932693,0,0
-113.24367762163,-38.183837203446,23.773757375738,2492098.3101186,941.61010674434,2640829.8153748,28.973757375738,0,0
-113.24367709162,-38.199011509807,23.778187818782,2492098.3101186,941.61010674434,2640829.8153748,28.978187818782,0,0
-113.24367656161,-38.214185816168,23.782618261826,2492098.3101186,941.61010674434,2640829.8153748,28.982618261826,0,0
-113.2436760316,-38.229360122529,23.78704870487,2492098.3101186,941.61010674434,2640829.8153748,28.98704870487,0,0
-113.24367550159,-38.24453442889,23.791479147915,2492098.3101186,941.61010674434,2640829.8153748,28.991479147915,0,0
-113.24367497158,-38.259708735251,23.795909590959,2492098.3101186,941.61010674434,2640829.8153748,28.995909590959,0,0
-113.24367444157,-38.274883041612,23.800340034003,2492098.3101186,941.61010674434,2640829.8153748,29.000340034003,0,0
-113.24367391156,-38.290057347973,23.804770477048,2492098.3101186,941.61010674434,2640829.8153748,29.004770477048,0,0
-113.24367338154,-38.305231654335,23.809200920092,2492098.3101186,941.61010674434,2640829.8153748,29.009200920092,0,0
-113.24367285153,-38.320405960696,23.813631363136,2492098.3101186,941.61010674434,2640829.8153748,29.013631363136,0,0
-113.24367232152,-38.335580267057,23.818061806181,2492098.3101186,941.61010674434,2640829.8153748,29.018061806181,0,0
-113.24367179151,-38.350754573418,23.822492249225,2492098.3101186,941.61010674434,2640829.8153748,29.022492249225,0,0
-113.2436712615,-38.365928879779,23.826922692269,2492098.3101186,941.61010674434,2640829.8153748,29.026922692269,0,0
-113.24367073149,-38.38110318614,23.831353135314,2492098.3101186,941.61010674434,2640829.8153748,29.031353135314,0,0
-113.24367020148,-38.396277492501,23.835783578358,2492098.3101186,941.61010674434,2640829.8153748,29.035783578358,0,0
-113.24366967147,-38.411451798862,23.840214021402,2492098.3101186,941.61010674434,2640829.8153748,29.040214021402,0,0
-113.24366914146,-38.426626105224,23.844644464446,2492098.3101186,941.61010674434,2640829.8153748,29.044644464446,0,0
-113.24366861144,-38.441800411585,23.849074907491,2492098.3101186,941.61010674434,2640829.8153748,29.049074907491,0,0
-113.24366808143,-38.456974717946,23.853505350535,2492098.3101186,941.61010674434,2640829.8153748,29.053505350535,0,0
-113.24366755142,-38.472149024307,23.857935793579,2492098.3101186,941.61010674434,2640829.8153748,29.057935793579,0,0
-113.24366702141,-38.487323330668,23.862366236624,2492098.3101186,941.61010674434,2640829.8153748,29.062366236624,0,0
-113.2436664914,-38.502497637029,23.866796679668,2492098.3101186,941.61010674434,2640829.8153748,29.066796679668,0,0
-113.24366596139,-38.51767194339,23.871227122712,2492098.3101186,941.61010674434,2640829.8153748,29.071227122712,0,0
-113.24366543138,-38.532846249752,23.875657565757,2492098.3101186,941.61010674434,2640829.8153748,29.075657565757,0,0
-113.24366490137,-38.548020556113,23.880088008801,2492098.3101186,941.61010674434,2640829.8153748,29.080088008801,0,0
-113.24366437136,-38.563194862474,23.884518451845,2492098.3101186,941.61010674434,2640829.8153748,29.084518451845,0,0
-113.24366384134,-38.578369168835,23.888948894889,2492098.3101186,941.61010674434,2640829.8153748,29.088948894889,0,0
-113.24366331133,-38.593543475196,23.893379337934,2492098.3101186,941.61010674434,2640829.8153748,29.093379337934,0,0
-113.24366278132,-38.608717781557,23.897809780978,2492098.3101186,941.61010674434,2640829.8153748,29.097809780978,0,0
-113.24366225131,-38.623892087918,23.902240224022,2492098.3101186,941.61010674434,2640829.8153748,29.102240224022,0,0
-113.2436617213,-38.639066394279,23.906670667067,2492098.3101186,941.61010674434,2640829.8153748,29.106670667067,0,0
-113.24366119129,-38.654240700641,23.911101110111,2492098.3101186,941.61010674434,2640829.8153748,29.111101110111,0,0
-113.24366066128,-38.669415007002,23.915531553155,2492098.3101186,941.61010674434,2640829.8153748,29.115531553155,0,0
-113.24366013127,-38.684589313363,23.9199619962,2492098.3101186,941.61010674434,2640829.8153748,29.1199619962,0,0
-113.24365960125,-38.699763619724,23.924392439244,2492098.3101186,941.61010674434,2640829.8153748,29.124392439244,0,0
-113.24365907124,-38.714937926085,23.928822882288,2492098.3101186,941.61010674434,2640829.8153748,29.128822882288,0,0
-113.24365854123,-38.730112232446,23.933253325333,2492098.3101186,941.61010674434,2640829.8153748,29.133253325333,0,0
-113.24365801122,-38.745286538807,23.937683768377,2492098.3101186,941.61010674434,2640829.8153748,29.137683768377,0,0
-113.24365748121,-38.760460845168,23.942114211421,2492098.3101186,941.61010674434,2640829.8153748,29.142114211421,0,0
-113.2436569512,-38.77563515153,23.946544654465,2492098.3101186,941.61010674434,2640829.8153748,29.146544654465,0,0
-113.24365642119,-38.790809457891,23.95097509751,2492098.3101186,941.61010674434,2640829.8153748,29.15097509751,0,0
-113.24365589118,-38.805983764252,23.955405540554,2492098.3101186,941.61010674434,2640829.8153748,29.155405540554,0,0
-113.24365536117,-38.821158070613,23.959835983598,2492098.3101186,941.61010674434,2640829.8153748,29.159835983598,0,0
-113.24365483115,-38.836332376974,23.964266426643,2492098.3101186,941.61010674434,2640829.8153748,29.164266426643,0,0
-113.24365430114,-38.851506683335,23.968696869687,2492098.3101186,941.61010674434,2640829.8153748,29.168696869687,0,0
-113.24365377113,-38.866680989696,23.973127312731,2492098.3101186,941.61010674434,2640829.8153748,29.173127312731,0,0
-113.24365324112,-38.881855296057,23.977557755776,2492098.3101186,941.61010674434,2640829.8153748,29.177557755776,0,0
-113.24365271111,-38.897029602419,23.98198819882,2492098.3101186,941.61010674434,2640829.8153748,29.18198819882,0,0
-113.2436521811,-38.91220390878,23.986418641864,2492098.3101186,941.61010674434,2640829.8153748,29.186418641864,0,0
-113.24365165109,-38.927378215141,23.990849084908,2492098.3101186,941.61010674434,2640829.8153748,29.190849084908,0,0
-113.24365112108,-38.942552521502,23.995279527953,2492098.3101186,941.61010674434,2640829.8153748,29.195279527953,0,0
-113.24365059107,-38.957726827863,23.999709970997,2492098.3101186,941.61010674434,2640829.8153748,29.199709970997,0,0
-113.24365006105,-38.972901134224,24.004140414041,2492098.3101186,941.61010674434,2640829.8153748,29.204140414041,0,0
-113.24364953104,-38.988075440585,24.008570857086,2492098.3101186,941.61010674434,2640829.8153748,29.208570857086,0,0
-113.24364900103,-39.003249746946,24.01300130013,2492098.3101186,941.61010674434,2640829.8153748,29.21300130013,0,0
-113.24364847102,-39.018424053308,24.017431743174,2492098.3101186,941.61010674434,2640829.8153748,29.217431743174,0,0
-113.24364794101,-39.033598359669,24.021862186219,2492098.3101186,941.61010674434,2640829.8153748,29.221862186219,0,0
-113.243647411,-39.04877266603,24.026292629263,2492098.3101186,941.61010674434,2640829.8153748,29.226292629263,0,0
-113.24364688099,-39.063946972391,24.030723072307,2492098.3101186,941.61010674434,2640829.8153748,29.230723072307,0,0
-113.24364635098,-39.079121278752,24.035153515352,2492098.3101186,941.61010674434,2640829.8153748,29.235153515352,0,0
-113.24364582096,-39.094295585113,24.039583958396,2492098.3101186,941.61010674434,2640829.8153748,29.239583958396,0,0
-113.24364529095,-39.109469891474,24.04401440144,2492098.3101186,941.61010674434,2640829.8153748,29.24401440144,0,0
-113.24364476094,-39.124644197836,24.048444844484,2492098.3101186,941.61010674434,2640829.8153748,29.248444844484,0,0
-113.24364423093,-39.139818504197,24.052875287529,2492098.3101186,941.61010674434,2640829.8153748,29.252875287529,0,0
-113.24364370092,-39.154992810558,24.057305730573,2492098.3101186,941.61010674434,2640829.8153748,29.257305730573,0,0
-113.24364317091,-39.170167116919,24.061736173617,2492098.3101186,941.61010674434,2640829.8153748,29.261736173617,0,0
-113.2436426409,-39.18534142328,24.066166616662,2492098.3101186,941.61010674434,2640829.8153748,29.266166616662,0,0
-113.24364211089,-39.200515729641,24.070597059706,2492098.3101186,941.61010674434,2640829.8153748,29.270597059706,0,0
-113.24364158088,-39.215690036002,24.07502750275,2492098.3101186,941.61010674434,2640829.8153748,29.27502750275,0,0
-113.24364105086,-39.230864342363,24.079457945795,2492098.3101186,941.61010674434,2640829.8153748,29.279457945795,0,0
-113.24364052085,-39.246038648725,24.083888388839,2492098.3101186,941.61010674434,2640829.8153748,29.283888388839,0,0
-113.24363999084,-39.261212955086,24.088318831883,2492098.3101186,941.61010674434,2640829.8153748,29.288318831883,0,0
-113.24363946083,-39.276387261447,24.092749274927,2492098.3101186,941.61010674434,2640829.8153748,29.292749274927,0,0
-113.24363893082,-39.291561567808,24.097179717972,2492098.3101186,941.61010674434,2640829.8153748,29.297179717972,0,0
-113.24363840081,-39.306735874169,24.101610161016,2492098.3101186,941.61010674434,2640829.8153748,29.301610161016,0,0
-113.2436378708,-39.32191018053,24.10604060406,2492098.3101186,941.61010674434,2640829.8153748,29.30604060406,0,0
-113.24363734079,-39.337084486891,24.110471047105,2492098.3101186,941.61010674434,2640829.8153748,29.310471047105,0,0
-113.24363681078,-39.352258793252,24.114901490149,2492098.3101186,941.61010674434,2640829.8153748,29.314901490149,0,0
-113.24363628076,-39.367433099614,24.119331933193,2492098.3101186,941.61010674434,2640829.8153748,29.319331933193,0,0
-113.24363575075,-39.382607405975,24.123762376238,2492098.3101186,941.61010674434,2640829.8153748,29.323762376238,0,0
-113.24363522074,-39.397781712336,24.128192819282,2492098.3101186,941.61010674434,2640829.8153748,29.328192819282,0,0
-113.24363469073,-39.412956018697,24.132623262326,2492098.3101186,941.61010674434,2640829.8153748,29.332623262326,0,0
-113.24363416072,-39.428130325058,24.137053705371,2492098.3101186,941.61010674434,2640829.8153748,29.337053705371,0,0
-113.24363363071,-39.443304631419,24.141484148415,2492098.3101186,941.61010674434,2640829.8153748,29.341484148415,0,0
-113.2436331007,-39.45847893778,24.145914591459,2492098.3101186,941.61010674434,2640829.8153748,29.345914591459,0,0
-113.24363257069,-39.473653244141,24.150345034503,2492098.3101186,941.61010674434,2640829.8153748,29.350345034503,0,0
-113.24363204067,-39.488827550503,24.154775477548,2492098.3101186,941.61010674434,2640829.8153748,29.354775477548,0,0
-113.24363151066,-39.504001856864,24.159205920592,2492098.3101186,941.61010674434,2640829.8153748,29.359205920592,0,0
-113.24363098065,-39.519176163225,24.163636363636,2492098.3101186,941.61010674434,2640829.8153748,29.363636363636,0,0
-113.24363045064,-39.534350469586,24.168066806681,2492098.3101186,941.61010674434,2640829.8153748,29.368066806681,0,0
-113.24362992063,-39.549524775947,24.172497249725,2492098.3101186,941.61010674434,2640829.8153748,29.372497249725,0,0
-113.24362939062,-39.564699082308,24.176927692769,2492098.3101186,941.61010674434,2640829.8153748,29.376927692769,0,0
-113.24362886061,-39.579873388669,24.181358135814,2492098.3101186,941.61010674434,2640829.8153748,29.381358135814,0,0
-113.2436283306,-39.59504769503,24.185788578858,2492098.3101186,941.61010674434,2640829.8153748,29.385788578858,0,0
-113.24362780059,-39.610222001392,24.190219021902,2492098.3101186,941.61010674434,2640829.8153748,29.390219021902,0,0
-113.24362727057,-39.625396307753,24.194649464946,2492098.3101186,941.61010674434,2640829.8153748,29.394649464946,0,0
-113.24362674056,-39.640570614114,24.199079907991,2492098.3101186,941.61010674434,2640829.8153748,29.399079907991,0,0
-113.24362621055,-39.655744920475,24.203510351035,2492098.3101186,941.61010674434,2640829.8153748,29.403510351035,0,0
-113.24362568054,-39.670919226836,24.207940794079,2492098.3101186,941.61010674434,2640829.8153748,29.407940794079,0,0
-113.24362515053,-39.686093533197,24.212371237124,2492098.3101186,941.61010674434,2640829.8153748,29.412371237124,0,0
-113.24362462052,-39.701267839558,24.216801680168,2492098.3101186,941.61010674434,2640829.8153748,29.416801680168,0,0
-113.24362409051,-39.716442145919,24.221232123212,2492098.3101186,941.61010674434,2640829.8153748,29.421232123212,0,0
-113.2436235605,-39.731616452281,24.225662566257,2492098.3101186,941.61010674434,2640829.8153748,29.425662566257,0,0
-113.24362303048,-39.746790758642,24.230093009301,2492098.3101186,941.61010674434,2640829.8153748,29.430093009301,0,0
-113.24362250047,-39.761965065003,24.234523452345,2492098.3101186,941.61010674434,2640829.8153748,29.434523452345,0,0
-113.24362197046,-39.777139371364,24.23895389539,2492098.3101186,941.61010674434,2640829.8153748,29.43895389539,0,0
-113.24362144045,-39.792313677725,24.243384338434,2492098.3101186,941.61010674434,2640829.8153748,29.443384338434,0,0
-113.24362091044,-39.807487984086,24.247814781478,2492098.3101186,941.61010674434,2640829.8153748,29.447814781478,0,0
-113.24362038043,-39.822662290447,24.252245224522,2492098.3101186,941.61010674434,2640829.8153748,29.452245224522,0,0
-113.24361985042,-39.837836596809,24.256675667567,2492098.3101186,941.61010674434,2640829.8153748,29.456675667567,0,0
-113.24361932041,-39.85301090317,24.261106110611,2492098.3101186,941.61010674434,2640829.8153748,29.461106110611,0,0
-113.2436187904,-39.868185209531,24.265536553655,2492098.3101186,941.61010674434,2640829.8153748,29.465536553655,0,0
-113.24361826038,-39.883359515892,24.2699669967,2492098.3101186,941.61010674434,2640829.8153748,29.4699669967,0,0
-113.24361773037,-39.898533822253,24.274397439744,2492098.3101186,941.61010674434,2640829.8153748,29.474397439744,0,0
-113.24361720036,-39.913708128614,24.278827882788,2492098.3101186,941.61010674434,2640829.8153748,29.478827882788,0,0
-113.24361667035,-39.928882434975,24.283258325833,2492098.3101186,941.61010674434,2640829.8153748,29.483258325833,0,0
-113.24361614034,-39.944056741336,24.287688768877,2492098.3101186,941.61010674434,2640829.8153748,29.487688768877,0,0
-113.24361561033,-39.959231047698,24.292119211921,2492098.3101186,941.61010674434,2640829.8153748,29.492119211921,0,0
-113.24361508032,-39.974405354059,24.296549654965,2492098.3101186,941.61010674434,2640829.8153748,29.496549654965,0,0
-113.24361455031,-39.98957966042,24.30098009801,2492098.3101186,941.61010674434,2640829.8153748,29.50098009801,0,0
-113.2436140203,-40.004753966781,24.305410541054,2492098.3101186,941.61010674434,2640829.8153748,29.505410541054,0,0
-113.24361349028,-40.019928273142,24.309840984098,2492098.3101186,941.61010674434,2640829.8153748,29.509840984098,0,0
-113.24361296027,-40.035102579503,24.314271427143,2492098.3101186,941.61010674434,2640829.8153748,29.514271427143,0,0
-113.24361243026,-40.050276885864,24.318701870187,2492098.3101186,941.61010674434,2640829.8153748,29.518701870187,0,0
-113.24361189986,-40.065451191752,24.323132313231,2499923.104253,3185.4962355634,2637337.1627986,29.523132313231,0,0
-113.24361136843,-40.080625496383,24.327562756276,2499923.104253,3185.4962355634,2637337.1627986,29.527562756276,0,0
-113.243610837,-40.095799801014,24.33199319932,2499923.104253,3185.4962355634,2637337.1627986,29.53199319932,0,0
-113.24361030557,-40.110974105645,24.336423642364,2499923.104253,3185.4962355634,2637337.1627986,29.536423642364,0,0
-113.24360977413,-40.126148410276,24.340854085409,2499923.104253,3185.4962355634,2637337.1627986,29.540854085409,0,0
-113.2436092427,-40.141322714907,24.345284528453,2499923.104253,3185.4962355634,2637337.1627986,29.545284528453,0,0
-113.24360871127,-40.156497019537,24.349714971497,2499923.104253,3185.4962355634,2637337.1627986,29.549714971497,0,0
-113.24360817984,-40.171671324168,24.354145414541,2499923.104253,3185.4962355634,2637337.1627986,29.554145414541,0,0
-113.24360764841,-40.186845628799,24.358575857586,2499923.104253,3185.4962355634,2637337.1627986,29.558575857586,0,0
-113.24360711697,-40.20201993343,24.36300630063,2499923.104253,3185.4962355634,2637337.1627986,29.56300630063,0,0
-113.24360658554,-40.217194238061,24.367436743674,2499923.104253,3185.4962355634,2637337.1627986,29.567436743674,0,0
-113.24360605411,-40.232368542691,24.371867186719,2499923.104253,3185.4962355634,2637337.1627986,29.571867186719,0,0
-113.24360552268,-40.247542847322,24.376297629763,2499923.104253,3185.4962355634,2637337.1627986,29.576297629763,0,0
-113.24360499125,-40.262717151953,24.380728072807,2499923.104253,3185.4962355634,2637337.1627986,29.580728072807,0,0
-113.24360445981,-40.277891456584,24.385158515852,2499923.104253,3185.4962355634,2637337.1627986,29.585158515852,0,0
-113.24360392838,-40.293065761215,24.389588958896,2499923.104253,3185.4962355634,2637337.1627986,29.589588958896,0,0
-113.24360339695,-40.308240065846,24.39401940194,2499923.104253,3185.4962355634,2637337.1627986,29.59401940194,0,0
-113.24360286552,-40.323414370476,24.398449844984,2499923.104253,3185.4962355634,2637337.1627986,29.598449844984,0,0
-113.24360233409,-40.338588675107,24.402880288029,2499923.104253,3185.4962355634,2637337.1627986,29.602880288029,0,0
-113.24360180265,-40.353762979738,24.407310731073,2499923.104253,3185.4962355634,2637337.1627986,29.607310731073,0,0
-113.24360127122,-40.368937284369,24.411741174117,2499923.104253,3185.4962355634,2637337.1627986,29.611741174117,0,0
-113.24360073979,-40.384111589,24.416171617162,2499923.104253,3185.4962355634,2637337.1627986,29.616171617162,0,0
-113.24360020836,-40.399285893631,24.420602060206,2499923.104253,3185.4962355634,2637337.1627986,29.620602060206,0,0
-113.24359967693,-40.414460198261,24.42503250325,2499923.104253,3185.4962355634,2637337.1627986,29.62503250325,0,0
-113.24359914549,-40.429634502892,24.429462946295,2499923.104253,3185.4962355634,2637337.1627986,29.629462946295,0,0
-113.24359861406,-40.444808807523,24.433893389339,2499923.104253,3185.4962355634,2637337.1627986,29.633893389339,0,0
-113.24359808263,-40.459983112154,24.438323832383,2499923.104253,3185.4962355634,2637337.1627986,29.638323832383,0,0
-113.2435975512,-40.475157416785,24.442754275428,2499923.104253,3185.4962355634,2637337.1627986,29.642754275428,0,0
-113.24359701977,-40.490331721415,24.447184718472,2499923.104253,3185.4962355634,2637337.1627986,29.647184718472,0,0
-113.24359648833,-40.505506026046,24.451615161516,2499923.104253,3185.4962355634,2637337.1627986,29.651615161516,0,0
-113.2435959569,-40.520680330677,24.45604560456,2499923.104253,3185.4962355634,2637337.1627986,29.65604560456,0,0
-113.24359542547,-40.535854635308,24.460476047605,2499923.104253,3185.4962355634,2637337.1627986,29.660476047605,0,0
-113.24359489404,-40.551028939939,24.464906490649,2499923.104253,3185.4962355634,2637337.1627986,29.664906490649,0,0
-113.2435943626,-40.56620324457,24.469336933693,2499923.104253,3185.4962355634,2637337.1627986,29.669336933693,0,0
-113.24359383117,-40.5813775492,24.473767376738,2499923.104253,3185.4962355634,2637337.1627986,29.673767376738,0,0
-113.24359329974,-40.596551853831,24.478197819782,2499923.104253,3185.4962355634,2637337.1627986,29.678197819782,0,0
-113.24359276831,-40.611726158462,24.482628262826,2499923.104253,3185.4962355634,2637337.1627986,29.682628262826,0,0
-113.24359223688,-40.626900463093,24.487058705871,2499923.104253,3185.4962355634,2637337.1627986,29.687058705871,0,0
-113.24359170544,-40.642074767724,24.491489148915,2499923.104253,3185.4962355634,2637337.1627986,29.691489148915,0,0
-113.24359117401,-40.657249072355,24.495919591959,2499923.104253,3185.4962355634,2637337.1627986,29.695919591959,0,0
-113.24359064258,-40.672423376985,24.500350035003,2499923.104253,3185.4962355634,2637337.1627986,29.700350035003,0,0
-113.24359011115,-40.687597681616,24.504780478048,2499923.104253,3185.4962355634,2637337.1627986,29.704780478048,0,0
-113.24358957972,-40.702771986247,24.509210921092,2499923.104253,3185.4962355634,2637337.1627986,29.709210921092,0,0
-113.24358904828,-40.717946290878,24.513641364136,2499923.104253,3185.4962355634,2637337.1627986,29.713641364136,0,0
-113.24358851685,-40.733120595509,24.518071807181,2499923.104253,3185.4962355634,2637337.1627986,29.718071807181,0,0
-113.24358798542,-40.748294900139,24.522502250225,2499923.104253,3185.4962355634,2637337.1627986,29.722502250225,0,0
-113.24358745399,-40.76346920477,24.526932693269,2499923.104253,3185.4962355634,2637337.1627986,29.726932693269,0,0
-113.24358692256,-40.778643509401,24.531363136314,2499923.104253,3185.4962355634,2637337.1627986,29.731363136314,0,0
-113.24358639112,-40.793817814032,24.535793579358,2499923.104253,3185.4962355634,2637337.1627986,29.735793579358,0,0
-113.24358585969,-40.808992118663,24.540224022402,2499923.104253,3185.4962355634,2637337.1627986,29.740224022402,0,0
-113.24358532826,-40.824166423294,24.544654465447,2499923.104253,3185.4962355634,2637337.1627986,29.744654465447,0,0
-113.24358479683,-40.839340727924,24.549084908491,2499923.104253,3185.4962355634,2637337.1627986,29.749084908491,0,0
-113.2435842654,-40.854515032555,24.553515351535,2499923.104253,3185.4962355634,2637337.1627986,29.753515351535,0,0
-113.24358373396,-40.869689337186,24.557945794579,2499923.104253,3185.4962355634,2637337.1627986,29.757945794579,0,0
-113.24358320253,-40.884863641817,24.562376237624,2499923.104253,3185.4962355634,2637337.1627986,29.762376237624,0,0
-113.2435826711,-40.900037946448,24.566806680668,2499923.104253,3185.4962355634,2637337.1627986,29.766806680668,0,0
-113.24358213967,-40.915212251079,24.571237123712,2499923.104253,3185.4962355634,2637337.1627986,29.771237123712,0,0
-113.24358160824,-40.930386555709,24.575667566757,2499923.104253,3185.4962355634,2637337.1627986,29.775667566757,0,0
-113.2435810768,-40.94556086034,24.580098009801,2499923.104253,3185.4962355634,2637337.1627986,29.780098009801,0,0
-113.24358054537,-40.960735164971,24.584528452845,2499923.104253,3185.4962355634,2637337.1627986,29.784528452845,0,0
-113.24358001394,-40.975909469602,24.58895889589,2499923.104253,3185.4962355634,2637337.1627986,29.78895889589,0,0
-113.24357948251,-40.991083774233,24.593389338934,2499923.104253,3185.4962355634,2637337.1627986,29.793389338934,0,0
-113.24357895108,-41.006258078863,24.597819781978,2499923.104253,3185.4962355634,2637337.1627986,29.797819781978,0,0
-113.24357841964,-41.021432383494,24.602250225022,2499923.104253,3185.4962355634,2637337.1627986,29.802250225022,0,0
-113.24357788821,-41.036606688125,24.606680668067,2499923.104253,3185.4962355634,2637337.1627986,29.806680668067,0,0
-113.24357735678,-41.051780992756,24.611111111111,2499923.104253,3185.4962355634,2637337.1627986,29.811111111111,0,0
-113.24357682535,-41.066955297387,24.615541554155,2499923.104253,3185.4962355634,2637337.1627986,29.815541554155,0,0
-113.24357629392,-41.082129602018,24.6199719972,2499923.104253,3185.4962355634,2637337.1627986,29.8199719972,0,0
-113.24357576248,-41.097303906648,24.624402440244,2499923.104253,3185.4962355634,2637337.1627986,29.824402440244,0,0
-113.24357523105,-41.112478211279,24.628832883288,2499923.104253,3185.4962355634,2637337.1627986,29.828832883288,0,0
-113.24357469962,-41.12765251591,24.633263326333,2499923.104253,3185.4962355634,2637337.1627986,29.833263326333,0,0
-113.24357416819,-41.142826820541,24.637693769377,2499923.104253,3185.4962355634,2637337.1627986,29.837693769377,0,0
-113.24357363676,-41.158001125172,24.642124212421,2499923.104253,3185.4962355634,2637337.1627986,29.842124212421,0,0
-113.24357310532,-41.173175429803,24.646554655466,2499923.104253,3185.4962355634,2637337.1627986,29.846554655466,0,0
-113.24357257389,-41.188349734433,24.65098509851,2499923.104253,3185.4962355634,2637337.1627986,29.85098509851,0,0
-113.24357204246,-41.203524039064,24.655415541554,2499923.104253,3185.4962355634,2637337.1627986,29.855415541554,0,0
-113.24357151103,-41.218698343695,24.659845984598,2499923.104253,3185.4962355634,2637337.1627986,29.859845984598,0,0
-113.2435709796,-41.233872648326,24.664276427643,2499923.104253,3185.4962355634,2637337.1627986,29.864276427643,0,0
-113.24357044816,-41.249046952957,24.668706870687,2499923.104253,3185.4962355634,2637337.1627986,29.868706870687,0,0
-113.24356991673,-41.264221257587,24.673137313731,2499923.104253,3185.4962355634,2637337.1627986,29.873137313731,0,0
-113.2435693853,-41.279395562218,24.677567756776,2499923.104253,3185.4962355634,2637337.1627986,29.877567756776,0,0
-113.24356885387,-41.294569866849,24.68199819982,2499923.104253,3185.4962355634,2637337.1627986,29.88199819982,0,0
-113.24356832244,-41.30974417148,24.686428642864,2499923.104253,3185.4962355634,2637337.1627986,29.886428642864,0,0
-113.243567791,-41.324918476111,24.690859085909,2499923.104253,3185.4962355634,2637337.1627986,29.890859085909,0,0
-113.24356725957,-41.340092780742,24.695289528953,2499923.104253,3185.4962355634,2637337.1627986,29.895289528953,0,0
-113.24356672814,-41.355267085372,24.699719971997,2499923.104253,3185.4962355634,2637337.1627986,29.899719971997,0,0
-113.24356619671,-41.370441390003,24.704150415042,2499923.104253,3185.4962355634,2637337.1627986,29.904150415041,0,0
-113.24356566527,-41.385615694634,24.708580858086,2499923.104253,3185.4962355634,2637337.1627986,29.908580858086,0,0
-113.24356513384,-41.400789999265,24.71301130113,2499923.104253,3185.4962355634,2637337.1627986,29.91301130113,0,0
-113.24356460241,-41.415964303896,24.717441744174,2499923.104253,3185.4962355634,2637337.1627986,29.917441744174,0,0
-113.24356407098,-41.431138608527,24.721872187219,2499923.104253,3185.4962355634,2637337.1627986,29.921872187219,0,0
-113.24356353955,-41.446312913157,24.726302630263,2499923.104253,3185.4962355634,2637337.1627986,29.926302630263,0,0
-113.24356300811,-41.461487217788,24.730733073307,2499923.104253,3185.4962355634,2637337.1627986,29.930733073307,0,0
-113.24356247668,-41.476661522419,24.735163516352,2499923.104253,3185.4962355634,2637337.1627986,29.935163516352,0,0
-113.24356194525,-41.49183582705,24.739593959396,2499923.104253,3185.4962355634,2637337.1627986,29.939593959396,0,0
-113.24356141382,-41.507010131681,24.74402440244,2499923.104253,3185.4962355634,2637337.1627986,29.94402440244,0,0
-113.24356088239,-41.522184436312,24.748454845485,2499923.104253,3185.4962355634,2637337.1627986,29.948454845485,0,0
-113.24356035095,-41.537358740942,24.752885288529,2499923.104253,3185.4962355634,2637337.1627986,29.952885288529,0,0
-113.24355981952,-41.552533045573,24.757315731573,2499923.104253,3185.4962355634,2637337.1627986,29.957315731573,0,0
-113.24355928809,-41.567707350204,24.761746174617,2499923.104253,3185.4962355634,2637337.1627986,29.961746174617,0,0
-113.24355875666,-41.582881654835,24.766176617662,2499923.104253,3185.4962355634,2637337.1627986,29.966176617662,0,0
-113.24355822523,-41.598055959466,24.770607060706,2499923.104253,3185.4962355634,2637337.1627986,29.970607060706,0,0
-113.24355769379,-41.613230264096,24.77503750375,2499923.104253,3185.4962355634,2637337.1627986,29.97503750375,0,0
-113.24355716236,-41.628404568727,24.779467946795,2499923.104253,3185.4962355634,2637337.1627986,29.979467946795,0,0
-113.24355663093,-41.643578873358,24.783898389839,2499923.104253,3185.4962355634,2637337.1627986,29.983898389839,0,0
-113.2435560995,-41.658753177989,24.788328832883,2499923.104253,3185.4962355634,2637337.1627986,29.988328832883,0,0
-113.24355556807,-41.67392748262,24.792759275928,2499923.104253,3185.4962355634,2637337.1627986,29.992759275928,0,0
-113.24355503663,-41.689101787251,24.797189718972,2499923.104253,3185.4962355634,2637337.1627986,29.997189718972,0,0
-113.2435545052,-41.704276091881,24.801620162016,2499923.104253,3185.4962355634,2637337.1627986,30.001620162016,0,0
-113.24355397301,-41.719450397821,24.806050605061,2504329.5058109,688.25628756476,2633380.1614132,30.006050605061,0,0
-113.24355344067,-41.734624704,24.810481048105,2504329.5058109,688.25628756476,2633380.1614132,30.010481048105,0,0
-113.24355290834,-41.749799010179,24.814911491149,2504329.5058109,688.25628756476,2633380.1614132,30.014911491149,0,0
-113.243552376,-41.764973316359,24.819341934193,2504329.5058109,688.25628756476,2633380.1614132,30.019341934193,0,0
-113.24355184367,-41.780147622538,24.823772377238,2504329.5058109,688.25628756476,2633380.1614132,30.023772377238,0,0
-113.24355131133,-41.795321928718,24.828202820282,2504329.5058109,688.25628756476,2633380.1614132,30.028202820282,0,0
-113.243550779,-41.810496234897,24.832633263326,2504329.5058109,688.25628756476,2633380.1614132,30.032633263326,0,0
-113.24355024666,-41.825670541076,24.837063706371,2504329.5058109,688.25628756476,2633380.1614132,30.037063706371,0,0
-113.24354971433,-41.840844847256,24.841494149415,2504329.5058109,688.25628756476,2633380.1614132,30.041494149415,0,0
-113.24354918199,-41.856019153435,24.845924592459,2504329.5058109,688.25628756476,2633380.1614132,30.045924592459,0,0
-113.24354864966,-41.871193459615,24.850355035504,2504329.5058109,688.25628756476,2633380.1614132,30.050355035504,0,0
-113.24354811732,-41.886367765794,24.854785478548,2504329.5058109,688.25628756476,2633380.1614132,30.054785478548,0,0
-113.24354758499,-41.901542071973,24.859215921592,2504329.5058109,688.25628756476,2633380.1614132,30.059215921592,0,0
-113.24354705265,-41.916716378153,24.863646364636,2504329.5058109,688.25628756476,2633380.1614132,30.063646364636,0,0
-113.24354652032,-41.931890684332,24.868076807681,2504329.5058109,688.25628756476,2633380.1614132,30.068076807681,0,0
-113.24354598798,-41.947064990512,24.872507250725,2504329.5058109,688.25628756476,2633380.1614132,30.072507250725,0,0
-113.24354545565,-41.962239296691,24.876937693769,2504329.5058109,688.25628756476,2633380.1614132,30.076937693769,0,0
-113.24354492331,-41.97741360287,24.881368136814,2504329.5058109,688.25628756476,2633380.1614132,30.081368136814,0,0
-113.24354439098,-41.99258790905,24.885798579858,2504329.5058109,688.25628756476,2633380.1614132,30.085798579858,0,0
-113.24354385864,-42.007762215229,24.890229022902,2504329.5058109,688.25628756476,2633380.1614132,30.090229022902,0,0
-113.2435433263,-42.022936521409,24.894659465947,2504329.5058109,688.25628756476,2633380.1614132,30.094659465947,0,0
-113.24354279397,-42.038110827588,24.899089908991,2504329.5058109,688.25628756476,2633380.1614132,30.099089908991,0,0
-113.24354226163,-42.053285133767,24.903520352035,2504329.5058109,688.25628756476,2633380.1614132,30.103520352035,0,0
-113.2435417293,-42.068459439947,24.90795079508,2504329.5058109,688.25628756476,2633380.1614132,30.10795079508,0,0
-113.24354119696,-42.083633746126,24.912381238124,2504329.5058109,688.25628756476,2633380.1614132,30.112381238124,0,0
-113.24354066463,-42.098808052306,24.916811681168,2504329.5058109,688.25628756476,2633380.1614132,30.116811681168,0,0
-113.24354013229,-42.113982358485,24.921242124212,2504329.5058109,688.25628756476,2633380.1614132,30.121242124212,0,0
-113.24353959996,-42.129156664664,24.925672567257,2504329.5058109,688.25628756476,2633380.1614132,30.125672567257,0,0
-113.24353906762,-42.144330970844,24.930103010301,2504329.5058109,688.25628756476,2633380.1614132,30.130103010301,0,0
-113.24353853529,-42.159505277023,24.934533453345,2504329.5058109,688.25628756476,2633380.1614132,30.134533453345,0,0
-113.24353800295,-42.174679583203,24.93896389639,2504329.5058109,688.25628756476,2633380.1614132,30.13896389639,0,0
-113.24353747062,-42.189853889382,24.943394339434,2504329.5058109,688.25628756476,2633380.1614132,30.143394339434,0,0
-113.24353693828,-42.205028195561,24.947824782478,2504329.5058109,688.25628756476,2633380.1614132,30.147824782478,0,0
-113.24353640595,-42.220202501741,24.952255225523,2504329.5058109,688.25628756476,2633380.1614132,30.152255225523,0,0
-113.24353587361,-42.23537680792,24.956685668567,2504329.5058109,688.25628756476,2633380.1614132,30.156685668567,0,0
-113.24353534128,-42.2505511141,24.961116111611,2504329.5058109,688.25628756476,2633380.1614132,30.161116111611,0,0
-113.24353480894,-42.265725420279,24.965546554655,2504329.5058109,688.25628756476,2633380.1614132,30.165546554655,0,0
-113.24353427661,-42.280899726458,24.9699769977,2504329.5058109,688.25628756476,2633380.1614132,30.1699769977,0,0
-113.24353374427,-42.296074032638,24.974407440744,2504329.5058109,688.25628756476,2633380.1614132,30.174407440744,0,0
-113.24353321194,-42.311248338817,24.978837883788,2504329.5058109,688.25628756476,2633380.1614132,30.178837883788,0,0
-113.2435326796,-42.326422644997,24.983268326833,2504329.5058109,688.25628756476,2633380.1614132,30.183268326833,0,0
-113.24353214727,-42.341596951176,24.987698769877,2504329.5058109,688.25628756476,2633380.1614132,30.187698769877,0,0
-113.24353161493,-42.356771257355,24.992129212921,2504329.5058109,688.25628756476,2633380.1614132,30.192129212921,0,0
-113.2435310826,-42.371945563535,24.996559655966,2504329.5058109,688.25628756476,2633380.1614132,30.196559655966,0,0
-113.24353055026,-42.387119869714,25.00099009901,2504329.5058109,688.25628756476,2633380.1614132,30.20099009901,0,0
-113.24353001793,-42.402294175894,25.005420542054,2504329.5058109,688.25628756476,2633380.1614132,30.205420542054,0,0
-113.24352948559,-42.417468482073,25.009850985099,2504329.5058109,688.25628756476,2633380.1614132,30.209850985099,0,0
-113.24352895326,-42.432642788252,25.014281428143,2504329.5058109,688.25628756476,2633380.1614132,30.214281428143,0,0
-113.24352842092,-42.447817094432,25.018711871187,2504329.5058109,688.25628756476,2633380.1614132,30.218711871187,0,0
-113.24352788859,-42.462991400611,25.023142314231,2504329.5058109,688.25628756476,2633380.1614132,30.223142314231,0,0
-113.24352735625,-42.478165706791,25.027572757276,2504329.5058109,688.25628756476,2633380.1614132,30.227572757276,0,0
-113.24352682392,-42.49334001297,25.03200320032,2504329.5058109,688.25628756476,2633380.1614132,30.23200320032,0,0
-113.24352629158,-42.508514319149,25.036433643364,2504329.5058109,688.25628756476,2633380.1614132,30.236433643364,0,0
-113.24352575925,-42.523688625329,25.040864086409,2504329.5058109,688.25628756476,2633380.1614132,30.240864086409,0,0
-113.24352522691,-42.538862931508,25.045294529453,2504329.5058109,688.25628756476,2633380.1614132,30.245294529453,0,0
-113.24352469458,-42.554037237688,25.049724972497,2504329.5058109,688.25628756476,2633380.1614132,30.249724972497,0,0
-113.24352416224,-42.569211543867,25.054155415542,2504329.5058109,688.25628756476,2633380.1614132,30.254155415542,0,0
-113.24352362991,-42.584385850046,25.058585858586,2504329.5058109,688.25628756476,2633380.1614132,30.258585858586,0,0
-113.24352309757,-42.599560156226,25.06301630163,2504329.5058109,688.25628756476,2633380.1614132,30.26301630163,0,0
-113.24352256524,-42.614734462405,25.067446744674,2504329.5058109,688.25628756476,2633380.1614132,30.267446744674,0,0
-113.2435220329,-42.629908768585,25.071877187719,2504329.5058109,688.25628756476,2633380.1614132,30.271877187719,0,0
-113.24352150057,-42.645083074764,25.076307630763,2504329.5058109,688.25628756476,2633380.1614132,30.276307630763,0,0
-113.24352096823,-42.660257380943,25.080738073807,2504329.5058109,688.25628756476,2633380.1614132,30.280738073807,0,0
-113.2435204359,-42.675431687123,25.085168516852,2504329.5058109,688.25628756476,2633380.1614132,30.285168516852,0,0
-113.24351990356,-42.690605993302,25.089598959896,2504329.5058109,688.25628756476,2633380.1614132,30.289598959896,0,0
-113.24351937123,-42.705780299482,25.09402940294,2504329.5058109,688.25628756476,2633380.1614132,30.29402940294,0,0
-113.24351883889,-42.720954605661,25.098459845985,2504329.5058109,688.25628756476,2633380.1614132,30.298459845985,0,0
-113.24351830656,-42.73612891184,25.102890289029,2504329.5058109,688.25628756476,2633380.1614132,30.302890289029,0,0
-113.24351777422,-42.75130321802,25.107320732073,2504329.5058109,688.25628756476,2633380.1614132,30.307320732073,0,0
-113.24351724188,-42.766477524199,25.111751175118,2504329.5058109,688.25628756476,2633380.1614132,30.311751175118,0,0
-113.24351670955,-42.781651830379,25.116181618162,2504329.5058109,688.25628756476,2633380.1614132,30.316181618162,0,0
-113.24351617721,-42.796826136558,25.120612061206,2504329.5058109,688.25628756476,2633380.1614132,30.320612061206,0,0
-113.24351564488,-42.812000442737,25.12504250425,2504329.5058109,688.25628756476,2633380.1614132,30.32504250425,0,0
-113.24351511254,-42.827174748917,25.129472947295,2504329.5058109,688.25628756476,2633380.1614132,30.329472947295,0,0
-113.24351458021,-42.842349055096,25.133903390339,2504329.5058109,688.25628756476,2633380.1614132,30.333903390339,0,0
-113.24351404787,-42.857523361276,25.138333833383,2504329.5058109,688.25628756476,2633380.1614132,30.338333833383,0,0
-113.24351351554,-42.872697667455,25.142764276428,2504329.5058109,688.25628756476,2633380.1614132,30.342764276428,0,0
-113.2435129832,-42.887871973634,25.147194719472,2504329.5058109,688.25628756476,2633380.1614132,30.347194719472,0,0
-113.24351245087,-42.903046279814,25.151625162516,2504329.5058109,688.25628756476,2633380.1614132,30.351625162516,0,0
-113.24351191853,-42.918220585993,25.156055605561,2504329.5058109,688.25628756476,2633380.1614132,30.356055605561,0,0
-113.2435113862,-42.933394892173,25.160486048605,2504329.5058109,688.25628756476,2633380.1614132,30.360486048605,0,0
-113.24351085386,-42.948569198352,25.164916491649,2504329.5058109,688.25628756476,2633380.1614132,30.364916491649,0,0
-113.24351032153,-42.963743504531,25.169346934693,2504329.5058109,688.25628756476,2633380.1614132,30.369346934693,0,0
-113.24350978919,-42.978917810711,25.173777377738,2504329.5058109,688.25628756476,2633380.1614132,30.373777377738,0,0
-113.24350925686,-42.99409211689,25.178207820782,2504329.5058109,688.25628756476,2633380.1614132,30.378207820782,0,0
-113.24350872452,-43.00926642307,25.182638263826,2504329.5058109,688.25628756476,2633380.1614132,30.382638263826,0,0
-113.24350819219,-43.024440729249,25.187068706871,2504329.5058109,688.25628756476,2633380.1614132,30.387068706871,0,0
-113.24350765985,-43.039615035428,25.191499149915,2504329.5058109,688.25628756476,2633380.1614132,30.391499149915,0,0
-113.24350712752,-43.054789341608,25.195929592959,2504329.5058109,688.25628756476,2633380.1614132,30.395929592959,0,0
-113.24350659518,-43.069963647787,25.200360036004,2504329.5058109,688.25628756476,2633380.1614132,30.400360036004,0,0
-113.24350606285,-43.085137953967,25.204790479048,2504329.5058109,688.25628756476,2633380.1614132,30.404790479048,0,0
-113.24350553051,-43.100312260146,25.209220922092,2504329.5058109,688.25628756476,2633380.1614132,30.409220922092,0,0
-113.24350499818,-43.115486566325,25.213651365137,2504329.5058109,688.25628756476,2633380.1614132,30.413651365137,0,0
-113.24350446584,-43.130660872505,25.218081808181,2504329.5058109,688.25628756476,2633380.1614132,30.418081808181,0,0
-113.24350393351,-43.145835178684,25.222512251225,2504329.5058109,688.25628756476,2633380.1614132,30.422512251225,0,0
-113.24350340117,-43.161009484864,25.226942694269,2504329.5058109,688.25628756476,2633380.1614132,30.426942694269,0,0
-113.24350286884,-43.176183791043,25.231373137314,2504329.5058109,688.25628756476,2633380.1614132,30.431373137314,0,0
-113.2435023365,-43.191358097222,25.235803580358,2504329.5058109,688.25628756476,2633380.1614132,30.435803580358,0,0
-113.24350180417,-43.206532403402,25.240234023402,2504329.5058109,688.25628756476,2633380.1614132,30.440234023402,0,0
-113.24350127183,-43.221706709581,25.244664466447,2504329.5058109,688.25628756476,2633380.1614132,30.444664466447,0,0
-113.2435007395,-43.236881015761,25.249094909491,2504329.5058109,688.25628756476,2633380.1614132,30.449094909491,0,0
-113.24350020716,-43.25205532194,25.253525352535,2504329.5058109,688.25628756476,2633380.1614132,30.453525352535,0,0
-113.24349967483,-43.267229628119,25.25795579558,2504329.5058109,688.25628756476,2633380.1614132,30.45795579558,0,0
-113.24349914249,-43.282403934299,25.262386238624,2504329.5058109,688.25628756476,2633380.1614132,30.462386238624,0,0
-113.24349861016,-43.297578240478,25.266816681668,2504329.5058109,688.25628756476,2633380.1614132,30.466816681668,0,0
-113.24349807782,-43.312752546658,25.271247124712,2504329.5058109,688.25628756476,2633380.1614132,30.471247124712,0,0
-113.24349754549,-43.327926852837,25.275677567757,2504329.5058109,688.25628756476,2633380.1614132,30.475677567757,0,0
-113.24349701315,-43.343101159016,25.280108010801,2504329.5058109,688.25628756476,2633380.1614132,30.480108010801,0,0
-113.24349648082,-43.358275465196,25.284538453845,2504329.5058109,688.25628756476,2633380.1614132,30.484538453845,0,0
-113.24349594848,-43.373449771375,25.28896889689,2504329.5058109,688.25628756476,2633380.1614132,30.48896889689,0,0
-113.24349541615,-43.388624077555,25.293399339934,2504329.5058109,688.25628756476,2633380.1614132,30.493399339934,0,0
-113.24349488381,-43.403798383734,25.297829782978,2504329.5058109,688.25628756476,2633380.1614132,30.497829782978,0,0
-113.24349435148,-43.418972689913,25.302260226023,2504329.5058109,688.25628756476,2633380.1614132,30.502260226023,0,0
-113.24349381914,-43.434146996093,25.306690669067,2504329.5058109,688.25628756476,2633380.1614132,30.506690669067,0,0
-113.24349328681,-43.449321302272,25.311121112111,2504329.5058109,688.25628756476,2633380.1614132,30.511121112111,0,0
-113.24349275447,-43.464495608452,25.315551555156,2504329.5058109,688.25628756476,2633380.1614132,30.515551555156,0,0
-113.24349222213,-43.479669914631,25.3199819982,2504329.5058109,688.25628756476,2633380.1614132,30.5199819982,0,0
-113.2434916898,-43.49484422081,25.324412441244,2504329.5058109,688.25628756476,2633380.1614132,30.524412441244,0,0
-113.24349115746,-43.51001852699,25.328842884288,2504329.5058109,688.25628756476,2633380.1614132,30.528842884288,0,0
-113.24349062513,-43.525192833169,25.333273327333,2504329.5058109,688.25628756476,2633380.1614132,30.533273327333,0,0
-113.24349009279,-43.540367139349,25.337703770377,2504329.5058109,688.25628756476,2633380.1614132,30.537703770377,0,0
-113.24348956046,-43.555541445528,25.342134213421,2504329.5058109,688.25628756476,2633380.1614132,30.542134213421,0,0
-113.24348902812,-43.570715751707,25.346564656466,2504329.5058109,688.25628756476,2633380.1614132,30.546564656466,0,0
-113.24348849579,-43.585890057887,25.35099509951,2504329.5058109,688.25628756476,2633380.1614132,30.55099509951,0,0
-113.24348796345,-43.601064364066,25.355425542554,2504329.5058109,688.25628756476,2633380.1614132,30.555425542554,0,0
-113.24348743112,-43.616238670246,25.359855985599,2504329.5058109,688.25628756476,2633380.1614132,30.559855985599,0,0
-113.24348689878,-43.631412976425,25.364286428643,2504329.5058109,688.25628756476,2633380.1614132,30.564286428643,0,0
-113.24348636645,-43.646587282604,25.368716871687,2504329.5058109,688.25628756476,2633380.1614132,30.568716871687,0,0
-113.24348583411,-43.661761588784,25.373147314731,2504329.5058109,688.25628756476,2633380.1614132,30.573147314731,0,0
-113.24348530178,-43.676935894963,25.377577757776,2504329.5058109,688.25628756476,2633380.1614132,30.577577757776,0,0
-113.24348476944,-43.692110201142,25.38200820082,2504329.5058109,688.25628756476,2633380.1614132,30.58200820082,0,0
-113.24348423711,-43.707284507322,25.386438643864,2504329.5058109,688.25628756476,2633380.1614132,30.586438643864,0,0
-113.24348370477,-43.722458813501,25.390869086909,2504329.5058109,688.25628756476,2633380.1614132,30.590869086909,0,0
-113.24348317244,-43.737633119681,25.395299529953,2504329.5058109,688.25628756476,2633380.1614132,30.595299529953,0,0
-113.2434826401,-43.75280742586,25.399729972997,2504329.5058109,688.25628756476,2633380.1614132,30.599729972997,0,0
-113.24348210777,-43.767981732039,25.404160416042,2504329.5058109,688.25628756476,2633380.1614132,30.604160416042,0,0
-113.24348157543,-43.783156038219,25.408590859086,2504329.5058109,688.25628756476,2633380.1614132,30.608590859086,0,0
-113.2434810431,-43.798330344398,25.41302130213,2504329.5058109,688.25628756476,2633380.1614132,30.61302130213,0,0
-113.24348051076,-43.813504650578,25.417451745175,2504329.5058109,688.25628756476,2633380.1614132,30.617451745175,0,0
-113.24347997843,-43.828678956757,25.421882188219,2504329.5058109,688.25628756476,2633380.1614132,30.621882188219,0,0
-113.24347944609,-43.843853262936,25.426312631263,2504329.5058109,688.25628756476,2633380.1614132,30.626312631263,0,0
-113.24347891376,-43.859027569116,25.430743074307,2504329.5058109,688.25628756476,2633380.1614132,30.630743074307,0,0
-113.24347838142,-43.874201875295,25.435173517352,2504329.5058109,688.25628756476,2633380.1614132,30.635173517352,0,0
-113.24347784909,-43.889376181475,25.439603960396,2504329.5058109,688.25628756476,2633380.1614132,30.639603960396,0,0
-113.24347731675,-43.904550487654,25.44403440344,2504329.5058109,688.25628756476,2633380.1614132,30.64403440344,0,0
-113.24347678442,-43.919724793834,25.448464846485,2504329.5058109,688.25628756476,2633380.1614132,30.648464846485,0,0
-113.24347625208,-43.934899100013,25.452895289529,2504329.5058109,688.25628756476,2633380.1614132,30.652895289529,0,0
-113.24347571975,-43.950073406192,25.457325732573,2504329.5058109,688.25628756476,2633380.1614132,30.657325732573,0,0
-113.24347518741,-43.965247712372,25.461756175618,2504329.5058109,688.25628756476,2633380.1614132,30.661756175618,0,0
-113.24347465508,-43.980422018551,25.466186618662,2504329.5058109,688.25628756476,2633380.1614132,30.666186618662,0,0
-113.24347412274,-43.99559632473,25.470617061706,2504329.5058109,688.25628756476,2633380.1614132,30.670617061706,0,0
-113.24347359041,-44.01077063091,25.47504750475,2504329.5058109,688.25628756476,2633380.1614132,30.67504750475,0,0
-113.24347305807,-44.025944937089,25.479477947795,2504329.5058109,688.25628756476,2633380.1614132,30.679477947795,0,0
-113.24347252574,-44.041119243269,25.483908390839,2504329.5058109,688.25628756476,2633380.1614132,30.683908390839,0,0
-113.2434719934,-44.056293549448,25.488338833883,2504329.5058109,688.25628756476,2633380.1614132,30.688338833883,0,0
-113.24347146107,-44.071467855627,25.492769276928,2504329.5058109,688.25628756476,2633380.1614132,30.692769276928,0,0
-113.24347092873,-44.086642161807,25.497199719972,2504329.5058109,688.25628756476,2633380.1614132,30.697199719972,0,0
-113.2434703964,-44.101816467986,25.501630163016,2504329.5058109,688.25628756476,2633380.1614132,30.701630163016,0,0
-113.24346986406,-44.116990774166,25.506060606061,2504329.5058109,688.25628756476,2633380.1614132,30.706060606061,0,0
-113.24346933173,-44.132165080345,25.510491049105,2504329.5058109,688.25628756476,2633380.1614132,30.710491049105,0,0
-113.24346879939,-44.147339386524,25.514921492149,2504329.5058109,688.25628756476,2633380.1614132,30.714921492149,0,0
-113.24346826706,-44.162513692704,25.519351935194,2504329.5058109,688.25628756476,2633380.1614132,30.719351935194,0,0
-113.24346773472,-44.177687998883,25.523782378238,2504329.5058109,688.25628756476,2633380.1614132,30.723782378238,0,0
-113.24346720239,-44.192862305063,25.528212821282,2504329.5058109,688.25628756476,2633380.1614132,30.728212821282,0,0
-113.24346667005,-44.208036611242,25.532643264326,2504329.5058109,688.25628756476,2633380.1614132,30.732643264326,0,0
-113.24346613771,-44.223210917421,25.537073707371,2504329.5058109,688.25628756476,2633380.1614132,30.737073707371,0,0
-113.24346560538,-44.238385223601,25.541504150415,2504329.5058109,688.25628756476,2633380.1614132,30.741504150415,0,0
-113.24346507304,-44.25355952978,25.545934593459,2504329.5058109,688.25628756476,2633380.1614132,30.745934593459,0,0
-113.24346454071,-44.26873383596,25.550365036504,2504329.5058109,688.25628756476,2633380.1614132,30.750365036504,0,0
-113.24346400837,-44.283908142139,25.554795479548,2504329.5058109,688.25628756476,2633380.1614132,30.754795479548,0,0
-113.24346347604,-44.299082448318,25.559225922592,2504329.5058109,688.25628756476,2633380.1614132,30.759225922592,0,0
-113.2434629437,-44.314256754498,25.563656365637,2504329.5058109,688.25628756476,2633380.1614132,30.763656365637,0,0
-113.24346241137,-44.329431060677,25.568086808681,2504329.5058109,688.25628756476,2633380.1614132,30.768086808681,0,0
-113.24346187903,-44.344605366857,25.572517251725,2504329.5058109,688.25628756476,2633380.1614132,30.772517251725,0,0
-113.2434613467,-44.359779673036,25.576947694769,2504329.5058109,688.25628756476,2633380.1614132,30.776947694769,0,0
-113.24346081436,-44.374953979215,25.581378137814,2504329.5058109,688.25628756476,2633380.1614132,30.781378137814,0,0
-113.24346028203,-44.390128285395,25.585808580858,2504329.5058109,688.25628756476,2633380.1614132,30.785808580858,0,0
-113.24345974969,-44.405302591574,25.590239023902,2504329.5058109,688.25628756476,2633380.1614132,30.790239023902,0,0
-113.24345921736,-44.420476897754,25.594669466947,2504329.5058109,688.25628756476,2633380.1614132,30.794669466947,0,0
-113.24345868502,-44.435651203933,25.599099909991,2504329.5058109,688.25628756476,2633380.1614132,30.799099909991,0,0
-113.24345815269,-44.450825510112,25.603530353035,2504329.5058109,688.25628756476,2633380.1614132,30.803530353035,0,0
-113.24345762035,-44.465999816292,25.60796079608,2504329.5058109,688.25628756476,2633380.1614132,30.80796079608,0,0
-113.24345708802,-44.481174122471,25.612391239124,2504329.5058109,688.25628756476,2633380.1614132,30.812391239124,0,0
-113.24345655568,-44.496348428651,25.616821682168,2504329.5058109,688.25628756476,2633380.1614132,30.816821682168,0,0
-113.24345602335,-44.51152273483,25.621252125213,2504329.5058109,688.25628756476,2633380.1614132,30.821252125213,0,0
-113.24345549101,-44.526697041009,25.625682568257,2504329.5058109,688.25628756476,2633380.1614132,30.825682568257,0,0
-113.24345495868,-44.541871347189,25.630113011301,2504329.5058109,688.25628756476,2633380.1614132,30.830113011301,0,0
-113.24345442634,-44.557045653368,25.634543454345,2504329.5058109,688.25628756476,2633380.1614132,30.834543454345,0,0
-113.24345389401,-44.572219959548,25.63897389739,2504329.5058109,688.25628756476,2633380.1614132,30.83897389739,0,0
-113.24345336167,-44.587394265727,25.643404340434,2504329.5058109,688.25628756476,2633380.1614132,30.843404340434,0,0
-113.24345282934,-44.602568571906,25.647834783478,2504329.5058109,688.25628756476,2633380.1614132,30.847834783478,0,0
-113.243452297,-44.617742878086,25.652265226523,2504329.5058109,688.25628756476,2633380.1614132,30.852265226523,0,0
-113.24345176467,-44.632917184265,25.656695669567,2504329.5058109,688.25628756476,2633380.1614132,30.856695669567,0,0
-113.24345123233,-44.648091490445,25.661126112611,2504329.5058109,688.25628756476,2633380.1614132,30.861126112611,0,0
-113.2434507,-44.663265796624,25.665556555656,2504329.5058109,688.25628756476,2633380.1614132,30.865556555656,0,0
-113.24345016766,-44.678440102803,25.6699869987,2504329.5058109,688.25628756476,2633380.1614132,30.8699869987,0,0
-113.24344963533,-44.693614408983,25.674417441744,2504329.5058109,688.25628756476,2633380.1614132,30.874417441744,0,0
-113.24344910299,-44.708788715162,25.678847884788,2504329.5058109,688.25628756476,2633380.1614132,30.878847884788,0,0
-113.24344857066,-44.723963021342,25.683278327833,2504329.5058109,688.25628756476,2633380.1614132,30.883278327833,0,0
-113.24344803832,-44.739137327521,25.687708770877,2504329.5058109,688.25628756476,2633380.1614132,30.887708770877,0,0
-113.24344750599,-44.7543116337,25.692139213921,2504329.5058109,688.25628756476,2633380.1614132,30.892139213921,0,0
-113.24344697365,-44.76948593988,25.696569656966,2504329.5058109,688.25628756476,2633380.1614132,30.896569656966,0,0
-113.24344644132,-44.784660246059,25.70100010001,2504329.5058109,688.25628756476,2633380.1614132,30.90100010001,0,0
-113.24344590898,-44.799834552239,25.705430543054,2504329.5058109,688.25628756476,2633380.1614132,30.905430543054,0,0
-113.24344537665,-44.815008858418,25.709860986099,2504329.5058109,688.25628756476,2633380.1614132,30.909860986099,0,0
-113.24344484431,-44.830183164597,25.714291429143,2504329.5058109,688.25628756476,2633380.1614132,30.914291429143,0,0
-113.24344431198,-44.845357470777,25.718721872187,2504329.5058109,688.25628756476,2633380.1614132,30.918721872187,0,0
-113.24344377964,-44.860531776956,25.723152315232,2504329.5058109,688.25628756476,2633380.1614132,30.923152315232,0,0
-113.24344324731,-44.875706083136,25.727582758276,2504329.5058109,688.25628756476,2633380.1614132,30.927582758276,0,0
-113.24344271497,-44.890880389315,25.73201320132,2504329.5058109,688.25628756476,2633380.1614132,30.93201320132,0,0
-113.24344218264,-44.906054695494,25.736443644364,2504329.5058109,688.25628756476,2633380.1614132,30.936443644364,0,0
-113.2434416503,-44.921229001674,25.740874087409,2504329.5058109,688.25628756476,2633380.1614132,30.940874087409,0,0
-113.24344111796,-44.936403307853,25.745304530453,2504329.5058109,688.25628756476,2633380.1614132,30.945304530453,0,0
-113.24344058563,-44.951577614033,25.749734973497,2504329.5058109,688.25628756476,2633380.1614132,30.949734973497,0,0
-113.24344005329,-44.966751920212,25.754165416542,2504329.5058109,688.25628756476,2633380.1614132,30.954165416542,0,0
-113.24343952096,-44.981926226391,25.758595859586,2504329.5058109,688.25628756476,2633380.1614132,30.958595859586,0,0
-113.24343898862,-44.997100532571,25.76302630263,2504329.5058109,688.25628756476,2633380.1614132,30.96302630263,0,0
-113.24343845629,-45.01227483875,25.767456745675,2504329.5058109,688.25628756476,2633380.1614132,30.967456745675,0,0
-113.24343792395,-45.02744914493,25.771887188719,2504329.5058109,688.25628756476,2633380.1614132,30.971887188719,0,0
-113.24343739162,-45.042623451109,25.776317631763,2504329.5058109,688.25628756476,2633380.1614132,30.976317631763,0,0
-113.24343685928,-45.057797757288,25.780748074807,2504329.5058109,688.25628756476,2633380.1614132,30.980748074807,0,0
-113.24343632695,-45.072972063468,25.785178517852,2504329.5058109,688.25628756476,2633380.1614132,30.985178517852,0,0
-113.24343579461,-45.088146369647,25.789608960896,2504329.5058109,688.25628756476,2633380.1614132,30.989608960896,0,0
-113.24343526228,-45.103320675827,25.79403940394,2504329.5058109,688.25628756476,2633380.1614132,30.99403940394,0,0
-113.24343472994,-45.118494982006,25.798469846985,2504329.5058109,688.25628756476,2633380.1614132,30.998469846985,0,0
-113.24343419761,-45.133669288185,25.802900290029,2504329.5058109,688.25628756476,2633380.1614132,31.002900290029,0,0
-113.24343366527,-45.148843594365,25.807330733073,2504329.5058109,688.25628756476,2633380.1614132,31.007330733073,0,0
-113.24343313294,-45.164017900544,25.811761176118,2504329.5058109,688.25628756476,2633380.1614132,31.011761176118,0,0
-113.2434326006,-45.179192206724,25.816191619162,2504329.5058109,688.25628756476,2633380.1614132,31.016191619162,0,0
-113.24343206827,-45.194366512903,25.820622062206,2504329.5058109,688.25628756476,2633380.1614132,31.020622062206,0,0
-113.24343153593,-45.209540819082,25.825052505251,2504329.5058109,688.25628756476,2633380.1614132,31.025052505251,0,0
-113.2434310036,-45.224715125262,25.829482948295,2504329.5058109,688.25628756476,2633380.1614132,31.029482948295,0,0
-113.24343047126,-45.239889431441,25.833913391339,2504329.5058109,688.25628756476,2633380.1614132,31.033913391339,0,0
-113.24342993893,-45.255063737621,25.838343834383,2504329.5058109,688.25628756476,2633380.1614132,31.038343834383,0,0
-113.24342940659,-45.2702380438,25.842774277428,2504329.5058109,688.25628756476,2633380.1614132,31.042774277428,0,0
-113.24342887426,-45.285412349979,25.847204720472,2504329.5058109,688.25628756476,2633380.1614132,31.047204720472,0,0
-113.24342834192,-45.300586656159,25.851635163516,2504329.5058109,688.25628756476,2633380.1614132,31.051635163516,0,0
-113.24342780959,-45.315760962338,25.856065606561,2504329.5058109,688.25628756476,2633380.1614132,31.056065606561,0,0
-113.24342727725,-45.330935268518,25.860496049605,2504329.5058109,688.25628756476,2633380.1614132,31.060496049605,0,0
-113.24342674492,-45.346109574697,25.864926492649,2504329.5058109,688.25628756476,2633380.1614132,31.064926492649,0,0
-113.24342621258,-45.361283880876,25.869356935694,2504329.5058109,688.25628756476,2633380.1614132,31.069356935694,0,0
-113.24342568025,-45.376458187056,25.873787378738,2504329.5058109,688.25628756476,2633380.1614132,31.073787378738,0,0
-113.24342514791,-45.391632493235,25.878217821782,2504329.5058109,688.25628756476,2633380.1614132,31.078217821782,0,0
-113.24342461558,-45.406806799415,25.882648264826,2504329.5058109,688.25628756476,2633380.1614132,31.082648264826,0,0
-113.24342408324,-45.421981105594,25.887078707871,2504329.5058109,688.25628756476,2633380.1614132,31.087078707871,0,0
-113.24342355091,-45.437155411773,25.891509150915,2504329.5058109,688.25628756476,2633380.1614132,31.091509150915,0,0
-113.24342301857,-45.452329717953,25.895939593959,2504329.5058109,688.25628756476,2633380.1614132,31.095939593959,0,0
-113.24342248624,-45.467504024132,25.900370037004,2504329.5058109,688.25628756476,2633380.1614132,31.100370037004,0,0
-113.2434219539,-45.482678330312,25.904800480048,2504329.5058109,688.25628756476,2633380.1614132,31.104800480048,0,0
-113.24342142157,-45.497852636491,25.909230923092,2504329.5058109,688.25628756476,2633380.1614132,31.109230923092,0,0
-113.24342088923,-45.51302694267,25.913661366137,2504329.5058109,688.25628756476,2633380.1614132,31.113661366137,0,0
-113.2434203569,-45.52820124885,25.918091809181,2504329.5058109,688.25628756476,2633380.1614132,31.118091809181,0,0
-113.24341982456,-45.543375555029,25.922522252225,2504329.5058109,688.25628756476,2633380.1614132,31.122522252225,0,0
-113.24341929223,-45.558549861209,25.92695269527,2504329.5058109,688.25628756476,2633380.1614132,31.12695269527,0,0
-113.24341875989,-45.573724167388,25.931383138314,2504329.5058109,688.25628756476,2633380.1614132,31.131383138314,0,0
-113.24341822756,-45.588898473567,25.935813581358,2504329.5058109,688.25628756476,2633380.1614132,31.135813581358,0,0
-113.24341769522,-45.604072779747,25.940244024402,2504329.5058109,688.25628756476,2633380.1614132,31.140244024402,0,0
-113.24341716289,-45.619247085926,25.944674467447,2504329.5058109,688.25628756476,2633380.1614132,31.144674467447,0,0
-113.24341663055,-45.634421392106,25.949104910491,2504329.5058109,688.25628756476,2633380.1614132,31.149104910491,0,0
-113.24341609821,-45.649595698285,25.953535353535,2504329.5058109,688.25628756476,2633380.1614132,31.153535353535,0,0
-113.24341556588,-45.664770004464,25.95796579658,2504329.5058109,688.25628756476,2633380.1614132,31.15796579658,0,0
-113.24341503354,-45.679944310644,25.962396239624,2504329.5058109,688.25628756476,2633380.1614132,31.162396239624,0,0
-113.24341450121,-45.695118616823,25.966826682668,2504329.5058109,688.25628756476,2633380.1614132,31.166826682668,0,0
-113.24341396887,-45.710292923003,25.971257125713,2504329.5058109,688.25628756476,2633380.1614132,31.171257125713,0,0
-113.24341343654,-45.725467229182,25.975687568757,2504329.5058109,688.25628756476,2633380.1614132,31.175687568757,0,0
-113.2434129042,-45.740641535361,25.980118011801,2504329.5058109,688.25628756476,2633380.1614132,31.180118011801,0,0
-113.24341237187,-45.755815841541,25.984548454845,2504329.5058109,688.25628756476,2633380.1614132,31.184548454845,0,0
-113.24341183953,-45.77099014772,25.98897889789,2504329.5058109,688.25628756476,2633380.1614132,31.18897889789,0,0
-113.2434113072,-45.7861644539,25.993409340934,2504329.5058109,688.25628756476,2633380.1614132,31.193409340934,0,0
-113.24341077486,-45.801338760079,25.997839783978,2504329.5058109,688.25628756476,2633380.1614132,31.197839783978,0,0
-113.24341024253,-45.816513066258,26.002270227023,2504329.5058109,688.25628756476,2633380.1614132,31.202270227023,0,0
-113.24340971019,-45.831687372438,26.006700670067,2504329.5058109,688.25628756476,2633380.1614132,31.206700670067,0,0
-113.24340917786,-45.846861678617,26.011131113111,2504329.5058109,688.25628756476,2633380.1614132,31.211131113111,0,0
-113.24340864552,-45.862035984797,26.015561556156,2504329.5058109,688.25628756476,2633380.1614132,31.215561556156,0,0
-113.24340811319,-45.877210290976,26.0199919992,2504329.5058109,688.25628756476,2633380.1614132,31.2199919992,0,0
-113.24340758085,-45.892384597155,26.024422442244,2504329.5058109,688.25628756476,2633380.1614132,31.224422442244,0,0
-113.24340704784,-45.907558902651,26.028852885289,2509934.8190092,1820.2061535824,2632076.7962046,31.228852885289,0,0
-113.24340651455,-45.922733207864,26.033283328333,2509934.8190092,1820.2061535824,2632076.7962046,31.233283328333,0,0
-113.24340598126,-45.937907513076,26.037713771377,2509934.8190092,1820.2061535824,2632076.7962046,31.237713771377,0,0
-113.24340544797,-45.953081818289,26.042144214421,2509934.8190092,1820.2061535824,2632076.7962046,31.242144214421,0,0
-113.24340491468,-45.968256123502,26.046574657466,2509934.8190092,1820.2061535824,2632076.7962046,31.246574657466,0,0
-113.24340438139,-45.983430428714,26.05100510051,2509934.8190092,1820.2061535824,2632076.7962046,31.25100510051,0,0
-113.2434038481,-45.998604733927,26.055435543554,2509934.8190092,1820.2061535824,2632076.7962046,31.255435543554,0,0
-113.24340331481,-46.01377903914,26.059865986599,2509934.8190092,1820.2061535824,2632076.7962046,31.259865986599,0,0
-113.24340278151,-46.028953344352,26.064296429643,2509934.8190092,1820.2061535824,2632076.7962046,31.264296429643,0,0
-113.24340224822,-46.044127649565,26.068726872687,2509934.8190092,1820.2061535824,2632076.7962046,31.268726872687,0,0
-113.24340171493,-46.059301954777,26.073157315732,2509934.8190092,1820.2061535824,2632076.7962046,31.273157315732,0,0
-113.24340118164,-46.07447625999,26.077587758776,2509934.8190092,1820.2061535824,2632076.7962046,31.277587758776,0,0
-113.24340064835,-46.089650565203,26.08201820182,2509934.8190092,1820.2061535824,2632076.7962046,31.28201820182,0,0
-113.24340011506,-46.104824870415,26.086448644864,2509934.8190092,1820.2061535824,2632076.7962046,31.286448644864,0,0
-113.24339958177,-46.119999175628,26.090879087909,2509934.8190092,1820.2061535824,2632076.7962046,31.290879087909,0,0
-113.24339904848,-46.135173480841,26.095309530953,2509934.8190092,1820.2061535824,2632076.7962046,31.295309530953,0,0
-113.24339851519,-46.150347786053,26.099739973997,2509934.8190092,1820.2061535824,2632076.7962046,31.299739973997,0,0
-113.2433979819,-46.165522091266,26.104170417042,2509934.8190092,1820.2061535824,2632076.7962046,31.304170417042,0,0
-113.2433974486,-46.180696396478,26.108600860086,2509934.8190092,1820.2061535824,2632076.7962046,31.308600860086,0,0
-113.24339691531,-46.195870701691,26.11303130313,2509934.8190092,1820.2061535824,2632076.7962046,31.31303130313,0,0
-113.24339638202,-46.211045006904,26.117461746175,2509934.8190092,1820.2061535824,2632076.7962046,31.317461746175,0,0
-113.24339584873,-46.226219312116,26.121892189219,2509934.8190092,1820.2061535824,2632076.7962046,31.321892189219,0,0
-113.24339531544,-46.241393617329,26.126322632263,2509934.8190092,1820.2061535824,2632076.7962046,31.326322632263,0,0
-113.24339478215,-46.256567922542,26.130753075308,2509934.8190092,1820.2061535824,2632076.7962046,31.330753075308,0,0
-113.24339424886,-46.271742227754,26.135183518352,2509934.8190092,1820.2061535824,2632076.7962046,31.335183518352,0,0
-113.24339371557,-46.286916532967,26.139613961396,2509934.8190092,1820.2061535824,2632076.7962046,31.339613961396,0,0
-113.24339318228,-46.302090838179,26.14404440444,2509934.8190092,1820.2061535824,2632076.7962046,31.34404440444,0,0
-113.24339264899,-46.317265143392,26.148474847485,2509934.8190092,1820.2061535824,2632076.7962046,31.348474847485,0,0
-113.24339211569,-46.332439448605,26.152905290529,2509934.8190092,1820.2061535824,2632076.7962046,31.352905290529,0,0
-113.2433915824,-46.347613753817,26.157335733573,2509934.8190092,1820.2061535824,2632076.7962046,31.357335733573,0,0
-113.24339104911,-46.36278805903,26.161766176618,2509934.8190092,1820.2061535824,2632076.7962046,31.361766176618,0,0
-113.24339051582,-46.377962364243,26.166196619662,2509934.8190092,1820.2061535824,2632076.7962046,31.366196619662,0,0
-113.24338998253,-46.393136669455,26.170627062706,2509934.8190092,1820.2061535824,2632076.7962046,31.370627062706,0,0
-113.24338944924,-46.408310974668,26.175057505751,2509934.8190092,1820.2061535824,2632076.7962046,31.375057505751,0,0
-113.24338891595,-46.42348527988,26.179487948795,2509934.8190092,1820.2061535824,2632076.7962046,31.379487948795,0,0
-113.24338838266,-46.438659585093,26.183918391839,2509934.8190092,1820.2061535824,2632076.7962046,31.383918391839,0,0
-113.24338784937,-46.453833890306,26.188348834883,2509934.8190092,1820.2061535824,2632076.7962046,31.388348834883,0,0
-113.24338731608,-46.469008195518,26.192779277928,2509934.8190092,1820.2061535824,2632076.7962046,31.392779277928,0,0
-113.24338678279,-46.484182500731,26.197209720972,2509934.8190092,1820.2061535824,2632076.7962046,31.397209720972,0,0
-113.24338624949,-46.499356805944,26.201640164016,2509934.8190092,1820.2061535824,2632076.7962046,31.401640164016,0,0
-113.2433857162,-46.514531111156,26.206070607061,2509934.8190092,1820.2061535824,2632076.7962046,31.406070607061,0,0
-113.24338518291,-46.529705416369,26.210501050105,2509934.8190092,1820.2061535824,2632076.7962046,31.410501050105,0,0
-113.24338464962,-46.544879721581,26.214931493149,2509934.8190092,1820.2061535824,2632076.7962046,31.414931493149,0,0
-113.24338411633,-46.560054026794,26.219361936194,2509934.8190092,1820.2061535824,2632076.7962046,31.419361936194,0,0
-113.24338358304,-46.575228332007,26.223792379238,2509934.8190092,1820.2061535824,2632076.7962046,31.423792379238,0,0
-113.24338304975,-46.590402637219,26.228222822282,2509934.8190092,1820.2061535824,2632076.7962046,31.428222822282,0,0
-113.24338251646,-46.605576942432,26.232653265327,2509934.8190092,1820.2061535824,2632076.7962046,31.432653265327,0,0
-113.24338198317,-46.620751247645,26.237083708371,2509934.8190092,1820.2061535824,2632076.7962046,31.437083708371,0,0
-113.24338144988,-46.635925552857,26.241514151415,2509934.8190092,1820.2061535824,2632076.7962046,31.441514151415,0,0
-113.24338091658,-46.65109985807,26.245944594459,2509934.8190092,1820.2061535824,2632076.7962046,31.445944594459,0,0
-113.2433803833,-46.666274163548,26.250375037504,2507261.1414408,-544.49712918515,2624072.7004067,31.450375037504,0,0
-113.24337985002,-46.681448469744,26.254805480548,2507261.1414408,-544.49712918515,2624072.7004067,31.454805480548,0,0
-113.24337931673,-46.696622775939,26.259235923592,2507261.1414408,-544.49712918515,2624072.7004067,31.459235923592,0,0
-113.24337878345,-46.711797082135,26.263666366637,2507261.1414408,-544.49712918515,2624072.7004067,31.463666366637,0,0
-113.24337825017,-46.72697138833,26.268096809681,2507261.1414408,-544.49712918515,2624072.7004067,31.468096809681,0,0
-113.24337771689,-46.742145694526,26.272527252725,2507261.1414408,-544.49712918515,2624072.7004067,31.472527252725,0,0
-113.24337718361,-46.757320000721,26.27695769577,2507261.1414408,-544.49712918515,2624072.7004067,31.47695769577,0,0
-113.24337665033,-46.772494306917,26.281388138814,2507261.1414408,-544.49712918515,2624072.7004067,31.481388138814,0,0
-113.24337611705,-46.787668613112,26.285818581858,2507261.1414408,-544.49712918515,2624072.7004067,31.485818581858,0,0
-113.24337558377,-46.802842919308,26.290249024902,2507261.1414408,-544.49712918515,2624072.7004067,31.490249024902,0,0
-113.24337505049,-46.818017225503,26.294679467947,2507261.1414408,-544.49712918515,2624072.7004067,31.494679467947,0,0
-113.2433745172,-46.833191531699,26.299109910991,2507261.1414408,-544.49712918515,2624072.7004067,31.499109910991,0,0
-113.24337398392,-46.848365837894,26.303540354035,2507261.1414408,-544.49712918515,2624072.7004067,31.503540354035,0,0
-113.24337345064,-46.86354014409,26.30797079708,2507261.1414408,-544.49712918515,2624072.7004067,31.50797079708,0,0
-113.24337291736,-46.878714450285,26.312401240124,2507261.1414408,-544.49712918515,2624072.7004067,31.512401240124,0,0
-113.24337238408,-46.893888756481,26.316831683168,2507261.1414408,-544.49712918515,2624072.7004067,31.516831683168,0,0
-113.2433718508,-46.909063062676,26.321262126213,2507261.1414408,-544.49712918515,2624072.7004067,31.521262126213,0,0
-113.24337131752,-46.924237368871,26.325692569257,2507261.1414408,-544.49712918515,2624072.7004067,31.525692569257,0,0
-113.24337078424,-46.939411675067,26.330123012301,2507261.1414408,-544.49712918515,2624072.7004067,31.530123012301,0,0
-113.24337025096,-46.954585981262,26.334553455346,2507261.1414408,-544.49712918515,2624072.7004067,31.534553455346,0,0
-113.24336971767,-46.969760287458,26.33898389839,2507261.1414408,-544.49712918515,2624072.7004067,31.53898389839,0,0
-113.24336918439,-46.984934593653,26.343414341434,2507261.1414408,-544.49712918515,2624072.7004067,31.543414341434,0,0
-113.24336865111,-47.000108899849,26.347844784478,2507261.1414408,-544.49712918515,2624072.7004067,31.547844784478,0,0
-113.24336811783,-47.015283206044,26.352275227523,2507261.1414408,-544.49712918515,2624072.7004067,31.552275227523,0,0
-113.24336758455,-47.03045751224,26.356705670567,2507261.1414408,-544.49712918515,2624072.7004067,31.556705670567,0,0
-113.24336705127,-47.045631818435,26.361136113611,2507261.1414408,-544.49712918515,2624072.7004067,31.561136113611,0,0
-113.24336651799,-47.060806124631,26.365566556656,2507261.1414408,-544.49712918515,2624072.7004067,31.565566556656,0,0
-113.24336598471,-47.075980430826,26.3699969997,2507261.1414408,-544.49712918515,2624072.7004067,31.5699969997,0,0
-113.24336545143,-47.091154737022,26.374427442744,2507261.1414408,-544.49712918515,2624072.7004067,31.574427442744,0,0
-113.24336491814,-47.106329043217,26.378857885789,2507261.1414408,-544.49712918515,2624072.7004067,31.578857885789,0,0
-113.24336438486,-47.121503349413,26.383288328833,2507261.1414408,-544.49712918515,2624072.7004067,31.583288328833,0,0
-113.24336385158,-47.136677655608,26.387718771877,2507261.1414408,-544.49712918515,2624072.7004067,31.587718771877,0,0
-113.2433633183,-47.151851961804,26.392149214921,2507261.1414408,-544.49712918515,2624072.7004067,31.592149214921,0,0
-113.24336278502,-47.167026267999,26.396579657966,2507261.1414408,-544.49712918515,2624072.7004067,31.596579657966,0,0
-113.24336225174,-47.182200574195,26.40101010101,2507261.1414408,-544.49712918515,2624072.7004067,31.60101010101,0,0
-113.24336171846,-47.19737488039,26.405440544054,2507261.1414408,-544.49712918515,2624072.7004067,31.605440544054,0,0
-113.24336118518,-47.212549186586,26.409870987099,2507261.1414408,-544.49712918515,2624072.7004067,31.609870987099,0,0
-113.2433606519,-47.227723492781,26.414301430143,2507261.1414408,-544.49712918515,2624072.7004067,31.614301430143,0,0
-113.24336011861,-47.242897798977,26.418731873187,2507261.1414408,-544.49712918515,2624072.7004067,31.618731873187,0,0
-113.24335958533,-47.258072105172,26.423162316232,2507261.1414408,-544.49712918515,2624072.7004067,31.623162316232,0,0
-113.24335905205,-47.273246411368,26.427592759276,2507261.1414408,-544.49712918515,2624072.7004067,31.627592759276,0,0
-113.24335851877,-47.288420717563,26.43202320232,2507261.1414408,-544.49712918515,2624072.7004067,31.63202320232,0,0
-113.24335798549,-47.303595023759,26.436453645365,2507261.1414408,-544.49712918515,2624072.7004067,31.636453645365,0,0
-113.24335745221,-47.318769329954,26.440884088409,2507261.1414408,-544.49712918515,2624072.7004067,31.640884088409,0,0
-113.24335691893,-47.33394363615,26.445314531453,2507261.1414408,-544.49712918515,2624072.7004067,31.645314531453,0,0
-113.24335638565,-47.349117942345,26.449744974497,2507261.1414408,-544.49712918515,2624072.7004067,31.649744974497,0,0
-113.24335585237,-47.36429224854,26.454175417542,2507261.1414408,-544.49712918515,2624072.7004067,31.654175417542,0,0
-113.24335531908,-47.379466554736,26.458605860586,2507261.1414408,-544.49712918515,2624072.7004067,31.658605860586,0,0
-113.2433547858,-47.394640860931,26.46303630363,2507261.1414408,-544.49712918515,2624072.7004067,31.66303630363,0,0
-113.24335425252,-47.409815167127,26.467466746675,2507261.1414408,-544.49712918515,2624072.7004067,31.667466746675,0,0
-113.24335371924,-47.424989473322,26.471897189719,2507261.1414408,-544.49712918515,2624072.7004067,31.671897189719,0,0
-113.24335318596,-47.440163779518,26.476327632763,2507261.1414408,-544.49712918515,2624072.7004067,31.676327632763,0,0
-113.24335265268,-47.455338085713,26.480758075808,2507261.1414408,-544.49712918515,2624072.7004067,31.680758075808,0,0
-113.2433521194,-47.470512391909,26.485188518852,2507261.1414408,-544.49712918515,2624072.7004067,31.685188518852,0,0
-113.24335158612,-47.485686698104,26.489618961896,2507261.1414408,-544.49712918515,2624072.7004067,31.689618961896,0,0
-113.24335105284,-47.5008610043,26.49404940494,2507261.1414408,-544.49712918515,2624072.7004067,31.69404940494,0,0
-113.24335051955,-47.516035310495,26.498479847985,2507261.1414408,-544.49712918515,2624072.7004067,31.698479847985,0,0
-113.24334998627,-47.531209616691,26.502910291029,2507261.1414408,-544.49712918515,2624072.7004067,31.702910291029,0,0
-113.24334945299,-47.546383922886,26.507340734073,2507261.1414408,-544.49712918515,2624072.7004067,31.707340734073,0,0
-113.24334891971,-47.561558229082,26.511771177118,2507261.1414408,-544.49712918515,2624072.7004067,31.711771177118,0,0
-113.24334838643,-47.576732535277,26.516201620162,2507261.1414408,-544.49712918515,2624072.7004067,31.716201620162,0,0
-113.24334785315,-47.591906841473,26.520632063206,2507261.1414408,-544.49712918515,2624072.7004067,31.720632063206,0,0
-113.24334731987,-47.607081147668,26.525062506251,2507261.1414408,-544.49712918515,2624072.7004067,31.725062506251,0,0
-113.24334678659,-47.622255453864,26.529492949295,2507261.1414408,-544.49712918515,2624072.7004067,31.729492949295,0,0
-113.24334625331,-47.637429760059,26.533923392339,2507261.1414408,-544.49712918515,2624072.7004067,31.733923392339,0,0
-113.24334572002,-47.652604066255,26.538353835384,2507261.1414408,-544.49712918515,2624072.7004067,31.738353835384,0,0
-113.24334518674,-47.66777837245,26.542784278428,2507261.1414408,-544.49712918515,2624072.7004067,31.742784278428,0,0
-113.24334465346,-47.682952678646,26.547214721472,2507261.1414408,-544.49712918515,2624072.7004067,31.747214721472,0,0
-113.24334412018,-47.698126984841,26.551645164516,2507261.1414408,-544.49712918515,2624072.7004067,31.751645164516,0,0
-113.2433435869,-47.713301291037,26.556075607561,2507261.1414408,-544.49712918515,2624072.7004067,31.756075607561,0,0
-113.24334305362,-47.728475597232,26.560506050605,2507261.1414408,-544.49712918515,2624072.7004067,31.760506050605,0,0
-113.24334252034,-47.743649903428,26.564936493649,2507261.1414408,-544.49712918515,2624072.7004067,31.764936493649,0,0
-113.24334198706,-47.758824209623,26.569366936694,2507261.1414408,-544.49712918515,2624072.7004067,31.769366936694,0,0
-113.24334145378,-47.773998515819,26.573797379738,2507261.1414408,-544.49712918515,2624072.7004067,31.773797379738,0,0
-113.24334092049,-47.789172822014,26.578227822782,2507261.1414408,-544.49712918515,2624072.7004067,31.778227822782,0,0
-113.24334038721,-47.804347128209,26.582658265827,2507261.1414408,-544.49712918515,2624072.7004067,31.782658265827,0,0
-113.24333985393,-47.819521434405,26.587088708871,2507261.1414408,-544.49712918515,2624072.7004067,31.787088708871,0,0
-113.24333932065,-47.8346957406,26.591519151915,2507261.1414408,-544.49712918515,2624072.7004067,31.791519151915,0,0
-113.24333878737,-47.849870046796,26.595949594959,2507261.1414408,-544.49712918515,2624072.7004067,31.795949594959,0,0
-113.24333825409,-47.865044352991,26.600380038004,2507261.1414408,-544.49712918515,2624072.7004067,31.800380038004,0,0
-113.24333772081,-47.880218659187,26.604810481048,2507261.1414408,-544.49712918515,2624072.7004067,31.804810481048,0,0
-113.24333718753,-47.895392965382,26.609240924092,2507261.1414408,-544.49712918515,2624072.7004067,31.809240924092,0,0
-113.24333665425,-47.910567271578,26.613671367137,2507261.1414408,-544.49712918515,2624072.7004067,31.813671367137,0,0
-113.24333612096,-47.925741577773,26.618101810181,2507261.1414408,-544.49712918515,2624072.7004067,31.818101810181,0,0
-113.24333558768,-47.940915883969,26.622532253225,2507261.1414408,-544.49712918515,2624072.7004067,31.822532253225,0,0
-113.2433350544,-47.956090190164,26.62696269627,2507261.1414408,-544.49712918515,2624072.7004067,31.82696269627,0,0
-113.24333452112,-47.97126449636,26.631393139314,2507261.1414408,-544.49712918515,2624072.7004067,31.831393139314,0,0
-113.24333398784,-47.986438802555,26.635823582358,2507261.1414408,-544.49712918515,2624072.7004067,31.835823582358,0,0
-113.24333345456,-48.001613108751,26.640254025403,2507261.1414408,-544.49712918515,2624072.7004067,31.840254025403,0,0
-113.24333292128,-48.016787414946,26.644684468447,2507261.1414408,-544.49712918515,2624072.7004067,31.844684468447,0,0
-113.243332388,-48.031961721142,26.649114911491,2507261.1414408,-544.49712918515,2624072.7004067,31.849114911491,0,0
-113.24333185472,-48.047136027337,26.653545354535,2507261.1414408,-544.49712918515,2624072.7004067,31.853545354535,0,0
-113.24333132143,-48.062310333533,26.65797579758,2507261.1414408,-544.49712918515,2624072.7004067,31.85797579758,0,0
-113.24333078815,-48.077484639728,26.662406240624,2507261.1414408,-544.49712918515,2624072.7004067,31.862406240624,0,0
-113.24333025487,-48.092658945924,26.666836683668,2507261.1414408,-544.49712918515,2624072.7004067,31.866836683668,0,0
-113.24332972159,-48.107833252119,26.671267126713,2507261.1414408,-544.49712918515,2624072.7004067,31.871267126713,0,0
-113.24332918831,-48.123007558315,26.675697569757,2507261.1414408,-544.49712918515,2624072.7004067,31.875697569757,0,0
-113.24332865503,-48.13818186451,26.680128012801,2507261.1414408,-544.49712918515,2624072.7004067,31.880128012801,0,0
-113.24332812175,-48.153356170706,26.684558455846,2507261.1414408,-544.49712918515,2624072.7004067,31.884558455846,0,0
-113.24332758847,-48.168530476901,26.68898889889,2507261.1414408,-544.49712918515,2624072.7004067,31.88898889889,0,0
-113.24332705519,-48.183704783097,26.693419341934,2507261.1414408,-544.49712918515,2624072.7004067,31.893419341934,0,0
-113.2433265219,-48.198879089292,26.697849784978,2507261.1414408,-544.49712918515,2624072.7004067,31.897849784978,0,0
-113.24332598862,-48.214053395487,26.702280228023,2507261.1414408,-544.49712918515,2624072.7004067,31.902280228023,0,0
-113.24332545534,-48.229227701683,26.706710671067,2507261.1414408,-544.49712918515,2624072.7004067,31.906710671067,0,0
-113.24332492206,-48.244402007878,26.711141114111,2507261.1414408,-544.49712918515,2624072.7004067,31.911141114111,0,0
-113.24332438878,-48.259576314074,26.715571557156,2507261.1414408,-544.49712918515,2624072.7004067,31.915571557156,0,0
-113.2433238555,-48.274750620269,26.7200020002,2507261.1414408,-544.49712918515,2624072.7004067,31.9200020002,0,0
-113.24332332222,-48.289924926465,26.724432443244,2507261.1414408,-544.49712918515,2624072.7004067,31.924432443244,0,0
-113.24332278894,-48.30509923266,26.728862886289,2507261.1414408,-544.49712918515,2624072.7004067,31.928862886289,0,0
-113.24332225566,-48.320273538856,26.733293329333,2507261.1414408,-544.49712918515,2624072.7004067,31.933293329333,0,0
-113.24332172237,-48.335447845051,26.737723772377,2507261.1414408,-544.49712918515,2624072.7004067,31.937723772377,0,0
-113.24332118909,-48.350622151247,26.742154215422,2507261.1414408,-544.49712918515,2624072.7004067,31.942154215422,0,0
-113.24332065581,-48.365796457442,26.746584658466,2507261.1414408,-544.49712918515,2624072.7004067,31.946584658466,0,0
-113.24332012253,-48.380970763638,26.75101510151,2507261.1414408,-544.49712918515,2624072.7004067,31.95101510151,0,0
-113.24331958925,-48.396145069833,26.755445544554,2507261.1414408,-544.49712918515,2624072.7004067,31.955445544554,0,0
-113.24331905597,-48.411319376029,26.759875987599,2507261.1414408,-544.49712918515,2624072.7004067,31.959875987599,0,0
-113.24331852269,-48.426493682224,26.764306430643,2507261.1414408,-544.49712918515,2624072.7004067,31.964306430643,0,0
-113.24331798941,-48.44166798842,26.768736873687,2507261.1414408,-544.49712918515,2624072.7004067,31.968736873687,0,0
-113.24331745613,-48.456842294615,26.773167316732,2507261.1414408,-544.49712918515,2624072.7004067,31.973167316732,0,0
-113.24331692284,-48.472016600811,26.777597759776,2507261.1414408,-544.49712918515,2624072.7004067,31.977597759776,0,0
-113.24331638956,-48.487190907006,26.78202820282,2507261.1414408,-544.49712918515,2624072.7004067,31.98202820282,0,0
-113.24331585628,-48.502365213202,26.786458645865,2507261.1414408,-544.49712918515,2624072.7004067,31.986458645865,0,0
-113.243315323,-48.517539519397,26.790889088909,2507261.1414408,-544.49712918515,2624072.7004067,31.990889088909,0,0
-113.24331478972,-48.532713825593,26.795319531953,2507261.1414408,-544.49712918515,2624072.7004067,31.995319531953,0,0
-113.24331425644,-48.547888131788,26.799749974997,2507261.1414408,-544.49712918515,2624072.7004067,31.999749974997,0,0
-113.24331372316,-48.563062437984,26.804180418042,2507261.1414408,-544.49712918515,2624072.7004067,32.004180418042,0,0
-113.24331318988,-48.578236744179,26.808610861086,2507261.1414408,-544.49712918515,2624072.7004067,32.008610861086,0,0
-113.2433126566,-48.593411050375,26.81304130413,2507261.1414408,-544.49712918515,2624072.7004067,32.01304130413,0,0
-113.24331212331,-48.60858535657,26.817471747175,2507261.1414408,-544.49712918515,2624072.7004067,32.017471747175,0,0
-113.24331159003,-48.623759662766,26.821902190219,2507261.1414408,-544.49712918515,2624072.7004067,32.021902190219,0,0
-113.24331105675,-48.638933968961,26.826332633263,2507261.1414408,-544.49712918515,2624072.7004067,32.026332633263,0,0
-113.24331052347,-48.654108275156,26.830763076308,2507261.1414408,-544.49712918515,2624072.7004067,32.030763076308,0,0
-113.24330999019,-48.669282581352,26.835193519352,2507261.1414408,-544.49712918515,2624072.7004067,32.035193519352,0,0
-113.24330945691,-48.684456887547,26.839623962396,2507261.1414408,-544.49712918515,2624072.7004067,32.039623962396,0,0
-113.24330892363,-48.699631193743,26.844054405441,2507261.1414408,-544.49712918515,2624072.7004067,32.044054405441,0,0
-113.24330839035,-48.714805499938,26.848484848485,2507261.1414408,-544.49712918515,2624072.7004067,32.048484848485,0,0
-113.24330785707,-48.729979806134,26.852915291529,2507261.1414408,-544.49712918515,2624072.7004067,32.052915291529,0,0
-113.24330732378,-48.745154112329,26.857345734573,2507261.1414408,-544.49712918515,2624072.7004067,32.057345734573,0,0
-113.2433067905,-48.760328418525,26.861776177618,2507261.1414408,-544.49712918515,2624072.7004067,32.061776177618,0,0
-113.24330625722,-48.77550272472,26.866206620662,2507261.1414408,-544.49712918515,2624072.7004067,32.066206620662,0,0
-113.24330572394,-48.790677030916,26.870637063706,2507261.1414408,-544.49712918515,2624072.7004067,32.070637063706,0,0
-113.24330519066,-48.805851337111,26.875067506751,2507261.1414408,-544.49712918515,2624072.7004067,32.075067506751,0,0
-113.24330465738,-48.821025643307,26.879497949795,2507261.1414408,-544.49712918515,2624072.7004067,32.079497949795,0,0
-113.2433041241,-48.836199949502,26.883928392839,2507261.1414408,-544.49712918515,2624072.7004067,32.083928392839,0,0
-113.24330359082,-48.851374255698,26.888358835884,2507261.1414408,-544.49712918515,2624072.7004067,32.088358835884,0,0
-113.24330305754,-48.866548561893,26.892789278928,2507261.1414408,-544.49712918515,2624072.7004067,32.092789278928,0,0
-113.24330252425,-48.881722868089,26.897219721972,2507261.1414408,-544.49712918515,2624072.7004067,32.097219721972,0,0
-113.24330199097,-48.896897174284,26.901650165017,2507261.1414408,-544.49712918515,2624072.7004067,32.101650165017,0,0
-113.24330145769,-48.91207148048,26.906080608061,2507261.1414408,-544.49712918515,2624072.7004067,32.106080608061,0,0
-113.24330092441,-48.927245786675,26.910511051105,2507261.1414408,-544.49712918515,2624072.7004067,32.110511051105,0,0
-113.24330039113,-48.942420092871,26.914941494149,2507261.1414408,-544.49712918515,2624072.7004067,32.114941494149,0,0
-113.24329985785,-48.957594399066,26.919371937194,2507261.1414408,-544.49712918515,2624072.7004067,32.119371937194,0,0
-113.24329932457,-48.972768705262,26.923802380238,2507261.1414408,-544.49712918515,2624072.7004067,32.123802380238,0,0
-113.24329879129,-48.987943011457,26.928232823282,2507261.1414408,-544.49712918515,2624072.7004067,32.128232823282,0,0
-113.24329825801,-49.003117317653,26.932663266327,2507261.1414408,-544.49712918515,2624072.7004067,32.132663266327,0,0
-113.24329772472,-49.018291623848,26.937093709371,2507261.1414408,-544.49712918515,2624072.7004067,32.137093709371,0,0
-113.24329719144,-49.033465930044,26.941524152415,2507261.1414408,-544.49712918515,2624072.7004067,32.141524152415,0,0
-113.24329665816,-49.048640236239,26.94595459546,2507261.1414408,-544.49712918515,2624072.7004067,32.14595459546,0,0
-113.24329612488,-49.063814542435,26.950385038504,2507261.1414408,-544.49712918515,2624072.7004067,32.150385038504,0,0
-113.2432955916,-49.07898884863,26.954815481548,2507261.1414408,-544.49712918515,2624072.7004067,32.154815481548,0,0
-113.24329505832,-49.094163154825,26.959245924592,2507261.1414408,-544.49712918515,2624072.7004067,32.159245924592,0,0
-113.24329452504,-49.109337461021,26.963676367637,2507261.1414408,-544.49712918515,2624072.7004067,32.163676367637,0,0
-113.24329399176,-49.124511767216,26.968106810681,2507261.1414408,-544.49712918515,2624072.7004067,32.168106810681,0,0
-113.24329345848,-49.139686073412,26.972537253725,2507261.1414408,-544.49712918515,2624072.7004067,32.172537253725,0,0
-113.24329292519,-49.154860379607,26.97696769677,2507261.1414408,-544.49712918515,2624072.7004067,32.17696769677,0,0
-113.24329239191,-49.170034685803,26.981398139814,2507261.1414408,-544.49712918515,2624072.7004067,32.181398139814,0,0
-113.24329185863,-49.185208991998,26.985828582858,2507261.1414408,-544.49712918515,2624072.7004067,32.185828582858,0,0
-113.24329132535,-49.200383298194,26.990259025903,2507261.1414408,-544.49712918515,2624072.7004067,32.190259025903,0,0
-113.24329079207,-49.215557604389,26.994689468947,2507261.1414408,-544.49712918515,2624072.7004067,32.194689468947,0,0
-113.24329025879,-49.230731910585,26.999119911991,2507261.1414408,-544.49712918515,2624072.7004067,32.199119911991,0,0
-113.24328972551,-49.24590621678,27.003550355036,2507261.1414408,-544.49712918515,2624072.7004067,32.203550355036,0,0
-113.24328919223,-49.261080522976,27.00798079808,2507261.1414408,-544.49712918515,2624072.7004067,32.20798079808,0,0
-113.24328865895,-49.276254829171,27.012411241124,2507261.1414408,-544.49712918515,2624072.7004067,32.212411241124,0,0
-113.24328812566,-49.291429135367,27.016841684168,2507261.1414408,-544.49712918515,2624072.7004067,32.216841684168,0,0
-113.24328759238,-49.306603441562,27.021272127213,2507261.1414408,-544.49712918515,2624072.7004067,32.221272127213,0,0
-113.2432870591,-49.321777747758,27.025702570257,2507261.1414408,-544.49712918515,2624072.7004067,32.225702570257,0,0
-113.24328652582,-49.336952053953,27.030133013301,2507261.1414408,-544.49712918515,2624072.7004067,32.230133013301,0,0
-113.24328599254,-49.352126360149,27.034563456346,2507261.1414408,-544.49712918515,2624072.7004067,32.234563456346,0,0
-113.24328545926,-49.367300666344,27.03899389939,2507261.1414408,-544.49712918515,2624072.7004067,32.23899389939,0,0
-113.24328492598,-49.38247497254,27.043424342434,2507261.1414408,-544.49712918515,2624072.7004067,32.243424342434,0,0
-113.2432843927,-49.397649278735,27.047854785479,2507261.1414408,-544.49712918515,2624072.7004067,32.247854785479,0,0
-113.24328385942,-49.412823584931,27.052285228523,2507261.1414408,-544.49712918515,2624072.7004067,32.252285228523,0,0
-113.24328332613,-49.427997891126,27.056715671567,2507261.1414408,-544.49712918515,2624072.7004067,32.256715671567,0,0
-113.24328279285,-49.443172197322,27.061146114611,2507261.1414408,-544.49712918515,2624072.7004067,32.261146114611,0,0
-113.24328225957,-49.458346503517,27.065576557656,2507261.1414408,-544.49712918516,2624072.7004067,32.265576557656,0,0
-113.24328172629,-49.473520809713,27.0700070007,2507261.1414408,-544.49712918516,2624072.7004067,32.2700070007,0,0
-113.24328119301,-49.488695115908,27.074437443744,2507261.1414408,-544.49712918516,2624072.7004067,32.274437443744,0,0
-113.24328065973,-49.503869422104,27.078867886789,2507261.1414408,-544.49712918516,2624072.7004067,32.278867886789,0,0
-113.24328012645,-49.519043728299,27.083298329833,2507261.1414408,-544.49712918516,2624072.7004067,32.283298329833,0,0
-113.24327959317,-49.534218034494,27.087728772877,2507261.1414408,-544.49712918516,2624072.7004067,32.287728772877,0,0
-113.24327905989,-49.54939234069,27.092159215922,2507261.1414408,-544.49712918516,2624072.7004067,32.292159215922,0,0
-113.24327852661,-49.564566646885,27.096589658966,2507261.1414408,-544.49712918516,2624072.7004067,32.296589658966,0,0
-113.24327799332,-49.579740953081,27.10102010201,2507261.1414408,-544.49712918516,2624072.7004067,32.30102010201,0,0
-113.24327746004,-49.594915259276,27.105450545055,2507261.1414408,-544.49712918516,2624072.7004067,32.305450545055,0,0
-113.24327692676,-49.610089565472,27.109880988099,2507261.1414408,-544.49712918516,2624072.7004067,32.309880988099,0,0
-113.24327639348,-49.625263871667,27.114311431143,2507261.1414408,-544.49712918516,2624072.7004067,32.314311431143,0,0
-113.2432758602,-49.640438177863,27.118741874187,2507261.1414408,-544.49712918516,2624072.7004067,32.318741874187,0,0
-113.24327532692,-49.655612484058,27.123172317232,2507261.1414408,-544.49712918516,2624072.7004067,32.323172317232,0,0
-113.24327479364,-49.670786790254,27.127602760276,2507261.1414408,-544.49712918516,2624072.7004067,32.327602760276,0,0
-113.24327426036,-49.685961096449,27.13203320332,2507261.1414408,-544.49712918516,2624072.7004067,32.33203320332,0,0
-113.24327372708,-49.701135402645,27.136463646365,2507261.1414408,-544.49712918516,2624072.7004067,32.336463646365,0,0
-113.24327319379,-49.71630970884,27.140894089409,2507261.1414408,-544.49712918516,2624072.7004067,32.340894089409,0,0
-113.24327266051,-49.731484015036,27.145324532453,2507261.1414408,-544.49712918516,2624072.7004067,32.345324532453,0,0
-113.24327212723,-49.746658321231,27.149754975498,2507261.1414408,-544.49712918516,2624072.7004067,32.349754975498,0,0
-113.24327159395,-49.761832627427,27.154185418542,2507261.1414408,-544.49712918516,2624072.7004067,32.354185418542,0,0
-113.24327106067,-49.777006933622,27.158615861586,2507261.1414408,-544.49712918516,2624072.7004067,32.358615861586,0,0
-113.24327052739,-49.792181239818,27.16304630463,2507261.1414408,-544.49712918516,2624072.7004067,32.36304630463,0,0
-113.24326999411,-49.807355546013,27.167476747675,2507261.1414408,-544.49712918516,2624072.7004067,32.367476747675,0,0
-113.24326946083,-49.822529852209,27.171907190719,2507261.1414408,-544.49712918516,2624072.7004067,32.371907190719,0,0
-113.24326892755,-49.837704158404,27.176337633763,2507261.1414408,-544.49712918516,2624072.7004067,32.376337633763,0,0
-113.24326839426,-49.8528784646,27.180768076808,2507261.1414408,-544.49712918516,2624072.7004067,32.380768076808,0,0
-113.24326786098,-49.868052770795,27.185198519852,2507261.1414408,-544.49712918516,2624072.7004067,32.385198519852,0,0
-113.2432673277,-49.883227076991,27.189628962896,2507261.1414408,-544.49712918516,2624072.7004067,32.389628962896,0,0
-113.24326679442,-49.898401383186,27.194059405941,2507261.1414408,-544.49712918516,2624072.7004067,32.394059405941,0,0
-113.24326626114,-49.913575689382,27.198489848985,2507261.1414408,-544.49712918516,2624072.7004067,32.398489848985,0,0
-113.24326572786,-49.928749995577,27.202920292029,2507261.1414408,-544.49712918516,2624072.7004067,32.402920292029,0,0
-113.24326519458,-49.943924301773,27.207350735074,2507261.1414408,-544.49712918516,2624072.7004067,32.407350735074,0,0
-113.2432646613,-49.959098607968,27.211781178118,2507261.1414408,-544.49712918516,2624072.7004067,32.411781178118,0,0
-113.24326412802,-49.974272914164,27.216211621162,2507261.1414408,-544.49712918516,2624072.7004067,32.416211621162,0,0
-113.24326359473,-49.989447220359,27.220642064206,2507261.1414408,-544.49712918516,2624072.7004067,32.420642064206,0,0
-113.24326306145,-50.004621526554,27.225072507251,2507261.1414408,-544.49712918516,2624072.7004067,32.425072507251,0,0
-113.24326252817,-50.01979583275,27.229502950295,2507261.1414408,-544.49712918516,2624072.7004067,32.429502950295,0,0
-113.24326199489,-50.034970138945,27.233933393339,2507261.1414408,-544.49712918516,2624072.7004067,32.433933393339,0,0
-113.24326146161,-50.050144445141,27.238363836384,2507261.1414408,-544.49712918516,2624072.7004067,32.438363836384,0,0
-113.24326092833,-50.065318751336,27.242794279428,2507261.1414408,-544.49712918516,2624072.7004067,32.442794279428,0,0
-113.24326039505,-50.080493057532,27.247224722472,2507261.1414408,-544.49712918516,2624072.7004067,32.447224722472,0,0
-113.24325986177,-50.095667363727,27.251655165517,2507261.1414408,-544.49712918516,2624072.7004067,32.451655165517,0,0
-113.24325932849,-50.110841669923,27.256085608561,2507261.1414408,-544.49712918516,2624072.7004067,32.456085608561,0,0
-113.2432587952,-50.126015976118,27.260516051605,2507261.1414408,-544.49712918516,2624072.7004067,32.460516051605,0,0
-113.24325826192,-50.141190282314,27.264946494649,2507261.1414408,-544.49712918516,2624072.7004067,32.464946494649,0,0
-113.24325772864,-50.156364588509,27.269376937694,2507261.1414408,-544.49712918516,2624072.7004067,32.469376937694,0,0
-113.24325719536,-50.171538894705,27.273807380738,2507261.1414408,-544.49712918516,2624072.7004067,32.473807380738,0,0
-113.24325666208,-50.1867132009,27.278237823782,2507261.1414408,-544.49712918516,2624072.7004067,32.478237823782,0,0
-113.2432561288,-50.201887507096,27.282668266827,2507261.1414408,-544.49712918516,2624072.7004067,32.482668266827,0,0
-113.24325559552,-50.217061813291,27.287098709871,2507261.1414408,-544.49712918516,2624072.7004067,32.487098709871,0,0
-113.24325506224,-50.232236119487,27.291529152915,2507261.1414408,-544.49712918516,2624072.7004067,32.491529152915,0,0
-113.24325452896,-50.247410425682,27.29595959596,2507261.1414408,-544.49712918516,2624072.7004067,32.49595959596,0,0
-113.24325399567,-50.262584731878,27.300390039004,2507261.1414408,-544.49712918516,2624072.7004067,32.500390039004,0,0
-113.24325346239,-50.277759038073,27.304820482048,2507261.1414408,-544.49712918516,2624072.7004067,32.504820482048,0,0
-113.24325292911,-50.292933344269,27.309250925093,2507261.1414408,-544.49712918516,2624072.7004067,32.509250925093,0,0
-113.24325239583,-50.308107650464,27.313681368137,2507261.1414408,-544.49712918516,2624072.7004067,32.513681368137,0,0
-113.24325186255,-50.32328195666,27.318111811181,2507261.1414408,-544.49712918516,2624072.7004067,32.518111811181,0,0
-113.24325132927,-50.338456262855,27.322542254225,2507261.1414408,-544.49712918516,2624072.7004067,32.522542254225,0,0
-113.24325079599,-50.353630569051,27.32697269727,2507261.1414408,-544.49712918516,2624072.7004067,32.52697269727,0,0
-113.24325026271,-50.368804875246,27.331403140314,2507261.1414408,-544.49712918516,2624072.7004067,32.531403140314,0,0
-113.24324972943,-50.383979181442,27.335833583358,2507261.1414408,-544.49712918516,2624072.7004067,32.535833583358,0,0
-113.24324919614,-50.399153487637,27.340264026403,2507261.1414408,-544.49712918516,2624072.7004067,32.540264026403,0,0
-113.24324866286,-50.414327793832,27.344694469447,2507261.1414408,-544.49712918516,2624072.7004067,32.544694469447,0,0
-113.24324812958,-50.429502100028,27.349124912491,2507261.1414408,-544.49712918516,2624072.7004067,32.549124912491,0,0
-113.2432475963,-50.444676406223,27.353555355536,2507261.1414408,-544.49712918516,2624072.7004067,32.553555355536,0,0
-113.24324706302,-50.459850712419,27.35798579858,2507261.1414408,-544.49712918516,2624072.7004067,32.55798579858,0,0
-113.24324652974,-50.475025018614,27.362416241624,2507261.1414408,-544.49712918516,2624072.7004067,32.562416241624,0,0
-113.24324599646,-50.49019932481,27.366846684668,2507261.1414408,-544.49712918516,2624072.7004067,32.566846684668,0,0
-113.24324546318,-50.505373631005,27.371277127713,2507261.1414408,-544.49712918516,2624072.7004067,32.571277127713,0,0
-113.2432449299,-50.520547937201,27.375707570757,2507261.1414408,-544.49712918516,2624072.7004067,32.575707570757,0,0
-113.24324439661,-50.535722243396,27.380138013801,2507261.1414408,-544.49712918516,2624072.7004067,32.580138013801,0,0
-113.24324386333,-50.550896549592,27.384568456846,2507261.1414408,-544.49712918516,2624072.7004067,32.584568456846,0,0
-113.24324333005,-50.566070855787,27.38899889989,2507261.1414408,-544.49712918516,2624072.7004067,32.58899889989,0,0
-113.24324279677,-50.581245161983,27.393429342934,2507261.1414408,-544.49712918516,2624072.7004067,32.593429342934,0,0
-113.24324226349,-50.596419468178,27.397859785979,2507261.1414408,-544.49712918516,2624072.7004067,32.597859785979,0,0
-113.24324173021,-50.611593774374,27.402290229023,2507261.1414408,-544.49712918516,2624072.7004067,32.602290229023,0,0
-113.24324119693,-50.626768080569,27.406720672067,2507261.1414408,-544.49712918516,2624072.7004067,32.606720672067,0,0
-113.24324066365,-50.641942386765,27.411151115112,2507261.1414408,-544.49712918516,2624072.7004067,32.611151115112,0,0
-113.24324013037,-50.65711669296,27.415581558156,2507261.1414408,-544.49712918516,2624072.7004067,32.615581558156,0,0
-113.24323959708,-50.672290999156,27.4200120012,2507261.1414408,-544.49712918516,2624072.7004067,32.6200120012,0,0
-113.2432390638,-50.687465305351,27.424442444244,2507261.1414408,-544.49712918516,2624072.7004067,32.624442444244,0,0
-113.24323853052,-50.702639611547,27.428872887289,2507261.1414408,-544.49712918516,2624072.7004067,32.628872887289,0,0
-113.24323799724,-50.717813917742,27.433303330333,2507261.1414408,-544.49712918516,2624072.7004067,32.633303330333,0,0
-113.24323746396,-50.732988223938,27.437733773377,2507261.1414408,-544.49712918516,2624072.7004067,32.637733773377,0,0
-113.24323693068,-50.748162530133,27.442164216422,2507261.1414408,-544.49712918516,2624072.7004067,32.642164216422,0,0
-113.2432363974,-50.763336836329,27.446594659466,2507261.1414408,-544.49712918516,2624072.7004067,32.646594659466,0,0
-113.24323586412,-50.778511142524,27.45102510251,2507261.1414408,-544.49712918516,2624072.7004067,32.65102510251,0,0
-113.24323533084,-50.79368544872,27.455455545555,2507261.1414408,-544.49712918516,2624072.7004067,32.655455545555,0,0
-113.24323479755,-50.808859754915,27.459885988599,2507261.1414408,-544.49712918516,2624072.7004067,32.659885988599,0,0
-113.24323426427,-50.824034061111,27.464316431643,2507261.1414408,-544.49712918516,2624072.7004067,32.664316431643,0,0
-113.24323373099,-50.839208367306,27.468746874687,2507261.1414408,-544.49712918516,2624072.7004067,32.668746874687,0,0
-113.24323319771,-50.854382673501,27.473177317732,2507261.1414408,-544.49712918516,2624072.7004067,32.673177317732,0,0
-113.24323266443,-50.869556979697,27.477607760776,2507261.1414408,-544.49712918516,2624072.7004067,32.677607760776,0,0
-113.24323213115,-50.884731285892,27.48203820382,2507261.1414408,-544.49712918516,2624072.7004067,32.68203820382,0,0
-113.24323159787,-50.899905592088,27.486468646865,2507261.1414408,-544.49712918516,2624072.7004067,32.686468646865,0,0
-113.24323106459,-50.915079898283,27.490899089909,2507261.1414408,-544.49712918516,2624072.7004067,32.690899089909,0,0
-113.24323053131,-50.930254204479,27.495329532953,2507261.1414408,-544.49712918516,2624072.7004067,32.695329532953,0,0
-113.24322999802,-50.945428510674,27.499759975998,2507261.1414408,-544.49712918516,2624072.7004067,32.699759975998,0,0
-113.24322946474,-50.96060281687,27.504190419042,2507261.1414408,-544.49712918516,2624072.7004067,32.704190419042,0,0
-113.24322893146,-50.975777123065,27.508620862086,2507261.1414408,-544.49712918516,2624072.7004067,32.708620862086,0,0
-113.24322839818,-50.990951429261,27.513051305131,2507261.1414408,-544.49712918516,2624072.7004067,32.713051305131,0,0
-113.2432278649,-51.006125735456,27.517481748175,2507261.1414408,-544.49712918516,2624072.7004067,32.717481748175,0,0
-113.24322733162,-51.021300041652,27.521912191219,2507261.1414408,-544.49712918516,2624072.7004067,32.721912191219,0,0
-113.24322679834,-51.036474347847,27.526342634263,2507261.1414408,-544.49712918516,2624072.7004067,32.726342634263,0,0
-113.24322626506,-51.051648654043,27.530773077308,2507261.1414408,-544.49712918516,2624072.7004067,32.730773077308,0,0
-113.24322573178,-51.066822960238,27.535203520352,2507261.1414408,-544.49712918516,2624072.7004067,32.735203520352,0,0
-113.24322519849,-51.081997266434,27.539633963396,2507261.1414408,-544.49712918516,2624072.7004067,32.739633963396,0,0
-113.24322466521,-51.097171572629,27.544064406441,2507261.1414408,-544.49712918516,2624072.7004067,32.744064406441,0,0
-113.24322413124,-51.112345878466,27.548494849485,2516443.5891135,109.28760165152,2625608.1263105,32.748494849485,0,0
-113.24322359659,-51.127520183943,27.552925292529,2516443.5891135,109.28760165152,2625608.1263105,32.752925292529,0,0
-113.24322306193,-51.14269448942,27.557355735574,2516443.5891135,109.28760165152,2625608.1263105,32.757355735574,0,0
-113.24322252727,-51.157868794897,27.561786178618,2516443.5891135,109.28760165152,2625608.1263105,32.761786178618,0,0
-113.24322199262,-51.173043100374,27.566216621662,2516443.5891135,109.28760165152,2625608.1263105,32.766216621662,0,0
-113.24322145796,-51.188217405851,27.570647064706,2516443.5891135,109.28760165152,2625608.1263105,32.770647064706,0,0
-113.2432209233,-51.203391711329,27.575077507751,2516443.5891135,109.28760165152,2625608.1263105,32.775077507751,0,0
-113.24322038864,-51.218566016806,27.579507950795,2516443.5891135,109.28760165152,2625608.1263105,32.779507950795,0,0
-113.24321985399,-51.233740322283,27.583938393839,2516443.5891135,109.28760165152,2625608.1263105,32.783938393839,0,0
-113.24321931933,-51.24891462776,27.588368836884,2516443.5891135,109.28760165152,2625608.1263105,32.788368836884,0,0
-113.24321878467,-51.264088933237,27.592799279928,2516443.5891135,109.28760165152,2625608.1263105,32.792799279928,0,0
-113.24321825002,-51.279263238714,27.597229722972,2516443.5891135,109.28760165152,2625608.1263105,32.797229722972,0,0
-113.24321771536,-51.294437544192,27.601660166017,2516443.5891135,109.28760165152,2625608.1263105,32.801660166017,0,0
-113.2432171807,-51.309611849669,27.606090609061,2516443.5891135,109.28760165152,2625608.1263105,32.806090609061,0,0
-113.24321664604,-51.324786155146,27.610521052105,2516443.5891135,109.28760165152,2625608.1263105,32.810521052105,0,0
-113.24321611139,-51.339960460623,27.61495149515,2516443.5891135,109.28760165152,2625608.1263105,32.81495149515,0,0
-113.24321557673,-51.3551347661,27.619381938194,2516443.5891135,109.28760165152,2625608.1263105,32.819381938194,0,0
-113.24321504207,-51.370309071577,27.623812381238,2516443.5891135,109.28760165152,2625608.1263105,32.823812381238,0,0
-113.24321450742,-51.385483377055,27.628242824282,2516443.5891135,109.28760165152,2625608.1263105,32.828242824282,0,0
-113.24321397276,-51.400657682532,27.632673267327,2516443.5891135,109.28760165152,2625608.1263105,32.832673267327,0,0
-113.2432134381,-51.415831988009,27.637103710371,2516443.5891135,109.28760165152,2625608.1263105,32.837103710371,0,0
-113.24321290344,-51.431006293486,27.641534153415,2516443.5891135,109.28760165152,2625608.1263105,32.841534153415,0,0
-113.24321236879,-51.446180598963,27.64596459646,2516443.5891135,109.28760165152,2625608.1263105,32.84596459646,0,0
-113.24321183413,-51.46135490444,27.650395039504,2516443.5891135,109.28760165152,2625608.1263105,32.850395039504,0,0
-113.24321129947,-51.476529209917,27.654825482548,2516443.5891135,109.28760165152,2625608.1263105,32.854825482548,0,0
-113.24321076482,-51.491703515395,27.659255925593,2516443.5891135,109.28760165152,2625608.1263105,32.859255925593,0,0
-113.24321023016,-51.506877820872,27.663686368637,2516443.5891135,109.28760165152,2625608.1263105,32.863686368637,0,0
-113.2432096955,-51.522052126349,27.668116811681,2516443.5891135,109.28760165152,2625608.1263105,32.868116811681,0,0
-113.24320916084,-51.537226431826,27.672547254725,2516443.5891135,109.28760165152,2625608.1263105,32.872547254725,0,0
-113.24320862619,-51.552400737303,27.67697769777,2516443.5891135,109.28760165152,2625608.1263105,32.87697769777,0,0
-113.24320809153,-51.56757504278,27.681408140814,2516443.5891135,109.28760165152,2625608.1263105,32.881408140814,0,0
-113.24320755687,-51.582749348258,27.685838583858,2516443.5891135,109.28760165152,2625608.1263105,32.885838583858,0,0
-113.24320702222,-51.597923653735,27.690269026903,2516443.5891135,109.28760165152,2625608.1263105,32.890269026903,0,0
-113.24320648756,-51.613097959212,27.694699469947,2516443.5891135,109.28760165152,2625608.1263105,32.894699469947,0,0
-113.2432059529,-51.628272264689,27.699129912991,2516443.5891135,109.28760165152,2625608.1263105,32.899129912991,0,0
-113.24320541824,-51.643446570166,27.703560356036,2516443.5891135,109.28760165152,2625608.1263105,32.903560356036,0,0
-113.24320488359,-51.658620875643,27.70799079908,2516443.5891135,109.28760165152,2625608.1263105,32.90799079908,0,0
-113.24320434893,-51.673795181121,27.712421242124,2516443.5891135,109.28760165152,2625608.1263105,32.912421242124,0,0
-113.24320381427,-51.688969486598,27.716851685169,2516443.5891135,109.28760165152,2625608.1263105,32.916851685169,0,0
-113.24320327962,-51.704143792075,27.721282128213,2516443.5891135,109.28760165152,2625608.1263105,32.921282128213,0,0
-113.24320274496,-51.719318097552,27.725712571257,2516443.5891135,109.28760165152,2625608.1263105,32.925712571257,0,0
-113.2432022103,-51.734492403029,27.730143014301,2516443.5891135,109.28760165152,2625608.1263105,32.930143014301,0,0
-113.24320167564,-51.749666708506,27.734573457346,2516443.5891135,109.28760165152,2625608.1263105,32.934573457346,0,0
-113.24320114099,-51.764841013983,27.73900390039,2516443.5891135,109.28760165152,2625608.1263105,32.93900390039,0,0
-113.24320060633,-51.780015319461,27.743434343434,2516443.5891135,109.28760165152,2625608.1263105,32.943434343434,0,0
-113.24320007167,-51.795189624938,27.747864786479,2516443.5891135,109.28760165152,2625608.1263105,32.947864786479,0,0
-113.24319953701,-51.810363930415,27.752295229523,2516443.5891135,109.28760165152,2625608.1263105,32.952295229523,0,0
-113.24319900236,-51.825538235892,27.756725672567,2516443.5891135,109.28760165152,2625608.1263105,32.956725672567,0,0
-113.2431984677,-51.840712541369,27.761156115612,2516443.5891135,109.28760165152,2625608.1263105,32.961156115612,0,0
-113.24319793304,-51.855886846846,27.765586558656,2516443.5891135,109.28760165152,2625608.1263105,32.965586558656,0,0
-113.24319739839,-51.871061152324,27.7700170017,2516443.5891135,109.28760165152,2625608.1263105,32.9700170017,0,0
-113.24319686373,-51.886235457801,27.774447444744,2516443.5891135,109.28760165152,2625608.1263105,32.974447444744,0,0
-113.24319632907,-51.901409763278,27.778877887789,2516443.5891135,109.28760165152,2625608.1263105,32.978877887789,0,0
-113.24319579441,-51.916584068755,27.783308330833,2516443.5891135,109.28760165152,2625608.1263105,32.983308330833,0,0
-113.24319525976,-51.931758374232,27.787738773877,2516443.5891135,109.28760165152,2625608.1263105,32.987738773877,0,0
-113.2431947251,-51.946932679709,27.792169216922,2516443.5891135,109.28760165152,2625608.1263105,32.992169216922,0,0
-113.24319419044,-51.962106985187,27.796599659966,2516443.5891135,109.28760165152,2625608.1263105,32.996599659966,0,0
-113.24319365579,-51.977281290664,27.80103010301,2516443.5891135,109.28760165152,2625608.1263105,33.00103010301,0,0
-113.24319312113,-51.992455596141,27.805460546055,2516443.5891135,109.28760165152,2625608.1263105,33.005460546055,0,0
-113.24319258647,-52.007629901618,27.809890989099,2516443.5891135,109.28760165152,2625608.1263105,33.009890989099,0,0
-113.24319205181,-52.022804207095,27.814321432143,2516443.5891135,109.28760165152,2625608.1263105,33.014321432143,0,0
-113.24319151716,-52.037978512572,27.818751875188,2516443.5891135,109.28760165152,2625608.1263105,33.018751875188,0,0
-113.2431909825,-52.05315281805,27.823182318232,2516443.5891135,109.28760165152,2625608.1263105,33.023182318232,0,0
-113.24319044784,-52.068327123527,27.827612761276,2516443.5891135,109.28760165152,2625608.1263105,33.027612761276,0,0
-113.24318991319,-52.083501429004,27.83204320432,2516443.5891135,109.28760165152,2625608.1263105,33.03204320432,0,0
-113.24318937853,-52.098675734481,27.836473647365,2516443.5891135,109.28760165152,2625608.1263105,33.036473647365,0,0
-113.24318884387,-52.113850039958,27.840904090409,2516443.5891135,109.28760165152,2625608.1263105,33.040904090409,0,0
-113.24318830921,-52.129024345435,27.845334533453,2516443.5891135,109.28760165152,2625608.1263105,33.045334533453,0,0
-113.24318777456,-52.144198650913,27.849764976498,2516443.5891135,109.28760165152,2625608.1263105,33.049764976498,0,0
-113.2431872399,-52.15937295639,27.854195419542,2516443.5891135,109.28760165152,2625608.1263105,33.054195419542,0,0
-113.24318670524,-52.174547261867,27.858625862586,2516443.5891135,109.28760165152,2625608.1263105,33.058625862586,0,0
-113.24318617059,-52.189721567344,27.863056305631,2516443.5891135,109.28760165152,2625608.1263105,33.063056305631,0,0
-113.24318563593,-52.204895872821,27.867486748675,2516443.5891135,109.28760165152,2625608.1263105,33.067486748675,0,0
-113.24318510127,-52.220070178298,27.871917191719,2516443.5891135,109.28760165152,2625608.1263105,33.071917191719,0,0
-113.24318456661,-52.235244483775,27.876347634763,2516443.5891135,109.28760165152,2625608.1263105,33.076347634763,0,0
-113.24318403196,-52.250418789253,27.880778077808,2516443.5891135,109.28760165152,2625608.1263105,33.080778077808,0,0
-113.2431834973,-52.26559309473,27.885208520852,2516443.5891135,109.28760165152,2625608.1263105,33.085208520852,0,0
-113.24318296264,-52.280767400207,27.889638963896,2516443.5891135,109.28760165152,2625608.1263105,33.089638963896,0,0
-113.24318242799,-52.295941705684,27.894069406941,2516443.5891135,109.28760165152,2625608.1263105,33.094069406941,0,0
-113.24318189333,-52.311116011161,27.898499849985,2516443.5891135,109.28760165152,2625608.1263105,33.098499849985,0,0
-113.24318135867,-52.326290316638,27.902930293029,2516443.5891135,109.28760165152,2625608.1263105,33.102930293029,0,0
-113.24318082401,-52.341464622116,27.907360736074,2516443.5891135,109.28760165152,2625608.1263105,33.107360736074,0,0
-113.24318028936,-52.356638927593,27.911791179118,2516443.5891135,109.28760165152,2625608.1263105,33.111791179118,0,0
-113.2431797547,-52.37181323307,27.916221622162,2516443.5891135,109.28760165152,2625608.1263105,33.116221622162,0,0
-113.24317922004,-52.386987538547,27.920652065207,2516443.5891135,109.28760165152,2625608.1263105,33.120652065207,0,0
-113.24317868539,-52.402161844024,27.925082508251,2516443.5891135,109.28760165152,2625608.1263105,33.125082508251,0,0
-113.24317815073,-52.417336149501,27.929512951295,2516443.5891135,109.28760165152,2625608.1263105,33.129512951295,0,0
-113.24317761607,-52.432510454979,27.933943394339,2516443.5891135,109.28760165152,2625608.1263105,33.133943394339,0,0
-113.24317708141,-52.447684760456,27.938373837384,2516443.5891135,109.28760165152,2625608.1263105,33.138373837384,0,0
-113.24317654676,-52.462859065933,27.942804280428,2516443.5891135,109.28760165152,2625608.1263105,33.142804280428,0,0
-113.2431760121,-52.47803337141,27.947234723472,2516443.5891135,109.28760165152,2625608.1263105,33.147234723472,0,0
-113.24317547744,-52.493207676887,27.951665166517,2516443.5891135,109.28760165152,2625608.1263105,33.151665166517,0,0
-113.24317494279,-52.508381982364,27.956095609561,2516443.5891135,109.28760165152,2625608.1263105,33.156095609561,0,0
-113.24317440813,-52.523556287841,27.960526052605,2516443.5891135,109.28760165152,2625608.1263105,33.160526052605,0,0
-113.24317387347,-52.538730593319,27.96495649565,2516443.5891135,109.28760165152,2625608.1263105,33.16495649565,0,0
-113.24317333881,-52.553904898796,27.969386938694,2516443.5891135,109.28760165152,2625608.1263105,33.169386938694,0,0
-113.24317280416,-52.569079204273,27.973817381738,2516443.5891135,109.28760165152,2625608.1263105,33.173817381738,0,0
-113.2431722695,-52.58425350975,27.978247824782,2516443.5891135,109.28760165152,2625608.1263105,33.178247824782,0,0
-113.24317173484,-52.599427815227,27.982678267827,2516443.5891135,109.28760165152,2625608.1263105,33.182678267827,0,0
-113.24317120019,-52.614602120704,27.987108710871,2516443.5891135,109.28760165152,2625608.1263105,33.187108710871,0,0
-113.24317066553,-52.629776426182,27.991539153915,2516443.5891135,109.28760165152,2625608.1263105,33.191539153915,0,0
-113.24317013087,-52.644950731659,27.99596959696,2516443.5891135,109.28760165152,2625608.1263105,33.19596959696,0,0
-113.24316959621,-52.660125037136,28.000400040004,2516443.5891135,109.28760165152,2625608.1263105,33.200400040004,0,0
-113.24316906156,-52.675299342613,28.004830483048,2516443.5891135,109.28760165152,2625608.1263105,33.204830483048,0,0
-113.2431685269,-52.69047364809,28.009260926093,2516443.5891135,109.28760165152,2625608.1263105,33.209260926093,0,0
-113.24316799224,-52.705647953567,28.013691369137,2516443.5891135,109.28760165152,2625608.1263105,33.213691369137,0,0
-113.24316745759,-52.720822259045,28.018121812181,2516443.5891135,109.28760165152,2625608.1263105,33.218121812181,0,0
-113.24316692293,-52.735996564522,28.022552255226,2516443.5891135,109.28760165152,2625608.1263105,33.222552255226,0,0
-113.24316638827,-52.751170869999,28.02698269827,2516443.5891135,109.28760165152,2625608.1263105,33.22698269827,0,0
-113.24316585361,-52.766345175476,28.031413141314,2516443.5891135,109.28760165152,2625608.1263105,33.231413141314,0,0
-113.24316531896,-52.781519480953,28.035843584358,2516443.5891135,109.28760165152,2625608.1263105,33.235843584358,0,0
-113.2431647843,-52.79669378643,28.040274027403,2516443.5891135,109.28760165152,2625608.1263105,33.240274027403,0,0
-113.24316424964,-52.811868091908,28.044704470447,2516443.5891135,109.28760165152,2625608.1263105,33.244704470447,0,0
-113.24316371498,-52.827042397385,28.049134913491,2516443.5891135,109.28760165152,2625608.1263105,33.249134913491,0,0
-113.24316318033,-52.842216702862,28.053565356536,2516443.5891135,109.28760165152,2625608.1263105,33.253565356536,0,0
-113.24316264567,-52.857391008339,28.05799579958,2516443.5891135,109.28760165152,2625608.1263105,33.25799579958,0,0
-113.24316211101,-52.872565313816,28.062426242624,2516443.5891135,109.28760165152,2625608.1263105,33.262426242624,0,0
-113.24316157636,-52.887739619293,28.066856685669,2516443.5891135,109.28760165152,2625608.1263105,33.266856685669,0,0
-113.2431610417,-52.902913924771,28.071287128713,2516443.5891135,109.28760165152,2625608.1263105,33.271287128713,0,0
-113.24316050704,-52.918088230248,28.075717571757,2516443.5891135,109.28760165152,2625608.1263105,33.275717571757,0,0
-113.24315997238,-52.933262535725,28.080148014801,2516443.5891135,109.28760165152,2625608.1263105,33.280148014801,0,0
-113.24315943773,-52.948436841202,28.084578457846,2516443.5891135,109.28760165152,2625608.1263105,33.284578457846,0,0
-113.24315890307,-52.963611146679,28.08900890089,2516443.5891135,109.28760165152,2625608.1263105,33.28900890089,0,0
-113.24315836841,-52.978785452156,28.093439343934,2516443.5891135,109.28760165152,2625608.1263105,33.293439343934,0,0
-113.24315783376,-52.993959757633,28.097869786979,2516443.5891135,109.28760165152,2625608.1263105,33.297869786979,0,0
-113.2431572991,-53.009134063111,28.102300230023,2516443.5891135,109.28760165152,2625608.1263105,33.302300230023,0,0
-113.24315676444,-53.024308368588,28.106730673067,2516443.5891135,109.28760165152,2625608.1263105,33.306730673067,0,0
-113.24315622978,-53.039482674065,28.111161116112,2516443.5891135,109.28760165152,2625608.1263105,33.311161116112,0,0
-113.24315569513,-53.054656979542,28.115591559156,2516443.5891135,109.28760165152,2625608.1263105,33.315591559156,0,0
-113.24315516047,-53.069831285019,28.1200220022,2516443.5891135,109.28760165152,2625608.1263105,33.3200220022,0,0
-113.24315462581,-53.085005590496,28.124452445245,2516443.5891135,109.28760165152,2625608.1263105,33.324452445245,0,0
-113.24315409116,-53.100179895974,28.128882888289,2516443.5891135,109.28760165152,2625608.1263105,33.328882888289,0,0
-113.2431535565,-53.115354201451,28.133313331333,2516443.5891135,109.28760165152,2625608.1263105,33.333313331333,0,0
-113.24315302184,-53.130528506928,28.137743774377,2516443.5891135,109.28760165152,2625608.1263105,33.337743774377,0,0
-113.24315248718,-53.145702812405,28.142174217422,2516443.5891135,109.28760165152,2625608.1263105,33.342174217422,0,0
-113.24315195253,-53.160877117882,28.146604660466,2516443.5891135,109.28760165152,2625608.1263105,33.346604660466,0,0
-113.24315141787,-53.176051423359,28.15103510351,2516443.5891135,109.28760165152,2625608.1263105,33.35103510351,0,0
-113.24315088321,-53.191225728837,28.155465546555,2516443.5891135,109.28760165152,2625608.1263105,33.355465546555,0,0
-113.24315034856,-53.206400034314,28.159895989599,2516443.5891135,109.28760165152,2625608.1263105,33.359895989599,0,0
-113.2431498139,-53.221574339791,28.164326432643,2516443.5891135,109.28760165152,2625608.1263105,33.364326432643,0,0
-113.24314927924,-53.236748645268,28.168756875688,2516443.5891135,109.28760165152,2625608.1263105,33.368756875688,0,0
-113.24314874458,-53.251922950745,28.173187318732,2516443.5891135,109.28760165152,2625608.1263105,33.373187318732,0,0
-113.24314820993,-53.267097256222,28.177617761776,2516443.5891135,109.28760165152,2625608.1263105,33.377617761776,0,0
-113.24314767527,-53.2822715617,28.18204820482,2516443.5891135,109.28760165152,2625608.1263105,33.38204820482,0,0
-113.24314714061,-53.297445867177,28.186478647865,2516443.5891135,109.28760165152,2625608.1263105,33.386478647865,0,0
-113.24314660596,-53.312620172654,28.190909090909,2516443.5891135,109.28760165152,2625608.1263105,33.390909090909,0,0
-113.2431460713,-53.327794478131,28.195339533953,2516443.5891135,109.28760165152,2625608.1263105,33.395339533953,0,0
-113.24314553664,-53.342968783608,28.199769976998,2516443.5891135,109.28760165152,2625608.1263105,33.399769976998,0,0
-113.24314500198,-53.358143089085,28.204200420042,2516443.5891135,109.28760165152,2625608.1263105,33.404200420042,0,0
-113.24314446733,-53.373317394562,28.208630863086,2516443.5891135,109.28760165152,2625608.1263105,33.408630863086,0,0
-113.24314393267,-53.38849170004,28.213061306131,2516443.5891135,109.28760165152,2625608.1263105,33.413061306131,0,0
-113.24314339801,-53.403666005517,28.217491749175,2516443.5891135,109.28760165152,2625608.1263105,33.417491749175,0,0
-113.24314286336,-53.418840310994,28.221922192219,2516443.5891135,109.28760165152,2625608.1263105,33.421922192219,0,0
-113.2431423287,-53.434014616471,28.226352635264,2516443.5891135,109.28760165152,2625608.1263105,33.426352635264,0,0
-113.24314179404,-53.449188921948,28.230783078308,2516443.5891135,109.28760165152,2625608.1263105,33.430783078308,0,0
-113.24314125938,-53.464363227425,28.235213521352,2516443.5891135,109.28760165152,2625608.1263105,33.435213521352,0,0
-113.24314072473,-53.479537532903,28.239643964396,2516443.5891135,109.28760165152,2625608.1263105,33.439643964396,0,0
-113.24314019007,-53.49471183838,28.244074407441,2516443.5891135,109.28760165152,2625608.1263105,33.444074407441,0,0
-113.24313965541,-53.509886143857,28.248504850485,2516443.5891135,109.28760165152,2625608.1263105,33.448504850485,0,0
-113.24313912076,-53.525060449334,28.252935293529,2516443.5891135,109.28760165152,2625608.1263105,33.452935293529,0,0
-113.2431385861,-53.540234754811,28.257365736574,2516443.5891135,109.28760165152,2625608.1263105,33.457365736574,0,0
-113.24313805144,-53.555409060288,28.261796179618,2516443.5891135,109.28760165152,2625608.1263105,33.461796179618,0,0
-113.24313751678,-53.570583365766,28.266226622662,2516443.5891135,109.28760165152,2625608.1263105,33.466226622662,0,0
-113.24313698213,-53.585757671243,28.270657065707,2516443.5891135,109.28760165152,2625608.1263105,33.470657065707,0,0
-113.24313644747,-53.60093197672,28.275087508751,2516443.5891135,109.28760165152,2625608.1263105,33.475087508751,0,0
-113.24313591281,-53.616106282197,28.279517951795,2516443.5891135,109.28760165152,2625608.1263105,33.479517951795,0,0
-113.24313537816,-53.631280587674,28.283948394839,2516443.5891135,109.28760165152,2625608.1263105,33.483948394839,0,0
-113.2431348435,-53.646454893151,28.288378837884,2516443.5891135,109.28760165152,2625608.1263105,33.488378837884,0,0
-113.24313430884,-53.661629198629,28.292809280928,2516443.5891135,109.28760165152,2625608.1263105,33.492809280928,0,0
-113.24313377418,-53.676803504106,28.297239723972,2516443.5891135,109.28760165152,2625608.1263105,33.497239723972,0,0
-113.24313323953,-53.691977809583,28.301670167017,2516443.5891135,109.28760165152,2625608.1263105,33.501670167017,0,0
-113.24313270487,-53.70715211506,28.306100610061,2516443.5891135,109.28760165152,2625608.1263105,33.506100610061,0,0
-113.24313217021,-53.722326420537,28.310531053105,2516443.5891135,109.28760165152,2625608.1263105,33.510531053105,0,0
-113.24313163556,-53.737500726014,28.31496149615,2516443.5891135,109.28760165152,2625608.1263105,33.51496149615,0,0
-113.2431311009,-53.752675031491,28.319391939194,2516443.5891135,109.28760165152,2625608.1263105,33.519391939194,0,0
-113.24313056624,-53.767849336969,28.323822382238,2516443.5891135,109.28760165152,2625608.1263105,33.523822382238,0,0
-113.24313003158,-53.783023642446,28.328252825283,2516443.5891135,109.28760165152,2625608.1263105,33.528252825283,0,0
-113.24312949693,-53.798197947923,28.332683268327,2516443.5891135,109.28760165152,2625608.1263105,33.532683268327,0,0
-113.24312896227,-53.8133722534,28.337113711371,2516443.5891135,109.28760165152,2625608.1263105,33.537113711371,0,0
-113.24312842761,-53.828546558877,28.341544154415,2516443.5891135,109.28760165152,2625608.1263105,33.541544154415,0,0
-113.24312789296,-53.843720864354,28.34597459746,2516443.5891135,109.28760165152,2625608.1263105,33.54597459746,0,0
-113.2431273583,-53.858895169832,28.350405040504,2516443.5891135,109.28760165152,2625608.1263105,33.550405040504,0,0
-113.24312682364,-53.874069475309,28.354835483548,2516443.5891135,109.28760165152,2625608.1263105,33.554835483548,0,0
-113.24312628898,-53.889243780786,28.359265926593,2516443.5891135,109.28760165152,2625608.1263105,33.559265926593,0,0
-113.24312575433,-53.904418086263,28.363696369637,2516443.5891135,109.28760165152,2625608.1263105,33.563696369637,0,0
-113.24312521967,-53.91959239174,28.368126812681,2516443.5891135,109.28760165152,2625608.1263105,33.568126812681,0,0
-113.24312468501,-53.934766697217,28.372557255726,2516443.5891135,109.28760165152,2625608.1263105,33.572557255726,0,0
-113.24312415035,-53.949941002695,28.37698769877,2516443.5891135,109.28760165152,2625608.1263105,33.57698769877,0,0
-113.2431236157,-53.965115308172,28.381418141814,2516443.5891135,109.28760165152,2625608.1263105,33.581418141814,0,0
-113.24312308104,-53.980289613649,28.385848584858,2516443.5891135,109.28760165152,2625608.1263105,33.585848584858,0,0
-113.24312254638,-53.995463919126,28.390279027903,2516443.5891135,109.28760165152,2625608.1263105,33.590279027903,0,0
-113.24312201173,-54.010638224603,28.394709470947,2516443.5891135,109.28760165152,2625608.1263105,33.594709470947,0,0
-113.24312147707,-54.02581253008,28.399139913991,2516443.5891135,109.28760165152,2625608.1263105,33.599139913991,0,0
-113.24312094241,-54.040986835558,28.403570357036,2516443.5891135,109.28760165152,2625608.1263105,33.603570357036,0,0
-113.24312040775,-54.056161141035,28.40800080008,2516443.5891135,109.28760165152,2625608.1263105,33.60800080008,0,0
-113.2431198731,-54.071335446512,28.412431243124,2516443.5891135,109.28760165152,2625608.1263105,33.612431243124,0,0
-113.24311933844,-54.086509751989,28.416861686169,2516443.5891135,109.28760165152,2625608.1263105,33.616861686169,0,0
-113.24311880378,-54.101684057466,28.421292129213,2516443.5891135,109.28760165152,2625608.1263105,33.621292129213,0,0
-113.24311826913,-54.116858362943,28.425722572257,2516443.5891135,109.28760165152,2625608.1263105,33.625722572257,0,0
-113.24311773447,-54.13203266842,28.430153015302,2516443.5891135,109.28760165152,2625608.1263105,33.630153015302,0,0
-113.24311719981,-54.147206973898,28.434583458346,2516443.5891135,109.28760165152,2625608.1263105,33.634583458346,0,0
-113.24311666515,-54.162381279375,28.43901390139,2516443.5891135,109.28760165152,2625608.1263105,33.63901390139,0,0
-113.2431161305,-54.177555584852,28.443444344434,2516443.5891135,109.28760165152,2625608.1263105,33.643444344434,0,0
-113.24311559584,-54.192729890329,28.447874787479,2516443.5891135,109.28760165152,2625608.1263105,33.647874787479,0,0
-113.24311506118,-54.207904195806,28.452305230523,2516443.5891135,109.28760165152,2625608.1263105,33.652305230523,0,0
-113.24311452653,-54.223078501283,28.456735673567,2516443.5891135,109.28760165152,2625608.1263105,33.656735673567,0,0
-113.24311399187,-54.238252806761,28.461166116612,2516443.5891135,109.28760165152,2625608.1263105,33.661166116612,0,0
-113.24311345721,-54.253427112238,28.465596559656,2516443.5891135,109.28760165152,2625608.1263105,33.665596559656,0,0
-113.24311292255,-54.268601417715,28.4700270027,2516443.5891135,109.28760165152,2625608.1263105,33.6700270027,0,0
-113.2431123879,-54.283775723192,28.474457445745,2516443.5891135,109.28760165152,2625608.1263105,33.674457445745,0,0
-113.24311185324,-54.298950028669,28.478887888789,2516443.5891135,109.28760165152,2625608.1263105,33.678887888789,0,0
-113.24311131858,-54.314124334146,28.483318331833,2516443.5891135,109.28760165152,2625608.1263105,33.683318331833,0,0
-113.24311078393,-54.329298639624,28.487748774877,2516443.5891135,109.28760165152,2625608.1263105,33.687748774877,0,0
-113.24311024927,-54.344472945101,28.492179217922,2516443.5891135,109.28760165152,2625608.1263105,33.692179217922,0,0
-113.24310971461,-54.359647250578,28.496609660966,2516443.5891135,109.28760165152,2625608.1263105,33.696609660966,0,0
-113.24310917995,-54.374821556055,28.50104010401,2516443.5891135,109.28760165152,2625608.1263105,33.70104010401,0,0
-113.2431086453,-54.389995861532,28.505470547055,2516443.5891135,109.28760165152,2625608.1263105,33.705470547055,0,0
-113.24310811064,-54.405170167009,28.509900990099,2516443.5891135,109.28760165152,2625608.1263105,33.709900990099,0,0
-113.24310757598,-54.420344472487,28.514331433143,2516443.5891135,109.28760165152,2625608.1263105,33.714331433143,0,0
-113.24310704133,-54.435518777964,28.518761876188,2516443.5891135,109.28760165152,2625608.1263105,33.718761876188,0,0
-113.24310650667,-54.450693083441,28.523192319232,2516443.5891135,109.28760165152,2625608.1263105,33.723192319232,0,0
-113.24310597201,-54.465867388918,28.527622762276,2516443.5891135,109.28760165152,2625608.1263105,33.727622762276,0,0
-113.24310543735,-54.481041694395,28.532053205321,2516443.5891135,109.28760165152,2625608.1263105,33.732053205321,0,0
-113.2431049027,-54.496215999872,28.536483648365,2516443.5891135,109.28760165152,2625608.1263105,33.736483648365,0,0
-113.24310436804,-54.511390305349,28.540914091409,2516443.5891135,109.28760165152,2625608.1263105,33.740914091409,0,0
-113.24310383338,-54.526564610827,28.545344534453,2516443.5891135,109.28760165152,2625608.1263105,33.745344534453,0,0
-113.24310329873,-54.541738916304,28.549774977498,2516443.5891135,109.28760165152,2625608.1263105,33.749774977498,0,0
-113.24310276407,-54.556913221781,28.554205420542,2516443.5891135,109.28760165152,2625608.1263105,33.754205420542,0,0
-113.24310222941,-54.572087527258,28.558635863586,2516443.5891135,109.28760165152,2625608.1263105,33.758635863586,0,0
-113.24310169475,-54.587261832735,28.563066306631,2516443.5891135,109.28760165152,2625608.1263105,33.763066306631,0,0
-113.2431011601,-54.602436138212,28.567496749675,2516443.5891135,109.28760165152,2625608.1263105,33.767496749675,0,0
-113.24310062544,-54.61761044369,28.571927192719,2516443.5891135,109.28760165152,2625608.1263105,33.771927192719,0,0
-113.24310009078,-54.632784749167,28.576357635764,2516443.5891135,109.28760165152,2625608.1263105,33.776357635764,0,0
-113.24309955613,-54.647959054644,28.580788078808,2516443.5891135,109.28760165152,2625608.1263105,33.780788078808,0,0
-113.24309902147,-54.663133360121,28.585218521852,2516443.5891135,109.28760165152,2625608.1263105,33.785218521852,0,0
-113.24309848681,-54.678307665598,28.589648964896,2516443.5891135,109.28760165152,2625608.1263105,33.789648964896,0,0
-113.24309795215,-54.693481971075,28.594079407941,2516443.5891135,109.28760165152,2625608.1263105,33.794079407941,0,0
-113.2430974175,-54.708656276553,28.598509850985,2516443.5891135,109.28760165152,2625608.1263105,33.798509850985,0,0
-113.24309688284,-54.72383058203,28.602940294029,2516443.5891135,109.28760165152,2625608.1263105,33.802940294029,0,0
-113.24309634818,-54.739004887507,28.607370737074,2516443.5891135,109.28760165152,2625608.1263105,33.807370737074,0,0
-113.24309581353,-54.754179192984,28.611801180118,2516443.5891135,109.28760165152,2625608.1263105,33.811801180118,0,0
-113.24309527887,-54.769353498461,28.616231623162,2516443.5891135,109.28760165152,2625608.1263105,33.816231623162,0,0
-113.24309474421,-54.784527803938,28.620662066207,2516443.5891135,109.28760165152,2625608.1263105,33.820662066207,0,0
-113.24309420955,-54.799702109416,28.625092509251,2516443.5891135,109.28760165152,2625608.1263105,33.825092509251,0,0
-113.2430936749,-54.814876414893,28.629522952295,2516443.5891135,109.28760165152,2625608.1263105,33.829522952295,0,0
-113.24309314024,-54.83005072037,28.63395339534,2516443.5891135,109.28760165152,2625608.1263105,33.83395339534,0,0
-113.24309260558,-54.845225025847,28.638383838384,2516443.5891135,109.28760165152,2625608.1263105,33.838383838384,0,0
-113.24309207093,-54.860399331324,28.642814281428,2516443.5891135,109.28760165152,2625608.1263105,33.842814281428,0,0
-113.24309153627,-54.875573636801,28.647244724472,2516443.5891135,109.28760165152,2625608.1263105,33.847244724472,0,0
-113.24309100161,-54.890747942278,28.651675167517,2516443.5891135,109.28760165152,2625608.1263105,33.851675167517,0,0
-113.24309046695,-54.905922247756,28.656105610561,2516443.5891135,109.28760165152,2625608.1263105,33.856105610561,0,0
-113.2430899323,-54.921096553233,28.660536053605,2516443.5891135,109.28760165152,2625608.1263105,33.860536053605,0,0
-113.24308939764,-54.93627085871,28.66496649665,2516443.5891135,109.28760165152,2625608.1263105,33.86496649665,0,0
-113.24308886298,-54.951445164187,28.669396939694,2516443.5891135,109.28760165152,2625608.1263105,33.869396939694,0,0
-113.24308832833,-54.966619469664,28.673827382738,2516443.5891135,109.28760165152,2625608.1263105,33.873827382738,0,0
-113.24308779367,-54.981793775141,28.678257825783,2516443.5891135,109.28760165152,2625608.1263105,33.878257825783,0,0
-113.24308725901,-54.996968080619,28.682688268827,2516443.5891135,109.28760165152,2625608.1263105,33.882688268827,0,0
-113.24308672435,-55.012142386096,28.687118711871,2516443.5891135,109.28760165152,2625608.1263105,33.887118711871,0,0
-113.2430861897,-55.027316691573,28.691549154915,2516443.5891135,109.28760165152,2625608.1263105,33.891549154915,0,0
-113.24308565504,-55.04249099705,28.69597959796,2516443.5891135,109.28760165152,2625608.1263105,33.89597959796,0,0
-113.24308512038,-55.057665302527,28.700410041004,2516443.5891135,109.28760165152,2625608.1263105,33.900410041004,0,0
-113.24308458572,-55.072839608004,28.704840484048,2516443.5891135,109.28760165152,2625608.1263105,33.904840484048,0,0
-113.24308405107,-55.088013913482,28.709270927093,2516443.5891135,109.28760165152,2625608.1263105,33.909270927093,0,0
-113.24308351641,-55.103188218959,28.713701370137,2516443.5891135,109.28760165152,2625608.1263105,33.913701370137,0,0
-113.24308298175,-55.118362524436,28.718131813181,2516443.5891135,109.28760165152,2625608.1263105,33.918131813181,0,0
-113.2430824471,-55.133536829913,28.722562256226,2516443.5891135,109.28760165152,2625608.1263105,33.922562256226,0,0
-113.24308191244,-55.14871113539,28.72699269927,2516443.5891135,109.28760165152,2625608.1263105,33.92699269927,0,0
-113.24308137778,-55.163885440867,28.731423142314,2516443.5891135,109.28760165152,2625608.1263105,33.931423142314,0,0
-113.24308084312,-55.179059746345,28.735853585359,2516443.5891135,109.28760165152,2625608.1263105,33.935853585359,0,0
-113.24308030847,-55.194234051822,28.740284028403,2516443.5891135,109.28760165152,2625608.1263105,33.940284028403,0,0
-113.24307977381,-55.209408357299,28.744714471447,2516443.5891135,109.28760165152,2625608.1263105,33.944714471447,0,0
-113.24307923915,-55.224582662776,28.749144914491,2516443.5891135,109.28760165152,2625608.1263105,33.949144914491,0,0
-113.2430787045,-55.239756968253,28.753575357536,2516443.5891135,109.28760165152,2625608.1263105,33.953575357536,0,0
-113.24307816984,-55.25493127373,28.75800580058,2516443.5891135,109.28760165152,2625608.1263105,33.95800580058,0,0
-113.24307763518,-55.270105579207,28.762436243624,2516443.5891135,109.28760165152,2625608.1263105,33.962436243624,0,0
-113.24307710052,-55.285279884685,28.766866686669,2516443.5891135,109.28760165152,2625608.1263105,33.966866686669,0,0
-113.24307656587,-55.300454190162,28.771297129713,2516443.5891135,109.28760165152,2625608.1263105,33.971297129713,0,0
-113.24307603121,-55.315628495639,28.775727572757,2516443.5891135,109.28760165152,2625608.1263105,33.975727572757,0,0
-113.24307549655,-55.330802801116,28.780158015802,2516443.5891135,109.28760165152,2625608.1263105,33.980158015802,0,0
-113.2430749619,-55.345977106593,28.784588458846,2516443.5891135,109.28760165152,2625608.1263105,33.984588458846,0,0
-113.24307442724,-55.36115141207,28.78901890189,2516443.5891135,109.28760165152,2625608.1263105,33.98901890189,0,0
-113.24307389258,-55.376325717548,28.793449344934,2516443.5891135,109.28760165152,2625608.1263105,33.993449344934,0,0
-113.24307335792,-55.391500023025,28.797879787979,2516443.5891135,109.28760165152,2625608.1263105,33.997879787979,0,0
-113.24307282327,-55.406674328502,28.802310231023,2516443.5891135,109.28760165152,2625608.1263105,34.002310231023,0,0
-113.24307228861,-55.421848633979,28.806740674067,2516443.5891135,109.28760165152,2625608.1263105,34.006740674067,0,0
-113.24307175395,-55.437022939456,28.811171117112,2516443.5891135,109.28760165152,2625608.1263105,34.011171117112,0,0
-113.2430712193,-55.452197244933,28.815601560156,2516443.5891135,109.28760165152,2625608.1263105,34.015601560156,0,0
-113.24307068464,-55.467371550411,28.8200320032,2516443.5891135,109.28760165152,2625608.1263105,34.0200320032,0,0
-113.24307014998,-55.482545855888,28.824462446245,2516443.5891135,109.28760165152,2625608.1263105,34.024462446245,0,0
-113.24306961532,-55.497720161365,28.828892889289,2516443.5891135,109.28760165152,2625608.1263105,34.028892889289,0,0
-113.24306908067,-55.512894466842,28.833323332333,2516443.5891135,109.28760165152,2625608.1263105,34.033323332333,0,0
-113.24306854601,-55.528068772319,28.837753775378,2516443.5891135,109.28760165152,2625608.1263105,34.037753775378,0,0
-113.24306801135,-55.543243077796,28.842184218422,2516443.5891135,109.28760165152,2625608.1263105,34.042184218422,0,0
-113.2430674767,-55.558417383274,28.846614661466,2516443.5891135,109.28760165152,2625608.1263105,34.046614661466,0,0
-113.24306694204,-55.573591688751,28.85104510451,2516443.5891135,109.28760165152,2625608.1263105,34.05104510451,0,0
-113.24306640738,-55.588765994228,28.855475547555,2516443.5891135,109.28760165152,2625608.1263105,34.055475547555,0,0
-113.24306587272,-55.603940299705,28.859905990599,2516443.5891135,109.28760165152,2625608.1263105,34.059905990599,0,0
-113.24306533807,-55.619114605182,28.864336433643,2516443.5891135,109.28760165152,2625608.1263105,34.064336433643,0,0
-113.24306480341,-55.634288910659,28.868766876688,2516443.5891135,109.28760165152,2625608.1263105,34.068766876688,0,0
-113.24306426875,-55.649463216137,28.873197319732,2516443.5891135,109.28760165152,2625608.1263105,34.073197319732,0,0
-113.2430637341,-55.664637521614,28.877627762776,2516443.5891135,109.28760165152,2625608.1263105,34.077627762776,0,0
-113.24306319944,-55.679811827091,28.882058205821,2516443.5891135,109.28760165152,2625608.1263105,34.082058205821,0,0
-113.24306266478,-55.694986132568,28.886488648865,2516443.5891135,109.28760165152,2625608.1263105,34.086488648865,0,0
-113.24306213012,-55.710160438045,28.890919091909,2516443.5891135,109.28760165152,2625608.1263105,34.090919091909,0,0
-113.24306159547,-55.725334743522,28.895349534953,2516443.5891135,109.28760165152,2625608.1263105,34.095349534953,0,0
-113.24306106081,-55.740509048999,28.899779977998,2516443.5891135,109.28760165152,2625608.1263105,34.099779977998,0,0
-113.24306052615,-55.755683354477,28.904210421042,2516443.5891135,109.28760165152,2625608.1263105,34.104210421042,0,0
-113.24305999114,-55.770857660832,28.908640864086,2517507.43919,-1697.7425006903,2620079.5525909,34.108640864086,0,0
-113.24305945603,-55.786031967443,28.913071307131,2517507.43919,-1697.7425006903,2620079.5525909,34.113071307131,0,0
-113.24305892092,-55.801206274053,28.917501750175,2517507.43919,-1697.7425006903,2620079.5525909,34.117501750175,0,0
-113.24305838581,-55.816380580664,28.921932193219,2517507.43919,-1697.7425006903,2620079.5525909,34.121932193219,0,0
-113.2430578507,-55.831554887274,28.926362636264,2517507.43919,-1697.7425006903,2620079.5525909,34.126362636264,0,0
-113.24305731558,-55.846729193885,28.930793079308,2517507.43919,-1697.7425006903,2620079.5525909,34.130793079308,0,0
-113.24305678047,-55.861903500495,28.935223522352,2517507.43919,-1697.7425006903,2620079.5525909,34.135223522352,0,0
-113.24305624536,-55.877077807105,28.939653965397,2517507.43919,-1697.7425006903,2620079.5525909,34.139653965397,0,0
-113.24305571025,-55.892252113716,28.944084408441,2517507.43919,-1697.7425006903,2620079.5525909,34.144084408441,0,0
-113.24305517514,-55.907426420326,28.948514851485,2517507.43919,-1697.7425006903,2620079.5525909,34.148514851485,0,0
-113.24305464003,-55.922600726937,28.952945294529,2517507.43919,-1697.7425006903,2620079.5525909,34.152945294529,0,0
-113.24305410491,-55.937775033547,28.957375737574,2517507.43919,-1697.7425006903,2620079.5525909,34.157375737574,0,0
-113.2430535698,-55.952949340158,28.961806180618,2517507.43919,-1697.7425006903,2620079.5525909,34.161806180618,0,0
-113.24305303469,-55.968123646768,28.966236623662,2517507.43919,-1697.7425006903,2620079.5525909,34.166236623662,0,0
-113.24305249958,-55.983297953378,28.970667066707,2517507.43919,-1697.7425006903,2620079.5525909,34.170667066707,0,0
-113.24305196447,-55.998472259989,28.975097509751,2517507.43919,-1697.7425006903,2620079.5525909,34.175097509751,0,0
-113.24305142936,-56.013646566599,28.979527952795,2517507.43919,-1697.7425006903,2620079.5525909,34.179527952795,0,0
-113.24305089424,-56.02882087321,28.98395839584,2517507.43919,-1697.7425006903,2620079.5525909,34.18395839584,0,0
-113.24305035913,-56.04399517982,28.988388838884,2517507.43919,-1697.7425006903,2620079.5525909,34.188388838884,0,0
-113.24304982402,-56.059169486431,28.992819281928,2517507.43919,-1697.7425006903,2620079.5525909,34.192819281928,0,0
-113.24304928891,-56.074343793041,28.997249724972,2517507.43919,-1697.7425006903,2620079.5525909,34.197249724972,0,0
-113.2430487538,-56.089518099651,29.001680168017,2517507.43919,-1697.7425006903,2620079.5525909,34.201680168017,0,0
-113.24304821869,-56.104692406262,29.006110611061,2517507.43919,-1697.7425006903,2620079.5525909,34.206110611061,0,0
-113.24304768357,-56.119866712872,29.010541054105,2517507.43919,-1697.7425006903,2620079.5525909,34.210541054105,0,0
-113.24304714846,-56.135041019483,29.01497149715,2517507.43919,-1697.7425006903,2620079.5525909,34.21497149715,0,0
-113.24304661335,-56.150215326093,29.019401940194,2517507.43919,-1697.7425006903,2620079.5525909,34.219401940194,0,0
-113.24304607824,-56.165389632704,29.023832383238,2517507.43919,-1697.7425006903,2620079.5525909,34.223832383238,0,0
-113.24304554313,-56.180563939314,29.028262826283,2517507.43919,-1697.7425006903,2620079.5525909,34.228262826283,0,0
-113.24304500802,-56.195738245924,29.032693269327,2517507.43919,-1697.7425006903,2620079.5525909,34.232693269327,0,0
-113.2430444729,-56.210912552535,29.037123712371,2517507.43919,-1697.7425006903,2620079.5525909,34.237123712371,0,0
-113.24304393779,-56.226086859145,29.041554155416,2517507.43919,-1697.7425006903,2620079.5525909,34.241554155416,0,0
-113.24304340268,-56.241261165756,29.04598459846,2517507.43919,-1697.7425006903,2620079.5525909,34.24598459846,0,0
-113.24304286757,-56.256435472366,29.050415041504,2517507.43919,-1697.7425006903,2620079.5525909,34.250415041504,0,0
-113.24304233246,-56.271609778977,29.054845484548,2517507.43919,-1697.7425006903,2620079.5525909,34.254845484548,0,0
-113.24304179735,-56.286784085587,29.059275927593,2517507.43919,-1697.7425006903,2620079.5525909,34.259275927593,0,0
-113.24304126223,-56.301958392198,29.063706370637,2517507.43919,-1697.7425006903,2620079.5525909,34.263706370637,0,0
-113.24304072712,-56.317132698808,29.068136813681,2517507.43919,-1697.7425006903,2620079.5525909,34.268136813681,0,0
-113.24304019201,-56.332307005418,29.072567256726,2517507.43919,-1697.7425006903,2620079.5525909,34.272567256726,0,0
-113.2430396569,-56.347481312029,29.07699769977,2517507.43919,-1697.7425006903,2620079.5525909,34.27699769977,0,0
-113.24303912179,-56.362655618639,29.081428142814,2517507.43919,-1697.7425006903,2620079.5525909,34.281428142814,0,0
-113.24303858668,-56.37782992525,29.085858585859,2517507.43919,-1697.7425006903,2620079.5525909,34.285858585859,0,0
-113.24303805156,-56.39300423186,29.090289028903,2517507.43919,-1697.7425006903,2620079.5525909,34.290289028903,0,0
-113.24303751645,-56.408178538471,29.094719471947,2517507.43919,-1697.7425006903,2620079.5525909,34.294719471947,0,0
-113.24303698134,-56.423352845081,29.099149914991,2517507.43919,-1697.7425006903,2620079.5525909,34.299149914991,0,0
-113.24303644623,-56.438527151691,29.103580358036,2517507.43919,-1697.7425006903,2620079.5525909,34.303580358036,0,0
-113.24303591112,-56.453701458302,29.10801080108,2517507.43919,-1697.7425006903,2620079.5525909,34.30801080108,0,0
-113.24303537601,-56.468875764912,29.112441244124,2517507.43919,-1697.7425006903,2620079.5525909,34.312441244124,0,0
-113.24303484089,-56.484050071523,29.116871687169,2517507.43919,-1697.7425006903,2620079.5525909,34.316871687169,0,0
-113.24303430578,-56.499224378133,29.121302130213,2517507.43919,-1697.7425006903,2620079.5525909,34.321302130213,0,0
-113.24303377067,-56.514398684744,29.125732573257,2517507.43919,-1697.7425006903,2620079.5525909,34.325732573257,0,0
-113.24303323556,-56.529572991354,29.130163016302,2517507.43919,-1697.7425006903,2620079.5525909,34.330163016302,0,0
-113.24303270045,-56.544747297964,29.134593459346,2517507.43919,-1697.7425006903,2620079.5525909,34.334593459346,0,0
-113.24303216534,-56.559921604575,29.13902390239,2517507.43919,-1697.7425006903,2620079.5525909,34.33902390239,0,0
-113.24303163022,-56.575095911185,29.143454345435,2517507.43919,-1697.7425006903,2620079.5525909,34.343454345435,0,0
-113.24303109511,-56.590270217796,29.147884788479,2517507.43919,-1697.7425006903,2620079.5525909,34.347884788479,0,0
-113.24303056,-56.605444524406,29.152315231523,2517507.43919,-1697.7425006903,2620079.5525909,34.352315231523,0,0
-113.24303002489,-56.620618831017,29.156745674567,2517507.43919,-1697.7425006903,2620079.5525909,34.356745674567,0,0
-113.24302948978,-56.635793137627,29.161176117612,2517507.43919,-1697.7425006903,2620079.5525909,34.361176117612,0,0
-113.24302895466,-56.650967444237,29.165606560656,2517507.43919,-1697.7425006903,2620079.5525909,34.365606560656,0,0
-113.24302841955,-56.666141750848,29.1700370037,2517507.43919,-1697.7425006903,2620079.5525909,34.3700370037,0,0
-113.24302788444,-56.681316057458,29.174467446745,2517507.43919,-1697.7425006903,2620079.5525909,34.374467446745,0,0
-113.24302734933,-56.696490364069,29.178897889789,2517507.43919,-1697.7425006903,2620079.5525909,34.378897889789,0,0
-113.24302681422,-56.711664670679,29.183328332833,2517507.43919,-1697.7425006903,2620079.5525909,34.383328332833,0,0
-113.24302627911,-56.72683897729,29.187758775878,2517507.43919,-1697.7425006903,2620079.5525909,34.387758775878,0,0
-113.24302574399,-56.7420132839,29.192189218922,2517507.43919,-1697.7425006903,2620079.5525909,34.392189218922,0,0
-113.24302520888,-56.75718759051,29.196619661966,2517507.43919,-1697.7425006903,2620079.5525909,34.396619661966,0,0
-113.24302467377,-56.772361897121,29.20105010501,2517507.43919,-1697.7425006903,2620079.5525909,34.40105010501,0,0
-113.24302413866,-56.787536203731,29.205480548055,2517507.43919,-1697.7425006903,2620079.5525909,34.405480548055,0,0
-113.24302360355,-56.802710510342,29.209910991099,2517507.43919,-1697.7425006903,2620079.5525909,34.409910991099,0,0
-113.24302306844,-56.817884816952,29.214341434143,2517507.43919,-1697.7425006903,2620079.5525909,34.414341434143,0,0
-113.24302253332,-56.833059123563,29.218771877188,2517507.43919,-1697.7425006903,2620079.5525909,34.418771877188,0,0
-113.24302199821,-56.848233430173,29.223202320232,2517507.43919,-1697.7425006903,2620079.5525909,34.423202320232,0,0
-113.2430214631,-56.863407736783,29.227632763276,2517507.43919,-1697.7425006903,2620079.5525909,34.427632763276,0,0
-113.24302092799,-56.878582043394,29.232063206321,2517507.43919,-1697.7425006903,2620079.5525909,34.432063206321,0,0
-113.24302039288,-56.893756350004,29.236493649365,2517507.43919,-1697.7425006903,2620079.5525909,34.436493649365,0,0
-113.24301985777,-56.908930656615,29.240924092409,2517507.43919,-1697.7425006903,2620079.5525909,34.440924092409,0,0
-113.24301932265,-56.924104963225,29.245354535454,2517507.43919,-1697.7425006903,2620079.5525909,34.445354535454,0,0
-113.24301878754,-56.939279269836,29.249784978498,2517507.43919,-1697.7425006903,2620079.5525909,34.449784978498,0,0
-113.24301825243,-56.954453576446,29.254215421542,2517507.43919,-1697.7425006903,2620079.5525909,34.454215421542,0,0
-113.24301771732,-56.969627883057,29.258645864586,2517507.43919,-1697.7425006903,2620079.5525909,34.458645864586,0,0
-113.24301718221,-56.984802189667,29.263076307631,2517507.43919,-1697.7425006903,2620079.5525909,34.463076307631,0,0
-113.2430166471,-56.999976496277,29.267506750675,2517507.43919,-1697.7425006903,2620079.5525909,34.467506750675,0,0
-113.24301611198,-57.015150802888,29.271937193719,2517507.43919,-1697.7425006903,2620079.5525909,34.471937193719,0,0
-113.24301557687,-57.030325109498,29.276367636764,2517507.43919,-1697.7425006903,2620079.5525909,34.476367636764,0,0
-113.24301504176,-57.045499416109,29.280798079808,2517507.43919,-1697.7425006903,2620079.5525909,34.480798079808,0,0
-113.24301450665,-57.060673722719,29.285228522852,2517507.43919,-1697.7425006903,2620079.5525909,34.485228522852,0,0
-113.24301397154,-57.07584802933,29.289658965897,2517507.43919,-1697.7425006903,2620079.5525909,34.489658965897,0,0
-113.24301343643,-57.09102233594,29.294089408941,2517507.43919,-1697.7425006903,2620079.5525909,34.494089408941,0,0
-113.24301290131,-57.10619664255,29.298519851985,2517507.43919,-1697.7425006903,2620079.5525909,34.498519851985,0,0
-113.2430123662,-57.121370949161,29.30295029503,2517507.43919,-1697.7425006903,2620079.5525909,34.502950295029,0,0
-113.24301183109,-57.136545255771,29.307380738074,2517507.43919,-1697.7425006903,2620079.5525909,34.507380738074,0,0
-113.24301129598,-57.151719562382,29.311811181118,2517507.43919,-1697.7425006903,2620079.5525909,34.511811181118,0,0
-113.24301076087,-57.166893868992,29.316241624162,2517507.43919,-1697.7425006903,2620079.5525909,34.516241624162,0,0
-113.24301022576,-57.182068175603,29.320672067207,2517507.43919,-1697.7425006903,2620079.5525909,34.520672067207,0,0
-113.24300969064,-57.197242482213,29.325102510251,2517507.43919,-1697.7425006903,2620079.5525909,34.525102510251,0,0
-113.24300915553,-57.212416788823,29.329532953295,2517507.43919,-1697.7425006903,2620079.5525909,34.529532953295,0,0
-113.24300862042,-57.227591095434,29.33396339634,2517507.43919,-1697.7425006903,2620079.5525909,34.53396339634,0,0
-113.24300808531,-57.242765402044,29.338393839384,2517507.43919,-1697.7425006903,2620079.5525909,34.538393839384,0,0
-113.2430075502,-57.257939708655,29.342824282428,2517507.43919,-1697.7425006903,2620079.5525909,34.542824282428,0,0
-113.24300701509,-57.273114015265,29.347254725473,2517507.43919,-1697.7425006903,2620079.5525909,34.547254725473,0,0
-113.24300647997,-57.288288321876,29.351685168517,2517507.43919,-1697.7425006903,2620079.5525909,34.551685168517,0,0
-113.24300594486,-57.303462628486,29.356115611561,2517507.43919,-1697.7425006903,2620079.5525909,34.556115611561,0,0
-113.24300540975,-57.318636935096,29.360546054605,2517507.43919,-1697.7425006903,2620079.5525909,34.560546054605,0,0
-113.24300487464,-57.333811241707,29.36497649765,2517507.43919,-1697.7425006903,2620079.5525909,34.56497649765,0,0
-113.24300433953,-57.348985548317,29.369406940694,2517507.43919,-1697.7425006903,2620079.5525909,34.569406940694,0,0
-113.24300380442,-57.364159854928,29.373837383738,2517507.43919,-1697.7425006903,2620079.5525909,34.573837383738,0,0
-113.2430032693,-57.379334161538,29.378267826783,2517507.43919,-1697.7425006903,2620079.5525909,34.578267826783,0,0
-113.24300273419,-57.394508468149,29.382698269827,2517507.43919,-1697.7425006903,2620079.5525909,34.582698269827,0,0
-113.24300219908,-57.409682774759,29.387128712871,2517507.43919,-1697.7425006903,2620079.5525909,34.587128712871,0,0
-113.24300166397,-57.424857081369,29.391559155916,2517507.43919,-1697.7425006903,2620079.5525909,34.591559155916,0,0
-113.24300112886,-57.44003138798,29.39598959896,2517507.43919,-1697.7425006903,2620079.5525909,34.59598959896,0,0
-113.24300059375,-57.45520569459,29.400420042004,2517507.43919,-1697.7425006903,2620079.5525909,34.600420042004,0,0
-113.24300005863,-57.470380001201,29.404850485049,2517507.43919,-1697.7425006903,2620079.5525909,34.604850485049,0,0
-113.24299952352,-57.485554307811,29.409280928093,2517507.43919,-1697.7425006903,2620079.5525909,34.609280928093,0,0
-113.24299898841,-57.500728614422,29.413711371137,2517507.43919,-1697.7425006903,2620079.5525909,34.613711371137,0,0
-113.2429984533,-57.515902921032,29.418141814181,2517507.43919,-1697.7425006903,2620079.5525909,34.618141814181,0,0
-113.24299791819,-57.531077227642,29.422572257226,2517507.43919,-1697.7425006903,2620079.5525909,34.622572257226,0,0
-113.24299738308,-57.546251534253,29.42700270027,2517507.43919,-1697.7425006903,2620079.5525909,34.62700270027,0,0
-113.24299684796,-57.561425840863,29.431433143314,2517507.43919,-1697.7425006903,2620079.5525909,34.631433143314,0,0
-113.24299631285,-57.576600147474,29.435863586359,2517507.43919,-1697.7425006903,2620079.5525909,34.635863586359,0,0
-113.24299577774,-57.591774454084,29.440294029403,2517507.43919,-1697.7425006903,2620079.5525909,34.640294029403,0,0
-113.24299524263,-57.606948760695,29.444724472447,2517507.43919,-1697.7425006903,2620079.5525909,34.644724472447,0,0
-113.24299470752,-57.622123067305,29.449154915492,2517507.43919,-1697.7425006903,2620079.5525909,34.649154915492,0,0
-113.2429941724,-57.637297373915,29.453585358536,2517507.43919,-1697.7425006903,2620079.5525909,34.653585358536,0,0
-113.24299363729,-57.652471680526,29.45801580158,2517507.43919,-1697.7425006903,2620079.5525909,34.65801580158,0,0
-113.24299310218,-57.667645987136,29.462446244624,2517507.43919,-1697.7425006903,2620079.5525909,34.662446244624,0,0
-113.24299256707,-57.682820293747,29.466876687669,2517507.43919,-1697.7425006903,2620079.5525909,34.666876687669,0,0
-113.24299203196,-57.697994600357,29.471307130713,2517507.43919,-1697.7425006903,2620079.5525909,34.671307130713,0,0
-113.24299149685,-57.713168906968,29.475737573757,2517507.43919,-1697.7425006903,2620079.5525909,34.675737573757,0,0
-113.24299096173,-57.728343213578,29.480168016802,2517507.43919,-1697.7425006903,2620079.5525909,34.680168016802,0,0
-113.24299042662,-57.743517520189,29.484598459846,2517507.43919,-1697.7425006903,2620079.5525909,34.684598459846,0,0
-113.24298989151,-57.758691826799,29.48902890289,2517507.43919,-1697.7425006903,2620079.5525909,34.68902890289,0,0
-113.2429893564,-57.773866133409,29.493459345935,2517507.43919,-1697.7425006903,2620079.5525909,34.693459345935,0,0
-113.24298882129,-57.78904044002,29.497889788979,2517507.43919,-1697.7425006903,2620079.5525909,34.697889788979,0,0
-113.24298828618,-57.80421474663,29.502320232023,2517507.43919,-1697.7425006903,2620079.5525909,34.702320232023,0,0
-113.24298775106,-57.819389053241,29.506750675068,2517507.43919,-1697.7425006903,2620079.5525909,34.706750675068,0,0
-113.24298721595,-57.834563359851,29.511181118112,2517507.43919,-1697.7425006903,2620079.5525909,34.711181118112,0,0
-113.24298668084,-57.849737666462,29.515611561156,2517507.43919,-1697.7425006903,2620079.5525909,34.715611561156,0,0
-113.24298614573,-57.864911973072,29.5200420042,2517507.43919,-1697.7425006903,2620079.5525909,34.7200420042,0,0
-113.24298561062,-57.880086279682,29.524472447245,2517507.43919,-1697.7425006903,2620079.5525909,34.724472447245,0,0
-113.24298507551,-57.895260586293,29.528902890289,2517507.43919,-1697.7425006903,2620079.5525909,34.728902890289,0,0
-113.24298454039,-57.910434892903,29.533333333333,2517507.43919,-1697.7425006903,2620079.5525909,34.733333333333,0,0
-113.24298400528,-57.925609199514,29.537763776378,2517507.43919,-1697.7425006903,2620079.5525909,34.737763776378,0,0
-113.24298347017,-57.940783506124,29.542194219422,2517507.43919,-1697.7425006903,2620079.5525909,34.742194219422,0,0
-113.24298293506,-57.955957812735,29.546624662466,2517507.43919,-1697.7425006903,2620079.5525909,34.746624662466,0,0
-113.24298239995,-57.971132119345,29.551055105511,2517507.43919,-1697.7425006903,2620079.5525909,34.751055105511,0,0
-113.24298186484,-57.986306425955,29.555485548555,2517507.43919,-1697.7425006903,2620079.5525909,34.755485548555,0,0
-113.24298132972,-58.001480732566,29.559915991599,2517507.43919,-1697.7425006903,2620079.5525909,34.759915991599,0,0
-113.24298079461,-58.016655039176,29.564346434643,2517507.43919,-1697.7425006903,2620079.5525909,34.764346434643,0,0
-113.2429802595,-58.031829345787,29.568776877688,2517507.43919,-1697.7425006903,2620079.5525909,34.768776877688,0,0
-113.24297972439,-58.047003652397,29.573207320732,2517507.43919,-1697.7425006903,2620079.5525909,34.773207320732,0,0
-113.24297918928,-58.062177959008,29.577637763776,2517507.43919,-1697.7425006903,2620079.5525909,34.777637763776,0,0
-113.24297865417,-58.077352265618,29.582068206821,2517507.43919,-1697.7425006903,2620079.5525909,34.782068206821,0,0
-113.24297811905,-58.092526572228,29.586498649865,2517507.43919,-1697.7425006903,2620079.5525909,34.786498649865,0,0
-113.24297758394,-58.107700878839,29.590929092909,2517507.43919,-1697.7425006903,2620079.5525909,34.790929092909,0,0
-113.24297704883,-58.122875185449,29.595359535954,2517507.43919,-1697.7425006903,2620079.5525909,34.795359535954,0,0
-113.24297651372,-58.13804949206,29.599789978998,2517507.43919,-1697.7425006903,2620079.5525909,34.799789978998,0,0
-113.24297597861,-58.15322379867,29.604220422042,2517507.43919,-1697.7425006903,2620079.5525909,34.804220422042,0,0
-113.2429754435,-58.168398105281,29.608650865087,2517507.43919,-1697.7425006903,2620079.5525909,34.808650865087,0,0
-113.24297490838,-58.183572411891,29.613081308131,2517507.43919,-1697.7425006903,2620079.5525909,34.813081308131,0,0
-113.24297437327,-58.198746718501,29.617511751175,2517507.43919,-1697.7425006903,2620079.5525909,34.817511751175,0,0
-113.24297383816,-58.213921025112,29.621942194219,2517507.43919,-1697.7425006903,2620079.5525909,34.821942194219,0,0
-113.24297330305,-58.229095331722,29.626372637264,2517507.43919,-1697.7425006903,2620079.5525909,34.826372637264,0,0
-113.24297276794,-58.244269638333,29.630803080308,2517507.43919,-1697.7425006903,2620079.5525909,34.830803080308,0,0
-113.24297223283,-58.259443944943,29.635233523352,2517507.43919,-1697.7425006903,2620079.5525909,34.835233523352,0,0
-113.24297169771,-58.274618251554,29.639663966397,2517507.43919,-1697.7425006903,2620079.5525909,34.839663966397,0,0
-113.2429711626,-58.289792558164,29.644094409441,2517507.43919,-1697.7425006903,2620079.5525909,34.844094409441,0,0
-113.24297062749,-58.304966864774,29.648524852485,2517507.43919,-1697.7425006903,2620079.5525909,34.848524852485,0,0
-113.24297009238,-58.320141171385,29.65295529553,2517507.43919,-1697.7425006903,2620079.5525909,34.85295529553,0,0
-113.24296955727,-58.335315477995,29.657385738574,2517507.43919,-1697.7425006903,2620079.5525909,34.857385738574,0,0
-113.24296902216,-58.350489784606,29.661816181618,2517507.43919,-1697.7425006903,2620079.5525909,34.861816181618,0,0
-113.24296848704,-58.365664091216,29.666246624662,2517507.43919,-1697.7425006903,2620079.5525909,34.866246624662,0,0
-113.24296795186,-58.380838397738,29.670677067707,2522326.6001149,-454.27775997417,2618131.1940995,34.870677067707,0,0
-113.24296741588,-58.396012703345,29.675107510751,2522326.6001149,-454.27775997417,2618131.1940995,34.875107510751,0,0
-113.2429668799,-58.411187008952,29.679537953795,2522326.6001149,-454.27775997417,2618131.1940995,34.879537953795,0,0
-113.24296634393,-58.426361314558,29.68396839684,2522326.6001149,-454.27775997417,2618131.1940995,34.88396839684,0,0
-113.24296580795,-58.441535620165,29.688398839884,2522326.6001149,-454.27775997417,2618131.1940995,34.888398839884,0,0
-113.24296527197,-58.456709925772,29.692829282928,2522326.6001149,-454.27775997417,2618131.1940995,34.892829282928,0,0
-113.242964736,-58.471884231379,29.697259725973,2522326.6001149,-454.27775997417,2618131.1940995,34.897259725973,0,0
-113.24296420002,-58.487058536986,29.701690169017,2522326.6001149,-454.27775997417,2618131.1940995,34.901690169017,0,0
-113.24296366405,-58.502232842593,29.706120612061,2522326.6001149,-454.27775997417,2618131.1940995,34.906120612061,0,0
-113.24296312807,-58.5174071482,29.710551055106,2522326.6001149,-454.27775997417,2618131.1940995,34.910551055106,0,0
-113.24296259209,-58.532581453806,29.71498149815,2522326.6001149,-454.27775997417,2618131.1940995,34.91498149815,0,0
-113.24296205612,-58.547755759413,29.719411941194,2522326.6001149,-454.27775997417,2618131.1940995,34.919411941194,0,0
-113.24296152014,-58.56293006502,29.723842384238,2522326.6001149,-454.27775997417,2618131.1940995,34.923842384238,0,0
-113.24296098416,-58.578104370627,29.728272827283,2522326.6001149,-454.27775997417,2618131.1940995,34.928272827283,0,0
-113.24296044819,-58.593278676234,29.732703270327,2522326.6001149,-454.27775997417,2618131.1940995,34.932703270327,0,0
-113.24295991221,-58.608452981841,29.737133713371,2522326.6001149,-454.27775997417,2618131.1940995,34.937133713371,0,0
-113.24295937623,-58.623627287448,29.741564156416,2522326.6001149,-454.27775997417,2618131.1940995,34.941564156416,0,0
-113.24295884026,-58.638801593054,29.74599459946,2522326.6001149,-454.27775997417,2618131.1940995,34.94599459946,0,0
-113.24295830428,-58.653975898661,29.750425042504,2522326.6001149,-454.27775997417,2618131.1940995,34.950425042504,0,0
-113.24295776831,-58.669150204268,29.754855485549,2522326.6001149,-454.27775997417,2618131.1940995,34.954855485549,0,0
-113.24295723233,-58.684324509875,29.759285928593,2522326.6001149,-454.27775997417,2618131.1940995,34.959285928593,0,0
-113.24295669635,-58.699498815482,29.763716371637,2522326.6001149,-454.27775997417,2618131.1940995,34.963716371637,0,0
-113.24295616038,-58.714673121089,29.768146814681,2522326.6001149,-454.27775997417,2618131.1940995,34.968146814681,0,0
-113.2429556244,-58.729847426696,29.772577257726,2522326.6001149,-454.27775997417,2618131.1940995,34.972577257726,0,0
-113.24295508842,-58.745021732302,29.77700770077,2522326.6001149,-454.27775997417,2618131.1940995,34.97700770077,0,0
-113.24295455245,-58.760196037909,29.781438143814,2522326.6001149,-454.27775997417,2618131.1940995,34.981438143814,0,0
-113.24295401647,-58.775370343516,29.785868586859,2522326.6001149,-454.27775997417,2618131.1940995,34.985868586859,0,0
-113.2429534805,-58.790544649123,29.790299029903,2522326.6001149,-454.27775997417,2618131.1940995,34.990299029903,0,0
-113.24295294452,-58.80571895473,29.794729472947,2522326.6001149,-454.27775997417,2618131.1940995,34.994729472947,0,0
-113.24295240854,-58.820893260337,29.799159915992,2522326.6001149,-454.27775997417,2618131.1940995,34.999159915992,0,0
-113.24295187257,-58.836067565944,29.803590359036,2522326.6001149,-454.27775997417,2618131.1940995,35.003590359036,0,0
-113.24295133659,-58.85124187155,29.80802080208,2522326.6001149,-454.27775997417,2618131.1940995,35.00802080208,0,0
-113.24295080061,-58.866416177157,29.812451245125,2522326.6001149,-454.27775997417,2618131.1940995,35.012451245125,0,0
-113.24295026464,-58.881590482764,29.816881688169,2522326.6001149,-454.27775997417,2618131.1940995,35.016881688169,0,0
-113.24294972866,-58.896764788371,29.821312131213,2522326.6001149,-454.27775997417,2618131.1940995,35.021312131213,0,0
-113.24294919268,-58.911939093978,29.825742574257,2522326.6001149,-454.27775997417,2618131.1940995,35.025742574257,0,0
-113.24294865671,-58.927113399585,29.830173017302,2522326.6001149,-454.27775997417,2618131.1940995,35.030173017302,0,0
-113.24294812073,-58.942287705192,29.834603460346,2522326.6001149,-454.27775997417,2618131.1940995,35.034603460346,0,0
-113.24294758476,-58.957462010799,29.83903390339,2522326.6001149,-454.27775997417,2618131.1940995,35.03903390339,0,0
-113.24294704878,-58.972636316405,29.843464346435,2522326.6001149,-454.27775997417,2618131.1940995,35.043464346435,0,0
-113.2429465128,-58.987810622012,29.847894789479,2522326.6001149,-454.27775997417,2618131.1940995,35.047894789479,0,0
-113.24294597683,-59.002984927619,29.852325232523,2522326.6001149,-454.27775997417,2618131.1940995,35.052325232523,0,0
-113.24294544085,-59.018159233226,29.856755675568,2522326.6001149,-454.27775997417,2618131.1940995,35.056755675568,0,0
-113.24294490487,-59.033333538833,29.861186118612,2522326.6001149,-454.27775997417,2618131.1940995,35.061186118612,0,0
-113.2429443689,-59.04850784444,29.865616561656,2522326.6001149,-454.27775997417,2618131.1940995,35.065616561656,0,0
-113.24294383292,-59.063682150047,29.8700470047,2522326.6001149,-454.27775997417,2618131.1940995,35.0700470047,0,0
-113.24294329695,-59.078856455653,29.874477447745,2522326.6001149,-454.27775997417,2618131.1940995,35.074477447745,0,0
-113.24294276097,-59.09403076126,29.878907890789,2522326.6001149,-454.27775997417,2618131.1940995,35.078907890789,0,0
-113.24294222499,-59.109205066867,29.883338333833,2522326.6001149,-454.27775997417,2618131.1940995,35.083338333833,0,0
-113.24294168902,-59.124379372474,29.887768776878,2522326.6001149,-454.27775997417,2618131.1940995,35.087768776878,0,0
-113.24294115304,-59.139553678081,29.892199219922,2522326.6001149,-454.27775997417,2618131.1940995,35.092199219922,0,0
-113.24294061706,-59.154727983688,29.896629662966,2522326.6001149,-454.27775997417,2618131.1940995,35.096629662966,0,0
-113.24294008109,-59.169902289295,29.901060106011,2522326.6001149,-454.27775997417,2618131.1940995,35.101060106011,0,0
-113.24293954511,-59.185076594901,29.905490549055,2522326.6001149,-454.27775997417,2618131.1940995,35.105490549055,0,0
-113.24293900913,-59.200250900508,29.909920992099,2522326.6001149,-454.27775997417,2618131.1940995,35.109920992099,0,0
-113.24293847316,-59.215425206115,29.914351435144,2522326.6001149,-454.27775997417,2618131.1940995,35.114351435144,0,0
-113.24293793718,-59.230599511722,29.918781878188,2522326.6001149,-454.27775997417,2618131.1940995,35.118781878188,0,0
-113.24293740121,-59.245773817329,29.923212321232,2522326.6001149,-454.27775997417,2618131.1940995,35.123212321232,0,0
-113.24293686523,-59.260948122936,29.927642764276,2522326.6001149,-454.27775997417,2618131.1940995,35.127642764276,0,0
-113.24293632925,-59.276122428543,29.932073207321,2522326.6001149,-454.27775997417,2618131.1940995,35.132073207321,0,0
-113.24293579328,-59.291296734149,29.936503650365,2522326.6001149,-454.27775997417,2618131.1940995,35.136503650365,0,0
-113.2429352573,-59.306471039756,29.940934093409,2522326.6001149,-454.27775997417,2618131.1940995,35.140934093409,0,0
-113.24293472132,-59.321645345363,29.945364536454,2522326.6001149,-454.27775997417,2618131.1940995,35.145364536454,0,0
-113.24293418535,-59.33681965097,29.949794979498,2522326.6001149,-454.27775997417,2618131.1940995,35.149794979498,0,0
-113.24293364937,-59.351993956577,29.954225422542,2522326.6001149,-454.27775997417,2618131.1940995,35.154225422542,0,0
-113.2429331134,-59.367168262184,29.958655865587,2522326.6001149,-454.27775997417,2618131.1940995,35.158655865587,0,0
-113.24293257742,-59.382342567791,29.963086308631,2522326.6001149,-454.27775997417,2618131.1940995,35.163086308631,0,0
-113.24293204144,-59.397516873397,29.967516751675,2522326.6001149,-454.27775997417,2618131.1940995,35.167516751675,0,0
-113.24293150547,-59.412691179004,29.971947194719,2522326.6001149,-454.27775997417,2618131.1940995,35.171947194719,0,0
-113.24293096949,-59.427865484611,29.976377637764,2522326.6001149,-454.27775997417,2618131.1940995,35.176377637764,0,0
-113.24293043351,-59.443039790218,29.980808080808,2522326.6001149,-454.27775997417,2618131.1940995,35.180808080808,0,0
-113.24292989754,-59.458214095825,29.985238523852,2522326.6001149,-454.27775997417,2618131.1940995,35.185238523852,0,0
-113.24292936156,-59.473388401432,29.989668966897,2522326.6001149,-454.27775997417,2618131.1940995,35.189668966897,0,0
-113.24292882559,-59.488562707039,29.994099409941,2522326.6001149,-454.27775997417,2618131.1940995,35.194099409941,0,0
-113.24292828961,-59.503737012645,29.998529852985,2522326.6001149,-454.27775997417,2618131.1940995,35.198529852985,0,0
-113.24292775363,-59.518911318252,30.00296029603,2522326.6001149,-454.27775997417,2618131.1940995,35.20296029603,0,0
-113.24292721766,-59.534085623859,30.007390739074,2522326.6001149,-454.27775997417,2618131.1940995,35.207390739074,0,0
-113.24292668168,-59.549259929466,30.011821182118,2522326.6001149,-454.27775997417,2618131.1940995,35.211821182118,0,0
-113.2429261457,-59.564434235073,30.016251625163,2522326.6001149,-454.27775997417,2618131.1940995,35.216251625163,0,0
-113.24292560973,-59.57960854068,30.020682068207,2522326.6001149,-454.27775997417,2618131.1940995,35.220682068207,0,0
-113.24292507375,-59.594782846287,30.025112511251,2522326.6001149,-454.27775997417,2618131.1940995,35.225112511251,0,0
-113.24292453777,-59.609957151893,30.029542954295,2522326.6001149,-454.27775997417,2618131.1940995,35.229542954295,0,0
-113.2429240018,-59.6251314575,30.03397339734,2522326.6001149,-454.27775997417,2618131.1940995,35.23397339734,0,0
-113.24292346582,-59.640305763107,30.038403840384,2522326.6001149,-454.27775997417,2618131.1940995,35.238403840384,0,0
-113.24292292985,-59.655480068714,30.042834283428,2522326.6001149,-454.27775997417,2618131.1940995,35.242834283428,0,0
-113.24292239387,-59.670654374321,30.047264726473,2522326.6001149,-454.27775997417,2618131.1940995,35.247264726473,0,0
-113.24292185789,-59.685828679928,30.051695169517,2522326.6001149,-454.27775997417,2618131.1940995,35.251695169517,0,0
-113.24292132192,-59.701002985535,30.056125612561,2522326.6001149,-454.27775997417,2618131.1940995,35.256125612561,0,0
-113.24292078594,-59.716177291141,30.060556055606,2522326.6001149,-454.27775997417,2618131.1940995,35.260556055606,0,0
-113.24292024996,-59.731351596748,30.06498649865,2522326.6001149,-454.27775997417,2618131.1940995,35.26498649865,0,0
-113.24291971399,-59.746525902355,30.069416941694,2522326.6001149,-454.27775997417,2618131.1940995,35.269416941694,0,0
-113.24291917801,-59.761700207962,30.073847384738,2522326.6001149,-454.27775997417,2618131.1940995,35.273847384738,0,0
-113.24291864204,-59.776874513569,30.078277827783,2522326.6001149,-454.27775997417,2618131.1940995,35.278277827783,0,0
-113.24291810606,-59.792048819176,30.082708270827,2522326.6001149,-454.27775997417,2618131.1940995,35.282708270827,0,0
-113.24291757008,-59.807223124783,30.087138713871,2522326.6001149,-454.27775997417,2618131.1940995,35.287138713871,0,0
-113.24291703411,-59.82239743039,30.091569156916,2522326.6001149,-454.27775997417,2618131.1940995,35.291569156916,0,0
-113.24291649813,-59.837571735996,30.09599959996,2522326.6001149,-454.27775997417,2618131.1940995,35.29599959996,0,0
-113.24291596215,-59.852746041603,30.100430043004,2522326.6001149,-454.27775997417,2618131.1940995,35.300430043004,0,0
-113.24291542618,-59.86792034721,30.104860486049,2522326.6001149,-454.27775997417,2618131.1940995,35.304860486049,0,0
-113.2429148902,-59.883094652817,30.109290929093,2522326.6001149,-454.27775997417,2618131.1940995,35.309290929093,0,0
-113.24291435422,-59.898268958424,30.113721372137,2522326.6001149,-454.27775997417,2618131.1940995,35.313721372137,0,0
-113.24291381825,-59.913443264031,30.118151815182,2522326.6001149,-454.27775997417,2618131.1940995,35.318151815182,0,0
-113.24291328227,-59.928617569638,30.122582258226,2522326.6001149,-454.27775997417,2618131.1940995,35.322582258226,0,0
-113.2429127463,-59.943791875244,30.12701270127,2522326.6001149,-454.27775997417,2618131.1940995,35.32701270127,0,0
-113.24291221032,-59.958966180851,30.131443144314,2522326.6001149,-454.27775997417,2618131.1940995,35.331443144314,0,0
-113.24291167434,-59.974140486458,30.135873587359,2522326.6001149,-454.27775997417,2618131.1940995,35.335873587359,0,0
-113.24291113837,-59.989314792065,30.140304030403,2522326.6001149,-454.27775997417,2618131.1940995,35.340304030403,0,0
-113.24291060239,-60.004489097672,30.144734473447,2522326.6001149,-454.27775997417,2618131.1940995,35.344734473447,0,0
-113.24291006641,-60.019663403279,30.149164916492,2522326.6001149,-454.27775997417,2618131.1940995,35.349164916492,0,0
-113.24290953044,-60.034837708886,30.153595359536,2522326.6001149,-454.27775997417,2618131.1940995,35.353595359536,0,0
-113.24290899446,-60.050012014492,30.15802580258,2522326.6001149,-454.27775997417,2618131.1940995,35.35802580258,0,0
-113.24290845849,-60.065186320099,30.162456245625,2522326.6001149,-454.27775997417,2618131.1940995,35.362456245625,0,0
-113.24290792251,-60.080360625706,30.166886688669,2522326.6001149,-454.27775997417,2618131.1940995,35.366886688669,0,0
-113.24290738653,-60.095534931313,30.171317131713,2522326.6001149,-454.27775997417,2618131.1940995,35.371317131713,0,0
-113.24290685056,-60.11070923692,30.175747574757,2522326.6001149,-454.27775997417,2618131.1940995,35.375747574757,0,0
-113.24290631458,-60.125883542527,30.180178017802,2522326.6001149,-454.27775997417,2618131.1940995,35.380178017802,0,0
-113.2429057786,-60.141057848134,30.184608460846,2522326.6001149,-454.27775997417,2618131.1940995,35.384608460846,0,0
-113.24290524263,-60.15623215374,30.18903890389,2522326.6001149,-454.27775997417,2618131.1940995,35.38903890389,0,0
-113.24290470665,-60.171406459347,30.193469346935,2522326.6001149,-454.27775997417,2618131.1940995,35.393469346935,0,0
-113.24290417067,-60.186580764954,30.197899789979,2522326.6001149,-454.27775997417,2618131.1940995,35.397899789979,0,0
-113.2429036347,-60.201755070561,30.202330233023,2522326.6001149,-454.27775997417,2618131.1940995,35.402330233023,0,0
-113.24290309872,-60.216929376168,30.206760676068,2522326.6001149,-454.27775997417,2618131.1940995,35.406760676068,0,0
-113.24290256275,-60.232103681775,30.211191119112,2522326.6001149,-454.27775997417,2618131.1940995,35.411191119112,0,0
-113.24290202677,-60.247277987382,30.215621562156,2522326.6001149,-454.27775997417,2618131.1940995,35.415621562156,0,0
-113.24290149079,-60.262452292988,30.220052005201,2522326.6001149,-454.27775997417,2618131.1940995,35.420052005201,0,0
-113.24290095482,-60.277626598595,30.224482448245,2522326.6001149,-454.27775997417,2618131.1940995,35.424482448245,0,0
-113.24290041884,-60.292800904202,30.228912891289,2522326.6001149,-454.27775997417,2618131.1940995,35.428912891289,0,0
-113.24289988286,-60.307975209809,30.233343334333,2522326.6001149,-454.27775997417,2618131.1940995,35.433343334333,0,0
-113.24289934689,-60.323149515416,30.237773777378,2522326.6001149,-454.27775997417,2618131.1940995,35.437773777378,0,0
-113.24289881091,-60.338323821023,30.242204220422,2522326.6001149,-454.27775997417,2618131.1940995,35.442204220422,0,0
-113.24289827494,-60.35349812663,30.246634663466,2522326.6001149,-454.27775997417,2618131.1940995,35.446634663466,0,0
-113.24289773896,-60.368672432236,30.251065106511,2522326.6001149,-454.27775997417,2618131.1940995,35.451065106511,0,0
-113.24289720298,-60.383846737843,30.255495549555,2522326.6001149,-454.27775997417,2618131.1940995,35.455495549555,0,0
-113.24289666701,-60.39902104345,30.259925992599,2522326.6001149,-454.27775997417,2618131.1940995,35.459925992599,0,0
-113.24289613103,-60.414195349057,30.264356435644,2522326.6001149,-454.27775997417,2618131.1940995,35.464356435644,0,0
-113.24289559505,-60.429369654664,30.268786878688,2522326.6001149,-454.27775997417,2618131.1940995,35.468786878688,0,0
-113.24289505908,-60.444543960271,30.273217321732,2522326.6001149,-454.27775997417,2618131.1940995,35.473217321732,0,0
-113.2428945231,-60.459718265878,30.277647764776,2522326.6001149,-454.27775997417,2618131.1940995,35.477647764776,0,0
-113.24289398713,-60.474892571484,30.282078207821,2522326.6001149,-454.27775997417,2618131.1940995,35.482078207821,0,0
-113.24289345115,-60.490066877091,30.286508650865,2522326.6001149,-454.27775997417,2618131.1940995,35.486508650865,0,0
-113.24289291517,-60.505241182698,30.290939093909,2522326.6001149,-454.27775997417,2618131.1940995,35.490939093909,0,0
-113.2428923792,-60.520415488305,30.295369536954,2522326.6001149,-454.27775997417,2618131.1940995,35.495369536954,0,0
-113.24289184322,-60.535589793912,30.299799979998,2522326.6001149,-454.27775997417,2618131.1940995,35.499799979998,0,0
-113.24289130724,-60.550764099519,30.304230423042,2522326.6001149,-454.27775997417,2618131.1940995,35.504230423042,0,0
-113.24289077127,-60.565938405126,30.308660866087,2522326.6001149,-454.27775997417,2618131.1940995,35.508660866087,0,0
-113.24289023529,-60.581112710733,30.313091309131,2522326.6001149,-454.27775997417,2618131.1940995,35.513091309131,0,0
-113.24288969931,-60.596287016339,30.317521752175,2522326.6001149,-454.27775997417,2618131.1940995,35.517521752175,0,0
-113.24288916334,-60.611461321946,30.32195219522,2522326.6001149,-454.27775997417,2618131.1940995,35.52195219522,0,0
-113.24288862736,-60.626635627553,30.326382638264,2522326.6001149,-454.27775997417,2618131.1940995,35.526382638264,0,0
-113.24288809139,-60.64180993316,30.330813081308,2522326.6001149,-454.27775997417,2618131.1940995,35.530813081308,0,0
-113.24288755541,-60.656984238767,30.335243524352,2522326.6001149,-454.27775997417,2618131.1940995,35.535243524352,0,0
-113.24288701943,-60.672158544374,30.339673967397,2522326.6001149,-454.27775997417,2618131.1940995,35.539673967397,0,0
-113.24288648346,-60.687332849981,30.344104410441,2522326.6001149,-454.27775997417,2618131.1940995,35.544104410441,0,0
-113.24288594748,-60.702507155587,30.348534853485,2522326.6001149,-454.27775997417,2618131.1940995,35.548534853485,0,0
-113.2428854115,-60.717681461194,30.35296529653,2522326.6001149,-454.27775997417,2618131.1940995,35.55296529653,0,0
-113.24288487553,-60.732855766801,30.357395739574,2522326.6001149,-454.27775997417,2618131.1940995,35.557395739574,0,0
-113.24288433955,-60.748030072408,30.361826182618,2522326.6001149,-454.27775997417,2618131.1940995,35.561826182618,0,0
-113.24288380358,-60.763204378015,30.366256625663,2522326.6001149,-454.27775997417,2618131.1940995,35.566256625663,0,0
-113.2428832676,-60.778378683622,30.370687068707,2522326.6001149,-454.27775997417,2618131.1940995,35.570687068707,0,0
-113.24288273162,-60.793552989229,30.375117511751,2522326.6001149,-454.27775997417,2618131.1940995,35.575117511751,0,0
-113.24288219565,-60.808727294835,30.379547954795,2522326.6001149,-454.27775997417,2618131.1940995,35.579547954795,0,0
-113.24288165967,-60.823901600442,30.38397839784,2522326.6001149,-454.27775997417,2618131.1940995,35.58397839784,0,0
-113.24288112369,-60.839075906049,30.388408840884,2522326.6001149,-454.27775997417,2618131.1940995,35.588408840884,0,0
-113.24288058772,-60.854250211656,30.392839283928,2522326.6001149,-454.27775997417,2618131.1940995,35.592839283928,0,0
-113.24288005174,-60.869424517263,30.397269726973,2522326.6001149,-454.27775997417,2618131.1940995,35.597269726973,0,0
-113.24287951576,-60.88459882287,30.401700170017,2522326.6001149,-454.27775997417,2618131.1940995,35.601700170017,0,0
-113.24287897979,-60.899773128477,30.406130613061,2522326.6001149,-454.27775997417,2618131.1940995,35.606130613061,0,0
-113.24287844381,-60.914947434083,30.410561056106,2522326.6001149,-454.27775997417,2618131.1940995,35.610561056106,0,0
-113.24287790784,-60.93012173969,30.41499149915,2522326.6001149,-454.27775997417,2618131.1940995,35.61499149915,0,0
-113.24287737186,-60.945296045297,30.419421942194,2522326.6001149,-454.27775997417,2618131.1940995,35.619421942194,0,0
-113.24287683588,-60.960470350904,30.423852385239,2522326.6001149,-454.27775997417,2618131.1940995,35.623852385239,0,0
-113.24287629991,-60.975644656511,30.428282828283,2522326.6001149,-454.27775997417,2618131.1940995,35.628282828283,0,0
-113.24287576393,-60.990818962118,30.432713271327,2522326.6001149,-454.27775997417,2618131.1940995,35.632713271327,0,0
-113.24287522795,-61.005993267725,30.437143714371,2522326.6001149,-454.27775997417,2618131.1940995,35.637143714371,0,0
-113.24287469198,-61.021167573331,30.441574157416,2522326.6001149,-454.27775997417,2618131.1940995,35.641574157416,0,0
-113.242874156,-61.036341878938,30.44600460046,2522326.6001149,-454.27775997417,2618131.1940995,35.64600460046,0,0
-113.24287362003,-61.051516184545,30.450435043504,2522326.6001149,-454.27775997417,2618131.1940995,35.650435043504,0,0
-113.24287308405,-61.066690490152,30.454865486549,2522326.6001149,-454.27775997417,2618131.1940995,35.654865486549,0,0
-113.24287254807,-61.081864795759,30.459295929593,2522326.6001149,-454.27775997417,2618131.1940995,35.659295929593,0,0
-113.2428720121,-61.097039101366,30.463726372637,2522326.6001149,-454.27775997417,2618131.1940995,35.663726372637,0,0
-113.24287147612,-61.112213406973,30.468156815682,2522326.6001149,-454.27775997417,2618131.1940995,35.668156815682,0,0
-113.24287094014,-61.127387712579,30.472587258726,2522326.6001149,-454.27775997417,2618131.1940995,35.672587258726,0,0
-113.24287040417,-61.142562018186,30.47701770177,2522326.6001149,-454.27775997417,2618131.1940995,35.67701770177,0,0
-113.24286986819,-61.157736323793,30.481448144814,2522326.6001149,-454.27775997417,2618131.1940995,35.681448144814,0,0
-113.24286933222,-61.1729106294,30.485878587859,2522326.6001149,-454.27775997417,2618131.1940995,35.685878587859,0,0
-113.24286879624,-61.188084935007,30.490309030903,2522326.6001149,-454.27775997417,2618131.1940995,35.690309030903,0,0
-113.24286826026,-61.203259240614,30.494739473947,2522326.6001149,-454.27775997417,2618131.1940995,35.694739473947,0,0
-113.24286772429,-61.218433546221,30.499169916992,2522326.6001149,-454.27775997417,2618131.1940995,35.699169916992,0,0
-113.24286718831,-61.233607851828,30.503600360036,2522326.6001149,-454.27775997417,2618131.1940995,35.703600360036,0,0
-113.24286665233,-61.248782157434,30.50803080308,2522326.6001149,-454.27775997417,2618131.1940995,35.70803080308,0,0
-113.24286611636,-61.263956463041,30.512461246125,2522326.6001149,-454.27775997417,2618131.1940995,35.712461246125,0,0
-113.24286558038,-61.279130768648,30.516891689169,2522326.6001149,-454.27775997417,2618131.1940995,35.716891689169,0,0
-113.2428650444,-61.294305074255,30.521322132213,2522326.6001149,-454.27775997417,2618131.1940995,35.721322132213,0,0
-113.24286450843,-61.309479379862,30.525752575258,2522326.6001149,-454.27775997417,2618131.1940995,35.725752575258,0,0
-113.24286397245,-61.324653685469,30.530183018302,2522326.6001149,-454.27775997417,2618131.1940995,35.730183018302,0,0
-113.24286343648,-61.339827991076,30.534613461346,2522326.6001149,-454.27775997417,2618131.1940995,35.734613461346,0,0
-113.2428629005,-61.355002296682,30.53904390439,2522326.6001149,-454.27775997417,2618131.1940995,35.73904390439,0,0
-113.24286236452,-61.370176602289,30.543474347435,2522326.6001149,-454.27775997417,2618131.1940995,35.743474347435,0,0
-113.24286182855,-61.385350907896,30.547904790479,2522326.6001149,-454.27775997417,2618131.1940995,35.747904790479,0,0
-113.24286129257,-61.400525213503,30.552335233523,2522326.6001149,-454.27775997417,2618131.1940995,35.752335233523,0,0
-113.24286075659,-61.41569951911,30.556765676568,2522326.6001149,-454.27775997417,2618131.1940995,35.756765676568,0,0
-113.24286022062,-61.430873824717,30.561196119612,2522326.6001149,-454.27775997417,2618131.1940995,35.761196119612,0,0
-113.24285968464,-61.446048130324,30.565626562656,2522326.6001149,-454.27775997417,2618131.1940995,35.765626562656,0,0
-113.24285914867,-61.46122243593,30.570057005701,2522326.6001149,-454.27775997417,2618131.1940995,35.770057005701,0,0
-113.24285861269,-61.476396741537,30.574487448745,2522326.6001149,-454.27775997417,2618131.1940995,35.774487448745,0,0
-113.24285807671,-61.491571047144,30.578917891789,2522326.6001149,-454.27775997417,2618131.1940995,35.778917891789,0,0
-113.24285754074,-61.506745352751,30.583348334833,2522326.6001149,-454.27775997417,2618131.1940995,35.783348334833,0,0
-113.24285700476,-61.521919658358,30.587778777878,2522326.6001149,-454.27775997417,2618131.1940995,35.787778777878,0,0
-113.24285646878,-61.537093963965,30.592209220922,2522326.6001149,-454.27775997417,2618131.1940995,35.792209220922,0,0
-113.24285593281,-61.552268269572,30.596639663966,2522326.6001149,-454.27775997417,2618131.1940995,35.796639663966,0,0
-113.24285539683,-61.567442575178,30.601070107011,2522326.6001149,-454.27775997417,2618131.1940995,35.801070107011,0,0
-113.24285486085,-61.582616880785,30.605500550055,2522326.6001149,-454.27775997417,2618131.1940995,35.805500550055,0,0
-113.24285432488,-61.597791186392,30.609930993099,2522326.6001149,-454.27775997417,2618131.1940995,35.809930993099,0,0
-113.2428537889,-61.612965491999,30.614361436144,2522326.6001149,-454.27775997417,2618131.1940995,35.814361436144,0,0
-113.24285325293,-61.628139797606,30.618791879188,2522326.6001149,-454.27775997417,2618131.1940995,35.818791879188,0,0
-113.24285271695,-61.643314103213,30.623222322232,2522326.6001149,-454.27775997417,2618131.1940995,35.823222322232,0,0
-113.24285218097,-61.65848840882,30.627652765277,2522326.6001149,-454.27775997417,2618131.1940995,35.827652765277,0,0
-113.242851645,-61.673662714426,30.632083208321,2522326.6001149,-454.27775997417,2618131.1940995,35.832083208321,0,0
-113.24285110902,-61.688837020033,30.636513651365,2522326.6001149,-454.27775997417,2618131.1940995,35.836513651365,0,0
-113.24285057304,-61.70401132564,30.640944094409,2522326.6001149,-454.27775997417,2618131.1940995,35.840944094409,0,0
-113.24285003707,-61.719185631247,30.645374537454,2522326.6001149,-454.27775997417,2618131.1940995,35.845374537454,0,0
-113.24284950109,-61.734359936854,30.649804980498,2522326.6001149,-454.27775997417,2618131.1940995,35.849804980498,0,0
-113.24284896512,-61.749534242461,30.654235423542,2522326.6001149,-454.27775997417,2618131.1940995,35.854235423542,0,0
-113.24284842914,-61.764708548068,30.658665866587,2522326.6001149,-454.27775997417,2618131.1940995,35.858665866587,0,0
-113.24284789316,-61.779882853674,30.663096309631,2522326.6001149,-454.27775997417,2618131.1940995,35.863096309631,0,0
-113.24284735719,-61.795057159281,30.667526752675,2522326.6001149,-454.27775997417,2618131.1940995,35.867526752675,0,0
-113.24284682121,-61.810231464888,30.67195719572,2522326.6001149,-454.27775997417,2618131.1940995,35.87195719572,0,0
-113.24284628523,-61.825405770495,30.676387638764,2522326.6001149,-454.27775997417,2618131.1940995,35.876387638764,0,0
-113.24284574926,-61.840580076102,30.680818081808,2522326.6001149,-454.27775997417,2618131.1940995,35.880818081808,0,0
-113.24284521328,-61.855754381709,30.685248524852,2522326.6001149,-454.27775997417,2618131.1940995,35.885248524852,0,0
-113.2428446773,-61.870928687316,30.689678967897,2522326.6001149,-454.27775997417,2618131.1940995,35.889678967897,0,0
-113.24284414133,-61.886102992922,30.694109410941,2522326.6001149,-454.27775997417,2618131.1940995,35.894109410941,0,0
-113.24284360535,-61.901277298529,30.698539853985,2522326.6001149,-454.27775997417,2618131.1940995,35.898539853985,0,0
-113.24284306938,-61.916451604136,30.70297029703,2522326.6001149,-454.27775997417,2618131.1940995,35.90297029703,0,0
-113.2428425334,-61.931625909743,30.707400740074,2522326.6001149,-454.27775997417,2618131.1940995,35.907400740074,0,0
-113.24284199742,-61.94680021535,30.711831183118,2522326.6001149,-454.27775997417,2618131.1940995,35.911831183118,0,0
-113.24284146145,-61.961974520957,30.716261626163,2522326.6001149,-454.27775997417,2618131.1940995,35.916261626163,0,0
-113.24284092547,-61.977148826564,30.720692069207,2522326.6001149,-454.27775997417,2618131.1940995,35.920692069207,0,0
-113.24284038949,-61.992323132171,30.725122512251,2522326.6001149,-454.27775997417,2618131.1940995,35.925122512251,0,0
-113.24283985352,-62.007497437777,30.729552955296,2522326.6001149,-454.27775997417,2618131.1940995,35.929552955296,0,0
-113.24283931754,-62.022671743384,30.73398339834,2522326.6001149,-454.27775997417,2618131.1940995,35.93398339834,0,0
-113.24283878157,-62.037846048991,30.738413841384,2522326.6001149,-454.27775997417,2618131.1940995,35.938413841384,0,0
-113.24283824559,-62.053020354598,30.742844284428,2522326.6001149,-454.27775997417,2618131.1940995,35.942844284428,0,0
-113.24283770961,-62.068194660205,30.747274727473,2522326.6001149,-454.27775997417,2618131.1940995,35.947274727473,0,0
-113.24283717364,-62.083368965812,30.751705170517,2522326.6001149,-454.27775997417,2618131.1940995,35.951705170517,0,0
-113.24283663766,-62.098543271419,30.756135613561,2522326.6001149,-454.27775997417,2618131.1940995,35.956135613561,0,0
-113.24283610168,-62.113717577025,30.760566056606,2522326.6001149,-454.27775997417,2618131.1940995,35.960566056606,0,0
-113.24283556571,-62.128891882632,30.76499649965,2522326.6001149,-454.27775997417,2618131.1940995,35.96499649965,0,0
-113.24283502973,-62.144066188239,30.769426942694,2522326.6001149,-454.27775997417,2618131.1940995,35.969426942694,0,0
-113.24283449376,-62.159240493846,30.773857385739,2522326.6001149,-454.27775997417,2618131.1940995,35.973857385739,0,0
-113.24283395778,-62.174414799453,30.778287828783,2522326.6001149,-454.27775997417,2618131.1940995,35.978287828783,0,0
-113.2428334218,-62.18958910506,30.782718271827,2522326.6001149,-454.27775997417,2618131.1940995,35.982718271827,0,0
-113.24283288583,-62.204763410667,30.787148714871,2522326.6001149,-454.27775997417,2618131.1940995,35.987148714871,0,0
-113.24283234985,-62.219937716273,30.791579157916,2522326.6001149,-454.27775997417,2618131.1940995,35.991579157916,0,0
-113.24283181387,-62.23511202188,30.79600960096,2522326.6001149,-454.27775997417,2618131.1940995,35.99600960096,0,0
-113.2428312779,-62.250286327487,30.800440044004,2522326.6001149,-454.27775997417,2618131.1940995,36.000440044004,0,0
-113.24283074192,-62.265460633094,30.804870487049,2522326.6001149,-454.27775997417,2618131.1940995,36.004870487049,0,0
-113.24283020594,-62.280634938701,30.809300930093,2522326.6001149,-454.27775997417,2618131.1940995,36.009300930093,0,0
-113.24282966997,-62.295809244308,30.813731373137,2522326.6001149,-454.27775997417,2618131.1940995,36.013731373137,0,0
-113.24282913399,-62.310983549915,30.818161816182,2522326.6001149,-454.27775997417,2618131.1940995,36.018161816182,0,0
-113.24282859802,-62.326157855521,30.822592259226,2522326.6001149,-454.27775997417,2618131.1940995,36.022592259226,0,0
-113.24282806204,-62.341332161128,30.82702270227,2522326.6001149,-454.27775997417,2618131.1940995,36.02702270227,0,0
-113.24282752606,-62.356506466735,30.831453145315,2522326.6001149,-454.27775997417,2618131.1940995,36.031453145315,0,0
-113.24282699009,-62.371680772342,30.835883588359,2522326.6001149,-454.27775997417,2618131.1940995,36.035883588359,0,0
-113.24282645411,-62.386855077949,30.840314031403,2522326.6001149,-454.27775997417,2618131.1940995,36.040314031403,0,0
-113.24282591813,-62.402029383556,30.844744474447,2522326.6001149,-454.27775997417,2618131.1940995,36.044744474447,0,0
-113.24282538216,-62.417203689163,30.849174917492,2522326.6001149,-454.27775997417,2618131.1940995,36.049174917492,0,0
-113.24282484618,-62.432377994769,30.853605360536,2522326.6001149,-454.27775997417,2618131.1940995,36.053605360536,0,0
-113.24282431021,-62.447552300376,30.85803580358,2522326.6001149,-454.27775997417,2618131.1940995,36.05803580358,0,0
-113.24282377423,-62.462726605983,30.862466246625,2522326.6001149,-454.27775997417,2618131.1940995,36.062466246625,0,0
-113.24282323825,-62.47790091159,30.866896689669,2522326.6001149,-454.27775997417,2618131.1940995,36.066896689669,0,0
-113.24282270228,-62.493075217197,30.871327132713,2522326.6001149,-454.27775997417,2618131.1940995,36.071327132713,0,0
-113.2428221663,-62.508249522804,30.875757575758,2522326.6001149,-454.27775997417,2618131.1940995,36.075757575758,0,0
-113.24282163032,-62.523423828411,30.880188018802,2522326.6001149,-454.27775997417,2618131.1940995,36.080188018802,0,0
-113.24282109435,-62.538598134017,30.884618461846,2522326.6001149,-454.27775997417,2618131.1940995,36.084618461846,0,0
-113.24282055837,-62.553772439624,30.88904890489,2522326.6001149,-454.27775997417,2618131.1940995,36.08904890489,0,0
-113.24282002239,-62.568946745231,30.893479347935,2522326.6001149,-454.27775997417,2618131.1940995,36.093479347935,0,0
-113.24281948642,-62.584121050838,30.897909790979,2522326.6001149,-454.27775997417,2618131.1940995,36.097909790979,0,0
-113.24281895044,-62.599295356445,30.902340234023,2522326.6001149,-454.27775997417,2618131.1940995,36.102340234023,0,0
-113.24281841447,-62.614469662052,30.906770677068,2522326.6001149,-454.27775997417,2618131.1940995,36.106770677068,0,0
-113.24281787849,-62.629643967659,30.911201120112,2522326.6001149,-454.27775997417,2618131.1940995,36.111201120112,0,0
-113.24281734251,-62.644818273266,30.915631563156,2522326.6001149,-454.27775997417,2618131.1940995,36.115631563156,0,0
-113.24281680654,-62.659992578872,30.920062006201,2522326.6001149,-454.27775997417,2618131.1940995,36.120062006201,0,0
-113.24281627056,-62.675166884479,30.924492449245,2522326.6001149,-454.27775997417,2618131.1940995,36.124492449245,0,0
-113.24281573458,-62.690341190086,30.928922892289,2522326.6001149,-454.27775997417,2618131.1940995,36.128922892289,0,0
-113.24281519861,-62.705515495693,30.933353335334,2522326.6001149,-454.27775997417,2618131.1940995,36.133353335334,0,0
-113.24281466263,-62.7206898013,30.937783778378,2522326.6001149,-454.27775997417,2618131.1940995,36.137783778378,0,0
-113.24281412666,-62.735864106907,30.942214221422,2522326.6001149,-454.27775997417,2618131.1940995,36.142214221422,0,0
-113.24281359068,-62.751038412514,30.946644664466,2522326.6001149,-454.27775997417,2618131.1940995,36.146644664466,0,0
-113.2428130547,-62.76621271812,30.951075107511,2522326.6001149,-454.27775997417,2618131.1940995,36.151075107511,0,0
-113.24281251873,-62.781387023727,30.955505550555,2522326.6001149,-454.27775997417,2618131.1940995,36.155505550555,0,0
-113.24281198275,-62.796561329334,30.959935993599,2522326.6001149,-454.27775997417,2618131.1940995,36.159935993599,0,0
-113.24281144677,-62.811735634941,30.964366436644,2522326.6001149,-454.27775997417,2618131.1940995,36.164366436644,0,0
-113.2428109108,-62.826909940548,30.968796879688,2522326.6001149,-454.27775997417,2618131.1940995,36.168796879688,0,0
-113.24281037482,-62.842084246155,30.973227322732,2522326.6001149,-454.27775997417,2618131.1940995,36.173227322732,0,0
-113.24280983884,-62.857258551762,30.977657765777,2522326.6001149,-454.27775997417,2618131.1940995,36.177657765777,0,0
-113.24280930287,-62.872432857368,30.982088208821,2522326.6001149,-454.27775997417,2618131.1940995,36.182088208821,0,0
-113.24280876689,-62.887607162975,30.986518651865,2522326.6001149,-454.27775997417,2618131.1940995,36.186518651865,0,0
-113.24280823092,-62.902781468582,30.990949094909,2522326.6001149,-454.27775997417,2618131.1940995,36.190949094909,0,0
-113.24280769494,-62.917955774189,30.995379537954,2522326.6001149,-454.27775997417,2618131.1940995,36.195379537954,0,0
-113.24280715896,-62.933130079796,30.999809980998,2522326.6001149,-454.27775997417,2618131.1940995,36.199809980998,0,0
-113.24280662299,-62.948304385403,31.004240424042,2522326.6001149,-454.27775997417,2618131.1940995,36.204240424042,0,0
-113.24280608701,-62.96347869101,31.008670867087,2522326.6001149,-454.27775997417,2618131.1940995,36.208670867087,0,0
-113.24280555103,-62.978652996616,31.013101310131,2522326.6001149,-454.27775997417,2618131.1940995,36.213101310131,0,0
-113.24280501506,-62.993827302223,31.017531753175,2522326.6001149,-454.27775997417,2618131.1940995,36.217531753175,0,0
-113.24280447908,-63.00900160783,31.02196219622,2522326.6001149,-454.27775997417,2618131.1940995,36.22196219622,0,0
-113.24280394311,-63.024175913437,31.026392639264,2522326.6001149,-454.27775997417,2618131.1940995,36.226392639264,0,0
-113.24280340713,-63.039350219044,31.030823082308,2522326.6001149,-454.27775997417,2618131.1940995,36.230823082308,0,0
-113.24280287115,-63.054524524651,31.035253525353,2522326.6001149,-454.27775997417,2618131.1940995,36.235253525353,0,0
-113.24280233518,-63.069698830258,31.039683968397,2522326.6001149,-454.27775997417,2618131.1940995,36.239683968397,0,0
-113.2428017992,-63.084873135864,31.044114411441,2522326.6001149,-454.27775997417,2618131.1940995,36.244114411441,0,0
-113.24280126322,-63.100047441471,31.048544854485,2522326.6001149,-454.27775997417,2618131.1940995,36.248544854485,0,0
-113.24280072725,-63.115221747078,31.05297529753,2522326.6001149,-454.27775997417,2618131.1940995,36.25297529753,0,0
-113.24280019127,-63.130396052685,31.057405740574,2522326.6001149,-454.27775997417,2618131.1940995,36.257405740574,0,0
-113.2427996553,-63.145570358292,31.061836183618,2522326.6001149,-454.27775997417,2618131.1940995,36.261836183618,0,0
-113.24279911932,-63.160744663899,31.066266626663,2522326.6001149,-454.27775997417,2618131.1940995,36.266266626663,0,0
-113.24279858334,-63.175918969506,31.070697069707,2522326.6001149,-454.27775997417,2618131.1940995,36.270697069707,0,0
-113.24279804737,-63.191093275112,31.075127512751,2522326.6001149,-454.27775997417,2618131.1940995,36.275127512751,0,0
-113.24279751139,-63.206267580719,31.079557955796,2522326.6001149,-454.27775997417,2618131.1940995,36.279557955796,0,0
-113.24279697541,-63.221441886326,31.08398839884,2522326.6001149,-454.27775997417,2618131.1940995,36.28398839884,0,0
-113.24279643944,-63.236616191933,31.088418841884,2522326.6001149,-454.27775997417,2618131.1940995,36.288418841884,0,0
-113.24279590346,-63.25179049754,31.092849284928,2522326.6001149,-454.27775997417,2618131.1940995,36.292849284928,0,0
-113.24279536748,-63.266964803147,31.097279727973,2522326.6001149,-454.27775997417,2618131.1940995,36.297279727973,0,0
-113.24279483151,-63.282139108754,31.101710171017,2522326.6001149,-454.27775997417,2618131.1940995,36.301710171017,0,0
-113.24279429553,-63.297313414361,31.106140614061,2522326.6001149,-454.27775997417,2618131.1940995,36.306140614061,0,0
-113.24279375956,-63.312487719967,31.110571057106,2522326.6001149,-454.27775997417,2618131.1940995,36.310571057106,0,0
-113.24279322358,-63.327662025574,31.11500150015,2522326.6001149,-454.27775997417,2618131.1940995,36.31500150015,0,0
-113.2427926876,-63.342836331181,31.119431943194,2522326.6001149,-454.27775997417,2618131.1940995,36.319431943194,0,0
-113.24279215163,-63.358010636788,31.123862386239,2522326.6001149,-454.27775997417,2618131.1940995,36.323862386239,0,0
-113.24279161565,-63.373184942395,31.128292829283,2522326.6001149,-454.27775997417,2618131.1940995,36.328292829283,0,0
-113.24279107967,-63.388359248002,31.132723272327,2522326.6001149,-454.27775997417,2618131.1940995,36.332723272327,0,0
-113.2427905437,-63.403533553609,31.137153715372,2522326.6001149,-454.27775997417,2618131.1940995,36.337153715372,0,0
-113.24279000772,-63.418707859215,31.141584158416,2522326.6001149,-454.27775997417,2618131.1940995,36.341584158416,0,0
-113.24278947175,-63.433882164822,31.14601460146,2522326.6001149,-454.27775997417,2618131.1940995,36.34601460146,0,0
-113.24278893577,-63.449056470429,31.150445044504,2522326.6001149,-454.27775997417,2618131.1940995,36.350445044504,0,0
-113.24278839979,-63.464230776036,31.154875487549,2522326.6001149,-454.27775997417,2618131.1940995,36.354875487549,0,0
-113.24278786382,-63.479405081643,31.159305930593,2522326.6001149,-454.27775997417,2618131.1940995,36.359305930593,0,0
-113.24278732784,-63.49457938725,31.163736373637,2522326.6001149,-454.27775997417,2618131.1940995,36.363736373637,0,0
-113.24278679186,-63.509753692857,31.168166816682,2522326.6001149,-454.27775997417,2618131.1940995,36.368166816682,0,0
-113.24278625589,-63.524927998463,31.172597259726,2522326.6001149,-454.27775997417,2618131.1940995,36.372597259726,0,0
-113.24278571991,-63.54010230407,31.17702770277,2522326.6001149,-454.27775997417,2618131.1940995,36.37702770277,0,0
-113.24278518393,-63.555276609677,31.181458145815,2522326.6001149,-454.27775997417,2618131.1940995,36.381458145815,0,0
-113.24278464796,-63.570450915284,31.185888588859,2522326.6001149,-454.27775997417,2618131.1940995,36.385888588859,0,0
-113.24278411198,-63.585625220891,31.190319031903,2522326.6001149,-454.27775997417,2618131.1940995,36.390319031903,0,0
-113.24278357601,-63.600799526498,31.194749474947,2522326.6001149,-454.27775997417,2618131.1940995,36.394749474947,0,0
-113.24278304003,-63.615973832105,31.199179917992,2522326.6001149,-454.27775997417,2618131.1940995,36.399179917992,0,0
-113.24278250405,-63.631148137711,31.203610361036,2522326.6001149,-454.27775997417,2618131.1940995,36.403610361036,0,0
-113.24278196808,-63.646322443318,31.20804080408,2522326.6001149,-454.27775997417,2618131.1940995,36.40804080408,0,0
-113.2427814321,-63.661496748925,31.212471247125,2522326.6001149,-454.27775997417,2618131.1940995,36.412471247125,0,0
-113.24278089612,-63.676671054532,31.216901690169,2522326.6001149,-454.27775997417,2618131.1940995,36.416901690169,0,0
-113.24278036015,-63.691845360139,31.221332133213,2522326.6001149,-454.27775997417,2618131.1940995,36.421332133213,0,0
-113.24277982417,-63.707019665746,31.225762576258,2522326.6001149,-454.27775997417,2618131.1940995,36.425762576258,0,0
-113.2427792882,-63.722193971353,31.230193019302,2522326.6001149,-454.27775997417,2618131.1940995,36.430193019302,0,0
-113.24277875222,-63.737368276959,31.234623462346,2522326.6001149,-454.27775997417,2618131.1940995,36.434623462346,0,0
-113.24277821624,-63.752542582566,31.239053905391,2522326.6001149,-454.27775997417,2618131.1940995,36.439053905391,0,0
-113.24277768027,-63.767716888173,31.243484348435,2522326.6001149,-454.27775997417,2618131.1940995,36.443484348435,0,0
-113.24277714429,-63.78289119378,31.247914791479,2522326.6001149,-454.27775997417,2618131.1940995,36.447914791479,0,0
-113.24277660831,-63.798065499387,31.252345234523,2522326.6001149,-454.27775997417,2618131.1940995,36.452345234523,0,0
-113.24277607234,-63.813239804994,31.256775677568,2522326.6001149,-454.27775997417,2618131.1940995,36.456775677568,0,0
-113.24277553636,-63.828414110601,31.261206120612,2522326.6001149,-454.27775997417,2618131.1940995,36.461206120612,0,0
-113.24277500039,-63.843588416207,31.265636563656,2522326.6001149,-454.27775997417,2618131.1940995,36.465636563656,0,0
-113.24277446441,-63.858762721814,31.270067006701,2522326.6001149,-454.27775997417,2618131.1940995,36.470067006701,0,0
-113.24277392843,-63.873937027421,31.274497449745,2522326.6001149,-454.27775997417,2618131.1940995,36.474497449745,0,0
-113.24277339246,-63.889111333028,31.278927892789,2522326.6001149,-454.27775997417,2618131.1940995,36.478927892789,0,0
-113.24277285648,-63.904285638635,31.283358335834,2522326.6001149,-454.27775997417,2618131.1940995,36.483358335834,0,0
-113.2427723205,-63.919459944242,31.287788778878,2522326.6001149,-454.27775997417,2618131.1940995,36.487788778878,0,0
-113.24277178453,-63.934634249849,31.292219221922,2522326.6001149,-454.27775997417,2618131.1940995,36.492219221922,0,0
-113.24277124817,-63.949808556046,31.296649664966,2525167.6808853,-1716.4467037883,2615528.5992604,36.496649664966,0,0
-113.2427707116,-63.964982862549,31.301080108011,2525167.6808853,-1716.4467037883,2615528.5992604,36.501080108011,0,0
-113.24277017504,-63.980157169052,31.305510551055,2525167.6808853,-1716.4467037883,2615528.5992604,36.505510551055,0,0
-113.24276963848,-63.995331475555,31.309940994099,2525167.6808853,-1716.4467037883,2615528.5992604,36.509940994099,0,0
-113.24276910192,-64.010505782058,31.314371437144,2525167.6808853,-1716.4467037883,2615528.5992604,36.514371437144,0,0
-113.24276856536,-64.02568008856,31.318801880188,2525167.6808853,-1716.4467037883,2615528.5992604,36.518801880188,0,0
-113.2427680288,-64.040854395063,31.323232323232,2525167.6808853,-1716.4467037883,2615528.5992604,36.523232323232,0,0
-113.24276749224,-64.056028701566,31.327662766277,2525167.6808853,-1716.4467037883,2615528.5992604,36.527662766277,0,0
-113.24276695568,-64.071203008069,31.332093209321,2525167.6808853,-1716.4467037883,2615528.5992604,36.532093209321,0,0
-113.24276641911,-64.086377314571,31.336523652365,2525167.6808853,-1716.4467037883,2615528.5992604,36.536523652365,0,0
-113.24276588255,-64.101551621074,31.34095409541,2525167.6808853,-1716.4467037883,2615528.5992604,36.54095409541,0,0
-113.24276534599,-64.116725927577,31.345384538454,2525167.6808853,-1716.4467037883,2615528.5992604,36.545384538454,0,0
-113.24276480943,-64.13190023408,31.349814981498,2525167.6808853,-1716.4467037883,2615528.5992604,36.549814981498,0,0
-113.24276427287,-64.147074540582,31.354245424542,2525167.6808853,-1716.4467037883,2615528.5992604,36.554245424542,0,0
-113.24276373631,-64.162248847085,31.358675867587,2525167.6808853,-1716.4467037883,2615528.5992604,36.558675867587,0,0
-113.24276319975,-64.177423153588,31.363106310631,2525167.6808853,-1716.4467037883,2615528.5992604,36.563106310631,0,0
-113.24276266319,-64.192597460091,31.367536753675,2525167.6808853,-1716.4467037883,2615528.5992604,36.567536753675,0,0
-113.24276212662,-64.207771766594,31.37196719672,2525167.6808853,-1716.4467037883,2615528.5992604,36.57196719672,0,0
-113.24276159006,-64.222946073096,31.376397639764,2525167.6808853,-1716.4467037883,2615528.5992604,36.576397639764,0,0
-113.2427610535,-64.238120379599,31.380828082808,2525167.6808853,-1716.4467037883,2615528.5992604,36.580828082808,0,0
-113.24276051694,-64.253294686102,31.385258525853,2525167.6808853,-1716.4467037883,2615528.5992604,36.585258525853,0,0
-113.24275998038,-64.268468992605,31.389688968897,2525167.6808853,-1716.4467037883,2615528.5992604,36.589688968897,0,0
-113.24275944382,-64.283643299107,31.394119411941,2525167.6808853,-1716.4467037883,2615528.5992604,36.594119411941,0,0
-113.24275890726,-64.29881760561,31.398549854986,2525167.6808853,-1716.4467037883,2615528.5992604,36.598549854985,0,0
-113.2427583707,-64.313991912113,31.40298029803,2525167.6808853,-1716.4467037883,2615528.5992604,36.60298029803,0,0
-113.24275783413,-64.329166218616,31.407410741074,2525167.6808853,-1716.4467037883,2615528.5992604,36.607410741074,0,0
-113.24275729757,-64.344340525118,31.411841184118,2525167.6808853,-1716.4467037883,2615528.5992604,36.611841184118,0,0
-113.24275676101,-64.359514831621,31.416271627163,2525167.6808853,-1716.4467037883,2615528.5992604,36.616271627163,0,0
-113.24275622445,-64.374689138124,31.420702070207,2525167.6808853,-1716.4467037883,2615528.5992604,36.620702070207,0,0
-113.24275568789,-64.389863444627,31.425132513251,2525167.6808853,-1716.4467037883,2615528.5992604,36.625132513251,0,0
-113.24275515133,-64.40503775113,31.429562956296,2525167.6808853,-1716.4467037883,2615528.5992604,36.629562956296,0,0
-113.24275461477,-64.420212057632,31.43399339934,2525167.6808853,-1716.4467037883,2615528.5992604,36.63399339934,0,0
-113.24275407821,-64.435386364135,31.438423842384,2525167.6808853,-1716.4467037883,2615528.5992604,36.638423842384,0,0
-113.24275354164,-64.450560670638,31.442854285429,2525167.6808853,-1716.4467037883,2615528.5992604,36.642854285429,0,0
-113.24275300508,-64.465734977141,31.447284728473,2525167.6808853,-1716.4467037883,2615528.5992604,36.647284728473,0,0
-113.24275246852,-64.480909283643,31.451715171517,2525167.6808853,-1716.4467037883,2615528.5992604,36.651715171517,0,0
-113.24275193196,-64.496083590146,31.456145614561,2525167.6808853,-1716.4467037883,2615528.5992604,36.656145614561,0,0
-113.2427513954,-64.511257896649,31.460576057606,2525167.6808853,-1716.4467037883,2615528.5992604,36.660576057606,0,0
-113.24275085884,-64.526432203152,31.46500650065,2525167.6808853,-1716.4467037883,2615528.5992604,36.66500650065,0,0
-113.24275032228,-64.541606509654,31.469436943694,2525167.6808853,-1716.4467037883,2615528.5992604,36.669436943694,0,0
-113.24274978572,-64.556780816157,31.473867386739,2525167.6808853,-1716.4467037883,2615528.5992604,36.673867386739,0,0
-113.24274924915,-64.57195512266,31.478297829783,2525167.6808853,-1716.4467037883,2615528.5992604,36.678297829783,0,0
-113.24274871259,-64.587129429163,31.482728272827,2525167.6808853,-1716.4467037883,2615528.5992604,36.682728272827,0,0
-113.24274817603,-64.602303735666,31.487158715872,2525167.6808853,-1716.4467037883,2615528.5992604,36.687158715872,0,0
-113.24274763947,-64.617478042168,31.491589158916,2525167.6808853,-1716.4467037883,2615528.5992604,36.691589158916,0,0
-113.24274710291,-64.632652348671,31.49601960196,2525167.6808853,-1716.4467037883,2615528.5992604,36.69601960196,0,0
-113.24274656635,-64.647826655174,31.500450045005,2525167.6808853,-1716.4467037883,2615528.5992604,36.700450045005,0,0
-113.24274602979,-64.663000961677,31.504880488049,2525167.6808853,-1716.4467037883,2615528.5992604,36.704880488049,0,0
-113.24274549323,-64.678175268179,31.509310931093,2525167.6808853,-1716.4467037883,2615528.5992604,36.709310931093,0,0
-113.24274495667,-64.693349574682,31.513741374137,2525167.6808853,-1716.4467037883,2615528.5992604,36.713741374137,0,0
-113.2427444201,-64.708523881185,31.518171817182,2525167.6808853,-1716.4467037883,2615528.5992604,36.718171817182,0,0
-113.24274388354,-64.723698187688,31.522602260226,2525167.6808853,-1716.4467037883,2615528.5992604,36.722602260226,0,0
-113.24274334698,-64.73887249419,31.52703270327,2525167.6808853,-1716.4467037883,2615528.5992604,36.72703270327,0,0
-113.24274281042,-64.754046800693,31.531463146315,2525167.6808853,-1716.4467037883,2615528.5992604,36.731463146315,0,0
-113.24274227386,-64.769221107196,31.535893589359,2525167.6808853,-1716.4467037883,2615528.5992604,36.735893589359,0,0
-113.2427417373,-64.784395413699,31.540324032403,2525167.6808853,-1716.4467037883,2615528.5992604,36.740324032403,0,0
-113.24274120074,-64.799569720202,31.544754475448,2525167.6808853,-1716.4467037883,2615528.5992604,36.744754475448,0,0
-113.24274066418,-64.814744026704,31.549184918492,2525167.6808853,-1716.4467037883,2615528.5992604,36.749184918492,0,0
-113.24274012761,-64.829918333207,31.553615361536,2525167.6808853,-1716.4467037883,2615528.5992604,36.753615361536,0,0
-113.24273959105,-64.84509263971,31.55804580458,2525167.6808853,-1716.4467037883,2615528.5992604,36.75804580458,0,0
-113.24273905449,-64.860266946213,31.562476247625,2525167.6808853,-1716.4467037883,2615528.5992604,36.762476247625,0,0
-113.24273851793,-64.875441252715,31.566906690669,2525167.6808853,-1716.4467037883,2615528.5992604,36.766906690669,0,0
-113.24273798137,-64.890615559218,31.571337133713,2525167.6808853,-1716.4467037883,2615528.5992604,36.771337133713,0,0
-113.24273744481,-64.905789865721,31.575767576758,2525167.6808853,-1716.4467037883,2615528.5992604,36.775767576758,0,0
-113.24273690825,-64.920964172224,31.580198019802,2525167.6808853,-1716.4467037883,2615528.5992604,36.780198019802,0,0
-113.24273637169,-64.936138478726,31.584628462846,2525167.6808853,-1716.4467037883,2615528.5992604,36.784628462846,0,0
-113.24273583512,-64.951312785229,31.589058905891,2525167.6808853,-1716.4467037883,2615528.5992604,36.789058905891,0,0
-113.24273529856,-64.966487091732,31.593489348935,2525167.6808853,-1716.4467037883,2615528.5992604,36.793489348935,0,0
-113.242734762,-64.981661398235,31.597919791979,2525167.6808853,-1716.4467037883,2615528.5992604,36.797919791979,0,0
-113.24273422544,-64.996835704738,31.602350235024,2525167.6808853,-1716.4467037883,2615528.5992604,36.802350235024,0,0
-113.24273368888,-65.01201001124,31.606780678068,2525167.6808853,-1716.4467037883,2615528.5992604,36.806780678068,0,0
-113.24273315232,-65.027184317743,31.611211121112,2525167.6808853,-1716.4467037883,2615528.5992604,36.811211121112,0,0
-113.24273261576,-65.042358624246,31.615641564156,2525167.6808853,-1716.4467037883,2615528.5992604,36.815641564156,0,0
-113.2427320792,-65.057532930749,31.620072007201,2525167.6808853,-1716.4467037883,2615528.5992604,36.820072007201,0,0
-113.24273154263,-65.072707237251,31.624502450245,2525167.6808853,-1716.4467037883,2615528.5992604,36.824502450245,0,0
-113.24273100607,-65.087881543754,31.628932893289,2525167.6808853,-1716.4467037883,2615528.5992604,36.828932893289,0,0
-113.24273046951,-65.103055850257,31.633363336334,2525167.6808853,-1716.4467037883,2615528.5992604,36.833363336334,0,0
-113.24272993295,-65.11823015676,31.637793779378,2525167.6808853,-1716.4467037883,2615528.5992604,36.837793779378,0,0
-113.24272939639,-65.133404463262,31.642224222422,2525167.6808853,-1716.4467037883,2615528.5992604,36.842224222422,0,0
-113.24272885983,-65.148578769765,31.646654665467,2525167.6808853,-1716.4467037883,2615528.5992604,36.846654665467,0,0
-113.24272832327,-65.163753076268,31.651085108511,2525167.6808853,-1716.4467037883,2615528.5992604,36.851085108511,0,0
-113.24272778671,-65.178927382771,31.655515551555,2525167.6808853,-1716.4467037883,2615528.5992604,36.855515551555,0,0
-113.24272725014,-65.194101689274,31.659945994599,2525167.6808853,-1716.4467037883,2615528.5992604,36.859945994599,0,0
-113.24272671358,-65.209275995776,31.664376437644,2525167.6808853,-1716.4467037883,2615528.5992604,36.864376437644,0,0
-113.24272617702,-65.224450302279,31.668806880688,2525167.6808853,-1716.4467037883,2615528.5992604,36.868806880688,0,0
-113.24272564046,-65.239624608782,31.673237323732,2525167.6808853,-1716.4467037883,2615528.5992604,36.873237323732,0,0
-113.2427251039,-65.254798915285,31.677667766777,2525167.6808853,-1716.4467037883,2615528.5992604,36.877667766777,0,0
-113.24272456734,-65.269973221787,31.682098209821,2525167.6808853,-1716.4467037883,2615528.5992604,36.882098209821,0,0
-113.24272403078,-65.28514752829,31.686528652865,2525167.6808853,-1716.4467037883,2615528.5992604,36.886528652865,0,0
-113.24272349422,-65.300321834793,31.69095909591,2525167.6808853,-1716.4467037883,2615528.5992604,36.89095909591,0,0
-113.24272295766,-65.315496141296,31.695389538954,2525167.6808853,-1716.4467037883,2615528.5992604,36.895389538954,0,0
-113.24272242109,-65.330670447798,31.699819981998,2525167.6808853,-1716.4467037883,2615528.5992604,36.899819981998,0,0
-113.24272188453,-65.345844754301,31.704250425043,2525167.6808853,-1716.4467037883,2615528.5992604,36.904250425043,0,0
-113.24272134797,-65.361019060804,31.708680868087,2525167.6808853,-1716.4467037883,2615528.5992604,36.908680868087,0,0
-113.24272081141,-65.376193367307,31.713111311131,2525167.6808853,-1716.4467037883,2615528.5992604,36.913111311131,0,0
-113.24272027485,-65.39136767381,31.717541754175,2525167.6808853,-1716.4467037883,2615528.5992604,36.917541754175,0,0
-113.24271973829,-65.406541980312,31.72197219722,2525167.6808853,-1716.4467037883,2615528.5992604,36.92197219722,0,0
-113.24271920173,-65.421716286815,31.726402640264,2525167.6808853,-1716.4467037883,2615528.5992604,36.926402640264,0,0
-113.24271866517,-65.436890593318,31.730833083308,2525167.6808853,-1716.4467037883,2615528.5992604,36.930833083308,0,0
-113.2427181286,-65.452064899821,31.735263526353,2525167.6808853,-1716.4467037883,2615528.5992604,36.935263526353,0,0
-113.24271759204,-65.467239206323,31.739693969397,2525167.6808853,-1716.4467037883,2615528.5992604,36.939693969397,0,0
-113.24271705548,-65.482413512826,31.744124412441,2525167.6808853,-1716.4467037883,2615528.5992604,36.944124412441,0,0
-113.24271651892,-65.497587819329,31.748554855486,2525167.6808853,-1716.4467037883,2615528.5992604,36.948554855486,0,0
-113.24271598236,-65.512762125832,31.75298529853,2525167.6808853,-1716.4467037883,2615528.5992604,36.95298529853,0,0
-113.2427154458,-65.527936432334,31.757415741574,2525167.6808853,-1716.4467037883,2615528.5992604,36.957415741574,0,0
-113.24271490924,-65.543110738837,31.761846184618,2525167.6808853,-1716.4467037883,2615528.5992604,36.961846184618,0,0
-113.24271437268,-65.55828504534,31.766276627663,2525167.6808853,-1716.4467037883,2615528.5992604,36.966276627663,0,0
-113.24271383611,-65.573459351843,31.770707070707,2525167.6808853,-1716.4467037883,2615528.5992604,36.970707070707,0,0
-113.24271329955,-65.588633658346,31.775137513751,2525167.6808853,-1716.4467037883,2615528.5992604,36.975137513751,0,0
-113.24271276299,-65.603807964848,31.779567956796,2525167.6808853,-1716.4467037883,2615528.5992604,36.979567956796,0,0
-113.24271222643,-65.618982271351,31.78399839984,2525167.6808853,-1716.4467037883,2615528.5992604,36.98399839984,0,0
-113.24271168987,-65.634156577854,31.788428842884,2525167.6808853,-1716.4467037883,2615528.5992604,36.988428842884,0,0
-113.24271115331,-65.649330884357,31.792859285929,2525167.6808853,-1716.4467037883,2615528.5992604,36.992859285929,0,0
-113.24271061675,-65.664505190859,31.797289728973,2525167.6808853,-1716.4467037883,2615528.5992604,36.997289728973,0,0
-113.24271008019,-65.679679497362,31.801720172017,2525167.6808853,-1716.4467037883,2615528.5992604,37.001720172017,0,0
-113.24270954362,-65.694853803865,31.806150615062,2525167.6808853,-1716.4467037883,2615528.5992604,37.006150615062,0,0
-113.24270900706,-65.710028110368,31.810581058106,2525167.6808853,-1716.4467037883,2615528.5992604,37.010581058106,0,0
-113.2427084705,-65.72520241687,31.81501150115,2525167.6808853,-1716.4467037883,2615528.5992604,37.01501150115,0,0
-113.24270793394,-65.740376723373,31.819441944194,2525167.6808853,-1716.4467037883,2615528.5992604,37.019441944194,0,0
-113.24270739738,-65.755551029876,31.823872387239,2525167.6808853,-1716.4467037883,2615528.5992604,37.023872387239,0,0
-113.24270686082,-65.770725336379,31.828302830283,2525167.6808853,-1716.4467037883,2615528.5992604,37.028302830283,0,0
-113.24270632426,-65.785899642882,31.832733273327,2525167.6808853,-1716.4467037883,2615528.5992604,37.032733273327,0,0
-113.2427057877,-65.801073949384,31.837163716372,2525167.6808853,-1716.4467037883,2615528.5992604,37.037163716372,0,0
-113.24270525113,-65.816248255887,31.841594159416,2525167.6808853,-1716.4467037883,2615528.5992604,37.041594159416,0,0
-113.24270471457,-65.83142256239,31.84602460246,2525167.6808853,-1716.4467037883,2615528.5992604,37.04602460246,0,0
-113.24270417801,-65.846596868893,31.850455045505,2525167.6808853,-1716.4467037883,2615528.5992604,37.050455045505,0,0
-113.24270364145,-65.861771175395,31.854885488549,2525167.6808853,-1716.4467037883,2615528.5992604,37.054885488549,0,0
-113.24270310489,-65.876945481898,31.859315931593,2525167.6808853,-1716.4467037883,2615528.5992604,37.059315931593,0,0
-113.24270256833,-65.892119788401,31.863746374637,2525167.6808853,-1716.4467037883,2615528.5992604,37.063746374637,0,0
-113.24270203177,-65.907294094904,31.868176817682,2525167.6808853,-1716.4467037883,2615528.5992604,37.068176817682,0,0
-113.24270149521,-65.922468401406,31.872607260726,2525167.6808853,-1716.4467037883,2615528.5992604,37.072607260726,0,0
-113.24270095865,-65.937642707909,31.87703770377,2525167.6808853,-1716.4467037883,2615528.5992604,37.07703770377,0,0
-113.24270042208,-65.952817014412,31.881468146815,2525167.6808853,-1716.4467037883,2615528.5992604,37.081468146815,0,0
-113.24269988552,-65.967991320915,31.885898589859,2525167.6808853,-1716.4467037883,2615528.5992604,37.085898589859,0,0
-113.24269934896,-65.983165627418,31.890329032903,2525167.6808853,-1716.4467037883,2615528.5992604,37.090329032903,0,0
-113.2426988124,-65.99833993392,31.894759475948,2525167.6808853,-1716.4467037883,2615528.5992604,37.094759475948,0,0
-113.24269827584,-66.013514240423,31.899189918992,2525167.6808853,-1716.4467037883,2615528.5992604,37.099189918992,0,0
-113.24269773928,-66.028688546926,31.903620362036,2525167.6808853,-1716.4467037883,2615528.5992604,37.103620362036,0,0
-113.24269720272,-66.043862853429,31.908050805081,2525167.6808853,-1716.4467037883,2615528.5992604,37.108050805081,0,0
-113.24269666616,-66.059037159931,31.912481248125,2525167.6808853,-1716.4467037883,2615528.5992604,37.112481248125,0,0
-113.24269612959,-66.074211466434,31.916911691169,2525167.6808853,-1716.4467037883,2615528.5992604,37.116911691169,0,0
-113.24269559303,-66.089385772937,31.921342134213,2525167.6808853,-1716.4467037883,2615528.5992604,37.121342134213,0,0
-113.24269505647,-66.10456007944,31.925772577258,2525167.6808853,-1716.4467037883,2615528.5992604,37.125772577258,0,0
-113.24269451991,-66.119734385942,31.930203020302,2525167.6808853,-1716.4467037883,2615528.5992604,37.130203020302,0,0
-113.24269398335,-66.134908692445,31.934633463346,2525167.6808853,-1716.4467037883,2615528.5992604,37.134633463346,0,0
-113.24269344679,-66.150082998948,31.939063906391,2525167.6808853,-1716.4467037883,2615528.5992604,37.139063906391,0,0
-113.24269291023,-66.165257305451,31.943494349435,2525167.6808853,-1716.4467037883,2615528.5992604,37.143494349435,0,0
-113.24269237331,-66.180431611533,31.947924792479,2528795.4499486,-719.81879718003,2614232.794481,37.147924792479,0,0
-113.2426918361,-66.195605917282,31.952355235524,2528795.4499486,-719.81879718003,2614232.794481,37.152355235524,0,0
-113.2426912989,-66.210780223031,31.956785678568,2528795.4499486,-719.81879718003,2614232.794481,37.156785678568,0,0
-113.2426907617,-66.22595452878,31.961216121612,2528795.4499486,-719.81879718003,2614232.794481,37.161216121612,0,0
-113.24269022449,-66.24112883453,31.965646564656,2528795.4499486,-719.81879718003,2614232.794481,37.165646564656,0,0
-113.24268968729,-66.256303140279,31.970077007701,2528795.4499486,-719.81879718003,2614232.794481,37.170077007701,0,0
-113.24268915009,-66.271477446028,31.974507450745,2528795.4499486,-719.81879718003,2614232.794481,37.174507450745,0,0
-113.24268861288,-66.286651751777,31.978937893789,2528795.4499486,-719.81879718003,2614232.794481,37.178937893789,0,0
-113.24268807568,-66.301826057526,31.983368336834,2528795.4499486,-719.81879718003,2614232.794481,37.183368336834,0,0
-113.24268753848,-66.317000363275,31.987798779878,2528795.4499486,-719.81879718003,2614232.794481,37.187798779878,0,0
-113.24268700128,-66.332174669024,31.992229222922,2528795.4499486,-719.81879718003,2614232.794481,37.192229222922,0,0
-113.24268646407,-66.347348974773,31.996659665967,2528795.4499486,-719.81879718003,2614232.794481,37.196659665967,0,0
-113.24268592687,-66.362523280522,32.001090109011,2528795.4499486,-719.81879718003,2614232.794481,37.201090109011,0,0
-113.24268538967,-66.377697586271,32.005520552055,2528795.4499486,-719.81879718003,2614232.794481,37.205520552055,0,0
-113.24268485246,-66.39287189202,32.0099509951,2528795.4499486,-719.81879718003,2614232.794481,37.2099509951,0,0
-113.24268431526,-66.408046197769,32.014381438144,2528795.4499486,-719.81879718003,2614232.794481,37.214381438144,0,0
-113.24268377806,-66.423220503518,32.018811881188,2528795.4499486,-719.81879718003,2614232.794481,37.218811881188,0,0
-113.24268324085,-66.438394809267,32.023242324232,2528795.4499486,-719.81879718003,2614232.794481,37.223242324232,0,0
-113.24268270365,-66.453569115016,32.027672767277,2528795.4499486,-719.81879718003,2614232.794481,37.227672767277,0,0
-113.24268216645,-66.468743420765,32.032103210321,2528795.4499486,-719.81879718003,2614232.794481,37.232103210321,0,0
-113.24268162924,-66.483917726514,32.036533653365,2528795.4499486,-719.81879718003,2614232.794481,37.236533653365,0,0
-113.24268109204,-66.499092032263,32.04096409641,2528795.4499486,-719.81879718003,2614232.794481,37.24096409641,0,0
-113.24268055484,-66.514266338012,32.045394539454,2528795.4499486,-719.81879718003,2614232.794481,37.245394539454,0,0
-113.24268001763,-66.529440643761,32.049824982498,2528795.4499486,-719.81879718003,2614232.794481,37.249824982498,0,0
-113.24267948043,-66.54461494951,32.054255425543,2528795.4499486,-719.81879718003,2614232.794481,37.254255425543,0,0
-113.24267894323,-66.559789255259,32.058685868587,2528795.4499486,-719.81879718003,2614232.794481,37.258685868587,0,0
-113.24267840602,-66.574963561008,32.063116311631,2528795.4499486,-719.81879718003,2614232.794481,37.263116311631,0,0
-113.24267786882,-66.590137866757,32.067546754675,2528795.4499486,-719.81879718003,2614232.794481,37.267546754675,0,0
-113.24267733162,-66.605312172506,32.07197719772,2528795.4499486,-719.81879718003,2614232.794481,37.27197719772,0,0
-113.24267679441,-66.620486478255,32.076407640764,2528795.4499486,-719.81879718003,2614232.794481,37.276407640764,0,0
-113.24267625721,-66.635660784004,32.080838083808,2528795.4499486,-719.81879718003,2614232.794481,37.280838083808,0,0
-113.24267572001,-66.650835089753,32.085268526853,2528795.4499486,-719.81879718003,2614232.794481,37.285268526853,0,0
-113.2426751828,-66.666009395502,32.089698969897,2528795.4499486,-719.81879718003,2614232.794481,37.289698969897,0,0
-113.2426746456,-66.681183701251,32.094129412941,2528795.4499486,-719.81879718003,2614232.794481,37.294129412941,0,0
-113.2426741084,-66.696358007,32.098559855986,2528795.4499486,-719.81879718003,2614232.794481,37.298559855986,0,0
-113.24267357119,-66.711532312749,32.10299029903,2528795.4499486,-719.81879718003,2614232.794481,37.30299029903,0,0
-113.24267303399,-66.726706618498,32.107420742074,2528795.4499486,-719.81879718003,2614232.794481,37.307420742074,0,0
-113.24267249679,-66.741880924247,32.111851185119,2528795.4499486,-719.81879718003,2614232.794481,37.311851185119,0,0
-113.24267195958,-66.757055229996,32.116281628163,2528795.4499486,-719.81879718003,2614232.794481,37.316281628163,0,0
-113.24267142238,-66.772229535745,32.120712071207,2528795.4499486,-719.81879718003,2614232.794481,37.320712071207,0,0
-113.24267088518,-66.787403841494,32.125142514251,2528795.4499486,-719.81879718003,2614232.794481,37.325142514251,0,0
-113.24267034797,-66.802578147243,32.129572957296,2528795.4499486,-719.81879718003,2614232.794481,37.329572957296,0,0
-113.24266981077,-66.817752452992,32.13400340034,2528795.4499486,-719.81879718003,2614232.794481,37.33400340034,0,0
-113.24266927357,-66.832926758741,32.138433843384,2528795.4499486,-719.81879718003,2614232.794481,37.338433843384,0,0
-113.24266873636,-66.84810106449,32.142864286429,2528795.4499486,-719.81879718003,2614232.794481,37.342864286429,0,0
-113.24266819916,-66.863275370239,32.147294729473,2528795.4499486,-719.81879718003,2614232.794481,37.347294729473,0,0
-113.24266766196,-66.878449675988,32.151725172517,2528795.4499486,-719.81879718003,2614232.794481,37.351725172517,0,0
-113.24266712475,-66.893623981737,32.156155615562,2528795.4499486,-719.81879718003,2614232.794481,37.356155615562,0,0
-113.24266658755,-66.908798287486,32.160586058606,2528795.4499486,-719.81879718003,2614232.794481,37.360586058606,0,0
-113.24266605035,-66.923972593235,32.16501650165,2528795.4499486,-719.81879718003,2614232.794481,37.36501650165,0,0
-113.24266551315,-66.939146898984,32.169446944694,2528795.4499486,-719.81879718003,2614232.794481,37.369446944694,0,0
-113.24266497594,-66.954321204733,32.173877387739,2528795.4499486,-719.81879718003,2614232.794481,37.373877387739,0,0
-113.24266443874,-66.969495510482,32.178307830783,2528795.4499486,-719.81879718003,2614232.794481,37.378307830783,0,0
-113.24266390154,-66.984669816231,32.182738273827,2528795.4499486,-719.81879718003,2614232.794481,37.382738273827,0,0
-113.24266336433,-66.99984412198,32.187168716872,2528795.4499486,-719.81879718003,2614232.794481,37.387168716872,0,0
-113.24266282713,-67.015018427729,32.191599159916,2528795.4499486,-719.81879718003,2614232.794481,37.391599159916,0,0
-113.24266228993,-67.030192733478,32.19602960296,2528795.4499486,-719.81879718003,2614232.794481,37.39602960296,0,0
-113.24266175272,-67.045367039227,32.200460046005,2528795.4499486,-719.81879718003,2614232.794481,37.400460046005,0,0
-113.24266121552,-67.060541344976,32.204890489049,2528795.4499486,-719.81879718003,2614232.794481,37.404890489049,0,0
-113.24266067832,-67.075715650725,32.209320932093,2528795.4499486,-719.81879718003,2614232.794481,37.409320932093,0,0
-113.24266014111,-67.090889956474,32.213751375138,2528795.4499486,-719.81879718003,2614232.794481,37.413751375138,0,0
-113.24265960391,-67.106064262223,32.218181818182,2528795.4499486,-719.81879718003,2614232.794481,37.418181818182,0,0
-113.24265906671,-67.121238567972,32.222612261226,2528795.4499486,-719.81879718003,2614232.794481,37.422612261226,0,0
-113.2426585295,-67.136412873721,32.22704270427,2528795.4499486,-719.81879718003,2614232.794481,37.42704270427,0,0
-113.2426579923,-67.15158717947,32.231473147315,2528795.4499486,-719.81879718003,2614232.794481,37.431473147315,0,0
-113.2426574551,-67.166761485219,32.235903590359,2528795.4499486,-719.81879718003,2614232.794481,37.435903590359,0,0
-113.24265691789,-67.181935790968,32.240334033403,2528795.4499486,-719.81879718003,2614232.794481,37.440334033403,0,0
-113.24265638069,-67.197110096717,32.244764476448,2528795.4499486,-719.81879718003,2614232.794481,37.444764476448,0,0
-113.24265584349,-67.212284402466,32.249194919492,2528795.4499486,-719.81879718003,2614232.794481,37.449194919492,0,0
-113.24265530628,-67.227458708215,32.253625362536,2528795.4499486,-719.81879718003,2614232.794481,37.453625362536,0,0
-113.24265476908,-67.242633013964,32.258055805581,2528795.4499486,-719.81879718003,2614232.794481,37.458055805581,0,0
-113.24265423188,-67.257807319713,32.262486248625,2528795.4499486,-719.81879718003,2614232.794481,37.462486248625,0,0
-113.24265369467,-67.272981625462,32.266916691669,2528795.4499486,-719.81879718003,2614232.794481,37.466916691669,0,0
-113.24265315747,-67.288155931211,32.271347134713,2528795.4499486,-719.81879718003,2614232.794481,37.471347134713,0,0
-113.24265262027,-67.30333023696,32.275777577758,2528795.4499486,-719.81879718003,2614232.794481,37.475777577758,0,0
-113.24265208306,-67.318504542709,32.280208020802,2528795.4499486,-719.81879718003,2614232.794481,37.480208020802,0,0
-113.24265154586,-67.333678848458,32.284638463846,2528795.4499486,-719.81879718003,2614232.794481,37.484638463846,0,0
-113.24265100866,-67.348853154207,32.289068906891,2528795.4499486,-719.81879718003,2614232.794481,37.489068906891,0,0
-113.24265047145,-67.364027459956,32.293499349935,2528795.4499486,-719.81879718003,2614232.794481,37.493499349935,0,0
-113.24264993425,-67.379201765705,32.297929792979,2528795.4499486,-719.81879718003,2614232.794481,37.497929792979,0,0
-113.24264939705,-67.394376071454,32.302360236024,2528795.4499486,-719.81879718003,2614232.794481,37.502360236024,0,0
-113.24264885984,-67.409550377203,32.306790679068,2528795.4499486,-719.81879718003,2614232.794481,37.506790679068,0,0
-113.24264832264,-67.424724682952,32.311221122112,2528795.4499486,-719.81879718003,2614232.794481,37.511221122112,0,0
-113.24264778544,-67.439898988701,32.315651565157,2528795.4499486,-719.81879718003,2614232.794481,37.515651565157,0,0
-113.24264724823,-67.45507329445,32.320082008201,2528795.4499486,-719.81879718003,2614232.794481,37.520082008201,0,0
-113.24264671103,-67.470247600199,32.324512451245,2528795.4499486,-719.81879718003,2614232.794481,37.524512451245,0,0
-113.24264617383,-67.485421905948,32.328942894289,2528795.4499486,-719.81879718003,2614232.794481,37.528942894289,0,0
-113.24264563662,-67.500596211697,32.333373337334,2528795.4499486,-719.81879718003,2614232.794481,37.533373337334,0,0
-113.24264509942,-67.515770517446,32.337803780378,2528795.4499486,-719.81879718003,2614232.794481,37.537803780378,0,0
-113.24264456222,-67.530944823195,32.342234223422,2528795.4499486,-719.81879718003,2614232.794481,37.542234223422,0,0
-113.24264402502,-67.546119128944,32.346664666467,2528795.4499486,-719.81879718003,2614232.794481,37.546664666467,0,0
-113.24264348781,-67.561293434693,32.351095109511,2528795.4499486,-719.81879718003,2614232.794481,37.551095109511,0,0
-113.24264295061,-67.576467740442,32.355525552555,2528795.4499486,-719.81879718003,2614232.794481,37.555525552555,0,0
-113.24264241341,-67.591642046191,32.3599559956,2528795.4499486,-719.81879718003,2614232.794481,37.5599559956,0,0
-113.2426418762,-67.60681635194,32.364386438644,2528795.4499486,-719.81879718003,2614232.794481,37.564386438644,0,0
-113.242641339,-67.621990657689,32.368816881688,2528795.4499486,-719.81879718003,2614232.794481,37.568816881688,0,0
-113.2426408018,-67.637164963438,32.373247324732,2528795.4499486,-719.81879718003,2614232.794481,37.573247324732,0,0
-113.24264026459,-67.652339269187,32.377677767777,2528795.4499486,-719.81879718003,2614232.794481,37.577677767777,0,0
-113.24263972739,-67.667513574936,32.382108210821,2528795.4499486,-719.81879718003,2614232.794481,37.582108210821,0,0
-113.24263919019,-67.682687880685,32.386538653865,2528795.4499486,-719.81879718003,2614232.794481,37.586538653865,0,0
-113.24263865298,-67.697862186434,32.39096909691,2528795.4499486,-719.81879718003,2614232.794481,37.59096909691,0,0
-113.24263811578,-67.713036492183,32.395399539954,2528795.4499486,-719.81879718003,2614232.794481,37.595399539954,0,0
-113.24263757858,-67.728210797932,32.399829982998,2528795.4499486,-719.81879718003,2614232.794481,37.599829982998,0,0
-113.24263704137,-67.743385103681,32.404260426043,2528795.4499486,-719.81879718003,2614232.794481,37.604260426043,0,0
-113.24263650417,-67.75855940943,32.408690869087,2528795.4499486,-719.81879718003,2614232.794481,37.608690869087,0,0
-113.24263596697,-67.773733715179,32.413121312131,2528795.4499486,-719.81879718003,2614232.794481,37.613121312131,0,0
-113.24263542976,-67.788908020928,32.417551755176,2528795.4499486,-719.81879718003,2614232.794481,37.617551755176,0,0
-113.24263489256,-67.804082326677,32.42198219822,2528795.4499486,-719.81879718003,2614232.794481,37.62198219822,0,0
-113.24263435536,-67.819256632426,32.426412641264,2528795.4499486,-719.81879718003,2614232.794481,37.626412641264,0,0
-113.24263381815,-67.834430938175,32.430843084308,2528795.4499486,-719.81879718003,2614232.794481,37.630843084308,0,0
-113.24263328095,-67.849605243924,32.435273527353,2528795.4499486,-719.81879718003,2614232.794481,37.635273527353,0,0
-113.24263274375,-67.864779549673,32.439703970397,2528795.4499486,-719.81879718003,2614232.794481,37.639703970397,0,0
-113.24263220654,-67.879953855422,32.444134413441,2528795.4499486,-719.81879718003,2614232.794481,37.644134413441,0,0
-113.24263166934,-67.895128161171,32.448564856486,2528795.4499486,-719.81879718003,2614232.794481,37.648564856486,0,0
-113.24263113214,-67.91030246692,32.45299529953,2528795.4499486,-719.81879718003,2614232.794481,37.65299529953,0,0
-113.24263059493,-67.925476772669,32.457425742574,2528795.4499486,-719.81879718003,2614232.794481,37.657425742574,0,0
-113.24263005773,-67.940651078418,32.461856185619,2528795.4499486,-719.81879718003,2614232.794481,37.661856185619,0,0
-113.24262952053,-67.955825384167,32.466286628663,2528795.4499486,-719.81879718003,2614232.794481,37.666286628663,0,0
-113.24262898332,-67.970999689916,32.470717071707,2528795.4499486,-719.81879718003,2614232.794481,37.670717071707,0,0
-113.24262844612,-67.986173995665,32.475147514751,2528795.4499486,-719.81879718003,2614232.794481,37.675147514751,0,0
-113.24262790892,-68.001348301414,32.479577957796,2528795.4499486,-719.81879718003,2614232.794481,37.679577957796,0,0
-113.24262737171,-68.016522607164,32.48400840084,2528795.4499486,-719.81879718003,2614232.794481,37.68400840084,0,0
-113.24262683451,-68.031696912913,32.488438843884,2528795.4499486,-719.81879718003,2614232.794481,37.688438843884,0,0
-113.24262629731,-68.046871218662,32.492869286929,2528795.4499486,-719.81879718003,2614232.794481,37.692869286929,0,0
-113.2426257601,-68.062045524411,32.497299729973,2528795.4499486,-719.81879718003,2614232.794481,37.697299729973,0,0
-113.2426252229,-68.07721983016,32.501730173017,2528795.4499486,-719.81879718003,2614232.794481,37.701730173017,0,0
-113.2426246857,-68.092394135909,32.506160616062,2528795.4499486,-719.81879718003,2614232.794481,37.706160616062,0,0
-113.24262414849,-68.107568441658,32.510591059106,2528795.4499486,-719.81879718003,2614232.794481,37.710591059106,0,0
-113.24262361129,-68.122742747407,32.51502150215,2528795.4499486,-719.81879718003,2614232.794481,37.71502150215,0,0
-113.24262307409,-68.137917053156,32.519451945195,2528795.4499486,-719.81879718003,2614232.794481,37.719451945195,0,0
-113.24262253689,-68.153091358905,32.523882388239,2528795.4499486,-719.81879718003,2614232.794481,37.723882388239,0,0
-113.24262199968,-68.168265664654,32.528312831283,2528795.4499486,-719.81879718003,2614232.794481,37.728312831283,0,0
-113.24262146248,-68.183439970403,32.532743274327,2528795.4499486,-719.81879718003,2614232.794481,37.732743274327,0,0
-113.24262092528,-68.198614276152,32.537173717372,2528795.4499486,-719.81879718003,2614232.794481,37.737173717372,0,0
-113.24262038807,-68.213788581901,32.541604160416,2528795.4499486,-719.81879718003,2614232.794481,37.741604160416,0,0
-113.24261985087,-68.22896288765,32.54603460346,2528795.4499486,-719.81879718003,2614232.794481,37.74603460346,0,0
-113.24261931367,-68.244137193399,32.550465046505,2528795.4499486,-719.81879718003,2614232.794481,37.750465046505,0,0
-113.24261877646,-68.259311499148,32.554895489549,2528795.4499486,-719.81879718003,2614232.794481,37.754895489549,0,0
-113.24261823926,-68.274485804897,32.559325932593,2528795.4499486,-719.81879718003,2614232.794481,37.759325932593,0,0
-113.24261770206,-68.289660110646,32.563756375638,2528795.4499486,-719.81879718003,2614232.794481,37.763756375638,0,0
-113.24261716485,-68.304834416395,32.568186818682,2528795.4499486,-719.81879718003,2614232.794481,37.768186818682,0,0
-113.24261662765,-68.320008722144,32.572617261726,2528795.4499486,-719.81879718003,2614232.794481,37.772617261726,0,0
-113.24261609045,-68.335183027893,32.57704770477,2528795.4499486,-719.81879718003,2614232.794481,37.77704770477,0,0
-113.24261555324,-68.350357333642,32.581478147815,2528795.4499486,-719.81879718003,2614232.794481,37.781478147815,0,0
-113.24261501604,-68.365531639391,32.585908590859,2528795.4499486,-719.81879718003,2614232.794481,37.785908590859,0,0
-113.24261447884,-68.38070594514,32.590339033903,2528795.4499486,-719.81879718003,2614232.794481,37.790339033903,0,0
-113.24261394163,-68.395880250889,32.594769476948,2528795.4499486,-719.81879718003,2614232.794481,37.794769476948,0,0
-113.24261340443,-68.411054556638,32.599199919992,2528795.4499486,-719.81879718003,2614232.794481,37.799199919992,0,0
-113.24261286723,-68.426228862387,32.603630363036,2528795.4499486,-719.81879718003,2614232.794481,37.803630363036,0,0
-113.24261233002,-68.441403168136,32.608060806081,2528795.4499486,-719.81879718003,2614232.794481,37.808060806081,0,0
-113.24261179282,-68.456577473885,32.612491249125,2528795.4499486,-719.81879718003,2614232.794481,37.812491249125,0,0
-113.24261125562,-68.471751779634,32.616921692169,2528795.4499486,-719.81879718003,2614232.794481,37.816921692169,0,0
-113.24261071841,-68.486926085383,32.621352135214,2528795.4499486,-719.81879718003,2614232.794481,37.821352135214,0,0
-113.24261018121,-68.502100391132,32.625782578258,2528795.4499486,-719.81879718003,2614232.794481,37.825782578258,0,0
-113.24260964401,-68.517274696881,32.630213021302,2528795.4499486,-719.81879718003,2614232.794481,37.830213021302,0,0
-113.2426091068,-68.53244900263,32.634643464346,2528795.4499486,-719.81879718003,2614232.794481,37.834643464346,0,0
-113.2426085696,-68.547623308379,32.639073907391,2528795.4499486,-719.81879718003,2614232.794481,37.839073907391,0,0
-113.2426080324,-68.562797614128,32.643504350435,2528795.4499486,-719.81879718003,2614232.794481,37.843504350435,0,0
-113.24260749519,-68.577971919877,32.647934793479,2528795.4499486,-719.81879718003,2614232.794481,37.847934793479,0,0
-113.24260695799,-68.593146225626,32.652365236524,2528795.4499486,-719.81879718003,2614232.794481,37.852365236524,0,0
-113.24260642079,-68.608320531375,32.656795679568,2528795.4499486,-719.81879718003,2614232.794481,37.856795679568,0,0
-113.24260588358,-68.623494837124,32.661226122612,2528795.4499486,-719.81879718003,2614232.794481,37.861226122612,0,0
-113.24260534638,-68.638669142873,32.665656565657,2528795.4499486,-719.81879718003,2614232.794481,37.865656565657,0,0
-113.24260480918,-68.653843448622,32.670087008701,2528795.4499486,-719.81879718003,2614232.794481,37.870087008701,0,0
-113.24260427197,-68.669017754371,32.674517451745,2528795.4499486,-719.81879718003,2614232.794481,37.874517451745,0,0
-113.24260373477,-68.68419206012,32.678947894789,2528795.4499486,-719.81879718003,2614232.794481,37.878947894789,0,0
-113.24260319757,-68.699366365869,32.683378337834,2528795.4499486,-719.81879718003,2614232.794481,37.883378337834,0,0
-113.24260266036,-68.714540671618,32.687808780878,2528795.4499486,-719.81879718003,2614232.794481,37.887808780878,0,0
-113.24260212316,-68.729714977367,32.692239223922,2528795.4499486,-719.81879718003,2614232.794481,37.892239223922,0,0
-113.24260158596,-68.744889283116,32.696669666967,2528795.4499486,-719.81879718003,2614232.794481,37.896669666967,0,0
-113.24260104876,-68.760063588865,32.701100110011,2528795.4499486,-719.81879718003,2614232.794481,37.901100110011,0,0
-113.24260051155,-68.775237894614,32.705530553055,2528795.4499486,-719.81879718003,2614232.794481,37.905530553055,0,0
-113.24259997435,-68.790412200363,32.7099609961,2528795.4499486,-719.81879718003,2614232.794481,37.9099609961,0,0
-113.24259943715,-68.805586506112,32.714391439144,2528795.4499486,-719.81879718003,2614232.794481,37.914391439144,0,0
-113.24259889994,-68.820760811861,32.718821882188,2528795.4499486,-719.81879718003,2614232.794481,37.918821882188,0,0
-113.24259836274,-68.83593511761,32.723252325233,2528795.4499486,-719.81879718003,2614232.794481,37.923252325233,0,0
-113.24259782554,-68.851109423359,32.727682768277,2528795.4499486,-719.81879718003,2614232.794481,37.927682768277,0,0
-113.24259728833,-68.866283729108,32.732113211321,2528795.4499486,-719.81879718003,2614232.794481,37.932113211321,0,0
-113.24259675113,-68.881458034857,32.736543654365,2528795.4499486,-719.81879718003,2614232.794481,37.936543654365,0,0
-113.24259621393,-68.896632340606,32.74097409741,2528795.4499486,-719.81879718003,2614232.794481,37.94097409741,0,0
-113.24259567672,-68.911806646355,32.745404540454,2528795.4499486,-719.81879718003,2614232.794481,37.945404540454,0,0
-113.24259513952,-68.926980952104,32.749834983498,2528795.4499486,-719.81879718003,2614232.794481,37.949834983498,0,0
-113.24259460232,-68.942155257853,32.754265426543,2528795.4499486,-719.81879718003,2614232.794481,37.954265426543,0,0
-113.24259406511,-68.957329563602,32.758695869587,2528795.4499486,-719.81879718003,2614232.794481,37.958695869587,0,0
-113.24259352791,-68.972503869351,32.763126312631,2528795.4499486,-719.81879718003,2614232.794481,37.963126312631,0,0
-113.24259299071,-68.9876781751,32.767556755676,2528795.4499486,-719.81879718003,2614232.794481,37.967556755676,0,0
-113.2425924535,-69.002852480849,32.77198719872,2528795.4499486,-719.81879718003,2614232.794481,37.97198719872,0,0
-113.2425919163,-69.018026786598,32.776417641764,2528795.4499486,-719.81879718003,2614232.794481,37.976417641764,0,0
-113.2425913791,-69.033201092347,32.780848084808,2528795.4499486,-719.81879718003,2614232.794481,37.980848084808,0,0
-113.24259084189,-69.048375398096,32.785278527853,2528795.4499486,-719.81879718003,2614232.794481,37.985278527853,0,0
-113.24259030469,-69.063549703845,32.789708970897,2528795.4499486,-719.81879718003,2614232.794481,37.989708970897,0,0
-113.24258976749,-69.078724009594,32.794139413941,2528795.4499486,-719.81879718003,2614232.794481,37.994139413941,0,0
-113.24258923028,-69.093898315343,32.798569856986,2528795.4499486,-719.81879718003,2614232.794481,37.998569856986,0,0
-113.24258869308,-69.109072621092,32.80300030003,2528795.4499486,-719.81879718003,2614232.794481,38.00300030003,0,0
-113.24258815588,-69.124246926841,32.807430743074,2528795.4499486,-719.81879718003,2614232.794481,38.007430743074,0,0
-113.24258761867,-69.13942123259,32.811861186119,2528795.4499486,-719.81879718003,2614232.794481,38.011861186119,0,0
-113.24258708147,-69.154595538339,32.816291629163,2528795.4499486,-719.81879718003,2614232.794481,38.016291629163,0,0
-113.24258654427,-69.169769844088,32.820722072207,2528795.4499486,-719.81879718003,2614232.794481,38.020722072207,0,0
-113.24258600706,-69.184944149837,32.825152515252,2528795.4499486,-719.81879718003,2614232.794481,38.025152515252,0,0
-113.24258546986,-69.200118455586,32.829582958296,2528795.4499486,-719.81879718003,2614232.794481,38.029582958296,0,0
-113.24258493266,-69.215292761335,32.83401340134,2528795.4499486,-719.81879718003,2614232.794481,38.03401340134,0,0
-113.24258439545,-69.230467067084,32.838443844384,2528795.4499486,-719.81879718003,2614232.794481,38.038443844384,0,0
-113.24258385825,-69.245641372833,32.842874287429,2528795.4499486,-719.81879718003,2614232.794481,38.042874287429,0,0
-113.24258332105,-69.260815678582,32.847304730473,2528795.4499486,-719.81879718003,2614232.794481,38.047304730473,0,0
-113.24258278384,-69.275989984331,32.851735173517,2528795.4499486,-719.81879718003,2614232.794481,38.051735173517,0,0
-113.24258224664,-69.29116429008,32.856165616562,2528795.4499486,-719.81879718003,2614232.794481,38.056165616562,0,0
-113.24258170944,-69.306338595829,32.860596059606,2528795.4499486,-719.81879718003,2614232.794481,38.060596059606,0,0
-113.24258117223,-69.321512901578,32.86502650265,2528795.4499486,-719.81879718003,2614232.794481,38.06502650265,0,0
-113.24258063503,-69.336687207327,32.869456945695,2528795.4499486,-719.81879718003,2614232.794481,38.069456945695,0,0
-113.24258009783,-69.351861513076,32.873887388739,2528795.4499486,-719.81879718003,2614232.794481,38.073887388739,0,0
-113.24257956063,-69.367035818825,32.878317831783,2528795.4499486,-719.81879718003,2614232.794481,38.078317831783,0,0
-113.24257902342,-69.382210124574,32.882748274827,2528795.4499486,-719.81879718003,2614232.794481,38.082748274827,0,0
-113.24257848622,-69.397384430323,32.887178717872,2528795.4499486,-719.81879718003,2614232.794481,38.087178717872,0,0
-113.24257794902,-69.412558736072,32.891609160916,2528795.4499486,-719.81879718003,2614232.794481,38.091609160916,0,0
-113.24257741181,-69.427733041821,32.89603960396,2528795.4499486,-719.81879718003,2614232.794481,38.09603960396,0,0
-113.24257687461,-69.44290734757,32.900470047005,2528795.4499486,-719.81879718003,2614232.794481,38.100470047005,0,0
-113.24257633741,-69.458081653319,32.904900490049,2528795.4499486,-719.81879718003,2614232.794481,38.104900490049,0,0
-113.2425758002,-69.473255959068,32.909330933093,2528795.4499486,-719.81879718003,2614232.794481,38.109330933093,0,0
-113.242575263,-69.488430264817,32.913761376138,2528795.4499486,-719.81879718003,2614232.794481,38.113761376138,0,0
-113.2425747258,-69.503604570566,32.918191819182,2528795.4499486,-719.81879718003,2614232.794481,38.118191819182,0,0
-113.24257418859,-69.518778876315,32.922622262226,2528795.4499486,-719.81879718003,2614232.794481,38.122622262226,0,0
-113.24257365139,-69.533953182064,32.927052705271,2528795.4499486,-719.81879718003,2614232.794481,38.127052705271,0,0
-113.24257311419,-69.549127487813,32.931483148315,2528795.4499486,-719.81879718003,2614232.794481,38.131483148315,0,0
-113.24257257698,-69.564301793562,32.935913591359,2528795.4499486,-719.81879718003,2614232.794481,38.135913591359,0,0
-113.24257203978,-69.579476099311,32.940344034403,2528795.4499486,-719.81879718003,2614232.794481,38.140344034403,0,0
-113.24257150258,-69.59465040506,32.944774477448,2528795.4499486,-719.81879718003,2614232.794481,38.144774477448,0,0
-113.24257096537,-69.609824710809,32.949204920492,2528795.4499486,-719.81879718003,2614232.794481,38.149204920492,0,0
-113.24257042817,-69.624999016558,32.953635363536,2528795.4499486,-719.81879718003,2614232.794481,38.153635363536,0,0
-113.24256989097,-69.640173322307,32.958065806581,2528795.4499486,-719.81879718003,2614232.794481,38.158065806581,0,0
-113.24256935376,-69.655347628056,32.962496249625,2528795.4499486,-719.81879718003,2614232.794481,38.162496249625,0,0
-113.24256881656,-69.670521933805,32.966926692669,2528795.4499486,-719.81879718003,2614232.794481,38.166926692669,0,0
-113.24256827936,-69.685696239554,32.971357135714,2528795.4499486,-719.81879718003,2614232.794481,38.171357135714,0,0
-113.24256774215,-69.700870545303,32.975787578758,2528795.4499486,-719.81879718003,2614232.794481,38.175787578758,0,0
-113.24256720495,-69.716044851052,32.980218021802,2528795.4499486,-719.81879718003,2614232.794481,38.180218021802,0,0
-113.24256666775,-69.731219156801,32.984648464846,2528795.4499486,-719.81879718003,2614232.794481,38.184648464846,0,0
-113.24256613054,-69.74639346255,32.989078907891,2528795.4499486,-719.81879718003,2614232.794481,38.189078907891,0,0
-113.24256559334,-69.761567768299,32.993509350935,2528795.4499486,-719.81879718003,2614232.794481,38.193509350935,0,0
-113.24256505614,-69.776742074048,32.997939793979,2528795.4499486,-719.81879718003,2614232.794481,38.197939793979,0,0
-113.24256451893,-69.791916379797,33.002370237024,2528795.4499486,-719.81879718003,2614232.794481,38.202370237024,0,0
-113.24256398173,-69.807090685546,33.006800680068,2528795.4499486,-719.81879718003,2614232.794481,38.206800680068,0,0
-113.24256344453,-69.822264991296,33.011231123112,2528795.4499486,-719.81879718003,2614232.794481,38.211231123112,0,0
-113.24256290732,-69.837439297045,33.015661566157,2528795.4499486,-719.81879718003,2614232.794481,38.215661566157,0,0
-113.24256237012,-69.852613602794,33.020092009201,2528795.4499486,-719.81879718003,2614232.794481,38.220092009201,0,0
-113.24256183292,-69.867787908543,33.024522452245,2528795.4499486,-719.81879718003,2614232.794481,38.224522452245,0,0
-113.24256129571,-69.882962214292,33.02895289529,2528795.4499486,-719.81879718003,2614232.794481,38.22895289529,0,0
-113.24256075851,-69.898136520041,33.033383338334,2528795.4499486,-719.81879718003,2614232.794481,38.233383338334,0,0
-113.24256022131,-69.91331082579,33.037813781378,2528795.4499486,-719.81879718003,2614232.794481,38.237813781378,0,0
-113.2425596841,-69.928485131539,33.042244224422,2528795.4499486,-719.81879718003,2614232.794481,38.242244224422,0,0
-113.2425591469,-69.943659437288,33.046674667467,2528795.4499486,-719.81879718003,2614232.794481,38.246674667467,0,0
-113.2425586097,-69.958833743037,33.051105110511,2528795.4499486,-719.81879718003,2614232.794481,38.251105110511,0,0
-113.2425580725,-69.974008048786,33.055535553555,2528795.4499486,-719.81879718003,2614232.794481,38.255535553555,0,0
-113.24255753529,-69.989182354535,33.0599659966,2528795.4499486,-719.81879718003,2614232.794481,38.2599659966,0,0
-113.24255699809,-70.004356660284,33.064396439644,2528795.4499486,-719.81879718003,2614232.794481,38.264396439644,0,0
-113.24255646089,-70.019530966033,33.068826882688,2528795.4499486,-719.81879718003,2614232.794481,38.268826882688,0,0
-113.24255592368,-70.034705271782,33.073257325733,2528795.4499486,-719.81879718003,2614232.794481,38.273257325733,0,0
-113.24255538648,-70.049879577531,33.077687768777,2528795.4499486,-719.81879718003,2614232.794481,38.277687768777,0,0
-113.24255484928,-70.06505388328,33.082118211821,2528795.4499486,-719.81879718003,2614232.794481,38.282118211821,0,0
-113.24255431207,-70.080228189029,33.086548654865,2528795.4499486,-719.81879718003,2614232.794481,38.286548654865,0,0
-113.24255377487,-70.095402494778,33.09097909791,2528795.4499486,-719.81879718003,2614232.794481,38.29097909791,0,0
-113.24255323767,-70.110576800527,33.095409540954,2528795.4499486,-719.81879718003,2614232.794481,38.295409540954,0,0
-113.24255270046,-70.125751106276,33.099839983998,2528795.4499486,-719.81879718003,2614232.794481,38.299839983998,0,0
-113.24255216326,-70.140925412025,33.104270427043,2528795.4499486,-719.81879718003,2614232.794481,38.304270427043,0,0
-113.24255162606,-70.156099717774,33.108700870087,2528795.4499486,-719.81879718003,2614232.794481,38.308700870087,0,0
-113.24255108885,-70.171274023523,33.113131313131,2528795.4499486,-719.81879718003,2614232.794481,38.313131313131,0,0
-113.24255055165,-70.186448329272,33.117561756176,2528795.4499486,-719.81879718003,2614232.794481,38.317561756176,0,0
-113.24255001445,-70.201622635021,33.12199219922,2528795.4499486,-719.81879718003,2614232.794481,38.32199219922,0,0
-113.24254947724,-70.21679694077,33.126422642264,2528795.4499486,-719.81879718003,2614232.794481,38.326422642264,0,0
-113.24254894004,-70.231971246519,33.130853085309,2528795.4499486,-719.81879718003,2614232.794481,38.330853085309,0,0
-113.24254840284,-70.247145552268,33.135283528353,2528795.4499486,-719.81879718003,2614232.794481,38.335283528353,0,0
-113.24254786563,-70.262319858017,33.139713971397,2528795.4499486,-719.81879718003,2614232.794481,38.339713971397,0,0
-113.24254732843,-70.277494163766,33.144144414441,2528795.4499486,-719.81879718003,2614232.794481,38.344144414441,0,0
-113.24254679123,-70.292668469515,33.148574857486,2528795.4499486,-719.81879718003,2614232.794481,38.348574857486,0,0
-113.24254625402,-70.307842775264,33.15300530053,2528795.4499486,-719.81879718003,2614232.794481,38.35300530053,0,0
-113.24254571682,-70.323017081013,33.157435743574,2528795.4499486,-719.81879718003,2614232.794481,38.357435743574,0,0
-113.24254517962,-70.338191386762,33.161866186619,2528795.4499486,-719.81879718003,2614232.794481,38.361866186619,0,0
-113.24254464241,-70.353365692511,33.166296629663,2528795.4499486,-719.81879718003,2614232.794481,38.366296629663,0,0
-113.24254410521,-70.36853999826,33.170727072707,2528795.4499486,-719.81879718003,2614232.794481,38.370727072707,0,0
-113.24254356801,-70.383714304009,33.175157515752,2528795.4499486,-719.81879718003,2614232.794481,38.375157515752,0,0
-113.2425430308,-70.398888609758,33.179587958796,2528795.4499486,-719.81879718003,2614232.794481,38.379587958796,0,0
-113.2425424936,-70.414062915507,33.18401840184,2528795.4499486,-719.81879718003,2614232.794481,38.38401840184,0,0
-113.2425419564,-70.429237221256,33.188448844884,2528795.4499486,-719.81879718003,2614232.794481,38.388448844884,0,0
-113.24254141919,-70.444411527005,33.192879287929,2528795.4499486,-719.81879718003,2614232.794481,38.392879287929,0,0
-113.24254088199,-70.459585832754,33.197309730973,2528795.4499486,-719.81879718003,2614232.794481,38.397309730973,0,0
-113.24254034479,-70.474760138503,33.201740174017,2528795.4499486,-719.81879718003,2614232.794481,38.401740174017,0,0
-113.24253980758,-70.489934444252,33.206170617062,2528795.4499486,-719.81879718003,2614232.794481,38.406170617062,0,0
-113.24253927038,-70.505108750001,33.210601060106,2528795.4499486,-719.81879718003,2614232.794481,38.410601060106,0,0
-113.24253873318,-70.52028305575,33.21503150315,2528795.4499486,-719.81879718003,2614232.794481,38.41503150315,0,0
-113.24253819597,-70.535457361499,33.219461946195,2528795.4499486,-719.81879718003,2614232.794481,38.419461946195,0,0
-113.24253765877,-70.550631667248,33.223892389239,2528795.4499486,-719.81879718003,2614232.794481,38.423892389239,0,0
-113.24253712157,-70.565805972997,33.228322832283,2528795.4499486,-719.81879718003,2614232.794481,38.428322832283,0,0
-113.24253658437,-70.580980278746,33.232753275328,2528795.4499486,-719.81879718003,2614232.794481,38.432753275328,0,0
-113.24253604716,-70.596154584495,33.237183718372,2528795.4499486,-719.81879718003,2614232.794481,38.437183718372,0,0
-113.24253550996,-70.611328890244,33.241614161416,2528795.4499486,-719.81879718003,2614232.794481,38.441614161416,0,0
-113.24253497276,-70.626503195993,33.24604460446,2528795.4499486,-719.81879718003,2614232.794481,38.44604460446,0,0
-113.24253443555,-70.641677501742,33.250475047505,2528795.4499486,-719.81879718003,2614232.794481,38.450475047505,0,0
-113.24253389835,-70.656851807491,33.254905490549,2528795.4499486,-719.81879718003,2614232.794481,38.454905490549,0,0
-113.24253336115,-70.67202611324,33.259335933593,2528795.4499486,-719.81879718003,2614232.794481,38.459335933593,0,0
-113.24253282394,-70.687200418989,33.263766376638,2528795.4499486,-719.81879718003,2614232.794481,38.463766376638,0,0
-113.24253228674,-70.702374724738,33.268196819682,2528795.4499486,-719.81879718003,2614232.794481,38.468196819682,0,0
-113.24253174954,-70.717549030487,33.272627262726,2528795.4499486,-719.81879718003,2614232.794481,38.472627262726,0,0
-113.24253121233,-70.732723336236,33.277057705771,2528795.4499486,-719.81879718003,2614232.794481,38.477057705771,0,0
-113.24253067513,-70.747897641985,33.281488148815,2528795.4499486,-719.81879718003,2614232.794481,38.481488148815,0,0
-113.24253013793,-70.763071947734,33.285918591859,2528795.4499486,-719.81879718003,2614232.794481,38.485918591859,0,0
-113.24252960072,-70.778246253483,33.290349034903,2528795.4499486,-719.81879718003,2614232.794481,38.490349034903,0,0
-113.24252906352,-70.793420559232,33.294779477948,2528795.4499486,-719.81879718003,2614232.794481,38.494779477948,0,0
-113.24252852632,-70.808594864981,33.299209920992,2528795.4499486,-719.81879718003,2614232.794481,38.499209920992,0,0
-113.24252798911,-70.82376917073,33.303640364036,2528795.4499486,-719.81879718003,2614232.794481,38.503640364036,0,0
-113.24252745191,-70.838943476479,33.308070807081,2528795.4499486,-719.81879718003,2614232.794481,38.508070807081,0,0
-113.24252691471,-70.854117782228,33.312501250125,2528795.4499486,-719.81879718003,2614232.794481,38.512501250125,0,0
-113.2425263775,-70.869292087977,33.316931693169,2528795.4499486,-719.81879718003,2614232.794481,38.516931693169,0,0
-113.2425258403,-70.884466393726,33.321362136214,2528795.4499486,-719.81879718003,2614232.794481,38.521362136214,0,0
-113.2425253031,-70.899640699475,33.325792579258,2528795.4499486,-719.81879718003,2614232.794481,38.525792579258,0,0
-113.24252476589,-70.914815005224,33.330223022302,2528795.4499486,-719.81879718003,2614232.794481,38.530223022302,0,0
-113.24252422869,-70.929989310973,33.334653465347,2528795.4499486,-719.81879718003,2614232.794481,38.534653465347,0,0
-113.24252369149,-70.945163616722,33.339083908391,2528795.4499486,-719.81879718003,2614232.794481,38.539083908391,0,0
-113.24252315428,-70.960337922471,33.343514351435,2528795.4499486,-719.81879718003,2614232.794481,38.543514351435,0,0
-113.24252261708,-70.97551222822,33.347944794479,2528795.4499486,-719.81879718003,2614232.794481,38.547944794479,0,0
-113.24252207988,-70.990686533969,33.352375237524,2528795.4499486,-719.81879718003,2614232.794481,38.552375237524,0,0
-113.24252154267,-71.005860839718,33.356805680568,2528795.4499486,-719.81879718003,2614232.794481,38.556805680568,0,0
-113.24252100547,-71.021035145467,33.361236123612,2528795.4499486,-719.81879718003,2614232.794481,38.561236123612,0,0
-113.24252046827,-71.036209451216,33.365666566657,2528795.4499486,-719.81879718003,2614232.794481,38.565666566657,0,0
-113.24251993106,-71.051383756965,33.370097009701,2528795.4499486,-719.81879718003,2614232.794481,38.570097009701,0,0
-113.24251939386,-71.066558062714,33.374527452745,2528795.4499486,-719.81879718003,2614232.794481,38.574527452745,0,0
-113.24251885666,-71.081732368463,33.37895789579,2528795.4499486,-719.81879718003,2614232.794481,38.57895789579,0,0
-113.24251831945,-71.096906674212,33.383388338834,2528795.4499486,-719.81879718003,2614232.794481,38.583388338834,0,0
-113.24251778225,-71.112080979961,33.387818781878,2528795.4499486,-719.81879718003,2614232.794481,38.587818781878,0,0
-113.24251724505,-71.12725528571,33.392249224922,2528795.4499486,-719.81879718003,2614232.794481,38.592249224922,0,0
-113.24251670784,-71.142429591459,33.396679667967,2528795.4499486,-719.81879718003,2614232.794481,38.596679667967,0,0
-113.24251617064,-71.157603897208,33.401110111011,2528795.4499486,-719.81879718003,2614232.794481,38.601110111011,0,0
-113.24251563344,-71.172778202957,33.405540554055,2528795.4499486,-719.81879718003,2614232.794481,38.605540554055,0,0
-113.24251509624,-71.187952508706,33.4099709971,2528795.4499486,-719.81879718003,2614232.794481,38.6099709971,0,0
-113.24251455903,-71.203126814455,33.414401440144,2528795.4499486,-719.81879718003,2614232.794481,38.614401440144,0,0
-113.24251402183,-71.218301120204,33.418831883188,2528795.4499486,-719.81879718003,2614232.794481,38.618831883188,0,0
-113.24251348463,-71.233475425953,33.423262326233,2528795.4499486,-719.81879718003,2614232.794481,38.623262326233,0,0
-113.24251294742,-71.248649731702,33.427692769277,2528795.4499486,-719.81879718003,2614232.794481,38.627692769277,0,0
-113.24251241022,-71.263824037451,33.432123212321,2528795.4499486,-719.81879718003,2614232.794481,38.632123212321,0,0
-113.24251187302,-71.2789983432,33.436553655366,2528795.4499486,-719.81879718003,2614232.794481,38.636553655366,0,0
-113.24251133581,-71.294172648949,33.44098409841,2528795.4499486,-719.81879718003,2614232.794481,38.64098409841,0,0
-113.24251079861,-71.309346954698,33.445414541454,2528795.4499486,-719.81879718003,2614232.794481,38.645414541454,0,0
-113.24251026141,-71.324521260447,33.449844984498,2528795.4499486,-719.81879718003,2614232.794481,38.649844984498,0,0
-113.2425097242,-71.339695566196,33.454275427543,2528795.4499486,-719.81879718003,2614232.794481,38.654275427543,0,0
-113.242509187,-71.354869871945,33.458705870587,2528795.4499486,-719.81879718003,2614232.794481,38.658705870587,0,0
-113.2425086498,-71.370044177694,33.463136313631,2528795.4499486,-719.81879718003,2614232.794481,38.663136313631,0,0
-113.24250811259,-71.385218483443,33.467566756676,2528795.4499486,-719.81879718003,2614232.794481,38.667566756676,0,0
-113.24250757539,-71.400392789192,33.47199719972,2528795.4499486,-719.81879718003,2614232.794481,38.67199719972,0,0
-113.24250703819,-71.415567094941,33.476427642764,2528795.4499486,-719.81879718003,2614232.794481,38.676427642764,0,0
-113.24250650098,-71.43074140069,33.480858085809,2528795.4499486,-719.81879718003,2614232.794481,38.680858085809,0,0
-113.24250596378,-71.445915706439,33.485288528853,2528795.4499486,-719.81879718003,2614232.794481,38.685288528853,0,0
-113.24250542658,-71.461090012188,33.489718971897,2528795.4499486,-719.81879718003,2614232.794481,38.689718971897,0,0
-113.24250488937,-71.476264317937,33.494149414941,2528795.4499486,-719.81879718003,2614232.794481,38.694149414941,0,0
-113.24250435217,-71.491438623686,33.498579857986,2528795.4499486,-719.81879718003,2614232.794481,38.698579857986,0,0
-113.24250381497,-71.506612929435,33.50301030103,2528795.4499486,-719.81879718003,2614232.794481,38.70301030103,0,0
-113.24250327776,-71.521787235184,33.507440744074,2528795.4499486,-719.81879718003,2614232.794481,38.707440744074,0,0
-113.24250274056,-71.536961540933,33.511871187119,2528795.4499486,-719.81879718003,2614232.794481,38.711871187119,0,0
-113.24250220336,-71.552135846682,33.516301630163,2528795.4499486,-719.81879718003,2614232.794481,38.716301630163,0,0
-113.24250166615,-71.567310152432,33.520732073207,2528795.4499486,-719.81879718003,2614232.794481,38.720732073207,0,0
-113.24250112895,-71.58248445818,33.525162516252,2528795.4499486,-719.81879718003,2614232.794481,38.725162516252,0,0
-113.24250059175,-71.59765876393,33.529592959296,2528795.4499486,-719.81879718003,2614232.794481,38.729592959296,0,0
-113.24250005454,-71.612833069679,33.53402340234,2528795.4499486,-719.81879718003,2614232.794481,38.73402340234,0,0
-113.24249951734,-71.628007375428,33.538453845385,2528795.4499486,-719.81879718003,2614232.794481,38.738453845385,0,0
-113.24249898014,-71.643181681177,33.542884288429,2528795.4499486,-719.81879718003,2614232.794481,38.742884288429,0,0
-113.24249844293,-71.658355986926,33.547314731473,2528795.4499486,-719.81879718003,2614232.794481,38.747314731473,0,0
-113.24249790573,-71.673530292675,33.551745174517,2528795.4499486,-719.81879718003,2614232.794481,38.751745174517,0,0
-113.24249736853,-71.688704598424,33.556175617562,2528795.4499486,-719.81879718003,2614232.794481,38.756175617562,0,0
-113.24249683132,-71.703878904173,33.560606060606,2528795.4499486,-719.81879718003,2614232.794481,38.760606060606,0,0
-113.24249629412,-71.719053209922,33.56503650365,2528795.4499486,-719.81879718003,2614232.794481,38.76503650365,0,0
-113.24249575692,-71.734227515671,33.569466946695,2528795.4499486,-719.81879718003,2614232.794481,38.769466946695,0,0
-113.24249521971,-71.74940182142,33.573897389739,2528795.4499486,-719.81879718003,2614232.794481,38.773897389739,0,0
-113.24249468251,-71.764576127169,33.578327832783,2528795.4499486,-719.81879718003,2614232.794481,38.778327832783,0,0
-113.24249414531,-71.779750432918,33.582758275828,2528795.4499486,-719.81879718003,2614232.794481,38.782758275828,0,0
-113.24249360811,-71.794924738667,33.587188718872,2528795.4499486,-719.81879718003,2614232.794481,38.787188718872,0,0
-113.2424930709,-71.810099044416,33.591619161916,2528795.4499486,-719.81879718003,2614232.794481,38.791619161916,0,0
-113.2424925337,-71.825273350165,33.59604960496,2528795.4499486,-719.81879718003,2614232.794481,38.79604960496,0,0
-113.2424919965,-71.840447655914,33.600480048005,2528795.4499486,-719.81879718003,2614232.794481,38.800480048005,0,0
-113.24249145929,-71.855621961663,33.604910491049,2528795.4499486,-719.81879718003,2614232.794481,38.804910491049,0,0
-113.24249092209,-71.870796267412,33.609340934093,2528795.4499486,-719.81879718003,2614232.794481,38.809340934093,0,0
-113.24249038489,-71.885970573161,33.613771377138,2528795.4499486,-719.81879718003,2614232.794481,38.813771377138,0,0
-113.24248984768,-71.90114487891,33.618201820182,2528795.4499486,-719.81879718003,2614232.794481,38.818201820182,0,0
-113.24248931048,-71.916319184659,33.622632263226,2528795.4499486,-719.81879718003,2614232.794481,38.822632263226,0,0
-113.24248877328,-71.931493490408,33.627062706271,2528795.4499486,-719.81879718003,2614232.794481,38.827062706271,0,0
-113.24248823607,-71.946667796157,33.631493149315,2528795.4499486,-719.81879718003,2614232.794481,38.831493149315,0,0
-113.24248769887,-71.961842101906,33.635923592359,2528795.4499486,-719.81879718003,2614232.794481,38.835923592359,0,0
-113.24248716167,-71.977016407655,33.640354035404,2528795.4499486,-719.81879718003,2614232.794481,38.840354035404,0,0
-113.24248662446,-71.992190713404,33.644784478448,2528795.4499486,-719.81879718003,2614232.794481,38.844784478448,0,0
-113.24248608726,-72.007365019153,33.649214921492,2528795.4499486,-719.81879718003,2614232.794481,38.849214921492,0,0
-113.24248555006,-72.022539324902,33.653645364536,2528795.4499486,-719.81879718003,2614232.794481,38.853645364536,0,0
-113.24248501285,-72.037713630651,33.658075807581,2528795.4499486,-719.81879718003,2614232.794481,38.858075807581,0,0
-113.24248447565,-72.0528879364,33.662506250625,2528795.4499486,-719.81879718003,2614232.794481,38.862506250625,0,0
-113.24248393845,-72.068062242149,33.666936693669,2528795.4499486,-719.81879718003,2614232.794481,38.866936693669,0,0
-113.24248340119,-72.083236547977,33.671367136714,2530720.3947038,-1431.2945960942,2612562.3942647,38.871367136714,0,0
-113.24248286359,-72.098410854281,33.675797579758,2530720.3947038,-1431.2945960942,2612562.3942647,38.875797579758,0,0
-113.242482326,-72.113585160586,33.680228022802,2530720.3947038,-1431.2945960942,2612562.3942647,38.880228022802,0,0
-113.2424817884,-72.128759466891,33.684658465847,2530720.3947038,-1431.2945960942,2612562.3942647,38.884658465847,0,0
-113.24248125081,-72.143933773196,33.689088908891,2530720.3947038,-1431.2945960942,2612562.3942647,38.889088908891,0,0
-113.24248071321,-72.1591080795,33.693519351935,2530720.3947038,-1431.2945960942,2612562.3942647,38.893519351935,0,0
-113.24248017562,-72.174282385805,33.697949794979,2530720.3947038,-1431.2945960942,2612562.3942647,38.897949794979,0,0
-113.24247963802,-72.18945669211,33.702380238024,2530720.3947038,-1431.2945960942,2612562.3942647,38.902380238024,0,0
-113.24247910043,-72.204630998415,33.706810681068,2530720.3947038,-1431.2945960942,2612562.3942647,38.906810681068,0,0
-113.24247856284,-72.219805304719,33.711241124112,2530720.3947038,-1431.2945960942,2612562.3942647,38.911241124112,0,0
-113.24247802524,-72.234979611024,33.715671567157,2530720.3947038,-1431.2945960942,2612562.3942647,38.915671567157,0,0
-113.24247748765,-72.250153917329,33.720102010201,2530720.3947038,-1431.2945960942,2612562.3942647,38.920102010201,0,0
-113.24247695005,-72.265328223634,33.724532453245,2530720.3947038,-1431.2945960942,2612562.3942647,38.924532453245,0,0
-113.24247641246,-72.280502529939,33.72896289629,2530720.3947038,-1431.2945960942,2612562.3942647,38.92896289629,0,0
-113.24247587486,-72.295676836243,33.733393339334,2530720.3947038,-1431.2945960942,2612562.3942647,38.933393339334,0,0
-113.24247533727,-72.310851142548,33.737823782378,2530720.3947038,-1431.2945960942,2612562.3942647,38.937823782378,0,0
-113.24247479967,-72.326025448853,33.742254225423,2530720.3947038,-1431.2945960942,2612562.3942647,38.942254225423,0,0
-113.24247426208,-72.341199755158,33.746684668467,2530720.3947038,-1431.2945960942,2612562.3942647,38.946684668467,0,0
-113.24247372448,-72.356374061462,33.751115111511,2530720.3947038,-1431.2945960942,2612562.3942647,38.951115111511,0,0
-113.24247318689,-72.371548367767,33.755545554555,2530720.3947038,-1431.2945960942,2612562.3942647,38.955545554555,0,0
-113.24247264929,-72.386722674072,33.7599759976,2530720.3947038,-1431.2945960942,2612562.3942647,38.9599759976,0,0
-113.2424721117,-72.401896980377,33.764406440644,2530720.3947038,-1431.2945960942,2612562.3942647,38.964406440644,0,0
-113.2424715741,-72.417071286681,33.768836883688,2530720.3947038,-1431.2945960942,2612562.3942647,38.968836883688,0,0
-113.24247103651,-72.432245592986,33.773267326733,2530720.3947038,-1431.2945960942,2612562.3942647,38.973267326733,0,0
-113.24247049891,-72.447419899291,33.777697769777,2530720.3947038,-1431.2945960942,2612562.3942647,38.977697769777,0,0
-113.24246996132,-72.462594205596,33.782128212821,2530720.3947038,-1431.2945960942,2612562.3942647,38.982128212821,0,0
-113.24246942372,-72.477768511901,33.786558655866,2530720.3947038,-1431.2945960942,2612562.3942647,38.986558655866,0,0
-113.24246888613,-72.492942818205,33.79098909891,2530720.3947038,-1431.2945960942,2612562.3942647,38.99098909891,0,0
-113.24246834854,-72.50811712451,33.795419541954,2530720.3947038,-1431.2945960942,2612562.3942647,38.995419541954,0,0
-113.24246781094,-72.523291430815,33.799849984998,2530720.3947038,-1431.2945960942,2612562.3942647,38.999849984998,0,0
-113.24246727335,-72.53846573712,33.804280428043,2530720.3947038,-1431.2945960942,2612562.3942647,39.004280428043,0,0
-113.24246673575,-72.553640043424,33.808710871087,2530720.3947038,-1431.2945960942,2612562.3942647,39.008710871087,0,0
-113.24246619816,-72.568814349729,33.813141314131,2530720.3947038,-1431.2945960942,2612562.3942647,39.013141314131,0,0
-113.24246566056,-72.583988656034,33.817571757176,2530720.3947038,-1431.2945960942,2612562.3942647,39.017571757176,0,0
-113.24246512297,-72.599162962339,33.82200220022,2530720.3947038,-1431.2945960942,2612562.3942647,39.02200220022,0,0
-113.24246458537,-72.614337268644,33.826432643264,2530720.3947038,-1431.2945960942,2612562.3942647,39.026432643264,0,0
-113.24246404778,-72.629511574948,33.830863086309,2530720.3947038,-1431.2945960942,2612562.3942647,39.030863086309,0,0
-113.24246351018,-72.644685881253,33.835293529353,2530720.3947038,-1431.2945960942,2612562.3942647,39.035293529353,0,0
-113.24246297259,-72.659860187558,33.839723972397,2530720.3947038,-1431.2945960942,2612562.3942647,39.039723972397,0,0
-113.24246243499,-72.675034493863,33.844154415442,2530720.3947038,-1431.2945960942,2612562.3942647,39.044154415442,0,0
-113.2424618974,-72.690208800167,33.848584858486,2530720.3947038,-1431.2945960942,2612562.3942647,39.048584858486,0,0
-113.2424613598,-72.705383106472,33.85301530153,2530720.3947038,-1431.2945960942,2612562.3942647,39.05301530153,0,0
-113.24246082221,-72.720557412777,33.857445744574,2530720.3947038,-1431.2945960942,2612562.3942647,39.057445744574,0,0
-113.24246028461,-72.735731719082,33.861876187619,2530720.3947038,-1431.2945960942,2612562.3942647,39.061876187619,0,0
-113.24245974702,-72.750906025386,33.866306630663,2530720.3947038,-1431.2945960942,2612562.3942647,39.066306630663,0,0
-113.24245920942,-72.766080331691,33.870737073707,2530720.3947038,-1431.2945960942,2612562.3942647,39.070737073707,0,0
-113.24245867183,-72.781254637996,33.875167516752,2530720.3947038,-1431.2945960942,2612562.3942647,39.075167516752,0,0
-113.24245813423,-72.796428944301,33.879597959796,2530720.3947038,-1431.2945960942,2612562.3942647,39.079597959796,0,0
-113.24245759664,-72.811603250606,33.88402840284,2530720.3947038,-1431.2945960942,2612562.3942647,39.08402840284,0,0
-113.24245705905,-72.82677755691,33.888458845885,2530720.3947038,-1431.2945960942,2612562.3942647,39.088458845885,0,0
-113.24245652145,-72.841951863215,33.892889288929,2530720.3947038,-1431.2945960942,2612562.3942647,39.092889288929,0,0
-113.24245598386,-72.85712616952,33.897319731973,2530720.3947038,-1431.2945960942,2612562.3942647,39.097319731973,0,0
-113.24245544626,-72.872300475825,33.901750175017,2530720.3947038,-1431.2945960942,2612562.3942647,39.101750175018,0,0
-113.24245490867,-72.887474782129,33.906180618062,2530720.3947038,-1431.2945960942,2612562.3942647,39.106180618062,0,0
-113.24245437107,-72.902649088434,33.910611061106,2530720.3947038,-1431.2945960942,2612562.3942647,39.110611061106,0,0
-113.24245383348,-72.917823394739,33.91504150415,2530720.3947038,-1431.2945960942,2612562.3942647,39.11504150415,0,0
-113.24245329588,-72.932997701044,33.919471947195,2530720.3947038,-1431.2945960942,2612562.3942647,39.119471947195,0,0
-113.24245275829,-72.948172007348,33.923902390239,2530720.3947038,-1431.2945960942,2612562.3942647,39.123902390239,0,0
-113.24245222069,-72.963346313653,33.928332833283,2530720.3947038,-1431.2945960942,2612562.3942647,39.128332833283,0,0
-113.2424516831,-72.978520619958,33.932763276328,2530720.3947038,-1431.2945960942,2612562.3942647,39.132763276328,0,0
-113.2424511455,-72.993694926263,33.937193719372,2530720.3947038,-1431.2945960942,2612562.3942647,39.137193719372,0,0
-113.24245060791,-73.008869232568,33.941624162416,2530720.3947038,-1431.2945960942,2612562.3942647,39.141624162416,0,0
-113.24245007031,-73.024043538872,33.946054605461,2530720.3947038,-1431.2945960942,2612562.3942647,39.146054605461,0,0
-113.24244953272,-73.039217845177,33.950485048505,2530720.3947038,-1431.2945960942,2612562.3942647,39.150485048505,0,0
-113.24244899512,-73.054392151482,33.954915491549,2530720.3947038,-1431.2945960942,2612562.3942647,39.154915491549,0,0
-113.24244845753,-73.069566457787,33.959345934593,2530720.3947038,-1431.2945960942,2612562.3942647,39.159345934593,0,0
-113.24244791993,-73.084740764091,33.963776377638,2530720.3947038,-1431.2945960942,2612562.3942647,39.163776377638,0,0
-113.24244738234,-73.099915070396,33.968206820682,2530720.3947038,-1431.2945960942,2612562.3942647,39.168206820682,0,0
-113.24244684475,-73.115089376701,33.972637263726,2530720.3947038,-1431.2945960942,2612562.3942647,39.172637263726,0,0
-113.24244630715,-73.130263683006,33.977067706771,2530720.3947038,-1431.2945960942,2612562.3942647,39.177067706771,0,0
-113.24244576956,-73.14543798931,33.981498149815,2530720.3947038,-1431.2945960942,2612562.3942647,39.181498149815,0,0
-113.24244523196,-73.160612295615,33.985928592859,2530720.3947038,-1431.2945960942,2612562.3942647,39.185928592859,0,0
-113.24244469437,-73.17578660192,33.990359035904,2530720.3947038,-1431.2945960942,2612562.3942647,39.190359035904,0,0
-113.24244415677,-73.190960908225,33.994789478948,2530720.3947038,-1431.2945960942,2612562.3942647,39.194789478948,0,0
-113.24244361918,-73.20613521453,33.999219921992,2530720.3947038,-1431.2945960942,2612562.3942647,39.199219921992,0,0
-113.24244308158,-73.221309520834,34.003650365036,2530720.3947038,-1431.2945960942,2612562.3942647,39.203650365037,0,0
-113.24244254399,-73.236483827139,34.008080808081,2530720.3947038,-1431.2945960942,2612562.3942647,39.208080808081,0,0
-113.24244200639,-73.251658133444,34.012511251125,2530720.3947038,-1431.2945960942,2612562.3942647,39.212511251125,0,0
-113.2424414688,-73.266832439749,34.016941694169,2530720.3947038,-1431.2945960942,2612562.3942647,39.216941694169,0,0
-113.2424409312,-73.282006746053,34.021372137214,2530720.3947038,-1431.2945960942,2612562.3942647,39.221372137214,0,0
-113.24244039361,-73.297181052358,34.025802580258,2530720.3947038,-1431.2945960942,2612562.3942647,39.225802580258,0,0
-113.24243985601,-73.312355358663,34.030233023302,2530720.3947038,-1431.2945960942,2612562.3942647,39.230233023302,0,0
-113.24243931842,-73.327529664968,34.034663466347,2530720.3947038,-1431.2945960942,2612562.3942647,39.234663466347,0,0
-113.24243878082,-73.342703971273,34.039093909391,2530720.3947038,-1431.2945960942,2612562.3942647,39.239093909391,0,0
-113.24243824323,-73.357878277577,34.043524352435,2530720.3947038,-1431.2945960942,2612562.3942647,39.243524352435,0,0
-113.24243770563,-73.373052583882,34.04795479548,2530720.3947038,-1431.2945960942,2612562.3942647,39.24795479548,0,0
-113.24243716804,-73.388226890187,34.052385238524,2530720.3947038,-1431.2945960942,2612562.3942647,39.252385238524,0,0
-113.24243663045,-73.403401196492,34.056815681568,2530720.3947038,-1431.2945960942,2612562.3942647,39.256815681568,0,0
-113.24243609285,-73.418575502796,34.061246124612,2530720.3947038,-1431.2945960942,2612562.3942647,39.261246124612,0,0
-113.24243555526,-73.433749809101,34.065676567657,2530720.3947038,-1431.2945960942,2612562.3942647,39.265676567657,0,0
-113.24243501766,-73.448924115406,34.070107010701,2530720.3947038,-1431.2945960942,2612562.3942647,39.270107010701,0,0
-113.24243448007,-73.464098421711,34.074537453745,2530720.3947038,-1431.2945960942,2612562.3942647,39.274537453745,0,0
-113.24243394247,-73.479272728015,34.07896789679,2530720.3947038,-1431.2945960942,2612562.3942647,39.27896789679,0,0
-113.24243340488,-73.49444703432,34.083398339834,2530720.3947038,-1431.2945960942,2612562.3942647,39.283398339834,0,0
-113.24243286728,-73.509621340625,34.087828782878,2530720.3947038,-1431.2945960942,2612562.3942647,39.287828782878,0,0
-113.24243232969,-73.52479564693,34.092259225923,2530720.3947038,-1431.2945960942,2612562.3942647,39.292259225923,0,0
-113.24243179209,-73.539969953235,34.096689668967,2530720.3947038,-1431.2945960942,2612562.3942647,39.296689668967,0,0
-113.2424312545,-73.555144259539,34.101120112011,2530720.3947038,-1431.2945960942,2612562.3942647,39.301120112011,0,0
-113.2424307169,-73.570318565844,34.105550555056,2530720.3947038,-1431.2945960942,2612562.3942647,39.305550555056,0,0
-113.24243017931,-73.585492872149,34.1099809981,2530720.3947038,-1431.2945960942,2612562.3942647,39.3099809981,0,0
-113.24242964171,-73.600667178454,34.114411441144,2530720.3947038,-1431.2945960942,2612562.3942647,39.314411441144,0,0
-113.24242910412,-73.615841484758,34.118841884188,2530720.3947038,-1431.2945960942,2612562.3942647,39.318841884188,0,0
-113.24242856652,-73.631015791063,34.123272327233,2530720.3947038,-1431.2945960942,2612562.3942647,39.323272327233,0,0
-113.24242802893,-73.646190097368,34.127702770277,2530720.3947038,-1431.2945960942,2612562.3942647,39.327702770277,0,0
-113.24242749133,-73.661364403673,34.132133213321,2530720.3947038,-1431.2945960942,2612562.3942647,39.332133213321,0,0
-113.24242695374,-73.676538709977,34.136563656366,2530720.3947038,-1431.2945960942,2612562.3942647,39.336563656366,0,0
-113.24242641615,-73.691713016282,34.14099409941,2530720.3947038,-1431.2945960942,2612562.3942647,39.34099409941,0,0
-113.24242587855,-73.706887322587,34.145424542454,2530720.3947038,-1431.2945960942,2612562.3942647,39.345424542454,0,0
-113.24242534096,-73.722061628892,34.149854985499,2530720.3947038,-1431.2945960942,2612562.3942647,39.349854985499,0,0
-113.24242480336,-73.737235935197,34.154285428543,2530720.3947038,-1431.2945960942,2612562.3942647,39.354285428543,0,0
-113.24242426577,-73.752410241501,34.158715871587,2530720.3947038,-1431.2945960942,2612562.3942647,39.358715871587,0,0
-113.24242372817,-73.767584547806,34.163146314631,2530720.3947038,-1431.2945960942,2612562.3942647,39.363146314631,0,0
-113.24242319058,-73.782758854111,34.167576757676,2530720.3947038,-1431.2945960942,2612562.3942647,39.367576757676,0,0
-113.24242265298,-73.797933160416,34.17200720072,2530720.3947038,-1431.2945960942,2612562.3942647,39.37200720072,0,0
-113.24242211539,-73.81310746672,34.176437643764,2530720.3947038,-1431.2945960942,2612562.3942647,39.376437643764,0,0
-113.24242157779,-73.828281773025,34.180868086809,2530720.3947038,-1431.2945960942,2612562.3942647,39.380868086809,0,0
-113.2424210402,-73.84345607933,34.185298529853,2530720.3947038,-1431.2945960942,2612562.3942647,39.385298529853,0,0
-113.2424205026,-73.858630385635,34.189728972897,2530720.3947038,-1431.2945960942,2612562.3942647,39.389728972897,0,0
-113.24241996501,-73.873804691939,34.194159415942,2530720.3947038,-1431.2945960942,2612562.3942647,39.394159415942,0,0
-113.24241942741,-73.888978998244,34.198589858986,2530720.3947038,-1431.2945960942,2612562.3942647,39.398589858986,0,0
-113.24241888982,-73.904153304549,34.20302030203,2530720.3947038,-1431.2945960942,2612562.3942647,39.40302030203,0,0
-113.24241835222,-73.919327610854,34.207450745075,2530720.3947038,-1431.2945960942,2612562.3942647,39.407450745075,0,0
-113.24241781463,-73.934501917159,34.211881188119,2530720.3947038,-1431.2945960942,2612562.3942647,39.411881188119,0,0
-113.24241727703,-73.949676223463,34.216311631163,2530720.3947038,-1431.2945960942,2612562.3942647,39.416311631163,0,0
-113.24241673944,-73.964850529768,34.220742074207,2530720.3947038,-1431.2945960942,2612562.3942647,39.420742074207,0,0
-113.24241620184,-73.980024836073,34.225172517252,2530720.3947038,-1431.2945960942,2612562.3942647,39.425172517252,0,0
-113.24241566425,-73.995199142378,34.229602960296,2530720.3947038,-1431.2945960942,2612562.3942647,39.429602960296,0,0
-113.24241512666,-74.010373448682,34.23403340334,2530720.3947038,-1431.2945960942,2612562.3942647,39.43403340334,0,0
-113.24241458906,-74.025547754987,34.238463846385,2530720.3947038,-1431.2945960942,2612562.3942647,39.438463846385,0,0
-113.24241405147,-74.040722061292,34.242894289429,2530720.3947038,-1431.2945960942,2612562.3942647,39.442894289429,0,0
-113.24241351387,-74.055896367597,34.247324732473,2530720.3947038,-1431.2945960942,2612562.3942647,39.447324732473,0,0
-113.24241297628,-74.071070673902,34.251755175518,2530720.3947038,-1431.2945960942,2612562.3942647,39.451755175518,0,0
-113.24241243853,-74.086244980064,34.256185618562,2534082.9569685,-858.68543310889,2612055.2262657,39.456185618562,0,0
-113.24241190037,-74.101419285852,34.260616061606,2534082.9569685,-858.68543310889,2612055.2262657,39.460616061606,0,0
-113.24241136222,-74.116593591641,34.26504650465,2534082.9569685,-858.68543310889,2612055.2262657,39.46504650465,0,0
-113.24241082407,-74.131767897429,34.269476947695,2534082.9569685,-858.68543310889,2612055.2262657,39.469476947695,0,0
-113.24241028591,-74.146942203218,34.273907390739,2534082.9569685,-858.68543310889,2612055.2262657,39.473907390739,0,0
-113.24240974776,-74.162116509007,34.278337833783,2534082.9569685,-858.68543310889,2612055.2262657,39.478337833783,0,0
-113.2424092096,-74.177290814795,34.282768276828,2534082.9569685,-858.68543310889,2612055.2262657,39.482768276828,0,0
-113.24240867145,-74.192465120584,34.287198719872,2534082.9569685,-858.68543310889,2612055.2262657,39.487198719872,0,0
-113.2424081333,-74.207639426372,34.291629162916,2534082.9569685,-858.68543310889,2612055.2262657,39.491629162916,0,0
-113.24240759514,-74.222813732161,34.296059605961,2534082.9569685,-858.68543310889,2612055.2262657,39.496059605961,0,0
-113.24240705699,-74.237988037949,34.300490049005,2534082.9569685,-858.68543310889,2612055.2262657,39.500490049005,0,0
-113.24240651883,-74.253162343738,34.304920492049,2534082.9569685,-858.68543310889,2612055.2262657,39.504920492049,0,0
-113.24240598068,-74.268336649526,34.309350935094,2534082.9569685,-858.68543310889,2612055.2262657,39.509350935094,0,0
-113.24240544253,-74.283510955315,34.313781378138,2534082.9569685,-858.68543310889,2612055.2262657,39.513781378138,0,0
-113.24240490437,-74.298685261104,34.318211821182,2534082.9569685,-858.68543310889,2612055.2262657,39.518211821182,0,0
-113.24240436622,-74.313859566892,34.322642264226,2534082.9569685,-858.68543310889,2612055.2262657,39.522642264226,0,0
-113.24240382806,-74.329033872681,34.327072707271,2534082.9569685,-858.68543310889,2612055.2262657,39.527072707271,0,0
-113.24240328991,-74.344208178469,34.331503150315,2534082.9569685,-858.68543310889,2612055.2262657,39.531503150315,0,0
-113.24240275176,-74.359382484258,34.335933593359,2534082.9569685,-858.68543310889,2612055.2262657,39.535933593359,0,0
-113.2424022136,-74.374556790046,34.340364036404,2534082.9569685,-858.68543310889,2612055.2262657,39.540364036404,0,0
-113.24240167545,-74.389731095835,34.344794479448,2534082.9569685,-858.68543310889,2612055.2262657,39.544794479448,0,0
-113.24240113729,-74.404905401624,34.349224922492,2534082.9569685,-858.68543310889,2612055.2262657,39.549224922492,0,0
-113.24240059914,-74.420079707412,34.353655365537,2534082.9569685,-858.68543310889,2612055.2262657,39.553655365537,0,0
-113.24240006099,-74.435254013201,34.358085808581,2534082.9569685,-858.68543310889,2612055.2262657,39.558085808581,0,0
-113.24239952283,-74.450428318989,34.362516251625,2534082.9569685,-858.68543310889,2612055.2262657,39.562516251625,0,0
-113.24239898468,-74.465602624778,34.366946694669,2534082.9569685,-858.68543310889,2612055.2262657,39.566946694669,0,0
-113.24239844652,-74.480776930566,34.371377137714,2534082.9569685,-858.68543310889,2612055.2262657,39.571377137714,0,0
-113.24239790837,-74.495951236355,34.375807580758,2534082.9569685,-858.68543310889,2612055.2262657,39.575807580758,0,0
-113.24239737022,-74.511125542143,34.380238023802,2534082.9569685,-858.68543310889,2612055.2262657,39.580238023802,0,0
-113.24239683206,-74.526299847932,34.384668466847,2534082.9569685,-858.68543310889,2612055.2262657,39.584668466847,0,0
-113.24239629391,-74.541474153721,34.389098909891,2534082.9569685,-858.68543310889,2612055.2262657,39.589098909891,0,0
-113.24239575575,-74.556648459509,34.393529352935,2534082.9569685,-858.68543310889,2612055.2262657,39.593529352935,0,0
-113.2423952176,-74.571822765298,34.39795979598,2534082.9569685,-858.68543310889,2612055.2262657,39.59795979598,0,0
-113.24239467945,-74.586997071086,34.402390239024,2534082.9569685,-858.68543310889,2612055.2262657,39.602390239024,0,0
-113.24239414129,-74.602171376875,34.406820682068,2534082.9569685,-858.68543310889,2612055.2262657,39.606820682068,0,0
-113.24239360314,-74.617345682663,34.411251125113,2534082.9569685,-858.68543310889,2612055.2262657,39.611251125113,0,0
-113.24239306498,-74.632519988452,34.415681568157,2534082.9569685,-858.68543310889,2612055.2262657,39.615681568157,0,0
-113.24239252683,-74.647694294241,34.420112011201,2534082.9569685,-858.68543310889,2612055.2262657,39.620112011201,0,0
-113.24239198868,-74.662868600029,34.424542454245,2534082.9569685,-858.68543310889,2612055.2262657,39.624542454245,0,0
-113.24239145052,-74.678042905818,34.42897289729,2534082.9569685,-858.68543310889,2612055.2262657,39.62897289729,0,0
-113.24239091237,-74.693217211606,34.433403340334,2534082.9569685,-858.68543310889,2612055.2262657,39.633403340334,0,0
-113.24239037422,-74.708391517395,34.437833783378,2534082.9569685,-858.68543310889,2612055.2262657,39.637833783378,0,0
-113.24238983606,-74.723565823183,34.442264226423,2534082.9569685,-858.68543310889,2612055.2262657,39.642264226423,0,0
-113.24238929791,-74.738740128972,34.446694669467,2534082.9569685,-858.68543310889,2612055.2262657,39.646694669467,0,0
-113.24238875975,-74.753914434761,34.451125112511,2534082.9569685,-858.68543310889,2612055.2262657,39.651125112511,0,0
-113.2423882216,-74.769088740549,34.455555555556,2534082.9569685,-858.68543310889,2612055.2262657,39.655555555556,0,0
-113.24238768345,-74.784263046338,34.4599859986,2534082.9569685,-858.68543310889,2612055.2262657,39.6599859986,0,0
-113.24238714529,-74.799437352126,34.464416441644,2534082.9569685,-858.68543310889,2612055.2262657,39.664416441644,0,0
-113.24238660714,-74.814611657915,34.468846884688,2534082.9569685,-858.68543310889,2612055.2262657,39.668846884688,0,0
-113.24238606898,-74.829785963703,34.473277327733,2534082.9569685,-858.68543310889,2612055.2262657,39.673277327733,0,0
-113.24238553083,-74.844960269492,34.477707770777,2534082.9569685,-858.68543310889,2612055.2262657,39.677707770777,0,0
-113.24238499268,-74.86013457528,34.482138213821,2534082.9569685,-858.68543310889,2612055.2262657,39.682138213821,0,0
-113.24238445452,-74.875308881069,34.486568656866,2534082.9569685,-858.68543310889,2612055.2262657,39.686568656866,0,0
-113.24238391637,-74.890483186858,34.49099909991,2534082.9569685,-858.68543310889,2612055.2262657,39.69099909991,0,0
-113.24238337821,-74.905657492646,34.495429542954,2534082.9569685,-858.68543310889,2612055.2262657,39.695429542954,0,0
-113.24238284006,-74.920831798435,34.499859985999,2534082.9569685,-858.68543310889,2612055.2262657,39.699859985999,0,0
-113.24238230191,-74.936006104223,34.504290429043,2534082.9569685,-858.68543310889,2612055.2262657,39.704290429043,0,0
-113.24238176375,-74.951180410012,34.508720872087,2534082.9569685,-858.68543310889,2612055.2262657,39.708720872087,0,0
-113.2423812256,-74.9663547158,34.513151315132,2534082.9569685,-858.68543310889,2612055.2262657,39.713151315132,0,0
-113.24238068744,-74.981529021589,34.517581758176,2534082.9569685,-858.68543310889,2612055.2262657,39.717581758176,0,0
-113.24238014929,-74.996703327378,34.52201220122,2534082.9569685,-858.68543310889,2612055.2262657,39.72201220122,0,0
-113.24237961114,-75.011877633166,34.526442644264,2534082.9569685,-858.68543310889,2612055.2262657,39.726442644264,0,0
-113.24237907298,-75.027051938955,34.530873087309,2534082.9569685,-858.68543310889,2612055.2262657,39.730873087309,0,0
-113.24237853483,-75.042226244743,34.535303530353,2534082.9569685,-858.68543310889,2612055.2262657,39.735303530353,0,0
-113.24237799667,-75.057400550532,34.539733973397,2534082.9569685,-858.68543310889,2612055.2262657,39.739733973397,0,0
-113.24237745852,-75.07257485632,34.544164416442,2534082.9569685,-858.68543310889,2612055.2262657,39.744164416442,0,0
-113.24237692037,-75.087749162109,34.548594859486,2534082.9569685,-858.68543310889,2612055.2262657,39.748594859486,0,0
-113.24237638221,-75.102923467897,34.55302530253,2534082.9569685,-858.68543310889,2612055.2262657,39.75302530253,0,0
-113.24237584406,-75.118097773686,34.557455745575,2534082.9569685,-858.68543310889,2612055.2262657,39.757455745575,0,0
-113.2423753059,-75.133272079475,34.561886188619,2534082.9569685,-858.68543310889,2612055.2262657,39.761886188619,0,0
-113.24237476775,-75.148446385263,34.566316631663,2534082.9569685,-858.68543310889,2612055.2262657,39.766316631663,0,0
-113.2423742296,-75.163620691052,34.570747074707,2534082.9569685,-858.68543310889,2612055.2262657,39.770747074707,0,0
-113.24237369144,-75.17879499684,34.575177517752,2534082.9569685,-858.68543310889,2612055.2262657,39.775177517752,0,0
-113.24237315329,-75.193969302629,34.579607960796,2534082.9569685,-858.68543310889,2612055.2262657,39.779607960796,0,0
-113.24237261513,-75.209143608417,34.58403840384,2534082.9569685,-858.68543310889,2612055.2262657,39.78403840384,0,0
-113.24237207698,-75.224317914206,34.588468846885,2534082.9569685,-858.68543310889,2612055.2262657,39.788468846885,0,0
-113.24237153883,-75.239492219995,34.592899289929,2534082.9569685,-858.68543310889,2612055.2262657,39.792899289929,0,0
-113.24237100067,-75.254666525783,34.597329732973,2534082.9569685,-858.68543310889,2612055.2262657,39.797329732973,0,0
-113.24237046252,-75.269840831572,34.601760176018,2534082.9569685,-858.68543310889,2612055.2262657,39.801760176018,0,0
-113.24236992436,-75.28501513736,34.606190619062,2534082.9569685,-858.68543310889,2612055.2262657,39.806190619062,0,0
-113.24236938621,-75.300189443149,34.610621062106,2534082.9569685,-858.68543310889,2612055.2262657,39.810621062106,0,0
-113.24236884806,-75.315363748937,34.615051505151,2534082.9569685,-858.68543310889,2612055.2262657,39.815051505151,0,0
-113.2423683099,-75.330538054726,34.619481948195,2534082.9569685,-858.68543310889,2612055.2262657,39.819481948195,0,0
-113.24236777175,-75.345712360515,34.623912391239,2534082.9569685,-858.68543310889,2612055.2262657,39.823912391239,0,0
-113.2423672336,-75.360886666303,34.628342834283,2534082.9569685,-858.68543310889,2612055.2262657,39.828342834283,0,0
-113.24236669544,-75.376060972092,34.632773277328,2534082.9569685,-858.68543310889,2612055.2262657,39.832773277328,0,0
-113.24236615729,-75.39123527788,34.637203720372,2534082.9569685,-858.68543310889,2612055.2262657,39.837203720372,0,0
-113.24236561913,-75.406409583669,34.641634163416,2534082.9569685,-858.68543310889,2612055.2262657,39.841634163416,0,0
-113.24236508098,-75.421583889457,34.646064606461,2534082.9569685,-858.68543310889,2612055.2262657,39.846064606461,0,0
-113.24236454283,-75.436758195246,34.650495049505,2534082.9569685,-858.68543310889,2612055.2262657,39.850495049505,0,0
-113.24236400467,-75.451932501034,34.654925492549,2534082.9569685,-858.68543310889,2612055.2262657,39.854925492549,0,0
-113.24236346652,-75.467106806823,34.659355935594,2534082.9569685,-858.68543310889,2612055.2262657,39.859355935594,0,0
-113.24236292836,-75.482281112612,34.663786378638,2534082.9569685,-858.68543310889,2612055.2262657,39.863786378638,0,0
-113.24236239021,-75.4974554184,34.668216821682,2534082.9569685,-858.68543310889,2612055.2262657,39.868216821682,0,0
-113.24236185206,-75.512629724189,34.672647264726,2534082.9569685,-858.68543310889,2612055.2262657,39.872647264726,0,0
-113.2423613139,-75.527804029977,34.677077707771,2534082.9569685,-858.68543310889,2612055.2262657,39.877077707771,0,0
-113.24236077575,-75.542978335766,34.681508150815,2534082.9569685,-858.68543310889,2612055.2262657,39.881508150815,0,0
-113.24236023759,-75.558152641554,34.685938593859,2534082.9569685,-858.68543310889,2612055.2262657,39.885938593859,0,0
-113.24235969944,-75.573326947343,34.690369036904,2534082.9569685,-858.68543310889,2612055.2262657,39.890369036904,0,0
-113.24235916129,-75.588501253132,34.694799479948,2534082.9569685,-858.68543310889,2612055.2262657,39.894799479948,0,0
-113.24235862313,-75.60367555892,34.699229922992,2534082.9569685,-858.68543310889,2612055.2262657,39.899229922992,0,0
-113.24235808498,-75.618849864709,34.703660366037,2534082.9569685,-858.68543310889,2612055.2262657,39.903660366037,0,0
-113.24235754682,-75.634024170497,34.708090809081,2534082.9569685,-858.68543310889,2612055.2262657,39.908090809081,0,0
-113.24235700867,-75.649198476286,34.712521252125,2534082.9569685,-858.68543310889,2612055.2262657,39.912521252125,0,0
-113.24235647052,-75.664372782074,34.71695169517,2534082.9569685,-858.68543310889,2612055.2262657,39.91695169517,0,0
-113.24235593236,-75.679547087863,34.721382138214,2534082.9569685,-858.68543310889,2612055.2262657,39.921382138214,0,0
-113.24235539421,-75.694721393651,34.725812581258,2534082.9569685,-858.68543310889,2612055.2262657,39.925812581258,0,0
-113.24235485605,-75.70989569944,34.730243024302,2534082.9569685,-858.68543310889,2612055.2262657,39.930243024302,0,0
-113.2423543179,-75.725070005229,34.734673467347,2534082.9569685,-858.68543310889,2612055.2262657,39.934673467347,0,0
-113.24235377975,-75.740244311017,34.739103910391,2534082.9569685,-858.68543310889,2612055.2262657,39.939103910391,0,0
-113.24235324159,-75.755418616806,34.743534353435,2534082.9569685,-858.68543310889,2612055.2262657,39.943534353435,0,0
-113.24235270344,-75.770592922594,34.74796479648,2534082.9569685,-858.68543310889,2612055.2262657,39.94796479648,0,0
-113.24235216528,-75.785767228383,34.752395239524,2534082.9569685,-858.68543310889,2612055.2262657,39.952395239524,0,0
-113.24235162713,-75.800941534171,34.756825682568,2534082.9569685,-858.68543310889,2612055.2262657,39.956825682568,0,0
-113.24235108898,-75.81611583996,34.761256125613,2534082.9569685,-858.68543310889,2612055.2262657,39.961256125613,0,0
-113.24235055082,-75.831290145749,34.765686568657,2534082.9569685,-858.68543310889,2612055.2262657,39.965686568657,0,0
-113.24235001267,-75.846464451537,34.770117011701,2534082.9569685,-858.68543310889,2612055.2262657,39.970117011701,0,0
-113.24234947451,-75.861638757326,34.774547454745,2534082.9569685,-858.68543310889,2612055.2262657,39.974547454745,0,0
-113.24234893636,-75.876813063114,34.77897789779,2534082.9569685,-858.68543310889,2612055.2262657,39.97897789779,0,0
-113.24234839821,-75.891987368903,34.783408340834,2534082.9569685,-858.68543310889,2612055.2262657,39.983408340834,0,0
-113.24234786005,-75.907161674691,34.787838783878,2534082.9569685,-858.68543310889,2612055.2262657,39.987838783878,0,0
-113.2423473219,-75.92233598048,34.792269226923,2534082.9569685,-858.68543310889,2612055.2262657,39.992269226923,0,0
-113.24234678374,-75.937510286268,34.796699669967,2534082.9569685,-858.68543310889,2612055.2262657,39.996699669967,0,0
-113.24234624559,-75.952684592057,34.801130113011,2534082.9569685,-858.68543310889,2612055.2262657,40.001130113011,0,0
-113.24234570744,-75.967858897846,34.805560556056,2534082.9569685,-858.68543310889,2612055.2262657,40.005560556056,0,0
-113.24234516928,-75.983033203634,34.8099909991,2534082.9569685,-858.68543310889,2612055.2262657,40.0099909991,0,0
-113.24234463113,-75.998207509423,34.814421442144,2534082.9569685,-858.68543310889,2612055.2262657,40.014421442144,0,0
-113.24234409297,-76.013381815211,34.818851885189,2534082.9569685,-858.68543310889,2612055.2262657,40.018851885189,0,0
-113.24234355482,-76.028556121,34.823282328233,2534082.9569685,-858.68543310889,2612055.2262657,40.023282328233,0,0
-113.24234301667,-76.043730426788,34.827712771277,2534082.9569685,-858.68543310889,2612055.2262657,40.027712771277,0,0
-113.24234247851,-76.058904732577,34.832143214321,2534082.9569685,-858.68543310889,2612055.2262657,40.032143214321,0,0
-113.24234194036,-76.074079038366,34.836573657366,2534082.9569685,-858.68543310889,2612055.2262657,40.036573657366,0,0
-113.24234140221,-76.089253344154,34.84100410041,2534082.9569685,-858.68543310889,2612055.2262657,40.04100410041,0,0
-113.24234086405,-76.104427649943,34.845434543454,2534082.9569685,-858.68543310889,2612055.2262657,40.045434543454,0,0
-113.2423403259,-76.119601955731,34.849864986499,2534082.9569685,-858.68543310889,2612055.2262657,40.049864986499,0,0
-113.24233978774,-76.13477626152,34.854295429543,2534082.9569685,-858.68543310889,2612055.2262657,40.054295429543,0,0
-113.24233924959,-76.149950567308,34.858725872587,2534082.9569685,-858.68543310889,2612055.2262657,40.058725872587,0,0
-113.24233871144,-76.165124873097,34.863156315632,2534082.9569685,-858.68543310889,2612055.2262657,40.063156315632,0,0
-113.24233817328,-76.180299178885,34.867586758676,2534082.9569685,-858.68543310889,2612055.2262657,40.067586758676,0,0
-113.24233763513,-76.195473484674,34.87201720172,2534082.9569685,-858.68543310889,2612055.2262657,40.07201720172,0,0
-113.24233709697,-76.210647790463,34.876447644764,2534082.9569685,-858.68543310889,2612055.2262657,40.076447644764,0,0
-113.24233655882,-76.225822096251,34.880878087809,2534082.9569685,-858.68543310889,2612055.2262657,40.080878087809,0,0
-113.24233602067,-76.24099640204,34.885308530853,2534082.9569685,-858.68543310889,2612055.2262657,40.085308530853,0,0
-113.24233548251,-76.256170707828,34.889738973897,2534082.9569685,-858.68543310889,2612055.2262657,40.089738973897,0,0
-113.24233494436,-76.271345013617,34.894169416942,2534082.9569685,-858.68543310889,2612055.2262657,40.094169416942,0,0
-113.2423344062,-76.286519319405,34.898599859986,2534082.9569685,-858.68543310889,2612055.2262657,40.098599859986,0,0
-113.24233386805,-76.301693625194,34.90303030303,2534082.9569685,-858.68543310889,2612055.2262657,40.10303030303,0,0
-113.2423333299,-76.316867930983,34.907460746075,2534082.9569685,-858.68543310889,2612055.2262657,40.107460746075,0,0
-113.24233279174,-76.332042236771,34.911891189119,2534082.9569685,-858.68543310889,2612055.2262657,40.111891189119,0,0
-113.24233225359,-76.34721654256,34.916321632163,2534082.9569685,-858.68543310889,2612055.2262657,40.116321632163,0,0
-113.24233171543,-76.362390848348,34.920752075208,2534082.9569685,-858.68543310889,2612055.2262657,40.120752075208,0,0
-113.24233117728,-76.377565154137,34.925182518252,2534082.9569685,-858.68543310889,2612055.2262657,40.125182518252,0,0
-113.24233063913,-76.392739459925,34.929612961296,2534082.9569685,-858.68543310889,2612055.2262657,40.129612961296,0,0
-113.24233010097,-76.407913765714,34.93404340434,2534082.9569685,-858.68543310889,2612055.2262657,40.13404340434,0,0
-113.24232956282,-76.423088071503,34.938473847385,2534082.9569685,-858.68543310889,2612055.2262657,40.138473847385,0,0
-113.24232902466,-76.438262377291,34.942904290429,2534082.9569685,-858.68543310889,2612055.2262657,40.142904290429,0,0
-113.24232848651,-76.45343668308,34.947334733473,2534082.9569685,-858.68543310889,2612055.2262657,40.147334733473,0,0
-113.24232794836,-76.468610988868,34.951765176518,2534082.9569685,-858.68543310889,2612055.2262657,40.151765176518,0,0
-113.2423274102,-76.483785294657,34.956195619562,2534082.9569685,-858.68543310889,2612055.2262657,40.156195619562,0,0
-113.24232687205,-76.498959600445,34.960626062606,2534082.9569685,-858.68543310889,2612055.2262657,40.160626062606,0,0
-113.24232633389,-76.514133906234,34.965056505651,2534082.9569685,-858.68543310889,2612055.2262657,40.165056505651,0,0
-113.24232579574,-76.529308212022,34.969486948695,2534082.9569685,-858.68543310889,2612055.2262657,40.169486948695,0,0
-113.24232525759,-76.544482517811,34.973917391739,2534082.9569685,-858.68543310889,2612055.2262657,40.173917391739,0,0
-113.24232471943,-76.5596568236,34.978347834783,2534082.9569685,-858.68543310889,2612055.2262657,40.178347834783,0,0
-113.24232418128,-76.574831129388,34.982778277828,2534082.9569685,-858.68543310889,2612055.2262657,40.182778277828,0,0
-113.24232364312,-76.590005435177,34.987208720872,2534082.9569685,-858.68543310889,2612055.2262657,40.187208720872,0,0
-113.24232310497,-76.605179740965,34.991639163916,2534082.9569685,-858.68543310889,2612055.2262657,40.191639163916,0,0
-113.24232256682,-76.620354046754,34.996069606961,2534082.9569685,-858.68543310889,2612055.2262657,40.196069606961,0,0
-113.24232202866,-76.635528352542,35.000500050005,2534082.9569685,-858.68543310889,2612055.2262657,40.200500050005,0,0
-113.24232149051,-76.650702658331,35.004930493049,2534082.9569685,-858.68543310889,2612055.2262657,40.204930493049,0,0
-113.24232095235,-76.66587696412,35.009360936094,2534082.9569685,-858.68543310889,2612055.2262657,40.209360936094,0,0
-113.2423204142,-76.681051269908,35.013791379138,2534082.9569685,-858.68543310889,2612055.2262657,40.213791379138,0,0
-113.24231987605,-76.696225575697,35.018221822182,2534082.9569685,-858.68543310889,2612055.2262657,40.218221822182,0,0
-113.24231933789,-76.711399881485,35.022652265227,2534082.9569685,-858.68543310889,2612055.2262657,40.222652265227,0,0
-113.24231879974,-76.726574187274,35.027082708271,2534082.9569685,-858.68543310889,2612055.2262657,40.227082708271,0,0
-113.24231826159,-76.741748493062,35.031513151315,2534082.9569685,-858.68543310889,2612055.2262657,40.231513151315,0,0
-113.24231772343,-76.756922798851,35.035943594359,2534082.9569685,-858.68543310889,2612055.2262657,40.235943594359,0,0
-113.24231718528,-76.772097104639,35.040374037404,2534082.9569685,-858.68543310889,2612055.2262657,40.240374037404,0,0
-113.24231664712,-76.787271410428,35.044804480448,2534082.9569685,-858.68543310889,2612055.2262657,40.244804480448,0,0
-113.24231610897,-76.802445716217,35.049234923492,2534082.9569685,-858.68543310889,2612055.2262657,40.249234923492,0,0
-113.24231557082,-76.817620022005,35.053665366537,2534082.9569685,-858.68543310889,2612055.2262657,40.253665366537,0,0
-113.24231503266,-76.832794327794,35.058095809581,2534082.9569685,-858.68543310889,2612055.2262657,40.258095809581,0,0
-113.24231449451,-76.847968633582,35.062526252625,2534082.9569685,-858.68543310889,2612055.2262657,40.262526252625,0,0
-113.24231395635,-76.863142939371,35.06695669567,2534082.9569685,-858.68543310889,2612055.2262657,40.26695669567,0,0
-113.2423134182,-76.878317245159,35.071387138714,2534082.9569685,-858.68543310889,2612055.2262657,40.271387138714,0,0
-113.24231288005,-76.893491550948,35.075817581758,2534082.9569685,-858.68543310889,2612055.2262657,40.275817581758,0,0
-113.24231234189,-76.908665856737,35.080248024802,2534082.9569685,-858.68543310889,2612055.2262657,40.280248024802,0,0
-113.24231180374,-76.923840162525,35.084678467847,2534082.9569685,-858.68543310889,2612055.2262657,40.284678467847,0,0
-113.24231126558,-76.939014468314,35.089108910891,2534082.9569685,-858.68543310889,2612055.2262657,40.289108910891,0,0
-113.24231072743,-76.954188774102,35.093539353935,2534082.9569685,-858.68543310889,2612055.2262657,40.293539353935,0,0
-113.24231018928,-76.969363079891,35.09796979698,2534082.9569685,-858.68543310889,2612055.2262657,40.29796979698,0,0
-113.24230965112,-76.984537385679,35.102400240024,2534082.9569685,-858.68543310889,2612055.2262657,40.302400240024,0,0
-113.24230911297,-76.999711691468,35.106830683068,2534082.9569685,-858.68543310889,2612055.2262657,40.306830683068,0,0
-113.24230857481,-77.014885997257,35.111261126113,2534082.9569685,-858.68543310889,2612055.2262657,40.311261126113,0,0
-113.24230803666,-77.030060303045,35.115691569157,2534082.9569685,-858.68543310889,2612055.2262657,40.315691569157,0,0
-113.24230749851,-77.045234608834,35.120122012201,2534082.9569685,-858.68543310889,2612055.2262657,40.320122012201,0,0
-113.24230696035,-77.060408914622,35.124552455246,2534082.9569685,-858.68543310889,2612055.2262657,40.324552455246,0,0
-113.2423064222,-77.075583220411,35.12898289829,2534082.9569685,-858.68543310889,2612055.2262657,40.32898289829,0,0
-113.24230588404,-77.090757526199,35.133413341334,2534082.9569685,-858.68543310889,2612055.2262657,40.333413341334,0,0
-113.24230534589,-77.105931831988,35.137843784378,2534082.9569685,-858.68543310889,2612055.2262657,40.337843784378,0,0
-113.24230480774,-77.121106137776,35.142274227423,2534082.9569685,-858.68543310889,2612055.2262657,40.342274227423,0,0
-113.24230426958,-77.136280443565,35.146704670467,2534082.9569685,-858.68543310889,2612055.2262657,40.346704670467,0,0
-113.24230373143,-77.151454749354,35.151135113511,2534082.9569685,-858.68543310889,2612055.2262657,40.351135113511,0,0
-113.24230319327,-77.166629055142,35.155565556556,2534082.9569685,-858.68543310889,2612055.2262657,40.355565556556,0,0
-113.24230265512,-77.181803360931,35.1599959996,2534082.9569685,-858.68543310889,2612055.2262657,40.3599959996,0,0
-113.24230211697,-77.196977666719,35.164426442644,2534082.9569685,-858.68543310889,2612055.2262657,40.364426442644,0,0
-113.24230157881,-77.212151972508,35.168856885689,2534082.9569685,-858.68543310889,2612055.2262657,40.368856885689,0,0
-113.24230104066,-77.227326278296,35.173287328733,2534082.9569685,-858.68543310889,2612055.2262657,40.373287328733,0,0
-113.2423005025,-77.242500584085,35.177717771777,2534082.9569685,-858.68543310889,2612055.2262657,40.377717771777,0,0
-113.24229996435,-77.257674889874,35.182148214821,2534082.9569685,-858.68543310889,2612055.2262657,40.382148214821,0,0
-113.2422994262,-77.272849195662,35.186578657866,2534082.9569685,-858.68543310889,2612055.2262657,40.386578657866,0,0
-113.24229888804,-77.288023501451,35.19100910091,2534082.9569685,-858.68543310889,2612055.2262657,40.39100910091,0,0
-113.24229834989,-77.303197807239,35.195439543954,2534082.9569685,-858.68543310889,2612055.2262657,40.395439543954,0,0
-113.24229781173,-77.318372113028,35.199869986999,2534082.9569685,-858.68543310889,2612055.2262657,40.399869986999,0,0
-113.24229727358,-77.333546418816,35.204300430043,2534082.9569685,-858.68543310889,2612055.2262657,40.404300430043,0,0
-113.24229673543,-77.348720724605,35.208730873087,2534082.9569685,-858.68543310889,2612055.2262657,40.408730873087,0,0
-113.24229619727,-77.363895030393,35.213161316132,2534082.9569685,-858.68543310889,2612055.2262657,40.413161316132,0,0
-113.24229565912,-77.379069336182,35.217591759176,2534082.9569685,-858.68543310889,2612055.2262657,40.417591759176,0,0
-113.24229512097,-77.394243641971,35.22202220222,2534082.9569685,-858.68543310889,2612055.2262657,40.42202220222,0,0
-113.24229458281,-77.409417947759,35.226452645265,2534082.9569685,-858.68543310889,2612055.2262657,40.426452645265,0,0
-113.24229404466,-77.424592253548,35.230883088309,2534082.9569685,-858.68543310889,2612055.2262657,40.430883088309,0,0
-113.2422935065,-77.439766559336,35.235313531353,2534082.9569685,-858.68543310889,2612055.2262657,40.435313531353,0,0
-113.24229296835,-77.454940865125,35.239743974397,2534082.9569685,-858.68543310889,2612055.2262657,40.439743974397,0,0
-113.2422924302,-77.470115170913,35.244174417442,2534082.9569685,-858.68543310889,2612055.2262657,40.444174417442,0,0
-113.24229189204,-77.485289476702,35.248604860486,2534082.9569685,-858.68543310889,2612055.2262657,40.448604860486,0,0
-113.24229135389,-77.500463782491,35.25303530353,2534082.9569685,-858.68543310889,2612055.2262657,40.45303530353,0,0
-113.24229081573,-77.515638088279,35.257465746575,2534082.9569685,-858.68543310889,2612055.2262657,40.457465746575,0,0
-113.24229027758,-77.530812394068,35.261896189619,2534082.9569685,-858.68543310889,2612055.2262657,40.461896189619,0,0
-113.24228973943,-77.545986699856,35.266326632663,2534082.9569685,-858.68543310889,2612055.2262657,40.466326632663,0,0
-113.24228920127,-77.561161005645,35.270757075708,2534082.9569685,-858.68543310889,2612055.2262657,40.470757075708,0,0
-113.24228866312,-77.576335311433,35.275187518752,2534082.9569685,-858.68543310889,2612055.2262657,40.475187518752,0,0
-113.24228812496,-77.591509617222,35.279617961796,2534082.9569685,-858.68543310889,2612055.2262657,40.479617961796,0,0
-113.24228758681,-77.606683923011,35.28404840484,2534082.9569685,-858.68543310889,2612055.2262657,40.48404840484,0,0
-113.24228704866,-77.621858228799,35.288478847885,2534082.9569685,-858.68543310889,2612055.2262657,40.488478847885,0,0
-113.2422865105,-77.637032534588,35.292909290929,2534082.9569685,-858.68543310889,2612055.2262657,40.492909290929,0,0
-113.24228597235,-77.652206840376,35.297339733973,2534082.9569685,-858.68543310889,2612055.2262657,40.497339733973,0,0
-113.24228543419,-77.667381146165,35.301770177018,2534082.9569685,-858.68543310889,2612055.2262657,40.501770177018,0,0
-113.24228489604,-77.682555451953,35.306200620062,2534082.9569685,-858.68543310889,2612055.2262657,40.506200620062,0,0
-113.24228435789,-77.697729757742,35.310631063106,2534082.9569685,-858.68543310889,2612055.2262657,40.510631063106,0,0
-113.24228381973,-77.71290406353,35.315061506151,2534082.9569685,-858.68543310889,2612055.2262657,40.515061506151,0,0
-113.24228328158,-77.728078369319,35.319491949195,2534082.9569685,-858.68543310889,2612055.2262657,40.519491949195,0,0
-113.24228274342,-77.743252675108,35.323922392239,2534082.9569685,-858.68543310889,2612055.2262657,40.523922392239,0,0
-113.24228220527,-77.758426980896,35.328352835284,2534082.9569685,-858.68543310889,2612055.2262657,40.528352835284,0,0
-113.24228166712,-77.773601286685,35.332783278328,2534082.9569685,-858.68543310889,2612055.2262657,40.532783278328,0,0
-113.24228112896,-77.788775592473,35.337213721372,2534082.9569685,-858.68543310889,2612055.2262657,40.537213721372,0,0
-113.24228059081,-77.803949898262,35.341644164416,2534082.9569685,-858.68543310889,2612055.2262657,40.541644164416,0,0
-113.24228005265,-77.81912420405,35.346074607461,2534082.9569685,-858.68543310889,2612055.2262657,40.546074607461,0,0
-113.2422795145,-77.834298509839,35.350505050505,2534082.9569685,-858.68543310889,2612055.2262657,40.550505050505,0,0
-113.24227897635,-77.849472815627,35.354935493549,2534082.9569685,-858.68543310889,2612055.2262657,40.554935493549,0,0
-113.24227843819,-77.864647121416,35.359365936594,2534082.9569685,-858.68543310889,2612055.2262657,40.559365936594,0,0
-113.24227790004,-77.879821427205,35.363796379638,2534082.9569685,-858.68543310889,2612055.2262657,40.563796379638,0,0
-113.24227736188,-77.894995732993,35.368226822682,2534082.9569685,-858.68543310889,2612055.2262657,40.568226822682,0,0
-113.24227682373,-77.910170038782,35.372657265727,2534082.9569685,-858.68543310889,2612055.2262657,40.572657265727,0,0
-113.24227628558,-77.92534434457,35.377087708771,2534082.9569685,-858.68543310889,2612055.2262657,40.577087708771,0,0
-113.24227574742,-77.940518650359,35.381518151815,2534082.9569685,-858.68543310889,2612055.2262657,40.581518151815,0,0
-113.24227520927,-77.955692956147,35.385948594859,2534082.9569685,-858.68543310889,2612055.2262657,40.585948594859,0,0
-113.24227467111,-77.970867261936,35.390379037904,2534082.9569685,-858.68543310889,2612055.2262657,40.590379037904,0,0
-113.24227413296,-77.986041567725,35.394809480948,2534082.9569685,-858.68543310889,2612055.2262657,40.594809480948,0,0
-113.24227359481,-78.001215873513,35.399239923992,2534082.9569685,-858.68543310889,2612055.2262657,40.599239923992,0,0
-113.24227305665,-78.016390179302,35.403670367037,2534082.9569685,-858.68543310889,2612055.2262657,40.603670367037,0,0
-113.2422725185,-78.03156448509,35.408100810081,2534082.9569685,-858.68543310889,2612055.2262657,40.608100810081,0,0
-113.24227198035,-78.046738790879,35.412531253125,2534082.9569685,-858.68543310889,2612055.2262657,40.612531253125,0,0
-113.24227144219,-78.061913096667,35.41696169617,2534082.9569685,-858.68543310889,2612055.2262657,40.61696169617,0,0
-113.24227090404,-78.077087402456,35.421392139214,2534082.9569685,-858.68543310889,2612055.2262657,40.621392139214,0,0
-113.24227036588,-78.092261708245,35.425822582258,2534082.9569685,-858.68543310889,2612055.2262657,40.625822582258,0,0
-113.24226982773,-78.107436014033,35.430253025303,2534082.9569685,-858.68543310889,2612055.2262657,40.630253025303,0,0
-113.24226928958,-78.122610319822,35.434683468347,2534082.9569685,-858.68543310889,2612055.2262657,40.634683468347,0,0
-113.24226875142,-78.13778462561,35.439113911391,2534082.9569685,-858.68543310889,2612055.2262657,40.639113911391,0,0
-113.24226821327,-78.152958931399,35.443544354435,2534082.9569685,-858.68543310889,2612055.2262657,40.643544354435,0,0
-113.24226767511,-78.168133237187,35.44797479748,2534082.9569685,-858.68543310889,2612055.2262657,40.64797479748,0,0
-113.24226713696,-78.183307542976,35.452405240524,2534082.9569685,-858.68543310889,2612055.2262657,40.652405240524,0,0
-113.24226659881,-78.198481848764,35.456835683568,2534082.9569685,-858.68543310889,2612055.2262657,40.656835683568,0,0
-113.24226606065,-78.213656154553,35.461266126613,2534082.9569685,-858.68543310889,2612055.2262657,40.661266126613,0,0
-113.2422655225,-78.228830460342,35.465696569657,2534082.9569685,-858.68543310889,2612055.2262657,40.665696569657,0,0
-113.24226498434,-78.24400476613,35.470127012701,2534082.9569685,-858.68543310889,2612055.2262657,40.670127012701,0,0
-113.24226444619,-78.259179071919,35.474557455746,2534082.9569685,-858.68543310889,2612055.2262657,40.674557455746,0,0
-113.24226390804,-78.274353377707,35.47898789879,2534082.9569685,-858.68543310889,2612055.2262657,40.67898789879,0,0
-113.24226336988,-78.289527683496,35.483418341834,2534082.9569685,-858.68543310889,2612055.2262657,40.683418341834,0,0
-113.24226283173,-78.304701989284,35.487848784878,2534082.9569685,-858.68543310889,2612055.2262657,40.687848784878,0,0
-113.24226229357,-78.319876295073,35.492279227923,2534082.9569685,-858.68543310889,2612055.2262657,40.692279227923,0,0
-113.24226175542,-78.335050600862,35.496709670967,2534082.9569685,-858.68543310889,2612055.2262657,40.696709670967,0,0
-113.24226121727,-78.35022490665,35.501140114011,2534082.9569685,-858.68543310889,2612055.2262657,40.701140114011,0,0
-113.24226067911,-78.365399212439,35.505570557056,2534082.9569685,-858.68543310889,2612055.2262657,40.705570557056,0,0
-113.24226014096,-78.380573518227,35.5100010001,2534082.9569685,-858.68543310889,2612055.2262657,40.7100010001,0,0
-113.2422596028,-78.395747824016,35.514431443144,2534082.9569685,-858.68543310889,2612055.2262657,40.714431443144,0,0
-113.24225906465,-78.410922129804,35.518861886189,2534082.9569685,-858.68543310889,2612055.2262657,40.718861886189,0,0
-113.2422585265,-78.426096435593,35.523292329233,2534082.9569685,-858.68543310889,2612055.2262657,40.723292329233,0,0
-113.24225798834,-78.441270741382,35.527722772277,2534082.9569685,-858.68543310889,2612055.2262657,40.727722772277,0,0
-113.24225745019,-78.45644504717,35.532153215322,2534082.9569685,-858.68543310889,2612055.2262657,40.732153215322,0,0
-113.24225691203,-78.471619352959,35.536583658366,2534082.9569685,-858.68543310889,2612055.2262657,40.736583658366,0,0
-113.24225637388,-78.486793658747,35.54101410141,2534082.9569685,-858.68543310889,2612055.2262657,40.74101410141,0,0
-113.24225583573,-78.501967964536,35.545444544454,2534082.9569685,-858.68543310889,2612055.2262657,40.745444544454,0,0
-113.24225529757,-78.517142270324,35.549874987499,2534082.9569685,-858.68543310889,2612055.2262657,40.749874987499,0,0
-113.24225475942,-78.532316576113,35.554305430543,2534082.9569685,-858.68543310889,2612055.2262657,40.754305430543,0,0
-113.24225422126,-78.547490881901,35.558735873587,2534082.9569685,-858.68543310889,2612055.2262657,40.758735873587,0,0
-113.24225368311,-78.56266518769,35.563166316632,2534082.9569685,-858.68543310889,2612055.2262657,40.763166316632,0,0
-113.24225314496,-78.577839493479,35.567596759676,2534082.9569685,-858.68543310889,2612055.2262657,40.767596759676,0,0
-113.2422526068,-78.593013799267,35.57202720272,2534082.9569685,-858.68543310889,2612055.2262657,40.77202720272,0,0
-113.24225206865,-78.608188105056,35.576457645765,2534082.9569685,-858.68543310889,2612055.2262657,40.776457645765,0,0
-113.24225153049,-78.623362410844,35.580888088809,2534082.9569685,-858.68543310889,2612055.2262657,40.780888088809,0,0
-113.24225099234,-78.638536716633,35.585318531853,2534082.9569685,-858.68543310889,2612055.2262657,40.785318531853,0,0
-113.24225045419,-78.653711022421,35.589748974897,2534082.9569685,-858.68543310889,2612055.2262657,40.789748974897,0,0
-113.24224991603,-78.66888532821,35.594179417942,2534082.9569685,-858.68543310889,2612055.2262657,40.794179417942,0,0
-113.24224937788,-78.684059633999,35.598609860986,2534082.9569685,-858.68543310889,2612055.2262657,40.798609860986,0,0
-113.24224883973,-78.699233939787,35.60304030403,2534082.9569685,-858.68543310889,2612055.2262657,40.80304030403,0,0
-113.24224830157,-78.714408245576,35.607470747075,2534082.9569685,-858.68543310889,2612055.2262657,40.807470747075,0,0
-113.24224776342,-78.729582551364,35.611901190119,2534082.9569685,-858.68543310889,2612055.2262657,40.811901190119,0,0
-113.24224722526,-78.744756857153,35.616331633163,2534082.9569685,-858.68543310889,2612055.2262657,40.816331633163,0,0
-113.24224668711,-78.759931162941,35.620762076208,2534082.9569685,-858.68543310889,2612055.2262657,40.820762076208,0,0
-113.24224614896,-78.77510546873,35.625192519252,2534082.9569685,-858.68543310889,2612055.2262657,40.825192519252,0,0
-113.2422456108,-78.790279774518,35.629622962296,2534082.9569685,-858.68543310889,2612055.2262657,40.829622962296,0,0
-113.24224507265,-78.805454080307,35.634053405341,2534082.9569685,-858.68543310889,2612055.2262657,40.834053405341,0,0
-113.24224453449,-78.820628386096,35.638483848385,2534082.9569685,-858.68543310889,2612055.2262657,40.838483848385,0,0
-113.24224399634,-78.835802691884,35.642914291429,2534082.9569685,-858.68543310889,2612055.2262657,40.842914291429,0,0
-113.24224345819,-78.850976997673,35.647344734473,2534082.9569685,-858.68543310889,2612055.2262657,40.847344734473,0,0
-113.24224292003,-78.866151303461,35.651775177518,2534082.9569685,-858.68543310889,2612055.2262657,40.851775177518,0,0
-113.24224238188,-78.88132560925,35.656205620562,2534082.9569685,-858.68543310889,2612055.2262657,40.856205620562,0,0
-113.24224184372,-78.896499915038,35.660636063606,2534082.9569685,-858.68543310889,2612055.2262657,40.860636063606,0,0
-113.24224130557,-78.911674220827,35.665066506651,2534082.9569685,-858.68543310889,2612055.2262657,40.865066506651,0,0
-113.24224076742,-78.926848526616,35.669496949695,2534082.9569685,-858.68543310889,2612055.2262657,40.869496949695,0,0
-113.24224022926,-78.942022832404,35.673927392739,2534082.9569685,-858.68543310889,2612055.2262657,40.873927392739,0,0
-113.24223969111,-78.957197138193,35.678357835784,2534082.9569685,-858.68543310889,2612055.2262657,40.878357835784,0,0
-113.24223915295,-78.972371443981,35.682788278828,2534082.9569685,-858.68543310889,2612055.2262657,40.882788278828,0,0
-113.2422386148,-78.98754574977,35.687218721872,2534082.9569685,-858.68543310889,2612055.2262657,40.887218721872,0,0
-113.24223807665,-79.002720055558,35.691649164916,2534082.9569685,-858.68543310889,2612055.2262657,40.891649164916,0,0
-113.24223753849,-79.017894361347,35.696079607961,2534082.9569685,-858.68543310889,2612055.2262657,40.896079607961,0,0
-113.24223700034,-79.033068667135,35.700510051005,2534082.9569685,-858.68543310889,2612055.2262657,40.900510051005,0,0
-113.24223646218,-79.048242972924,35.704940494049,2534082.9569685,-858.68543310889,2612055.2262657,40.904940494049,0,0
-113.24223592403,-79.063417278713,35.709370937094,2534082.9569685,-858.68543310889,2612055.2262657,40.909370937094,0,0
-113.24223538588,-79.078591584501,35.713801380138,2534082.9569685,-858.68543310889,2612055.2262657,40.913801380138,0,0
-113.24223484772,-79.09376589029,35.718231823182,2534082.9569685,-858.68543310889,2612055.2262657,40.918231823182,0,0
-113.24223430957,-79.108940196078,35.722662266227,2534082.9569685,-858.68543310889,2612055.2262657,40.922662266227,0,0
-113.24223377141,-79.124114501867,35.727092709271,2534082.9569685,-858.68543310889,2612055.2262657,40.927092709271,0,0
-113.24223323326,-79.139288807655,35.731523152315,2534082.9569685,-858.68543310889,2612055.2262657,40.931523152315,0,0
-113.24223269511,-79.154463113444,35.73595359536,2534082.9569685,-858.68543310889,2612055.2262657,40.93595359536,0,0
-113.24223215695,-79.169637419233,35.740384038404,2534082.9569685,-858.68543310889,2612055.2262657,40.940384038404,0,0
-113.2422316188,-79.184811725021,35.744814481448,2534082.9569685,-858.68543310889,2612055.2262657,40.944814481448,0,0
-113.24223108064,-79.19998603081,35.749244924492,2534082.9569685,-858.68543310889,2612055.2262657,40.949244924492,0,0
-113.24223054249,-79.215160336598,35.753675367537,2534082.9569685,-858.68543310889,2612055.2262657,40.953675367537,0,0
-113.24223000434,-79.230334642387,35.758105810581,2534082.9569685,-858.68543310889,2612055.2262657,40.958105810581,0,0
-113.24222946618,-79.245508948175,35.762536253625,2534082.9569685,-858.68543310889,2612055.2262657,40.962536253625,0,0
-113.24222892803,-79.260683253964,35.76696669667,2534082.9569685,-858.68543310889,2612055.2262657,40.96696669667,0,0
-113.24222838987,-79.275857559753,35.771397139714,2534082.9569685,-858.68543310889,2612055.2262657,40.971397139714,0,0
-113.24222785172,-79.291031865541,35.775827582758,2534082.9569685,-858.68543310889,2612055.2262657,40.975827582758,0,0
-113.24222731357,-79.30620617133,35.780258025803,2534082.9569685,-858.68543310889,2612055.2262657,40.980258025803,0,0
-113.24222677541,-79.321380477118,35.784688468847,2534082.9569685,-858.68543310889,2612055.2262657,40.984688468847,0,0
-113.24222623726,-79.336554782907,35.789118911891,2534082.9569685,-858.68543310889,2612055.2262657,40.989118911891,0,0
-113.24222569911,-79.351729088695,35.793549354935,2534082.9569685,-858.68543310889,2612055.2262657,40.993549354935,0,0
-113.24222516095,-79.366903394484,35.79797979798,2534082.9569685,-858.68543310889,2612055.2262657,40.99797979798,0,0
-113.2422246228,-79.382077700272,35.802410241024,2534082.9569685,-858.68543310889,2612055.2262657,41.002410241024,0,0
-113.24222408464,-79.397252006061,35.806840684068,2534082.9569685,-858.68543310889,2612055.2262657,41.006840684068,0,0
-113.24222354649,-79.41242631185,35.811271127113,2534082.9569685,-858.68543310889,2612055.2262657,41.011271127113,0,0
-113.24222300834,-79.427600617638,35.815701570157,2534082.9569685,-858.68543310889,2612055.2262657,41.015701570157,0,0
-113.24222247018,-79.442774923427,35.820132013201,2534082.9569685,-858.68543310889,2612055.2262657,41.020132013201,0,0
-113.24222193203,-79.457949229215,35.824562456246,2534082.9569685,-858.68543310889,2612055.2262657,41.024562456246,0,0
-113.24222139387,-79.473123535004,35.82899289929,2534082.9569685,-858.68543310889,2612055.2262657,41.02899289929,0,0
-113.24222085572,-79.488297840792,35.833423342334,2534082.9569685,-858.68543310889,2612055.2262657,41.033423342334,0,0
-113.24222031757,-79.503472146581,35.837853785379,2534082.9569685,-858.68543310889,2612055.2262657,41.037853785379,0,0
-113.24221977941,-79.51864645237,35.842284228423,2534082.9569685,-858.68543310889,2612055.2262657,41.042284228423,0,0
-113.24221924126,-79.533820758158,35.846714671467,2534082.9569685,-858.68543310889,2612055.2262657,41.046714671467,0,0
-113.2422187031,-79.548995063947,35.851145114511,2534082.9569685,-858.68543310889,2612055.2262657,41.051145114511,0,0
-113.24221816495,-79.564169369735,35.855575557556,2534082.9569685,-858.68543310889,2612055.2262657,41.055575557556,0,0
-113.2422176268,-79.579343675524,35.8600060006,2534082.9569685,-858.68543310889,2612055.2262657,41.0600060006,0,0
-113.24221708864,-79.594517981312,35.864436443644,2534082.9569685,-858.68543310889,2612055.2262657,41.064436443644,0,0
-113.24221655049,-79.609692287101,35.868866886689,2534082.9569685,-858.68543310889,2612055.2262657,41.068866886689,0,0
-113.24221601233,-79.62486659289,35.873297329733,2534082.9569685,-858.68543310889,2612055.2262657,41.073297329733,0,0
-113.24221547418,-79.640040898678,35.877727772777,2534082.9569685,-858.68543310889,2612055.2262657,41.077727772777,0,0
-113.24221493603,-79.655215204467,35.882158215822,2534082.9569685,-858.68543310889,2612055.2262657,41.082158215822,0,0
-113.24221439787,-79.670389510255,35.886588658866,2534082.9569685,-858.68543310889,2612055.2262657,41.086588658866,0,0
-113.24221385972,-79.685563816044,35.89101910191,2534082.9569685,-858.68543310889,2612055.2262657,41.09101910191,0,0
-113.24221332156,-79.700738121832,35.895449544954,2534082.9569685,-858.68543310889,2612055.2262657,41.095449544954,0,0
-113.24221278341,-79.715912427621,35.899879987999,2534082.9569685,-858.68543310889,2612055.2262657,41.099879987999,0,0
-113.24221224526,-79.731086733409,35.904310431043,2534082.9569685,-858.68543310889,2612055.2262657,41.104310431043,0,0
-113.2422117071,-79.746261039198,35.908740874087,2534082.9569685,-858.68543310889,2612055.2262657,41.108740874087,0,0
-113.24221116895,-79.761435344987,35.913171317132,2534082.9569685,-858.68543310889,2612055.2262657,41.113171317132,0,0
-113.24221063079,-79.776609650775,35.917601760176,2534082.9569685,-858.68543310889,2612055.2262657,41.117601760176,0,0
-113.24221009264,-79.791783956564,35.92203220322,2534082.9569685,-858.68543310889,2612055.2262657,41.12203220322,0,0
-113.24220955449,-79.806958262352,35.926462646265,2534082.9569685,-858.68543310889,2612055.2262657,41.126462646265,0,0
-113.24220901633,-79.822132568141,35.930893089309,2534082.9569685,-858.68543310889,2612055.2262657,41.130893089309,0,0
-113.24220847818,-79.837306873929,35.935323532353,2534082.9569685,-858.68543310889,2612055.2262657,41.135323532353,0,0
-113.24220794002,-79.852481179718,35.939753975398,2534082.9569685,-858.68543310889,2612055.2262657,41.139753975398,0,0
-113.24220740187,-79.867655485506,35.944184418442,2534082.9569685,-858.68543310889,2612055.2262657,41.144184418442,0,0
-113.24220686372,-79.882829791295,35.948614861486,2534082.9569685,-858.68543310889,2612055.2262657,41.148614861486,0,0
-113.24220632556,-79.898004097084,35.95304530453,2534082.9569685,-858.68543310889,2612055.2262657,41.15304530453,0,0
-113.24220578741,-79.913178402872,35.957475747575,2534082.9569685,-858.68543310889,2612055.2262657,41.157475747575,0,0
-113.24220524925,-79.928352708661,35.961906190619,2534082.9569685,-858.68543310889,2612055.2262657,41.161906190619,0,0
-113.2422047111,-79.943527014449,35.966336633663,2534082.9569685,-858.68543310889,2612055.2262657,41.166336633663,0,0
-113.24220417295,-79.958701320238,35.970767076708,2534082.9569685,-858.68543310889,2612055.2262657,41.170767076708,0,0
-113.24220363479,-79.973875626026,35.975197519752,2534082.9569685,-858.68543310889,2612055.2262657,41.175197519752,0,0
-113.24220309664,-79.989049931815,35.979627962796,2534082.9569685,-858.68543310889,2612055.2262657,41.179627962796,0,0
-113.24220255849,-80.004224237604,35.984058405841,2534082.9569685,-858.68543310889,2612055.2262657,41.184058405841,0,0
-113.24220202033,-80.019398543392,35.988488848885,2534082.9569685,-858.68543310889,2612055.2262657,41.188488848885,0,0
-113.24220148218,-80.034572849181,35.992919291929,2534082.9569685,-858.68543310889,2612055.2262657,41.192919291929,0,0
-113.24220094402,-80.049747154969,35.997349734973,2534082.9569685,-858.68543310889,2612055.2262657,41.197349734973,0,0
-113.24220040587,-80.064921460758,36.001780178018,2534082.9569685,-858.68543310889,2612055.2262657,41.201780178018,0,0
-113.24219986772,-80.080095766546,36.006210621062,2534082.9569685,-858.68543310889,2612055.2262657,41.206210621062,0,0
-113.24219932956,-80.095270072335,36.010641064106,2534082.9569685,-858.68543310889,2612055.2262657,41.210641064106,0,0
-113.24219879141,-80.110444378124,36.015071507151,2534082.9569685,-858.68543310889,2612055.2262657,41.215071507151,0,0
-113.24219825325,-80.125618683912,36.019501950195,2534082.9569685,-858.68543310889,2612055.2262657,41.219501950195,0,0
-113.2421977151,-80.140792989701,36.023932393239,2534082.9569685,-858.68543310889,2612055.2262657,41.223932393239,0,0
-113.24219717695,-80.155967295489,36.028362836284,2534082.9569685,-858.68543310889,2612055.2262657,41.228362836284,0,0
-113.24219663879,-80.171141601278,36.032793279328,2534082.9569685,-858.68543310889,2612055.2262657,41.232793279328,0,0
-113.24219610064,-80.186315907066,36.037223722372,2534082.9569685,-858.68543310889,2612055.2262657,41.237223722372,0,0
-113.24219556248,-80.201490212855,36.041654165417,2534082.9569685,-858.68543310889,2612055.2262657,41.241654165417,0,0
-113.24219502433,-80.216664518643,36.046084608461,2534082.9569685,-858.68543310889,2612055.2262657,41.246084608461,0,0
-113.24219448618,-80.231838824432,36.050515051505,2534082.9569685,-858.68543310889,2612055.2262657,41.250515051505,0,0
-113.24219394802,-80.247013130221,36.054945494549,2534082.9569685,-858.68543310889,2612055.2262657,41.254945494549,0,0
-113.24219340987,-80.262187436009,36.059375937594,2534082.9569685,-858.68543310889,2612055.2262657,41.259375937594,0,0
-113.24219287171,-80.277361741798,36.063806380638,2534082.9569685,-858.68543310889,2612055.2262657,41.263806380638,0,0
-113.24219233356,-80.292536047586,36.068236823682,2534082.9569685,-858.68543310889,2612055.2262657,41.268236823682,0,0
-113.24219179541,-80.307710353375,36.072667266727,2534082.9569685,-858.68543310889,2612055.2262657,41.272667266727,0,0
-113.24219125725,-80.322884659163,36.077097709771,2534082.9569685,-858.68543310889,2612055.2262657,41.277097709771,0,0
-113.2421907191,-80.338058964952,36.081528152815,2534082.9569685,-858.68543310889,2612055.2262657,41.281528152815,0,0
-113.24219018094,-80.353233270741,36.08595859586,2534082.9569685,-858.68543310889,2612055.2262657,41.28595859586,0,0
-113.24218964279,-80.368407576529,36.090389038904,2534082.9569685,-858.68543310889,2612055.2262657,41.290389038904,0,0
-113.24218910464,-80.383581882318,36.094819481948,2534082.9569685,-858.68543310889,2612055.2262657,41.294819481948,0,0
-113.24218856648,-80.398756188106,36.099249924992,2534082.9569685,-858.68543310889,2612055.2262657,41.299249924992,0,0
-113.24218802833,-80.413930493895,36.103680368037,2534082.9569685,-858.68543310889,2612055.2262657,41.303680368037,0,0
-113.24218749017,-80.429104799683,36.108110811081,2534082.9569685,-858.68543310889,2612055.2262657,41.308110811081,0,0
-113.24218695202,-80.444279105472,36.112541254125,2534082.9569685,-858.68543310889,2612055.2262657,41.312541254125,0,0
-113.24218641387,-80.45945341126,36.11697169717,2534082.9569685,-858.68543310889,2612055.2262657,41.31697169717,0,0
-113.24218587571,-80.474627717049,36.121402140214,2534082.9569685,-858.68543310889,2612055.2262657,41.321402140214,0,0
-113.24218533756,-80.489802022838,36.125832583258,2534082.9569685,-858.68543310889,2612055.2262657,41.325832583258,0,0
-113.2421847994,-80.504976328626,36.130263026303,2534082.9569685,-858.68543310889,2612055.2262657,41.330263026303,0,0
-113.24218426125,-80.520150634415,36.134693469347,2534082.9569685,-858.68543310889,2612055.2262657,41.334693469347,0,0
-113.2421837231,-80.535324940203,36.139123912391,2534082.9569685,-858.68543310889,2612055.2262657,41.339123912391,0,0
-113.24218318494,-80.550499245992,36.143554355436,2534082.9569685,-858.68543310889,2612055.2262657,41.343554355436,0,0
-113.24218264679,-80.56567355178,36.14798479848,2534082.9569685,-858.68543310889,2612055.2262657,41.34798479848,0,0
-113.24218210861,-80.580847857618,36.152415241524,2534815.3303811,-1372.9361670615,2610820.1626776,41.352415241524,0,0
-113.24218157027,-80.596022163747,36.156845684568,2534815.3303811,-1372.9361670615,2610820.1626776,41.356845684568,0,0
-113.24218103194,-80.611196469875,36.161276127613,2534815.3303811,-1372.9361670615,2610820.1626776,41.361276127613,0,0
-113.24218049361,-80.626370776004,36.165706570657,2534815.3303811,-1372.9361670615,2610820.1626776,41.365706570657,0,0
-113.24217995527,-80.641545082132,36.170137013701,2534815.3303811,-1372.9361670615,2610820.1626776,41.370137013701,0,0
-113.24217941694,-80.65671938826,36.174567456746,2534815.3303811,-1372.9361670615,2610820.1626776,41.374567456746,0,0
-113.24217887861,-80.671893694389,36.17899789979,2534815.3303811,-1372.9361670615,2610820.1626776,41.37899789979,0,0
-113.24217834027,-80.687068000517,36.183428342834,2534815.3303811,-1372.9361670615,2610820.1626776,41.383428342834,0,0
-113.24217780194,-80.702242306646,36.187858785879,2534815.3303811,-1372.9361670615,2610820.1626776,41.387858785879,0,0
-113.2421772636,-80.717416612774,36.192289228923,2534815.3303811,-1372.9361670615,2610820.1626776,41.392289228923,0,0
-113.24217672527,-80.732590918903,36.196719671967,2534815.3303811,-1372.9361670615,2610820.1626776,41.396719671967,0,0
-113.24217618694,-80.747765225031,36.201150115011,2534815.3303811,-1372.9361670615,2610820.1626776,41.401150115011,0,0
-113.2421756486,-80.76293953116,36.205580558056,2534815.3303811,-1372.9361670615,2610820.1626776,41.405580558056,0,0
-113.24217511027,-80.778113837288,36.2100110011,2534815.3303811,-1372.9361670615,2610820.1626776,41.4100110011,0,0
-113.24217457193,-80.793288143417,36.214441444144,2534815.3303811,-1372.9361670615,2610820.1626776,41.414441444144,0,0
-113.2421740336,-80.808462449545,36.218871887189,2534815.3303811,-1372.9361670615,2610820.1626776,41.418871887189,0,0
-113.24217349527,-80.823636755674,36.223302330233,2534815.3303811,-1372.9361670615,2610820.1626776,41.423302330233,0,0
-113.24217295693,-80.838811061802,36.227732773277,2534815.3303811,-1372.9361670615,2610820.1626776,41.427732773277,0,0
-113.2421724186,-80.853985367931,36.232163216322,2534815.3303811,-1372.9361670615,2610820.1626776,41.432163216322,0,0
-113.24217188026,-80.869159674059,36.236593659366,2534815.3303811,-1372.9361670615,2610820.1626776,41.436593659366,0,0
-113.24217134193,-80.884333980188,36.24102410241,2534815.3303811,-1372.9361670615,2610820.1626776,41.44102410241,0,0
-113.2421708036,-80.899508286316,36.245454545455,2534815.3303811,-1372.9361670615,2610820.1626776,41.445454545455,0,0
-113.24217026526,-80.914682592444,36.249884988499,2534815.3303811,-1372.9361670615,2610820.1626776,41.449884988499,0,0
-113.24216972693,-80.929856898573,36.254315431543,2534815.3303811,-1372.9361670615,2610820.1626776,41.454315431543,0,0
-113.24216918859,-80.945031204701,36.258745874587,2534815.3303811,-1372.9361670615,2610820.1626776,41.458745874587,0,0
-113.24216865026,-80.96020551083,36.263176317632,2534815.3303811,-1372.9361670615,2610820.1626776,41.463176317632,0,0
-113.24216811193,-80.975379816958,36.267606760676,2534815.3303811,-1372.9361670615,2610820.1626776,41.467606760676,0,0
-113.24216757359,-80.990554123087,36.27203720372,2534815.3303811,-1372.9361670615,2610820.1626776,41.47203720372,0,0
-113.24216703526,-81.005728429215,36.276467646765,2534815.3303811,-1372.9361670615,2610820.1626776,41.476467646765,0,0
-113.24216649693,-81.020902735344,36.280898089809,2534815.3303811,-1372.9361670615,2610820.1626776,41.480898089809,0,0
-113.24216595859,-81.036077041472,36.285328532853,2534815.3303811,-1372.9361670615,2610820.1626776,41.485328532853,0,0
-113.24216542026,-81.051251347601,36.289758975898,2534815.3303811,-1372.9361670615,2610820.1626776,41.489758975898,0,0
-113.24216488192,-81.066425653729,36.294189418942,2534815.3303811,-1372.9361670615,2610820.1626776,41.494189418942,0,0
-113.24216434359,-81.081599959858,36.298619861986,2534815.3303811,-1372.9361670615,2610820.1626776,41.498619861986,0,0
-113.24216380526,-81.096774265986,36.30305030503,2534815.3303811,-1372.9361670615,2610820.1626776,41.50305030503,0,0
-113.24216326692,-81.111948572115,36.307480748075,2534815.3303811,-1372.9361670615,2610820.1626776,41.507480748075,0,0
-113.24216272859,-81.127122878243,36.311911191119,2534815.3303811,-1372.9361670615,2610820.1626776,41.511911191119,0,0
-113.24216219025,-81.142297184371,36.316341634163,2534815.3303811,-1372.9361670615,2610820.1626776,41.516341634163,0,0
-113.24216165192,-81.1574714905,36.320772077208,2534815.3303811,-1372.9361670615,2610820.1626776,41.520772077208,0,0
-113.24216111359,-81.172645796628,36.325202520252,2534815.3303811,-1372.9361670615,2610820.1626776,41.525202520252,0,0
-113.24216057525,-81.187820102757,36.329632963296,2534815.3303811,-1372.9361670615,2610820.1626776,41.529632963296,0,0
-113.24216003692,-81.202994408885,36.334063406341,2534815.3303811,-1372.9361670615,2610820.1626776,41.534063406341,0,0
-113.24215949858,-81.218168715014,36.338493849385,2534815.3303811,-1372.9361670615,2610820.1626776,41.538493849385,0,0
-113.24215896025,-81.233343021142,36.342924292429,2534815.3303811,-1372.9361670615,2610820.1626776,41.542924292429,0,0
-113.24215842192,-81.248517327271,36.347354735474,2534815.3303811,-1372.9361670615,2610820.1626776,41.547354735474,0,0
-113.24215788358,-81.263691633399,36.351785178518,2534815.3303811,-1372.9361670615,2610820.1626776,41.551785178518,0,0
-113.24215734525,-81.278865939528,36.356215621562,2534815.3303811,-1372.9361670615,2610820.1626776,41.556215621562,0,0
-113.24215680692,-81.294040245656,36.360646064606,2534815.3303811,-1372.9361670615,2610820.1626776,41.560646064606,0,0
-113.24215626858,-81.309214551785,36.365076507651,2534815.3303811,-1372.9361670615,2610820.1626776,41.565076507651,0,0
-113.24215573025,-81.324388857913,36.369506950695,2534815.3303811,-1372.9361670615,2610820.1626776,41.569506950695,0,0
-113.24215519191,-81.339563164042,36.373937393739,2534815.3303811,-1372.9361670615,2610820.1626776,41.573937393739,0,0
-113.24215465358,-81.35473747017,36.378367836784,2534815.3303811,-1372.9361670615,2610820.1626776,41.578367836784,0,0
-113.24215411525,-81.369911776298,36.382798279828,2534815.3303811,-1372.9361670615,2610820.1626776,41.582798279828,0,0
-113.24215357691,-81.385086082427,36.387228722872,2534815.3303811,-1372.9361670615,2610820.1626776,41.587228722872,0,0
-113.24215303858,-81.400260388555,36.391659165917,2534815.3303811,-1372.9361670615,2610820.1626776,41.591659165917,0,0
-113.24215250024,-81.415434694684,36.396089608961,2534815.3303811,-1372.9361670615,2610820.1626776,41.596089608961,0,0
-113.24215196191,-81.430609000812,36.400520052005,2534815.3303811,-1372.9361670615,2610820.1626776,41.600520052005,0,0
-113.24215142358,-81.445783306941,36.404950495049,2534815.3303811,-1372.9361670615,2610820.1626776,41.60495049505,0,0
-113.24215088524,-81.460957613069,36.409380938094,2534815.3303811,-1372.9361670615,2610820.1626776,41.609380938094,0,0
-113.24215034691,-81.476131919198,36.413811381138,2534815.3303811,-1372.9361670615,2610820.1626776,41.613811381138,0,0
-113.24214980857,-81.491306225326,36.418241824182,2534815.3303811,-1372.9361670615,2610820.1626776,41.618241824182,0,0
-113.24214927024,-81.506480531455,36.422672267227,2534815.3303811,-1372.9361670615,2610820.1626776,41.622672267227,0,0
-113.24214873191,-81.521654837583,36.427102710271,2534815.3303811,-1372.9361670615,2610820.1626776,41.627102710271,0,0
-113.24214819357,-81.536829143712,36.431533153315,2534815.3303811,-1372.9361670615,2610820.1626776,41.631533153315,0,0
-113.24214765524,-81.55200344984,36.43596359636,2534815.3303811,-1372.9361670615,2610820.1626776,41.63596359636,0,0
-113.2421471169,-81.567177755969,36.440394039404,2534815.3303811,-1372.9361670615,2610820.1626776,41.640394039404,0,0
-113.24214657857,-81.582352062097,36.444824482448,2534815.3303811,-1372.9361670615,2610820.1626776,41.644824482448,0,0
-113.24214604024,-81.597526368226,36.449254925493,2534815.3303811,-1372.9361670615,2610820.1626776,41.649254925493,0,0
-113.2421455019,-81.612700674354,36.453685368537,2534815.3303811,-1372.9361670615,2610820.1626776,41.653685368537,0,0
-113.24214496357,-81.627874980482,36.458115811581,2534815.3303811,-1372.9361670615,2610820.1626776,41.658115811581,0,0
-113.24214442524,-81.643049286611,36.462546254625,2534815.3303811,-1372.9361670615,2610820.1626776,41.662546254625,0,0
-113.2421438869,-81.658223592739,36.46697669767,2534815.3303811,-1372.9361670615,2610820.1626776,41.66697669767,0,0
-113.24214334857,-81.673397898868,36.471407140714,2534815.3303811,-1372.9361670615,2610820.1626776,41.671407140714,0,0
-113.24214281023,-81.688572204996,36.475837583758,2534815.3303811,-1372.9361670615,2610820.1626776,41.675837583758,0,0
-113.2421422719,-81.703746511125,36.480268026803,2534815.3303811,-1372.9361670615,2610820.1626776,41.680268026803,0,0
-113.24214173357,-81.718920817253,36.484698469847,2534815.3303811,-1372.9361670615,2610820.1626776,41.684698469847,0,0
-113.24214119523,-81.734095123382,36.489128912891,2534815.3303811,-1372.9361670615,2610820.1626776,41.689128912891,0,0
-113.2421406569,-81.74926942951,36.493559355936,2534815.3303811,-1372.9361670615,2610820.1626776,41.693559355936,0,0
-113.24214011856,-81.764443735639,36.49798979898,2534815.3303811,-1372.9361670615,2610820.1626776,41.69798979898,0,0
-113.24213958023,-81.779618041767,36.502420242024,2534815.3303811,-1372.9361670615,2610820.1626776,41.702420242024,0,0
-113.2421390419,-81.794792347896,36.506850685068,2534815.3303811,-1372.9361670615,2610820.1626776,41.706850685069,0,0
-113.24213850356,-81.809966654024,36.511281128113,2534815.3303811,-1372.9361670615,2610820.1626776,41.711281128113,0,0
-113.24213796523,-81.825140960153,36.515711571157,2534815.3303811,-1372.9361670615,2610820.1626776,41.715711571157,0,0
-113.24213742689,-81.840315266281,36.520142014201,2534815.3303811,-1372.9361670615,2610820.1626776,41.720142014201,0,0
-113.24213688856,-81.855489572409,36.524572457246,2534815.3303811,-1372.9361670615,2610820.1626776,41.724572457246,0,0
-113.24213635023,-81.870663878538,36.52900290029,2534815.3303811,-1372.9361670615,2610820.1626776,41.72900290029,0,0
-113.24213581189,-81.885838184666,36.533433343334,2534815.3303811,-1372.9361670615,2610820.1626776,41.733433343334,0,0
-113.24213527356,-81.901012490795,36.537863786379,2534815.3303811,-1372.9361670615,2610820.1626776,41.737863786379,0,0
-113.24213473522,-81.916186796923,36.542294229423,2534815.3303811,-1372.9361670615,2610820.1626776,41.742294229423,0,0
-113.24213419689,-81.931361103052,36.546724672467,2534815.3303811,-1372.9361670615,2610820.1626776,41.746724672467,0,0
-113.24213365846,-81.946535409138,36.551155115512,2538327.4188565,-1308.4863986644,2611355.1710597,41.751155115512,0,0
-113.2421331196,-81.961709715026,36.555585558556,2538327.4188565,-1308.4863986644,2611355.1710597,41.755585558556,0,0
-113.24213258074,-81.976884020914,36.5600160016,2538327.4188565,-1308.4863986644,2611355.1710597,41.7600160016,0,0
-113.24213204187,-81.992058326802,36.564446444644,2538327.4188565,-1308.4863986644,2611355.1710597,41.764446444644,0,0
-113.24213150301,-82.00723263269,36.568876887689,2538327.4188565,-1308.4863986644,2611355.1710597,41.768876887689,0,0
-113.24213096415,-82.022406938579,36.573307330733,2538327.4188565,-1308.4863986644,2611355.1710597,41.773307330733,0,0
-113.24213042529,-82.037581244467,36.577737773777,2538327.4188565,-1308.4863986644,2611355.1710597,41.777737773777,0,0
-113.24212988642,-82.052755550355,36.582168216822,2538327.4188565,-1308.4863986644,2611355.1710597,41.782168216822,0,0
-113.24212934756,-82.067929856243,36.586598659866,2538327.4188565,-1308.4863986644,2611355.1710597,41.786598659866,0,0
-113.2421288087,-82.083104162131,36.59102910291,2538327.4188565,-1308.4863986644,2611355.1710597,41.79102910291,0,0
-113.24212826983,-82.098278468019,36.595459545955,2538327.4188565,-1308.4863986644,2611355.1710597,41.795459545955,0,0
-113.24212773097,-82.113452773908,36.599889988999,2538327.4188565,-1308.4863986644,2611355.1710597,41.799889988999,0,0
-113.24212719211,-82.128627079796,36.604320432043,2538327.4188565,-1308.4863986644,2611355.1710597,41.804320432043,0,0
-113.24212665324,-82.143801385684,36.608750875088,2538327.4188565,-1308.4863986644,2611355.1710597,41.808750875088,0,0
-113.24212611438,-82.158975691572,36.613181318132,2538327.4188565,-1308.4863986644,2611355.1710597,41.813181318132,0,0
-113.24212557552,-82.17414999746,36.617611761176,2538327.4188565,-1308.4863986644,2611355.1710597,41.817611761176,0,0
-113.24212503666,-82.189324303349,36.62204220422,2538327.4188565,-1308.4863986644,2611355.1710597,41.82204220422,0,0
-113.24212449779,-82.204498609237,36.626472647265,2538327.4188565,-1308.4863986644,2611355.1710597,41.826472647265,0,0
-113.24212395893,-82.219672915125,36.630903090309,2538327.4188565,-1308.4863986644,2611355.1710597,41.830903090309,0,0
-113.24212342007,-82.234847221013,36.635333533353,2538327.4188565,-1308.4863986644,2611355.1710597,41.835333533353,0,0
-113.2421228812,-82.250021526901,36.639763976398,2538327.4188565,-1308.4863986644,2611355.1710597,41.839763976398,0,0
-113.24212234234,-82.26519583279,36.644194419442,2538327.4188565,-1308.4863986644,2611355.1710597,41.844194419442,0,0
-113.24212180348,-82.280370138678,36.648624862486,2538327.4188565,-1308.4863986644,2611355.1710597,41.848624862486,0,0
-113.24212126462,-82.295544444566,36.653055305531,2538327.4188565,-1308.4863986644,2611355.1710597,41.853055305531,0,0
-113.24212072575,-82.310718750454,36.657485748575,2538327.4188565,-1308.4863986644,2611355.1710597,41.857485748575,0,0
-113.24212018689,-82.325893056342,36.661916191619,2538327.4188565,-1308.4863986644,2611355.1710597,41.861916191619,0,0
-113.24211964803,-82.341067362231,36.666346634663,2538327.4188565,-1308.4863986644,2611355.1710597,41.866346634663,0,0
-113.24211910916,-82.356241668119,36.670777077708,2538327.4188565,-1308.4863986644,2611355.1710597,41.870777077708,0,0
-113.2421185703,-82.371415974007,36.675207520752,2538327.4188565,-1308.4863986644,2611355.1710597,41.875207520752,0,0
-113.24211803144,-82.386590279895,36.679637963796,2538327.4188565,-1308.4863986644,2611355.1710597,41.879637963796,0,0
-113.24211749258,-82.401764585783,36.684068406841,2538327.4188565,-1308.4863986644,2611355.1710597,41.884068406841,0,0
-113.24211695371,-82.416938891672,36.688498849885,2538327.4188565,-1308.4863986644,2611355.1710597,41.888498849885,0,0
-113.24211641485,-82.43211319756,36.692929292929,2538327.4188565,-1308.4863986644,2611355.1710597,41.892929292929,0,0
-113.24211587599,-82.447287503448,36.697359735974,2538327.4188565,-1308.4863986644,2611355.1710597,41.897359735974,0,0
-113.24211533712,-82.462461809336,36.701790179018,2538327.4188565,-1308.4863986644,2611355.1710597,41.901790179018,0,0
-113.24211479826,-82.477636115224,36.706220622062,2538327.4188565,-1308.4863986644,2611355.1710597,41.906220622062,0,0
-113.2421142594,-82.492810421112,36.710651065107,2538327.4188565,-1308.4863986644,2611355.1710597,41.910651065107,0,0
-113.24211372053,-82.507984727001,36.715081508151,2538327.4188565,-1308.4863986644,2611355.1710597,41.915081508151,0,0
-113.24211318167,-82.523159032889,36.719511951195,2538327.4188565,-1308.4863986644,2611355.1710597,41.919511951195,0,0
-113.24211264281,-82.538333338777,36.723942394239,2538327.4188565,-1308.4863986644,2611355.1710597,41.923942394239,0,0
-113.24211210395,-82.553507644665,36.728372837284,2538327.4188565,-1308.4863986644,2611355.1710597,41.928372837284,0,0
-113.24211156508,-82.568681950553,36.732803280328,2538327.4188565,-1308.4863986644,2611355.1710597,41.932803280328,0,0
-113.24211102622,-82.583856256442,36.737233723372,2538327.4188565,-1308.4863986644,2611355.1710597,41.937233723372,0,0
-113.24211048736,-82.59903056233,36.741664166417,2538327.4188565,-1308.4863986644,2611355.1710597,41.941664166417,0,0
-113.24210994849,-82.614204868218,36.746094609461,2538327.4188565,-1308.4863986644,2611355.1710597,41.946094609461,0,0
-113.24210940963,-82.629379174106,36.750525052505,2538327.4188565,-1308.4863986644,2611355.1710597,41.950525052505,0,0
-113.24210887077,-82.644553479994,36.75495549555,2538327.4188565,-1308.4863986644,2611355.1710597,41.95495549555,0,0
-113.24210833191,-82.659727785883,36.759385938594,2538327.4188565,-1308.4863986644,2611355.1710597,41.959385938594,0,0
-113.24210779304,-82.674902091771,36.763816381638,2538327.4188565,-1308.4863986644,2611355.1710597,41.963816381638,0,0
-113.24210725418,-82.690076397659,36.768246824682,2538327.4188565,-1308.4863986644,2611355.1710597,41.968246824682,0,0
-113.24210671532,-82.705250703547,36.772677267727,2538327.4188565,-1308.4863986644,2611355.1710597,41.972677267727,0,0
-113.24210617645,-82.720425009435,36.777107710771,2538327.4188565,-1308.4863986644,2611355.1710597,41.977107710771,0,0
-113.24210563759,-82.735599315324,36.781538153815,2538327.4188565,-1308.4863986644,2611355.1710597,41.981538153815,0,0
-113.24210509873,-82.750773621212,36.78596859686,2538327.4188565,-1308.4863986644,2611355.1710597,41.98596859686,0,0
-113.24210455987,-82.7659479271,36.790399039904,2538327.4188565,-1308.4863986644,2611355.1710597,41.990399039904,0,0
-113.242104021,-82.781122232988,36.794829482948,2538327.4188565,-1308.4863986644,2611355.1710597,41.994829482948,0,0
-113.24210348214,-82.796296538876,36.799259925993,2538327.4188565,-1308.4863986644,2611355.1710597,41.999259925993,0,0
-113.24210294328,-82.811470844765,36.803690369037,2538327.4188565,-1308.4863986644,2611355.1710597,42.003690369037,0,0
-113.24210240441,-82.826645150653,36.808120812081,2538327.4188565,-1308.4863986644,2611355.1710597,42.008120812081,0,0
-113.24210186555,-82.841819456541,36.812551255126,2538327.4188565,-1308.4863986644,2611355.1710597,42.012551255126,0,0
-113.24210132669,-82.856993762429,36.81698169817,2538327.4188565,-1308.4863986644,2611355.1710597,42.01698169817,0,0
-113.24210078782,-82.872168068317,36.821412141214,2538327.4188565,-1308.4863986644,2611355.1710597,42.021412141214,0,0
-113.24210024896,-82.887342374206,36.825842584258,2538327.4188565,-1308.4863986644,2611355.1710597,42.025842584258,0,0
-113.2420997101,-82.902516680094,36.830273027303,2538327.4188565,-1308.4863986644,2611355.1710597,42.030273027303,0,0
-113.24209917124,-82.917690985982,36.834703470347,2538327.4188565,-1308.4863986644,2611355.1710597,42.034703470347,0,0
-113.24209863237,-82.93286529187,36.839133913391,2538327.4188565,-1308.4863986644,2611355.1710597,42.039133913391,0,0
-113.24209809351,-82.948039597758,36.843564356436,2538327.4188565,-1308.4863986644,2611355.1710597,42.043564356436,0,0
-113.24209755465,-82.963213903647,36.84799479948,2538327.4188565,-1308.4863986644,2611355.1710597,42.04799479948,0,0
-113.24209701578,-82.978388209535,36.852425242524,2538327.4188565,-1308.4863986644,2611355.1710597,42.052425242524,0,0
-113.24209647692,-82.993562515423,36.856855685569,2538327.4188565,-1308.4863986644,2611355.1710597,42.056855685569,0,0
-113.24209593806,-83.008736821311,36.861286128613,2538327.4188565,-1308.4863986644,2611355.1710597,42.061286128613,0,0
-113.2420953992,-83.023911127199,36.865716571657,2538327.4188565,-1308.4863986644,2611355.1710597,42.065716571657,0,0
-113.24209486033,-83.039085433088,36.870147014701,2538327.4188565,-1308.4863986644,2611355.1710597,42.070147014701,0,0
-113.24209432147,-83.054259738976,36.874577457746,2538327.4188565,-1308.4863986644,2611355.1710597,42.074577457746,0,0
-113.24209378261,-83.069434044864,36.87900790079,2538327.4188565,-1308.4863986644,2611355.1710597,42.07900790079,0,0
-113.24209324374,-83.084608350752,36.883438343834,2538327.4188565,-1308.4863986644,2611355.1710597,42.083438343834,0,0
-113.24209270488,-83.09978265664,36.887868786879,2538327.4188565,-1308.4863986644,2611355.1710597,42.087868786879,0,0
-113.24209216602,-83.114956962529,36.892299229923,2538327.4188565,-1308.4863986644,2611355.1710597,42.092299229923,0,0
-113.24209162715,-83.130131268417,36.896729672967,2538327.4188565,-1308.4863986644,2611355.1710597,42.096729672967,0,0
-113.24209108829,-83.145305574305,36.901160116012,2538327.4188565,-1308.4863986644,2611355.1710597,42.101160116012,0,0
-113.24209054943,-83.160479880193,36.905590559056,2538327.4188565,-1308.4863986644,2611355.1710597,42.105590559056,0,0
-113.24209001057,-83.175654186081,36.9100210021,2538327.4188565,-1308.4863986644,2611355.1710597,42.1100210021,0,0
-113.2420894717,-83.19082849197,36.914451445145,2538327.4188565,-1308.4863986644,2611355.1710597,42.114451445145,0,0
-113.24208893284,-83.206002797858,36.918881888189,2538327.4188565,-1308.4863986644,2611355.1710597,42.118881888189,0,0
-113.24208839398,-83.221177103746,36.923312331233,2538327.4188565,-1308.4863986644,2611355.1710597,42.123312331233,0,0
-113.24208785511,-83.236351409634,36.927742774277,2538327.4188565,-1308.4863986644,2611355.1710597,42.127742774277,0,0
-113.24208731625,-83.251525715522,36.932173217322,2538327.4188565,-1308.4863986644,2611355.1710597,42.132173217322,0,0
-113.24208677739,-83.26670002141,36.936603660366,2538327.4188565,-1308.4863986644,2611355.1710597,42.136603660366,0,0
-113.24208623853,-83.281874327299,36.94103410341,2538327.4188565,-1308.4863986644,2611355.1710597,42.14103410341,0,0
-113.24208569966,-83.297048633187,36.945464546455,2538327.4188565,-1308.4863986644,2611355.1710597,42.145464546455,0,0
-113.2420851608,-83.312222939075,36.949894989499,2538327.4188565,-1308.4863986644,2611355.1710597,42.149894989499,0,0
-113.24208462194,-83.327397244963,36.954325432543,2538327.4188565,-1308.4863986644,2611355.1710597,42.154325432543,0,0
-113.24208408307,-83.342571550851,36.958755875588,2538327.4188565,-1308.4863986644,2611355.1710597,42.158755875588,0,0
-113.24208354421,-83.35774585674,36.963186318632,2538327.4188565,-1308.4863986644,2611355.1710597,42.163186318632,0,0
-113.24208300535,-83.372920162628,36.967616761676,2538327.4188565,-1308.4863986644,2611355.1710597,42.167616761676,0,0
-113.24208246649,-83.388094468516,36.97204720472,2538327.4188565,-1308.4863986644,2611355.1710597,42.17204720472,0,0
-113.24208192762,-83.403268774404,36.976477647765,2538327.4188565,-1308.4863986644,2611355.1710597,42.176477647765,0,0
-113.24208138876,-83.418443080292,36.980908090809,2538327.4188565,-1308.4863986644,2611355.1710597,42.180908090809,0,0
-113.2420808499,-83.433617386181,36.985338533853,2538327.4188565,-1308.4863986644,2611355.1710597,42.185338533853,0,0
-113.24208031103,-83.448791692069,36.989768976898,2538327.4188565,-1308.4863986644,2611355.1710597,42.189768976898,0,0
-113.24207977217,-83.463965997957,36.994199419942,2538327.4188565,-1308.4863986644,2611355.1710597,42.194199419942,0,0
-113.24207923331,-83.479140303845,36.998629862986,2538327.4188565,-1308.4863986644,2611355.1710597,42.198629862986,0,0
-113.24207869444,-83.494314609733,37.003060306031,2538327.4188565,-1308.4863986644,2611355.1710597,42.203060306031,0,0
-113.24207815558,-83.509488915622,37.007490749075,2538327.4188565,-1308.4863986644,2611355.1710597,42.207490749075,0,0
-113.24207761672,-83.52466322151,37.011921192119,2538327.4188565,-1308.4863986644,2611355.1710597,42.211921192119,0,0
-113.24207707786,-83.539837527398,37.016351635164,2538327.4188565,-1308.4863986644,2611355.1710597,42.216351635164,0,0
-113.24207653899,-83.555011833286,37.020782078208,2538327.4188565,-1308.4863986644,2611355.1710597,42.220782078208,0,0
-113.24207600013,-83.570186139174,37.025212521252,2538327.4188565,-1308.4863986644,2611355.1710597,42.225212521252,0,0
-113.24207546127,-83.585360445063,37.029642964296,2538327.4188565,-1308.4863986644,2611355.1710597,42.229642964296,0,0
-113.2420749224,-83.600534750951,37.034073407341,2538327.4188565,-1308.4863986644,2611355.1710597,42.234073407341,0,0
-113.24207438354,-83.615709056839,37.038503850385,2538327.4188565,-1308.4863986644,2611355.1710597,42.238503850385,0,0
-113.24207384468,-83.630883362727,37.042934293429,2538327.4188565,-1308.4863986644,2611355.1710597,42.242934293429,0,0
-113.24207330582,-83.646057668615,37.047364736474,2538327.4188565,-1308.4863986644,2611355.1710597,42.247364736474,0,0
-113.24207276695,-83.661231974504,37.051795179518,2538327.4188565,-1308.4863986644,2611355.1710597,42.251795179518,0,0
-113.24207222809,-83.676406280392,37.056225622562,2538327.4188565,-1308.4863986644,2611355.1710597,42.256225622562,0,0
-113.24207168923,-83.69158058628,37.060656065607,2538327.4188565,-1308.4863986644,2611355.1710597,42.260656065607,0,0
-113.24207115036,-83.706754892168,37.065086508651,2538327.4188565,-1308.4863986644,2611355.1710597,42.265086508651,0,0
-113.2420706115,-83.721929198056,37.069516951695,2538327.4188565,-1308.4863986644,2611355.1710597,42.269516951695,0,0
-113.24207007264,-83.737103503945,37.073947394739,2538327.4188565,-1308.4863986644,2611355.1710597,42.273947394739,0,0
-113.24206953378,-83.752277809833,37.078377837784,2538327.4188565,-1308.4863986644,2611355.1710597,42.278377837784,0,0
-113.24206899491,-83.767452115721,37.082808280828,2538327.4188565,-1308.4863986644,2611355.1710597,42.282808280828,0,0
-113.24206845605,-83.782626421609,37.087238723872,2538327.4188565,-1308.4863986644,2611355.1710597,42.287238723872,0,0
-113.24206791719,-83.797800727497,37.091669166917,2538327.4188565,-1308.4863986644,2611355.1710597,42.291669166917,0,0
-113.24206737832,-83.812975033386,37.096099609961,2538327.4188565,-1308.4863986644,2611355.1710597,42.296099609961,0,0
-113.24206683946,-83.828149339274,37.100530053005,2538327.4188565,-1308.4863986644,2611355.1710597,42.300530053005,0,0
-113.2420663006,-83.843323645162,37.10496049605,2538327.4188565,-1308.4863986644,2611355.1710597,42.30496049605,0,0
-113.24206576173,-83.85849795105,37.109390939094,2538327.4188565,-1308.4863986644,2611355.1710597,42.309390939094,0,0
-113.24206522287,-83.873672256938,37.113821382138,2538327.4188565,-1308.4863986644,2611355.1710597,42.313821382138,0,0
-113.24206468401,-83.888846562826,37.118251825183,2538327.4188565,-1308.4863986644,2611355.1710597,42.318251825183,0,0
-113.24206414515,-83.904020868715,37.122682268227,2538327.4188565,-1308.4863986644,2611355.1710597,42.322682268227,0,0
-113.24206360628,-83.919195174603,37.127112711271,2538327.4188565,-1308.4863986644,2611355.1710597,42.327112711271,0,0
-113.24206306742,-83.934369480491,37.131543154315,2538327.4188565,-1308.4863986644,2611355.1710597,42.331543154315,0,0
-113.24206252856,-83.949543786379,37.13597359736,2538327.4188565,-1308.4863986644,2611355.1710597,42.33597359736,0,0
-113.24206198969,-83.964718092267,37.140404040404,2538327.4188565,-1308.4863986644,2611355.1710597,42.340404040404,0,0
-113.24206145083,-83.979892398156,37.144834483448,2538327.4188565,-1308.4863986644,2611355.1710597,42.344834483448,0,0
-113.24206091197,-83.995066704044,37.149264926493,2538327.4188565,-1308.4863986644,2611355.1710597,42.349264926493,0,0
-113.24206037311,-84.010241009932,37.153695369537,2538327.4188565,-1308.4863986644,2611355.1710597,42.353695369537,0,0
-113.24205983424,-84.02541531582,37.158125812581,2538327.4188565,-1308.4863986644,2611355.1710597,42.358125812581,0,0
-113.24205929538,-84.040589621708,37.162556255626,2538327.4188565,-1308.4863986644,2611355.1710597,42.362556255626,0,0
-113.24205875652,-84.055763927597,37.16698669867,2538327.4188565,-1308.4863986644,2611355.1710597,42.36698669867,0,0
-113.24205821765,-84.070938233485,37.171417141714,2538327.4188565,-1308.4863986644,2611355.1710597,42.371417141714,0,0
-113.24205767879,-84.086112539373,37.175847584758,2538327.4188565,-1308.4863986644,2611355.1710597,42.375847584758,0,0
-113.24205713993,-84.101286845261,37.180278027803,2538327.4188565,-1308.4863986644,2611355.1710597,42.380278027803,0,0
-113.24205660106,-84.116461151149,37.184708470847,2538327.4188565,-1308.4863986644,2611355.1710597,42.384708470847,0,0
-113.2420560622,-84.131635457038,37.189138913891,2538327.4188565,-1308.4863986644,2611355.1710597,42.389138913891,0,0
-113.24205552334,-84.146809762926,37.193569356936,2538327.4188565,-1308.4863986644,2611355.1710597,42.393569356936,0,0
-113.24205498448,-84.161984068814,37.19799979998,2538327.4188565,-1308.4863986644,2611355.1710597,42.39799979998,0,0
-113.24205444561,-84.177158374702,37.202430243024,2538327.4188565,-1308.4863986644,2611355.1710597,42.402430243024,0,0
-113.24205390675,-84.19233268059,37.206860686069,2538327.4188565,-1308.4863986644,2611355.1710597,42.406860686069,0,0
-113.24205336789,-84.207506986479,37.211291129113,2538327.4188565,-1308.4863986644,2611355.1710597,42.411291129113,0,0
-113.24205282902,-84.222681292367,37.215721572157,2538327.4188565,-1308.4863986644,2611355.1710597,42.415721572157,0,0
-113.24205229016,-84.237855598255,37.220152015202,2538327.4188565,-1308.4863986644,2611355.1710597,42.420152015202,0,0
-113.2420517513,-84.253029904143,37.224582458246,2538327.4188565,-1308.4863986644,2611355.1710597,42.424582458246,0,0
-113.24205121244,-84.268204210031,37.22901290129,2538327.4188565,-1308.4863986644,2611355.1710597,42.42901290129,0,0
-113.24205067357,-84.28337851592,37.233443344334,2538327.4188565,-1308.4863986644,2611355.1710597,42.433443344334,0,0
-113.24205013471,-84.298552821808,37.237873787379,2538327.4188565,-1308.4863986644,2611355.1710597,42.437873787379,0,0
-113.24204959585,-84.313727127696,37.242304230423,2538327.4188565,-1308.4863986644,2611355.1710597,42.442304230423,0,0
-113.24204905698,-84.328901433584,37.246734673467,2538327.4188565,-1308.4863986644,2611355.1710597,42.446734673467,0,0
-113.24204851812,-84.344075739472,37.251165116512,2538327.4188565,-1308.4863986644,2611355.1710597,42.451165116512,0,0
-113.24204797926,-84.359250045361,37.255595559556,2538327.4188565,-1308.4863986644,2611355.1710597,42.455595559556,0,0
-113.2420474404,-84.374424351249,37.2600260026,2538327.4188565,-1308.4863986644,2611355.1710597,42.4600260026,0,0
-113.24204690153,-84.389598657137,37.264456445645,2538327.4188565,-1308.4863986644,2611355.1710597,42.464456445645,0,0
-113.24204636267,-84.404772963025,37.268886888689,2538327.4188565,-1308.4863986644,2611355.1710597,42.468886888689,0,0
-113.24204582381,-84.419947268913,37.273317331733,2538327.4188565,-1308.4863986644,2611355.1710597,42.473317331733,0,0
-113.24204528494,-84.435121574802,37.277747774777,2538327.4188565,-1308.4863986644,2611355.1710597,42.477747774777,0,0
-113.24204474608,-84.45029588069,37.282178217822,2538327.4188565,-1308.4863986644,2611355.1710597,42.482178217822,0,0
-113.24204420722,-84.465470186578,37.286608660866,2538327.4188565,-1308.4863986644,2611355.1710597,42.486608660866,0,0
-113.24204366835,-84.480644492466,37.29103910391,2538327.4188565,-1308.4863986644,2611355.1710597,42.49103910391,0,0
-113.24204312949,-84.495818798354,37.295469546955,2538327.4188565,-1308.4863986644,2611355.1710597,42.495469546955,0,0
-113.24204259063,-84.510993104243,37.299899989999,2538327.4188565,-1308.4863986644,2611355.1710597,42.499899989999,0,0
-113.24204205177,-84.526167410131,37.304330433043,2538327.4188565,-1308.4863986644,2611355.1710597,42.504330433043,0,0
-113.2420415129,-84.541341716019,37.308760876088,2538327.4188565,-1308.4863986644,2611355.1710597,42.508760876088,0,0
-113.24204097404,-84.556516021907,37.313191319132,2538327.4188565,-1308.4863986644,2611355.1710597,42.513191319132,0,0
-113.24204043518,-84.571690327795,37.317621762176,2538327.4188565,-1308.4863986644,2611355.1710597,42.517621762176,0,0
-113.24203989631,-84.586864633683,37.322052205221,2538327.4188565,-1308.4863986644,2611355.1710597,42.522052205221,0,0
-113.24203935745,-84.602038939572,37.326482648265,2538327.4188565,-1308.4863986644,2611355.1710597,42.526482648265,0,0
-113.24203881859,-84.61721324546,37.330913091309,2538327.4188565,-1308.4863986644,2611355.1710597,42.530913091309,0,0
-113.24203827973,-84.632387551348,37.335343534353,2538327.4188565,-1308.4863986644,2611355.1710597,42.535343534353,0,0
-113.24203774086,-84.647561857236,37.339773977398,2538327.4188565,-1308.4863986644,2611355.1710597,42.539773977398,0,0
-113.242037202,-84.662736163124,37.344204420442,2538327.4188565,-1308.4863986644,2611355.1710597,42.544204420442,0,0
-113.24203666314,-84.677910469013,37.348634863486,2538327.4188565,-1308.4863986644,2611355.1710597,42.548634863486,0,0
-113.24203612427,-84.693084774901,37.353065306531,2538327.4188565,-1308.4863986644,2611355.1710597,42.553065306531,0,0
-113.24203558541,-84.708259080789,37.357495749575,2538327.4188565,-1308.4863986644,2611355.1710597,42.557495749575,0,0
-113.24203504655,-84.723433386677,37.361926192619,2538327.4188565,-1308.4863986644,2611355.1710597,42.561926192619,0,0
-113.24203450769,-84.738607692565,37.366356635664,2538327.4188565,-1308.4863986644,2611355.1710597,42.566356635664,0,0
-113.24203396882,-84.753781998454,37.370787078708,2538327.4188565,-1308.4863986644,2611355.1710597,42.570787078708,0,0
-113.24203342996,-84.768956304342,37.375217521752,2538327.4188565,-1308.4863986644,2611355.1710597,42.575217521752,0,0
-113.2420328911,-84.78413061023,37.379647964796,2538327.4188565,-1308.4863986644,2611355.1710597,42.579647964796,0,0
-113.24203235223,-84.799304916118,37.384078407841,2538327.4188565,-1308.4863986644,2611355.1710597,42.584078407841,0,0
-113.24203181337,-84.814479222006,37.388508850885,2538327.4188565,-1308.4863986644,2611355.1710597,42.588508850885,0,0
-113.24203127451,-84.829653527895,37.392939293929,2538327.4188565,-1308.4863986644,2611355.1710597,42.592939293929,0,0
-113.24203073564,-84.844827833783,37.397369736974,2538327.4188565,-1308.4863986644,2611355.1710597,42.597369736974,0,0
-113.24203019678,-84.860002139671,37.401800180018,2538327.4188565,-1308.4863986644,2611355.1710597,42.601800180018,0,0
-113.24202965792,-84.875176445559,37.406230623062,2538327.4188565,-1308.4863986644,2611355.1710597,42.606230623062,0,0
-113.24202911906,-84.890350751447,37.410661066107,2538327.4188565,-1308.4863986644,2611355.1710597,42.610661066107,0,0
-113.24202858019,-84.905525057336,37.415091509151,2538327.4188565,-1308.4863986644,2611355.1710597,42.615091509151,0,0
-113.24202804133,-84.920699363224,37.419521952195,2538327.4188565,-1308.4863986644,2611355.1710597,42.619521952195,0,0
-113.24202750247,-84.935873669112,37.42395239524,2538327.4188565,-1308.4863986644,2611355.1710597,42.62395239524,0,0
-113.2420269636,-84.951047975,37.428382838284,2538327.4188565,-1308.4863986644,2611355.1710597,42.628382838284,0,0
-113.24202642474,-84.966222280888,37.432813281328,2538327.4188565,-1308.4863986644,2611355.1710597,42.632813281328,0,0
-113.24202588588,-84.981396586777,37.437243724372,2538327.4188565,-1308.4863986644,2611355.1710597,42.637243724372,0,0
-113.24202534702,-84.996570892665,37.441674167417,2538327.4188565,-1308.4863986644,2611355.1710597,42.641674167417,0,0
-113.24202480815,-85.011745198553,37.446104610461,2538327.4188565,-1308.4863986644,2611355.1710597,42.646104610461,0,0
-113.24202426929,-85.026919504441,37.450535053505,2538327.4188565,-1308.4863986644,2611355.1710597,42.650535053505,0,0
-113.24202373043,-85.042093810329,37.45496549655,2538327.4188565,-1308.4863986644,2611355.1710597,42.65496549655,0,0
-113.24202319156,-85.057268116217,37.459395939594,2538327.4188565,-1308.4863986644,2611355.1710597,42.659395939594,0,0
-113.2420226527,-85.072442422106,37.463826382638,2538327.4188565,-1308.4863986644,2611355.1710597,42.663826382638,0,0
-113.24202211384,-85.087616727994,37.468256825683,2538327.4188565,-1308.4863986644,2611355.1710597,42.668256825683,0,0
-113.24202157497,-85.102791033882,37.472687268727,2538327.4188565,-1308.4863986644,2611355.1710597,42.672687268727,0,0
-113.24202103611,-85.11796533977,37.477117711771,2538327.4188565,-1308.4863986644,2611355.1710597,42.677117711771,0,0
-113.24202049725,-85.133139645658,37.481548154815,2538327.4188565,-1308.4863986644,2611355.1710597,42.681548154815,0,0
-113.24201995839,-85.148313951547,37.48597859786,2538327.4188565,-1308.4863986644,2611355.1710597,42.68597859786,0,0
-113.24201941952,-85.163488257435,37.490409040904,2538327.4188565,-1308.4863986644,2611355.1710597,42.690409040904,0,0
-113.24201888066,-85.178662563323,37.494839483948,2538327.4188565,-1308.4863986644,2611355.1710597,42.694839483948,0,0
-113.2420183418,-85.193836869211,37.499269926993,2538327.4188565,-1308.4863986644,2611355.1710597,42.699269926993,0,0
-113.24201780293,-85.209011175099,37.503700370037,2538327.4188565,-1308.4863986644,2611355.1710597,42.703700370037,0,0
-113.24201726407,-85.224185480988,37.508130813081,2538327.4188565,-1308.4863986644,2611355.1710597,42.708130813081,0,0
-113.24201672521,-85.239359786876,37.512561256126,2538327.4188565,-1308.4863986644,2611355.1710597,42.712561256126,0,0
-113.24201618635,-85.254534092764,37.51699169917,2538327.4188565,-1308.4863986644,2611355.1710597,42.71699169917,0,0
-113.24201564748,-85.269708398652,37.521422142214,2538327.4188565,-1308.4863986644,2611355.1710597,42.721422142214,0,0
-113.24201510862,-85.28488270454,37.525852585259,2538327.4188565,-1308.4863986644,2611355.1710597,42.725852585259,0,0
-113.24201456976,-85.300057010429,37.530283028303,2538327.4188565,-1308.4863986644,2611355.1710597,42.730283028303,0,0
-113.24201403089,-85.315231316317,37.534713471347,2538327.4188565,-1308.4863986644,2611355.1710597,42.734713471347,0,0
-113.24201349203,-85.330405622205,37.539143914391,2538327.4188565,-1308.4863986644,2611355.1710597,42.739143914391,0,0
-113.24201295317,-85.345579928093,37.543574357436,2538327.4188565,-1308.4863986644,2611355.1710597,42.743574357436,0,0
-113.24201241431,-85.360754233981,37.54800480048,2538327.4188565,-1308.4863986644,2611355.1710597,42.74800480048,0,0
-113.24201187544,-85.37592853987,37.552435243524,2538327.4188565,-1308.4863986644,2611355.1710597,42.752435243524,0,0
-113.24201133658,-85.391102845758,37.556865686569,2538327.4188565,-1308.4863986644,2611355.1710597,42.756865686569,0,0
-113.24201079772,-85.406277151646,37.561296129613,2538327.4188565,-1308.4863986644,2611355.1710597,42.761296129613,0,0
-113.24201025885,-85.421451457534,37.565726572657,2538327.4188565,-1308.4863986644,2611355.1710597,42.765726572657,0,0
-113.24200971999,-85.436625763422,37.570157015702,2538327.4188565,-1308.4863986644,2611355.1710597,42.770157015702,0,0
-113.24200918113,-85.451800069311,37.574587458746,2538327.4188565,-1308.4863986644,2611355.1710597,42.774587458746,0,0
-113.24200864226,-85.466974375199,37.57901790179,2538327.4188565,-1308.4863986644,2611355.1710597,42.77901790179,0,0
-113.2420081034,-85.482148681087,37.583448344834,2538327.4188565,-1308.4863986644,2611355.1710597,42.783448344834,0,0
-113.24200756454,-85.497322986975,37.587878787879,2538327.4188565,-1308.4863986644,2611355.1710597,42.787878787879,0,0
-113.24200702568,-85.512497292863,37.592309230923,2538327.4188565,-1308.4863986644,2611355.1710597,42.792309230923,0,0
-113.24200648681,-85.527671598752,37.596739673967,2538327.4188565,-1308.4863986644,2611355.1710597,42.796739673967,0,0
-113.24200594795,-85.54284590464,37.601170117012,2538327.4188565,-1308.4863986644,2611355.1710597,42.801170117012,0,0
-113.24200540909,-85.558020210528,37.605600560056,2538327.4188565,-1308.4863986644,2611355.1710597,42.805600560056,0,0
-113.24200487022,-85.573194516416,37.6100310031,2538327.4188565,-1308.4863986644,2611355.1710597,42.8100310031,0,0
-113.24200433136,-85.588368822304,37.614461446145,2538327.4188565,-1308.4863986644,2611355.1710597,42.814461446145,0,0
-113.2420037925,-85.603543128193,37.618891889189,2538327.4188565,-1308.4863986644,2611355.1710597,42.818891889189,0,0
-113.24200325364,-85.618717434081,37.623322332233,2538327.4188565,-1308.4863986644,2611355.1710597,42.823322332233,0,0
-113.24200271477,-85.633891739969,37.627752775278,2538327.4188565,-1308.4863986644,2611355.1710597,42.827752775278,0,0
-113.24200217591,-85.649066045857,37.632183218322,2538327.4188565,-1308.4863986644,2611355.1710597,42.832183218322,0,0
-113.24200163705,-85.664240351745,37.636613661366,2538327.4188565,-1308.4863986644,2611355.1710597,42.836613661366,0,0
-113.24200109818,-85.679414657633,37.64104410441,2538327.4188565,-1308.4863986644,2611355.1710597,42.84104410441,0,0
-113.24200055932,-85.694588963522,37.645474547455,2538327.4188565,-1308.4863986644,2611355.1710597,42.845474547455,0,0
-113.24200002046,-85.70976326941,37.649904990499,2538327.4188565,-1308.4863986644,2611355.1710597,42.849904990499,0,0
-113.2419994816,-85.724937575298,37.654335433543,2538327.4188565,-1308.4863986644,2611355.1710597,42.854335433543,0,0
-113.24199894273,-85.740111881186,37.658765876588,2538327.4188565,-1308.4863986644,2611355.1710597,42.858765876588,0,0
-113.24199840387,-85.755286187074,37.663196319632,2538327.4188565,-1308.4863986644,2611355.1710597,42.863196319632,0,0
-113.24199786501,-85.770460492963,37.667626762676,2538327.4188565,-1308.4863986644,2611355.1710597,42.867626762676,0,0
-113.24199732614,-85.785634798851,37.672057205721,2538327.4188565,-1308.4863986644,2611355.1710597,42.872057205721,0,0
-113.24199678728,-85.800809104739,37.676487648765,2538327.4188565,-1308.4863986644,2611355.1710597,42.876487648765,0,0
-113.24199624842,-85.815983410627,37.680918091809,2538327.4188565,-1308.4863986644,2611355.1710597,42.880918091809,0,0
-113.24199570955,-85.831157716515,37.685348534853,2538327.4188565,-1308.4863986644,2611355.1710597,42.885348534853,0,0
-113.24199517069,-85.846332022404,37.689778977898,2538327.4188565,-1308.4863986644,2611355.1710597,42.889778977898,0,0
-113.24199463183,-85.861506328292,37.694209420942,2538327.4188565,-1308.4863986644,2611355.1710597,42.894209420942,0,0
-113.24199409297,-85.87668063418,37.698639863986,2538327.4188565,-1308.4863986644,2611355.1710597,42.898639863986,0,0
-113.2419935541,-85.891854940068,37.703070307031,2538327.4188565,-1308.4863986644,2611355.1710597,42.903070307031,0,0
-113.24199301524,-85.907029245956,37.707500750075,2538327.4188565,-1308.4863986644,2611355.1710597,42.907500750075,0,0
-113.24199247638,-85.922203551845,37.711931193119,2538327.4188565,-1308.4863986644,2611355.1710597,42.911931193119,0,0
-113.24199193751,-85.937377857733,37.716361636164,2538327.4188565,-1308.4863986644,2611355.1710597,42.916361636164,0,0
-113.24199139865,-85.952552163621,37.720792079208,2538327.4188565,-1308.4863986644,2611355.1710597,42.920792079208,0,0
-113.24199085979,-85.967726469509,37.725222522252,2538327.4188565,-1308.4863986644,2611355.1710597,42.925222522252,0,0
-113.24199032093,-85.982900775397,37.729652965297,2538327.4188565,-1308.4863986644,2611355.1710597,42.929652965297,0,0
-113.24198978206,-85.998075081286,37.734083408341,2538327.4188565,-1308.4863986644,2611355.1710597,42.934083408341,0,0
-113.2419892432,-86.013249387174,37.738513851385,2538327.4188565,-1308.4863986644,2611355.1710597,42.938513851385,0,0
-113.24198870434,-86.028423693062,37.742944294429,2538327.4188565,-1308.4863986644,2611355.1710597,42.942944294429,0,0
-113.24198816547,-86.04359799895,37.747374737474,2538327.4188565,-1308.4863986644,2611355.1710597,42.947374737474,0,0
-113.24198762661,-86.058772304838,37.751805180518,2538327.4188565,-1308.4863986644,2611355.1710597,42.951805180518,0,0
-113.24198708775,-86.073946610727,37.756235623562,2538327.4188565,-1308.4863986644,2611355.1710597,42.956235623562,0,0
-113.24198654888,-86.089120916615,37.760666066607,2538327.4188565,-1308.4863986644,2611355.1710597,42.960666066607,0,0
-113.24198601002,-86.104295222503,37.765096509651,2538327.4188565,-1308.4863986644,2611355.1710597,42.965096509651,0,0
-113.24198547116,-86.119469528391,37.769526952695,2538327.4188565,-1308.4863986644,2611355.1710597,42.969526952695,0,0
-113.2419849323,-86.134643834279,37.77395739574,2538327.4188565,-1308.4863986644,2611355.1710597,42.97395739574,0,0
-113.24198439343,-86.149818140168,37.778387838784,2538327.4188565,-1308.4863986644,2611355.1710597,42.978387838784,0,0
-113.24198385457,-86.164992446056,37.782818281828,2538327.4188565,-1308.4863986644,2611355.1710597,42.982818281828,0,0
-113.24198331571,-86.180166751944,37.787248724872,2538327.4188565,-1308.4863986644,2611355.1710597,42.987248724872,0,0
-113.24198277684,-86.195341057832,37.791679167917,2538327.4188565,-1308.4863986644,2611355.1710597,42.991679167917,0,0
-113.24198223798,-86.21051536372,37.796109610961,2538327.4188565,-1308.4863986644,2611355.1710597,42.996109610961,0,0
-113.24198169912,-86.225689669609,37.800540054005,2538327.4188565,-1308.4863986644,2611355.1710597,43.000540054005,0,0
-113.24198116026,-86.240863975497,37.80497049705,2538327.4188565,-1308.4863986644,2611355.1710597,43.00497049705,0,0
-113.24198062139,-86.256038281385,37.809400940094,2538327.4188565,-1308.4863986644,2611355.1710597,43.009400940094,0,0
-113.24198008253,-86.271212587273,37.813831383138,2538327.4188565,-1308.4863986644,2611355.1710597,43.013831383138,0,0
-113.24197954367,-86.286386893161,37.818261826183,2538327.4188565,-1308.4863986644,2611355.1710597,43.018261826183,0,0
-113.2419790048,-86.301561199049,37.822692269227,2538327.4188565,-1308.4863986644,2611355.1710597,43.022692269227,0,0
-113.24197846594,-86.316735504938,37.827122712271,2538327.4188565,-1308.4863986644,2611355.1710597,43.027122712271,0,0
-113.24197792708,-86.331909810826,37.831553155316,2538327.4188565,-1308.4863986644,2611355.1710597,43.031553155316,0,0
-113.24197738822,-86.347084116714,37.83598359836,2538327.4188565,-1308.4863986644,2611355.1710597,43.03598359836,0,0
-113.24197684935,-86.362258422602,37.840414041404,2538327.4188565,-1308.4863986644,2611355.1710597,43.040414041404,0,0
-113.24197631049,-86.37743272849,37.844844484448,2538327.4188565,-1308.4863986644,2611355.1710597,43.044844484448,0,0
-113.24197577163,-86.392607034379,37.849274927493,2538327.4188565,-1308.4863986644,2611355.1710597,43.049274927493,0,0
-113.24197523276,-86.407781340267,37.853705370537,2538327.4188565,-1308.4863986644,2611355.1710597,43.053705370537,0,0
-113.2419746939,-86.422955646155,37.858135813581,2538327.4188565,-1308.4863986644,2611355.1710597,43.058135813581,0,0
-113.24197415504,-86.438129952043,37.862566256626,2538327.4188565,-1308.4863986644,2611355.1710597,43.062566256626,0,0
-113.24197361617,-86.453304257931,37.86699669967,2538327.4188565,-1308.4863986644,2611355.1710597,43.06699669967,0,0
-113.24197307731,-86.46847856382,37.871427142714,2538327.4188565,-1308.4863986644,2611355.1710597,43.071427142714,0,0
-113.24197253845,-86.483652869708,37.875857585759,2538327.4188565,-1308.4863986644,2611355.1710597,43.075857585759,0,0
-113.24197199959,-86.498827175596,37.880288028803,2538327.4188565,-1308.4863986644,2611355.1710597,43.080288028803,0,0
-113.24197146072,-86.514001481484,37.884718471847,2538327.4188565,-1308.4863986644,2611355.1710597,43.084718471847,0,0
-113.24197092186,-86.529175787372,37.889148914891,2538327.4188565,-1308.4863986644,2611355.1710597,43.089148914891,0,0
-113.241970383,-86.544350093261,37.893579357936,2538327.4188565,-1308.4863986644,2611355.1710597,43.093579357936,0,0
-113.24196984413,-86.559524399149,37.89800980098,2538327.4188565,-1308.4863986644,2611355.1710597,43.09800980098,0,0
-113.24196930527,-86.574698705037,37.902440244024,2538327.4188565,-1308.4863986644,2611355.1710597,43.102440244024,0,0
-113.24196876641,-86.589873010925,37.906870687069,2538327.4188565,-1308.4863986644,2611355.1710597,43.106870687069,0,0
-113.24196822755,-86.605047316813,37.911301130113,2538327.4188565,-1308.4863986644,2611355.1710597,43.111301130113,0,0
-113.24196768868,-86.620221622702,37.915731573157,2538327.4188565,-1308.4863986644,2611355.1710597,43.115731573157,0,0
-113.24196714982,-86.63539592859,37.920162016202,2538327.4188565,-1308.4863986644,2611355.1710597,43.120162016202,0,0
-113.24196661096,-86.650570234478,37.924592459246,2538327.4188565,-1308.4863986644,2611355.1710597,43.124592459246,0,0
-113.24196607209,-86.665744540366,37.92902290229,2538327.4188565,-1308.4863986644,2611355.1710597,43.12902290229,0,0
-113.24196553323,-86.680918846254,37.933453345335,2538327.4188565,-1308.4863986644,2611355.1710597,43.133453345335,0,0
-113.24196499437,-86.696093152143,37.937883788379,2538327.4188565,-1308.4863986644,2611355.1710597,43.137883788379,0,0
-113.2419644555,-86.711267458031,37.942314231423,2538327.4188565,-1308.4863986644,2611355.1710597,43.142314231423,0,0
-113.24196391664,-86.726441763919,37.946744674467,2538327.4188565,-1308.4863986644,2611355.1710597,43.146744674467,0,0
-113.24196337778,-86.741616069807,37.951175117512,2538327.4188565,-1308.4863986644,2611355.1710597,43.151175117512,0,0
-113.24196283892,-86.756790375695,37.955605560556,2538327.4188565,-1308.4863986644,2611355.1710597,43.155605560556,0,0
-113.24196230005,-86.771964681584,37.9600360036,2538327.4188565,-1308.4863986644,2611355.1710597,43.1600360036,0,0
-113.24196176119,-86.787138987472,37.964466446645,2538327.4188565,-1308.4863986644,2611355.1710597,43.164466446645,0,0
-113.24196122233,-86.80231329336,37.968896889689,2538327.4188565,-1308.4863986644,2611355.1710597,43.168896889689,0,0
-113.24196068346,-86.817487599248,37.973327332733,2538327.4188565,-1308.4863986644,2611355.1710597,43.173327332733,0,0
-113.2419601446,-86.832661905136,37.977757775778,2538327.4188565,-1308.4863986644,2611355.1710597,43.177757775778,0,0
-113.24195960574,-86.847836211025,37.982188218822,2538327.4188565,-1308.4863986644,2611355.1710597,43.182188218822,0,0
-113.24195906688,-86.863010516913,37.986618661866,2538327.4188565,-1308.4863986644,2611355.1710597,43.186618661866,0,0
-113.24195852801,-86.878184822801,37.99104910491,2538327.4188565,-1308.4863986644,2611355.1710597,43.19104910491,0,0
-113.24195798915,-86.893359128689,37.995479547955,2538327.4188565,-1308.4863986644,2611355.1710597,43.195479547955,0,0
-113.24195745029,-86.908533434577,37.999909990999,2538327.4188565,-1308.4863986644,2611355.1710597,43.199909990999,0,0
-113.24195691142,-86.923707740465,38.004340434043,2538327.4188565,-1308.4863986644,2611355.1710597,43.204340434043,0,0
-113.24195637256,-86.938882046354,38.008770877088,2538327.4188565,-1308.4863986644,2611355.1710597,43.208770877088,0,0
-113.2419558337,-86.954056352242,38.013201320132,2538327.4188565,-1308.4863986644,2611355.1710597,43.213201320132,0,0
-113.24195529484,-86.96923065813,38.017631763176,2538327.4188565,-1308.4863986644,2611355.1710597,43.217631763176,0,0
-113.24195475597,-86.984404964018,38.022062206221,2538327.4188565,-1308.4863986644,2611355.1710597,43.222062206221,0,0
-113.24195421711,-86.999579269906,38.026492649265,2538327.4188565,-1308.4863986644,2611355.1710597,43.226492649265,0,0
-113.24195367825,-87.014753575795,38.030923092309,2538327.4188565,-1308.4863986644,2611355.1710597,43.230923092309,0,0
-113.24195313938,-87.029927881683,38.035353535354,2538327.4188565,-1308.4863986644,2611355.1710597,43.235353535354,0,0
-113.24195260052,-87.045102187571,38.039783978398,2538327.4188565,-1308.4863986644,2611355.1710597,43.239783978398,0,0
-113.24195206166,-87.060276493459,38.044214421442,2538327.4188565,-1308.4863986644,2611355.1710597,43.244214421442,0,0
-113.24195152279,-87.075450799347,38.048644864486,2538327.4188565,-1308.4863986644,2611355.1710597,43.248644864486,0,0
-113.24195098393,-87.090625105236,38.053075307531,2538327.4188565,-1308.4863986644,2611355.1710597,43.253075307531,0,0
-113.24195044507,-87.105799411124,38.057505750575,2538327.4188565,-1308.4863986644,2611355.1710597,43.257505750575,0,0
-113.24194990621,-87.120973717012,38.061936193619,2538327.4188565,-1308.4863986644,2611355.1710597,43.261936193619,0,0
-113.24194936734,-87.1361480229,38.066366636664,2538327.4188565,-1308.4863986644,2611355.1710597,43.266366636664,0,0
-113.24194882848,-87.151322328788,38.070797079708,2538327.4188565,-1308.4863986644,2611355.1710597,43.270797079708,0,0
-113.24194828962,-87.166496634677,38.075227522752,2538327.4188565,-1308.4863986644,2611355.1710597,43.275227522752,0,0
-113.24194775075,-87.181670940565,38.079657965797,2538327.4188565,-1308.4863986644,2611355.1710597,43.279657965797,0,0
-113.24194721189,-87.196845246453,38.084088408841,2538327.4188565,-1308.4863986644,2611355.1710597,43.284088408841,0,0
-113.24194667303,-87.212019552341,38.088518851885,2538327.4188565,-1308.4863986644,2611355.1710597,43.288518851885,0,0
-113.24194613417,-87.227193858229,38.092949294929,2538327.4188565,-1308.4863986644,2611355.1710597,43.292949294929,0,0
-113.2419455953,-87.242368164118,38.097379737974,2538327.4188565,-1308.4863986644,2611355.1710597,43.297379737974,0,0
-113.24194505644,-87.257542470006,38.101810181018,2538327.4188565,-1308.4863986644,2611355.1710597,43.301810181018,0,0
-113.24194451758,-87.272716775894,38.106240624062,2538327.4188565,-1308.4863986644,2611355.1710597,43.306240624062,0,0
-113.24194397871,-87.287891081782,38.110671067107,2538327.4188565,-1308.4863986644,2611355.1710597,43.310671067107,0,0
-113.24194343985,-87.30306538767,38.115101510151,2538327.4188565,-1308.4863986644,2611355.1710597,43.315101510151,0,0
-113.24194290099,-87.318239693559,38.119531953195,2538327.4188565,-1308.4863986644,2611355.1710597,43.319531953195,0,0
-113.24194236213,-87.333413999447,38.12396239624,2538327.4188565,-1308.4863986644,2611355.1710597,43.32396239624,0,0
-113.24194182326,-87.348588305335,38.128392839284,2538327.4188565,-1308.4863986644,2611355.1710597,43.328392839284,0,0
-113.2419412844,-87.363762611223,38.132823282328,2538327.4188565,-1308.4863986644,2611355.1710597,43.332823282328,0,0
-113.24194074554,-87.378936917111,38.137253725373,2538327.4188565,-1308.4863986644,2611355.1710597,43.337253725373,0,0
-113.24194020667,-87.394111223,38.141684168417,2538327.4188565,-1308.4863986644,2611355.1710597,43.341684168417,0,0
-113.24193966781,-87.409285528888,38.146114611461,2538327.4188565,-1308.4863986644,2611355.1710597,43.346114611461,0,0
-113.24193912895,-87.424459834776,38.150545054505,2538327.4188565,-1308.4863986644,2611355.1710597,43.350545054505,0,0
-113.24193859008,-87.439634140664,38.15497549755,2538327.4188565,-1308.4863986644,2611355.1710597,43.35497549755,0,0
-113.24193805122,-87.454808446552,38.159405940594,2538327.4188565,-1308.4863986644,2611355.1710597,43.359405940594,0,0
-113.24193751236,-87.469982752441,38.163836383638,2538327.4188565,-1308.4863986644,2611355.1710597,43.363836383638,0,0
-113.2419369735,-87.485157058329,38.168266826683,2538327.4188565,-1308.4863986644,2611355.1710597,43.368266826683,0,0
-113.24193643463,-87.500331364217,38.172697269727,2538327.4188565,-1308.4863986644,2611355.1710597,43.372697269727,0,0
-113.24193589577,-87.515505670105,38.177127712771,2538327.4188565,-1308.4863986644,2611355.1710597,43.377127712771,0,0
-113.24193535691,-87.530679975993,38.181558155816,2538327.4188565,-1308.4863986644,2611355.1710597,43.381558155816,0,0
-113.24193481804,-87.545854281881,38.18598859886,2538327.4188565,-1308.4863986644,2611355.1710597,43.38598859886,0,0
-113.24193427918,-87.56102858777,38.190419041904,2538327.4188565,-1308.4863986644,2611355.1710597,43.390419041904,0,0
-113.24193374032,-87.576202893658,38.194849484948,2538327.4188565,-1308.4863986644,2611355.1710597,43.394849484948,0,0
-113.24193320146,-87.591377199546,38.199279927993,2538327.4188565,-1308.4863986644,2611355.1710597,43.399279927993,0,0
-113.24193266259,-87.606551505434,38.203710371037,2538327.4188565,-1308.4863986644,2611355.1710597,43.403710371037,0,0
-113.24193212373,-87.621725811322,38.208140814081,2538327.4188565,-1308.4863986644,2611355.1710597,43.408140814081,0,0
-113.24193158487,-87.636900117211,38.212571257126,2538327.4188565,-1308.4863986644,2611355.1710597,43.412571257126,0,0
-113.241931046,-87.652074423099,38.21700170017,2538327.4188565,-1308.4863986644,2611355.1710597,43.41700170017,0,0
-113.24193050714,-87.667248728987,38.221432143214,2538327.4188565,-1308.4863986644,2611355.1710597,43.421432143214,0,0
-113.24192996828,-87.682423034875,38.225862586259,2538327.4188565,-1308.4863986644,2611355.1710597,43.425862586259,0,0
-113.24192942941,-87.697597340763,38.230293029303,2538327.4188565,-1308.4863986644,2611355.1710597,43.430293029303,0,0
-113.24192889055,-87.712771646652,38.234723472347,2538327.4188565,-1308.4863986644,2611355.1710597,43.434723472347,0,0
-113.24192835169,-87.72794595254,38.239153915392,2538327.4188565,-1308.4863986644,2611355.1710597,43.439153915392,0,0
-113.24192781283,-87.743120258428,38.243584358436,2538327.4188565,-1308.4863986644,2611355.1710597,43.443584358436,0,0
-113.24192727396,-87.758294564316,38.24801480148,2538327.4188565,-1308.4863986644,2611355.1710597,43.44801480148,0,0
-113.2419267351,-87.773468870204,38.252445244524,2538327.4188565,-1308.4863986644,2611355.1710597,43.452445244524,0,0
-113.24192619624,-87.788643176093,38.256875687569,2538327.4188565,-1308.4863986644,2611355.1710597,43.456875687569,0,0
-113.24192565737,-87.803817481981,38.261306130613,2538327.4188565,-1308.4863986644,2611355.1710597,43.461306130613,0,0
-113.24192511851,-87.818991787869,38.265736573657,2538327.4188565,-1308.4863986644,2611355.1710597,43.465736573657,0,0
-113.24192457965,-87.834166093757,38.270167016702,2538327.4188565,-1308.4863986644,2611355.1710597,43.470167016702,0,0
-113.24192404079,-87.849340399645,38.274597459746,2538327.4188565,-1308.4863986644,2611355.1710597,43.474597459746,0,0
-113.24192350192,-87.864514705534,38.27902790279,2538327.4188565,-1308.4863986644,2611355.1710597,43.47902790279,0,0
-113.24192296306,-87.879689011422,38.283458345835,2538327.4188565,-1308.4863986644,2611355.1710597,43.483458345835,0,0
-113.2419224242,-87.89486331731,38.287888788879,2538327.4188565,-1308.4863986644,2611355.1710597,43.487888788879,0,0
-113.24192188533,-87.910037623198,38.292319231923,2538327.4188565,-1308.4863986644,2611355.1710597,43.492319231923,0,0
-113.24192134647,-87.925211929086,38.296749674967,2538327.4188565,-1308.4863986644,2611355.1710597,43.496749674967,0,0
-113.24192080761,-87.940386234975,38.301180118012,2538327.4188565,-1308.4863986644,2611355.1710597,43.501180118012,0,0
-113.24192026875,-87.955560540863,38.305610561056,2538327.4188565,-1308.4863986644,2611355.1710597,43.505610561056,0,0
-113.24191972988,-87.970734846751,38.3100410041,2538327.4188565,-1308.4863986644,2611355.1710597,43.5100410041,0,0
-113.24191919102,-87.985909152639,38.314471447145,2538327.4188565,-1308.4863986644,2611355.1710597,43.514471447145,0,0
-113.24191865216,-88.001083458527,38.318901890189,2538327.4188565,-1308.4863986644,2611355.1710597,43.518901890189,0,0
-113.24191811329,-88.016257764415,38.323332333233,2538327.4188565,-1308.4863986644,2611355.1710597,43.523332333233,0,0
-113.24191757443,-88.031432070304,38.327762776278,2538327.4188565,-1308.4863986644,2611355.1710597,43.527762776278,0,0
-113.24191703557,-88.046606376192,38.332193219322,2538327.4188565,-1308.4863986644,2611355.1710597,43.532193219322,0,0
-113.2419164967,-88.06178068208,38.336623662366,2538327.4188565,-1308.4863986644,2611355.1710597,43.536623662366,0,0
-113.24191595784,-88.076954987968,38.341054105411,2538327.4188565,-1308.4863986644,2611355.1710597,43.541054105411,0,0
-113.24191541898,-88.092129293856,38.345484548455,2538327.4188565,-1308.4863986644,2611355.1710597,43.545484548455,0,0
-113.24191488012,-88.107303599745,38.349914991499,2538327.4188565,-1308.4863986644,2611355.1710597,43.549914991499,0,0
-113.24191434125,-88.122477905633,38.354345434543,2538327.4188565,-1308.4863986644,2611355.1710597,43.554345434543,0,0
-113.24191380239,-88.137652211521,38.358775877588,2538327.4188565,-1308.4863986644,2611355.1710597,43.558775877588,0,0
-113.24191326353,-88.152826517409,38.363206320632,2538327.4188565,-1308.4863986644,2611355.1710597,43.563206320632,0,0
-113.24191272466,-88.168000823297,38.367636763676,2538327.4188565,-1308.4863986644,2611355.1710597,43.567636763676,0,0
-113.2419121858,-88.183175129186,38.372067206721,2538327.4188565,-1308.4863986644,2611355.1710597,43.572067206721,0,0
-113.24191164694,-88.198349435074,38.376497649765,2538327.4188565,-1308.4863986644,2611355.1710597,43.576497649765,0,0
-113.24191110808,-88.213523740962,38.380928092809,2538327.4188565,-1308.4863986644,2611355.1710597,43.580928092809,0,0
-113.24191056921,-88.22869804685,38.385358535854,2538327.4188565,-1308.4863986644,2611355.1710597,43.585358535854,0,0
-113.24191003035,-88.243872352738,38.389788978898,2538327.4188565,-1308.4863986644,2611355.1710597,43.589788978898,0,0
-113.24190949149,-88.259046658627,38.394219421942,2538327.4188565,-1308.4863986644,2611355.1710597,43.594219421942,0,0
-113.24190895262,-88.274220964515,38.398649864986,2538327.4188565,-1308.4863986644,2611355.1710597,43.598649864986,0,0
-113.24190841376,-88.289395270403,38.403080308031,2538327.4188565,-1308.4863986644,2611355.1710597,43.603080308031,0,0
-113.2419078749,-88.304569576291,38.407510751075,2538327.4188565,-1308.4863986644,2611355.1710597,43.607510751075,0,0
-113.24190733604,-88.319743882179,38.411941194119,2538327.4188565,-1308.4863986644,2611355.1710597,43.611941194119,0,0
-113.24190679717,-88.334918188068,38.416371637164,2538327.4188565,-1308.4863986644,2611355.1710597,43.616371637164,0,0
-113.24190625831,-88.350092493956,38.420802080208,2538327.4188565,-1308.4863986644,2611355.1710597,43.620802080208,0,0
-113.24190571945,-88.365266799844,38.425232523252,2538327.4188565,-1308.4863986644,2611355.1710597,43.625232523252,0,0
-113.24190518058,-88.380441105732,38.429662966297,2538327.4188565,-1308.4863986644,2611355.1710597,43.629662966297,0,0
-113.24190464172,-88.39561541162,38.434093409341,2538327.4188565,-1308.4863986644,2611355.1710597,43.634093409341,0,0
-113.24190410286,-88.410789717509,38.438523852385,2538327.4188565,-1308.4863986644,2611355.1710597,43.638523852385,0,0
-113.24190356399,-88.425964023397,38.44295429543,2538327.4188565,-1308.4863986644,2611355.1710597,43.64295429543,0,0
-113.24190302513,-88.441138329285,38.447384738474,2538327.4188565,-1308.4863986644,2611355.1710597,43.647384738474,0,0
-113.24190248627,-88.456312635173,38.451815181518,2538327.4188565,-1308.4863986644,2611355.1710597,43.651815181518,0,0
-113.24190194741,-88.471486941061,38.456245624562,2538327.4188565,-1308.4863986644,2611355.1710597,43.656245624562,0,0
-113.24190140854,-88.48666124695,38.460676067607,2538327.4188565,-1308.4863986644,2611355.1710597,43.660676067607,0,0
-113.24190086968,-88.501835552838,38.465106510651,2538327.4188565,-1308.4863986644,2611355.1710597,43.665106510651,0,0
-113.24190033082,-88.517009858726,38.469536953695,2538327.4188565,-1308.4863986644,2611355.1710597,43.669536953695,0,0
-113.24189979195,-88.532184164614,38.47396739674,2538327.4188565,-1308.4863986644,2611355.1710597,43.67396739674,0,0
-113.24189925309,-88.547358470502,38.478397839784,2538327.4188565,-1308.4863986644,2611355.1710597,43.678397839784,0,0
-113.24189871423,-88.562532776391,38.482828282828,2538327.4188565,-1308.4863986644,2611355.1710597,43.682828282828,0,0
-113.24189817537,-88.577707082279,38.487258725873,2538327.4188565,-1308.4863986644,2611355.1710597,43.687258725873,0,0
-113.2418976365,-88.592881388167,38.491689168917,2538327.4188565,-1308.4863986644,2611355.1710597,43.691689168917,0,0
-113.24189709764,-88.608055694055,38.496119611961,2538327.4188565,-1308.4863986644,2611355.1710597,43.696119611961,0,0
-113.24189655878,-88.623229999943,38.500550055005,2538327.4188565,-1308.4863986644,2611355.1710597,43.700550055006,0,0
-113.24189601991,-88.638404305832,38.50498049805,2538327.4188565,-1308.4863986644,2611355.1710597,43.70498049805,0,0
-113.24189548105,-88.65357861172,38.509410941094,2538327.4188565,-1308.4863986644,2611355.1710597,43.709410941094,0,0
-113.24189494219,-88.668752917608,38.513841384138,2538327.4188565,-1308.4863986644,2611355.1710597,43.713841384138,0,0
-113.24189440332,-88.683927223496,38.518271827183,2538327.4188565,-1308.4863986644,2611355.1710597,43.718271827183,0,0
-113.24189386446,-88.699101529384,38.522702270227,2538327.4188565,-1308.4863986644,2611355.1710597,43.722702270227,0,0
-113.2418933256,-88.714275835272,38.527132713271,2538327.4188565,-1308.4863986644,2611355.1710597,43.727132713271,0,0
-113.24189278674,-88.729450141161,38.531563156316,2538327.4188565,-1308.4863986644,2611355.1710597,43.731563156316,0,0
-113.24189224787,-88.744624447049,38.53599359936,2538327.4188565,-1308.4863986644,2611355.1710597,43.73599359936,0,0
-113.24189170901,-88.759798752937,38.540424042404,2538327.4188565,-1308.4863986644,2611355.1710597,43.740424042404,0,0
-113.24189117015,-88.774973058825,38.544854485449,2538327.4188565,-1308.4863986644,2611355.1710597,43.744854485449,0,0
-113.24189063128,-88.790147364713,38.549284928493,2538327.4188565,-1308.4863986644,2611355.1710597,43.749284928493,0,0
-113.24189009242,-88.805321670602,38.553715371537,2538327.4188565,-1308.4863986644,2611355.1710597,43.753715371537,0,0
-113.24188955356,-88.82049597649,38.558145814581,2538327.4188565,-1308.4863986644,2611355.1710597,43.758145814581,0,0
-113.2418890147,-88.835670282378,38.562576257626,2538327.4188565,-1308.4863986644,2611355.1710597,43.762576257626,0,0
-113.24188847583,-88.850844588266,38.56700670067,2538327.4188565,-1308.4863986644,2611355.1710597,43.76700670067,0,0
-113.24188793697,-88.866018894154,38.571437143714,2538327.4188565,-1308.4863986644,2611355.1710597,43.771437143714,0,0
-113.24188739811,-88.881193200043,38.575867586759,2538327.4188565,-1308.4863986644,2611355.1710597,43.775867586759,0,0
-113.24188685924,-88.896367505931,38.580298029803,2538327.4188565,-1308.4863986644,2611355.1710597,43.780298029803,0,0
-113.24188632038,-88.911541811819,38.584728472847,2538327.4188565,-1308.4863986644,2611355.1710597,43.784728472847,0,0
-113.24188578152,-88.926716117707,38.589158915892,2538327.4188565,-1308.4863986644,2611355.1710597,43.789158915892,0,0
-113.24188524266,-88.941890423595,38.593589358936,2538327.4188565,-1308.4863986644,2611355.1710597,43.793589358936,0,0
-113.24188470379,-88.957064729484,38.59801980198,2538327.4188565,-1308.4863986644,2611355.1710597,43.79801980198,0,0
-113.24188416493,-88.972239035372,38.602450245024,2538327.4188565,-1308.4863986644,2611355.1710597,43.802450245025,0,0
-113.24188362607,-88.98741334126,38.606880688069,2538327.4188565,-1308.4863986644,2611355.1710597,43.806880688069,0,0
-113.2418830872,-89.002587647148,38.611311131113,2538327.4188565,-1308.4863986644,2611355.1710597,43.811311131113,0,0
-113.24188254834,-89.017761953036,38.615741574157,2538327.4188565,-1308.4863986644,2611355.1710597,43.815741574157,0,0
-113.24188200948,-89.032936258925,38.620172017202,2538327.4188565,-1308.4863986644,2611355.1710597,43.820172017202,0,0
-113.24188147061,-89.048110564813,38.624602460246,2538327.4188565,-1308.4863986644,2611355.1710597,43.824602460246,0,0
-113.24188093175,-89.063284870701,38.62903290329,2538327.4188565,-1308.4863986644,2611355.1710597,43.82903290329,0,0
-113.24188039289,-89.078459176589,38.633463346335,2538327.4188565,-1308.4863986644,2611355.1710597,43.833463346335,0,0
-113.24187985403,-89.093633482477,38.637893789379,2538327.4188565,-1308.4863986644,2611355.1710597,43.837893789379,0,0
-113.24187931516,-89.108807788366,38.642324232423,2538327.4188565,-1308.4863986644,2611355.1710597,43.842324232423,0,0
-113.2418787763,-89.123982094254,38.646754675468,2538327.4188565,-1308.4863986644,2611355.1710597,43.846754675468,0,0
-113.24187823744,-89.139156400142,38.651185118512,2538327.4188565,-1308.4863986644,2611355.1710597,43.851185118512,0,0
-113.24187769857,-89.15433070603,38.655615561556,2538327.4188565,-1308.4863986644,2611355.1710597,43.855615561556,0,0
-113.24187715971,-89.169505011918,38.6600460046,2538327.4188565,-1308.4863986644,2611355.1710597,43.8600460046,0,0
-113.24187662085,-89.184679317806,38.664476447645,2538327.4188565,-1308.4863986644,2611355.1710597,43.864476447645,0,0
-113.24187608199,-89.199853623695,38.668906890689,2538327.4188565,-1308.4863986644,2611355.1710597,43.868906890689,0,0
-113.24187554312,-89.215027929583,38.673337333733,2538327.4188565,-1308.4863986644,2611355.1710597,43.873337333733,0,0
-113.24187500426,-89.230202235471,38.677767776778,2538327.4188565,-1308.4863986644,2611355.1710597,43.877767776778,0,0
-113.2418744654,-89.245376541359,38.682198219822,2538327.4188565,-1308.4863986644,2611355.1710597,43.882198219822,0,0
-113.24187392653,-89.260550847248,38.686628662866,2538327.4188565,-1308.4863986644,2611355.1710597,43.886628662866,0,0
-113.24187338767,-89.275725153136,38.691059105911,2538327.4188565,-1308.4863986644,2611355.1710597,43.891059105911,0,0
-113.24187284881,-89.290899459024,38.695489548955,2538327.4188565,-1308.4863986644,2611355.1710597,43.895489548955,0,0
-113.24187230995,-89.306073764912,38.699919991999,2538327.4188565,-1308.4863986644,2611355.1710597,43.899919991999,0,0
-113.24187177108,-89.3212480708,38.704350435044,2538327.4188565,-1308.4863986644,2611355.1710597,43.904350435044,0,0
-113.24187123222,-89.336422376688,38.708780878088,2538327.4188565,-1308.4863986644,2611355.1710597,43.908780878088,0,0
-113.24187069336,-89.351596682577,38.713211321132,2538327.4188565,-1308.4863986644,2611355.1710597,43.913211321132,0,0
-113.24187015449,-89.366770988469,38.717641764176,2538505.4786068,-1306.8381563727,2611333.0003043,43.917641764176,0,0
-113.24186961559,-89.381945294377,38.722072207221,2538505.4786068,-1306.8381563727,2611333.0003043,43.922072207221,0,0
-113.2418690767,-89.397119600284,38.726502650265,2538505.4786068,-1306.8381563727,2611333.0003043,43.926502650265,0,0
-113.24186853781,-89.412293906191,38.730933093309,2538505.4786068,-1306.8381563727,2611333.0003043,43.930933093309,0,0
-113.24186799892,-89.427468212098,38.735363536354,2538505.4786068,-1306.8381563727,2611333.0003043,43.935363536354,0,0
-113.24186746002,-89.442642518005,38.739793979398,2538505.4786068,-1306.8381563727,2611333.0003043,43.939793979398,0,0
-113.24186692091,-89.457816823898,38.744224422442,2540436.4977737,-1568.7670359572,2611909.2756091,43.944224422442,0,0
-113.24186638174,-89.472991129786,38.748654865487,2540436.4977737,-1568.7670359572,2611909.2756091,43.948654865487,0,0
-113.24186584257,-89.488165435675,38.753085308531,2540436.4977737,-1568.7670359572,2611909.2756091,43.953085308531,0,0
-113.2418653034,-89.503339741564,38.757515751575,2540436.4977737,-1568.7670359572,2611909.2756091,43.957515751575,0,0
-113.24186476423,-89.518514047453,38.761946194619,2540436.4977737,-1568.7670359572,2611909.2756091,43.961946194619,0,0
-113.24186422506,-89.533688353342,38.766376637664,2540436.4977737,-1568.7670359572,2611909.2756091,43.966376637664,0,0
-113.2418636859,-89.548862659231,38.770807080708,2540436.4977737,-1568.7670359572,2611909.2756091,43.970807080708,0,0
-113.24186314673,-89.56403696512,38.775237523752,2540436.4977737,-1568.7670359572,2611909.2756091,43.975237523752,0,0
-113.24186260756,-89.579211271008,38.779667966797,2540436.4977737,-1568.7670359572,2611909.2756091,43.979667966797,0,0
-113.24186206839,-89.594385576897,38.784098409841,2540436.4977737,-1568.7670359572,2611909.2756091,43.984098409841,0,0
-113.24186152922,-89.609559882786,38.788528852885,2540436.4977737,-1568.7670359572,2611909.2756091,43.988528852885,0,0
-113.24186099005,-89.624734188675,38.79295929593,2540436.4977737,-1568.7670359572,2611909.2756091,43.99295929593,0,0
-113.24186045088,-89.639908494564,38.797389738974,2540436.4977737,-1568.7670359572,2611909.2756091,43.997389738974,0,0
-113.24185991172,-89.655082800453,38.801820182018,2540436.4977737,-1568.7670359572,2611909.2756091,44.001820182018,0,0
-113.24185937255,-89.670257106342,38.806250625063,2540436.4977737,-1568.7670359572,2611909.2756091,44.006250625063,0,0
-113.24185883338,-89.685431412231,38.810681068107,2540436.4977737,-1568.7670359572,2611909.2756091,44.010681068107,0,0
-113.24185829421,-89.700605718119,38.815111511151,2540436.4977737,-1568.7670359572,2611909.2756091,44.015111511151,0,0
-113.24185775504,-89.715780024008,38.819541954195,2540436.4977737,-1568.7670359572,2611909.2756091,44.019541954195,0,0
-113.24185721587,-89.730954329897,38.82397239724,2540436.4977737,-1568.7670359572,2611909.2756091,44.02397239724,0,0
-113.2418566767,-89.746128635786,38.828402840284,2540436.4977737,-1568.7670359572,2611909.2756091,44.028402840284,0,0
-113.24185613754,-89.761302941675,38.832833283328,2540436.4977737,-1568.7670359572,2611909.2756091,44.032833283328,0,0
-113.24185559837,-89.776477247564,38.837263726373,2540436.4977737,-1568.7670359572,2611909.2756091,44.037263726373,0,0
-113.2418550592,-89.791651553453,38.841694169417,2540436.4977737,-1568.7670359572,2611909.2756091,44.041694169417,0,0
-113.24185452003,-89.806825859341,38.846124612461,2540436.4977737,-1568.7670359572,2611909.2756091,44.046124612461,0,0
-113.24185398086,-89.82200016523,38.850555055506,2540436.4977737,-1568.7670359572,2611909.2756091,44.050555055506,0,0
-113.24185344169,-89.837174471119,38.85498549855,2540436.4977737,-1568.7670359572,2611909.2756091,44.05498549855,0,0
-113.24185290252,-89.852348777008,38.859415941594,2540436.4977737,-1568.7670359572,2611909.2756091,44.059415941594,0,0
-113.24185236336,-89.867523082897,38.863846384638,2540436.4977737,-1568.7670359572,2611909.2756091,44.063846384638,0,0
-113.24185182419,-89.882697388786,38.868276827683,2540436.4977737,-1568.7670359572,2611909.2756091,44.068276827683,0,0
-113.24185128502,-89.897871694675,38.872707270727,2540436.4977737,-1568.7670359572,2611909.2756091,44.072707270727,0,0
-113.24185074585,-89.913046000563,38.877137713771,2540436.4977737,-1568.7670359572,2611909.2756091,44.077137713771,0,0
-113.24185020668,-89.928220306452,38.881568156816,2540436.4977737,-1568.7670359572,2611909.2756091,44.081568156816,0,0
-113.24184966751,-89.943394612341,38.88599859986,2540436.4977737,-1568.7670359572,2611909.2756091,44.08599859986,0,0
-113.24184912834,-89.95856891823,38.890429042904,2540436.4977737,-1568.7670359572,2611909.2756091,44.090429042904,0,0
-113.24184858918,-89.973743224119,38.894859485949,2540436.4977737,-1568.7670359572,2611909.2756091,44.094859485949,0,0
-113.24184805001,-89.988917530008,38.899289928993,2540436.4977737,-1568.7670359572,2611909.2756091,44.099289928993,0,0
-113.24184751084,-90.004091835897,38.903720372037,2540436.4977737,-1568.7670359572,2611909.2756091,44.103720372037,0,0
-113.24184697167,-90.019266141785,38.908150815082,2540436.4977737,-1568.7670359572,2611909.2756091,44.108150815082,0,0
-113.2418464325,-90.034440447674,38.912581258126,2540436.4977737,-1568.7670359572,2611909.2756091,44.112581258126,0,0
-113.24184589333,-90.049614753563,38.91701170117,2540436.4977737,-1568.7670359572,2611909.2756091,44.11701170117,0,0
-113.24184535416,-90.064789059452,38.921442144214,2540436.4977737,-1568.7670359572,2611909.2756091,44.121442144214,0,0
-113.241844815,-90.079963365341,38.925872587259,2540436.4977737,-1568.7670359572,2611909.2756091,44.125872587259,0,0
-113.24184427583,-90.09513767123,38.930303030303,2540436.4977737,-1568.7670359572,2611909.2756091,44.130303030303,0,0
-113.24184373666,-90.110311977119,38.934733473347,2540436.4977737,-1568.7670359572,2611909.2756091,44.134733473347,0,0
-113.24184319749,-90.125486283007,38.939163916392,2540436.4977737,-1568.7670359572,2611909.2756091,44.139163916392,0,0
-113.24184265832,-90.140660588896,38.943594359436,2540436.4977737,-1568.7670359572,2611909.2756091,44.143594359436,0,0
-113.24184211915,-90.155834894785,38.94802480248,2540436.4977737,-1568.7670359572,2611909.2756091,44.14802480248,0,0
-113.24184157998,-90.171009200674,38.952455245525,2540436.4977737,-1568.7670359572,2611909.2756091,44.152455245525,0,0
-113.24184104082,-90.186183506563,38.956885688569,2540436.4977737,-1568.7670359572,2611909.2756091,44.156885688569,0,0
-113.24184050165,-90.201357812452,38.961316131613,2540436.4977737,-1568.7670359572,2611909.2756091,44.161316131613,0,0
-113.24183996248,-90.216532118341,38.965746574657,2540436.4977737,-1568.7670359572,2611909.2756091,44.165746574657,0,0
-113.24183942331,-90.231706424229,38.970177017702,2540436.4977737,-1568.7670359572,2611909.2756091,44.170177017702,0,0
-113.24183888414,-90.246880730118,38.974607460746,2540436.4977737,-1568.7670359572,2611909.2756091,44.174607460746,0,0
-113.24183834497,-90.262055036007,38.97903790379,2540436.4977737,-1568.7670359572,2611909.2756091,44.17903790379,0,0
-113.2418378058,-90.277229341896,38.983468346835,2540436.4977737,-1568.7670359572,2611909.2756091,44.183468346835,0,0
-113.24183726664,-90.292403647785,38.987898789879,2540436.4977737,-1568.7670359572,2611909.2756091,44.187898789879,0,0
-113.24183672747,-90.307577953674,38.992329232923,2540436.4977737,-1568.7670359572,2611909.2756091,44.192329232923,0,0
-113.2418361883,-90.322752259563,38.996759675968,2540436.4977737,-1568.7670359572,2611909.2756091,44.196759675968,0,0
-113.24183564913,-90.337926565452,39.001190119012,2540436.4977737,-1568.7670359572,2611909.2756091,44.201190119012,0,0
-113.24183510996,-90.35310087134,39.005620562056,2540436.4977737,-1568.7670359572,2611909.2756091,44.205620562056,0,0
-113.24183457079,-90.368275177229,39.010051005101,2540436.4977737,-1568.7670359572,2611909.2756091,44.210051005101,0,0
-113.24183403162,-90.383449483118,39.014481448145,2540436.4977737,-1568.7670359572,2611909.2756091,44.214481448145,0,0
-113.24183349246,-90.398623789007,39.018911891189,2540436.4977737,-1568.7670359572,2611909.2756091,44.218911891189,0,0
-113.24183295329,-90.413798094896,39.023342334233,2540436.4977737,-1568.7670359572,2611909.2756091,44.223342334233,0,0
-113.24183241412,-90.428972400785,39.027772777278,2540436.4977737,-1568.7670359572,2611909.2756091,44.227772777278,0,0
-113.24183187495,-90.444146706674,39.032203220322,2540436.4977737,-1568.7670359572,2611909.2756091,44.232203220322,0,0
-113.24183133578,-90.459321012562,39.036633663366,2540436.4977737,-1568.7670359572,2611909.2756091,44.236633663366,0,0
-113.24183079661,-90.474495318451,39.041064106411,2540436.4977737,-1568.7670359572,2611909.2756091,44.241064106411,0,0
-113.24183025744,-90.48966962434,39.045494549455,2540436.4977737,-1568.7670359572,2611909.2756091,44.245494549455,0,0
-113.24182971828,-90.504843930229,39.049924992499,2540436.4977737,-1568.7670359572,2611909.2756091,44.249924992499,0,0
-113.24182917911,-90.520018236118,39.054355435544,2540436.4977737,-1568.7670359572,2611909.2756091,44.254355435544,0,0
-113.24182863994,-90.535192542007,39.058785878588,2540436.4977737,-1568.7670359572,2611909.2756091,44.258785878588,0,0
-113.24182810077,-90.550366847896,39.063216321632,2540436.4977737,-1568.7670359572,2611909.2756091,44.263216321632,0,0
-113.2418275616,-90.565541153784,39.067646764676,2540436.4977737,-1568.7670359572,2611909.2756091,44.267646764676,0,0
-113.24182702243,-90.580715459673,39.072077207721,2540436.4977737,-1568.7670359572,2611909.2756091,44.272077207721,0,0
-113.24182648326,-90.595889765562,39.076507650765,2540436.4977737,-1568.7670359572,2611909.2756091,44.276507650765,0,0
-113.2418259441,-90.611064071451,39.080938093809,2540436.4977737,-1568.7670359572,2611909.2756091,44.280938093809,0,0
-113.24182540493,-90.62623837734,39.085368536854,2540436.4977737,-1568.7670359572,2611909.2756091,44.285368536854,0,0
-113.24182486576,-90.641412683229,39.089798979898,2540436.4977737,-1568.7670359572,2611909.2756091,44.289798979898,0,0
-113.24182432659,-90.656586989118,39.094229422942,2540436.4977737,-1568.7670359572,2611909.2756091,44.294229422942,0,0
-113.24182378742,-90.671761295006,39.098659865987,2540436.4977737,-1568.7670359572,2611909.2756091,44.298659865987,0,0
-113.24182324825,-90.686935600895,39.103090309031,2540436.4977737,-1568.7670359572,2611909.2756091,44.303090309031,0,0
-113.24182270908,-90.702109906784,39.107520752075,2540436.4977737,-1568.7670359572,2611909.2756091,44.307520752075,0,0
-113.24182216992,-90.717284212673,39.11195119512,2540436.4977737,-1568.7670359572,2611909.2756091,44.31195119512,0,0
-113.24182163075,-90.732458518562,39.116381638164,2540436.4977737,-1568.7670359572,2611909.2756091,44.316381638164,0,0
-113.24182109158,-90.747632824451,39.120812081208,2540436.4977737,-1568.7670359572,2611909.2756091,44.320812081208,0,0
-113.24182055241,-90.76280713034,39.125242524252,2540436.4977737,-1568.7670359572,2611909.2756091,44.325242524252,0,0
-113.24182001324,-90.777981436228,39.129672967297,2540436.4977737,-1568.7670359572,2611909.2756091,44.329672967297,0,0
-113.24181947407,-90.793155742117,39.134103410341,2540436.4977737,-1568.7670359572,2611909.2756091,44.334103410341,0,0
-113.2418189349,-90.808330048006,39.138533853385,2540436.4977737,-1568.7670359572,2611909.2756091,44.338533853385,0,0
-113.24181839574,-90.823504353895,39.14296429643,2540436.4977737,-1568.7670359572,2611909.2756091,44.34296429643,0,0
-113.24181785657,-90.838678659784,39.147394739474,2540436.4977737,-1568.7670359572,2611909.2756091,44.347394739474,0,0
-113.2418173174,-90.853852965673,39.151825182518,2540436.4977737,-1568.7670359572,2611909.2756091,44.351825182518,0,0
-113.24181677823,-90.869027271562,39.156255625563,2540436.4977737,-1568.7670359572,2611909.2756091,44.356255625563,0,0
-113.24181623906,-90.88420157745,39.160686068607,2540436.4977737,-1568.7670359572,2611909.2756091,44.360686068607,0,0
-113.24181569989,-90.899375883339,39.165116511651,2540436.4977737,-1568.7670359572,2611909.2756091,44.365116511651,0,0
-113.24181516072,-90.914550189228,39.169546954695,2540436.4977737,-1568.7670359572,2611909.2756091,44.369546954695,0,0
-113.24181462156,-90.929724495117,39.17397739774,2540436.4977737,-1568.7670359572,2611909.2756091,44.37397739774,0,0
-113.24181408239,-90.944898801006,39.178407840784,2540436.4977737,-1568.7670359572,2611909.2756091,44.378407840784,0,0
-113.24181354322,-90.960073106895,39.182838283828,2540436.4977737,-1568.7670359572,2611909.2756091,44.382838283828,0,0
-113.24181300405,-90.975247412784,39.187268726873,2540436.4977737,-1568.7670359572,2611909.2756091,44.387268726873,0,0
-113.24181246488,-90.990421718673,39.191699169917,2540436.4977737,-1568.7670359572,2611909.2756091,44.391699169917,0,0
-113.24181192571,-91.005596024561,39.196129612961,2540436.4977737,-1568.7670359572,2611909.2756091,44.396129612961,0,0
-113.24181138654,-91.02077033045,39.200560056006,2540436.4977737,-1568.7670359572,2611909.2756091,44.400560056006,0,0
-113.24181084738,-91.035944636339,39.20499049905,2540436.4977737,-1568.7670359572,2611909.2756091,44.40499049905,0,0
-113.24181030821,-91.051118942228,39.209420942094,2540436.4977737,-1568.7670359572,2611909.2756091,44.409420942094,0,0
-113.24180976904,-91.066293248117,39.213851385139,2540436.4977737,-1568.7670359572,2611909.2756091,44.413851385139,0,0
-113.24180922987,-91.081467554006,39.218281828183,2540436.4977737,-1568.7670359572,2611909.2756091,44.418281828183,0,0
-113.2418086907,-91.096641859895,39.222712271227,2540436.4977737,-1568.7670359572,2611909.2756091,44.422712271227,0,0
-113.24180815153,-91.111816165783,39.227142714271,2540436.4977737,-1568.7670359572,2611909.2756091,44.427142714271,0,0
-113.24180761236,-91.126990471672,39.231573157316,2540436.4977737,-1568.7670359572,2611909.2756091,44.431573157316,0,0
-113.2418070732,-91.142164777561,39.23600360036,2540436.4977737,-1568.7670359572,2611909.2756091,44.43600360036,0,0
-113.24180653403,-91.15733908345,39.240434043404,2540436.4977737,-1568.7670359572,2611909.2756091,44.440434043404,0,0
-113.24180599486,-91.172513389339,39.244864486449,2540436.4977737,-1568.7670359572,2611909.2756091,44.444864486449,0,0
-113.24180545569,-91.187687695228,39.249294929493,2540436.4977737,-1568.7670359572,2611909.2756091,44.449294929493,0,0
-113.24180491652,-91.202862001117,39.253725372537,2540436.4977737,-1568.7670359572,2611909.2756091,44.453725372537,0,0
-113.24180437735,-91.218036307005,39.258155815582,2540436.4977737,-1568.7670359572,2611909.2756091,44.458155815582,0,0
-113.24180383818,-91.233210612894,39.262586258626,2540436.4977737,-1568.7670359572,2611909.2756091,44.462586258626,0,0
-113.24180329902,-91.248384918783,39.26701670167,2540436.4977737,-1568.7670359572,2611909.2756091,44.46701670167,0,0
-113.24180275985,-91.263559224672,39.271447144714,2540436.4977737,-1568.7670359572,2611909.2756091,44.471447144714,0,0
-113.24180222068,-91.278733530561,39.275877587759,2540436.4977737,-1568.7670359572,2611909.2756091,44.475877587759,0,0
-113.24180168151,-91.29390783645,39.280308030803,2540436.4977737,-1568.7670359572,2611909.2756091,44.480308030803,0,0
-113.24180114234,-91.309082142339,39.284738473847,2540436.4977737,-1568.7670359572,2611909.2756091,44.484738473847,0,0
-113.24180060317,-91.324256448227,39.289168916892,2540436.4977737,-1568.7670359572,2611909.2756091,44.489168916892,0,0
-113.241800064,-91.339430754116,39.293599359936,2540436.4977737,-1568.7670359572,2611909.2756091,44.493599359936,0,0
-113.24179952484,-91.354605060005,39.29802980298,2540436.4977737,-1568.7670359572,2611909.2756091,44.49802980298,0,0
-113.24179898567,-91.369779365894,39.302460246025,2540436.4977737,-1568.7670359572,2611909.2756091,44.502460246025,0,0
-113.2417984465,-91.384953671783,39.306890689069,2540436.4977737,-1568.7670359572,2611909.2756091,44.506890689069,0,0
-113.24179790733,-91.400127977672,39.311321132113,2540436.4977737,-1568.7670359572,2611909.2756091,44.511321132113,0,0
-113.24179736816,-91.415302283561,39.315751575158,2540436.4977737,-1568.7670359572,2611909.2756091,44.515751575158,0,0
-113.24179682899,-91.430476589449,39.320182018202,2540436.4977737,-1568.7670359572,2611909.2756091,44.520182018202,0,0
-113.24179628982,-91.445650895338,39.324612461246,2540436.4977737,-1568.7670359572,2611909.2756091,44.524612461246,0,0
-113.24179575066,-91.460825201227,39.32904290429,2540436.4977737,-1568.7670359572,2611909.2756091,44.52904290429,0,0
-113.24179521153,-91.475999507117,39.333473347335,2540193.8594459,1479.951537903,2612043.0997666,44.533473347335,0,0
-113.2417946724,-91.491173813007,39.337903790379,2540193.8594459,1479.951537903,2612043.0997666,44.537903790379,0,0
-113.24179413328,-91.506348118897,39.342334233423,2540193.8594459,1479.951537903,2612043.0997666,44.542334233423,0,0
-113.24179359416,-91.521522424787,39.346764676468,2540193.8594459,1479.951537903,2612043.0997666,44.546764676468,0,0
-113.24179305503,-91.536696730677,39.351195119512,2540193.8594459,1479.951537903,2612043.0997666,44.551195119512,0,0
-113.24179251591,-91.551871036567,39.355625562556,2540193.8594459,1479.951537903,2612043.0997666,44.555625562556,0,0
-113.24179197679,-91.567045342457,39.360056005601,2540193.8594459,1479.951537903,2612043.0997666,44.560056005601,0,0
-113.24179143766,-91.582219648347,39.364486448645,2540193.8594459,1479.951537903,2612043.0997666,44.564486448645,0,0
-113.24179089854,-91.597393954238,39.368916891689,2540193.8594459,1479.951537903,2612043.0997666,44.568916891689,0,0
-113.24179035942,-91.612568260128,39.373347334733,2540193.8594459,1479.951537903,2612043.0997666,44.573347334733,0,0
-113.24178982029,-91.627742566018,39.377777777778,2540193.8594459,1479.951537903,2612043.0997666,44.577777777778,0,0
-113.24178928117,-91.642916871908,39.382208220822,2540193.8594459,1479.951537903,2612043.0997666,44.582208220822,0,0
-113.24178874205,-91.658091177798,39.386638663866,2540193.8594459,1479.951537903,2612043.0997666,44.586638663866,0,0
-113.24178820293,-91.673265483688,39.391069106911,2540193.8594459,1479.951537903,2612043.0997666,44.591069106911,0,0
-113.2417876638,-91.688439789578,39.395499549955,2540193.8594459,1479.951537903,2612043.0997666,44.595499549955,0,0
-113.24178712468,-91.703614095468,39.399929992999,2540193.8594459,1479.951537903,2612043.0997666,44.599929992999,0,0
-113.24178658556,-91.718788401358,39.404360436044,2540193.8594459,1479.951537903,2612043.0997666,44.604360436044,0,0
-113.24178604643,-91.733962707248,39.408790879088,2540193.8594459,1479.951537903,2612043.0997666,44.608790879088,0,0
-113.24178550731,-91.749137013138,39.413221322132,2540193.8594459,1479.951537903,2612043.0997666,44.613221322132,0,0
-113.24178496819,-91.764311319028,39.417651765177,2540193.8594459,1479.951537903,2612043.0997666,44.617651765177,0,0
-113.24178442906,-91.779485624918,39.422082208221,2540193.8594459,1479.951537903,2612043.0997666,44.622082208221,0,0
-113.24178388994,-91.794659930808,39.426512651265,2540193.8594459,1479.951537903,2612043.0997666,44.626512651265,0,0
-113.24178335082,-91.809834236698,39.430943094309,2540193.8594459,1479.951537903,2612043.0997666,44.630943094309,0,0
-113.24178281169,-91.825008542588,39.435373537354,2540193.8594459,1479.951537903,2612043.0997666,44.635373537354,0,0
-113.24178227257,-91.840182848478,39.439803980398,2540193.8594459,1479.951537903,2612043.0997666,44.639803980398,0,0
-113.24178173345,-91.855357154368,39.444234423442,2540193.8594459,1479.951537903,2612043.0997666,44.644234423442,0,0
-113.24178119432,-91.870531460258,39.448664866487,2540193.8594459,1479.951537903,2612043.0997666,44.648664866487,0,0
-113.2417806552,-91.885705766149,39.453095309531,2540193.8594459,1479.951537903,2612043.0997666,44.653095309531,0,0
-113.24178011608,-91.900880072039,39.457525752575,2540193.8594459,1479.951537903,2612043.0997666,44.657525752575,0,0
-113.24177957695,-91.916054377929,39.46195619562,2540193.8594459,1479.951537903,2612043.0997666,44.66195619562,0,0
-113.24177903783,-91.931228683819,39.466386638664,2540193.8594459,1479.951537903,2612043.0997666,44.666386638664,0,0
-113.24177849871,-91.946402989709,39.470817081708,2540193.8594459,1479.951537903,2612043.0997666,44.670817081708,0,0
-113.24177795958,-91.961577295599,39.475247524752,2540193.8594459,1479.951537903,2612043.0997666,44.675247524752,0,0
-113.24177742046,-91.976751601489,39.479677967797,2540193.8594459,1479.951537903,2612043.0997666,44.679677967797,0,0
-113.24177688134,-91.991925907379,39.484108410841,2540193.8594459,1479.951537903,2612043.0997666,44.684108410841,0,0
-113.24177634222,-92.007100213269,39.488538853885,2540193.8594459,1479.951537903,2612043.0997666,44.688538853885,0,0
-113.24177580309,-92.022274519159,39.49296929693,2540193.8594459,1479.951537903,2612043.0997666,44.69296929693,0,0
-113.24177526397,-92.037448825049,39.497399739974,2540193.8594459,1479.951537903,2612043.0997666,44.697399739974,0,0
-113.24177472485,-92.052623130939,39.501830183018,2540193.8594459,1479.951537903,2612043.0997666,44.701830183018,0,0
-113.24177418572,-92.067797436829,39.506260626063,2540193.8594459,1479.951537903,2612043.0997666,44.706260626063,0,0
-113.2417736466,-92.082971742719,39.510691069107,2540193.8594459,1479.951537903,2612043.0997666,44.710691069107,0,0
-113.24177310748,-92.098146048609,39.515121512151,2540193.8594459,1479.951537903,2612043.0997666,44.715121512151,0,0
-113.24177256835,-92.113320354499,39.519551955196,2540193.8594459,1479.951537903,2612043.0997666,44.719551955196,0,0
-113.24177202923,-92.128494660389,39.52398239824,2540193.8594459,1479.951537903,2612043.0997666,44.72398239824,0,0
-113.24177149011,-92.143668966279,39.528412841284,2540193.8594459,1479.951537903,2612043.0997666,44.728412841284,0,0
-113.24177095098,-92.15884327217,39.532843284328,2540193.8594459,1479.951537903,2612043.0997666,44.732843284328,0,0
-113.24177041186,-92.17401757806,39.537273727373,2540193.8594459,1479.951537903,2612043.0997666,44.737273727373,0,0
-113.24176987274,-92.18919188395,39.541704170417,2540193.8594459,1479.951537903,2612043.0997666,44.741704170417,0,0
-113.24176933361,-92.20436618984,39.546134613461,2540193.8594459,1479.951537903,2612043.0997666,44.746134613461,0,0
-113.24176879449,-92.21954049573,39.550565056506,2540193.8594459,1479.951537903,2612043.0997666,44.750565056506,0,0
-113.24176825537,-92.23471480162,39.55499549955,2540193.8594459,1479.951537903,2612043.0997666,44.75499549955,0,0
-113.24176771624,-92.24988910751,39.559425942594,2540193.8594459,1479.951537903,2612043.0997666,44.759425942594,0,0
-113.24176717712,-92.2650634134,39.563856385639,2540193.8594459,1479.951537903,2612043.0997666,44.763856385639,0,0
-113.241766638,-92.28023771929,39.568286828683,2540193.8594459,1479.951537903,2612043.0997666,44.768286828683,0,0
-113.24176609887,-92.29541202518,39.572717271727,2540193.8594459,1479.951537903,2612043.0997666,44.772717271727,0,0
-113.24176555975,-92.31058633107,39.577147714771,2540193.8594459,1479.951537903,2612043.0997666,44.777147714771,0,0
-113.24176502063,-92.32576063696,39.581578157816,2540193.8594459,1479.951537903,2612043.0997666,44.781578157816,0,0
-113.2417644815,-92.34093494285,39.58600860086,2540193.8594459,1479.951537903,2612043.0997666,44.78600860086,0,0
-113.24176394238,-92.35610924874,39.590439043904,2540193.8594459,1479.951537903,2612043.0997666,44.790439043904,0,0
-113.24176340326,-92.37128355463,39.594869486949,2540193.8594459,1479.951537903,2612043.0997666,44.794869486949,0,0
-113.24176286414,-92.38645786052,39.599299929993,2540193.8594459,1479.951537903,2612043.0997666,44.799299929993,0,0
-113.24176232501,-92.40163216641,39.603730373037,2540193.8594459,1479.951537903,2612043.0997666,44.803730373037,0,0
-113.24176178589,-92.4168064723,39.608160816082,2540193.8594459,1479.951537903,2612043.0997666,44.808160816082,0,0
-113.24176124677,-92.431980778191,39.612591259126,2540193.8594459,1479.951537903,2612043.0997666,44.812591259126,0,0
-113.24176070764,-92.447155084081,39.61702170217,2540193.8594459,1479.951537903,2612043.0997666,44.81702170217,0,0
-113.24176016852,-92.462329389971,39.621452145215,2540193.8594459,1479.951537903,2612043.0997666,44.821452145215,0,0
-113.2417596294,-92.477503695861,39.625882588259,2540193.8594459,1479.951537903,2612043.0997666,44.825882588259,0,0
-113.24175909027,-92.492678001751,39.630313031303,2540193.8594459,1479.951537903,2612043.0997666,44.830313031303,0,0
-113.24175855115,-92.507852307641,39.634743474347,2540193.8594459,1479.951537903,2612043.0997666,44.834743474347,0,0
-113.24175801203,-92.523026613531,39.639173917392,2540193.8594459,1479.951537903,2612043.0997666,44.839173917392,0,0
-113.2417574729,-92.538200919421,39.643604360436,2540193.8594459,1479.951537903,2612043.0997666,44.843604360436,0,0
-113.24175693378,-92.553375225311,39.64803480348,2540193.8594459,1479.951537903,2612043.0997666,44.84803480348,0,0
-113.24175639466,-92.568549531201,39.652465246525,2540193.8594459,1479.951537903,2612043.0997666,44.852465246525,0,0
-113.24175585553,-92.583723837091,39.656895689569,2540193.8594459,1479.951537903,2612043.0997666,44.856895689569,0,0
-113.24175531641,-92.598898142981,39.661326132613,2540193.8594459,1479.951537903,2612043.0997666,44.861326132613,0,0
-113.24175477729,-92.614072448871,39.665756575658,2540193.8594459,1479.951537903,2612043.0997666,44.865756575658,0,0
-113.24175423816,-92.629246754761,39.670187018702,2540193.8594459,1479.951537903,2612043.0997666,44.870187018702,0,0
-113.24175369904,-92.644421060651,39.674617461746,2540193.8594459,1479.951537903,2612043.0997666,44.874617461746,0,0
-113.24175315992,-92.659595366541,39.67904790479,2540193.8594459,1479.951537903,2612043.0997666,44.87904790479,0,0
-113.24175262079,-92.674769672431,39.683478347835,2540193.8594459,1479.951537903,2612043.0997666,44.883478347835,0,0
-113.24175208167,-92.689943978321,39.687908790879,2540193.8594459,1479.951537903,2612043.0997666,44.887908790879,0,0
-113.24175154255,-92.705118284212,39.692339233923,2540193.8594459,1479.951537903,2612043.0997666,44.892339233923,0,0
-113.24175100343,-92.720292590102,39.696769676968,2540193.8594459,1479.951537903,2612043.0997666,44.896769676968,0,0
-113.2417504643,-92.735466895992,39.701200120012,2540193.8594459,1479.951537903,2612043.0997666,44.901200120012,0,0
-113.24174992518,-92.750641201882,39.705630563056,2540193.8594459,1479.951537903,2612043.0997666,44.905630563056,0,0
-113.24174938606,-92.765815507772,39.710061006101,2540193.8594459,1479.951537903,2612043.0997666,44.910061006101,0,0
-113.24174884693,-92.780989813662,39.714491449145,2540193.8594459,1479.951537903,2612043.0997666,44.914491449145,0,0
-113.24174830781,-92.796164119552,39.718921892189,2540193.8594459,1479.951537903,2612043.0997666,44.918921892189,0,0
-113.24174776869,-92.811338425442,39.723352335234,2540193.8594459,1479.951537903,2612043.0997666,44.923352335234,0,0
-113.24174722956,-92.826512731332,39.727782778278,2540193.8594459,1479.951537903,2612043.0997666,44.927782778278,0,0
-113.24174669044,-92.841687037222,39.732213221322,2540193.8594459,1479.951537903,2612043.0997666,44.932213221322,0,0
-113.24174615132,-92.856861343112,39.736643664366,2540193.8594459,1479.951537903,2612043.0997666,44.936643664366,0,0
-113.24174561219,-92.872035649002,39.741074107411,2540193.8594459,1479.951537903,2612043.0997666,44.941074107411,0,0
-113.24174507307,-92.887209954892,39.745504550455,2540193.8594459,1479.951537903,2612043.0997666,44.945504550455,0,0
-113.24174453395,-92.902384260782,39.749934993499,2540193.8594459,1479.951537903,2612043.0997666,44.949934993499,0,0
-113.24174399482,-92.917558566672,39.754365436544,2540193.8594459,1479.951537903,2612043.0997666,44.954365436544,0,0
-113.2417434557,-92.932732872562,39.758795879588,2540193.8594459,1479.951537903,2612043.0997666,44.958795879588,0,0
-113.24174291658,-92.947907178452,39.763226322632,2540193.8594459,1479.951537903,2612043.0997666,44.963226322632,0,0
-113.24174237745,-92.963081484342,39.767656765677,2540193.8594459,1479.951537903,2612043.0997666,44.967656765677,0,0
-113.24174183833,-92.978255790232,39.772087208721,2540193.8594459,1479.951537903,2612043.0997666,44.972087208721,0,0
-113.24174129921,-92.993430096123,39.776517651765,2540193.8594459,1479.951537903,2612043.0997666,44.976517651765,0,0
-113.24174076008,-93.008604402013,39.780948094809,2540193.8594459,1479.951537903,2612043.0997666,44.980948094809,0,0
-113.24174022096,-93.023778707903,39.785378537854,2540193.8594459,1479.951537903,2612043.0997666,44.985378537854,0,0
-113.24173968184,-93.038953013793,39.789808980898,2540193.8594459,1479.951537903,2612043.0997666,44.989808980898,0,0
-113.24173914272,-93.054127319683,39.794239423942,2540193.8594459,1479.951537903,2612043.0997666,44.994239423942,0,0
-113.24173860359,-93.069301625573,39.798669866987,2540193.8594459,1479.951537903,2612043.0997666,44.998669866987,0,0
-113.24173806447,-93.084475931463,39.803100310031,2540193.8594459,1479.951537903,2612043.0997666,45.003100310031,0,0
-113.24173752535,-93.099650237353,39.807530753075,2540193.8594459,1479.951537903,2612043.0997666,45.007530753075,0,0
-113.24173698622,-93.114824543243,39.81196119612,2540193.8594459,1479.951537903,2612043.0997666,45.01196119612,0,0
-113.2417364471,-93.129998849133,39.816391639164,2540193.8594459,1479.951537903,2612043.0997666,45.016391639164,0,0
-113.24173590798,-93.145173155023,39.820822082208,2540193.8594459,1479.951537903,2612043.0997666,45.020822082208,0,0
-113.24173536885,-93.160347460913,39.825252525253,2540193.8594459,1479.951537903,2612043.0997666,45.025252525253,0,0
-113.24173482973,-93.175521766803,39.829682968297,2540193.8594459,1479.951537903,2612043.0997666,45.029682968297,0,0
-113.24173429061,-93.190696072693,39.834113411341,2540193.8594459,1479.951537903,2612043.0997666,45.034113411341,0,0
-113.24173375148,-93.205870378583,39.838543854385,2540193.8594459,1479.951537903,2612043.0997666,45.038543854385,0,0
-113.24173321236,-93.221044684473,39.84297429743,2540193.8594459,1479.951537903,2612043.0997666,45.04297429743,0,0
-113.24173267324,-93.236218990363,39.847404740474,2540193.8594459,1479.951537903,2612043.0997666,45.047404740474,0,0
-113.24173213411,-93.251393296253,39.851835183518,2540193.8594459,1479.951537903,2612043.0997666,45.051835183518,0,0
-113.24173159499,-93.266567602144,39.856265626563,2540193.8594459,1479.951537903,2612043.0997666,45.056265626563,0,0
-113.24173105587,-93.281741908034,39.860696069607,2540193.8594459,1479.951537903,2612043.0997666,45.060696069607,0,0
-113.24173051674,-93.296916213924,39.865126512651,2540193.8594459,1479.951537903,2612043.0997666,45.065126512651,0,0
-113.24172997762,-93.312090519814,39.869556955696,2540193.8594459,1479.951537903,2612043.0997666,45.069556955696,0,0
-113.2417294385,-93.327264825704,39.87398739874,2540193.8594459,1479.951537903,2612043.0997666,45.07398739874,0,0
-113.24172889937,-93.342439131594,39.878417841784,2540193.8594459,1479.951537903,2612043.0997666,45.078417841784,0,0
-113.24172836025,-93.357613437484,39.882848284828,2540193.8594459,1479.951537903,2612043.0997666,45.082848284828,0,0
-113.24172782113,-93.372787743374,39.887278727873,2540193.8594459,1479.951537903,2612043.0997666,45.087278727873,0,0
-113.24172728201,-93.387962049264,39.891709170917,2540193.8594459,1479.951537903,2612043.0997666,45.091709170917,0,0
-113.24172674288,-93.403136355154,39.896139613961,2540193.8594459,1479.951537903,2612043.0997666,45.096139613961,0,0
-113.24172620376,-93.418310661044,39.900570057006,2540193.8594459,1479.951537903,2612043.0997666,45.100570057006,0,0
-113.24172566464,-93.433484966934,39.90500050005,2540193.8594459,1479.951537903,2612043.0997666,45.10500050005,0,0
-113.24172512551,-93.448659272824,39.909430943094,2540193.8594459,1479.951537903,2612043.0997666,45.109430943094,0,0
-113.24172458639,-93.463833578714,39.913861386139,2540193.8594459,1479.951537903,2612043.0997666,45.113861386139,0,0
-113.24172404727,-93.479007884604,39.918291829183,2540193.8594459,1479.951537903,2612043.0997666,45.118291829183,0,0
-113.24172350814,-93.494182190494,39.922722272227,2540193.8594459,1479.951537903,2612043.0997666,45.122722272227,0,0
-113.24172296902,-93.509356496384,39.927152715272,2540193.8594459,1479.951537903,2612043.0997666,45.127152715272,0,0
-113.2417224299,-93.524530802274,39.931583158316,2540193.8594459,1479.951537903,2612043.0997666,45.131583158316,0,0
-113.24172189077,-93.539705108164,39.93601360136,2540193.8594459,1479.951537903,2612043.0997666,45.13601360136,0,0
-113.24172135165,-93.554879414055,39.940444044404,2540193.8594459,1479.951537903,2612043.0997666,45.140444044404,0,0
-113.24172081253,-93.570053719945,39.944874487449,2540193.8594459,1479.951537903,2612043.0997666,45.144874487449,0,0
-113.2417202734,-93.585228025835,39.949304930493,2540193.8594459,1479.951537903,2612043.0997666,45.149304930493,0,0
-113.24171973428,-93.600402331725,39.953735373537,2540193.8594459,1479.951537903,2612043.0997666,45.153735373537,0,0
-113.24171919516,-93.615576637615,39.958165816582,2540193.8594459,1479.951537903,2612043.0997666,45.158165816582,0,0
-113.24171865603,-93.630750943505,39.962596259626,2540193.8594459,1479.951537903,2612043.0997666,45.162596259626,0,0
-113.24171811691,-93.645925249395,39.96702670267,2540193.8594459,1479.951537903,2612043.0997666,45.16702670267,0,0
-113.24171757779,-93.661099555285,39.971457145715,2540193.8594459,1479.951537903,2612043.0997666,45.171457145715,0,0
-113.24171703866,-93.676273861175,39.975887588759,2540193.8594459,1479.951537903,2612043.0997666,45.175887588759,0,0
-113.24171649954,-93.691448167065,39.980318031803,2540193.8594459,1479.951537903,2612043.0997666,45.180318031803,0,0
-113.24171596042,-93.706622472955,39.984748474847,2540193.8594459,1479.951537903,2612043.0997666,45.184748474847,0,0
-113.24171542129,-93.721796778845,39.989178917892,2540193.8594459,1479.951537903,2612043.0997666,45.189178917892,0,0
-113.24171488217,-93.736971084735,39.993609360936,2540193.8594459,1479.951537903,2612043.0997666,45.193609360936,0,0
-113.24171434305,-93.752145390625,39.99803980398,2540193.8594459,1479.951537903,2612043.0997666,45.19803980398,0,0
-113.24171380393,-93.767319696515,40.002470247025,2540193.8594459,1479.951537903,2612043.0997666,45.202470247025,0,0
-113.2417132648,-93.782494002405,40.006900690069,2540193.8594459,1479.951537903,2612043.0997666,45.206900690069,0,0
-113.24171272568,-93.797668308295,40.011331133113,2540193.8594459,1479.951537903,2612043.0997666,45.211331133113,0,0
-113.24171218656,-93.812842614185,40.015761576158,2540193.8594459,1479.951537903,2612043.0997666,45.215761576158,0,0
-113.24171164743,-93.828016920076,40.020192019202,2540193.8594459,1479.951537903,2612043.0997666,45.220192019202,0,0
-113.24171110831,-93.843191225966,40.024622462246,2540193.8594459,1479.951537903,2612043.0997666,45.224622462246,0,0
-113.24171056919,-93.858365531856,40.029052905291,2540193.8594459,1479.951537903,2612043.0997666,45.229052905291,0,0
-113.24171003006,-93.873539837746,40.033483348335,2540193.8594459,1479.951537903,2612043.0997666,45.233483348335,0,0
-113.24170949094,-93.888714143636,40.037913791379,2540193.8594459,1479.951537903,2612043.0997666,45.237913791379,0,0
-113.24170895182,-93.903888449526,40.042344234423,2540193.8594459,1479.951537903,2612043.0997666,45.242344234423,0,0
-113.24170841269,-93.919062755416,40.046774677468,2540193.8594459,1479.951537903,2612043.0997666,45.246774677468,0,0
-113.24170787357,-93.934237061306,40.051205120512,2540193.8594459,1479.951537903,2612043.0997666,45.251205120512,0,0
-113.24170733445,-93.949411367196,40.055635563556,2540193.8594459,1479.951537903,2612043.0997666,45.255635563556,0,0
-113.24170679532,-93.964585673086,40.060066006601,2540193.8594459,1479.951537903,2612043.0997666,45.260066006601,0,0
-113.2417062562,-93.979759978976,40.064496449645,2540193.8594459,1479.951537903,2612043.0997666,45.264496449645,0,0
-113.24170571708,-93.994934284866,40.068926892689,2540193.8594459,1479.951537903,2612043.0997666,45.268926892689,0,0
-113.24170517795,-94.010108590756,40.073357335734,2540193.8594459,1479.951537903,2612043.0997666,45.273357335734,0,0
-113.24170463883,-94.025282896646,40.077787778778,2540193.8594459,1479.951537903,2612043.0997666,45.277787778778,0,0
-113.24170409971,-94.040457202536,40.082218221822,2540193.8594459,1479.951537903,2612043.0997666,45.282218221822,0,0
-113.24170356058,-94.055631508426,40.086648664866,2540193.8594459,1479.951537903,2612043.0997666,45.286648664866,0,0
-113.24170302146,-94.070805814316,40.091079107911,2540193.8594459,1479.951537903,2612043.0997666,45.291079107911,0,0
-113.24170248234,-94.085980120207,40.095509550955,2540193.8594459,1479.951537903,2612043.0997666,45.295509550955,0,0
-113.24170194322,-94.101154426096,40.099939993999,2540193.8594459,1479.951537903,2612043.0997666,45.299939993999,0,0
-113.24170140409,-94.116328731987,40.104370437044,2540193.8594459,1479.951537903,2612043.0997666,45.304370437044,0,0
-113.24170086497,-94.131503037877,40.108800880088,2540193.8594459,1479.951537903,2612043.0997666,45.308800880088,0,0
-113.24170032585,-94.146677343767,40.113231323132,2540193.8594459,1479.951537903,2612043.0997666,45.313231323132,0,0
-113.24169978672,-94.161851649657,40.117661766177,2540193.8594459,1479.951537903,2612043.0997666,45.317661766177,0,0
-113.2416992476,-94.177025955547,40.122092209221,2540193.8594459,1479.951537903,2612043.0997666,45.322092209221,0,0
-113.24169870848,-94.192200261437,40.126522652265,2540193.8594459,1479.951537903,2612043.0997666,45.326522652265,0,0
-113.24169816935,-94.207374567327,40.13095309531,2540193.8594459,1479.951537903,2612043.0997666,45.33095309531,0,0
-113.24169763023,-94.222548873217,40.135383538354,2540193.8594459,1479.951537903,2612043.0997666,45.335383538354,0,0
-113.24169709111,-94.237723179107,40.139813981398,2540193.8594459,1479.951537903,2612043.0997666,45.339813981398,0,0
-113.24169655198,-94.252897484997,40.144244424442,2540193.8594459,1479.951537903,2612043.0997666,45.344244424442,0,0
-113.24169601286,-94.268071790887,40.148674867487,2540193.8594459,1479.951537903,2612043.0997666,45.348674867487,0,0
-113.24169547374,-94.283246096777,40.153105310531,2540193.8594459,1479.951537903,2612043.0997666,45.353105310531,0,0
-113.24169493461,-94.298420402667,40.157535753575,2540193.8594459,1479.951537903,2612043.0997666,45.357535753575,0,0
-113.24169439549,-94.313594708557,40.16196619662,2540193.8594459,1479.951537903,2612043.0997666,45.36196619662,0,0
-113.24169385637,-94.328769014447,40.166396639664,2540193.8594459,1479.951537903,2612043.0997666,45.366396639664,0,0
-113.24169331724,-94.343943320337,40.170827082708,2540193.8594459,1479.951537903,2612043.0997666,45.370827082708,0,0
-113.24169277812,-94.359117626227,40.175257525753,2540193.8594459,1479.951537903,2612043.0997666,45.375257525753,0,0
-113.241692239,-94.374291932118,40.179687968797,2540193.8594459,1479.951537903,2612043.0997666,45.379687968797,0,0
-113.24169169987,-94.389466238008,40.184118411841,2540193.8594459,1479.951537903,2612043.0997666,45.384118411841,0,0
-113.24169116075,-94.404640543898,40.188548854885,2540193.8594459,1479.951537903,2612043.0997666,45.388548854885,0,0
-113.24169062163,-94.419814849788,40.19297929793,2540193.8594459,1479.951537903,2612043.0997666,45.39297929793,0,0
-113.24169008251,-94.434989155678,40.197409740974,2540193.8594459,1479.951537903,2612043.0997666,45.397409740974,0,0
-113.24168954338,-94.450163461568,40.201840184018,2540193.8594459,1479.951537903,2612043.0997666,45.401840184018,0,0
-113.24168900426,-94.465337767458,40.206270627063,2540193.8594459,1479.951537903,2612043.0997666,45.406270627063,0,0
-113.24168846514,-94.480512073348,40.210701070107,2540193.8594459,1479.951537903,2612043.0997666,45.410701070107,0,0
-113.24168792601,-94.495686379238,40.215131513151,2540193.8594459,1479.951537903,2612043.0997666,45.415131513151,0,0
-113.24168738689,-94.510860685128,40.219561956196,2540193.8594459,1479.951537903,2612043.0997666,45.419561956196,0,0
-113.24168684777,-94.526034991018,40.22399239924,2540193.8594459,1479.951537903,2612043.0997666,45.42399239924,0,0
-113.24168630864,-94.541209296908,40.228422842284,2540193.8594459,1479.951537903,2612043.0997666,45.428422842284,0,0
-113.24168576952,-94.556383602798,40.232853285329,2540193.8594459,1479.951537903,2612043.0997666,45.432853285329,0,0
-113.2416852304,-94.571557908688,40.237283728373,2540193.8594459,1479.951537903,2612043.0997666,45.437283728373,0,0
-113.24168469127,-94.586732214578,40.241714171417,2540193.8594459,1479.951537903,2612043.0997666,45.441714171417,0,0
-113.24168415215,-94.601906520468,40.246144614461,2540193.8594459,1479.951537903,2612043.0997666,45.446144614461,0,0
-113.24168361303,-94.617080826358,40.250575057506,2540193.8594459,1479.951537903,2612043.0997666,45.450575057506,0,0
-113.2416830739,-94.632255132248,40.25500550055,2540193.8594459,1479.951537903,2612043.0997666,45.45500550055,0,0
-113.24168253478,-94.647429438138,40.259435943594,2540193.8594459,1479.951537903,2612043.0997666,45.459435943594,0,0
-113.24168199566,-94.662603744029,40.263866386639,2540193.8594459,1479.951537903,2612043.0997666,45.463866386639,0,0
-113.24168145653,-94.677778049919,40.268296829683,2540193.8594459,1479.951537903,2612043.0997666,45.468296829683,0,0
-113.24168091741,-94.692952355809,40.272727272727,2540193.8594459,1479.951537903,2612043.0997666,45.472727272727,0,0
-113.24168037829,-94.708126661699,40.277157715772,2540193.8594459,1479.951537903,2612043.0997666,45.477157715772,0,0
-113.24167983916,-94.723300967589,40.281588158816,2540193.8594459,1479.951537903,2612043.0997666,45.481588158816,0,0
-113.24167930004,-94.738475273479,40.28601860186,2540193.8594459,1479.951537903,2612043.0997666,45.48601860186,0,0
-113.24167876092,-94.753649579369,40.290449044904,2540193.8594459,1479.951537903,2612043.0997666,45.490449044904,0,0
-113.24167822179,-94.768823885259,40.294879487949,2540193.8594459,1479.951537903,2612043.0997666,45.494879487949,0,0
-113.24167768267,-94.783998191149,40.299309930993,2540193.8594459,1479.951537903,2612043.0997666,45.499309930993,0,0
-113.24167714355,-94.799172497039,40.303740374037,2540193.8594459,1479.951537903,2612043.0997666,45.503740374037,0,0
-113.24167660443,-94.814346802929,40.308170817082,2540193.8594459,1479.951537903,2612043.0997666,45.508170817082,0,0
-113.2416760653,-94.829521108819,40.312601260126,2540193.8594459,1479.951537903,2612043.0997666,45.512601260126,0,0
-113.24167552618,-94.844695414709,40.31703170317,2540193.8594459,1479.951537903,2612043.0997666,45.51703170317,0,0
-113.24167498706,-94.859869720599,40.321462146215,2540193.8594459,1479.951537903,2612043.0997666,45.521462146215,0,0
-113.24167444793,-94.875044026489,40.325892589259,2540193.8594459,1479.951537903,2612043.0997666,45.525892589259,0,0
-113.24167390881,-94.890218332379,40.330323032303,2540193.8594459,1479.951537903,2612043.0997666,45.530323032303,0,0
-113.24167336969,-94.905392638269,40.334753475348,2540193.8594459,1479.951537903,2612043.0997666,45.534753475348,0,0
-113.24167283056,-94.920566944159,40.339183918392,2540193.8594459,1479.951537903,2612043.0997666,45.539183918392,0,0
-113.24167229144,-94.93574125005,40.343614361436,2540193.8594459,1479.951537903,2612043.0997666,45.543614361436,0,0
-113.24167175232,-94.95091555594,40.34804480448,2540193.8594459,1479.951537903,2612043.0997666,45.54804480448,0,0
-113.24167121319,-94.96608986183,40.352475247525,2540193.8594459,1479.951537903,2612043.0997666,45.552475247525,0,0
-113.24167067407,-94.98126416772,40.356905690569,2540193.8594459,1479.951537903,2612043.0997666,45.556905690569,0,0
-113.24167013495,-94.99643847361,40.361336133613,2540193.8594459,1479.951537903,2612043.0997666,45.561336133613,0,0
-113.24166959582,-95.0116127795,40.365766576658,2540193.8594459,1479.951537903,2612043.0997666,45.565766576658,0,0
-113.2416690567,-95.02678708539,40.370197019702,2540193.8594459,1479.951537903,2612043.0997666,45.570197019702,0,0
-113.24166851758,-95.04196139128,40.374627462746,2540193.8594459,1479.951537903,2612043.0997666,45.574627462746,0,0
-113.24166797845,-95.05713569717,40.379057905791,2540193.8594459,1479.951537903,2612043.0997666,45.579057905791,0,0
-113.24166743933,-95.07231000306,40.383488348835,2540193.8594459,1479.951537903,2612043.0997666,45.583488348835,0,0
-113.24166690021,-95.08748430895,40.387918791879,2540193.8594459,1479.951537903,2612043.0997666,45.587918791879,0,0
-113.24166636108,-95.10265861484,40.392349234923,2540193.8594459,1479.951537903,2612043.0997666,45.592349234923,0,0
-113.24166582196,-95.11783292073,40.396779677968,2540193.8594459,1479.951537903,2612043.0997666,45.596779677968,0,0
-113.24166528284,-95.13300722662,40.401210121012,2540193.8594459,1479.951537903,2612043.0997666,45.601210121012,0,0
-113.24166474372,-95.14818153251,40.405640564056,2540193.8594459,1479.951537903,2612043.0997666,45.605640564056,0,0
-113.24166420459,-95.1633558384,40.410071007101,2540193.8594459,1479.951537903,2612043.0997666,45.610071007101,0,0
-113.24166366547,-95.17853014429,40.414501450145,2540193.8594459,1479.951537903,2612043.0997666,45.614501450145,0,0
-113.24166312635,-95.19370445018,40.418931893189,2540193.8594459,1479.951537903,2612043.0997666,45.618931893189,0,0
-113.24166258722,-95.208878756071,40.423362336234,2540193.8594459,1479.951537903,2612043.0997666,45.623362336234,0,0
-113.2416620481,-95.224053061961,40.427792779278,2540193.8594459,1479.951537903,2612043.0997666,45.627792779278,0,0
-113.24166150898,-95.239227367851,40.432223222322,2540193.8594459,1479.951537903,2612043.0997666,45.632223222322,0,0
-113.24166096985,-95.254401673741,40.436653665367,2540193.8594459,1479.951537903,2612043.0997666,45.636653665367,0,0
-113.24166043073,-95.269575979631,40.441084108411,2540193.8594459,1479.951537903,2612043.0997666,45.641084108411,0,0
-113.24165989161,-95.284750285521,40.445514551455,2540193.8594459,1479.951537903,2612043.0997666,45.645514551455,0,0
-113.24165935248,-95.299924591411,40.449944994499,2540193.8594459,1479.951537903,2612043.0997666,45.649944994499,0,0
-113.24165881336,-95.315098897301,40.454375437544,2540193.8594459,1479.951537903,2612043.0997666,45.654375437544,0,0
-113.24165827424,-95.330273203191,40.458805880588,2540193.8594459,1479.951537903,2612043.0997666,45.658805880588,0,0
-113.24165773511,-95.345447509081,40.463236323632,2540193.8594459,1479.951537903,2612043.0997666,45.663236323632,0,0
-113.24165719599,-95.360621814971,40.467666766677,2540193.8594459,1479.951537903,2612043.0997666,45.667666766677,0,0
-113.24165665687,-95.375796120861,40.472097209721,2540193.8594459,1479.951537903,2612043.0997666,45.672097209721,0,0
-113.24165611774,-95.390970426751,40.476527652765,2540193.8594459,1479.951537903,2612043.0997666,45.676527652765,0,0
-113.24165557862,-95.406144732641,40.48095809581,2540193.8594459,1479.951537903,2612043.0997666,45.68095809581,0,0
-113.2416550395,-95.421319038531,40.485388538854,2540193.8594459,1479.951537903,2612043.0997666,45.685388538854,0,0
-113.24165450037,-95.436493344421,40.489818981898,2540193.8594459,1479.951537903,2612043.0997666,45.689818981898,0,0
-113.24165396125,-95.451667650311,40.494249424942,2540193.8594459,1479.951537903,2612043.0997666,45.694249424942,0,0
-113.24165342213,-95.466841956201,40.498679867987,2540193.8594459,1479.951537903,2612043.0997666,45.698679867987,0,0
-113.24165288301,-95.482016262091,40.503110311031,2540193.8594459,1479.951537903,2612043.0997666,45.703110311031,0,0
-113.24165234388,-95.497190567982,40.507540754075,2540193.8594459,1479.951537903,2612043.0997666,45.707540754075,0,0
-113.24165180476,-95.512364873872,40.51197119712,2540193.8594459,1479.951537903,2612043.0997666,45.71197119712,0,0
-113.24165126564,-95.527539179762,40.516401640164,2540193.8594459,1479.951537903,2612043.0997666,45.716401640164,0,0
-113.24165072651,-95.542713485652,40.520832083208,2540193.8594459,1479.951537903,2612043.0997666,45.720832083208,0,0
-113.24165018739,-95.557887791542,40.525262526253,2540193.8594459,1479.951537903,2612043.0997666,45.725262526253,0,0
-113.24164964827,-95.573062097432,40.529692969297,2540193.8594459,1479.951537903,2612043.0997666,45.729692969297,0,0
-113.24164910914,-95.588236403322,40.534123412341,2540193.8594459,1479.951537903,2612043.0997666,45.734123412341,0,0
-113.24164857002,-95.603410709212,40.538553855386,2540193.8594459,1479.951537903,2612043.0997666,45.738553855386,0,0
-113.2416480309,-95.618585015102,40.54298429843,2540193.8594459,1479.951537903,2612043.0997666,45.74298429843,0,0
-113.24164749177,-95.633759320992,40.547414741474,2540193.8594459,1479.951537903,2612043.0997666,45.747414741474,0,0
-113.24164695265,-95.648933626882,40.551845184518,2540193.8594459,1479.951537903,2612043.0997666,45.751845184518,0,0
-113.24164641353,-95.664107932772,40.556275627563,2540193.8594459,1479.951537903,2612043.0997666,45.756275627563,0,0
-113.2416458744,-95.679282238662,40.560706070607,2540193.8594459,1479.951537903,2612043.0997666,45.760706070607,0,0
-113.24164533528,-95.694456544552,40.565136513651,2540193.8594459,1479.951537903,2612043.0997666,45.765136513651,0,0
-113.24164479616,-95.709630850442,40.569566956696,2540193.8594459,1479.951537903,2612043.0997666,45.769566956696,0,0
-113.24164425703,-95.724805156332,40.57399739974,2540193.8594459,1479.951537903,2612043.0997666,45.77399739974,0,0
-113.24164371791,-95.739979462222,40.578427842784,2540193.8594459,1479.951537903,2612043.0997666,45.778427842784,0,0
-113.24164317879,-95.755153768112,40.582858285829,2540193.8594459,1479.951537903,2612043.0997666,45.782858285829,0,0
-113.24164263966,-95.770328074003,40.587288728873,2540193.8594459,1479.951537903,2612043.0997666,45.787288728873,0,0
-113.24164210054,-95.785502379893,40.591719171917,2540193.8594459,1479.951537903,2612043.0997666,45.791719171917,0,0
-113.24164156142,-95.800676685783,40.596149614961,2540193.8594459,1479.951537903,2612043.0997666,45.796149614961,0,0
-113.2416410223,-95.815850991673,40.600580058006,2540193.8594459,1479.951537903,2612043.0997666,45.800580058006,0,0
-113.24164048317,-95.831025297563,40.60501050105,2540193.8594459,1479.951537903,2612043.0997666,45.80501050105,0,0
-113.24163994405,-95.846199603453,40.609440944094,2540193.8594459,1479.951537903,2612043.0997666,45.809440944094,0,0
-113.24163940493,-95.861373909343,40.613871387139,2540193.8594459,1479.951537903,2612043.0997666,45.813871387139,0,0
-113.2416388658,-95.876548215233,40.618301830183,2540193.8594459,1479.951537903,2612043.0997666,45.818301830183,0,0
-113.24163832668,-95.891722521123,40.622732273227,2540193.8594459,1479.951537903,2612043.0997666,45.822732273227,0,0
-113.24163778756,-95.906896827013,40.627162716272,2540193.8594459,1479.951537903,2612043.0997666,45.827162716272,0,0
-113.24163724843,-95.922071132903,40.631593159316,2540193.8594459,1479.951537903,2612043.0997666,45.831593159316,0,0
-113.24163670931,-95.937245438793,40.63602360236,2540193.8594459,1479.951537903,2612043.0997666,45.83602360236,0,0
-113.24163617019,-95.952419744683,40.640454045405,2540193.8594459,1479.951537903,2612043.0997666,45.840454045405,0,0
-113.24163563106,-95.967594050573,40.644884488449,2540193.8594459,1479.951537903,2612043.0997666,45.844884488449,0,0
-113.24163509194,-95.982768356463,40.649314931493,2540193.8594459,1479.951537903,2612043.0997666,45.849314931493,0,0
-113.24163455282,-95.997942662353,40.653745374537,2540193.8594459,1479.951537903,2612043.0997666,45.853745374537,0,0
-113.24163401369,-96.013116968243,40.658175817582,2540193.8594459,1479.951537903,2612043.0997666,45.858175817582,0,0
-113.24163347457,-96.028291274133,40.662606260626,2540193.8594459,1479.951537903,2612043.0997666,45.862606260626,0,0
-113.24163293545,-96.043465580024,40.66703670367,2540193.8594459,1479.951537903,2612043.0997666,45.86703670367,0,0
-113.24163239632,-96.058639885914,40.671467146715,2540193.8594459,1479.951537903,2612043.0997666,45.871467146715,0,0
-113.2416318572,-96.073814191804,40.675897589759,2540193.8594459,1479.951537903,2612043.0997666,45.875897589759,0,0
-113.24163131808,-96.088988497694,40.680328032803,2540193.8594459,1479.951537903,2612043.0997666,45.880328032803,0,0
-113.24163077895,-96.104162803584,40.684758475848,2540193.8594459,1479.951537903,2612043.0997666,45.884758475848,0,0
-113.24163023983,-96.119337109474,40.689188918892,2540193.8594459,1479.951537903,2612043.0997666,45.889188918892,0,0
-113.24162970071,-96.134511415364,40.693619361936,2540193.8594459,1479.951537903,2612043.0997666,45.893619361936,0,0
-113.24162916158,-96.149685721254,40.69804980498,2540193.8594459,1479.951537903,2612043.0997666,45.89804980498,0,0
-113.24162862246,-96.164860027144,40.702480248025,2540193.8594459,1479.951537903,2612043.0997666,45.902480248025,0,0
-113.24162808334,-96.180034333034,40.706910691069,2540193.8594459,1479.951537903,2612043.0997666,45.906910691069,0,0
-113.24162754422,-96.195208638924,40.711341134113,2540193.8594459,1479.951537903,2612043.0997666,45.911341134113,0,0
-113.24162700509,-96.210382944814,40.715771577158,2540193.8594459,1479.951537903,2612043.0997666,45.915771577158,0,0
-113.24162646597,-96.225557250704,40.720202020202,2540193.8594459,1479.951537903,2612043.0997666,45.920202020202,0,0
-113.24162592685,-96.240731556594,40.724632463246,2540193.8594459,1479.951537903,2612043.0997666,45.924632463246,0,0
-113.24162538772,-96.255905862484,40.729062906291,2540193.8594459,1479.951537903,2612043.0997666,45.929062906291,0,0
-113.2416248486,-96.271080168374,40.733493349335,2540193.8594459,1479.951537903,2612043.0997666,45.933493349335,0,0
-113.24162430948,-96.286254474264,40.737923792379,2540193.8594459,1479.951537903,2612043.0997666,45.937923792379,0,0
-113.24162377035,-96.301428780154,40.742354235424,2540193.8594459,1479.951537903,2612043.0997666,45.942354235424,0,0
-113.24162323123,-96.316603086044,40.746784678468,2540193.8594459,1479.951537903,2612043.0997666,45.946784678468,0,0
-113.24162269211,-96.331777391935,40.751215121512,2540193.8594459,1479.951537903,2612043.0997666,45.951215121512,0,0
-113.24162215298,-96.346951697825,40.755645564556,2540193.8594459,1479.951537903,2612043.0997666,45.955645564556,0,0
-113.24162161386,-96.362126003715,40.760076007601,2540193.8594459,1479.951537903,2612043.0997666,45.960076007601,0,0
-113.24162107474,-96.377300309605,40.764506450645,2540193.8594459,1479.951537903,2612043.0997666,45.964506450645,0,0
-113.24162053561,-96.392474615495,40.768936893689,2540193.8594459,1479.951537903,2612043.0997666,45.968936893689,0,0
-113.24161999649,-96.407648921385,40.773367336734,2540193.8594459,1479.951537903,2612043.0997666,45.973367336734,0,0
-113.24161945737,-96.422823227275,40.777797779778,2540193.8594459,1479.951537903,2612043.0997666,45.977797779778,0,0
-113.24161891824,-96.437997533165,40.782228222822,2540193.8594459,1479.951537903,2612043.0997666,45.982228222822,0,0
-113.24161837912,-96.453171839055,40.786658665867,2540193.8594459,1479.951537903,2612043.0997666,45.986658665867,0,0
-113.24161784,-96.468346144945,40.791089108911,2540193.8594459,1479.951537903,2612043.0997666,45.991089108911,0,0
-113.24161730087,-96.483520450835,40.795519551955,2540193.8594459,1479.951537903,2612043.0997666,45.995519551955,0,0
-113.24161676175,-96.498694756725,40.799949994999,2540193.8594459,1479.951537903,2612043.0997666,45.999949994999,0,0
-113.24161622263,-96.513869062615,40.804380438044,2540193.8594459,1479.951537903,2612043.0997666,46.004380438044,0,0
-113.24161568351,-96.529043368505,40.808810881088,2540193.8594459,1479.951537903,2612043.0997666,46.008810881088,0,0
-113.24161514438,-96.544217674395,40.813241324132,2540193.8594459,1479.951537903,2612043.0997666,46.013241324132,0,0
-113.24161460526,-96.559391980285,40.817671767177,2540193.8594459,1479.951537903,2612043.0997666,46.017671767177,0,0
-113.24161406614,-96.574566286175,40.822102210221,2540193.8594459,1479.951537903,2612043.0997666,46.022102210221,0,0
-113.24161352701,-96.589740592065,40.826532653265,2540193.8594459,1479.951537903,2612043.0997666,46.026532653265,0,0
-113.24161298789,-96.604914897956,40.83096309631,2540193.8594459,1479.951537903,2612043.0997666,46.03096309631,0,0
-113.24161244877,-96.620089203846,40.835393539354,2540193.8594459,1479.951537903,2612043.0997666,46.035393539354,0,0
-113.24161190964,-96.635263509736,40.839823982398,2540193.8594459,1479.951537903,2612043.0997666,46.039823982398,0,0
-113.24161137052,-96.650437815626,40.844254425443,2540193.8594459,1479.951537903,2612043.0997666,46.044254425443,0,0
-113.2416108314,-96.665612121516,40.848684868487,2540193.8594459,1479.951537903,2612043.0997666,46.048684868487,0,0
-113.24161029227,-96.680786427406,40.853115311531,2540193.8594459,1479.951537903,2612043.0997666,46.053115311531,0,0
-113.24160975315,-96.695960733296,40.857545754575,2540193.8594459,1479.951537903,2612043.0997666,46.057545754575,0,0
-113.24160921403,-96.711135039186,40.86197619762,2540193.8594459,1479.951537903,2612043.0997666,46.06197619762,0,0
-113.2416086749,-96.726309345076,40.866406640664,2540193.8594459,1479.951537903,2612043.0997666,46.066406640664,0,0
-113.24160813578,-96.741483650966,40.870837083708,2540193.8594459,1479.951537903,2612043.0997666,46.070837083708,0,0
-113.24160759666,-96.756657956856,40.875267526753,2540193.8594459,1479.951537903,2612043.0997666,46.075267526753,0,0
-113.24160705753,-96.771832262746,40.879697969797,2540193.8594459,1479.951537903,2612043.0997666,46.079697969797,0,0
-113.24160651841,-96.787006568636,40.884128412841,2540193.8594459,1479.951537903,2612043.0997666,46.084128412841,0,0
-113.24160597929,-96.802180874526,40.888558855886,2540193.8594459,1479.951537903,2612043.0997666,46.088558855886,0,0
-113.24160543998,-96.817355180568,40.89298929893,2543258.1120269,380.93915090379,2613732.658264,46.09298929893,0,0
-113.24160490046,-96.832529486788,40.897419741974,2543258.1120269,380.93915090379,2613732.658264,46.097419741974,0,0
-113.24160436094,-96.847703793009,40.901850185018,2543258.1120269,380.93915090379,2613732.658264,46.101850185018,0,0
-113.24160382142,-96.862878099229,40.906280628063,2543258.1120269,380.93915090379,2613732.658264,46.106280628063,0,0
-113.2416032819,-96.878052405449,40.910711071107,2543258.1120269,380.93915090379,2613732.658264,46.110711071107,0,0
-113.24160274237,-96.893226711669,40.915141514151,2543258.1120269,380.93915090379,2613732.658264,46.115141514151,0,0
-113.24160220285,-96.908401017889,40.919571957196,2543258.1120269,380.93915090379,2613732.658264,46.119571957196,0,0
-113.24160166333,-96.92357532411,40.92400240024,2543258.1120269,380.93915090379,2613732.658264,46.12400240024,0,0
-113.24160112381,-96.93874963033,40.928432843284,2543258.1120269,380.93915090379,2613732.658264,46.128432843284,0,0
-113.24160058429,-96.95392393655,40.932863286329,2543258.1120269,380.93915090379,2613732.658264,46.132863286329,0,0
-113.24160004477,-96.96909824277,40.937293729373,2543258.1120269,380.93915090379,2613732.658264,46.137293729373,0,0
-113.24159950524,-96.984272548991,40.941724172417,2543258.1120269,380.93915090379,2613732.658264,46.141724172417,0,0
-113.24159896572,-96.999446855211,40.946154615462,2543258.1120269,380.93915090379,2613732.658264,46.146154615462,0,0
-113.2415984262,-97.014621161431,40.950585058506,2543258.1120269,380.93915090379,2613732.658264,46.150585058506,0,0
-113.24159788668,-97.029795467651,40.95501550155,2543258.1120269,380.93915090379,2613732.658264,46.15501550155,0,0
-113.24159734716,-97.044969773871,40.959445944594,2543258.1120269,380.93915090379,2613732.658264,46.159445944594,0,0
-113.24159680764,-97.060144080092,40.963876387639,2543258.1120269,380.93915090379,2613732.658264,46.163876387639,0,0
-113.24159626812,-97.075318386312,40.968306830683,2543258.1120269,380.93915090379,2613732.658264,46.168306830683,0,0
-113.24159572859,-97.090492692532,40.972737273727,2543258.1120269,380.93915090379,2613732.658264,46.172737273727,0,0
-113.24159518945,-97.105666998524,40.977167716772,2540531.8170825,-271.96880293695,2615019.7272863,46.177167716772,0,0
-113.24159465043,-97.120841304444,40.981598159816,2540531.8170825,-271.96880293695,2615019.7272863,46.181598159816,0,0
-113.24159411141,-97.136015610365,40.98602860286,2540531.8170825,-271.96880293695,2615019.7272863,46.18602860286,0,0
-113.24159357238,-97.151189916285,40.990459045905,2540531.8170825,-271.96880293695,2615019.7272863,46.190459045905,0,0
-113.24159303336,-97.166364222206,40.994889488949,2540531.8170825,-271.96880293695,2615019.7272863,46.194889488949,0,0
-113.24159249434,-97.181538528126,40.999319931993,2540531.8170825,-271.96880293695,2615019.7272863,46.199319931993,0,0
-113.24159195532,-97.196712834047,41.003750375037,2540531.8170825,-271.96880293695,2615019.7272863,46.203750375038,0,0
-113.24159141629,-97.211887139968,41.008180818082,2540531.8170825,-271.96880293695,2615019.7272863,46.208180818082,0,0
-113.24159087727,-97.227061445888,41.012611261126,2540531.8170825,-271.96880293695,2615019.7272863,46.212611261126,0,0
-113.24159033825,-97.242235751809,41.01704170417,2540531.8170825,-271.96880293695,2615019.7272863,46.21704170417,0,0
-113.24158979922,-97.257410057729,41.021472147215,2540531.8170825,-271.96880293695,2615019.7272863,46.221472147215,0,0
-113.2415892602,-97.27258436365,41.025902590259,2540531.8170825,-271.96880293695,2615019.7272863,46.225902590259,0,0
-113.24158872118,-97.28775866957,41.030333033303,2540531.8170825,-271.96880293695,2615019.7272863,46.230333033303,0,0
-113.24158818216,-97.302932975491,41.034763476348,2540531.8170825,-271.96880293695,2615019.7272863,46.234763476348,0,0
-113.24158764313,-97.318107281411,41.039193919392,2540531.8170825,-271.96880293695,2615019.7272863,46.239193919392,0,0
-113.24158710411,-97.333281587332,41.043624362436,2540531.8170825,-271.96880293695,2615019.7272863,46.243624362436,0,0
-113.24158656509,-97.348455893252,41.048054805481,2540531.8170825,-271.96880293695,2615019.7272863,46.248054805481,0,0
-113.24158602606,-97.363630199173,41.052485248525,2540531.8170825,-271.96880293695,2615019.7272863,46.252485248525,0,0
-113.24158548704,-97.378804505094,41.056915691569,2540531.8170825,-271.96880293695,2615019.7272863,46.256915691569,0,0
-113.24158494802,-97.393978811014,41.061346134613,2540531.8170825,-271.96880293695,2615019.7272863,46.261346134613,0,0
-113.241584409,-97.409153116935,41.065776577658,2540531.8170825,-271.96880293695,2615019.7272863,46.265776577658,0,0
-113.24158386997,-97.424327422855,41.070207020702,2540531.8170825,-271.96880293695,2615019.7272863,46.270207020702,0,0
-113.24158333095,-97.439501728776,41.074637463746,2540531.8170825,-271.96880293695,2615019.7272863,46.274637463746,0,0
-113.24158279193,-97.454676034696,41.079067906791,2540531.8170825,-271.96880293695,2615019.7272863,46.279067906791,0,0
-113.24158225291,-97.469850340617,41.083498349835,2540531.8170825,-271.96880293695,2615019.7272863,46.283498349835,0,0
-113.24158171388,-97.485024646537,41.087928792879,2540531.8170825,-271.96880293695,2615019.7272863,46.287928792879,0,0
-113.24158117486,-97.500198952458,41.092359235924,2540531.8170825,-271.96880293695,2615019.7272863,46.292359235924,0,0
-113.24158063584,-97.515373258379,41.096789678968,2540531.8170825,-271.96880293695,2615019.7272863,46.296789678968,0,0
-113.24158009681,-97.530547564299,41.101220122012,2540531.8170825,-271.96880293695,2615019.7272863,46.301220122012,0,0
-113.24157955779,-97.54572187022,41.105650565057,2540531.8170825,-271.96880293695,2615019.7272863,46.305650565057,0,0
-113.24157901877,-97.56089617614,41.110081008101,2540531.8170825,-271.96880293695,2615019.7272863,46.310081008101,0,0
-113.24157847975,-97.576070482061,41.114511451145,2540531.8170825,-271.96880293695,2615019.7272863,46.314511451145,0,0
-113.24157794072,-97.591244787981,41.118941894189,2540531.8170825,-271.96880293695,2615019.7272863,46.318941894189,0,0
-113.2415774017,-97.606419093902,41.123372337234,2540531.8170825,-271.96880293695,2615019.7272863,46.323372337234,0,0
-113.24157686268,-97.621593399822,41.127802780278,2540531.8170825,-271.96880293695,2615019.7272863,46.327802780278,0,0
-113.24157632365,-97.636767705743,41.132233223322,2540531.8170825,-271.96880293695,2615019.7272863,46.332233223322,0,0
-113.24157578463,-97.651942011664,41.136663666367,2540531.8170825,-271.96880293695,2615019.7272863,46.336663666367,0,0
-113.24157524561,-97.667116317584,41.141094109411,2540531.8170825,-271.96880293695,2615019.7272863,46.341094109411,0,0
-113.24157470659,-97.682290623505,41.145524552455,2540531.8170825,-271.96880293695,2615019.7272863,46.345524552455,0,0
-113.24157416756,-97.697464929425,41.1499549955,2540531.8170825,-271.96880293695,2615019.7272863,46.3499549955,0,0
-113.24157362854,-97.712639235346,41.154385438544,2540531.8170825,-271.96880293695,2615019.7272863,46.354385438544,0,0
-113.24157308952,-97.727813541266,41.158815881588,2540531.8170825,-271.96880293695,2615019.7272863,46.358815881588,0,0
-113.24157255049,-97.742987847187,41.163246324632,2540531.8170825,-271.96880293695,2615019.7272863,46.363246324632,0,0
-113.24157201147,-97.758162153107,41.167676767677,2540531.8170825,-271.96880293695,2615019.7272863,46.367676767677,0,0
-113.24157147245,-97.773336459028,41.172107210721,2540531.8170825,-271.96880293695,2615019.7272863,46.372107210721,0,0
-113.24157093343,-97.788510764949,41.176537653765,2540531.8170825,-271.96880293695,2615019.7272863,46.376537653765,0,0
-113.2415703944,-97.803685070869,41.18096809681,2540531.8170825,-271.96880293695,2615019.7272863,46.38096809681,0,0
-113.24156985538,-97.81885937679,41.185398539854,2540531.8170825,-271.96880293695,2615019.7272863,46.385398539854,0,0
-113.24156931636,-97.83403368271,41.189828982898,2540531.8170825,-271.96880293695,2615019.7272863,46.389828982898,0,0
-113.24156877733,-97.849207988631,41.194259425943,2540531.8170825,-271.96880293695,2615019.7272863,46.394259425943,0,0
-113.24156823831,-97.864382294551,41.198689868987,2540531.8170825,-271.96880293695,2615019.7272863,46.398689868987,0,0
-113.24156769929,-97.879556600472,41.203120312031,2540531.8170825,-271.96880293695,2615019.7272863,46.403120312031,0,0
-113.24156716027,-97.894730906392,41.207550755076,2540531.8170825,-271.96880293695,2615019.7272863,46.407550755076,0,0
-113.24156662124,-97.909905212313,41.21198119812,2540531.8170825,-271.96880293695,2615019.7272863,46.41198119812,0,0
-113.24156608222,-97.925079518233,41.216411641164,2540531.8170825,-271.96880293695,2615019.7272863,46.416411641164,0,0
-113.2415655432,-97.940253824154,41.220842084208,2540531.8170825,-271.96880293695,2615019.7272863,46.420842084208,0,0
-113.24156500417,-97.955428130075,41.225272527253,2540531.8170825,-271.96880293695,2615019.7272863,46.425272527253,0,0
-113.24156446515,-97.970602435995,41.229702970297,2540531.8170825,-271.96880293695,2615019.7272863,46.429702970297,0,0
-113.24156392613,-97.985776741916,41.234133413341,2540531.8170825,-271.96880293695,2615019.7272863,46.434133413341,0,0
-113.24156338711,-98.000951047836,41.238563856386,2540531.8170825,-271.96880293695,2615019.7272863,46.438563856386,0,0
-113.24156284808,-98.016125353757,41.24299429943,2540531.8170825,-271.96880293695,2615019.7272863,46.44299429943,0,0
-113.24156230906,-98.031299659677,41.247424742474,2540531.8170825,-271.96880293695,2615019.7272863,46.447424742474,0,0
-113.24156177004,-98.046473965598,41.251855185519,2540531.8170825,-271.96880293695,2615019.7272863,46.451855185519,0,0
-113.24156123101,-98.061648271518,41.256285628563,2540531.8170825,-271.96880293695,2615019.7272863,46.456285628563,0,0
-113.24156069199,-98.076822577439,41.260716071607,2540531.8170825,-271.96880293695,2615019.7272863,46.460716071607,0,0
-113.24156015297,-98.09199688336,41.265146514651,2540531.8170825,-271.96880293695,2615019.7272863,46.465146514651,0,0
-113.24155961395,-98.10717118928,41.269576957696,2540531.8170825,-271.96880293695,2615019.7272863,46.469576957696,0,0
-113.24155907492,-98.122345495201,41.27400740074,2540531.8170825,-271.96880293695,2615019.7272863,46.47400740074,0,0
-113.2415585359,-98.137519801121,41.278437843784,2540531.8170825,-271.96880293695,2615019.7272863,46.478437843784,0,0
-113.24155799688,-98.152694107042,41.282868286829,2540531.8170825,-271.96880293695,2615019.7272863,46.482868286829,0,0
-113.24155745786,-98.167868412962,41.287298729873,2540531.8170825,-271.96880293695,2615019.7272863,46.487298729873,0,0
-113.24155691883,-98.183042718883,41.291729172917,2540531.8170825,-271.96880293695,2615019.7272863,46.491729172917,0,0
-113.24155637981,-98.198217024803,41.296159615962,2540531.8170825,-271.96880293695,2615019.7272863,46.496159615962,0,0
-113.24155584079,-98.213391330724,41.300590059006,2540531.8170825,-271.96880293695,2615019.7272863,46.500590059006,0,0
-113.24155530176,-98.228565636645,41.30502050205,2540531.8170825,-271.96880293695,2615019.7272863,46.50502050205,0,0
-113.24155476274,-98.243739942565,41.309450945095,2540531.8170825,-271.96880293695,2615019.7272863,46.509450945095,0,0
-113.24155422372,-98.258914248486,41.313881388139,2540531.8170825,-271.96880293695,2615019.7272863,46.513881388139,0,0
-113.2415536847,-98.274088554406,41.318311831183,2540531.8170825,-271.96880293695,2615019.7272863,46.518311831183,0,0
-113.24155314567,-98.289262860327,41.322742274227,2540531.8170825,-271.96880293695,2615019.7272863,46.522742274227,0,0
-113.24155260665,-98.304437166247,41.327172717272,2540531.8170825,-271.96880293695,2615019.7272863,46.527172717272,0,0
-113.24155206763,-98.319611472168,41.331603160316,2540531.8170825,-271.96880293695,2615019.7272863,46.531603160316,0,0
-113.2415515286,-98.334785778088,41.33603360336,2540531.8170825,-271.96880293695,2615019.7272863,46.53603360336,0,0
-113.24155098958,-98.349960084009,41.340464046405,2540531.8170825,-271.96880293695,2615019.7272863,46.540464046405,0,0
-113.24155045056,-98.36513438993,41.344894489449,2540531.8170825,-271.96880293695,2615019.7272863,46.544894489449,0,0
-113.24154991154,-98.38030869585,41.349324932493,2540531.8170825,-271.96880293695,2615019.7272863,46.549324932493,0,0
-113.24154937251,-98.395483001771,41.353755375538,2540531.8170825,-271.96880293695,2615019.7272863,46.553755375538,0,0
-113.24154883349,-98.410657307691,41.358185818582,2540531.8170825,-271.96880293695,2615019.7272863,46.558185818582,0,0
-113.24154829447,-98.425831613612,41.362616261626,2540531.8170825,-271.96880293695,2615019.7272863,46.562616261626,0,0
-113.24154775544,-98.441005919532,41.36704670467,2540531.8170825,-271.96880293695,2615019.7272863,46.56704670467,0,0
-113.24154721642,-98.456180225453,41.371477147715,2540531.8170825,-271.96880293695,2615019.7272863,46.571477147715,0,0
-113.2415466774,-98.471354531373,41.375907590759,2540531.8170825,-271.96880293695,2615019.7272863,46.575907590759,0,0
-113.24154613838,-98.486528837294,41.380338033803,2540531.8170825,-271.96880293695,2615019.7272863,46.580338033803,0,0
-113.24154559935,-98.501703143215,41.384768476848,2540531.8170825,-271.96880293695,2615019.7272863,46.584768476848,0,0
-113.24154506033,-98.516877449135,41.389198919892,2540531.8170825,-271.96880293695,2615019.7272863,46.589198919892,0,0
-113.24154452131,-98.532051755056,41.393629362936,2540531.8170825,-271.96880293695,2615019.7272863,46.593629362936,0,0
-113.24154398228,-98.547226060976,41.398059805981,2540531.8170825,-271.96880293695,2615019.7272863,46.598059805981,0,0
-113.24154344326,-98.562400366897,41.402490249025,2540531.8170825,-271.96880293695,2615019.7272863,46.602490249025,0,0
-113.24154290424,-98.577574672817,41.406920692069,2540531.8170825,-271.96880293695,2615019.7272863,46.606920692069,0,0
-113.24154236522,-98.592748978738,41.411351135114,2540531.8170825,-271.96880293695,2615019.7272863,46.611351135114,0,0
-113.24154182619,-98.607923284658,41.415781578158,2540531.8170825,-271.96880293695,2615019.7272863,46.615781578158,0,0
-113.24154128717,-98.623097590579,41.420212021202,2540531.8170825,-271.96880293695,2615019.7272863,46.620212021202,0,0
-113.24154074815,-98.638271896499,41.424642464246,2540531.8170825,-271.96880293695,2615019.7272863,46.624642464246,0,0
-113.24154020912,-98.65344620242,41.429072907291,2540531.8170825,-271.96880293695,2615019.7272863,46.629072907291,0,0
-113.2415396701,-98.668620508341,41.433503350335,2540531.8170825,-271.96880293695,2615019.7272863,46.633503350335,0,0
-113.24153913108,-98.683794814261,41.437933793379,2540531.8170825,-271.96880293695,2615019.7272863,46.637933793379,0,0
-113.24153859206,-98.698969120182,41.442364236424,2540531.8170825,-271.96880293695,2615019.7272863,46.642364236424,0,0
-113.24153805303,-98.714143426102,41.446794679468,2540531.8170825,-271.96880293695,2615019.7272863,46.646794679468,0,0
-113.24153751401,-98.729317732023,41.451225122512,2540531.8170825,-271.96880293695,2615019.7272863,46.651225122512,0,0
-113.24153697499,-98.744492037943,41.455655565557,2540531.8170825,-271.96880293695,2615019.7272863,46.655655565557,0,0
-113.24153643597,-98.759666343864,41.460086008601,2540531.8170825,-271.96880293695,2615019.7272863,46.660086008601,0,0
-113.24153589694,-98.774840649784,41.464516451645,2540531.8170825,-271.96880293695,2615019.7272863,46.664516451645,0,0
-113.24153535792,-98.790014955705,41.468946894689,2540531.8170825,-271.96880293695,2615019.7272863,46.668946894689,0,0
-113.2415348189,-98.805189261626,41.473377337734,2540531.8170825,-271.96880293695,2615019.7272863,46.673377337734,0,0
-113.24153427987,-98.820363567546,41.477807780778,2540531.8170825,-271.96880293695,2615019.7272863,46.677807780778,0,0
-113.24153374085,-98.835537873467,41.482238223822,2540531.8170825,-271.96880293695,2615019.7272863,46.682238223822,0,0
-113.24153320183,-98.850712179387,41.486668666867,2540531.8170825,-271.96880293695,2615019.7272863,46.686668666867,0,0
-113.24153266281,-98.865886485308,41.491099109911,2540531.8170825,-271.96880293695,2615019.7272863,46.691099109911,0,0
-113.24153212378,-98.881060791228,41.495529552955,2540531.8170825,-271.96880293695,2615019.7272863,46.695529552955,0,0
-113.24153158476,-98.896235097149,41.499959996,2540531.8170825,-271.96880293695,2615019.7272863,46.699959996,0,0
-113.24153104574,-98.911409403069,41.504390439044,2540531.8170825,-271.96880293695,2615019.7272863,46.704390439044,0,0
-113.24153050671,-98.92658370899,41.508820882088,2540531.8170825,-271.96880293695,2615019.7272863,46.708820882088,0,0
-113.24152996769,-98.941758014911,41.513251325133,2540531.8170825,-271.96880293695,2615019.7272863,46.713251325133,0,0
-113.24152942867,-98.956932320831,41.517681768177,2540531.8170825,-271.96880293695,2615019.7272863,46.717681768177,0,0
-113.24152888965,-98.972106626752,41.522112211221,2540531.8170825,-271.96880293695,2615019.7272863,46.722112211221,0,0
-113.24152835062,-98.987280932672,41.526542654265,2540531.8170825,-271.96880293695,2615019.7272863,46.726542654265,0,0
-113.2415278116,-99.002455238593,41.53097309731,2540531.8170825,-271.96880293695,2615019.7272863,46.73097309731,0,0
-113.24152727258,-99.017629544513,41.535403540354,2540531.8170825,-271.96880293695,2615019.7272863,46.735403540354,0,0
-113.24152673355,-99.032803850434,41.539833983398,2540531.8170825,-271.96880293695,2615019.7272863,46.739833983398,0,0
-113.24152619453,-99.047978156354,41.544264426443,2540531.8170825,-271.96880293695,2615019.7272863,46.744264426443,0,0
-113.24152565551,-99.063152462275,41.548694869487,2540531.8170825,-271.96880293695,2615019.7272863,46.748694869487,0,0
-113.24152511649,-99.078326768196,41.553125312531,2540531.8170825,-271.96880293695,2615019.7272863,46.753125312531,0,0
-113.24152457746,-99.093501074116,41.557555755576,2540531.8170825,-271.96880293695,2615019.7272863,46.757555755576,0,0
-113.24152403844,-99.108675380037,41.56198619862,2540531.8170825,-271.96880293695,2615019.7272863,46.76198619862,0,0
-113.24152349942,-99.123849685957,41.566416641664,2540531.8170825,-271.96880293695,2615019.7272863,46.766416641664,0,0
-113.24152296039,-99.139023991878,41.570847084708,2540531.8170825,-271.96880293695,2615019.7272863,46.770847084708,0,0
-113.24152242137,-99.154198297798,41.575277527753,2540531.8170825,-271.96880293695,2615019.7272863,46.775277527753,0,0
-113.24152188235,-99.169372603719,41.579707970797,2540531.8170825,-271.96880293695,2615019.7272863,46.779707970797,0,0
-113.24152134333,-99.184546909639,41.584138413841,2540531.8170825,-271.96880293695,2615019.7272863,46.784138413841,0,0
-113.2415208043,-99.19972121556,41.588568856886,2540531.8170825,-271.96880293695,2615019.7272863,46.788568856886,0,0
-113.24152026528,-99.21489552148,41.59299929993,2540531.8170825,-271.96880293695,2615019.7272863,46.79299929993,0,0
-113.24151972626,-99.230069827401,41.597429742974,2540531.8170825,-271.96880293695,2615019.7272863,46.797429742974,0,0
-113.24151918723,-99.245244133322,41.601860186019,2540531.8170825,-271.96880293695,2615019.7272863,46.801860186019,0,0
-113.24151864821,-99.260418439242,41.606290629063,2540531.8170825,-271.96880293695,2615019.7272863,46.806290629063,0,0
-113.24151810919,-99.275592745163,41.610721072107,2540531.8170825,-271.96880293695,2615019.7272863,46.810721072107,0,0
-113.24151757017,-99.290767051083,41.615151515152,2540531.8170825,-271.96880293695,2615019.7272863,46.815151515152,0,0
-113.24151703114,-99.305941357004,41.619581958196,2540531.8170825,-271.96880293695,2615019.7272863,46.819581958196,0,0
-113.24151649212,-99.321115662924,41.62401240124,2540531.8170825,-271.96880293695,2615019.7272863,46.82401240124,0,0
-113.2415159531,-99.336289968845,41.628442844284,2540531.8170825,-271.96880293695,2615019.7272863,46.828442844284,0,0
-113.24151541408,-99.351464274765,41.632873287329,2540531.8170825,-271.96880293695,2615019.7272863,46.832873287329,0,0
-113.24151487505,-99.366638580686,41.637303730373,2540531.8170825,-271.96880293695,2615019.7272863,46.837303730373,0,0
-113.24151433603,-99.381812886607,41.641734173417,2540531.8170825,-271.96880293695,2615019.7272863,46.841734173417,0,0
-113.24151379701,-99.396987192527,41.646164616462,2540531.8170825,-271.96880293695,2615019.7272863,46.846164616462,0,0
-113.24151325798,-99.412161498448,41.650595059506,2540531.8170825,-271.96880293695,2615019.7272863,46.850595059506,0,0
-113.24151271896,-99.427335804368,41.65502550255,2540531.8170825,-271.96880293695,2615019.7272863,46.85502550255,0,0
-113.24151217994,-99.442510110289,41.659455945595,2540531.8170825,-271.96880293695,2615019.7272863,46.859455945595,0,0
-113.24151164092,-99.457684416209,41.663886388639,2540531.8170825,-271.96880293695,2615019.7272863,46.863886388639,0,0
-113.24151110189,-99.47285872213,41.668316831683,2540531.8170825,-271.96880293695,2615019.7272863,46.868316831683,0,0
-113.24151056287,-99.48803302805,41.672747274727,2540531.8170825,-271.96880293695,2615019.7272863,46.872747274727,0,0
-113.24151002385,-99.503207333971,41.677177717772,2540531.8170825,-271.96880293695,2615019.7272863,46.877177717772,0,0
-113.24150948482,-99.518381639892,41.681608160816,2540531.8170825,-271.96880293695,2615019.7272863,46.881608160816,0,0
-113.2415089458,-99.533555945812,41.68603860386,2540531.8170825,-271.96880293695,2615019.7272863,46.88603860386,0,0
-113.24150840678,-99.548730251733,41.690469046905,2540531.8170825,-271.96880293695,2615019.7272863,46.890469046905,0,0
-113.24150786776,-99.563904557653,41.694899489949,2540531.8170825,-271.96880293695,2615019.7272863,46.894899489949,0,0
-113.24150732873,-99.579078863574,41.699329932993,2540531.8170825,-271.96880293695,2615019.7272863,46.899329932993,0,0
-113.24150678971,-99.594253169494,41.703760376038,2540531.8170825,-271.96880293695,2615019.7272863,46.903760376038,0,0
-113.24150625069,-99.609427475415,41.708190819082,2540531.8170825,-271.96880293695,2615019.7272863,46.908190819082,0,0
-113.24150571166,-99.624601781335,41.712621262126,2540531.8170825,-271.96880293695,2615019.7272863,46.912621262126,0,0
-113.24150517264,-99.639776087256,41.717051705171,2540531.8170825,-271.96880293695,2615019.7272863,46.917051705171,0,0
-113.24150463362,-99.654950393177,41.721482148215,2540531.8170825,-271.96880293695,2615019.7272863,46.921482148215,0,0
-113.2415040946,-99.670124699097,41.725912591259,2540531.8170825,-271.96880293695,2615019.7272863,46.925912591259,0,0
-113.24150355557,-99.685299005018,41.730343034303,2540531.8170825,-271.96880293695,2615019.7272863,46.930343034303,0,0
-113.24150301655,-99.700473310938,41.734773477348,2540531.8170825,-271.96880293695,2615019.7272863,46.934773477348,0,0
-113.24150247753,-99.715647616859,41.739203920392,2540531.8170825,-271.96880293695,2615019.7272863,46.939203920392,0,0
-113.2415019385,-99.730821922779,41.743634363436,2540531.8170825,-271.96880293695,2615019.7272863,46.943634363436,0,0
-113.24150139948,-99.7459962287,41.748064806481,2540531.8170825,-271.96880293695,2615019.7272863,46.948064806481,0,0
-113.24150086046,-99.76117053462,41.752495249525,2540531.8170825,-271.96880293695,2615019.7272863,46.952495249525,0,0
-113.24150032144,-99.776344840541,41.756925692569,2540531.8170825,-271.96880293695,2615019.7272863,46.956925692569,0,0
-113.24149978241,-99.791519146461,41.761356135614,2540531.8170825,-271.96880293695,2615019.7272863,46.961356135614,0,0
-113.24149924339,-99.806693452382,41.765786578658,2540531.8170825,-271.96880293695,2615019.7272863,46.965786578658,0,0
-113.24149870437,-99.821867758303,41.770217021702,2540531.8170825,-271.96880293695,2615019.7272863,46.970217021702,0,0
-113.24149816534,-99.837042064223,41.774647464746,2540531.8170825,-271.96880293695,2615019.7272863,46.974647464746,0,0
-113.24149762632,-99.852216370144,41.779077907791,2540531.8170825,-271.96880293695,2615019.7272863,46.979077907791,0,0
-113.2414970873,-99.867390676064,41.783508350835,2540531.8170825,-271.96880293695,2615019.7272863,46.983508350835,0,0
-113.24149654828,-99.882564981985,41.787938793879,2540531.8170825,-271.96880293695,2615019.7272863,46.987938793879,0,0
-113.24149600925,-99.897739287905,41.792369236924,2540531.8170825,-271.96880293695,2615019.7272863,46.992369236924,0,0
-113.24149547023,-99.912913593826,41.796799679968,2540531.8170825,-271.96880293695,2615019.7272863,46.996799679968,0,0
-113.24149493121,-99.928087899746,41.801230123012,2540531.8170825,-271.96880293695,2615019.7272863,47.001230123012,0,0
-113.24149439218,-99.943262205667,41.805660566057,2540531.8170825,-271.96880293695,2615019.7272863,47.005660566057,0,0
-113.24149385316,-99.958436511588,41.810091009101,2540531.8170825,-271.96880293695,2615019.7272863,47.010091009101,0,0
-113.24149331414,-99.973610817508,41.814521452145,2540531.8170825,-271.96880293695,2615019.7272863,47.014521452145,0,0
-113.24149277512,-99.988785123429,41.81895189519,2540531.8170825,-271.96880293695,2615019.7272863,47.01895189519,0,0
-113.24149223609,-100.00395942935,41.823382338234,2540531.8170825,-271.96880293695,2615019.7272863,47.023382338234,0,0
-113.24149169707,-100.01913373527,41.827812781278,2540531.8170825,-271.96880293695,2615019.7272863,47.027812781278,0,0
-113.24149115805,-100.03430804119,41.832243224322,2540531.8170825,-271.96880293695,2615019.7272863,47.032243224322,0,0
-113.24149061903,-100.04948234711,41.836673667367,2540531.8170825,-271.96880293695,2615019.7272863,47.036673667367,0,0
-113.24149008,-100.06465665303,41.841104110411,2540531.8170825,-271.96880293695,2615019.7272863,47.041104110411,0,0
-113.24148954098,-100.07983095895,41.845534553455,2540531.8170825,-271.96880293695,2615019.7272863,47.045534553455,0,0
-113.24148900196,-100.09500526487,41.8499649965,2540531.8170825,-271.96880293695,2615019.7272863,47.0499649965,0,0
-113.24148846293,-100.11017957079,41.854395439544,2540531.8170825,-271.96880293695,2615019.7272863,47.054395439544,0,0
-113.24148792391,-100.12535387671,41.858825882588,2540531.8170825,-271.96880293695,2615019.7272863,47.058825882588,0,0
-113.24148738489,-100.14052818263,41.863256325633,2540531.8170825,-271.96880293695,2615019.7272863,47.063256325633,0,0
-113.24148684587,-100.15570248855,41.867686768677,2540531.8170825,-271.96880293695,2615019.7272863,47.067686768677,0,0
-113.24148630684,-100.17087679448,41.872117211721,2540531.8170825,-271.96880293695,2615019.7272863,47.072117211721,0,0
-113.24148576782,-100.1860511004,41.876547654765,2540531.8170825,-271.96880293695,2615019.7272863,47.076547654765,0,0
-113.2414852288,-100.20122540632,41.88097809781,2540531.8170825,-271.96880293695,2615019.7272863,47.08097809781,0,0
-113.24148468977,-100.21639971224,41.885408540854,2540531.8170825,-271.96880293695,2615019.7272863,47.085408540854,0,0
-113.24148415075,-100.23157401816,41.889838983898,2540531.8170825,-271.96880293695,2615019.7272863,47.089838983898,0,0
-113.24148361173,-100.24674832408,41.894269426943,2540531.8170825,-271.96880293695,2615019.7272863,47.094269426943,0,0
-113.24148307271,-100.26192263,41.898699869987,2540531.8170825,-271.96880293695,2615019.7272863,47.098699869987,0,0
-113.24148253368,-100.27709693592,41.903130313031,2540531.8170825,-271.96880293695,2615019.7272863,47.103130313031,0,0
-113.24148199466,-100.29227124184,41.907560756076,2540531.8170825,-271.96880293695,2615019.7272863,47.107560756076,0,0
-113.24148145564,-100.30744554776,41.91199119912,2540531.8170825,-271.96880293695,2615019.7272863,47.11199119912,0,0
-113.24148091661,-100.32261985368,41.916421642164,2540531.8170825,-271.96880293695,2615019.7272863,47.116421642164,0,0
-113.24148037759,-100.3377941596,41.920852085209,2540531.8170825,-271.96880293695,2615019.7272863,47.120852085209,0,0
-113.24147983857,-100.35296846552,41.925282528253,2540531.8170825,-271.96880293695,2615019.7272863,47.125282528253,0,0
-113.24147929955,-100.36814277144,41.929712971297,2540531.8170825,-271.96880293695,2615019.7272863,47.129712971297,0,0
-113.24147876052,-100.38331707736,41.934143414341,2540531.8170825,-271.96880293695,2615019.7272863,47.134143414341,0,0
-113.2414782215,-100.39849138328,41.938573857386,2540531.8170825,-271.96880293695,2615019.7272863,47.138573857386,0,0
-113.24147768248,-100.4136656892,41.94300430043,2540531.8170825,-271.96880293695,2615019.7272863,47.14300430043,0,0
-113.24147714345,-100.42883999512,41.947434743474,2540531.8170825,-271.96880293695,2615019.7272863,47.147434743474,0,0
-113.24147660443,-100.44401430105,41.951865186519,2540531.8170825,-271.96880293695,2615019.7272863,47.151865186519,0,0
-113.24147606541,-100.45918860697,41.956295629563,2540531.8170825,-271.96880293695,2615019.7272863,47.156295629563,0,0
-113.24147552639,-100.47436291289,41.960726072607,2540531.8170825,-271.96880293695,2615019.7272863,47.160726072607,0,0
-113.24147498736,-100.48953721881,41.965156515652,2540531.8170825,-271.96880293695,2615019.7272863,47.165156515652,0,0
-113.24147444834,-100.50471152473,41.969586958696,2540531.8170825,-271.96880293695,2615019.7272863,47.169586958696,0,0
-113.24147390932,-100.51988583065,41.97401740174,2540531.8170825,-271.96880293695,2615019.7272863,47.17401740174,0,0
-113.24147337029,-100.53506013657,41.978447844784,2540531.8170825,-271.96880293695,2615019.7272863,47.178447844784,0,0
-113.24147283127,-100.55023444249,41.982878287829,2540531.8170825,-271.96880293695,2615019.7272863,47.182878287829,0,0
-113.24147229225,-100.56540874841,41.987308730873,2540531.8170825,-271.96880293695,2615019.7272863,47.187308730873,0,0
-113.24147175323,-100.58058305433,41.991739173917,2540531.8170825,-271.96880293695,2615019.7272863,47.191739173917,0,0
-113.2414712142,-100.59575736025,41.996169616962,2540531.8170825,-271.96880293695,2615019.7272863,47.196169616962,0,0
-113.24147067518,-100.61093166617,42.000600060006,2540531.8170825,-271.96880293695,2615019.7272863,47.200600060006,0,0
-113.24147013616,-100.62610597209,42.00503050305,2540531.8170825,-271.96880293695,2615019.7272863,47.20503050305,0,0
-113.24146959714,-100.64128027801,42.009460946095,2540531.8170825,-271.96880293695,2615019.7272863,47.209460946095,0,0
-113.24146905811,-100.65645458393,42.013891389139,2540531.8170825,-271.96880293695,2615019.7272863,47.213891389139,0,0
-113.24146851909,-100.67162888985,42.018321832183,2540531.8170825,-271.96880293695,2615019.7272863,47.218321832183,0,0
-113.24146798007,-100.68680319577,42.022752275228,2540531.8170825,-271.96880293695,2615019.7272863,47.222752275228,0,0
-113.24146744104,-100.70197750169,42.027182718272,2540531.8170825,-271.96880293695,2615019.7272863,47.227182718272,0,0
-113.24146690202,-100.71715180762,42.031613161316,2540531.8170825,-271.96880293695,2615019.7272863,47.231613161316,0,0
-113.241466363,-100.73232611354,42.03604360436,2540531.8170825,-271.96880293695,2615019.7272863,47.23604360436,0,0
-113.24146582398,-100.74750041946,42.040474047405,2540531.8170825,-271.96880293695,2615019.7272863,47.240474047405,0,0
-113.24146528495,-100.76267472538,42.044904490449,2540531.8170825,-271.96880293695,2615019.7272863,47.244904490449,0,0
-113.24146474593,-100.7778490313,42.049334933493,2540531.8170825,-271.96880293695,2615019.7272863,47.249334933493,0,0
-113.24146420691,-100.79302333722,42.053765376538,2540531.8170825,-271.96880293695,2615019.7272863,47.253765376538,0,0
-113.24146366788,-100.80819764314,42.058195819582,2540531.8170825,-271.96880293695,2615019.7272863,47.258195819582,0,0
-113.24146312886,-100.82337194906,42.062626262626,2540531.8170825,-271.96880293695,2615019.7272863,47.262626262626,0,0
-113.24146258984,-100.83854625498,42.067056705671,2540531.8170825,-271.96880293695,2615019.7272863,47.267056705671,0,0
-113.24146205082,-100.8537205609,42.071487148715,2540531.8170825,-271.96880293695,2615019.7272863,47.271487148715,0,0
-113.24146151179,-100.86889486682,42.075917591759,2540531.8170825,-271.96880293695,2615019.7272863,47.275917591759,0,0
-113.24146097277,-100.88406917274,42.080348034803,2540531.8170825,-271.96880293695,2615019.7272863,47.280348034803,0,0
-113.24146043375,-100.89924347866,42.084778477848,2540531.8170825,-271.96880293695,2615019.7272863,47.284778477848,0,0
-113.24145989472,-100.91441778458,42.089208920892,2540531.8170825,-271.96880293695,2615019.7272863,47.289208920892,0,0
-113.2414593557,-100.9295920905,42.093639363936,2540531.8170825,-271.96880293695,2615019.7272863,47.293639363936,0,0
-113.24145881668,-100.94476639642,42.098069806981,2540531.8170825,-271.96880293695,2615019.7272863,47.298069806981,0,0
-113.24145827766,-100.95994070234,42.102500250025,2540531.8170825,-271.96880293695,2615019.7272863,47.302500250025,0,0
-113.24145773863,-100.97511500826,42.106930693069,2540531.8170825,-271.96880293695,2615019.7272863,47.306930693069,0,0
-113.24145719961,-100.99028931419,42.111361136114,2540531.8170825,-271.96880293695,2615019.7272863,47.311361136114,0,0
-113.24145666059,-101.00546362011,42.115791579158,2540531.8170825,-271.96880293695,2615019.7272863,47.315791579158,0,0
-113.24145612156,-101.02063792603,42.120222022202,2540531.8170825,-271.96880293695,2615019.7272863,47.320222022202,0,0
-113.24145558254,-101.03581223195,42.124652465247,2540531.8170825,-271.96880293695,2615019.7272863,47.324652465247,0,0
-113.24145504352,-101.05098653787,42.129082908291,2540531.8170825,-271.96880293695,2615019.7272863,47.329082908291,0,0
-113.2414545045,-101.06616084379,42.133513351335,2540531.8170825,-271.96880293695,2615019.7272863,47.333513351335,0,0
-113.24145396547,-101.08133514971,42.137943794379,2540531.8170825,-271.96880293695,2615019.7272863,47.337943794379,0,0
-113.24145342645,-101.09650945563,42.142374237424,2540531.8170825,-271.96880293695,2615019.7272863,47.342374237424,0,0
-113.24145288743,-101.11168376155,42.146804680468,2540531.8170825,-271.96880293695,2615019.7272863,47.346804680468,0,0
-113.2414523484,-101.12685806747,42.151235123512,2540531.8170825,-271.96880293695,2615019.7272863,47.351235123512,0,0
-113.24145180938,-101.14203237339,42.155665566557,2540531.8170825,-271.96880293695,2615019.7272863,47.355665566557,0,0
-113.24145127036,-101.15720667931,42.160096009601,2540531.8170825,-271.96880293695,2615019.7272863,47.360096009601,0,0
-113.24145073134,-101.17238098523,42.164526452645,2540531.8170825,-271.96880293695,2615019.7272863,47.364526452645,0,0
-113.24145019231,-101.18755529115,42.16895689569,2540531.8170825,-271.96880293695,2615019.7272863,47.36895689569,0,0
-113.24144965329,-101.20272959707,42.173387338734,2540531.8170825,-271.96880293695,2615019.7272863,47.373387338734,0,0
-113.24144911427,-101.21790390299,42.177817781778,2540531.8170825,-271.96880293695,2615019.7272863,47.377817781778,0,0
-113.24144857524,-101.23307820891,42.182248224822,2540531.8170825,-271.96880293695,2615019.7272863,47.382248224822,0,0
-113.24144803622,-101.24825251483,42.186678667867,2540531.8170825,-271.96880293695,2615019.7272863,47.386678667867,0,0
-113.2414474972,-101.26342682076,42.191109110911,2540531.8170825,-271.96880293695,2615019.7272863,47.391109110911,0,0
-113.24144695818,-101.27860112668,42.195539553955,2540531.8170825,-271.96880293695,2615019.7272863,47.395539553955,0,0
-113.24144641915,-101.2937754326,42.199969997,2540531.8170825,-271.96880293695,2615019.7272863,47.399969997,0,0
-113.24144588013,-101.30894973852,42.204400440044,2540531.8170825,-271.96880293695,2615019.7272863,47.404400440044,0,0
-113.24144534111,-101.32412404444,42.208830883088,2540531.8170825,-271.96880293695,2615019.7272863,47.408830883088,0,0
-113.24144480209,-101.33929835036,42.213261326133,2540531.8170825,-271.96880293695,2615019.7272863,47.413261326133,0,0
-113.24144426306,-101.35447265628,42.217691769177,2540531.8170825,-271.96880293695,2615019.7272863,47.417691769177,0,0
-113.24144372404,-101.3696469622,42.222122212221,2540531.8170825,-271.96880293695,2615019.7272863,47.422122212221,0,0
-113.24144318502,-101.38482126812,42.226552655266,2540531.8170825,-271.96880293695,2615019.7272863,47.426552655266,0,0
-113.24144264599,-101.39999557404,42.23098309831,2540531.8170825,-271.96880293695,2615019.7272863,47.43098309831,0,0
-113.24144210697,-101.41516987996,42.235413541354,2540531.8170825,-271.96880293695,2615019.7272863,47.435413541354,0,0
-113.24144156795,-101.43034418588,42.239843984398,2540531.8170825,-271.96880293695,2615019.7272863,47.439843984398,0,0
-113.24144102893,-101.4455184918,42.244274427443,2540531.8170825,-271.96880293695,2615019.7272863,47.444274427443,0,0
-113.2414404899,-101.46069279772,42.248704870487,2540531.8170825,-271.96880293695,2615019.7272863,47.448704870487,0,0
-113.24143995088,-101.47586710364,42.253135313531,2540531.8170825,-271.96880293695,2615019.7272863,47.453135313531,0,0
-113.24143941186,-101.49104140956,42.257565756576,2540531.8170825,-271.96880293695,2615019.7272863,47.457565756576,0,0
-113.24143887283,-101.50621571548,42.26199619962,2540531.8170825,-271.96880293695,2615019.7272863,47.46199619962,0,0
-113.24143833381,-101.5213900214,42.266426642664,2540531.8170825,-271.96880293695,2615019.7272863,47.466426642664,0,0
-113.24143779479,-101.53656432733,42.270857085709,2540531.8170825,-271.96880293695,2615019.7272863,47.470857085709,0,0
-113.24143725577,-101.55173863325,42.275287528753,2540531.8170825,-271.96880293695,2615019.7272863,47.475287528753,0,0
-113.24143671674,-101.56691293917,42.279717971797,2540531.8170825,-271.96880293695,2615019.7272863,47.479717971797,0,0
-113.24143617772,-101.58208724509,42.284148414841,2540531.8170825,-271.96880293695,2615019.7272863,47.484148414841,0,0
-113.2414356387,-101.59726155101,42.288578857886,2540531.8170825,-271.96880293695,2615019.7272863,47.488578857886,0,0
-113.24143509967,-101.61243585693,42.29300930093,2540531.8170825,-271.96880293695,2615019.7272863,47.49300930093,0,0
-113.24143456065,-101.62761016285,42.297439743974,2540531.8170825,-271.96880293695,2615019.7272863,47.497439743974,0,0
-113.24143402163,-101.64278446877,42.301870187019,2540531.8170825,-271.96880293695,2615019.7272863,47.501870187019,0,0
-113.24143348261,-101.65795877469,42.306300630063,2540531.8170825,-271.96880293695,2615019.7272863,47.506300630063,0,0
-113.24143294358,-101.67313308061,42.310731073107,2540531.8170825,-271.96880293695,2615019.7272863,47.510731073107,0,0
-113.24143240456,-101.68830738653,42.315161516152,2540531.8170825,-271.96880293695,2615019.7272863,47.515161516152,0,0
-113.24143186554,-101.70348169245,42.319591959196,2540531.8170825,-271.96880293695,2615019.7272863,47.519591959196,0,0
-113.24143132651,-101.71865599837,42.32402240224,2540531.8170825,-271.96880293695,2615019.7272863,47.52402240224,0,0
-113.24143078749,-101.73383030429,42.328452845285,2540531.8170825,-271.96880293695,2615019.7272863,47.528452845285,0,0
-113.24143024847,-101.74900461021,42.332883288329,2540531.8170825,-271.96880293695,2615019.7272863,47.532883288329,0,0
-113.24142970945,-101.76417891613,42.337313731373,2540531.8170825,-271.96880293695,2615019.7272863,47.537313731373,0,0
-113.24142917042,-101.77935322205,42.341744174417,2540531.8170825,-271.96880293695,2615019.7272863,47.541744174417,0,0
-113.2414286314,-101.79452752797,42.346174617462,2540531.8170825,-271.96880293695,2615019.7272863,47.546174617462,0,0
-113.24142809238,-101.8097018339,42.350605060506,2540531.8170825,-271.96880293695,2615019.7272863,47.550605060506,0,0
-113.24142755335,-101.82487613982,42.35503550355,2540531.8170825,-271.96880293695,2615019.7272863,47.55503550355,0,0
-113.24142701433,-101.84005044574,42.359465946595,2540531.8170825,-271.96880293695,2615019.7272863,47.559465946595,0,0
-113.24142647531,-101.85522475166,42.363896389639,2540531.8170825,-271.96880293695,2615019.7272863,47.563896389639,0,0
-113.24142593629,-101.87039905758,42.368326832683,2540531.8170825,-271.96880293695,2615019.7272863,47.568326832683,0,0
-113.24142539726,-101.8855733635,42.372757275728,2540531.8170825,-271.96880293695,2615019.7272863,47.572757275728,0,0
-113.24142485824,-101.90074766942,42.377187718772,2540531.8170825,-271.96880293695,2615019.7272863,47.577187718772,0,0
-113.24142431922,-101.91592197534,42.381618161816,2540531.8170825,-271.96880293695,2615019.7272863,47.581618161816,0,0
-113.2414237802,-101.93109628126,42.38604860486,2540531.8170825,-271.96880293695,2615019.7272863,47.58604860486,0,0
-113.24142324117,-101.94627058718,42.390479047905,2540531.8170825,-271.96880293695,2615019.7272863,47.590479047905,0,0
-113.24142270215,-101.9614448931,42.394909490949,2540531.8170825,-271.96880293695,2615019.7272863,47.594909490949,0,0
-113.24142216313,-101.97661919902,42.399339933993,2540531.8170825,-271.96880293695,2615019.7272863,47.599339933993,0,0
-113.2414216241,-101.99179350494,42.403770377038,2540531.8170825,-271.96880293695,2615019.7272863,47.603770377038,0,0
-113.24142108508,-102.00696781086,42.408200820082,2540531.8170825,-271.96880293695,2615019.7272863,47.608200820082,0,0
-113.24142054606,-102.02214211678,42.412631263126,2540531.8170825,-271.96880293695,2615019.7272863,47.612631263126,0,0
-113.24142000704,-102.0373164227,42.417061706171,2540531.8170825,-271.96880293695,2615019.7272863,47.617061706171,0,0
-113.24141946801,-102.05249072862,42.421492149215,2540531.8170825,-271.96880293695,2615019.7272863,47.621492149215,0,0
-113.24141892899,-102.06766503454,42.425922592259,2540531.8170825,-271.96880293695,2615019.7272863,47.625922592259,0,0
-113.24141838973,-102.08283934043,42.430353035304,2543497.7282552,-79.748322740534,2616007.182412,47.630353035304,0,0
-113.24141785029,-102.09801364629,42.434783478348,2543497.7282552,-79.748322740534,2616007.182412,47.634783478348,0,0
-113.24141731085,-102.11318795216,42.439213921392,2543497.7282552,-79.748322740534,2616007.182412,47.639213921392,0,0
-113.24141677141,-102.12836225802,42.443644364436,2543497.7282552,-79.748322740534,2616007.182412,47.643644364436,0,0
-113.24141623197,-102.14353656388,42.448074807481,2543497.7282552,-79.748322740534,2616007.182412,47.648074807481,0,0
-113.24141569252,-102.15871086974,42.452505250525,2543497.7282552,-79.748322740534,2616007.182412,47.652505250525,0,0
-113.24141515308,-102.17388517561,42.456935693569,2543497.7282552,-79.748322740534,2616007.182412,47.656935693569,0,0
-113.24141461364,-102.18905948147,42.461366136614,2543497.7282552,-79.748322740534,2616007.182412,47.661366136614,0,0
-113.2414140742,-102.20423378733,42.465796579658,2543497.7282552,-79.748322740534,2616007.182412,47.665796579658,0,0
-113.24141353476,-102.21940809319,42.470227022702,2543497.7282552,-79.748322740534,2616007.182412,47.670227022702,0,0
-113.24141299531,-102.23458239906,42.474657465747,2543497.7282552,-79.748322740534,2616007.182412,47.674657465747,0,0
-113.24141245587,-102.24975670492,42.479087908791,2543497.7282552,-79.748322740534,2616007.182412,47.679087908791,0,0
-113.24141191643,-102.26493101078,42.483518351835,2543497.7282552,-79.748322740534,2616007.182412,47.683518351835,0,0
-113.24141137699,-102.28010531664,42.487948794879,2543497.7282552,-79.748322740534,2616007.182412,47.687948794879,0,0
-113.24141083755,-102.2952796225,42.492379237924,2543497.7282552,-79.748322740534,2616007.182412,47.692379237924,0,0
-113.2414102981,-102.31045392837,42.496809680968,2543497.7282552,-79.748322740534,2616007.182412,47.696809680968,0,0
-113.24140975866,-102.32562823423,42.501240124012,2543497.7282552,-79.748322740534,2616007.182412,47.701240124012,0,0
-113.24140921922,-102.34080254009,42.505670567057,2543497.7282552,-79.748322740534,2616007.182412,47.705670567057,0,0
-113.24140867978,-102.35597684595,42.510101010101,2543497.7282552,-79.748322740534,2616007.182412,47.710101010101,0,0
-113.24140814034,-102.37115115182,42.514531453145,2543497.7282552,-79.748322740534,2616007.182412,47.714531453145,0,0
-113.2414076009,-102.38632545768,42.51896189619,2543497.7282552,-79.748322740534,2616007.182412,47.71896189619,0,0
-113.24140706145,-102.40149976354,42.523392339234,2543497.7282552,-79.748322740534,2616007.182412,47.723392339234,0,0
-113.24140652201,-102.4166740694,42.527822782278,2543497.7282552,-79.748322740534,2616007.182412,47.727822782278,0,0
-113.24140598257,-102.43184837527,42.532253225323,2543497.7282552,-79.748322740534,2616007.182412,47.732253225323,0,0
-113.24140544313,-102.44702268113,42.536683668367,2543497.7282552,-79.748322740534,2616007.182412,47.736683668367,0,0
-113.24140490369,-102.46219698699,42.541114111411,2543497.7282552,-79.748322740534,2616007.182412,47.741114111411,0,0
-113.24140436424,-102.47737129285,42.545544554455,2543497.7282552,-79.748322740534,2616007.182412,47.745544554455,0,0
-113.2414038248,-102.49254559871,42.5499749975,2543497.7282552,-79.748322740534,2616007.182412,47.7499749975,0,0
-113.24140328536,-102.50771990458,42.554405440544,2543497.7282552,-79.748322740534,2616007.182412,47.754405440544,0,0
-113.24140274592,-102.52289421044,42.558835883588,2543497.7282552,-79.748322740534,2616007.182412,47.758835883588,0,0
-113.24140220648,-102.5380685163,42.563266326633,2543497.7282552,-79.748322740534,2616007.182412,47.763266326633,0,0
-113.24140166703,-102.55324282216,42.567696769677,2543497.7282552,-79.748322740534,2616007.182412,47.767696769677,0,0
-113.24140112759,-102.56841712803,42.572127212721,2543497.7282552,-79.748322740534,2616007.182412,47.772127212721,0,0
-113.24140058815,-102.58359143389,42.576557655766,2543497.7282552,-79.748322740534,2616007.182412,47.776557655766,0,0
-113.24140004871,-102.59876573975,42.58098809881,2543497.7282552,-79.748322740534,2616007.182412,47.78098809881,0,0
-113.24139950927,-102.61394004561,42.585418541854,2543497.7282552,-79.748322740534,2616007.182412,47.785418541854,0,0
-113.24139896983,-102.62911435148,42.589848984898,2543497.7282552,-79.748322740534,2616007.182412,47.789848984898,0,0
-113.24139843038,-102.64428865734,42.594279427943,2543497.7282552,-79.748322740534,2616007.182412,47.794279427943,0,0
-113.24139789094,-102.6594629632,42.598709870987,2543497.7282552,-79.748322740534,2616007.182412,47.798709870987,0,0
-113.2413973515,-102.67463726906,42.603140314031,2543497.7282552,-79.748322740534,2616007.182412,47.803140314031,0,0
-113.24139681206,-102.68981157493,42.607570757076,2543497.7282552,-79.748322740534,2616007.182412,47.807570757076,0,0
-113.24139627262,-102.70498588079,42.61200120012,2543497.7282552,-79.748322740534,2616007.182412,47.81200120012,0,0
-113.24139573317,-102.72016018665,42.616431643164,2543497.7282552,-79.748322740534,2616007.182412,47.816431643164,0,0
-113.24139519373,-102.73533449251,42.620862086209,2543497.7282552,-79.748322740534,2616007.182412,47.820862086209,0,0
-113.24139465429,-102.75050879837,42.625292529253,2543497.7282552,-79.748322740534,2616007.182412,47.825292529253,0,0
-113.24139411485,-102.76568310424,42.629722972297,2543497.7282552,-79.748322740534,2616007.182412,47.829722972297,0,0
-113.24139357541,-102.7808574101,42.634153415342,2543497.7282552,-79.748322740534,2616007.182412,47.834153415342,0,0
-113.24139303596,-102.79603171596,42.638583858386,2543497.7282552,-79.748322740534,2616007.182412,47.838583858386,0,0
-113.24139249652,-102.81120602182,42.64301430143,2543497.7282552,-79.748322740534,2616007.182412,47.84301430143,0,0
-113.24139195708,-102.82638032769,42.647444744474,2543497.7282552,-79.748322740534,2616007.182412,47.847444744474,0,0
-113.24139141764,-102.84155463355,42.651875187519,2543497.7282552,-79.748322740534,2616007.182412,47.851875187519,0,0
-113.2413908782,-102.85672893941,42.656305630563,2543497.7282552,-79.748322740534,2616007.182412,47.856305630563,0,0
-113.24139033876,-102.87190324527,42.660736073607,2543497.7282552,-79.748322740534,2616007.182412,47.860736073607,0,0
-113.24138979931,-102.88707755114,42.665166516652,2543497.7282552,-79.748322740534,2616007.182412,47.865166516652,0,0
-113.24138925987,-102.902251857,42.669596959696,2543497.7282552,-79.748322740534,2616007.182412,47.869596959696,0,0
-113.24138872043,-102.91742616286,42.67402740274,2543497.7282552,-79.748322740534,2616007.182412,47.87402740274,0,0
-113.24138818099,-102.93260046872,42.678457845785,2543497.7282552,-79.748322740534,2616007.182412,47.878457845785,0,0
-113.24138764155,-102.94777477458,42.682888288829,2543497.7282552,-79.748322740534,2616007.182412,47.882888288829,0,0
-113.2413871021,-102.96294908045,42.687318731873,2543497.7282552,-79.748322740534,2616007.182412,47.887318731873,0,0
-113.24138656266,-102.97812338631,42.691749174917,2543497.7282552,-79.748322740534,2616007.182412,47.891749174917,0,0
-113.24138602322,-102.99329769217,42.696179617962,2543497.7282552,-79.748322740534,2616007.182412,47.896179617962,0,0
-113.24138548378,-103.00847199803,42.700610061006,2543497.7282552,-79.748322740534,2616007.182412,47.900610061006,0,0
-113.24138494434,-103.0236463039,42.70504050405,2543497.7282552,-79.748322740534,2616007.182412,47.90504050405,0,0
-113.24138440489,-103.03882060976,42.709470947095,2543497.7282552,-79.748322740534,2616007.182412,47.909470947095,0,0
-113.24138386545,-103.05399491562,42.713901390139,2543497.7282552,-79.748322740534,2616007.182412,47.913901390139,0,0
-113.24138332601,-103.06916922148,42.718331833183,2543497.7282552,-79.748322740534,2616007.182412,47.918331833183,0,0
-113.24138278657,-103.08434352735,42.722762276228,2543497.7282552,-79.748322740534,2616007.182412,47.922762276228,0,0
-113.24138224713,-103.09951783321,42.727192719272,2543497.7282552,-79.748322740534,2616007.182412,47.927192719272,0,0
-113.24138170769,-103.11469213907,42.731623162316,2543497.7282552,-79.748322740534,2616007.182412,47.931623162316,0,0
-113.24138116824,-103.12986644493,42.736053605361,2543497.7282552,-79.748322740534,2616007.182412,47.936053605361,0,0
-113.2413806288,-103.14504075079,42.740484048405,2543497.7282552,-79.748322740534,2616007.182412,47.940484048405,0,0
-113.24138008936,-103.16021505666,42.744914491449,2543497.7282552,-79.748322740534,2616007.182412,47.944914491449,0,0
-113.24137954992,-103.17538936252,42.749344934493,2543497.7282552,-79.748322740534,2616007.182412,47.949344934493,0,0
-113.24137901048,-103.19056366838,42.753775377538,2543497.7282552,-79.748322740534,2616007.182412,47.953775377538,0,0
-113.24137847103,-103.20573797424,42.758205820582,2543497.7282552,-79.748322740534,2616007.182412,47.958205820582,0,0
-113.24137793159,-103.22091228011,42.762636263626,2543497.7282552,-79.748322740534,2616007.182412,47.962636263626,0,0
-113.24137739215,-103.23608658597,42.767066706671,2543497.7282552,-79.748322740534,2616007.182412,47.967066706671,0,0
-113.24137685271,-103.25126089183,42.771497149715,2543497.7282552,-79.748322740534,2616007.182412,47.971497149715,0,0
-113.24137631327,-103.26643519769,42.775927592759,2543497.7282552,-79.748322740534,2616007.182412,47.975927592759,0,0
-113.24137577382,-103.28160950356,42.780358035804,2543497.7282552,-79.748322740534,2616007.182412,47.980358035804,0,0
-113.24137523438,-103.29678380942,42.784788478848,2543497.7282552,-79.748322740534,2616007.182412,47.984788478848,0,0
-113.24137469494,-103.31195811528,42.789218921892,2543497.7282552,-79.748322740534,2616007.182412,47.989218921892,0,0
-113.2413741555,-103.32713242114,42.793649364936,2543497.7282552,-79.748322740534,2616007.182412,47.993649364936,0,0
-113.24137361606,-103.342306727,42.798079807981,2543497.7282552,-79.748322740534,2616007.182412,47.998079807981,0,0
-113.24137307662,-103.35748103287,42.802510251025,2543497.7282552,-79.748322740534,2616007.182412,48.002510251025,0,0
-113.24137253717,-103.37265533873,42.806940694069,2543497.7282552,-79.748322740534,2616007.182412,48.006940694069,0,0
-113.24137199773,-103.38782964459,42.811371137114,2543497.7282552,-79.748322740534,2616007.182412,48.011371137114,0,0
-113.24137145829,-103.40300395045,42.815801580158,2543497.7282552,-79.748322740534,2616007.182412,48.015801580158,0,0
-113.24137091885,-103.41817825632,42.820232023202,2543497.7282552,-79.748322740534,2616007.182412,48.020232023202,0,0
-113.24137037941,-103.43335256218,42.824662466247,2543497.7282552,-79.748322740534,2616007.182412,48.024662466247,0,0
-113.24136983996,-103.44852686804,42.829092909291,2543497.7282552,-79.748322740534,2616007.182412,48.029092909291,0,0
-113.24136930052,-103.4637011739,42.833523352335,2543497.7282552,-79.748322740534,2616007.182412,48.033523352335,0,0
-113.24136876108,-103.47887547977,42.83795379538,2543497.7282552,-79.748322740534,2616007.182412,48.03795379538,0,0
-113.24136822164,-103.49404978563,42.842384238424,2543497.7282552,-79.748322740534,2616007.182412,48.042384238424,0,0
-113.2413676822,-103.50922409149,42.846814681468,2543497.7282552,-79.748322740534,2616007.182412,48.046814681468,0,0
-113.24136714275,-103.52439839735,42.851245124512,2543497.7282552,-79.748322740534,2616007.182412,48.051245124512,0,0
-113.24136660331,-103.53957270321,42.855675567557,2543497.7282552,-79.748322740534,2616007.182412,48.055675567557,0,0
-113.24136606387,-103.55474700908,42.860106010601,2543497.7282552,-79.748322740534,2616007.182412,48.060106010601,0,0
-113.24136552443,-103.56992131494,42.864536453645,2543497.7282552,-79.748322740534,2616007.182412,48.064536453645,0,0
-113.24136498499,-103.5850956208,42.86896689669,2543497.7282552,-79.748322740534,2616007.182412,48.06896689669,0,0
-113.24136444555,-103.60026992666,42.873397339734,2543497.7282552,-79.748322740534,2616007.182412,48.073397339734,0,0
-113.2413639061,-103.61544423253,42.877827782778,2543497.7282552,-79.748322740534,2616007.182412,48.077827782778,0,0
-113.24136336666,-103.63061853839,42.882258225823,2543497.7282552,-79.748322740534,2616007.182412,48.082258225823,0,0
-113.24136282722,-103.64579284425,42.886688668867,2543497.7282552,-79.748322740534,2616007.182412,48.086688668867,0,0
-113.24136228778,-103.66096715011,42.891119111911,2543497.7282552,-79.748322740534,2616007.182412,48.091119111911,0,0
-113.24136174834,-103.67614145598,42.895549554955,2543497.7282552,-79.748322740534,2616007.182412,48.095549554955,0,0
-113.24136120889,-103.69131576184,42.899979998,2543497.7282552,-79.748322740534,2616007.182412,48.099979998,0,0
-113.24136066945,-103.7064900677,42.904410441044,2543497.7282552,-79.748322740534,2616007.182412,48.104410441044,0,0
-113.24136013001,-103.72166437356,42.908840884088,2543497.7282552,-79.748322740534,2616007.182412,48.108840884088,0,0
-113.24135959057,-103.73683867942,42.913271327133,2543497.7282552,-79.748322740534,2616007.182412,48.113271327133,0,0
-113.24135905113,-103.75201298529,42.917701770177,2543497.7282552,-79.748322740534,2616007.182412,48.117701770177,0,0
-113.24135851169,-103.76718729115,42.922132213221,2543497.7282552,-79.748322740534,2616007.182412,48.122132213221,0,0
-113.24135797224,-103.78236159701,42.926562656266,2543497.7282552,-79.748322740534,2616007.182412,48.126562656266,0,0
-113.2413574328,-103.79753590287,42.93099309931,2543497.7282552,-79.748322740534,2616007.182412,48.13099309931,0,0
-113.24135689336,-103.81271020874,42.935423542354,2543497.7282552,-79.748322740534,2616007.182412,48.135423542354,0,0
-113.24135635392,-103.8278845146,42.939853985399,2543497.7282552,-79.748322740534,2616007.182412,48.139853985399,0,0
-113.24135581448,-103.84305882046,42.944284428443,2543497.7282552,-79.748322740534,2616007.182412,48.144284428443,0,0
-113.24135527503,-103.85823312632,42.948714871487,2543497.7282552,-79.748322740534,2616007.182412,48.148714871487,0,0
-113.24135473559,-103.87340743219,42.953145314531,2543497.7282552,-79.748322740534,2616007.182412,48.153145314531,0,0
-113.24135419615,-103.88858173805,42.957575757576,2543497.7282552,-79.748322740534,2616007.182412,48.157575757576,0,0
-113.24135365671,-103.90375604391,42.96200620062,2543497.7282552,-79.748322740534,2616007.182412,48.16200620062,0,0
-113.24135311727,-103.91893034977,42.966436643664,2543497.7282552,-79.748322740534,2616007.182412,48.166436643664,0,0
-113.24135257782,-103.93410465563,42.970867086709,2543497.7282552,-79.748322740534,2616007.182412,48.170867086709,0,0
-113.24135203838,-103.9492789615,42.975297529753,2543497.7282552,-79.748322740534,2616007.182412,48.175297529753,0,0
-113.24135149894,-103.96445326736,42.979727972797,2543497.7282552,-79.748322740534,2616007.182412,48.179727972797,0,0
-113.2413509595,-103.97962757322,42.984158415842,2543497.7282552,-79.748322740534,2616007.182412,48.184158415842,0,0
-113.24135042006,-103.99480187908,42.988588858886,2543497.7282552,-79.748322740534,2616007.182412,48.188588858886,0,0
-113.24134988062,-104.00997618495,42.99301930193,2543497.7282552,-79.748322740534,2616007.182412,48.19301930193,0,0
-113.24134934117,-104.02515049081,42.997449744974,2543497.7282552,-79.748322740534,2616007.182412,48.197449744974,0,0
-113.24134880173,-104.04032479667,43.001880188019,2543497.7282552,-79.748322740534,2616007.182412,48.201880188019,0,0
-113.24134826229,-104.05549910253,43.006310631063,2543497.7282552,-79.748322740534,2616007.182412,48.206310631063,0,0
-113.24134772285,-104.0706734084,43.010741074107,2543497.7282552,-79.748322740534,2616007.182412,48.210741074107,0,0
-113.24134718341,-104.08584771426,43.015171517152,2543497.7282552,-79.748322740534,2616007.182412,48.215171517152,0,0
-113.24134664396,-104.10102202012,43.019601960196,2543497.7282552,-79.748322740534,2616007.182412,48.219601960196,0,0
-113.24134610452,-104.11619632598,43.02403240324,2543497.7282552,-79.748322740534,2616007.182412,48.22403240324,0,0
-113.24134556508,-104.13137063184,43.028462846285,2543497.7282552,-79.748322740534,2616007.182412,48.228462846285,0,0
-113.24134502564,-104.14654493771,43.032893289329,2543497.7282552,-79.748322740534,2616007.182412,48.232893289329,0,0
-113.2413444862,-104.16171924357,43.037323732373,2543497.7282552,-79.748322740534,2616007.182412,48.237323732373,0,0
-113.24134394675,-104.17689354943,43.041754175418,2543497.7282552,-79.748322740534,2616007.182412,48.241754175418,0,0
-113.24134340731,-104.19206785529,43.046184618462,2543497.7282552,-79.748322740534,2616007.182412,48.246184618462,0,0
-113.24134286787,-104.20724216116,43.050615061506,2543497.7282552,-79.748322740534,2616007.182412,48.250615061506,0,0
-113.24134232843,-104.22241646702,43.05504550455,2543497.7282552,-79.748322740534,2616007.182412,48.25504550455,0,0
-113.24134178899,-104.23759077288,43.059475947595,2543497.7282552,-79.748322740534,2616007.182412,48.259475947595,0,0
-113.24134124955,-104.25276507874,43.063906390639,2543497.7282552,-79.748322740534,2616007.182412,48.263906390639,0,0
-113.2413407101,-104.26793938461,43.068336833683,2543497.7282552,-79.748322740534,2616007.182412,48.268336833683,0,0
-113.24134017066,-104.28311369047,43.072767276728,2543497.7282552,-79.748322740534,2616007.182412,48.272767276728,0,0
-113.24133963122,-104.29828799633,43.077197719772,2543497.7282552,-79.748322740534,2616007.182412,48.277197719772,0,0
-113.24133909178,-104.31346230219,43.081628162816,2543497.7282552,-79.748322740534,2616007.182412,48.281628162816,0,0
-113.24133855234,-104.32863660805,43.086058605861,2543497.7282552,-79.748322740534,2616007.182412,48.286058605861,0,0
-113.24133801289,-104.34381091392,43.090489048905,2543497.7282552,-79.748322740534,2616007.182412,48.290489048905,0,0
-113.24133747345,-104.35898521978,43.094919491949,2543497.7282552,-79.748322740534,2616007.182412,48.294919491949,0,0
-113.24133693401,-104.37415952564,43.099349934993,2543497.7282552,-79.748322740534,2616007.182412,48.299349934994,0,0
-113.24133639457,-104.3893338315,43.103780378038,2543497.7282552,-79.748322740534,2616007.182412,48.303780378038,0,0
-113.24133585513,-104.40450813737,43.108210821082,2543497.7282552,-79.748322740534,2616007.182412,48.308210821082,0,0
-113.24133531568,-104.41968244323,43.112641264126,2543497.7282552,-79.748322740534,2616007.182412,48.312641264126,0,0
-113.24133477624,-104.43485674909,43.117071707171,2543497.7282552,-79.748322740534,2616007.182412,48.317071707171,0,0
-113.2413342368,-104.45003105495,43.121502150215,2543497.7282552,-79.748322740534,2616007.182412,48.321502150215,0,0
-113.24133369736,-104.46520536082,43.125932593259,2543497.7282552,-79.748322740534,2616007.182412,48.325932593259,0,0
-113.24133315792,-104.48037966668,43.130363036304,2543497.7282552,-79.748322740534,2616007.182412,48.330363036304,0,0
-113.24133261848,-104.49555397254,43.134793479348,2543497.7282552,-79.748322740534,2616007.182412,48.334793479348,0,0
-113.24133207903,-104.5107282784,43.139223922392,2543497.7282552,-79.748322740534,2616007.182412,48.339223922392,0,0
-113.24133153959,-104.52590258427,43.143654365437,2543497.7282552,-79.748322740534,2616007.182412,48.343654365437,0,0
-113.24133100015,-104.54107689013,43.148084808481,2543497.7282552,-79.748322740534,2616007.182412,48.348084808481,0,0
-113.24133046071,-104.55625119599,43.152515251525,2543497.7282552,-79.748322740534,2616007.182412,48.352515251525,0,0
-113.24132992127,-104.57142550185,43.156945694569,2543497.7282552,-79.748322740534,2616007.182412,48.356945694569,0,0
-113.24132938182,-104.58659980771,43.161376137614,2543497.7282552,-79.748322740534,2616007.182412,48.361376137614,0,0
-113.24132884238,-104.60177411358,43.165806580658,2543497.7282552,-79.748322740534,2616007.182412,48.365806580658,0,0
-113.24132830294,-104.61694841944,43.170237023702,2543497.7282552,-79.748322740534,2616007.182412,48.370237023702,0,0
-113.2413277635,-104.6321227253,43.174667466747,2543497.7282552,-79.748322740534,2616007.182412,48.374667466747,0,0
-113.24132722406,-104.64729703116,43.179097909791,2543497.7282552,-79.748322740534,2616007.182412,48.379097909791,0,0
-113.24132668461,-104.66247133703,43.183528352835,2543497.7282552,-79.748322740534,2616007.182412,48.383528352835,0,0
-113.24132614517,-104.67764564289,43.18795879588,2543497.7282552,-79.748322740534,2616007.182412,48.38795879588,0,0
-113.24132560573,-104.69281994875,43.192389238924,2543497.7282552,-79.748322740534,2616007.182412,48.392389238924,0,0
-113.24132506629,-104.70799425461,43.196819681968,2543497.7282552,-79.748322740534,2616007.182412,48.396819681968,0,0
-113.24132452685,-104.72316856048,43.201250125012,2543497.7282552,-79.748322740534,2616007.182412,48.401250125013,0,0
-113.24132398741,-104.73834286634,43.205680568057,2543497.7282552,-79.748322740534,2616007.182412,48.405680568057,0,0
-113.24132344796,-104.7535171722,43.210111011101,2543497.7282552,-79.748322740534,2616007.182412,48.410111011101,0,0
-113.24132290852,-104.76869147806,43.214541454145,2543497.7282552,-79.748322740534,2616007.182412,48.414541454145,0,0
-113.24132236908,-104.78386578392,43.21897189719,2543497.7282552,-79.748322740534,2616007.182412,48.41897189719,0,0
-113.24132182964,-104.79904008979,43.223402340234,2543497.7282552,-79.748322740534,2616007.182412,48.423402340234,0,0
-113.2413212902,-104.81421439565,43.227832783278,2543497.7282552,-79.748322740534,2616007.182412,48.427832783278,0,0
-113.24132075075,-104.82938870151,43.232263226323,2543497.7282552,-79.748322740534,2616007.182412,48.432263226323,0,0
-113.24132021131,-104.84456300737,43.236693669367,2543497.7282552,-79.748322740534,2616007.182412,48.436693669367,0,0
-113.24131967187,-104.85973731324,43.241124112411,2543497.7282552,-79.748322740534,2616007.182412,48.441124112411,0,0
-113.24131913243,-104.8749116191,43.245554555456,2543497.7282552,-79.748322740534,2616007.182412,48.445554555456,0,0
-113.24131859299,-104.89008592496,43.2499849985,2543497.7282552,-79.748322740534,2616007.182412,48.4499849985,0,0
-113.24131805354,-104.90526023082,43.254415441544,2543497.7282552,-79.748322740534,2616007.182412,48.454415441544,0,0
-113.2413175141,-104.92043453669,43.258845884588,2543497.7282552,-79.748322740534,2616007.182412,48.458845884588,0,0
-113.24131697466,-104.93560884255,43.263276327633,2543497.7282552,-79.748322740534,2616007.182412,48.463276327633,0,0
-113.24131643522,-104.95078314841,43.267706770677,2543497.7282552,-79.748322740534,2616007.182412,48.467706770677,0,0
-113.24131589578,-104.96595745427,43.272137213721,2543497.7282552,-79.748322740534,2616007.182412,48.472137213721,0,0
-113.24131535634,-104.98113176013,43.276567656766,2543497.7282552,-79.748322740534,2616007.182412,48.476567656766,0,0
-113.24131481689,-104.996306066,43.28099809981,2543497.7282552,-79.748322740534,2616007.182412,48.48099809981,0,0
-113.24131427745,-105.01148037186,43.285428542854,2543497.7282552,-79.748322740534,2616007.182412,48.485428542854,0,0
-113.24131373801,-105.02665467772,43.289858985899,2543497.7282552,-79.748322740534,2616007.182412,48.489858985899,0,0
-113.24131319857,-105.04182898358,43.294289428943,2543497.7282552,-79.748322740534,2616007.182412,48.494289428943,0,0
-113.24131265913,-105.05700328945,43.298719871987,2543497.7282552,-79.748322740534,2616007.182412,48.498719871987,0,0
-113.24131211968,-105.07217759531,43.303150315032,2543497.7282552,-79.748322740534,2616007.182412,48.503150315032,0,0
-113.24131158024,-105.08735190117,43.307580758076,2543497.7282552,-79.748322740534,2616007.182412,48.507580758076,0,0
-113.2413110408,-105.10252620703,43.31201120112,2543497.7282552,-79.748322740534,2616007.182412,48.51201120112,0,0
-113.24131050136,-105.1177005129,43.316441644164,2543497.7282552,-79.748322740534,2616007.182412,48.516441644164,0,0
-113.24130996192,-105.13287481876,43.320872087209,2543497.7282552,-79.748322740534,2616007.182412,48.520872087209,0,0
-113.24130942248,-105.14804912462,43.325302530253,2543497.7282552,-79.748322740534,2616007.182412,48.525302530253,0,0
-113.24130888303,-105.16322343048,43.329732973297,2543497.7282552,-79.748322740534,2616007.182412,48.529732973297,0,0
-113.24130834359,-105.17839773634,43.334163416342,2543497.7282552,-79.748322740534,2616007.182412,48.534163416342,0,0
-113.24130780415,-105.19357204221,43.338593859386,2543497.7282552,-79.748322740534,2616007.182412,48.538593859386,0,0
-113.24130726471,-105.20874634807,43.34302430243,2543497.7282552,-79.748322740534,2616007.182412,48.54302430243,0,0
-113.24130672527,-105.22392065393,43.347454745475,2543497.7282552,-79.748322740534,2616007.182412,48.547454745475,0,0
-113.24130618582,-105.23909495979,43.351885188519,2543497.7282552,-79.748322740534,2616007.182412,48.551885188519,0,0
-113.24130564638,-105.25426926566,43.356315631563,2543497.7282552,-79.748322740534,2616007.182412,48.556315631563,0,0
-113.24130510694,-105.26944357152,43.360746074607,2543497.7282552,-79.748322740534,2616007.182412,48.560746074607,0,0
-113.2413045675,-105.28461787738,43.365176517652,2543497.7282552,-79.748322740534,2616007.182412,48.565176517652,0,0
-113.24130402806,-105.29979218324,43.369606960696,2543497.7282552,-79.748322740534,2616007.182412,48.569606960696,0,0
-113.24130348861,-105.31496648911,43.37403740374,2543497.7282552,-79.748322740534,2616007.182412,48.57403740374,0,0
-113.24130294917,-105.33014079497,43.378467846785,2543497.7282552,-79.748322740534,2616007.182412,48.578467846785,0,0
-113.24130240973,-105.34531510083,43.382898289829,2543497.7282552,-79.748322740534,2616007.182412,48.582898289829,0,0
-113.24130187029,-105.36048940669,43.387328732873,2543497.7282552,-79.748322740534,2616007.182412,48.587328732873,0,0
-113.24130133085,-105.37566371255,43.391759175918,2543497.7282552,-79.748322740534,2616007.182412,48.591759175918,0,0
-113.24130079141,-105.39083801842,43.396189618962,2543497.7282552,-79.748322740534,2616007.182412,48.596189618962,0,0
-113.24130025196,-105.40601232428,43.400620062006,2543497.7282552,-79.748322740534,2616007.182412,48.600620062006,0,0
-113.24129971252,-105.42118663014,43.405050505051,2543497.7282552,-79.748322740534,2616007.182412,48.605050505051,0,0
-113.24129917308,-105.436360936,43.409480948095,2543497.7282552,-79.748322740534,2616007.182412,48.609480948095,0,0
-113.24129863364,-105.45153524187,43.413911391139,2543497.7282552,-79.748322740534,2616007.182412,48.613911391139,0,0
-113.2412980942,-105.46670954773,43.418341834183,2543497.7282552,-79.748322740534,2616007.182412,48.618341834183,0,0
-113.24129755475,-105.48188385359,43.422772277228,2543497.7282552,-79.748322740534,2616007.182412,48.622772277228,0,0
-113.24129701531,-105.49705815945,43.427202720272,2543497.7282552,-79.748322740534,2616007.182412,48.627202720272,0,0
-113.24129647587,-105.51223246532,43.431633163316,2543497.7282552,-79.748322740534,2616007.182412,48.631633163316,0,0
-113.24129593643,-105.52740677118,43.436063606361,2543497.7282552,-79.748322740534,2616007.182412,48.636063606361,0,0
-113.24129539699,-105.54258107704,43.440494049405,2543497.7282552,-79.748322740534,2616007.182412,48.640494049405,0,0
-113.24129485754,-105.5577553829,43.444924492449,2543497.7282552,-79.748322740534,2616007.182412,48.644924492449,0,0
-113.2412943181,-105.57292968876,43.449354935494,2543497.7282552,-79.748322740534,2616007.182412,48.649354935494,0,0
-113.24129377866,-105.58810399463,43.453785378538,2543497.7282552,-79.748322740534,2616007.182412,48.653785378538,0,0
-113.24129323922,-105.60327830049,43.458215821582,2543497.7282552,-79.748322740534,2616007.182412,48.658215821582,0,0
-113.24129269978,-105.61845260635,43.462646264626,2543497.7282552,-79.748322740534,2616007.182412,48.662646264626,0,0
-113.24129216034,-105.63362691221,43.467076707671,2543497.7282552,-79.748322740534,2616007.182412,48.667076707671,0,0
-113.24129162089,-105.64880121808,43.471507150715,2543497.7282552,-79.748322740534,2616007.182412,48.671507150715,0,0
-113.24129108145,-105.66397552394,43.475937593759,2543497.7282552,-79.748322740534,2616007.182412,48.675937593759,0,0
-113.24129054201,-105.6791498298,43.480368036804,2543497.7282552,-79.748322740534,2616007.182412,48.680368036804,0,0
-113.24129000257,-105.69432413566,43.484798479848,2543497.7282552,-79.748322740534,2616007.182412,48.684798479848,0,0
-113.24128946313,-105.70949844153,43.489228922892,2543497.7282552,-79.748322740534,2616007.182412,48.689228922892,0,0
-113.24128892368,-105.72467274739,43.493659365937,2543497.7282552,-79.748322740534,2616007.182412,48.693659365937,0,0
-113.24128838424,-105.73984705325,43.498089808981,2543497.7282552,-79.748322740534,2616007.182412,48.698089808981,0,0
-113.2412878448,-105.75502135911,43.502520252025,2543497.7282552,-79.748322740534,2616007.182412,48.702520252025,0,0
-113.24128730536,-105.77019566497,43.50695069507,2543497.7282552,-79.748322740534,2616007.182412,48.70695069507,0,0
-113.24128676592,-105.78536997084,43.511381138114,2543497.7282552,-79.748322740534,2616007.182412,48.711381138114,0,0
-113.24128622647,-105.8005442767,43.515811581158,2543497.7282552,-79.748322740534,2616007.182412,48.715811581158,0,0
-113.24128568703,-105.81571858256,43.520242024202,2543497.7282552,-79.748322740534,2616007.182412,48.720242024202,0,0
-113.24128514759,-105.83089288842,43.524672467247,2543497.7282552,-79.748322740534,2616007.182412,48.724672467247,0,0
-113.24128460815,-105.84606719429,43.529102910291,2543497.7282552,-79.748322740534,2616007.182412,48.729102910291,0,0
-113.24128406871,-105.86124150015,43.533533353335,2543497.7282552,-79.748322740534,2616007.182412,48.733533353335,0,0
-113.24128352927,-105.87641580601,43.53796379638,2543497.7282552,-79.748322740534,2616007.182412,48.73796379638,0,0
-113.24128298982,-105.89159011187,43.542394239424,2543497.7282552,-79.748322740534,2616007.182412,48.742394239424,0,0
-113.24128245038,-105.90676441774,43.546824682468,2543497.7282552,-79.748322740534,2616007.182412,48.746824682468,0,0
-113.24128191094,-105.9219387236,43.551255125513,2543497.7282552,-79.748322740534,2616007.182412,48.751255125513,0,0
-113.2412813715,-105.93711302946,43.555685568557,2543497.7282552,-79.748322740534,2616007.182412,48.755685568557,0,0
-113.24128083206,-105.95228733532,43.560116011601,2543497.7282552,-79.748322740534,2616007.182412,48.760116011601,0,0
-113.24128029261,-105.96746164118,43.564546454645,2543497.7282552,-79.748322740534,2616007.182412,48.764546454645,0,0
-113.24127975317,-105.98263594705,43.56897689769,2543497.7282552,-79.748322740534,2616007.182412,48.76897689769,0,0
-113.24127921373,-105.99781025291,43.573407340734,2543497.7282552,-79.748322740534,2616007.182412,48.773407340734,0,0
-113.24127867429,-106.01298455877,43.577837783778,2543497.7282552,-79.748322740534,2616007.182412,48.777837783778,0,0
-113.24127813485,-106.02815886463,43.582268226823,2543497.7282552,-79.748322740534,2616007.182412,48.782268226823,0,0
-113.2412775954,-106.0433331705,43.586698669867,2543497.7282552,-79.748322740534,2616007.182412,48.786698669867,0,0
-113.24127705596,-106.05850747636,43.591129112911,2543497.7282552,-79.748322740534,2616007.182412,48.791129112911,0,0
-113.24127651652,-106.07368178222,43.595559555956,2543497.7282552,-79.748322740534,2616007.182412,48.795559555956,0,0
-113.24127597708,-106.08885608808,43.599989999,2543497.7282552,-79.748322740534,2616007.182412,48.799989999,0,0
-113.24127543764,-106.10403039395,43.604420442044,2543497.7282552,-79.748322740534,2616007.182412,48.804420442044,0,0
-113.2412748982,-106.11920469981,43.608850885089,2543497.7282552,-79.748322740534,2616007.182412,48.808850885089,0,0
-113.24127435875,-106.13437900567,43.613281328133,2543497.7282552,-79.748322740534,2616007.182412,48.813281328133,0,0
-113.24127381931,-106.14955331153,43.617711771177,2543497.7282552,-79.748322740534,2616007.182412,48.817711771177,0,0
-113.24127327987,-106.1647276174,43.622142214221,2543497.7282552,-79.748322740534,2616007.182412,48.822142214221,0,0
-113.24127274043,-106.17990192326,43.626572657266,2543497.7282552,-79.748322740534,2616007.182412,48.826572657266,0,0
-113.24127220099,-106.19507622912,43.63100310031,2543497.7282552,-79.748322740534,2616007.182412,48.83100310031,0,0
-113.24127166154,-106.21025053498,43.635433543354,2543497.7282552,-79.748322740534,2616007.182412,48.835433543354,0,0
-113.2412711221,-106.22542484084,43.639863986399,2543497.7282552,-79.748322740534,2616007.182412,48.839863986399,0,0
-113.24127058266,-106.24059914671,43.644294429443,2543497.7282552,-79.748322740534,2616007.182412,48.844294429443,0,0
-113.24127004322,-106.25577345257,43.648724872487,2543497.7282552,-79.748322740534,2616007.182412,48.848724872487,0,0
-113.24126950378,-106.27094775843,43.653155315532,2543497.7282552,-79.748322740534,2616007.182412,48.853155315532,0,0
-113.24126896433,-106.28612206429,43.657585758576,2543497.7282552,-79.748322740534,2616007.182412,48.857585758576,0,0
-113.24126842489,-106.30129637016,43.66201620162,2543497.7282552,-79.748322740534,2616007.182412,48.86201620162,0,0
-113.24126788545,-106.31647067602,43.666446644664,2543497.7282552,-79.748322740534,2616007.182412,48.866446644664,0,0
-113.24126734601,-106.33164498188,43.670877087709,2543497.7282552,-79.748322740534,2616007.182412,48.870877087709,0,0
-113.24126680657,-106.34681928774,43.675307530753,2543497.7282552,-79.748322740534,2616007.182412,48.875307530753,0,0
-113.24126626713,-106.36199359361,43.679737973797,2543497.7282552,-79.748322740534,2616007.182412,48.879737973797,0,0
-113.24126572768,-106.37716789947,43.684168416842,2543497.7282552,-79.748322740534,2616007.182412,48.884168416842,0,0
-113.24126518824,-106.39234220533,43.688598859886,2543497.7282552,-79.748322740534,2616007.182412,48.888598859886,0,0
-113.2412646488,-106.40751651119,43.69302930293,2543497.7282552,-79.748322740534,2616007.182412,48.89302930293,0,0
-113.24126410936,-106.42269081705,43.697459745975,2543497.7282552,-79.748322740534,2616007.182412,48.897459745975,0,0
-113.24126356992,-106.43786512292,43.701890189019,2543497.7282552,-79.748322740534,2616007.182412,48.901890189019,0,0
-113.24126303047,-106.45303942878,43.706320632063,2543497.7282552,-79.748322740534,2616007.182412,48.906320632063,0,0
-113.24126249103,-106.46821373464,43.710751075108,2543497.7282552,-79.748322740534,2616007.182412,48.910751075108,0,0
-113.24126195159,-106.4833880405,43.715181518152,2543497.7282552,-79.748322740534,2616007.182412,48.915181518152,0,0
-113.24126141215,-106.49856234637,43.719611961196,2543497.7282552,-79.748322740534,2616007.182412,48.919611961196,0,0
-113.24126087271,-106.51373665223,43.72404240424,2543497.7282552,-79.748322740534,2616007.182412,48.92404240424,0,0
-113.24126033327,-106.52891095809,43.728472847285,2543497.7282552,-79.748322740534,2616007.182412,48.928472847285,0,0
-113.24125979382,-106.54408526395,43.732903290329,2543497.7282552,-79.748322740534,2616007.182412,48.932903290329,0,0
-113.24125925438,-106.55925956982,43.737333733373,2543497.7282552,-79.748322740534,2616007.182412,48.937333733373,0,0
-113.24125871494,-106.57443387568,43.741764176418,2543497.7282552,-79.748322740534,2616007.182412,48.941764176418,0,0
-113.2412581755,-106.58960818154,43.746194619462,2543497.7282552,-79.748322740534,2616007.182412,48.946194619462,0,0
-113.24125763606,-106.6047824874,43.750625062506,2543497.7282552,-79.748322740534,2616007.182412,48.950625062506,0,0
-113.24125709661,-106.61995679326,43.755055505551,2543497.7282552,-79.748322740534,2616007.182412,48.955055505551,0,0
-113.24125655717,-106.63513109913,43.759485948595,2543497.7282552,-79.748322740534,2616007.182412,48.959485948595,0,0
-113.24125601773,-106.65030540499,43.763916391639,2543497.7282552,-79.748322740534,2616007.182412,48.963916391639,0,0
-113.24125547829,-106.66547971085,43.768346834683,2543497.7282552,-79.748322740534,2616007.182412,48.968346834683,0,0
-113.24125493885,-106.68065401671,43.772777277728,2543497.7282552,-79.748322740534,2616007.182412,48.972777277728,0,0
-113.2412543994,-106.69582832258,43.777207720772,2543497.7282552,-79.748322740534,2616007.182412,48.977207720772,0,0
-113.24125385996,-106.71100262844,43.781638163816,2543497.7282552,-79.748322740534,2616007.182412,48.981638163816,0,0
-113.24125332052,-106.7261769343,43.786068606861,2543497.7282552,-79.748322740534,2616007.182412,48.986068606861,0,0
-113.24125278108,-106.74135124016,43.790499049905,2543497.7282552,-79.748322740534,2616007.182412,48.990499049905,0,0
-113.24125224164,-106.75652554603,43.794929492949,2543497.7282552,-79.748322740534,2616007.182412,48.994929492949,0,0
-113.2412517022,-106.77169985189,43.799359935994,2543497.7282552,-79.748322740534,2616007.182412,48.999359935994,0,0
-113.24125116275,-106.78687415775,43.803790379038,2543497.7282552,-79.748322740534,2616007.182412,49.003790379038,0,0
-113.24125062331,-106.80204846361,43.808220822082,2543497.7282552,-79.748322740534,2616007.182412,49.008220822082,0,0
-113.24125008387,-106.81722276947,43.812651265127,2543497.7282552,-79.748322740534,2616007.182412,49.012651265127,0,0
-113.24124954443,-106.83239707534,43.817081708171,2543497.7282552,-79.748322740534,2616007.182412,49.017081708171,0,0
-113.24124900499,-106.8475713812,43.821512151215,2543497.7282552,-79.748322740534,2616007.182412,49.021512151215,0,0
-113.24124846554,-106.86274568706,43.825942594259,2543497.7282552,-79.748322740534,2616007.182412,49.025942594259,0,0
-113.2412479261,-106.87791999292,43.830373037304,2543497.7282552,-79.748322740534,2616007.182412,49.030373037304,0,0
-113.24124738666,-106.89309429879,43.834803480348,2543497.7282552,-79.748322740534,2616007.182412,49.034803480348,0,0
-113.24124684722,-106.90826860465,43.839233923392,2543497.7282552,-79.748322740534,2616007.182412,49.039233923392,0,0
-113.24124630778,-106.92344291051,43.843664366437,2543497.7282552,-79.748322740534,2616007.182412,49.043664366437,0,0
-113.24124576833,-106.93861721637,43.848094809481,2543497.7282552,-79.748322740534,2616007.182412,49.048094809481,0,0
-113.24124522889,-106.95379152224,43.852525252525,2543497.7282552,-79.748322740534,2616007.182412,49.052525252525,0,0
-113.24124468945,-106.9689658281,43.85695569557,2543497.7282552,-79.748322740534,2616007.182412,49.05695569557,0,0
-113.24124415001,-106.98414013396,43.861386138614,2543497.7282552,-79.748322740534,2616007.182412,49.061386138614,0,0
-113.24124361057,-106.99931443982,43.865816581658,2543497.7282552,-79.748322740534,2616007.182412,49.065816581658,0,0
-113.24124307113,-107.01448874568,43.870247024702,2543497.7282552,-79.748322740534,2616007.182412,49.070247024702,0,0
-113.24124253168,-107.02966305155,43.874677467747,2543497.7282552,-79.748322740534,2616007.182412,49.074677467747,0,0
-113.24124199224,-107.04483735741,43.879107910791,2543497.7282552,-79.748322740534,2616007.182412,49.079107910791,0,0
-113.2412414528,-107.06001166327,43.883538353835,2543497.7282552,-79.748322740534,2616007.182412,49.083538353835,0,0
-113.24124091336,-107.07518596913,43.88796879688,2543497.7282552,-79.748322740534,2616007.182412,49.08796879688,0,0
-113.24124037392,-107.090360275,43.892399239924,2543497.7282552,-79.748322740534,2616007.182412,49.092399239924,0,0
-113.24123983447,-107.10553458086,43.896829682968,2543497.7282552,-79.748322740534,2616007.182412,49.096829682968,0,0
-113.24123929503,-107.12070888672,43.901260126013,2543497.7282552,-79.748322740534,2616007.182412,49.101260126013,0,0
-113.24123875559,-107.13588319258,43.905690569057,2543497.7282552,-79.748322740534,2616007.182412,49.105690569057,0,0
-113.24123821615,-107.15105749845,43.910121012101,2543497.7282552,-79.748322740534,2616007.182412,49.110121012101,0,0
-113.24123767671,-107.16623180431,43.914551455146,2543497.7282552,-79.748322740534,2616007.182412,49.114551455146,0,0
-113.24123713726,-107.18140611017,43.91898189819,2543497.7282552,-79.748322740534,2616007.182412,49.11898189819,0,0
-113.24123659782,-107.19658041603,43.923412341234,2543497.7282552,-79.748322740534,2616007.182412,49.123412341234,0,0
-113.24123605838,-107.21175472189,43.927842784278,2543497.7282552,-79.748322740534,2616007.182412,49.127842784278,0,0
-113.24123551894,-107.22692902776,43.932273227323,2543497.7282552,-79.748322740534,2616007.182412,49.132273227323,0,0
-113.2412349795,-107.24210333362,43.936703670367,2543497.7282552,-79.748322740534,2616007.182412,49.136703670367,0,0
-113.24123444006,-107.25727763948,43.941134113411,2543497.7282552,-79.748322740534,2616007.182412,49.141134113411,0,0
-113.24123390061,-107.27245194534,43.945564556456,2543497.7282552,-79.748322740534,2616007.182412,49.145564556456,0,0
-113.24123336117,-107.28762625121,43.9499949995,2543497.7282552,-79.748322740534,2616007.182412,49.1499949995,0,0
-113.24123282173,-107.30280055707,43.954425442544,2543497.7282552,-79.748322740534,2616007.182412,49.154425442544,0,0
-113.24123228229,-107.31797486293,43.958855885589,2543497.7282552,-79.748322740534,2616007.182412,49.158855885589,0,0
-113.24123174285,-107.33314916879,43.963286328633,2543497.7282552,-79.748322740534,2616007.182412,49.163286328633,0,0
-113.2412312034,-107.34832347466,43.967716771677,2543497.7282552,-79.748322740534,2616007.182412,49.167716771677,0,0
-113.24123066396,-107.36349778052,43.972147214721,2543497.7282552,-79.748322740534,2616007.182412,49.172147214721,0,0
-113.24123012452,-107.37867208638,43.976577657766,2543497.7282552,-79.748322740534,2616007.182412,49.176577657766,0,0
-113.24122958508,-107.39384639224,43.98100810081,2543497.7282552,-79.748322740534,2616007.182412,49.18100810081,0,0
-113.24122904564,-107.4090206981,43.985438543854,2543497.7282552,-79.748322740534,2616007.182412,49.185438543854,0,0
-113.24122850619,-107.42419500397,43.989868986899,2543497.7282552,-79.748322740534,2616007.182412,49.189868986899,0,0
-113.24122796675,-107.43936930983,43.994299429943,2543497.7282552,-79.748322740534,2616007.182412,49.194299429943,0,0
-113.24122742731,-107.45454361569,43.998729872987,2543497.7282552,-79.748322740534,2616007.182412,49.198729872987,0,0
-113.24122688787,-107.46971792155,44.003160316032,2543497.7282552,-79.748322740534,2616007.182412,49.203160316032,0,0
-113.24122634843,-107.48489222742,44.007590759076,2543497.7282552,-79.748322740534,2616007.182412,49.207590759076,0,0
-113.24122580899,-107.50006653328,44.01202120212,2543497.7282552,-79.748322740534,2616007.182412,49.21202120212,0,0
-113.24122526954,-107.51524083914,44.016451645165,2543497.7282552,-79.748322740534,2616007.182412,49.216451645165,0,0
-113.2412247301,-107.530415145,44.020882088209,2543497.7282552,-79.748322740534,2616007.182412,49.220882088209,0,0
-113.24122419066,-107.54558945087,44.025312531253,2543497.7282552,-79.748322740534,2616007.182412,49.225312531253,0,0
-113.24122365122,-107.56076375673,44.029742974297,2543497.7282552,-79.748322740534,2616007.182412,49.229742974297,0,0
-113.24122311178,-107.57593806259,44.034173417342,2543497.7282552,-79.748322740534,2616007.182412,49.234173417342,0,0
-113.24122257233,-107.59111236845,44.038603860386,2543497.7282552,-79.748322740534,2616007.182412,49.238603860386,0,0
-113.24122203289,-107.60628667431,44.04303430343,2543497.7282552,-79.748322740534,2616007.182412,49.24303430343,0,0
-113.24122149345,-107.62146098018,44.047464746475,2543497.7282552,-79.748322740534,2616007.182412,49.247464746475,0,0
-113.24122095401,-107.63663528604,44.051895189519,2543497.7282552,-79.748322740534,2616007.182412,49.251895189519,0,0
-113.24122041457,-107.6518095919,44.056325632563,2543497.7282552,-79.748322740534,2616007.182412,49.256325632563,0,0
-113.24121987512,-107.66698389776,44.060756075608,2543497.7282552,-79.748322740534,2616007.182412,49.260756075608,0,0
-113.24121933568,-107.68215820363,44.065186518652,2543497.7282552,-79.748322740534,2616007.182412,49.265186518652,0,0
-113.24121879624,-107.69733250949,44.069616961696,2543497.7282552,-79.748322740534,2616007.182412,49.269616961696,0,0
-113.2412182568,-107.71250681535,44.07404740474,2543497.7282552,-79.748322740534,2616007.182412,49.27404740474,0,0
-113.24121771736,-107.72768112121,44.078477847785,2543497.7282552,-79.748322740534,2616007.182412,49.278477847785,0,0
-113.24121717792,-107.74285542708,44.082908290829,2543497.7282552,-79.748322740534,2616007.182412,49.282908290829,0,0
-113.24121663847,-107.75802973294,44.087338733873,2543497.7282552,-79.748322740534,2616007.182412,49.287338733873,0,0
-113.24121609903,-107.7732040388,44.091769176918,2543497.7282552,-79.748322740534,2616007.182412,49.291769176918,0,0
-113.24121555959,-107.78837834466,44.096199619962,2543497.7282552,-79.748322740534,2616007.182412,49.296199619962,0,0
-113.24121502015,-107.80355265053,44.100630063006,2543497.7282552,-79.748322740534,2616007.182412,49.300630063006,0,0
-113.24121448071,-107.81872695639,44.105060506051,2543497.7282552,-79.748322740534,2616007.182412,49.305060506051,0,0
-113.24121394126,-107.83390126225,44.109490949095,2543497.7282552,-79.748322740534,2616007.182412,49.309490949095,0,0
-113.24121340182,-107.84907556811,44.113921392139,2543497.7282552,-79.748322740534,2616007.182412,49.313921392139,0,0
-113.24121286238,-107.86424987397,44.118351835184,2543497.7282552,-79.748322740534,2616007.182412,49.318351835184,0,0
-113.24121232294,-107.87942417984,44.122782278228,2543497.7282552,-79.748322740534,2616007.182412,49.322782278228,0,0
-113.2412117835,-107.8945984857,44.127212721272,2543497.7282552,-79.748322740534,2616007.182412,49.327212721272,0,0
-113.24121124406,-107.90977279156,44.131643164316,2543497.7282552,-79.748322740534,2616007.182412,49.331643164316,0,0
-113.24121070461,-107.92494709742,44.136073607361,2543497.7282552,-79.748322740534,2616007.182412,49.336073607361,0,0
-113.24121016517,-107.94012140329,44.140504050405,2543497.7282552,-79.748322740534,2616007.182412,49.340504050405,0,0
-113.24120962573,-107.95529570915,44.144934493449,2543497.7282552,-79.748322740534,2616007.182412,49.344934493449,0,0
-113.24120908629,-107.97047001501,44.149364936494,2543497.7282552,-79.748322740534,2616007.182412,49.349364936494,0,0
-113.24120854685,-107.98564432087,44.153795379538,2543497.7282552,-79.748322740534,2616007.182412,49.353795379538,0,0
-113.2412080074,-108.00081862674,44.158225822582,2543497.7282552,-79.748322740534,2616007.182412,49.358225822582,0,0
-113.24120746796,-108.0159929326,44.162656265627,2543497.7282552,-79.748322740534,2616007.182412,49.362656265627,0,0
-113.24120692852,-108.03116723846,44.167086708671,2543497.7282552,-79.748322740534,2616007.182412,49.367086708671,0,0
-113.24120638908,-108.04634154432,44.171517151715,2543497.7282552,-79.748322740534,2616007.182412,49.371517151715,0,0
-113.24120584964,-108.06151585018,44.175947594759,2543497.7282552,-79.748322740534,2616007.182412,49.375947594759,0,0
-113.24120531019,-108.07669015605,44.180378037804,2543497.7282552,-79.748322740534,2616007.182412,49.380378037804,0,0
-113.24120477075,-108.09186446191,44.184808480848,2543497.7282552,-79.748322740534,2616007.182412,49.384808480848,0,0
-113.24120423131,-108.10703876777,44.189238923892,2543497.7282552,-79.748322740534,2616007.182412,49.389238923892,0,0
-113.24120369187,-108.12221307363,44.193669366937,2543497.7282552,-79.748322740534,2616007.182412,49.393669366937,0,0
-113.24120315243,-108.1373873795,44.198099809981,2543497.7282552,-79.748322740534,2616007.182412,49.398099809981,0,0
-113.24120261299,-108.15256168536,44.202530253025,2543497.7282552,-79.748322740534,2616007.182412,49.402530253025,0,0
-113.24120207354,-108.16773599122,44.20696069607,2543497.7282552,-79.748322740534,2616007.182412,49.40696069607,0,0
-113.2412015341,-108.18291029708,44.211391139114,2543497.7282552,-79.748322740534,2616007.182412,49.411391139114,0,0
-113.24120099466,-108.19808460295,44.215821582158,2543497.7282552,-79.748322740534,2616007.182412,49.415821582158,0,0
-113.24120045522,-108.21325890881,44.220252025203,2543497.7282552,-79.748322740534,2616007.182412,49.420252025203,0,0
-113.24119991578,-108.22843321467,44.224682468247,2543497.7282552,-79.748322740534,2616007.182412,49.424682468247,0,0
-113.24119937633,-108.24360752053,44.229112911291,2543497.7282552,-79.748322740534,2616007.182412,49.429112911291,0,0
-113.24119883689,-108.25878182639,44.233543354335,2543497.7282552,-79.748322740534,2616007.182412,49.433543354335,0,0
-113.24119829745,-108.27395613226,44.23797379738,2543497.7282552,-79.748322740534,2616007.182412,49.43797379738,0,0
-113.24119775801,-108.28913043812,44.242404240424,2543497.7282552,-79.748322740534,2616007.182412,49.442404240424,0,0
-113.24119721857,-108.30430474398,44.246834683468,2543497.7282552,-79.748322740534,2616007.182412,49.446834683468,0,0
-113.24119667912,-108.31947904984,44.251265126513,2543497.7282552,-79.748322740534,2616007.182412,49.451265126513,0,0
-113.24119613968,-108.33465335571,44.255695569557,2543497.7282552,-79.748322740534,2616007.182412,49.455695569557,0,0
-113.24119560024,-108.34982766157,44.260126012601,2543497.7282552,-79.748322740534,2616007.182412,49.460126012601,0,0
-113.2411950608,-108.36500196743,44.264556455646,2543497.7282552,-79.748322740534,2616007.182412,49.464556455646,0,0
-113.24119452136,-108.38017627329,44.26898689869,2543497.7282552,-79.748322740534,2616007.182412,49.46898689869,0,0
-113.24119398192,-108.39535057916,44.273417341734,2543497.7282552,-79.748322740534,2616007.182412,49.473417341734,0,0
-113.24119344247,-108.41052488502,44.277847784778,2543497.7282552,-79.748322740534,2616007.182412,49.477847784778,0,0
-113.24119290303,-108.42569919088,44.282278227823,2543497.7282552,-79.748322740534,2616007.182412,49.482278227823,0,0
-113.24119236359,-108.44087349674,44.286708670867,2543497.7282552,-79.748322740534,2616007.182412,49.486708670867,0,0
-113.24119182415,-108.4560478026,44.291139113911,2543497.7282552,-79.748322740534,2616007.182412,49.491139113911,0,0
-113.24119128471,-108.47122210847,44.295569556956,2543497.7282552,-79.748322740534,2616007.182412,49.495569556956,0,0
-113.24119074526,-108.48639641433,44.3,2543497.7282552,-79.748322740534,2616007.182412,49.5,0,0
