disp_x,disp_y,id,stress_xx,stress_xy,stress_yy,x,y,z
-159.30231264848,24.833608379491,0,281665.0515985,-40817.201307784,6115991.9885645,5.2,0,0
-159.30231278433,24.885054551534,0.0044304430443045,281665.0515985,-40817.201307784,6115991.9885645,5.2044304430443,0,0
-159.30231292018,24.936500723577,0.008860886088609,281665.0515985,-40817.201307784,6115991.9885645,5.2088608860886,0,0
-159.30231305603,24.98794689562,0.013291329132914,281665.0515985,-40817.201307784,6115991.9885645,5.2132913291329,0,0
-159.30231319189,25.039393067663,0.017721772177218,281665.0515985,-40817.201307784,6115991.9885645,5.2177217721772,0,0
-159.3023133218,25.090839267112,0.022152215221523,262064.94175065,35350.624748511,5890216.0398769,5.2221522152215,0,0
-159.30231344908,25.142285478711,0.026582658265826,262064.94175065,35350.624748511,5890216.0398769,5.2265826582658,0,0
-159.30231357636,25.193731690311,0.031013101310131,262064.94175065,35350.624748511,5890216.0398769,5.2310131013101,0,0
-159.30231370364,25.24517790191,0.035443544354435,262064.94175065,35350.624748511,5890216.0398769,5.2354435443544,0,0
-159.30231383093,25.29662411351,0.03987398739874,262064.94175065,35350.624748511,5890216.0398769,5.2398739873987,0,0
-159.30231395821,25.348070325109,0.044304430443044,262064.94175065,35350.624748511,5890216.0398769,5.244304430443,0,0
-159.30231408549,25.399516536708,0.048734873487349,262064.94175065,35350.624748511,5890216.0398769,5.2487348734873,0,0
-159.30231421277,25.450962748308,0.053165316531653,262064.94175065,35350.624748511,5890216.0398769,5.2531653165317,0,0
-159.30231434005,25.502408959907,0.057595759575958,262064.94175065,35350.624748511,5890216.0398769,5.257595759576,0,0
-159.30231446733,25.553855171507,0.062026202620262,262064.94175065,35350.624748511,5890216.0398769,5.2620262026203,0,0
-159.30231459462,25.605301383106,0.066456645664567,262064.94175065,35350.624748511,5890216.0398769,5.2664566456646,0,0
-159.3023147219,25.656747594705,0.070887088708871,262064.94175065,35350.624748511,5890216.0398769,5.2708870887089,0,0
-159.30231484918,25.708193806305,0.075317531753175,262064.94175065,35350.624748511,5890216.0398769,5.2753175317532,0,0
-159.30231497646,25.759640017904,0.079747974797479,262064.94175065,35350.624748511,5890216.0398769,5.2797479747975,0,0
-159.30231510374,25.811086229504,0.084178417841784,262064.94175065,35350.624748511,5890216.0398769,5.2841784178418,0,0
-159.30231523103,25.862532441103,0.088608860886088,262064.94175065,35350.624748511,5890216.0398769,5.2886088608861,0,0
-159.30231535625,25.913978649455,0.093039303930393,390944.88551431,-29092.825545604,5836197.9318212,5.2930393039304,0,0
-159.30231546031,25.965424824332,0.097469746974697,390944.88551431,-29092.825545604,5836197.9318212,5.2974697469747,0,0
-159.30231556437,26.016870999208,0.101900190019,390944.88551431,-29092.825545604,5836197.9318212,5.301900190019,0,0
-159.30231566843,26.068317174084,0.10633063306331,390944.88551431,-29092.825545604,5836197.9318212,5.3063306330633,0,0
-159.30231577249,26.119763348961,0.11076107610761,390944.88551431,-29092.825545604,5836197.9318212,5.3107610761076,0,0
-159.30231587655,26.171209523837,0.11519151915192,390944.88551431,-29092.825545604,5836197.9318212,5.3151915191519,0,0
-159.30231598061,26.222655698713,0.11962196219622,390944.88551431,-29092.825545604,5836197.9318212,5.3196219621962,0,0
-159.30231608467,26.27410187359,0.12405240524052,390944.88551431,-29092.825545604,5836197.9318212,5.3240524052405,0,0
-159.30231618874,26.325548048466,0.12848284828483,390944.88551431,-29092.825545604,5836197.9318212,5.3284828482848,0,0
-159.3023162928,26.376994223342,0.13291329132913,390944.88551431,-29092.825545604,5836197.9318212,5.3329132913291,0,0
-159.30231639686,26.428440398219,0.13734373437344,390944.88551431,-29092.825545604,5836197.9318212,5.3373437343734,0,0
-159.30231650092,26.479886573095,0.14177417741774,390944.88551431,-29092.825545604,5836197.9318212,5.3417741774177,0,0
-159.30231660498,26.531332747972,0.14620462046205,390944.88551431,-29092.825545604,5836197.9318212,5.346204620462,0,0
-159.30231670904,26.582778922848,0.15063506350635,390944.88551431,-29092.825545604,5836197.9318212,5.3506350635064,0,0
-159.3023168131,26.634225097724,0.15506550655066,390944.88551431,-29092.825545604,5836197.9318212,5.3550655065507,0,0
-159.30231691716,26.685671272601,0.15949594959496,390944.88551431,-29092.825545604,5836197.9318212,5.359495949595,0,0
-159.30231702122,26.737117447477,0.16392639263926,390944.88551431,-29092.825545604,5836197.9318212,5.3639263926393,0,0
-159.30231712528,26.788563622353,0.16835683568357,390944.88551431,-29092.825545604,5836197.9318212,5.3683568356836,0,0
-159.30231722934,26.84000979723,0.17278727872787,390944.88551431,-29092.825545604,5836197.9318212,5.3727872787279,0,0
-159.3023173334,26.891455972106,0.17721772177218,390944.88551431,-29092.825545604,5836197.9318212,5.3772177217722,0,0
-159.30231743746,26.942902146982,0.18164816481648,390944.88551431,-29092.825545604,5836197.9318212,5.3816481648165,0,0
-159.30231753758,26.994348337753,0.18607860786079,393852.54003021,57899.936333842,5630944.7526066,5.3860786078608,0,0
-159.30231763056,27.045794557306,0.19050905090509,393852.54003021,57899.936333842,5630944.7526066,5.3905090509051,0,0
-159.30231772355,27.09724077686,0.19493949394939,393852.54003021,57899.936333842,5630944.7526066,5.3949394939494,0,0
-159.30231781653,27.148686996413,0.1993699369937,393852.54003021,57899.936333842,5630944.7526066,5.3993699369937,0,0
-159.30231790952,27.200133215967,0.203800380038,393852.54003021,57899.936333842,5630944.7526066,5.403800380038,0,0
-159.3023180025,27.25157943552,0.20823082308231,393852.54003021,57899.936333842,5630944.7526066,5.4082308230823,0,0
-159.30231809549,27.303025655074,0.21266126612661,393852.54003021,57899.936333842,5630944.7526066,5.4126612661266,0,0
-159.30231818847,27.354471874627,0.21709170917092,393852.54003021,57899.936333842,5630944.7526066,5.4170917091709,0,0
-159.30231828146,27.405918094181,0.22152215221522,393852.54003021,57899.936333842,5630944.7526066,5.4215221522152,0,0
-159.30231837444,27.457364313734,0.22595259525953,393852.54003021,57899.936333842,5630944.7526066,5.4259525952595,0,0
-159.30231846743,27.508810533288,0.23038303830383,393852.54003021,57899.936333842,5630944.7526066,5.4303830383038,0,0
-159.3023185542,27.560256742258,0.23481348134813,515067.25150559,-10689.273424707,5579573.7513782,5.4348134813481,0,0
-159.30231862532,27.611702924522,0.23924392439244,515067.25150559,-10689.273424707,5579573.7513782,5.4392439243924,0,0
-159.30231869644,27.663149106787,0.24367436743674,515067.25150559,-10689.273424707,5579573.7513782,5.4436743674367,0,0
-159.30231876755,27.714595289051,0.24810481048105,515067.25150559,-10689.273424707,5579573.7513782,5.448104810481,0,0
-159.30231883867,27.766041471315,0.25253525352535,515067.25150559,-10689.273424707,5579573.7513782,5.4525352535254,0,0
-159.30231890978,27.817487653579,0.25696569656966,515067.25150559,-10689.273424707,5579573.7513782,5.4569656965697,0,0
-159.3023189809,27.868933835843,0.26139613961396,515067.25150559,-10689.273424707,5579573.7513782,5.461396139614,0,0
-159.30231905201,27.920380018108,0.26582658265827,515067.25150559,-10689.273424707,5579573.7513782,5.4658265826583,0,0
-159.30231912313,27.971826200372,0.27025702570257,515067.25150559,-10689.273424707,5579573.7513782,5.4702570257026,0,0
-159.30231919424,28.023272382636,0.27468746874687,515067.25150559,-10689.273424707,5579573.7513782,5.4746874687469,0,0
-159.30231926536,28.0747185649,0.27911791179118,515067.25150559,-10689.273424707,5579573.7513782,5.4791179117912,0,0
-159.30231933647,28.126164747165,0.28354835483548,515067.25150559,-10689.273424707,5579573.7513782,5.4835483548355,0,0
-159.30231940759,28.177610929429,0.28797879787979,515067.25150559,-10689.273424707,5579573.7513782,5.4879787978798,0,0
-159.3023194787,28.229057111693,0.29240924092409,515067.25150559,-10689.273424707,5579573.7513782,5.4924092409241,0,0
-159.30231954982,28.280503293957,0.2968396839684,515067.25150559,-10689.273424707,5579573.7513782,5.4968396839684,0,0
-159.30231962093,28.331949476221,0.3012701270127,515067.25150559,-10689.273424707,5579573.7513782,5.5012701270127,0,0
-159.30231969205,28.383395658486,0.30570057005701,515067.25150559,-10689.273424707,5579573.7513782,5.505700570057,0,0
-159.30231976316,28.43484184075,0.31013101310131,515067.25150559,-10689.273424707,5579573.7513782,5.5101310131013,0,0
-159.30231983428,28.486288023014,0.31456145614561,515067.25150559,-10689.273424707,5579573.7513782,5.5145614561456,0,0
-159.30231990539,28.537734205278,0.31899189918992,515067.25150559,-10689.273424707,5579573.7513782,5.5189918991899,0,0
-159.30231997651,28.589180387543,0.32342234223422,515067.25150559,-10689.273424707,5579573.7513782,5.5234223422342,0,0
-159.30232004763,28.640626569807,0.32785278527853,515067.25150559,-10689.273424707,5579573.7513782,5.5278527852785,0,0
-159.30232011874,28.692072752071,0.33228322832283,515067.25150559,-10689.273424707,5579573.7513782,5.5322832283228,0,0
-159.30232018986,28.743518934335,0.33671367136714,515067.25150559,-10689.273424707,5579573.7513782,5.5367136713671,0,0
-159.30232026097,28.794965116599,0.34114411441144,515067.25150559,-10689.273424707,5579573.7513782,5.5411441144114,0,0
-159.30232033209,28.846411298864,0.34557455745575,515067.25150559,-10689.273424707,5579573.7513782,5.5455745574557,0,0
-159.3023204032,28.897857481128,0.35000500050005,515067.25150559,-10689.273424707,5579573.7513782,5.5500050005001,0,0
-159.30232046961,28.94930367934,0.35443544354435,529087.0821709,63469.501897787,5393754.5326189,5.5544354435444,0,0
-159.30232052889,29.00074990169,0.35886588658866,529087.0821709,63469.501897787,5393754.5326189,5.5588658865887,0,0
-159.30232058818,29.052196124041,0.36329632963296,529087.0821709,63469.501897787,5393754.5326189,5.563296329633,0,0
-159.30232064746,29.103642346391,0.36772677267727,529087.0821709,63469.501897787,5393754.5326189,5.5677267726773,0,0
-159.30232070674,29.155088568742,0.37215721572157,529087.0821709,63469.501897787,5393754.5326189,5.5721572157216,0,0
-159.30232076603,29.206534791092,0.37658765876588,529087.0821709,63469.501897787,5393754.5326189,5.5765876587659,0,0
-159.30232082531,29.257981013443,0.38101810181018,529087.0821709,63469.501897787,5393754.5326189,5.5810181018102,0,0
-159.30232088168,29.309427230635,0.38544854485449,633085.57446846,1073.4527180796,5347539.5090607,5.5854485448545,0,0
-159.30232092209,29.360873419576,0.38987898789879,633085.57446846,1073.4527180796,5347539.5090607,5.5898789878988,0,0
-159.3023209625,29.412319608516,0.39430943094309,633085.57446846,1073.4527180796,5347539.5090607,5.5943094309431,0,0
-159.30232100291,29.463765797457,0.3987398739874,633085.57446846,1073.4527180796,5347539.5090607,5.5987398739874,0,0
-159.30232104332,29.515211986397,0.4031703170317,633085.57446846,1073.4527180796,5347539.5090607,5.6031703170317,0,0
-159.30232108373,29.566658175338,0.40760076007601,633085.57446846,1073.4527180796,5347539.5090607,5.607600760076,0,0
-159.30232112414,29.618104364278,0.41203120312031,633085.57446846,1073.4527180796,5347539.5090607,5.6120312031203,0,0
-159.30232116455,29.669550553218,0.41646164616462,633085.57446846,1073.4527180796,5347539.5090607,5.6164616461646,0,0
-159.30232120496,29.720996742159,0.42089208920892,633085.57446846,1073.4527180796,5347539.5090607,5.6208920892089,0,0
-159.30232124537,29.772442931099,0.42532253225323,633085.57446846,1073.4527180796,5347539.5090607,5.6253225322532,0,0
-159.30232128578,29.82388912004,0.42975297529753,633085.57446846,1073.4527180796,5347539.5090607,5.6297529752975,0,0
-159.30232132619,29.87533530898,0.43418341834183,633085.57446846,1073.4527180796,5347539.5090607,5.6341834183418,0,0
-159.30232136659,29.92678149792,0.43861386138614,633085.57446846,1073.4527180796,5347539.5090607,5.6386138613861,0,0
-159.302321407,29.978227686861,0.44304430443044,633085.57446846,1073.4527180796,5347539.5090607,5.6430443044304,0,0
-159.30232144741,30.029673875801,0.44747474747475,633085.57446846,1073.4527180796,5347539.5090607,5.6474747474747,0,0
-159.30232148782,30.081120064742,0.45190519051905,633085.57446846,1073.4527180796,5347539.5090607,5.6519051905191,0,0
-159.30232152823,30.132566253682,0.45633563356336,633085.57446846,1073.4527180796,5347539.5090607,5.6563356335634,0,0
-159.30232156864,30.184012442623,0.46076607660766,633085.57446846,1073.4527180796,5347539.5090607,5.6607660766077,0,0
-159.30232160905,30.235458631563,0.46519651965196,633085.57446846,1073.4527180796,5347539.5090607,5.665196519652,0,0
-159.30232164946,30.286904820503,0.46962696269627,633085.57446846,1073.4527180796,5347539.5090607,5.6696269626963,0,0
-159.30232168987,30.338351009444,0.47405740574057,633085.57446846,1073.4527180796,5347539.5090607,5.6740574057406,0,0
-159.30232173028,30.389797198384,0.47848784878488,633085.57446846,1073.4527180796,5347539.5090607,5.6784878487849,0,0
-159.30232177069,30.441243387325,0.48291829182918,633085.57446846,1073.4527180796,5347539.5090607,5.6829182918292,0,0
-159.3023218111,30.492689576265,0.48734873487349,633085.57446846,1073.4527180796,5347539.5090607,5.6873487348735,0,0
-159.30232185151,30.544135765205,0.49177917791779,633085.57446846,1073.4527180796,5347539.5090607,5.6917791779178,0,0
-159.30232189192,30.595581954146,0.4962096209621,633085.57446846,1073.4527180796,5347539.5090607,5.6962096209621,0,0
-159.30232193233,30.647028143086,0.5006400640064,633085.57446846,1073.4527180796,5347539.5090607,5.7006400640064,0,0
-159.30232197274,30.698474332027,0.50507050705071,633085.57446846,1073.4527180796,5347539.5090607,5.7050705070507,0,0
-159.30232201315,30.749920520967,0.50950095009501,633085.57446846,1073.4527180796,5347539.5090607,5.709500950095,0,0
-159.30232205356,30.801366709908,0.51393139313931,633085.57446846,1073.4527180796,5347539.5090607,5.7139313931393,0,0
-159.30232209397,30.852812898848,0.51836183618362,633085.57446846,1073.4527180796,5347539.5090607,5.7183618361836,0,0
-159.30232213437,30.904259087788,0.52279227922792,633085.57446846,1073.4527180796,5347539.5090607,5.7227922792279,0,0
-159.30232217478,30.955705276729,0.52722272227223,633085.57446846,1073.4527180796,5347539.5090607,5.7272227222722,0,0
-159.30232221519,31.007151465669,0.53165316531653,633085.57446846,1073.4527180796,5347539.5090608,5.7316531653165,0,0
-159.30232224819,31.058597679003,0.53608360836084,643181.05010285,65405.205147653,5167884.7458288,5.7360836083608,0,0
-159.30232227771,31.110043903799,0.54051405140514,643181.05010285,65405.205147653,5167884.7458288,5.7405140514051,0,0
-159.30232229345,31.161490104058,0.54494449444945,733650.01323551,10565.106028094,5115260.2670614,5.7449444944494,0,0
-159.3023223059,31.212936298483,0.54937493749375,733650.01323551,10565.106028094,5115260.2670614,5.7493749374937,0,0
-159.30232231836,31.264382492909,0.55380538053805,733650.01323551,10565.106028094,5115260.2670614,5.7538053805381,0,0
-159.30232233082,31.315828687334,0.55823582358236,733650.01323551,10565.106028094,5115260.2670614,5.7582358235824,0,0
-159.30232234328,31.367274881759,0.56266626662666,733650.01323551,10565.106028094,5115260.2670614,5.7626662666267,0,0
-159.30232235573,31.418721076184,0.56709670967097,733650.01323551,10565.106028094,5115260.2670614,5.767096709671,0,0
-159.30232236819,31.470167270609,0.57152715271527,733650.01323551,10565.106028094,5115260.2670614,5.7715271527153,0,0
-159.30232238065,31.521613465034,0.57595759575958,733650.01323551,10565.106028094,5115260.2670614,5.7759575957596,0,0
-159.30232239311,31.573059659459,0.58038803880388,733650.01323551,10565.106028094,5115260.2670614,5.7803880388039,0,0
-159.30232240557,31.624505853884,0.58481848184818,733650.01323551,10565.106028094,5115260.2670614,5.7848184818482,0,0
-159.30232241802,31.675952048309,0.58924892489249,733650.01323551,10565.106028094,5115260.2670614,5.7892489248925,0,0
-159.30232243048,31.727398242734,0.59367936793679,733650.01323551,10565.106028094,5115260.2670614,5.7936793679368,0,0
-159.30232244332,31.77884443603,0.5981098109811,684864.0905953,-9958.274701909,4980245.8422411,5.7981098109811,0,0
-159.30232245653,31.830290628248,0.6025402540254,684864.0905953,-9958.274701909,4980245.8422411,5.8025402540254,0,0
-159.30232246974,31.881736820467,0.60697069706971,684864.0905953,-9958.274701909,4980245.8422411,5.8069706970697,0,0
-159.30232248295,31.933183012685,0.61140114011401,684864.0905953,-9958.274701909,4980245.8422411,5.811401140114,0,0
-159.30232249615,31.984629204903,0.61583158315832,684864.0905953,-9958.274701909,4980245.8422411,5.8158315831583,0,0
-159.30232250936,32.036075397122,0.62026202620262,684864.0905953,-9958.274701909,4980245.8422411,5.8202620262026,0,0
-159.30232252257,32.08752158934,0.62469246924692,684864.0905953,-9958.274701909,4980245.8422411,5.8246924692469,0,0
-159.30232253578,32.138967781559,0.62912291229123,684864.0905953,-9958.274701909,4980245.8422411,5.8291229122912,0,0
-159.30232254899,32.190413973777,0.63355335533553,684864.0905953,-9958.274701909,4980245.8422411,5.8335533553355,0,0
-159.3023225622,32.241860165996,0.63798379837984,684864.0905953,-9958.274701909,4980245.8422411,5.8379837983798,0,0
-159.3023225754,32.293306358214,0.64241424142414,684864.0905953,-9958.274701909,4980245.8422411,5.8424142414241,0,0
-159.30232258861,32.344752550432,0.64684468446845,684864.0905953,-9958.274701909,4980245.8422411,5.8468446844684,0,0
-159.30232260182,32.396198742651,0.65127512751275,684864.0905953,-9958.274701909,4980245.8422411,5.8512751275128,0,0
-159.30232261503,32.447644934869,0.65570557055706,684864.0905953,-9958.274701909,4980245.8422411,5.8557055705571,0,0
-159.30232262824,32.499091127088,0.66013601360136,684864.0905953,-9958.274701909,4980245.8422411,5.8601360136014,0,0
-159.30232264144,32.550537319306,0.66456645664566,684864.0905953,-9958.274701909,4980245.8422411,5.8645664566457,0,0
-159.30232265465,32.601983511524,0.66899689968997,684864.0905953,-9958.274701909,4980245.8422411,5.86899689969,0,0
-159.30232266786,32.653429703743,0.67342734273427,684864.0905953,-9958.274701909,4980245.8422411,5.8734273427343,0,0
-159.30232268107,32.704875895961,0.67785778577858,684864.0905953,-9958.274701909,4980245.8422411,5.8778577857786,0,0
-159.30232269428,32.75632208818,0.68228822882288,684864.0905953,-9958.274701909,4980245.8422411,5.8822882288229,0,0
-159.30232270749,32.807768280398,0.68671867186719,684864.0905953,-9958.274701909,4980245.8422411,5.8867186718672,0,0
-159.30232272069,32.859214472617,0.69114911491149,684864.0905953,-9958.274701909,4980245.8422411,5.8911491149115,0,0
-159.30232272539,32.910660657707,0.6955795579558,834087.59630501,-43363.291620963,5003990.0713178,5.8955795579558,0,0
-159.30232271617,32.962106831157,0.7000100010001,834087.59630501,-43363.291620963,5003990.0713178,5.9000100010001,0,0
-159.30232270695,33.013553004607,0.7044404440444,834087.59630501,-43363.291620963,5003990.0713178,5.9044404440444,0,0
-159.30232269774,33.064999178057,0.70887088708871,834087.59630501,-43363.291620963,5003990.0713178,5.9088708870887,0,0
-159.30232268852,33.116445351507,0.71330133013301,834087.59630501,-43363.291620963,5003990.0713178,5.913301330133,0,0
-159.3023226793,33.167891524958,0.71773177317732,834087.59630501,-43363.291620963,5003990.0713178,5.9177317731773,0,0
-159.30232267061,33.21933770425,0.72216221622162,774048.22300883,-11243.897175321,4839918.5530746,5.9221622162216,0,0
-159.30232266243,33.270783889139,0.72659265926593,774048.22300883,-11243.897175321,4839918.5530746,5.9265926592659,0,0
-159.30232265424,33.322230074028,0.73102310231023,774048.22300883,-11243.897175321,4839918.5530746,5.9310231023102,0,0
-159.30232264606,33.373676258916,0.73545354535454,774048.22300883,-11243.897175321,4839918.5530746,5.9354535453545,0,0
-159.30232263787,33.425122443805,0.73988398839884,774048.22300883,-11243.897175321,4839918.5530746,5.9398839883988,0,0
-159.30232262969,33.476568628693,0.74431443144314,774048.22300883,-11243.897175321,4839918.5530746,5.9443144314431,0,0
-159.30232262151,33.528014813582,0.74874487448745,774048.22300883,-11243.897175321,4839918.5530746,5.9487448744874,0,0
-159.30232261332,33.579460998471,0.75317531753175,774048.22300883,-11243.897175321,4839918.5530746,5.9531753175318,0,0
-159.30232260514,33.630907183359,0.75760576057606,774048.22300883,-11243.897175321,4839918.5530746,5.9576057605761,0,0
-159.30232259695,33.682353368248,0.76203620362036,774048.22300883,-11243.897175321,4839918.5530746,5.9620362036204,0,0
-159.30232258877,33.733799553137,0.76646664666467,774048.22300883,-11243.897175321,4839918.5530746,5.9664666466647,0,0
-159.30232258058,33.785245738025,0.77089708970897,774048.22300883,-11243.897175321,4839918.5530746,5.970897089709,0,0
-159.3023225724,33.836691922914,0.77532753275328,774048.22300883,-11243.897175321,4839918.5530746,5.9753275327533,0,0
-159.30232256421,33.888138107802,0.77975797579758,774048.22300883,-11243.897175321,4839918.5530746,5.9797579757976,0,0
-159.30232255603,33.939584292691,0.78418841884188,774048.22300883,-11243.897175321,4839918.5530746,5.9841884188419,0,0
-159.30232254784,33.99103047758,0.78861886188619,774048.22300883,-11243.897175321,4839918.5530746,5.9886188618862,0,0
-159.30232253966,34.042476662468,0.79304930493049,774048.22300883,-11243.897175321,4839918.5530746,5.9930493049305,0,0
-159.30232253147,34.093922847357,0.7974797479748,774048.22300883,-11243.897175321,4839918.5530746,5.9974797479748,0,0
-159.30232252329,34.145369032245,0.8019101910191,774048.22300883,-11243.897175321,4839918.5530746,6.0019101910191,0,0
-159.3023225151,34.196815217134,0.80634063406341,774048.22300883,-11243.897175321,4839918.5530746,6.0063406340634,0,0
-159.30232250692,34.248261402023,0.81077107710771,774048.22300883,-11243.897175321,4839918.5530746,6.0107710771077,0,0
-159.30232249873,34.299707586911,0.81520152015201,774048.22300883,-11243.897175321,4839918.5530746,6.015201520152,0,0
-159.30232249055,34.3511537718,0.81963196319632,774048.22300883,-11243.897175321,4839918.5530746,6.0196319631963,0,0
-159.30232248236,34.402599956689,0.82406240624062,774048.22300883,-11243.897175321,4839918.5530746,6.0240624062406,0,0
-159.30232247418,34.454046141577,0.82849284928493,774048.22300883,-11243.897175321,4839918.5530746,6.0284928492849,0,0
-159.302322466,34.505492326466,0.83292329232923,774048.22300883,-11243.897175321,4839918.5530746,6.0329232923292,0,0
-159.30232245781,34.556938511354,0.83735373537354,774048.22300883,-11243.897175321,4839918.5530746,6.0373537353735,0,0
-159.30232244963,34.608384696243,0.84178417841784,774048.22300883,-11243.897175321,4839918.5530746,6.0417841784178,0,0
-159.30232244144,34.659830881132,0.84621462146215,774048.22300883,-11243.897175321,4839918.5530746,6.0462146214621,0,0
-159.30232243133,34.711277069684,0.85064506450645,858703.70048596,45752.215773315,4785770.7730235,6.0506450645065,0,0
-159.30232240692,34.762723285363,0.85507550755076,858703.70048596,45752.215773315,4785770.7730235,6.0550755075508,0,0
-159.30232238252,34.814169501042,0.85950595059506,858703.70048596,45752.215773315,4785770.7730235,6.0595059505951,0,0
-159.30232235812,34.86561571672,0.86393639363936,858703.70048596,45752.215773315,4785770.7730235,6.0639363936394,0,0
-159.30232233371,34.917061932399,0.86836683668367,858703.70048596,45752.215773315,4785770.7730235,6.0683668366837,0,0
-159.30232230931,34.968508148078,0.87279727972797,858703.70048596,45752.215773315,4785770.7730235,6.072797279728,0,0
-159.30232228491,35.019954363756,0.87722772277228,858703.70048596,45752.215773315,4785770.7730235,6.0772277227723,0,0
-159.3023222605,35.071400579435,0.88165816581658,858703.70048596,45752.215773315,4785770.7730235,6.0816581658166,0,0
-159.3023222361,35.122846795114,0.88608860886089,858703.70048596,45752.215773315,4785770.7730235,6.0860886088609,0,0
-159.3023222117,35.174293010793,0.89051905190519,858703.70048596,45752.215773315,4785770.7730235,6.0905190519052,0,0
-159.30232218729,35.225739226471,0.8949494949495,858703.70048596,45752.215773315,4785770.7730235,6.0949494949495,0,0
-159.30232216289,35.27718544215,0.8993799379938,858703.70048596,45752.215773315,4785770.7730235,6.0993799379938,0,0
-159.30232213849,35.328631657829,0.9038103810381,858703.70048596,45752.215773315,4785770.7730235,6.1038103810381,0,0
-159.30232211409,35.380077873508,0.90824082408241,858703.70048596,45752.215773315,4785770.7730235,6.1082408240824,0,0
-159.30232208968,35.431524089186,0.91267126712671,858703.70048596,45752.215773315,4785770.7730235,6.1126712671267,0,0
-159.30232206528,35.482970304865,0.91710171017102,858703.70048596,45752.215773315,4785770.7730235,6.117101710171,0,0
-159.30232204088,35.534416520544,0.92153215321532,858703.70048596,45752.215773315,4785770.7730235,6.1215321532153,0,0
-159.30232201647,35.585862736223,0.92596259625963,858703.70048596,45752.215773315,4785770.7730235,6.1259625962596,0,0
-159.30232199207,35.637308951901,0.93039303930393,858703.70048596,45752.215773315,4785770.7730235,6.1303930393039,0,0
-159.30232196767,35.68875516758,0.93482348234823,858703.70048596,45752.215773315,4785770.7730235,6.1348234823482,0,0
-159.3023219402,35.740201375695,0.93925392539254,907775.42378405,-17523.834595086,4653704.7397907,6.1392539253925,0,0
-159.30232190119,35.791647555273,0.94368436843684,907775.42378405,-17523.834595086,4653704.7397907,6.1436843684368,0,0
-159.30232186218,35.843093734851,0.94811481148115,907775.42378405,-17523.834595086,4653704.7397907,6.1481148114811,0,0
-159.30232182317,35.89453991443,0.95254525452545,907775.42378405,-17523.834595086,4653704.7397907,6.1525452545255,0,0
-159.30232178416,35.945986094008,0.95697569756976,907775.42378405,-17523.834595086,4653704.7397907,6.1569756975698,0,0
-159.30232174515,35.997432273586,0.96140614061406,907775.42378405,-17523.834595086,4653704.7397907,6.1614061406141,0,0
-159.30232170614,36.048878453164,0.96583658365837,907775.42378405,-17523.834595086,4653704.7397907,6.1658365836584,0,0
-159.30232166713,36.100324632742,0.97026702670267,907775.42378405,-17523.834595086,4653704.7397907,6.1702670267027,0,0
-159.30232162812,36.15177081232,0.97469746974697,907775.42378405,-17523.834595086,4653704.7397907,6.174697469747,0,0
-159.3023215891,36.203216991898,0.97912791279128,907775.42378405,-17523.834595086,4653704.7397907,6.1791279127913,0,0
-159.30232155009,36.254663171476,0.98355835583558,907775.42378405,-17523.834595086,4653704.7397907,6.1835583558356,0,0
-159.30232151108,36.306109351054,0.98798879887989,907775.42378405,-17523.834595086,4653704.7397907,6.1879887988799,0,0
-159.30232147207,36.357555530632,0.99241924192419,907775.42378405,-17523.834595086,4653704.7397907,6.1924192419242,0,0
-159.30232143306,36.40900171021,0.9968496849685,907775.42378405,-17523.834595086,4653704.7397907,6.1968496849685,0,0
-159.30232139405,36.460447889788,1.0012801280128,907775.42378405,-17523.834595086,4653704.7397907,6.2012801280128,0,0
-159.30232135504,36.511894069366,1.0057105710571,907775.42378405,-17523.834595086,4653704.7397907,6.2057105710571,0,0
-159.30232131603,36.563340248944,1.0101410141014,907775.42378405,-17523.834595086,4653704.7397907,6.2101410141014,0,0
-159.30232127702,36.614786428522,1.0145714571457,907775.42378405,-17523.834595086,4653704.7397907,6.2145714571457,0,0
-159.30232123801,36.6662326081,1.01900190019,907775.42378405,-17523.834595086,4653704.7397907,6.21900190019,0,0
-159.302321199,36.717678787678,1.0234323432343,907775.42378405,-17523.834595086,4653704.7397907,6.2234323432343,0,0
-159.30232115998,36.769124967256,1.0278627862786,907775.42378405,-17523.834595086,4653704.7397907,6.2278627862786,0,0
-159.30232112097,36.820571146834,1.0322932293229,907775.42378405,-17523.834595086,4653704.7397907,6.2322932293229,0,0
-159.30232108196,36.872017326412,1.0367236723672,907775.42378405,-17523.834595086,4653704.7397907,6.2367236723672,0,0
-159.30232104295,36.92346350599,1.0411541154115,907775.42378405,-17523.834595086,4653704.7397907,6.2411541154115,0,0
-159.30232100394,36.974909685568,1.0455845584558,907775.42378405,-17523.834595086,4653704.7397907,6.2455845584558,0,0
-159.30232096493,37.026355865146,1.0500150015002,907775.42378405,-17523.834595086,4653704.7397907,6.2500150015002,0,0
-159.30232092592,37.077802044724,1.0544454445445,907775.42378405,-17523.834595086,4653704.7397907,6.2544454445445,0,0
-159.30232088691,37.129248224302,1.0588758875888,907775.42378405,-17523.834595086,4653704.7397907,6.2588758875888,0,0
-159.3023208479,37.18069440388,1.0633063306331,907775.42378405,-17523.834595086,4653704.7397907,6.2633063306331,0,0
-159.30232080889,37.232140583458,1.0677367736774,907775.42378405,-17523.834595086,4653704.7397907,6.2677367736774,0,0
-159.30232076988,37.283586763036,1.0721672167217,907775.42378405,-17523.834595086,4653704.7397907,6.2721672167217,0,0
-159.30232073086,37.335032942614,1.076597659766,907775.42378405,-17523.834595086,4653704.7397907,6.276597659766,0,0
-159.30232069185,37.386479122192,1.0810281028103,907775.42378405,-17523.834595086,4653704.7397907,6.2810281028103,0,0
-159.30232065284,37.43792530177,1.0854585458546,907775.42378405,-17523.834595086,4653704.7397907,6.2854585458546,0,0
-159.30232061383,37.489371481348,1.0898889888989,907775.42378405,-17523.834595086,4653704.7397907,6.2898889888989,0,0
-159.30232057482,37.540817660926,1.0943194319432,907775.42378405,-17523.834595086,4653704.7397907,6.2943194319432,0,0
-159.30232053581,37.592263840504,1.0987498749875,907775.42378405,-17523.834595086,4653704.7397907,6.2987498749875,0,0
-159.3023204968,37.643710020082,1.1031803180318,907775.42378405,-17523.834595086,4653704.7397907,6.3031803180318,0,0
-159.30232044722,37.695156229791,1.1076107610761,938630.40767241,42142.132713844,4526210.6158012,6.3076107610761,0,0
-159.30232039672,37.746602442104,1.1120412041204,938630.40767241,42142.132713844,4526210.6158012,6.3120412041204,0,0
-159.30232034623,37.798048654417,1.1164716471647,938630.40767241,42142.132713844,4526210.6158012,6.3164716471647,0,0
-159.30232029573,37.84949486673,1.120902090209,938630.40767241,42142.132713844,4526210.6158012,6.320902090209,0,0
-159.30232024524,37.900941079043,1.1253325332533,938630.40767241,42142.132713844,4526210.6158012,6.3253325332533,0,0
-159.30232019474,37.952387291356,1.1297629762976,938630.40767241,42142.132713844,4526210.6158012,6.3297629762976,0,0
-159.30232014425,38.003833503669,1.1341934193419,938630.40767241,42142.132713844,4526210.6158012,6.3341934193419,0,0
-159.30232009375,38.055279715982,1.1386238623862,938630.40767241,42142.132713844,4526210.6158012,6.3386238623862,0,0
-159.30232004326,38.106725928295,1.1430543054305,938630.40767241,42142.132713844,4526210.6158012,6.3430543054305,0,0
-159.30231999277,38.158172140608,1.1474847484748,938630.40767241,42142.132713844,4526210.6158012,6.3474847484748,0,0
-159.30231994227,38.209618352921,1.1519151915192,938630.40767241,42142.132713844,4526210.6158012,6.3519151915192,0,0
-159.30231989178,38.261064565233,1.1563456345635,938630.40767241,42142.132713844,4526210.6158012,6.3563456345635,0,0
-159.30231984128,38.312510777546,1.1607760776078,938630.40767241,42142.132713844,4526210.6158012,6.3607760776078,0,0
-159.30231979079,38.363956989859,1.1652065206521,938630.40767241,42142.132713844,4526210.6158012,6.3652065206521,0,0
-159.30231974029,38.415403202172,1.1696369636964,938630.40767241,42142.132713844,4526210.6158012,6.3696369636964,0,0
-159.3023196898,38.466849414485,1.1740674067407,938630.40767241,42142.132713844,4526210.6158012,6.3740674067407,0,0
-159.3023196393,38.518295626798,1.178497849785,938630.40767241,42142.132713844,4526210.6158012,6.378497849785,0,0
-159.30231958881,38.569741839111,1.1829282928293,938630.40767241,42142.132713844,4526210.6158012,6.3829282928293,0,0
-159.30231953831,38.621188051424,1.1873587358736,938630.40767241,42142.132713844,4526210.6158012,6.3873587358736,0,0
-159.30231948475,38.672634255525,1.1917891789179,986242.01012963,-20316.838653046,4438568.6091,6.3917891789179,0,0
-159.30231942218,38.724080435474,1.1962196219622,986242.01012963,-20316.838653046,4438568.6091,6.3962196219622,0,0
-159.30231935961,38.775526615423,1.2006500650065,986242.01012963,-20316.838653046,4438568.6091,6.4006500650065,0,0
-159.30231929703,38.826972795372,1.2050805080508,986242.01012963,-20316.838653046,4438568.6091,6.4050805080508,0,0
-159.30231923446,38.878418975322,1.2095109510951,986242.01012963,-20316.838653046,4438568.6091,6.4095109510951,0,0
-159.30231917188,38.929865155271,1.2139413941394,986242.01012963,-20316.838653046,4438568.6091,6.4139413941394,0,0
-159.30231910931,38.98131133522,1.2183718371837,986242.01012963,-20316.838653046,4438568.6091,6.4183718371837,0,0
-159.30231904674,39.032757515169,1.222802280228,986242.01012963,-20316.838653046,4438568.6091,6.422802280228,0,0
-159.30231898416,39.084203695119,1.2272327232723,986242.01012963,-20316.838653046,4438568.6091,6.4272327232723,0,0
-159.30231892159,39.135649875068,1.2316631663166,986242.01012963,-20316.838653046,4438568.6091,6.4316631663166,0,0
-159.30231885902,39.187096055017,1.2360936093609,986242.01012963,-20316.838653046,4438568.6091,6.4360936093609,0,0
-159.30231879644,39.238542234966,1.2405240524052,986242.01012963,-20316.838653046,4438568.6091,6.4405240524052,0,0
-159.30231873387,39.289988414915,1.2449544954495,986242.01012963,-20316.838653046,4438568.6091,6.4449544954495,0,0
-159.30231867129,39.341434594865,1.2493849384938,986242.01012963,-20316.838653046,4438568.6091,6.4493849384938,0,0
-159.30231860872,39.392880774814,1.2538153815382,986242.01012963,-20316.838653046,4438568.6091,6.4538153815382,0,0
-159.30231854615,39.444326954763,1.2582458245825,986242.01012963,-20316.838653046,4438568.6091,6.4582458245825,0,0
-159.30231848357,39.495773134712,1.2626762676268,986242.01012963,-20316.838653046,4438568.6091,6.4626762676268,0,0
-159.302318421,39.547219314662,1.2671067106711,986242.01012963,-20316.838653046,4438568.6091,6.4671067106711,0,0
-159.30231835843,39.598665494611,1.2715371537154,986242.01012963,-20316.838653046,4438568.6091,6.4715371537154,0,0
-159.30231829585,39.65011167456,1.2759675967597,986242.01012963,-20316.838653046,4438568.6091,6.4759675967597,0,0
-159.30231823328,39.701557854509,1.280398039804,986242.01012963,-20316.838653046,4438568.6091,6.480398039804,0,0
-159.30231817071,39.753004034458,1.2848284828483,986242.01012963,-20316.838653046,4438568.6091,6.4848284828483,0,0
-159.30231810813,39.804450214408,1.2892589258926,986242.01012963,-20316.838653046,4438568.6091,6.4892589258926,0,0
-159.30231804556,39.855896394357,1.2936893689369,986242.01012963,-20316.838653046,4438568.6091,6.4936893689369,0,0
-159.30231798298,39.907342574306,1.2981198119812,986242.01012963,-20316.838653046,4438568.6091,6.4981198119812,0,0
-159.30231792041,39.958788754255,1.3025502550255,986242.01012963,-20316.838653046,4438568.6091,6.5025502550255,0,0
-159.30231785784,40.010234934204,1.3069806980698,986242.01012963,-20316.838653046,4438568.6091,6.5069806980698,0,0
-159.30231779526,40.061681114154,1.3114111411141,986242.01012963,-20316.838653046,4438568.6091,6.5114111411141,0,0
-159.30231773269,40.113127294103,1.3158415841584,986242.01012963,-20316.838653046,4438568.6091,6.5158415841584,0,0
-159.30231767012,40.164573474052,1.3202720272027,986242.01012963,-20316.838653046,4438568.6091,6.5202720272027,0,0
-159.30231760754,40.216019654001,1.324702470247,986242.01012963,-20316.838653046,4438568.6091,6.524702470247,0,0
-159.30231754497,40.267465833951,1.3291329132913,986242.01012963,-20316.838653046,4438568.6091,6.5291329132913,0,0
-159.30231748239,40.3189120139,1.3335633563356,986242.01012963,-20316.838653046,4438568.6091,6.5335633563356,0,0
-159.30231741982,40.370358193849,1.3379937993799,986242.01012963,-20316.838653046,4438568.6091,6.5379937993799,0,0
-159.30231735725,40.421804373798,1.3424242424242,986242.01012963,-20316.838653046,4438568.6091,6.5424242424242,0,0
-159.30231729451,40.47325055422,1.3468546854685,1023813.6266648,39092.202924401,4346587.2183979,6.5468546854685,0,0
-159.30231722122,40.524696764906,1.3512851285129,1023813.6266648,39092.202924401,4346587.2183979,6.5512851285129,0,0
-159.30231714794,40.576142975591,1.3557155715572,1023813.6266648,39092.202924401,4346587.2183979,6.5557155715572,0,0
-159.30231707465,40.627589186276,1.3601460146015,1023813.6266648,39092.202924401,4346587.2183979,6.5601460146015,0,0
-159.30231700137,40.679035396961,1.3645764576458,1023813.6266648,39092.202924401,4346587.2183979,6.5645764576458,0,0
-159.30231692808,40.730481607647,1.3690069006901,1023813.6266648,39092.202924401,4346587.2183979,6.5690069006901,0,0
-159.30231685479,40.781927818332,1.3734373437344,1023813.6266648,39092.202924401,4346587.2183979,6.5734373437344,0,0
-159.30231678151,40.833374029017,1.3778677867787,1023813.6266648,39092.202924401,4346587.2183979,6.5778677867787,0,0
-159.30231670822,40.884820239702,1.382298229823,1023813.6266648,39092.202924401,4346587.2183979,6.582298229823,0,0
-159.30231663494,40.936266450388,1.3867286728673,1023813.6266648,39092.202924401,4346587.2183979,6.5867286728673,0,0
-159.30231656165,40.987712661073,1.3911591159116,1023813.6266648,39092.202924401,4346587.2183979,6.5911591159116,0,0
-159.30231648837,41.039158871758,1.3955895589559,1023813.6266648,39092.202924401,4346587.2183979,6.5955895589559,0,0
-159.30231641508,41.090605082443,1.4000200020002,1023813.6266648,39092.202924401,4346587.2183979,6.6000200020002,0,0
-159.30231634179,41.142051293129,1.4044504450445,1023813.6266648,39092.202924401,4346587.2183979,6.6044504450445,0,0
-159.30231626851,41.193497503814,1.4088808880888,1023813.6266648,39092.202924401,4346587.2183979,6.6088808880888,0,0
-159.30231619522,41.244943714499,1.4133113311331,1023813.6266648,39092.202924401,4346587.2183979,6.6133113311331,0,0
-159.30231612194,41.296389925185,1.4177417741774,1023813.6266648,39092.202924401,4346587.2183979,6.6177417741774,0,0
-159.30231604865,41.34783613587,1.4221722172217,1023813.6266648,39092.202924401,4346587.2183979,6.6221722172217,0,0
-159.30231597537,41.399282346555,1.426602660266,1023813.6266648,39092.202924401,4346587.2183979,6.626602660266,0,0
-159.30231590208,41.45072855724,1.4310331033103,1023813.6266648,39092.202924401,4346587.2183979,6.6310331033103,0,0
-159.3023158288,41.502174767926,1.4354635463546,1023813.6266648,39092.202924401,4346587.2183979,6.6354635463546,0,0
-159.30231575551,41.553620978611,1.4398939893989,1023813.6266648,39092.202924401,4346587.2183979,6.6398939893989,0,0
-159.30231568222,41.605067189296,1.4443244324432,1023813.6266648,39092.202924401,4346587.2183979,6.6443244324432,0,0
-159.30231560694,41.656513393019,1.4487548754875,1047354.0834694,-27103.75464639,4234634.7607234,6.6487548754875,0,0
-159.30231552414,41.707959570445,1.4531853185319,1047354.0834694,-27103.75464639,4234634.7607234,6.6531853185319,0,0
-159.30231544133,41.759405747871,1.4576157615762,1047354.0834694,-27103.75464639,4234634.7607234,6.6576157615762,0,0
-159.30231535853,41.810851925297,1.4620462046205,1047354.0834694,-27103.75464639,4234634.7607234,6.6620462046205,0,0
-159.30231527572,41.862298102723,1.4664766476648,1047354.0834694,-27103.75464639,4234634.7607234,6.6664766476648,0,0
-159.30231519291,41.913744280149,1.4709070907091,1047354.0834694,-27103.75464639,4234634.7607234,6.6709070907091,0,0
-159.30231511011,41.965190457575,1.4753375337534,1047354.0834694,-27103.75464639,4234634.7607234,6.6753375337534,0,0
-159.3023150273,42.016636635001,1.4797679767977,1047354.0834694,-27103.75464639,4234634.7607234,6.6797679767977,0,0
-159.30231494449,42.068082812427,1.484198419842,1047354.0834694,-27103.75464639,4234634.7607234,6.684198419842,0,0
-159.30231486169,42.119528989852,1.4886288628863,1047354.0834694,-27103.75464639,4234634.7607234,6.6886288628863,0,0
-159.30231477888,42.170975167278,1.4930593059306,1047354.0834694,-27103.75464639,4234634.7607234,6.6930593059306,0,0
-159.30231469607,42.222421344704,1.4974897489749,1047354.0834694,-27103.75464639,4234634.7607234,6.6974897489749,0,0
-159.30231461327,42.27386752213,1.5019201920192,1047354.0834694,-27103.75464639,4234634.7607234,6.7019201920192,0,0
-159.30231453046,42.325313699556,1.5063506350635,1047354.0834694,-27103.75464639,4234634.7607234,6.7063506350635,0,0
-159.30231444766,42.376759876982,1.5107810781078,1047354.0834694,-27103.75464639,4234634.7607234,6.7107810781078,0,0
-159.30231436485,42.428206054408,1.5152115211521,1047354.0834694,-27103.75464639,4234634.7607234,6.7152115211521,0,0
-159.30231428204,42.479652231834,1.5196419641964,1047354.0834694,-27103.75464639,4234634.7607234,6.7196419641964,0,0
-159.30231419924,42.53109840926,1.5240724072407,1047354.0834694,-27103.75464639,4234634.7607234,6.7240724072407,0,0
-159.30231411643,42.582544586686,1.528502850285,1047354.0834694,-27103.75464639,4234634.7607234,6.728502850285,0,0
-159.30231403362,42.633990764112,1.5329332933293,1047354.0834694,-27103.75464639,4234634.7607234,6.7329332933293,0,0
-159.30231395082,42.685436941538,1.5373637363736,1047354.0834694,-27103.75464639,4234634.7607234,6.7373637363736,0,0
-159.30231386801,42.736883118964,1.5417941794179,1047354.0834694,-27103.75464639,4234634.7607234,6.7417941794179,0,0
-159.3023137852,42.78832929639,1.5462246224622,1047354.0834694,-27103.75464639,4234634.7607234,6.7462246224622,0,0
-159.3023137024,42.839775473816,1.5506550655066,1047354.0834694,-27103.75464639,4234634.7607234,6.7506550655066,0,0
-159.30231361959,42.891221651242,1.5550855085509,1047354.0834694,-27103.75464639,4234634.7607234,6.7550855085509,0,0
-159.30231353678,42.942667828668,1.5595159515952,1047354.0834694,-27103.75464639,4234634.7607234,6.7595159515952,0,0
-159.30231345398,42.994114006094,1.5639463946395,1047354.0834694,-27103.75464639,4234634.7607234,6.7639463946395,0,0
-159.30231337117,43.045560183519,1.5683768376838,1047354.0834694,-27103.75464639,4234634.7607234,6.7683768376838,0,0
-159.30231328837,43.097006360945,1.5728072807281,1047354.0834694,-27103.75464639,4234634.7607234,6.7728072807281,0,0
-159.30231320556,43.148452538371,1.5772377237724,1047354.0834694,-27103.75464639,4234634.7607234,6.7772377237724,0,0
-159.30231312275,43.199898715797,1.5816681668167,1047354.0834694,-27103.75464639,4234634.7607234,6.7816681668167,0,0
-159.30231303995,43.251344893223,1.586098609861,1047354.0834694,-27103.75464639,4234634.7607234,6.786098609861,0,0
-159.30231295714,43.302791070649,1.5905290529053,1047354.0834694,-27103.75464639,4234634.7607234,6.7905290529053,0,0
-159.30231287433,43.354237248075,1.5949594959496,1047354.0834694,-27103.75464639,4234634.7607234,6.7949594959496,0,0
-159.30231279153,43.405683425501,1.5993899389939,1047354.0834694,-27103.75464639,4234634.7607234,6.7993899389939,0,0
-159.30231270872,43.457129602927,1.6038203820382,1047354.0834694,-27103.75464639,4234634.7607234,6.8038203820382,0,0
-159.30231261689,43.508575804022,1.6082508250825,1092091.5551148,27873.391608942,4162819.2107815,6.8082508250825,0,0
-159.30231252328,43.560022009785,1.6126812681268,1092091.5551148,27873.391608942,4162819.2107815,6.8126812681268,0,0
-159.30231242967,43.611468215548,1.6171117111711,1092091.5551148,27873.391608942,4162819.2107815,6.8171117111711,0,0
-159.30231233605,43.662914421311,1.6215421542154,1092091.5551148,27873.391608942,4162819.2107815,6.8215421542154,0,0
-159.30231224244,43.714360627074,1.6259725972597,1092091.5551148,27873.391608942,4162819.2107815,6.8259725972597,0,0
-159.30231214883,43.765806832837,1.630403040304,1092091.5551148,27873.391608942,4162819.2107815,6.830403040304,0,0
-159.30231205522,43.8172530386,1.6348334833483,1092091.5551148,27873.391608942,4162819.2107815,6.8348334833483,0,0
-159.30231196161,43.868699244362,1.6392639263926,1092091.5551148,27873.391608942,4162819.2107815,6.8392639263926,0,0
-159.302311868,43.920145450125,1.6436943694369,1092091.5551148,27873.391608942,4162819.2107815,6.8436943694369,0,0
-159.30231177439,43.971591655888,1.6481248124812,1092091.5551148,27873.391608942,4162819.2107815,6.8481248124812,0,0
-159.30231168078,44.023037861651,1.6525552555256,1092091.5551148,27873.391608942,4162819.2107815,6.8525552555256,0,0
-159.30231158716,44.074484067414,1.6569856985699,1092091.5551148,27873.391608942,4162819.2107815,6.8569856985699,0,0
-159.30231149355,44.125930273177,1.6614161416142,1092091.5551148,27873.391608942,4162819.2107815,6.8614161416142,0,0
-159.30231139994,44.17737647894,1.6658465846585,1092091.5551148,27873.391608942,4162819.2107815,6.8658465846585,0,0
-159.30231130633,44.228822684703,1.6702770277028,1092091.5551148,27873.391608942,4162819.2107815,6.8702770277028,0,0
-159.30231121272,44.280268890466,1.6747074707471,1092091.5551148,27873.391608942,4162819.2107815,6.8747074707471,0,0
-159.30231111911,44.331715096229,1.6791379137914,1092091.5551148,27873.391608942,4162819.2107815,6.8791379137914,0,0
-159.3023110255,44.383161301991,1.6835683568357,1092091.5551148,27873.391608942,4162819.2107815,6.8835683568357,0,0
-159.30231093188,44.434607507754,1.68799879988,1092091.5551148,27873.391608942,4162819.2107815,6.88799879988,0,0
-159.30231083827,44.486053713517,1.6924292429243,1092091.5551148,27873.391608942,4162819.2107815,6.8924292429243,0,0
-159.30231074466,44.53749991928,1.6968596859686,1092091.5551148,27873.391608942,4162819.2107815,6.8968596859686,0,0
-159.30231065105,44.588946125043,1.7012901290129,1092091.5551148,27873.391608942,4162819.2107815,6.9012901290129,0,0
-159.30231055744,44.640392330806,1.7057205720572,1092091.5551148,27873.391608942,4162819.2107815,6.9057205720572,0,0
-159.30231046383,44.691838536569,1.7101510151015,1092091.5551148,27873.391608942,4162819.2107815,6.9101510151015,0,0
-159.30231037022,44.743284742332,1.7145814581458,1092091.5551148,27873.391608942,4162819.2107815,6.9145814581458,0,0
-159.3023102766,44.794730948095,1.7190119011901,1092091.5551148,27873.391608942,4162819.2107815,6.9190119011901,0,0
-159.30231018299,44.846177153858,1.7234423442344,1092091.5551148,27873.391608942,4162819.2107815,6.9234423442344,0,0
-159.30231008938,44.89762335962,1.7278727872787,1092091.5551148,27873.391608942,4162819.2107815,6.9278727872787,0,0
-159.30230999577,44.949069565383,1.732303230323,1092091.5551148,27873.391608942,4162819.2107815,6.932303230323,0,0
-159.30230990216,45.000515771146,1.7367336733673,1092091.5551148,27873.391608942,4162819.2107815,6.9367336733673,0,0
-159.30230980855,45.051961976909,1.7411641164116,1092091.5551148,27873.391608942,4162819.2107815,6.9411641164116,0,0
-159.30230971494,45.103408182672,1.7455945594559,1092091.5551148,27873.391608942,4162819.2107815,6.9455945594559,0,0
-159.30230962133,45.154854388435,1.7500250025002,1092091.5551148,27873.391608942,4162819.2107815,6.9500250025002,0,0
-159.30230952771,45.206300594198,1.7544554455446,1092091.5551148,27873.391608942,4162819.2107815,6.9544554455446,0,0
-159.3023094341,45.257746799961,1.7588858885889,1092091.5551148,27873.391608942,4162819.2107815,6.9588858885889,0,0
-159.30230933313,45.309192982267,1.7633163316332,1117910.4010617,-33494.400869264,4048449.5303692,6.9633163316332,0,0
-159.30230922952,45.360639156124,1.7677467746775,1117910.4010617,-33494.400869264,4048449.5303692,6.9677467746775,0,0
-159.3023091259,45.412085329982,1.7721772177218,1117910.4010617,-33494.400869264,4048449.5303692,6.9721772177218,0,0
-159.30230902228,45.463531503839,1.7766076607661,1117910.4010617,-33494.400869264,4048449.5303692,6.9766076607661,0,0
-159.30230891866,45.514977677696,1.7810381038104,1117910.4010617,-33494.400869264,4048449.5303692,6.9810381038104,0,0
-159.30230881504,45.566423851553,1.7854685468547,1117910.4010617,-33494.400869264,4048449.5303692,6.9854685468547,0,0
-159.30230871143,45.61787002541,1.789898989899,1117910.4010617,-33494.400869264,4048449.5303692,6.989898989899,0,0
-159.30230860781,45.669316199267,1.7943294329433,1117910.4010617,-33494.400869264,4048449.5303692,6.9943294329433,0,0
-159.30230850419,45.720762373125,1.7987598759876,1117910.4010617,-33494.400869264,4048449.5303692,6.9987598759876,0,0
-159.30230840057,45.772208546982,1.8031903190319,1117910.4010617,-33494.400869264,4048449.5303692,7.0031903190319,0,0
-159.30230829695,45.823654720839,1.8076207620762,1117910.4010617,-33494.400869264,4048449.5303692,7.0076207620762,0,0
-159.30230819333,45.875100894696,1.8120512051205,1117910.4010617,-33494.400869264,4048449.5303692,7.0120512051205,0,0
-159.30230808972,45.926547068553,1.8164816481648,1117910.4010617,-33494.400869264,4048449.5303692,7.0164816481648,0,0
-159.3023079861,45.977993242411,1.8209120912091,1117910.4010617,-33494.400869264,4048449.5303692,7.0209120912091,0,0
-159.30230788248,46.029439416268,1.8253425342534,1117910.4010617,-33494.400869264,4048449.5303692,7.0253425342534,0,0
-159.30230777886,46.080885590125,1.8297729772977,1117910.4010617,-33494.400869264,4048449.5303692,7.0297729772977,0,0
-159.30230767524,46.132331763982,1.834203420342,1117910.4010617,-33494.400869264,4048449.5303692,7.034203420342,0,0
-159.30230757162,46.183777937839,1.8386338633863,1117910.4010617,-33494.400869264,4048449.5303692,7.0386338633863,0,0
-159.30230746801,46.235224111696,1.8430643064306,1117910.4010617,-33494.400869264,4048449.5303692,7.0430643064306,0,0
-159.30230736439,46.286670285554,1.8474947494749,1117910.4010617,-33494.400869264,4048449.5303692,7.0474947494749,0,0
-159.30230726077,46.338116459411,1.8519251925193,1117910.4010617,-33494.400869264,4048449.5303692,7.0519251925193,0,0
-159.30230715715,46.389562633268,1.8563556355636,1117910.4010617,-33494.400869264,4048449.5303692,7.0563556355636,0,0
-159.30230705353,46.441008807125,1.8607860786079,1117910.4010617,-33494.400869264,4048449.5303692,7.0607860786079,0,0
-159.30230694991,46.492454980982,1.8652165216522,1117910.4010617,-33494.400869264,4048449.5303692,7.0652165216522,0,0
-159.3023068463,46.54390115484,1.8696469646965,1117910.4010617,-33494.400869264,4048449.5303692,7.0696469646965,0,0
-159.30230674268,46.595347328697,1.8740774077408,1117910.4010617,-33494.400869264,4048449.5303692,7.0740774077408,0,0
-159.30230663906,46.646793502554,1.8785078507851,1117910.4010617,-33494.400869264,4048449.5303692,7.0785078507851,0,0
-159.30230653544,46.698239676411,1.8829382938294,1117910.4010617,-33494.400869264,4048449.5303692,7.0829382938294,0,0
-159.30230643182,46.749685850268,1.8873687368737,1117910.4010617,-33494.400869264,4048449.5303692,7.0873687368737,0,0
-159.30230632821,46.801132024125,1.891799179918,1117910.4010617,-33494.400869264,4048449.5303692,7.091799179918,0,0
-159.30230621597,46.852578226265,1.8962296229623,1146274.9907066,24692.695536418,3964851.091619,7.0962296229623,0,0
-159.30230610353,46.90402442907,1.9006600660066,1146274.9907066,24692.695536418,3964851.091619,7.1006600660066,0,0
-159.3023059911,46.955470631875,1.9050905090509,1146274.9907066,24692.695536418,3964851.091619,7.1050905090509,0,0
-159.30230587866,47.00691683468,1.9095209520952,1146274.9907066,24692.695536418,3964851.091619,7.1095209520952,0,0
-159.30230576622,47.058363037485,1.9139513951395,1146274.9907066,24692.695536418,3964851.091619,7.1139513951395,0,0
-159.30230565378,47.10980924029,1.9183818381838,1146274.9907066,24692.695536418,3964851.091619,7.1183818381838,0,0
-159.30230554135,47.161255443095,1.9228122812281,1146274.9907066,24692.695536418,3964851.091619,7.1228122812281,0,0
-159.30230542891,47.2127016459,1.9272427242724,1146274.9907066,24692.695536418,3964851.091619,7.1272427242724,0,0
-159.30230531647,47.264147848705,1.9316731673167,1146274.9907066,24692.695536418,3964851.091619,7.1316731673167,0,0
-159.30230520403,47.315594051509,1.936103610361,1146274.9907066,24692.695536418,3964851.091619,7.136103610361,0,0
-159.3023050916,47.367040254314,1.9405340534053,1146274.9907066,24692.695536418,3964851.091619,7.1405340534053,0,0
-159.30230497916,47.418486457119,1.9449644964496,1146274.9907066,24692.695536418,3964851.091619,7.1449644964496,0,0
-159.30230486672,47.469932659924,1.9493949394939,1146274.9907066,24692.695536418,3964851.091619,7.1493949394939,0,0
-159.30230475429,47.521378862729,1.9538253825383,1146274.9907066,24692.695536418,3964851.091619,7.1538253825383,0,0
-159.30230464185,47.572825065534,1.9582558255826,1146274.9907066,24692.695536418,3964851.091619,7.1582558255826,0,0
-159.30230452941,47.624271268339,1.9626862686269,1146274.9907066,24692.695536418,3964851.091619,7.1626862686269,0,0
-159.30230441697,47.675717471144,1.9671167116712,1146274.9907066,24692.695536418,3964851.091619,7.1671167116712,0,0
-159.30230430454,47.727163673949,1.9715471547155,1146274.9907066,24692.695536418,3964851.091619,7.1715471547155,0,0
-159.3023041921,47.778609876754,1.9759775977598,1146274.9907066,24692.695536418,3964851.091619,7.1759775977598,0,0
-159.30230407966,47.830056079559,1.9804080408041,1146274.9907066,24692.695536418,3964851.091619,7.1804080408041,0,0
-159.30230396722,47.881502282364,1.9848384838484,1146274.9907066,24692.695536418,3964851.091619,7.1848384838484,0,0
-159.30230385479,47.932948485169,1.9892689268927,1146274.9907066,24692.695536418,3964851.091619,7.1892689268927,0,0
-159.30230374235,47.984394687974,1.993699369937,1146274.9907066,24692.695536418,3964851.091619,7.193699369937,0,0
-159.30230362991,48.035840890779,1.9981298129813,1146274.9907066,24692.695536418,3964851.091619,7.1981298129813,0,0
-159.30230351747,48.087287093584,2.0025602560256,1146274.9907066,24692.695536418,3964851.091619,7.2025602560256,0,0
-159.30230340504,48.138733296389,2.0069906990699,1146274.9907066,24692.695536418,3964851.091619,7.2069906990699,0,0
-159.3023032926,48.190179499194,2.0114211421142,1146274.9907066,24692.695536418,3964851.091619,7.2114211421142,0,0
-159.30230318016,48.241625701999,2.0158515851585,1146274.9907066,24692.695536418,3964851.091619,7.2158515851585,0,0
-159.30230306773,48.293071904804,2.0202820282028,1146274.9907066,24692.695536418,3964851.091619,7.2202820282028,0,0
-159.30230295529,48.344518107609,2.0247124712471,1146274.9907066,24692.695536418,3964851.091619,7.2247124712471,0,0
-159.30230284285,48.395964310414,2.0291429142914,1146274.9907066,24692.695536418,3964851.091619,7.2291429142914,0,0
-159.30230273041,48.447410513219,2.0335733573357,1146274.9907066,24692.695536418,3964851.091619,7.2335733573357,0,0
-159.30230261798,48.498856716023,2.03800380038,1146274.9907066,24692.695536418,3964851.091619,7.23800380038,0,0
-159.30230250554,48.550302918828,2.0424342434243,1146274.9907066,24692.695536418,3964851.091619,7.2424342434243,0,0
-159.3023023931,48.601749121633,2.0468646864686,1146274.9907066,24692.695536418,3964851.091619,7.2468646864686,0,0
-159.30230228066,48.653195324438,2.051295129513,1146274.9907066,24692.695536418,3964851.091619,7.251295129513,0,0
-159.30230216823,48.704641527243,2.0557255725573,1146274.9907066,24692.695536418,3964851.091619,7.2557255725573,0,0
-159.30230205579,48.756087730048,2.0601560156016,1146274.9907066,24692.695536418,3964851.091619,7.2601560156016,0,0
-159.30230194335,48.807533932853,2.0645864586459,1146274.9907066,24692.695536418,3964851.091619,7.2645864586459,0,0
-159.30230183091,48.858980135658,2.0690169016902,1146274.9907066,24692.695536418,3964851.091619,7.2690169016902,0,0
-159.30230171848,48.910426338463,2.0734473447345,1146274.9907066,24692.695536418,3964851.091619,7.2734473447345,0,0
-159.30230160604,48.961872541268,2.0778777877788,1146274.9907066,24692.695536418,3964851.091619,7.2778777877788,0,0
-159.3023014936,49.013318744073,2.0823082308231,1146274.9907066,24692.695536418,3964851.091619,7.2823082308231,0,0
-159.30230138117,49.064764946878,2.0867386738674,1146274.9907066,24692.695536418,3964851.091619,7.2867386738674,0,0
-159.30230126873,49.116211149683,2.0911691169117,1146274.9907066,24692.695536418,3964851.091619,7.2911691169117,0,0
-159.30230115629,49.167657352488,2.095599559956,1146274.9907066,24692.695536418,3964851.091619,7.295599559956,0,0
-159.30230104385,49.219103555293,2.1000300030003,1146274.9907066,24692.695536418,3964851.091619,7.3000300030003,0,0
-159.30230093142,49.270549758098,2.1044604460446,1146274.9907066,24692.695536418,3964851.091619,7.3044604460446,0,0
-159.30230081385,49.321995946428,2.1088908890889,1182890.9801538,-26788.51929034,3898654.6539093,7.3088908890889,0,0
-159.30230069218,49.373442123199,2.1133213321332,1182890.9801538,-26788.51929034,3898654.6539093,7.3133213321332,0,0
-159.30230057052,49.424888299969,2.1177517751775,1182890.9801538,-26788.51929034,3898654.6539093,7.3177517751775,0,0
-159.30230044886,49.47633447674,2.1221822182218,1182890.9801538,-26788.51929034,3898654.6539093,7.3221822182218,0,0
-159.30230032719,49.52778065351,2.1266126612661,1182890.9801538,-26788.51929034,3898654.6539093,7.3266126612661,0,0
-159.30230020553,49.579226830281,2.1310431043104,1182890.9801538,-26788.51929034,3898654.6539093,7.3310431043104,0,0
-159.30230008386,49.630673007052,2.1354735473547,1182890.9801538,-26788.51929034,3898654.6539093,7.3354735473547,0,0
-159.3022999622,49.682119183822,2.139903990399,1182890.9801538,-26788.51929034,3898654.6539093,7.339903990399,0,0
-159.30229984053,49.733565360593,2.1443344334433,1182890.9801538,-26788.51929034,3898654.6539093,7.3443344334433,0,0
-159.30229971887,49.785011537363,2.1487648764876,1182890.9801538,-26788.51929034,3898654.6539093,7.3487648764876,0,0
-159.3022995972,49.836457714134,2.153195319532,1182890.9801538,-26788.51929034,3898654.6539093,7.353195319532,0,0
-159.30229947554,49.887903890904,2.1576257625763,1182890.9801538,-26788.51929034,3898654.6539093,7.3576257625763,0,0
-159.30229935388,49.939350067675,2.1620562056206,1182890.9801538,-26788.51929034,3898654.6539093,7.3620562056206,0,0
-159.30229923221,49.990796244445,2.1664866486649,1182890.9801538,-26788.51929034,3898654.6539093,7.3664866486649,0,0
-159.30229911055,50.042242421216,2.1709170917092,1182890.9801538,-26788.51929034,3898654.6539093,7.3709170917092,0,0
-159.30229898888,50.093688597987,2.1753475347535,1182890.9801538,-26788.51929034,3898654.6539093,7.3753475347535,0,0
-159.30229886722,50.145134774757,2.1797779777978,1182890.9801538,-26788.51929034,3898654.6539093,7.3797779777978,0,0
-159.30229874555,50.196580951528,2.1842084208421,1182890.9801538,-26788.51929034,3898654.6539093,7.3842084208421,0,0
-159.30229862389,50.248027128298,2.1886388638864,1182890.9801538,-26788.51929034,3898654.6539093,7.3886388638864,0,0
-159.30229850222,50.299473305069,2.1930693069307,1182890.9801538,-26788.51929034,3898654.6539093,7.3930693069307,0,0
-159.30229838056,50.350919481839,2.197499749975,1182890.9801538,-26788.51929034,3898654.6539093,7.397499749975,0,0
-159.3022982589,50.40236565861,2.2019301930193,1182890.9801538,-26788.51929034,3898654.6539093,7.4019301930193,0,0
-159.30229813723,50.45381183538,2.2063606360636,1182890.9801538,-26788.51929034,3898654.6539093,7.4063606360636,0,0
-159.30229801557,50.505258012151,2.2107910791079,1182890.9801538,-26788.51929034,3898654.6539093,7.4107910791079,0,0
-159.3022978939,50.556704188922,2.2152215221522,1182890.9801538,-26788.51929034,3898654.6539093,7.4152215221522,0,0
-159.30229777224,50.608150365692,2.2196519651965,1182890.9801538,-26788.51929034,3898654.6539093,7.4196519651965,0,0
-159.30229765057,50.659596542463,2.2240824082408,1182890.9801538,-26788.51929034,3898654.6539093,7.4240824082408,0,0
-159.30229752891,50.711042719233,2.2285128512851,1182890.9801538,-26788.51929034,3898654.6539093,7.4285128512851,0,0
-159.30229740724,50.762488896004,2.2329432943294,1182890.9801538,-26788.51929034,3898654.6539093,7.4329432943294,0,0
-159.30229728558,50.813935072774,2.2373737373737,1182890.9801538,-26788.51929034,3898654.6539093,7.4373737373737,0,0
-159.30229716392,50.865381249545,2.241804180418,1182890.9801538,-26788.51929034,3898654.6539093,7.441804180418,0,0
-159.30229704225,50.916827426315,2.2462346234623,1182890.9801538,-26788.51929034,3898654.6539093,7.4462346234623,0,0
-159.30229692059,50.968273603086,2.2506650665067,1182890.9801538,-26788.51929034,3898654.6539093,7.4506650665067,0,0
-159.30229679892,51.019719779857,2.255095509551,1182890.9801538,-26788.51929034,3898654.6539093,7.455095509551,0,0
-159.30229667726,51.071165956627,2.2595259525953,1182890.9801538,-26788.51929034,3898654.6539093,7.4595259525953,0,0
-159.30229655559,51.122612133398,2.2639563956396,1182890.9801538,-26788.51929034,3898654.6539093,7.4639563956396,0,0
-159.30229643026,51.174058324125,2.2683868386839,1190409.70336,23408.238997927,3791057.0356366,7.4683868386839,0,0
-159.30229630184,51.225504526587,2.2728172817282,1190409.70336,23408.238997927,3791057.0356366,7.4728172817282,0,0
-159.30229617342,51.276950729049,2.2772477247725,1190409.70336,23408.238997927,3791057.0356366,7.4772477247725,0,0
-159.302296045,51.328396931511,2.2816781678168,1190409.70336,23408.238997927,3791057.0356366,7.4816781678168,0,0
-159.30229591658,51.379843133974,2.2861086108611,1190409.70336,23408.238997927,3791057.0356366,7.4861086108611,0,0
-159.30229578816,51.431289336436,2.2905390539054,1190409.70336,23408.238997927,3791057.0356366,7.4905390539054,0,0
-159.30229565974,51.482735538898,2.2949694969497,1190409.70336,23408.238997927,3791057.0356366,7.4949694969497,0,0
-159.30229553132,51.53418174136,2.299399939994,1190409.70336,23408.238997927,3791057.0356366,7.499399939994,0,0
-159.3022954029,51.585627943822,2.3038303830383,1190409.70336,23408.238997927,3791057.0356366,7.5038303830383,0,0
-159.30229527448,51.637074146284,2.3082608260826,1190409.70336,23408.238997927,3791057.0356366,7.5082608260826,0,0
-159.30229514606,51.688520348747,2.3126912691269,1190409.70336,23408.238997927,3791057.0356366,7.5126912691269,0,0
-159.30229501763,51.739966551209,2.3171217121712,1190409.70336,23408.238997927,3791057.0356366,7.5171217121712,0,0
-159.30229488921,51.791412753671,2.3215521552155,1190409.70336,23408.238997927,3791057.0356366,7.5215521552155,0,0
-159.30229476079,51.842858956133,2.3259825982598,1190409.70336,23408.238997927,3791057.0356366,7.5259825982598,0,0
-159.30229463237,51.894305158595,2.3304130413041,1190409.70336,23408.238997927,3791057.0356366,7.5304130413041,0,0
-159.30229450395,51.945751361057,2.3348434843484,1190409.70336,23408.238997927,3791057.0356366,7.5348434843484,0,0
-159.30229437553,51.99719756352,2.3392739273927,1190409.70336,23408.238997927,3791057.0356366,7.5392739273927,0,0
-159.30229424711,52.048643765982,2.343704370437,1190409.70336,23408.238997927,3791057.0356366,7.543704370437,0,0
-159.30229411869,52.100089968444,2.3481348134813,1190409.70336,23408.238997927,3791057.0356366,7.5481348134813,0,0
-159.30229399027,52.151536170906,2.3525652565257,1190409.70336,23408.238997927,3791057.0356366,7.5525652565257,0,0
-159.30229386185,52.202982373368,2.35699569957,1190409.70336,23408.238997927,3791057.0356366,7.55699569957,0,0
-159.30229373343,52.25442857583,2.3614261426143,1190409.70336,23408.238997927,3791057.0356366,7.5614261426143,0,0
-159.30229360501,52.305874778293,2.3658565856586,1190409.70336,23408.238997927,3791057.0356366,7.5658565856586,0,0
-159.30229347659,52.357320980755,2.3702870287029,1190409.70336,23408.238997927,3791057.0356366,7.5702870287029,0,0
-159.30229334817,52.408767183217,2.3747174717472,1190409.70336,23408.238997927,3791057.0356366,7.5747174717472,0,0
-159.30229321975,52.460213385679,2.3791479147915,1190409.70336,23408.238997927,3791057.0356366,7.5791479147915,0,0
-159.30229309133,52.511659588141,2.3835783578358,1190409.70336,23408.238997927,3791057.0356366,7.5835783578358,0,0
-159.30229296291,52.563105790603,2.3880088008801,1190409.70336,23408.238997927,3791057.0356366,7.5880088008801,0,0
-159.30229283449,52.614551993066,2.3924392439244,1190409.70336,23408.238997927,3791057.0356366,7.5924392439244,0,0
-159.30229270607,52.665998195528,2.3968696869687,1190409.70336,23408.238997927,3791057.0356366,7.5968696869687,0,0
-159.30229257765,52.71744439799,2.401300130013,1190409.70336,23408.238997927,3791057.0356366,7.601300130013,0,0
-159.30229244923,52.768890600452,2.4057305730573,1190409.70336,23408.238997927,3791057.0356366,7.6057305730573,0,0
-159.30229232081,52.820336802914,2.4101610161016,1190409.70336,23408.238997927,3791057.0356366,7.6101610161016,0,0
-159.30229219239,52.871783005376,2.4145914591459,1190409.70336,23408.238997927,3791057.0356366,7.6145914591459,0,0
-159.30229206396,52.923229207839,2.4190219021902,1190409.70336,23408.238997927,3791057.0356366,7.6190219021902,0,0
-159.30229193554,52.974675410301,2.4234523452345,1190409.70336,23408.238997927,3791057.0356366,7.6234523452345,0,0
-159.30229180712,53.026121612763,2.4278827882788,1190409.70336,23408.238997927,3791057.0356366,7.6278827882788,0,0
-159.3022916787,53.077567815225,2.4323132313231,1190409.70336,23408.238997927,3791057.0356366,7.6323132313231,0,0
-159.30229155028,53.129014017687,2.4367436743674,1190409.70336,23408.238997927,3791057.0356366,7.6367436743674,0,0
-159.30229142186,53.180460220149,2.4411741174117,1190409.70336,23408.238997927,3791057.0356366,7.6411741174117,0,0
-159.30229129344,53.231906422612,2.445604560456,1190409.70336,23408.238997927,3791057.0356366,7.645604560456,0,0
-159.30229116502,53.283352625074,2.4500350035003,1190409.70336,23408.238997927,3791057.0356366,7.6500350035004,0,0
-159.3022910366,53.334798827536,2.4544654465447,1190409.70336,23408.238997927,3791057.0356366,7.6544654465447,0,0
-159.30229090307,53.386245014046,2.458895889589,1220490.0513727,-28676.965852156,3722952.6618306,7.658895889589,0,0
-159.30229076636,53.437691190651,2.4633263326333,1220490.0513727,-28676.965852156,3722952.6618306,7.6633263326333,0,0
-159.30229062965,53.489137367255,2.4677567756776,1220490.0513727,-28676.965852156,3722952.6618306,7.6677567756776,0,0
-159.30229049294,53.540583543859,2.4721872187219,1220490.0513727,-28676.965852156,3722952.6618306,7.6721872187219,0,0
-159.30229035623,53.592029720463,2.4766176617662,1220490.0513727,-28676.965852156,3722952.6618306,7.6766176617662,0,0
-159.30229021952,53.643475897067,2.4810481048105,1220490.0513727,-28676.965852156,3722952.6618306,7.6810481048105,0,0
-159.30229008281,53.694922073672,2.4854785478548,1220490.0513727,-28676.965852156,3722952.6618306,7.6854785478548,0,0
-159.3022899461,53.746368250276,2.4899089908991,1220490.0513727,-28676.965852156,3722952.6618306,7.6899089908991,0,0
-159.30228980939,53.79781442688,2.4943394339434,1220490.0513727,-28676.965852156,3722952.6618306,7.6943394339434,0,0
-159.30228967267,53.849260603484,2.4987698769877,1220490.0513727,-28676.965852156,3722952.6618306,7.6987698769877,0,0
-159.30228953596,53.900706780089,2.503200320032,1220490.0513727,-28676.965852156,3722952.6618306,7.703200320032,0,0
-159.30228939925,53.952152956693,2.5076307630763,1220490.0513727,-28676.965852156,3722952.6618306,7.7076307630763,0,0
-159.30228926254,54.003599133297,2.5120612061206,1220490.0513727,-28676.965852156,3722952.6618306,7.7120612061206,0,0
-159.30228912583,54.055045309901,2.5164916491649,1220490.0513727,-28676.965852156,3722952.6618306,7.7164916491649,0,0
-159.30228898912,54.106491486505,2.5209220922092,1220490.0513727,-28676.965852156,3722952.6618306,7.7209220922092,0,0
-159.30228885241,54.15793766311,2.5253525352535,1220490.0513727,-28676.965852156,3722952.6618306,7.7253525352535,0,0
-159.3022887157,54.209383839714,2.5297829782978,1220490.0513727,-28676.965852156,3722952.6618306,7.7297829782978,0,0
-159.30228857899,54.260830016318,2.5342134213421,1220490.0513727,-28676.965852156,3722952.6618306,7.7342134213421,0,0
-159.30228844228,54.312276192922,2.5386438643864,1220490.0513727,-28676.965852156,3722952.6618306,7.7386438643864,0,0
-159.30228830557,54.363722369527,2.5430743074307,1220490.0513727,-28676.965852156,3722952.6618306,7.7430743074307,0,0
-159.30228816886,54.415168546131,2.547504750475,1220490.0513727,-28676.965852156,3722952.6618306,7.747504750475,0,0
-159.30228803215,54.466614722735,2.5519351935194,1220490.0513727,-28676.965852156,3722952.6618306,7.7519351935194,0,0
-159.30228789544,54.518060899339,2.5563656365637,1220490.0513727,-28676.965852156,3722952.6618306,7.7563656365637,0,0
-159.30228775873,54.569507075943,2.560796079608,1220490.0513727,-28676.965852156,3722952.6618306,7.760796079608,0,0
-159.30228762202,54.620953252548,2.5652265226523,1220490.0513727,-28676.965852156,3722952.6618306,7.7652265226523,0,0
-159.30228748531,54.672399429152,2.5696569656966,1220490.0513727,-28676.965852156,3722952.6618306,7.7696569656966,0,0
-159.3022873486,54.723845605756,2.5740874087409,1220490.0513727,-28676.965852156,3722952.6618306,7.7740874087409,0,0
-159.30228721189,54.77529178236,2.5785178517852,1220490.0513727,-28676.965852156,3722952.6618306,7.7785178517852,0,0
-159.30228707518,54.826737958964,2.5829482948295,1220490.0513727,-28676.965852156,3722952.6618306,7.7829482948295,0,0
-159.30228693847,54.878184135569,2.5873787378738,1220490.0513727,-28676.965852156,3722952.6618306,7.7873787378738,0,0
-159.30228680176,54.929630312173,2.5918091809181,1220490.0513727,-28676.965852156,3722952.6618306,7.7918091809181,0,0
-159.30228666505,54.981076488777,2.5962396239624,1220490.0513727,-28676.965852156,3722952.6618306,7.7962396239624,0,0
-159.30228652834,55.032522665381,2.6006700670067,1220490.0513727,-28676.965852156,3722952.6618306,7.8006700670067,0,0
-159.30228639163,55.083968841986,2.605100510051,1220490.0513727,-28676.965852156,3722952.6618306,7.805100510051,0,0
-159.30228625492,55.13541501859,2.6095309530953,1220490.0513727,-28676.965852156,3722952.6618306,7.8095309530953,0,0
-159.30228611821,55.186861195194,2.6139613961396,1220490.0513727,-28676.965852156,3722952.6618306,7.8139613961396,0,0
-159.3022859815,55.238307371798,2.6183918391839,1220490.0513727,-28676.965852156,3722952.6618306,7.8183918391839,0,0
-159.30228584479,55.289753548402,2.6228222822282,1220490.0513727,-28676.965852156,3722952.6618306,7.8228222822282,0,0
-159.30228570649,55.3411997317,2.6272527252725,1230990.8982605,22871.826927281,3641448.5204428,7.8272527252725,0,0
-159.30228556391,55.392645933162,2.6316831683168,1230990.8982605,22871.826927281,3641448.5204428,7.8316831683168,0,0
-159.30228542132,55.444092134623,2.6361136113611,1230990.8982605,22871.826927281,3641448.5204428,7.8361136113611,0,0
-159.30228527873,55.495538336084,2.6405440544054,1230990.8982605,22871.826927281,3641448.5204428,7.8405440544054,0,0
-159.30228513614,55.546984537545,2.6449744974497,1230990.8982605,22871.826927281,3641448.5204428,7.8449744974497,0,0
-159.30228499355,55.598430739007,2.649404940494,1230990.8982605,22871.826927281,3641448.5204428,7.849404940494,0,0
-159.30228485096,55.649876940468,2.6538353835384,1230990.8982605,22871.826927281,3641448.5204428,7.8538353835384,0,0
-159.30228470837,55.701323141929,2.6582658265827,1230990.8982605,22871.826927281,3641448.5204428,7.8582658265827,0,0
-159.30228456578,55.75276934339,2.662696269627,1230990.8982605,22871.826927281,3641448.5204428,7.862696269627,0,0
-159.30228442319,55.804215544852,2.6671267126713,1230990.8982605,22871.826927281,3641448.5204428,7.8671267126713,0,0
-159.3022842806,55.855661746313,2.6715571557156,1230990.8982605,22871.826927281,3641448.5204428,7.8715571557156,0,0
-159.30228413801,55.907107947774,2.6759875987599,1230990.8982605,22871.826927281,3641448.5204428,7.8759875987599,0,0
-159.30228399542,55.958554149236,2.6804180418042,1230990.8982605,22871.826927281,3641448.5204428,7.8804180418042,0,0
-159.30228385283,56.010000350697,2.6848484848485,1230990.8982605,22871.826927281,3641448.5204428,7.8848484848485,0,0
-159.30228371024,56.061446552158,2.6892789278928,1230990.8982605,22871.826927281,3641448.5204428,7.8892789278928,0,0
-159.30228356765,56.112892753619,2.6937093709371,1230990.8982605,22871.826927281,3641448.5204428,7.8937093709371,0,0
-159.30228342506,56.164338955081,2.6981398139814,1230990.8982605,22871.826927281,3641448.5204428,7.8981398139814,0,0
-159.30228328247,56.215785156542,2.7025702570257,1230990.8982605,22871.826927281,3641448.5204428,7.9025702570257,0,0
-159.30228313988,56.267231358003,2.70700070007,1230990.8982605,22871.826927281,3641448.5204428,7.90700070007,0,0
-159.30228299729,56.318677559464,2.7114311431143,1230990.8982605,22871.826927281,3641448.5204428,7.9114311431143,0,0
-159.3022828547,56.370123760926,2.7158615861586,1230990.8982605,22871.826927281,3641448.5204428,7.9158615861586,0,0
-159.30228271211,56.421569962387,2.7202920292029,1230990.8982605,22871.826927281,3641448.5204428,7.9202920292029,0,0
-159.30228256952,56.473016163848,2.7247224722472,1230990.8982605,22871.826927281,3641448.5204428,7.9247224722472,0,0
-159.30228242694,56.524462365309,2.7291529152915,1230990.8982605,22871.826927281,3641448.5204428,7.9291529152915,0,0
-159.30228228435,56.575908566771,2.7335833583358,1230990.8982605,22871.826927281,3641448.5204428,7.9335833583358,0,0
-159.30228214176,56.627354768232,2.7380138013801,1230990.8982605,22871.826927281,3641448.5204428,7.9380138013801,0,0
-159.30228199917,56.678800969693,2.7424442444244,1230990.8982605,22871.826927281,3641448.5204428,7.9424442444244,0,0
-159.30228185658,56.730247171155,2.7468746874687,1230990.8982605,22871.826927281,3641448.5204428,7.9468746874687,0,0
-159.30228171399,56.781693372616,2.7513051305131,1230990.8982605,22871.826927281,3641448.5204428,7.9513051305131,0,0
-159.3022815714,56.833139574077,2.7557355735574,1230990.8982605,22871.826927281,3641448.5204428,7.9557355735574,0,0
-159.30228142881,56.884585775538,2.7601660166017,1230990.8982605,22871.826927281,3641448.5204428,7.9601660166017,0,0
-159.30228128622,56.936031977,2.764596459646,1230990.8982605,22871.826927281,3641448.5204428,7.964596459646,0,0
-159.30228114363,56.987478178461,2.7690269026903,1230990.8982605,22871.826927281,3641448.5204428,7.9690269026903,0,0
-159.30228100104,57.038924379922,2.7734573457346,1230990.8982605,22871.826927281,3641448.5204428,7.9734573457346,0,0
-159.30228085845,57.090370581383,2.7778877887789,1230990.8982605,22871.826927281,3641448.5204428,7.9778877887789,0,0
-159.30228071586,57.141816782845,2.7823182318232,1230990.8982605,22871.826927281,3641448.5204428,7.9823182318232,0,0
-159.30228057327,57.193262984306,2.7867486748675,1230990.8982605,22871.826927281,3641448.5204428,7.9867486748675,0,0
-159.30228043068,57.244709185767,2.7911791179118,1230990.8982605,22871.826927281,3641448.5204428,7.9911791179118,0,0
-159.30228028809,57.296155387228,2.7956095609561,1230990.8982605,22871.826927281,3641448.5204428,7.9956095609561,0,0
-159.3022801455,57.34760158869,2.8000400040004,1230990.8982605,22871.826927281,3641448.5204428,8.0000400040004,0,0
-159.30228000291,57.399047790151,2.8044704470447,1230990.8982605,22871.826927281,3641448.5204428,8.0044704470447,0,0
-159.30227986032,57.450493991612,2.808900890089,1230990.8982605,22871.826927281,3641448.5204428,8.008900890089,0,0
-159.30227971773,57.501940193074,2.8133313331333,1230990.8982605,22871.826927281,3641448.5204428,8.0133313331333,0,0
-159.30227957514,57.553386394535,2.8177617761776,1230990.8982605,22871.826927281,3641448.5204428,8.0177617761776,0,0
-159.30227943255,57.604832595996,2.8221922192219,1230990.8982605,22871.826927281,3641448.5204428,8.0221922192219,0,0
-159.30227928997,57.656278797457,2.8266226622662,1230990.8982605,22871.826927281,3641448.5204428,8.0266226622662,0,0
-159.30227914738,57.707724998919,2.8310531053105,1230990.8982605,22871.826927281,3641448.5204428,8.0310531053105,0,0
-159.30227900479,57.75917120038,2.8354835483548,1230990.8982605,22871.826927281,3641448.5204428,8.0354835483548,0,0
-159.3022788622,57.810617401841,2.8399139913991,1230990.8982605,22871.826927281,3641448.5204428,8.0399139913991,0,0
-159.30227871961,57.862063603302,2.8443444344434,1230990.8982605,22871.826927281,3641448.5204428,8.0443444344434,0,0
-159.30227857702,57.913509804764,2.8487748774877,1230990.8982605,22871.826927281,3641448.5204428,8.0487748774877,0,0
-159.30227843443,57.964956006225,2.8532053205321,1230990.8982605,22871.826927281,3641448.5204428,8.0532053205321,0,0
-159.30227829184,58.016402207686,2.8576357635764,1230990.8982605,22871.826927281,3641448.5204428,8.0576357635764,0,0
-159.30227814925,58.067848409148,2.8620662066207,1230990.8982605,22871.826927281,3641448.5204428,8.0620662066207,0,0
-159.30227800666,58.119294610609,2.866496649665,1230990.8982605,22871.826927281,3641448.5204428,8.066496649665,0,0
-159.30227786407,58.17074081207,2.8709270927093,1230990.8982605,22871.826927281,3641448.5204428,8.0709270927093,0,0
-159.30227771793,58.222187001575,2.8753575357536,1257000.9095167,-23661.743407293,3593439.234292,8.0753575357536,0,0
-159.30227756873,58.273633180811,2.8797879787979,1257000.9095167,-23661.743407293,3593439.234292,8.0797879787979,0,0
-159.30227741954,58.325079360046,2.8842184218422,1257000.9095167,-23661.743407293,3593439.234292,8.0842184218422,0,0
-159.30227727034,58.376525539282,2.8886488648865,1257000.9095167,-23661.743407293,3593439.234292,8.0886488648865,0,0
-159.30227712115,58.427971718517,2.8930793079308,1257000.9095167,-23661.743407293,3593439.234292,8.0930793079308,0,0
-159.30227697195,58.479417897753,2.8975097509751,1257000.9095167,-23661.743407293,3593439.234292,8.0975097509751,0,0
-159.30227682276,58.530864076988,2.9019401940194,1257000.9095167,-23661.743407293,3593439.234292,8.1019401940194,0,0
-159.30227667356,58.582310256224,2.9063706370637,1257000.9095167,-23661.743407293,3593439.234292,8.1063706370637,0,0
-159.30227652437,58.633756435459,2.910801080108,1257000.9095167,-23661.743407293,3593439.234292,8.110801080108,0,0
-159.30227637517,58.685202614695,2.9152315231523,1257000.9095167,-23661.743407293,3593439.234292,8.1152315231523,0,0
-159.30227622598,58.73664879393,2.9196619661966,1257000.9095167,-23661.743407293,3593439.234292,8.1196619661966,0,0
-159.30227607678,58.788094973166,2.9240924092409,1257000.9095167,-23661.743407293,3593439.234292,8.1240924092409,0,0
-159.30227592759,58.839541152401,2.9285228522852,1257000.9095167,-23661.743407293,3593439.234292,8.1285228522852,0,0
-159.30227577839,58.890987331637,2.9329532953295,1257000.9095167,-23661.743407293,3593439.234292,8.1329532953295,0,0
-159.3022756292,58.942433510872,2.9373837383738,1257000.9095167,-23661.743407293,3593439.234292,8.1373837383738,0,0
-159.30227548,58.993879690108,2.9418141814181,1257000.9095167,-23661.743407293,3593439.234292,8.1418141814181,0,0
-159.30227533081,59.045325869343,2.9462446244624,1257000.9095167,-23661.743407293,3593439.234292,8.1462446244624,0,0
-159.30227518161,59.096772048579,2.9506750675067,1257000.9095167,-23661.743407293,3593439.234292,8.1506750675068,0,0
-159.30227503242,59.148218227814,2.9551055105511,1257000.9095167,-23661.743407293,3593439.234292,8.1551055105511,0,0
-159.30227488322,59.19966440705,2.9595359535954,1257000.9095167,-23661.743407293,3593439.234292,8.1595359535954,0,0
-159.30227473403,59.251110586285,2.9639663966397,1257000.9095167,-23661.743407293,3593439.234292,8.1639663966397,0,0
-159.30227458483,59.302556765521,2.968396839684,1257000.9095167,-23661.743407293,3593439.234292,8.168396839684,0,0
-159.30227443564,59.354002944756,2.9728272827283,1257000.9095167,-23661.743407293,3593439.234292,8.1728272827283,0,0
-159.30227428644,59.405449123992,2.9772577257726,1257000.9095167,-23661.743407293,3593439.234292,8.1772577257726,0,0
-159.30227413725,59.456895303227,2.9816881688169,1257000.9095167,-23661.743407293,3593439.234292,8.1816881688169,0,0
-159.30227398805,59.508341482463,2.9861186118612,1257000.9095167,-23661.743407293,3593439.234292,8.1861186118612,0,0
-159.30227383886,59.559787661699,2.9905490549055,1257000.9095167,-23661.743407293,3593439.234292,8.1905490549055,0,0
-159.30227368966,59.611233840934,2.9949794979498,1257000.9095167,-23661.743407293,3593439.234292,8.1949794979498,0,0
-159.30227354047,59.66268002017,2.9994099409941,1257000.9095167,-23661.743407293,3593439.234292,8.1994099409941,0,0
-159.30227339127,59.714126199405,3.0038403840384,1257000.9095167,-23661.743407293,3593439.234292,8.2038403840384,0,0
-159.30227324208,59.765572378641,3.0082708270827,1257000.9095167,-23661.743407293,3593439.234292,8.2082708270827,0,0
-159.30227309288,59.817018557876,3.012701270127,1257000.9095167,-23661.743407293,3593439.234292,8.212701270127,0,0
-159.30227294369,59.868464737112,3.0171317131713,1257000.9095167,-23661.743407293,3593439.234292,8.2171317131713,0,0
-159.30227279449,59.919910916347,3.0215621562156,1257000.9095167,-23661.743407293,3593439.234292,8.2215621562156,0,0
-159.3022726453,59.971357095583,3.0259925992599,1257000.9095167,-23661.743407293,3593439.234292,8.2259925992599,0,0
-159.3022724961,60.022803274818,3.0304230423042,1257000.9095167,-23661.743407293,3593439.234292,8.2304230423042,0,0
-159.30227234691,60.074249454054,3.0348534853485,1257000.9095167,-23661.743407293,3593439.234292,8.2348534853485,0,0
-159.30227219771,60.125695633289,3.0392839283928,1257000.9095167,-23661.743407293,3593439.234292,8.2392839283928,0,0
-159.30227204852,60.177141812525,3.0437143714371,1257000.9095167,-23661.743407293,3593439.234292,8.2437143714371,0,0
-159.30227189932,60.22858799176,3.0481448144814,1257000.9095167,-23661.743407293,3593439.234292,8.2481448144814,0,0
-159.30227175013,60.280034170996,3.0525752575258,1257000.9095167,-23661.743407293,3593439.234292,8.2525752575258,0,0
-159.30227160093,60.331480350231,3.0570057005701,1257000.9095167,-23661.743407293,3593439.234292,8.2570057005701,0,0
-159.30227145174,60.382926529467,3.0614361436144,1257000.9095167,-23661.743407293,3593439.234292,8.2614361436144,0,0
-159.30227130254,60.434372708702,3.0658665866587,1257000.9095167,-23661.743407293,3593439.234292,8.2658665866587,0,0
-159.30227115335,60.485818887938,3.070297029703,1257000.9095167,-23661.743407293,3593439.234292,8.270297029703,0,0
-159.30227100415,60.537265067173,3.0747274727473,1257000.9095167,-23661.743407293,3593439.234292,8.2747274727473,0,0
-159.30227085496,60.588711246409,3.0791579157916,1257000.9095167,-23661.743407293,3593439.234292,8.2791579157916,0,0
-159.30227070576,60.640157425644,3.0835883588359,1257000.9095167,-23661.743407293,3593439.234292,8.2835883588359,0,0
-159.3022705539,60.691603613171,3.0880188018802,1264520.765768,11916.821869945,3490071.3095069,8.2880188018802,0,0
-159.30227039817,60.743049812754,3.0924492449245,1264520.765768,11916.821869945,3490071.3095069,8.2924492449245,0,0
-159.30227024244,60.794496012337,3.0968796879688,1264520.765768,11916.821869945,3490071.3095069,8.2968796879688,0,0
-159.30227008671,60.84594221192,3.1013101310131,1264520.765768,11916.821869945,3490071.3095069,8.3013101310131,0,0
-159.30226993097,60.897388411503,3.1057405740574,1264520.765768,11916.821869945,3490071.3095069,8.3057405740574,0,0
-159.30226977524,60.948834611087,3.1101710171017,1264520.765768,11916.821869945,3490071.3095069,8.3101710171017,0,0
-159.30226961951,61.00028081067,3.114601460146,1264520.765768,11916.821869945,3490071.3095069,8.314601460146,0,0
-159.30226946378,61.051727010253,3.1190319031903,1264520.765768,11916.821869945,3490071.3095069,8.3190319031903,0,0
-159.30226930804,61.103173209836,3.1234623462346,1264520.765768,11916.821869945,3490071.3095069,8.3234623462346,0,0
-159.30226915231,61.154619409419,3.1278927892789,1264520.765768,11916.821869945,3490071.3095069,8.3278927892789,0,0
-159.30226899658,61.206065609002,3.1323232323232,1264520.765768,11916.821869945,3490071.3095069,8.3323232323232,0,0
-159.30226884085,61.257511808585,3.1367536753675,1264520.765768,11916.821869945,3490071.3095069,8.3367536753675,0,0
-159.30226868511,61.308958008168,3.1411841184118,1264520.765768,11916.821869945,3490071.3095069,8.3411841184118,0,0
-159.30226852938,61.360404207751,3.1456145614561,1264520.765768,11916.821869945,3490071.3095069,8.3456145614561,0,0
-159.30226837365,61.411850407334,3.1500450045004,1264520.765768,11916.821869945,3490071.3095069,8.3500450045004,0,0
-159.30226821792,61.463296606918,3.1544754475448,1264520.765768,11916.821869945,3490071.3095069,8.3544754475448,0,0
-159.30226806218,61.514742806501,3.1589058905891,1264520.765768,11916.821869945,3490071.3095069,8.3589058905891,0,0
-159.30226790645,61.566189006084,3.1633363336334,1264520.765768,11916.821869945,3490071.3095069,8.3633363336334,0,0
-159.30226775072,61.617635205667,3.1677667766777,1264520.765768,11916.821869945,3490071.3095069,8.3677667766777,0,0
-159.30226759499,61.66908140525,3.172197219722,1264520.765768,11916.821869945,3490071.3095069,8.372197219722,0,0
-159.30226743925,61.720527604833,3.1766276627663,1264520.765768,11916.821869945,3490071.3095069,8.3766276627663,0,0
-159.30226728352,61.771973804416,3.1810581058106,1264520.765768,11916.821869945,3490071.3095069,8.3810581058106,0,0
-159.30226712779,61.823420003999,3.1854885488549,1264520.765768,11916.821869945,3490071.3095069,8.3854885488549,0,0
-159.30226697206,61.874866203582,3.1899189918992,1264520.765768,11916.821869945,3490071.3095069,8.3899189918992,0,0
-159.30226681632,61.926312403165,3.1943494349435,1264520.765768,11916.821869945,3490071.3095069,8.3943494349435,0,0
-159.30226666059,61.977758602748,3.1987798779878,1264520.765768,11916.821869945,3490071.3095069,8.3987798779878,0,0
-159.30226650486,62.029204802332,3.2032103210321,1264520.765768,11916.821869945,3490071.3095069,8.4032103210321,0,0
-159.30226634913,62.080651001915,3.2076407640764,1264520.765768,11916.821869945,3490071.3095069,8.4076407640764,0,0
-159.30226619339,62.132097201498,3.2120712071207,1264520.765768,11916.821869945,3490071.3095069,8.4120712071207,0,0
-159.30226603766,62.183543401081,3.216501650165,1264520.765768,11916.821869945,3490071.3095069,8.416501650165,0,0
-159.30226588193,62.234989600664,3.2209320932093,1264520.765768,11916.821869945,3490071.3095069,8.4209320932093,0,0
-159.3022657262,62.286435800247,3.2253625362536,1264520.765768,11916.821869945,3490071.3095069,8.4253625362536,0,0
-159.30226557046,62.33788199983,3.2297929792979,1264520.765768,11916.821869945,3490071.3095069,8.4297929792979,0,0
-159.30226541473,62.389328199413,3.2342234223422,1264520.765768,11916.821869945,3490071.3095069,8.4342234223422,0,0
-159.302265259,62.440774398996,3.2386538653865,1264520.765768,11916.821869945,3490071.3095069,8.4386538653865,0,0
-159.30226510327,62.492220598579,3.2430843084308,1264520.765768,11916.821869945,3490071.3095069,8.4430843084308,0,0
-159.30226494754,62.543666798163,3.2475147514751,1264520.765768,11916.821869945,3490071.3095069,8.4475147514751,0,0
-159.3022647918,62.595112997746,3.2519451945195,1264520.765768,11916.821869945,3490071.3095069,8.4519451945195,0,0
-159.30226463607,62.646559197329,3.2563756375638,1264520.765768,11916.821869945,3490071.3095069,8.4563756375638,0,0
-159.30226448034,62.698005396912,3.2608060806081,1264520.765768,11916.821869945,3490071.3095069,8.4608060806081,0,0
-159.30226432461,62.749451596495,3.2652365236524,1264520.765768,11916.821869945,3490071.3095069,8.4652365236524,0,0
-159.30226416887,62.800897796078,3.2696669666967,1264520.765768,11916.821869945,3490071.3095069,8.4696669666967,0,0
-159.30226401314,62.852343995661,3.274097409741,1264520.765768,11916.821869945,3490071.3095069,8.474097409741,0,0
-159.30226385741,62.903790195244,3.2785278527853,1264520.765768,11916.821869945,3490071.3095069,8.4785278527853,0,0
-159.30226370003,62.955236393109,3.2829582958296,1285187.9877828,4995.5154558971,3495298.9998138,8.4829582958296,0,0
-159.30226354129,63.006682589553,3.2873887388739,1285187.9877828,4995.5154558971,3495298.9998138,8.4873887388739,0,0
-159.30226338255,63.058128785996,3.2918191819182,1285187.9877828,4995.5154558971,3495298.9998138,8.4918191819182,0,0
-159.30226322382,63.109574982439,3.2962496249625,1285187.9877828,4995.5154558971,3495298.9998138,8.4962496249625,0,0
-159.30226306508,63.161021178882,3.3006800680068,1285187.9877828,4995.5154558971,3495298.9998138,8.5006800680068,0,0
-159.30226290634,63.212467375326,3.3051105110511,1285187.9877828,4995.5154558971,3495298.9998138,8.5051105110511,0,0
-159.3022627476,63.263913571769,3.3095409540954,1285187.9877828,4995.5154558971,3495298.9998138,8.5095409540954,0,0
-159.30226258887,63.315359768212,3.3139713971397,1285187.9877828,4995.5154558971,3495298.9998138,8.5139713971397,0,0
-159.30226243013,63.366805964655,3.318401840184,1285187.9877828,4995.5154558971,3495298.9998138,8.518401840184,0,0
-159.30226227139,63.418252161098,3.3228322832283,1285187.9877828,4995.5154558971,3495298.9998138,8.5228322832283,0,0
-159.30226211265,63.469698357542,3.3272627262726,1285187.9877828,4995.5154558971,3495298.9998138,8.5272627262726,0,0
-159.30226195391,63.521144553985,3.3316931693169,1285187.9877828,4995.5154558971,3495298.9998138,8.5316931693169,0,0
-159.30226179518,63.572590750428,3.3361236123612,1285187.9877828,4995.5154558971,3495298.9998138,8.5361236123612,0,0
-159.30226163644,63.624036946871,3.3405540554055,1285187.9877828,4995.5154558971,3495298.9998138,8.5405540554055,0,0
-159.3022614777,63.675483143315,3.3449844984498,1285187.9877828,4995.5154558971,3495298.9998138,8.5449844984498,0,0
-159.30226131896,63.726929339758,3.3494149414941,1285187.9877828,4995.5154558971,3495298.9998138,8.5494149414941,0,0
-159.30226116022,63.778375536201,3.3538453845385,1285187.9877828,4995.5154558971,3495298.9998138,8.5538453845385,0,0
-159.30226100149,63.829821732644,3.3582758275828,1285187.9877828,4995.5154558971,3495298.9998138,8.5582758275828,0,0
-159.30226084275,63.881267929088,3.3627062706271,1285187.9877828,4995.5154558971,3495298.9998138,8.5627062706271,0,0
-159.30226068401,63.932714125531,3.3671367136714,1285187.9877828,4995.5154558971,3495298.9998138,8.5671367136714,0,0
-159.30226052527,63.984160321974,3.3715671567157,1285187.9877828,4995.5154558971,3495298.9998138,8.5715671567157,0,0
-159.30226036653,64.035606518417,3.37599759976,1285187.9877828,4995.5154558971,3495298.9998138,8.57599759976,0,0
-159.3022602078,64.087052714861,3.3804280428043,1285187.9877828,4995.5154558971,3495298.9998138,8.5804280428043,0,0
-159.30226004906,64.138498911304,3.3848584858486,1285187.9877828,4995.5154558971,3495298.9998138,8.5848584858486,0,0
-159.30225989032,64.189945107747,3.3892889288929,1285187.9877828,4995.5154558971,3495298.9998138,8.5892889288929,0,0
-159.30225973158,64.24139130419,3.3937193719372,1285187.9877828,4995.5154558971,3495298.9998138,8.5937193719372,0,0
-159.30225957284,64.292837500634,3.3981498149815,1285187.9877828,4995.5154558971,3495298.9998138,8.5981498149815,0,0
-159.30225941411,64.344283697077,3.4025802580258,1285187.9877828,4995.5154558971,3495298.9998138,8.6025802580258,0,0
-159.30225925537,64.39572989352,3.4070107010701,1285187.9877828,4995.5154558971,3495298.9998138,8.6070107010701,0,0
-159.30225909663,64.447176089963,3.4114411441144,1285187.9877828,4995.5154558971,3495298.9998138,8.6114411441144,0,0
-159.30225893789,64.498622286406,3.4158715871587,1285187.9877828,4995.5154558971,3495298.9998138,8.6158715871587,0,0
-159.30225877915,64.55006848285,3.420302030203,1285187.9877828,4995.5154558971,3495298.9998138,8.620302030203,0,0
-159.30225862042,64.601514679293,3.4247324732473,1285187.9877828,4995.5154558971,3495298.9998138,8.6247324732473,0,0
-159.30225846168,64.652960875736,3.4291629162916,1285187.9877828,4995.5154558971,3495298.9998138,8.6291629162916,0,0
-159.30225830294,64.704407072179,3.4335933593359,1285187.9877828,4995.5154558971,3495298.9998138,8.6335933593359,0,0
-159.3022581442,64.755853268623,3.4380238023802,1285187.9877828,4995.5154558971,3495298.9998138,8.6380238023802,0,0
-159.30225798546,64.807299465066,3.4424542454245,1285187.9877828,4995.5154558971,3495298.9998138,8.6424542454245,0,0
-159.30225782673,64.858745661509,3.4468846884688,1285187.9877828,4995.5154558971,3495298.9998138,8.6468846884688,0,0
-159.30225766799,64.910191857952,3.4513151315132,1285187.9877828,4995.5154558971,3495298.9998138,8.6513151315132,0,0
-159.30225750925,64.961638054396,3.4557455745575,1285187.9877828,4995.5154558971,3495298.9998138,8.6557455745575,0,0
-159.30225735051,65.013084250839,3.4601760176018,1285187.9877828,4995.5154558971,3495298.9998138,8.6601760176018,0,0
-159.30225719177,65.064530447282,3.4646064606461,1285187.9877828,4995.5154558971,3495298.9998138,8.6646064606461,0,0
-159.30225703304,65.115976643725,3.4690369036904,1285187.9877828,4995.5154558971,3495298.9998138,8.6690369036904,0,0
-159.3022568743,65.167422840169,3.4734673467347,1285187.9877828,4995.5154558971,3495298.9998138,8.6734673467347,0,0
-159.30225671556,65.218869036612,3.477897789779,1285187.9877828,4995.5154558971,3495298.9998138,8.677897789779,0,0
-159.30225655682,65.270315233055,3.4823282328233,1285187.9877828,4995.5154558971,3495298.9998138,8.6823282328233,0,0
-159.30225639808,65.321761429498,3.4867586758676,1285187.9877828,4995.5154558971,3495298.9998138,8.6867586758676,0,0
-159.30225623935,65.373207625941,3.4911891189119,1285187.9877828,4995.5154558971,3495298.9998138,8.6911891189119,0,0
-159.30225608061,65.424653822385,3.4956195619562,1285187.9877828,4995.5154558971,3495298.9998138,8.6956195619562,0,0
-159.30225592094,65.476100015685,3.5000500050005,1279165.6123743,-18229.686995364,3394191.3996693,8.7000500050005,0,0
-159.30225575793,65.527546197706,3.5044804480448,1279165.6123743,-18229.686995364,3394191.3996693,8.7044804480448,0,0
-159.30225559492,65.578992379728,3.5089108910891,1279165.6123743,-18229.686995364,3394191.3996693,8.7089108910891,0,0
-159.3022554319,65.630438561749,3.5133413341334,1279165.6123743,-18229.686995364,3394191.3996693,8.7133413341334,0,0
-159.30225526889,65.68188474377,3.5177717771777,1279165.6123743,-18229.686995364,3394191.3996693,8.7177717771777,0,0
-159.30225510588,65.733330925792,3.522202220222,1279165.6123743,-18229.686995364,3394191.3996693,8.722202220222,0,0
-159.30225494287,65.784777107813,3.5266326632663,1279165.6123743,-18229.686995364,3394191.3996693,8.7266326632663,0,0
-159.30225477985,65.836223289834,3.5310631063106,1279165.6123743,-18229.686995364,3394191.3996693,8.7310631063106,0,0
-159.30225461684,65.887669471856,3.5354935493549,1279165.6123743,-18229.686995364,3394191.3996693,8.7354935493549,0,0
-159.30225445383,65.939115653877,3.5399239923992,1279165.6123743,-18229.686995364,3394191.3996693,8.7399239923992,0,0
-159.30225429082,65.990561835898,3.5443544354435,1279165.6123743,-18229.686995364,3394191.3996693,8.7443544354435,0,0
-159.30225412781,66.04200801792,3.5487848784878,1279165.6123743,-18229.686995364,3394191.3996693,8.7487848784878,0,0
-159.30225396479,66.093454199941,3.5532153215322,1279165.6123743,-18229.686995364,3394191.3996693,8.7532153215322,0,0
-159.30225380178,66.144900381962,3.5576457645765,1279165.6123743,-18229.686995364,3394191.3996693,8.7576457645765,0,0
-159.30225363877,66.196346563984,3.5620762076208,1279165.6123743,-18229.686995364,3394191.3996693,8.7620762076208,0,0
-159.30225347576,66.247792746005,3.5665066506651,1279165.6123743,-18229.686995364,3394191.3996693,8.7665066506651,0,0
-159.30225331275,66.299238928026,3.5709370937094,1279165.6123743,-18229.686995364,3394191.3996693,8.7709370937094,0,0
-159.30225314973,66.350685110048,3.5753675367537,1279165.6123743,-18229.686995364,3394191.3996693,8.7753675367537,0,0
-159.30225298672,66.402131292069,3.579797979798,1279165.6123743,-18229.686995364,3394191.3996693,8.779797979798,0,0
-159.30225282371,66.45357747409,3.5842284228423,1279165.6123743,-18229.686995364,3394191.3996693,8.7842284228423,0,0
-159.3022526607,66.505023656112,3.5886588658866,1279165.6123743,-18229.686995364,3394191.3996693,8.7886588658866,0,0
-159.30225249769,66.556469838133,3.5930893089309,1279165.6123743,-18229.686995364,3394191.3996693,8.7930893089309,0,0
-159.30225233467,66.607916020154,3.5975197519752,1279165.6123743,-18229.686995364,3394191.3996693,8.7975197519752,0,0
-159.30225217166,66.659362202176,3.6019501950195,1279165.6123743,-18229.686995364,3394191.3996693,8.8019501950195,0,0
-159.30225200865,66.710808384197,3.6063806380638,1279165.6123743,-18229.686995364,3394191.3996693,8.8063806380638,0,0
-159.30225184564,66.762254566218,3.6108110811081,1279165.6123743,-18229.686995364,3394191.3996693,8.8108110811081,0,0
-159.30225168263,66.81370074824,3.6152415241524,1279165.6123743,-18229.686995364,3394191.3996693,8.8152415241524,0,0
-159.30225151961,66.865146930261,3.6196719671967,1279165.6123743,-18229.686995364,3394191.3996693,8.8196719671967,0,0
-159.3022513566,66.916593112282,3.624102410241,1279165.6123743,-18229.686995364,3394191.3996693,8.824102410241,0,0
-159.30225119359,66.968039294304,3.6285328532853,1279165.6123743,-18229.686995364,3394191.3996693,8.8285328532853,0,0
-159.30225103058,67.019485476325,3.6329632963296,1279165.6123743,-18229.686995364,3394191.3996693,8.8329632963296,0,0
-159.30225086757,67.070931658346,3.6373937393739,1279165.6123743,-18229.686995364,3394191.3996693,8.8373937393739,0,0
-159.30225070455,67.122377840368,3.6418241824182,1279165.6123743,-18229.686995364,3394191.3996693,8.8418241824182,0,0
-159.30225054154,67.173824022389,3.6462546254625,1279165.6123743,-18229.686995364,3394191.3996693,8.8462546254625,0,0
-159.30225037853,67.225270204411,3.6506850685069,1279165.6123743,-18229.686995364,3394191.3996693,8.8506850685069,0,0
-159.30225021552,67.276716386432,3.6551155115512,1279165.6123743,-18229.686995364,3394191.3996693,8.8551155115512,0,0
-159.30225005251,67.328162568453,3.6595459545955,1279165.6123743,-18229.686995364,3394191.3996693,8.8595459545955,0,0
-159.30224988949,67.379608750475,3.6639763976398,1279165.6123743,-18229.686995364,3394191.3996693,8.8639763976398,0,0
-159.30224972648,67.431054932496,3.6684068406841,1279165.6123743,-18229.686995364,3394191.3996693,8.8684068406841,0,0
-159.30224956347,67.482501114517,3.6728372837284,1279165.6123743,-18229.686995364,3394191.3996693,8.8728372837284,0,0
-159.30224940046,67.533947296539,3.6772677267727,1279165.6123743,-18229.686995364,3394191.3996693,8.8772677267727,0,0
-159.30224923745,67.58539347856,3.681698169817,1279165.6123743,-18229.686995364,3394191.3996693,8.881698169817,0,0
-159.30224907443,67.636839660581,3.6861286128613,1279165.6123743,-18229.686995364,3394191.3996693,8.8861286128613,0,0
-159.30224891142,67.688285842603,3.6905590559056,1279165.6123743,-18229.686995364,3394191.3996693,8.8905590559056,0,0
-159.30224874517,67.739732035067,3.6949894989499,1303212.8142241,14278.685143621,3379224.4416788,8.8949894989499,0,0
-159.30224857757,67.791178231878,3.6994199419942,1303212.8142241,14278.685143621,3379224.4416788,8.8994199419942,0,0
-159.30224840998,67.842624428688,3.7038503850385,1303212.8142241,14278.685143621,3379224.4416788,8.9038503850385,0,0
-159.30224824238,67.894070625498,3.7082808280828,1303212.8142241,14278.685143621,3379224.4416788,8.9082808280828,0,0
-159.30224807478,67.945516822308,3.7127112711271,1303212.8142241,14278.685143621,3379224.4416788,8.9127112711271,0,0
-159.30224790718,67.996963019119,3.7171417141714,1303212.8142241,14278.685143621,3379224.4416788,8.9171417141714,0,0
-159.30224773959,68.048409215929,3.7215721572157,1303212.8142241,14278.685143621,3379224.4416788,8.9215721572157,0,0
-159.30224757199,68.099855412739,3.72600260026,1303212.8142241,14278.685143621,3379224.4416788,8.92600260026,0,0
-159.30224740439,68.151301609549,3.7304330433043,1303212.8142241,14278.685143621,3379224.4416788,8.9304330433043,0,0
-159.30224723679,68.202747806359,3.7348634863486,1303212.8142241,14278.685143621,3379224.4416788,8.9348634863486,0,0
-159.30224706919,68.25419400317,3.7392939293929,1303212.8142241,14278.685143621,3379224.4416788,8.9392939293929,0,0
-159.3022469016,68.30564019998,3.7437243724372,1303212.8142241,14278.685143621,3379224.4416788,8.9437243724372,0,0
-159.302246734,68.35708639679,3.7481548154815,1303212.8142241,14278.685143621,3379224.4416788,8.9481548154815,0,0
-159.3022465664,68.4085325936,3.7525852585259,1303212.8142241,14278.685143621,3379224.4416788,8.9525852585259,0,0
-159.3022463988,68.459978790411,3.7570157015702,1303212.8142241,14278.685143621,3379224.4416788,8.9570157015702,0,0
-159.30224623121,68.511424987221,3.7614461446145,1303212.8142241,14278.685143621,3379224.4416788,8.9614461446145,0,0
-159.30224606361,68.562871184031,3.7658765876588,1303212.8142241,14278.685143621,3379224.4416788,8.9658765876588,0,0
-159.30224589601,68.614317380841,3.7703070307031,1303212.8142241,14278.685143621,3379224.4416788,8.9703070307031,0,0
-159.30224572841,68.665763577652,3.7747374737474,1303212.8142241,14278.685143621,3379224.4416788,8.9747374737474,0,0
-159.30224556082,68.717209774462,3.7791679167917,1303212.8142241,14278.685143621,3379224.4416788,8.9791679167917,0,0
-159.30224539322,68.768655971272,3.783598359836,1303212.8142241,14278.685143621,3379224.4416788,8.983598359836,0,0
-159.30224522562,68.820102168082,3.7880288028803,1303212.8142241,14278.685143621,3379224.4416788,8.9880288028803,0,0
-159.30224505802,68.871548364892,3.7924592459246,1303212.8142241,14278.685143621,3379224.4416788,8.9924592459246,0,0
-159.30224489043,68.922994561703,3.7968896889689,1303212.8142241,14278.685143621,3379224.4416788,8.9968896889689,0,0
-159.30224472283,68.974440758513,3.8013201320132,1303212.8142241,14278.685143621,3379224.4416788,9.0013201320132,0,0
-159.30224455523,69.025886955323,3.8057505750575,1303212.8142241,14278.685143621,3379224.4416788,9.0057505750575,0,0
-159.30224438763,69.077333152133,3.8101810181018,1303212.8142241,14278.685143621,3379224.4416788,9.0101810181018,0,0
-159.30224422004,69.128779348944,3.8146114611461,1303212.8142241,14278.685143621,3379224.4416788,9.0146114611461,0,0
-159.30224405244,69.180225545754,3.8190419041904,1303212.8142241,14278.685143621,3379224.4416788,9.0190419041904,0,0
-159.30224388484,69.231671742564,3.8234723472347,1303212.8142241,14278.685143621,3379224.4416788,9.0234723472347,0,0
-159.30224371724,69.283117939374,3.827902790279,1303212.8142241,14278.685143621,3379224.4416788,9.027902790279,0,0
-159.30224354964,69.334564136184,3.8323332333233,1303212.8142241,14278.685143621,3379224.4416788,9.0323332333233,0,0
-159.30224338205,69.386010332995,3.8367636763676,1303212.8142241,14278.685143621,3379224.4416788,9.0367636763676,0,0
-159.30224321445,69.437456529805,3.8411941194119,1303212.8142241,14278.685143621,3379224.4416788,9.0411941194119,0,0
-159.30224304685,69.488902726615,3.8456245624562,1303212.8142241,14278.685143621,3379224.4416788,9.0456245624562,0,0
-159.30224287925,69.540348923425,3.8500550055005,1303212.8142241,14278.685143621,3379224.4416788,9.0500550055005,0,0
-159.30224271166,69.591795120236,3.8544854485449,1303212.8142241,14278.685143621,3379224.4416788,9.0544854485449,0,0
-159.30224254406,69.643241317046,3.8589158915892,1303212.8142241,14278.685143621,3379224.4416788,9.0589158915892,0,0
-159.30224237646,69.694687513856,3.8633463346335,1303212.8142241,14278.685143621,3379224.4416788,9.0633463346335,0,0
-159.30224220886,69.746133710666,3.8677767776778,1303212.8142241,14278.685143621,3379224.4416788,9.0677767776778,0,0
-159.30224204127,69.797579907477,3.8722072207221,1303212.8142241,14278.685143621,3379224.4416788,9.0722072207221,0,0
-159.30224187367,69.849026104287,3.8766376637664,1303212.8142241,14278.685143621,3379224.4416788,9.0766376637664,0,0
-159.30224170607,69.900472301097,3.8810681068107,1303212.8142241,14278.685143621,3379224.4416788,9.0810681068107,0,0
-159.30224153847,69.951918497907,3.885498549855,1303212.8142241,14278.685143621,3379224.4416788,9.085498549855,0,0
-159.30224137088,70.003364694717,3.8899289928993,1303212.8142241,14278.685143621,3379224.4416788,9.0899289928993,0,0
-159.30224120328,70.054810891528,3.8943594359436,1303212.8142241,14278.685143621,3379224.4416788,9.0943594359436,0,0
-159.30224103568,70.106257088338,3.8987898789879,1303212.8142241,14278.685143621,3379224.4416788,9.0987898789879,0,0
-159.30224086808,70.157703285148,3.9032203220322,1303212.8142241,14278.685143621,3379224.4416788,9.1032203220322,0,0
-159.30224070049,70.209149481958,3.9076507650765,1303212.8142241,14278.685143621,3379224.4416788,9.1076507650765,0,0
-159.30224053289,70.260595678769,3.9120812081208,1303212.8142241,14278.685143621,3379224.4416788,9.1120812081208,0,0
-159.30224036529,70.312041875579,3.9165116511651,1303212.8142241,14278.685143621,3379224.4416788,9.1165116511651,0,0
-159.30224019769,70.363488072389,3.9209420942094,1303212.8142241,14278.685143621,3379224.4416788,9.1209420942094,0,0
-159.30224003009,70.414934269199,3.9253725372537,1303212.8142241,14278.685143621,3379224.4416788,9.1253725372537,0,0
-159.3022398625,70.46638046601,3.929802980298,1303212.8142241,14278.685143621,3379224.4416788,9.129802980298,0,0
-159.3022396949,70.51782666282,3.9342334233423,1303212.8142241,14278.685143621,3379224.4416788,9.1342334233423,0,0
-159.3022395273,70.56927285963,3.9386638663866,1303212.8142241,14278.685143621,3379224.4416788,9.1386638663866,0,0
-159.3022393597,70.62071905644,3.9430943094309,1303212.8142241,14278.685143621,3379224.4416788,9.1430943094309,0,0
-159.30223919211,70.67216525325,3.9475247524752,1303212.8142241,14278.685143621,3379224.4416788,9.1475247524752,0,0
-159.30223902451,70.723611450061,3.9519551955196,1303212.8142241,14278.685143621,3379224.4416788,9.1519551955196,0,0
-159.30223885691,70.775057646871,3.9563856385639,1303212.8142241,14278.685143621,3379224.4416788,9.1563856385639,0,0
-159.30223868931,70.826503843681,3.9608160816082,1303212.8142241,14278.685143621,3379224.4416788,9.1608160816082,0,0
-159.30223852172,70.877950040491,3.9652465246525,1303212.8142241,14278.685143621,3379224.4416788,9.1652465246525,0,0
-159.30223835412,70.929396237302,3.9696769676968,1303212.8142241,14278.685143621,3379224.4416788,9.1696769676968,0,0
-159.30223818652,70.980842434112,3.9741074107411,1303212.8142241,14278.685143621,3379224.4416788,9.1741074107411,0,0
-159.30223801892,71.032288630922,3.9785378537854,1303212.8142241,14278.685143621,3379224.4416788,9.1785378537854,0,0
-159.30223785133,71.083734827732,3.9829682968297,1303212.8142241,14278.685143621,3379224.4416788,9.1829682968297,0,0
-159.30223768373,71.135181024543,3.987398739874,1303212.8142241,14278.685143621,3379224.4416788,9.187398739874,0,0
-159.30223751613,71.186627221353,3.9918291829183,1303212.8142241,14278.685143621,3379224.4416788,9.1918291829183,0,0
-159.30223734853,71.238073418163,3.9962596259626,1303212.8142241,14278.685143621,3379224.4416788,9.1962596259626,0,0
-159.30223718093,71.289519614973,4.0006900690069,1303212.8142241,14278.685143621,3379224.4416788,9.2006900690069,0,0
-159.30223701334,71.340965811783,4.0051205120512,1303212.8142241,14278.685143621,3379224.4416788,9.2051205120512,0,0
-159.30223684443,71.392412002358,4.0095509550955,1298552.7607966,-17407.761708895,3300638.243442,9.2095509550955,0,0
-159.30223667351,71.443858183288,4.0139813981398,1298552.7607966,-17407.761708895,3300638.243442,9.2139813981398,0,0
-159.30223650259,71.495304364218,4.0184118411841,1298552.7607966,-17407.761708895,3300638.243442,9.2184118411841,0,0
-159.30223633166,71.546750545148,4.0228422842284,1298552.7607966,-17407.761708895,3300638.243442,9.2228422842284,0,0
-159.30223616074,71.598196726078,4.0272727272727,1298552.7607966,-17407.761708895,3300638.243442,9.2272727272727,0,0
-159.30223598982,71.649642907009,4.031703170317,1298552.7607966,-17407.761708895,3300638.243442,9.231703170317,0,0
-159.3022358189,71.701089087939,4.0361336133613,1298552.7607966,-17407.761708895,3300638.243442,9.2361336133613,0,0
-159.30223564797,71.752535268869,4.0405640564056,1298552.7607966,-17407.761708895,3300638.243442,9.2405640564056,0,0
-159.30223547705,71.803981449799,4.0449944994499,1298552.7607966,-17407.761708895,3300638.243442,9.2449944994499,0,0
-159.30223530613,71.855427630729,4.0494249424942,1298552.7607966,-17407.761708895,3300638.243442,9.2494249424942,0,0
-159.3022351352,71.906873811659,4.0538553855386,1298552.7607966,-17407.761708895,3300638.243442,9.2538553855386,0,0
-159.30223496428,71.95831999259,4.0582858285829,1298552.7607966,-17407.761708895,3300638.243442,9.2582858285829,0,0
-159.30223479336,72.00976617352,4.0627162716272,1298552.7607966,-17407.761708895,3300638.243442,9.2627162716272,0,0
-159.30223462244,72.06121235445,4.0671467146715,1298552.7607966,-17407.761708895,3300638.243442,9.2671467146715,0,0
-159.30223445151,72.11265853538,4.0715771577158,1298552.7607966,-17407.761708895,3300638.243442,9.2715771577158,0,0
-159.30223428059,72.16410471631,4.0760076007601,1298552.7607966,-17407.761708895,3300638.243442,9.2760076007601,0,0
-159.30223410967,72.21555089724,4.0804380438044,1298552.7607966,-17407.761708895,3300638.243442,9.2804380438044,0,0
-159.30223393874,72.266997078171,4.0848684868487,1298552.7607966,-17407.761708895,3300638.243442,9.2848684868487,0,0
-159.30223376782,72.318443259101,4.089298929893,1298552.7607966,-17407.761708895,3300638.243442,9.289298929893,0,0
-159.3022335969,72.369889440031,4.0937293729373,1298552.7607966,-17407.761708895,3300638.243442,9.2937293729373,0,0
-159.30223342597,72.421335620961,4.0981598159816,1298552.7607966,-17407.761708895,3300638.243442,9.2981598159816,0,0
-159.30223325505,72.472781801891,4.1025902590259,1298552.7607966,-17407.761708895,3300638.243442,9.3025902590259,0,0
-159.30223308413,72.524227982821,4.1070207020702,1298552.7607966,-17407.761708895,3300638.243442,9.3070207020702,0,0
-159.30223291321,72.575674163752,4.1114511451145,1298552.7607966,-17407.761708895,3300638.243442,9.3114511451145,0,0
-159.30223274228,72.627120344682,4.1158815881588,1298552.7607966,-17407.761708895,3300638.243442,9.3158815881588,0,0
-159.30223257136,72.678566525612,4.1203120312031,1298552.7607966,-17407.761708895,3300638.243442,9.3203120312031,0,0
-159.30223240044,72.730012706542,4.1247424742474,1298552.7607966,-17407.761708895,3300638.243442,9.3247424742474,0,0
-159.30223222951,72.781458887472,4.1291729172917,1298552.7607966,-17407.761708895,3300638.243442,9.3291729172917,0,0
-159.30223205859,72.832905068402,4.133603360336,1298552.7607966,-17407.761708895,3300638.243442,9.333603360336,0,0
-159.30223188767,72.884351249333,4.1380338033803,1298552.7607966,-17407.761708895,3300638.243442,9.3380338033803,0,0
-159.30223171674,72.935797430263,4.1424642464246,1298552.7607966,-17407.761708895,3300638.243442,9.3424642464246,0,0
-159.30223154339,72.987243619729,4.1468946894689,1314405.8846715,11855.528326521,3273527.3077827,9.3468946894689,0,0
-159.30223136856,73.038689814418,4.1513251325133,1314405.8846715,11855.528326521,3273527.3077827,9.3513251325133,0,0
-159.30223119372,73.090136009108,4.1557555755576,1314405.8846715,11855.528326521,3273527.3077827,9.3557555755576,0,0
-159.30223101888,73.141582203797,4.1601860186019,1314405.8846715,11855.528326521,3273527.3077827,9.3601860186019,0,0
-159.30223084404,73.193028398487,4.1646164616462,1314405.8846715,11855.528326521,3273527.3077827,9.3646164616462,0,0
-159.3022306692,73.244474593176,4.1690469046905,1314405.8846715,11855.528326521,3273527.3077827,9.3690469046905,0,0
-159.30223049437,73.295920787865,4.1734773477348,1314405.8846715,11855.528326521,3273527.3077827,9.3734773477348,0,0
-159.30223031953,73.347366982555,4.1779077907791,1314405.8846715,11855.528326521,3273527.3077827,9.3779077907791,0,0
-159.30223014469,73.398813177244,4.1823382338234,1314405.8846715,11855.528326521,3273527.3077827,9.3823382338234,0,0
-159.30222996985,73.450259371934,4.1867686768677,1314405.8846715,11855.528326521,3273527.3077827,9.3867686768677,0,0
-159.30222979502,73.501705566623,4.191199119912,1314405.8846715,11855.528326521,3273527.3077827,9.391199119912,0,0
-159.30222962018,73.553151761313,4.1956295629563,1314405.8846715,11855.528326521,3273527.3077827,9.3956295629563,0,0
-159.30222944534,73.604597956002,4.2000600060006,1314405.8846715,11855.528326521,3273527.3077827,9.4000600060006,0,0
-159.3022292705,73.656044150691,4.2044904490449,1314405.8846715,11855.528326521,3273527.3077827,9.4044904490449,0,0
-159.30222909566,73.707490345381,4.2089208920892,1314405.8846715,11855.528326521,3273527.3077827,9.4089208920892,0,0
-159.30222892083,73.75893654007,4.2133513351335,1314405.8846715,11855.528326521,3273527.3077827,9.4133513351335,0,0
-159.30222874599,73.81038273476,4.2177817781778,1314405.8846715,11855.528326521,3273527.3077827,9.4177817781778,0,0
-159.30222857115,73.861828929449,4.2222122212221,1314405.8846715,11855.528326521,3273527.3077827,9.4222122212221,0,0
-159.30222839631,73.913275124138,4.2266426642664,1314405.8846715,11855.528326521,3273527.3077827,9.4266426642664,0,0
-159.30222822148,73.964721318828,4.2310731073107,1314405.8846715,11855.528326521,3273527.3077827,9.4310731073107,0,0
-159.30222804664,74.016167513517,4.235503550355,1314405.8846715,11855.528326521,3273527.3077827,9.435503550355,0,0
-159.3022278718,74.067613708207,4.2399339933993,1314405.8846715,11855.528326521,3273527.3077827,9.4399339933993,0,0
-159.30222769696,74.119059902896,4.2443644364436,1314405.8846715,11855.528326521,3273527.3077827,9.4443644364436,0,0
-159.30222752212,74.170506097586,4.2487948794879,1314405.8846715,11855.528326521,3273527.3077827,9.4487948794879,0,0
-159.30222734729,74.221952292275,4.2532253225323,1314405.8846715,11855.528326521,3273527.3077827,9.4532253225323,0,0
-159.30222717245,74.273398486964,4.2576557655766,1314405.8846715,11855.528326521,3273527.3077827,9.4576557655766,0,0
-159.30222699761,74.324844681654,4.2620862086209,1314405.8846715,11855.528326521,3273527.3077827,9.4620862086209,0,0
-159.30222682277,74.376290876343,4.2665166516652,1314405.8846715,11855.528326521,3273527.3077827,9.4665166516652,0,0
-159.30222664794,74.427737071033,4.2709470947095,1314405.8846715,11855.528326521,3273527.3077827,9.4709470947095,0,0
-159.3022264731,74.479183265722,4.2753775377538,1314405.8846715,11855.528326521,3273527.3077827,9.4753775377538,0,0
-159.30222629826,74.530629460412,4.2798079807981,1314405.8846715,11855.528326521,3273527.3077827,9.4798079807981,0,0
-159.30222612342,74.582075655101,4.2842384238424,1314405.8846715,11855.528326521,3273527.3077827,9.4842384238424,0,0
-159.30222594858,74.63352184979,4.2886688668867,1314405.8846715,11855.528326521,3273527.3077827,9.4886688668867,0,0
-159.30222577375,74.68496804448,4.293099309931,1314405.8846715,11855.528326521,3273527.3077827,9.493099309931,0,0
-159.30222559891,74.736414239169,4.2975297529753,1314405.8846715,11855.528326521,3273527.3077827,9.4975297529753,0,0
-159.30222542407,74.787860433859,4.3019601960196,1314405.8846715,11855.528326521,3273527.3077827,9.5019601960196,0,0
-159.30222524923,74.839306628548,4.3063906390639,1314405.8846715,11855.528326521,3273527.3077827,9.5063906390639,0,0
-159.3022250744,74.890752823238,4.3108210821082,1314405.8846715,11855.528326521,3273527.3077827,9.5108210821082,0,0
-159.30222489956,74.942199017927,4.3152515251525,1314405.8846715,11855.528326521,3273527.3077827,9.5152515251525,0,0
-159.30222472472,74.993645212616,4.3196819681968,1314405.8846715,11855.528326521,3273527.3077827,9.5196819681968,0,0
-159.30222454988,75.045091407306,4.3241124112411,1314405.8846715,11855.528326521,3273527.3077827,9.5241124112411,0,0
-159.30222437504,75.096537601995,4.3285428542854,1314405.8846715,11855.528326521,3273527.3077827,9.5285428542854,0,0
-159.30222420021,75.147983796685,4.3329732973297,1314405.8846715,11855.528326521,3273527.3077827,9.5329732973297,0,0
-159.30222402537,75.199429991374,4.337403740374,1314405.8846715,11855.528326521,3273527.3077827,9.537403740374,0,0
-159.30222385053,75.250876186064,4.3418341834183,1314405.8846715,11855.528326521,3273527.3077827,9.5418341834183,0,0
-159.30222367569,75.302322380753,4.3462646264626,1314405.8846715,11855.528326521,3273527.3077827,9.5462646264626,0,0
-159.30222350086,75.353768575442,4.350695069507,1314405.8846715,11855.528326521,3273527.3077827,9.550695069507,0,0
-159.30222332602,75.405214770132,4.3551255125513,1314405.8846715,11855.528326521,3273527.3077827,9.5551255125513,0,0
-159.30222315118,75.456660964821,4.3595559555956,1314405.8846715,11855.528326521,3273527.3077827,9.5595559555956,0,0
-159.30222297634,75.508107159511,4.3639863986399,1314405.8846715,11855.528326521,3273527.3077827,9.5639863986399,0,0
-159.3022228015,75.5595533542,4.3684168416842,1314405.8846715,11855.528326521,3273527.3077827,9.5684168416842,0,0
-159.30222262667,75.610999548889,4.3728472847285,1314405.8846715,11855.528326521,3273527.3077827,9.5728472847285,0,0
-159.30222245183,75.662445743579,4.3772777277728,1314405.8846715,11855.528326521,3273527.3077827,9.5772777277728,0,0
-159.30222227699,75.713891938268,4.3817081708171,1314405.8846715,11855.528326521,3273527.3077827,9.5817081708171,0,0
-159.30222210215,75.765338132958,4.3861386138614,1314405.8846715,11855.528326521,3273527.3077827,9.5861386138614,0,0
-159.30222192732,75.816784327647,4.3905690569057,1314405.8846715,11855.528326521,3273527.3077827,9.5905690569057,0,0
-159.30222175248,75.868230522337,4.39499949995,1314405.8846715,11855.528326521,3273527.3077827,9.59499949995,0,0
-159.30222157764,75.919676717026,4.3994299429943,1314405.8846715,11855.528326521,3273527.3077827,9.5994299429943,0,0
-159.3022214028,75.971122911715,4.4038603860386,1314405.8846715,11855.528326521,3273527.3077827,9.6038603860386,0,0
-159.30222122796,76.022569106405,4.4082908290829,1314405.8846715,11855.528326521,3273527.3077827,9.6082908290829,0,0
-159.30222105313,76.074015301094,4.4127212721272,1314405.8846715,11855.528326521,3273527.3077827,9.6127212721272,0,0
-159.30222087829,76.125461495784,4.4171517151715,1314405.8846715,11855.528326521,3273527.3077827,9.6171517151715,0,0
-159.30222070345,76.176907690473,4.4215821582158,1314405.8846715,11855.528326521,3273527.3077827,9.6215821582158,0,0
-159.30222052861,76.228353885163,4.4260126012601,1314405.8846715,11855.528326521,3273527.3077827,9.6260126012601,0,0
-159.30222035378,76.279800079852,4.4304430443044,1314405.8846715,11855.528326521,3273527.3077827,9.6304430443044,0,0
-159.30222017894,76.331246274541,4.4348734873487,1314405.8846715,11855.528326521,3273527.3077827,9.6348734873487,0,0
-159.3022200041,76.382692469231,4.439303930393,1314405.8846715,11855.528326521,3273527.3077827,9.639303930393,0,0
-159.30221982926,76.43413866392,4.4437343734373,1314405.8846715,11855.528326521,3273527.3077827,9.6437343734373,0,0
-159.30221965442,76.48558485861,4.4481648164816,1314405.8846715,11855.528326521,3273527.3077827,9.6481648164816,0,0
-159.30221947959,76.537031053299,4.452595259526,1314405.8846715,11855.528326521,3273527.3077827,9.652595259526,0,0
-159.30221930475,76.588477247989,4.4570257025703,1314405.8846715,11855.528326521,3273527.3077827,9.6570257025703,0,0
-159.30221912991,76.639923442678,4.4614561456146,1314405.8846715,11855.528326521,3273527.3077827,9.6614561456146,0,0
-159.30221895507,76.691369637367,4.4658865886589,1314405.8846715,11855.528326521,3273527.3077827,9.6658865886589,0,0
-159.30221878024,76.742815832057,4.4703170317032,1314405.8846715,11855.528326521,3273527.3077827,9.6703170317032,0,0
-159.3022186054,76.794262026746,4.4747474747475,1314405.8846715,11855.528326521,3273527.3077827,9.6747474747475,0,0
-159.30221843056,76.845708221436,4.4791779177918,1314405.8846715,11855.528326521,3273527.3077827,9.6791779177918,0,0
-159.30221825572,76.897154416125,4.4836083608361,1314405.8846715,11855.528326521,3273527.3077827,9.6836083608361,0,0
-159.30221808088,76.948600610815,4.4880388038804,1314405.8846715,11855.528326521,3273527.3077827,9.6880388038804,0,0
-159.30221790605,77.000046805504,4.4924692469247,1314405.8846715,11855.528326521,3273527.3077827,9.6924692469247,0,0
-159.30221773121,77.051493000193,4.496899689969,1314405.8846715,11855.528326521,3273527.3077827,9.696899689969,0,0
-159.30221755637,77.102939194883,4.5013301330133,1314405.8846715,11855.528326521,3273527.3077827,9.7013301330133,0,0
-159.30221738153,77.154385389572,4.5057605760576,1314405.8846715,11855.528326521,3273527.3077827,9.7057605760576,0,0
-159.3022172067,77.205831584262,4.5101910191019,1314405.8846715,11855.528326521,3273527.3077827,9.7101910191019,0,0
-159.30221703186,77.257277778951,4.5146214621462,1314405.8846715,11855.528326521,3273527.3077827,9.7146214621462,0,0
-159.30221685702,77.30872397364,4.5190519051905,1314405.8846715,11855.528326521,3273527.3077827,9.7190519051905,0,0
-159.30221668218,77.36017016833,4.5234823482348,1314405.8846715,11855.528326521,3273527.3077827,9.7234823482348,0,0
-159.30221650734,77.411616363019,4.5279127912791,1314405.8846715,11855.528326521,3273527.3077827,9.7279127912791,0,0
-159.30221633251,77.463062557709,4.5323432343234,1314405.8846715,11855.528326521,3273527.3077827,9.7323432343234,0,0
-159.30221615767,77.514508752398,4.5367736773677,1314405.8846715,11855.528326521,3273527.3077827,9.7367736773677,0,0
-159.30221598283,77.565954947088,4.541204120412,1314405.8846715,11855.528326521,3273527.3077827,9.741204120412,0,0
-159.30221580799,77.617401141777,4.5456345634563,1314405.8846715,11855.528326521,3273527.3077827,9.7456345634563,0,0
-159.30221563316,77.668847336466,4.5500650065006,1314405.8846715,11855.528326521,3273527.3077827,9.7500650065007,0,0
-159.30221545832,77.720293531156,4.554495449545,1314405.8846715,11855.528326521,3273527.3077827,9.754495449545,0,0
-159.30221528129,77.771739715996,4.5589258925893,1312345.9345719,-12542.532026797,3214366.57359,9.7589258925893,0,0
-159.30221510372,77.82318589837,4.5633563356336,1312345.9345719,-12542.532026797,3214366.57359,9.7633563356336,0,0
-159.30221492615,77.874632080744,4.5677867786779,1312345.9345719,-12542.532026797,3214366.57359,9.7677867786779,0,0
-159.30221474858,77.926078263119,4.5722172217222,1312345.9345719,-12542.532026797,3214366.57359,9.7722172217222,0,0
-159.30221457101,77.977524445493,4.5766476647665,1312345.9345719,-12542.532026797,3214366.57359,9.7766476647665,0,0
-159.30221439344,78.028970627867,4.5810781078108,1312345.9345719,-12542.532026797,3214366.57359,9.7810781078108,0,0
-159.30221421587,78.080416810241,4.5855085508551,1312345.9345719,-12542.532026797,3214366.57359,9.7855085508551,0,0
-159.3022140383,78.131862992616,4.5899389938994,1312345.9345719,-12542.532026797,3214366.57359,9.7899389938994,0,0
-159.30221386073,78.18330917499,4.5943694369437,1312345.9345719,-12542.532026797,3214366.57359,9.7943694369437,0,0
-159.30221368316,78.234755357364,4.598799879988,1312345.9345719,-12542.532026797,3214366.57359,9.798799879988,0,0
-159.30221350559,78.286201539738,4.6032303230323,1312345.9345719,-12542.532026797,3214366.57359,9.8032303230323,0,0
-159.30221332802,78.337647722113,4.6076607660766,1312345.9345719,-12542.532026797,3214366.57359,9.8076607660766,0,0
-159.30221315045,78.389093904487,4.6120912091209,1312345.9345719,-12542.532026797,3214366.57359,9.8120912091209,0,0
-159.30221297288,78.440540086861,4.6165216521652,1312345.9345719,-12542.532026797,3214366.57359,9.8165216521652,0,0
-159.30221279531,78.491986269236,4.6209520952095,1312345.9345719,-12542.532026797,3214366.57359,9.8209520952095,0,0
-159.30221261773,78.54343245161,4.6253825382538,1312345.9345719,-12542.532026797,3214366.57359,9.8253825382538,0,0
-159.30221244016,78.594878633984,4.6298129812981,1312345.9345719,-12542.532026797,3214366.57359,9.8298129812981,0,0
-159.30221226259,78.646324816358,4.6342434243424,1312345.9345719,-12542.532026797,3214366.57359,9.8342434243424,0,0
-159.30221208502,78.697770998733,4.6386738673867,1312345.9345719,-12542.532026797,3214366.57359,9.8386738673867,0,0
-159.30221190745,78.749217181107,4.643104310431,1312345.9345719,-12542.532026797,3214366.57359,9.843104310431,0,0
-159.30221172988,78.800663363481,4.6475347534753,1312345.9345719,-12542.532026797,3214366.57359,9.8475347534753,0,0
-159.30221155231,78.852109545856,4.6519651965197,1312345.9345719,-12542.532026797,3214366.57359,9.8519651965197,0,0
-159.30221137474,78.90355572823,4.656395639564,1312345.9345719,-12542.532026797,3214366.57359,9.856395639564,0,0
-159.30221119525,78.955001917329,4.6608260826083,1323245.310734,12429.867827565,3180354.8851845,9.8608260826083,0,0
-159.30221101419,79.006448111904,4.6652565256526,1323245.310734,12429.867827565,3180354.8851845,9.8652565256526,0,0
-159.30221083313,79.057894306479,4.6696869686969,1323245.310734,12429.867827565,3180354.8851845,9.8696869686969,0,0
-159.30221065208,79.109340501054,4.6741174117412,1323245.310734,12429.867827565,3180354.8851845,9.8741174117412,0,0
-159.30221047102,79.16078669563,4.6785478547855,1323245.310734,12429.867827565,3180354.8851845,9.8785478547855,0,0
-159.30221028996,79.212232890205,4.6829782978298,1323245.310734,12429.867827565,3180354.8851845,9.8829782978298,0,0
-159.3022101089,79.26367908478,4.6874087408741,1323245.310734,12429.867827565,3180354.8851845,9.8874087408741,0,0
-159.30220992785,79.315125279355,4.6918391839184,1323245.310734,12429.867827565,3180354.8851845,9.8918391839184,0,0
-159.30220974679,79.36657147393,4.6962696269627,1323245.310734,12429.867827565,3180354.8851845,9.8962696269627,0,0
-159.30220956573,79.418017668505,4.700700070007,1323245.310734,12429.867827565,3180354.8851845,9.900700070007,0,0
-159.30220938468,79.469463863081,4.7051305130513,1323245.310734,12429.867827565,3180354.8851845,9.9051305130513,0,0
-159.30220920362,79.520910057656,4.7095609560956,1323245.310734,12429.867827565,3180354.8851845,9.9095609560956,0,0
-159.30220902256,79.572356252231,4.7139913991399,1323245.310734,12429.867827565,3180354.8851845,9.9139913991399,0,0
-159.3022088415,79.623802446806,4.7184218421842,1323245.310734,12429.867827565,3180354.8851845,9.9184218421842,0,0
-159.30220866045,79.675248641381,4.7228522852285,1323245.310734,12429.867827565,3180354.8851845,9.9228522852285,0,0
-159.30220847939,79.726694835956,4.7272827282728,1323245.310734,12429.867827565,3180354.8851845,9.9272827282728,0,0
-159.30220829833,79.778141030532,4.7317131713171,1323245.310734,12429.867827565,3180354.8851845,9.9317131713171,0,0
-159.30220811728,79.829587225107,4.7361436143614,1323245.310734,12429.867827565,3180354.8851845,9.9361436143614,0,0
-159.30220793622,79.881033419682,4.7405740574057,1323245.310734,12429.867827565,3180354.8851845,9.9405740574057,0,0
-159.30220775516,79.932479614257,4.74500450045,1323245.310734,12429.867827565,3180354.8851845,9.94500450045,0,0
-159.3022075741,79.983925808832,4.7494349434943,1323245.310734,12429.867827565,3180354.8851845,9.9494349434943,0,0
-159.30220739305,80.035372003407,4.7538653865387,1323245.310734,12429.867827565,3180354.8851845,9.9538653865387,0,0
-159.30220721199,80.086818197983,4.758295829583,1323245.310734,12429.867827565,3180354.8851845,9.958295829583,0,0
-159.30220703093,80.138264392558,4.7627262726273,1323245.310734,12429.867827565,3180354.8851845,9.9627262726273,0,0
-159.30220684988,80.189710587133,4.7671567156716,1323245.310734,12429.867827565,3180354.8851845,9.9671567156716,0,0
-159.30220666882,80.241156781708,4.7715871587159,1323245.310734,12429.867827565,3180354.8851845,9.9715871587159,0,0
-159.30220648776,80.292602976283,4.7760176017602,1323245.310734,12429.867827565,3180354.8851845,9.9760176017602,0,0
-159.3022063067,80.344049170858,4.7804480448045,1323245.310734,12429.867827565,3180354.8851845,9.9804480448045,0,0
-159.30220612565,80.395495365434,4.7848784878488,1323245.310734,12429.867827565,3180354.8851845,9.9848784878488,0,0
-159.30220594459,80.446941560009,4.7893089308931,1323245.310734,12429.867827565,3180354.8851845,9.9893089308931,0,0
-159.30220576353,80.498387754584,4.7937393739374,1323245.310734,12429.867827565,3180354.8851845,9.9937393739374,0,0
-159.30220558248,80.549833949159,4.7981698169817,1323245.310734,12429.867827565,3180354.8851845,9.9981698169817,0,0
-159.30220540142,80.601280143734,4.802600260026,1323245.310734,12429.867827565,3180354.8851845,10.002600260026,0,0
-159.30220522036,80.652726338309,4.8070307030703,1323245.310734,12429.867827565,3180354.8851845,10.00703070307,0,0
-159.3022050393,80.704172532885,4.8114611461146,1323245.310734,12429.867827565,3180354.8851845,10.011461146115,0,0
-159.30220485825,80.75561872746,4.8158915891589,1323245.310734,12429.867827565,3180354.8851845,10.015891589159,0,0
-159.30220467719,80.807064922035,4.8203220322032,1323245.310734,12429.867827565,3180354.8851845,10.020322032203,0,0
-159.30220449613,80.85851111661,4.8247524752475,1323245.310734,12429.867827565,3180354.8851845,10.024752475248,0,0
-159.30220431508,80.909957311185,4.8291829182918,1323245.310734,12429.867827565,3180354.8851845,10.029182918292,0,0
-159.30220413402,80.96140350576,4.8336133613361,1323245.310734,12429.867827565,3180354.8851845,10.033613361336,0,0
-159.30220395296,81.012849700336,4.8380438043804,1323245.310734,12429.867827565,3180354.8851845,10.03804380438,0,0
-159.3022037719,81.064295894911,4.8424742474247,1323245.310734,12429.867827565,3180354.8851845,10.042474247425,0,0
-159.30220359085,81.115742089486,4.846904690469,1323245.310734,12429.867827565,3180354.8851845,10.046904690469,0,0
-159.30220340979,81.167188284061,4.8513351335134,1323245.310734,12429.867827565,3180354.8851845,10.051335133513,0,0
-159.30220322873,81.218634478636,4.8557655765577,1323245.310734,12429.867827565,3180354.8851845,10.055765576558,0,0
-159.30220304768,81.270080673211,4.860196019602,1323245.310734,12429.867827565,3180354.8851845,10.060196019602,0,0
-159.30220286662,81.321526867787,4.8646264626463,1323245.310734,12429.867827565,3180354.8851845,10.064626462646,0,0
-159.30220268556,81.372973062362,4.8690569056906,1323245.310734,12429.867827565,3180354.8851845,10.069056905691,0,0
-159.3022025045,81.424419256937,4.8734873487349,1323245.310734,12429.867827565,3180354.8851845,10.073487348735,0,0
-159.30220232345,81.475865451512,4.8779177917792,1323245.310734,12429.867827565,3180354.8851845,10.077917791779,0,0
-159.30220214239,81.527311646087,4.8823482348235,1323245.310734,12429.867827565,3180354.8851845,10.082348234823,0,0
-159.30220196133,81.578757840662,4.8867786778678,1323245.310734,12429.867827565,3180354.8851845,10.086778677868,0,0
-159.30220178028,81.630204035238,4.8912091209121,1323245.310734,12429.867827565,3180354.8851845,10.091209120912,0,0
-159.30220159922,81.681650229813,4.8956395639564,1323245.310734,12429.867827565,3180354.8851845,10.095639563956,0,0
-159.30220141816,81.733096424388,4.9000700070007,1323245.310734,12429.867827565,3180354.8851845,10.100070007001,0,0
-159.3022012371,81.784542618963,4.904500450045,1323245.310734,12429.867827565,3180354.8851845,10.104500450045,0,0
-159.30220105605,81.835988813538,4.9089308930893,1323245.310734,12429.867827565,3180354.8851845,10.108930893089,0,0
-159.30220087499,81.887435008113,4.9133613361336,1323245.310734,12429.867827565,3180354.8851845,10.113361336134,0,0
-159.30220069393,81.938881202689,4.9177917791779,1323245.310734,12429.867827565,3180354.8851845,10.117791779178,0,0
-159.30220051288,81.990327397264,4.9222222222222,1323245.310734,12429.867827565,3180354.8851845,10.122222222222,0,0
-159.30220033182,82.041773591839,4.9266526652665,1323245.310734,12429.867827565,3180354.8851845,10.126652665267,0,0
-159.30220015076,82.093219786414,4.9310831083108,1323245.310734,12429.867827565,3180354.8851845,10.131083108311,0,0
-159.3021999697,82.144665980989,4.9355135513551,1323245.310734,12429.867827565,3180354.8851845,10.135513551355,0,0
-159.30219978865,82.196112175564,4.9399439943994,1323245.310734,12429.867827565,3180354.8851845,10.139943994399,0,0
-159.30219960759,82.24755837014,4.9443744374437,1323245.310734,12429.867827565,3180354.8851845,10.144374437444,0,0
-159.30219942653,82.299004564715,4.948804880488,1323245.310734,12429.867827565,3180354.8851845,10.148804880488,0,0
-159.30219924548,82.35045075929,4.9532353235324,1323245.310734,12429.867827565,3180354.8851845,10.153235323532,0,0
-159.30219906442,82.401896953865,4.9576657665767,1323245.310734,12429.867827565,3180354.8851845,10.157665766577,0,0
-159.30219888336,82.45334314844,4.962096209621,1323245.310734,12429.867827565,3180354.8851845,10.162096209621,0,0
-159.3021987023,82.504789343015,4.9665266526653,1323245.310734,12429.867827565,3180354.8851845,10.166526652665,0,0
-159.30219852125,82.556235537591,4.9709570957096,1323245.310734,12429.867827565,3180354.8851845,10.17095709571,0,0
-159.30219834019,82.607681732166,4.9753875387539,1323245.310734,12429.867827565,3180354.8851845,10.175387538754,0,0
-159.30219815913,82.659127926741,4.9798179817982,1323245.310734,12429.867827565,3180354.8851845,10.179817981798,0,0
-159.30219797808,82.710574121316,4.9842484248425,1323245.310734,12429.867827565,3180354.8851845,10.184248424842,0,0
-159.30219779702,82.762020315891,4.9886788678868,1323245.310734,12429.867827565,3180354.8851845,10.188678867887,0,0
-159.30219761596,82.813466510466,4.9931093109311,1323245.310734,12429.867827565,3180354.8851845,10.193109310931,0,0
-159.3021974343,82.864912697354,4.9975397539754,1319209.2229273,-6216.4902453692,3155671.9163105,10.197539753975,0,0
-159.30219725261,82.916358883799,5.0019701970197,1319209.2229273,-6216.4902453692,3155671.9163105,10.20197019702,0,0
-159.30219707091,82.967805070245,5.006400640064,1319209.2229273,-6216.4902453692,3155671.9163105,10.206400640064,0,0
-159.30219688922,83.01925125669,5.0108310831083,1319209.2229273,-6216.4902453692,3155671.9163105,10.210831083108,0,0
-159.30219670753,83.070697443136,5.0152615261526,1319209.2229273,-6216.4902453692,3155671.9163105,10.215261526153,0,0
-159.30219652583,83.122143629581,5.0196919691969,1319209.2229273,-6216.4902453692,3155671.9163105,10.219691969197,0,0
-159.30219634414,83.173589816027,5.0241224122412,1319209.2229273,-6216.4902453692,3155671.9163105,10.224122412241,0,0
-159.30219616245,83.225036002472,5.0285528552855,1319209.2229273,-6216.4902453692,3155671.9163105,10.228552855286,0,0
-159.30219598075,83.276482188918,5.0329832983298,1319209.2229273,-6216.4902453692,3155671.9163105,10.23298329833,0,0
-159.30219579906,83.327928375363,5.0374137413741,1319209.2229273,-6216.4902453692,3155671.9163105,10.237413741374,0,0
-159.30219561736,83.379374561809,5.0418441844184,1319209.2229273,-6216.4902453692,3155671.9163105,10.241844184418,0,0
-159.30219543567,83.430820748254,5.0462746274627,1319209.2229273,-6216.4902453692,3155671.9163105,10.246274627463,0,0
-159.30219525398,83.4822669347,5.050705070507,1319209.2229273,-6216.4902453692,3155671.9163105,10.250705070507,0,0
-159.30219507228,83.533713121145,5.0551355135514,1319209.2229273,-6216.4902453692,3155671.9163105,10.255135513551,0,0
-159.30219489059,83.585159307591,5.0595659565957,1319209.2229273,-6216.4902453692,3155671.9163105,10.259565956596,0,0
-159.30219470889,83.636605494036,5.06399639964,1319209.2229273,-6216.4902453692,3155671.9163105,10.26399639964,0,0
-159.3021945272,83.688051680482,5.0684268426843,1319209.2229273,-6216.4902453692,3155671.9163105,10.268426842684,0,0
-159.30219434551,83.739497866927,5.0728572857286,1319209.2229273,-6216.4902453692,3155671.9163105,10.272857285729,0,0
-159.30219416381,83.790944053373,5.0772877287729,1319209.2229273,-6216.4902453692,3155671.9163105,10.277287728773,0,0
-159.30219398212,83.842390239818,5.0817181718172,1319209.2229273,-6216.4902453692,3155671.9163105,10.281718171817,0,0
-159.30219380042,83.893836426264,5.0861486148615,1319209.2229273,-6216.4902453692,3155671.9163105,10.286148614861,0,0
-159.30219361873,83.945282612709,5.0905790579058,1319209.2229273,-6216.4902453692,3155671.9163105,10.290579057906,0,0
-159.30219343704,83.996728799155,5.0950095009501,1319209.2229273,-6216.4902453692,3155671.9163105,10.29500950095,0,0
-159.30219325534,84.0481749856,5.0994399439944,1319209.2229273,-6216.4902453692,3155671.9163105,10.299439943994,0,0
-159.30219307365,84.099621172046,5.1038703870387,1319209.2229273,-6216.4902453692,3155671.9163105,10.303870387039,0,0
-159.30219289196,84.151067358491,5.108300830083,1319209.2229273,-6216.4902453692,3155671.9163105,10.308300830083,0,0
-159.30219271026,84.202513544937,5.1127312731273,1319209.2229273,-6216.4902453692,3155671.9163105,10.312731273127,0,0
-159.30219252857,84.253959731382,5.1171617161716,1319209.2229273,-6216.4902453692,3155671.9163105,10.317161716172,0,0
-159.30219234687,84.305405917828,5.1215921592159,1319209.2229273,-6216.4902453692,3155671.9163105,10.321592159216,0,0
-159.30219216518,84.356852104273,5.1260226022602,1319209.2229273,-6216.4902453692,3155671.9163105,10.32602260226,0,0
-159.30219198349,84.408298290719,5.1304530453045,1319209.2229273,-6216.4902453692,3155671.9163105,10.330453045305,0,0
-159.30219180179,84.459744477164,5.1348834883488,1319209.2229273,-6216.4902453692,3155671.9163105,10.334883488349,0,0
-159.3021916201,84.51119066361,5.1393139313931,1319209.2229273,-6216.4902453692,3155671.9163105,10.339313931393,0,0
-159.3021914384,84.562636850055,5.1437443744374,1319209.2229273,-6216.4902453692,3155671.9163105,10.343744374437,0,0
-159.30219125671,84.6140830365,5.1481748174817,1319209.2229273,-6216.4902453692,3155671.9163105,10.348174817482,0,0
-159.30219107502,84.665529222946,5.1526052605261,1319209.2229273,-6216.4902453692,3155671.9163105,10.352605260526,0,0
-159.30219089332,84.716975409391,5.1570357035704,1319209.2229273,-6216.4902453692,3155671.9163105,10.35703570357,0,0
-159.30219071163,84.768421595837,5.1614661466147,1319209.2229273,-6216.4902453692,3155671.9163105,10.361466146615,0,0
-159.30219052994,84.819867782282,5.165896589659,1319209.2229273,-6216.4902453692,3155671.9163105,10.365896589659,0,0
-159.30219034824,84.871313968728,5.1703270327033,1319209.2229273,-6216.4902453692,3155671.9163105,10.370327032703,0,0
-159.30219016655,84.922760155173,5.1747574757476,1319209.2229273,-6216.4902453692,3155671.9163105,10.374757475748,0,0
-159.30218998485,84.974206341619,5.1791879187919,1319209.2229273,-6216.4902453692,3155671.9163105,10.379187918792,0,0
-159.30218980316,85.025652528064,5.1836183618362,1319209.2229273,-6216.4902453692,3155671.9163105,10.383618361836,0,0
-159.30218962147,85.07709871451,5.1880488048805,1319209.2229273,-6216.4902453692,3155671.9163105,10.38804880488,0,0
-159.30218943977,85.128544900955,5.1924792479248,1319209.2229273,-6216.4902453692,3155671.9163105,10.392479247925,0,0
-159.30218925808,85.179991087401,5.1969096909691,1319209.2229273,-6216.4902453692,3155671.9163105,10.396909690969,0,0
-159.30218907638,85.231437273846,5.2013401340134,1319209.2229273,-6216.4902453692,3155671.9163105,10.401340134013,0,0
-159.30218889469,85.282883460292,5.2057705770577,1319209.2229273,-6216.4902453692,3155671.9163105,10.405770577058,0,0
-159.302188713,85.334329646737,5.210201020102,1319209.2229273,-6216.4902453692,3155671.9163105,10.410201020102,0,0
-159.3021885313,85.385775833183,5.2146314631463,1319209.2229273,-6216.4902453692,3155671.9163105,10.414631463146,0,0
-159.30218834961,85.437222019628,5.2190619061906,1319209.2229273,-6216.4902453692,3155671.9163105,10.419061906191,0,0
-159.30218816792,85.488668206074,5.2234923492349,1319209.2229273,-6216.4902453692,3155671.9163105,10.423492349235,0,0
-159.30218798622,85.540114392519,5.2279227922792,1319209.2229273,-6216.4902453692,3155671.9163105,10.427922792279,0,0
-159.30218780453,85.591560578965,5.2323532353235,1319209.2229273,-6216.4902453692,3155671.9163105,10.432353235324,0,0
-159.30218762283,85.64300676541,5.2367836783678,1319209.2229273,-6216.4902453692,3155671.9163105,10.436783678368,0,0
-159.30218743877,85.694452955666,5.2412141214121,1327402.8788351,-3902.9227751183,3100079.5203101,10.441214121412,0,0
-159.3021872529,85.745899148825,5.2456445644564,1327402.8788351,-3902.9227751183,3100079.5203101,10.445644564456,0,0
-159.30218706704,85.797345341985,5.2500750075008,1327402.8788351,-3902.9227751183,3100079.5203101,10.450075007501,0,0
-159.30218688117,85.848791535144,5.2545054505451,1327402.8788351,-3902.9227751183,3100079.5203101,10.454505450545,0,0
-159.3021866953,85.900237728303,5.2589358935894,1327402.8788351,-3902.9227751183,3100079.5203101,10.458935893589,0,0
-159.30218650943,85.951683921463,5.2633663366337,1327402.8788351,-3902.9227751183,3100079.5203101,10.463366336634,0,0
-159.30218632357,86.003130114622,5.267796779678,1327402.8788351,-3902.9227751183,3100079.5203101,10.467796779678,0,0
-159.3021861377,86.054576307781,5.2722272227223,1327402.8788351,-3902.9227751183,3100079.5203101,10.472227222722,0,0
-159.30218595183,86.106022500941,5.2766576657666,1327402.8788351,-3902.9227751183,3100079.5203101,10.476657665767,0,0
-159.30218576596,86.1574686941,5.2810881088109,1327402.8788351,-3902.9227751183,3100079.5203101,10.481088108811,0,0
-159.3021855801,86.208914887259,5.2855185518552,1327402.8788351,-3902.9227751183,3100079.5203101,10.485518551855,0,0
-159.30218539423,86.260361080419,5.2899489948995,1327402.8788351,-3902.9227751183,3100079.5203101,10.489948994899,0,0
-159.30218520836,86.311807273578,5.2943794379438,1327402.8788351,-3902.9227751183,3100079.5203101,10.494379437944,0,0
-159.30218502249,86.363253466737,5.2988098809881,1327402.8788351,-3902.9227751183,3100079.5203101,10.498809880988,0,0
-159.30218483663,86.414699659897,5.3032403240324,1327402.8788351,-3902.9227751183,3100079.5203101,10.503240324032,0,0
-159.30218465076,86.466145853056,5.3076707670767,1327402.8788351,-3902.9227751183,3100079.5203101,10.507670767077,0,0
-159.30218446489,86.517592046215,5.312101210121,1327402.8788351,-3902.9227751183,3100079.5203101,10.512101210121,0,0
-159.30218427902,86.569038239375,5.3165316531653,1327402.8788351,-3902.9227751183,3100079.5203101,10.516531653165,0,0
-159.30218409316,86.620484432534,5.3209620962096,1327402.8788351,-3902.9227751183,3100079.5203101,10.52096209621,0,0
-159.30218390729,86.671930625693,5.3253925392539,1327402.8788351,-3902.9227751183,3100079.5203101,10.525392539254,0,0
-159.30218372142,86.723376818853,5.3298229822982,1327402.8788351,-3902.9227751183,3100079.5203101,10.529822982298,0,0
-159.30218353555,86.774823012012,5.3342534253425,1327402.8788351,-3902.9227751183,3100079.5203101,10.534253425343,0,0
-159.30218334969,86.826269205171,5.3386838683868,1327402.8788351,-3902.9227751183,3100079.5203101,10.538683868387,0,0
-159.30218316382,86.877715398331,5.3431143114311,1327402.8788351,-3902.9227751183,3100079.5203101,10.543114311431,0,0
-159.30218297795,86.92916159149,5.3475447544754,1327402.8788351,-3902.9227751183,3100079.5203101,10.547544754475,0,0
-159.30218279208,86.980607784649,5.3519751975198,1327402.8788351,-3902.9227751183,3100079.5203101,10.55197519752,0,0
-159.30218260622,87.032053977808,5.3564056405641,1327402.8788351,-3902.9227751183,3100079.5203101,10.556405640564,0,0
-159.30218242035,87.083500170968,5.3608360836084,1327402.8788351,-3902.9227751183,3100079.5203101,10.560836083608,0,0
-159.30218223448,87.134946364127,5.3652665266527,1327402.8788351,-3902.9227751183,3100079.5203101,10.565266526653,0,0
-159.30218204861,87.186392557286,5.369696969697,1327402.8788351,-3902.9227751183,3100079.5203101,10.569696969697,0,0
-159.30218186275,87.237838750446,5.3741274127413,1327402.8788351,-3902.9227751183,3100079.5203101,10.574127412741,0,0
-159.30218167688,87.289284943605,5.3785578557856,1327402.8788351,-3902.9227751183,3100079.5203101,10.578557855786,0,0
-159.30218149101,87.340731136764,5.3829882988299,1327402.8788351,-3902.9227751183,3100079.5203101,10.58298829883,0,0
-159.30218130514,87.392177329924,5.3874187418742,1327402.8788351,-3902.9227751183,3100079.5203101,10.587418741874,0,0
-159.30218111928,87.443623523083,5.3918491849185,1327402.8788351,-3902.9227751183,3100079.5203101,10.591849184918,0,0
-159.30218093341,87.495069716242,5.3962796279628,1327402.8788351,-3902.9227751183,3100079.5203101,10.596279627963,0,0
-159.30218074754,87.546515909402,5.4007100710071,1327402.8788351,-3902.9227751183,3100079.5203101,10.600710071007,0,0
-159.30218056167,87.597962102561,5.4051405140514,1327402.8788351,-3902.9227751183,3100079.5203101,10.605140514051,0,0
-159.30218037581,87.64940829572,5.4095709570957,1327402.8788351,-3902.9227751183,3100079.5203101,10.609570957096,0,0
-159.30218018994,87.70085448888,5.41400140014,1327402.8788351,-3902.9227751183,3100079.5203101,10.61400140014,0,0
-159.30218000407,87.752300682039,5.4184318431843,1327402.8788351,-3902.9227751183,3100079.5203101,10.618431843184,0,0
-159.3021798182,87.803746875198,5.4228622862286,1327402.8788351,-3902.9227751183,3100079.5203101,10.622862286229,0,0
-159.30217963234,87.855193068358,5.4272927292729,1327402.8788351,-3902.9227751183,3100079.5203101,10.627292729273,0,0
-159.30217944647,87.906639261517,5.4317231723172,1327402.8788351,-3902.9227751183,3100079.5203101,10.631723172317,0,0
-159.3021792606,87.958085454676,5.4361536153615,1327402.8788351,-3902.9227751183,3100079.5203101,10.636153615362,0,0
-159.30217907473,88.009531647836,5.4405840584058,1327402.8788351,-3902.9227751183,3100079.5203101,10.640584058406,0,0
-159.30217888887,88.060977840995,5.4450145014501,1327402.8788351,-3902.9227751183,3100079.5203101,10.64501450145,0,0
-159.302178703,88.112424034154,5.4494449444944,1327402.8788351,-3902.9227751183,3100079.5203101,10.649444944494,0,0
-159.30217851713,88.163870227314,5.4538753875388,1327402.8788351,-3902.9227751183,3100079.5203101,10.653875387539,0,0
-159.30217833126,88.215316420473,5.4583058305831,1327402.8788351,-3902.9227751183,3100079.5203101,10.658305830583,0,0
-159.3021781454,88.266762613632,5.4627362736274,1327402.8788351,-3902.9227751183,3100079.5203101,10.662736273627,0,0
-159.30217795953,88.318208806792,5.4671667166717,1327402.8788351,-3902.9227751183,3100079.5203101,10.667166716672,0,0
-159.30217777405,88.369655003154,5.471597159716,1321962.4397426,7652.8362638101,3094520.8547764,10.671597159716,0,0
-159.30217758875,88.4211012011,5.4760276027603,1321962.4397426,7652.8362638101,3094520.8547764,10.67602760276,0,0
-159.30217740346,88.472547399046,5.4804580458046,1321962.4397426,7652.8362638101,3094520.8547764,10.680458045805,0,0
-159.30217721817,88.523993596991,5.4848884888489,1321962.4397426,7652.8362638101,3094520.8547764,10.684888488849,0,0
-159.30217703288,88.575439794937,5.4893189318932,1321962.4397426,7652.8362638101,3094520.8547764,10.689318931893,0,0
-159.30217684758,88.626885992883,5.4937493749375,1321962.4397426,7652.8362638101,3094520.8547764,10.693749374937,0,0
-159.30217666229,88.678332190829,5.4981798179818,1321962.4397426,7652.8362638101,3094520.8547764,10.698179817982,0,0
-159.302176477,88.729778388774,5.5026102610261,1321962.4397426,7652.8362638101,3094520.8547764,10.702610261026,0,0
-159.30217629171,88.78122458672,5.5070407040704,1321962.4397426,7652.8362638101,3094520.8547764,10.70704070407,0,0
-159.30217610641,88.832670784666,5.5114711471147,1321962.4397426,7652.8362638101,3094520.8547764,10.711471147115,0,0
-159.30217592112,88.884116982612,5.515901590159,1321962.4397426,7652.8362638101,3094520.8547764,10.715901590159,0,0
-159.30217573583,88.935563180557,5.5203320332033,1321962.4397426,7652.8362638101,3094520.8547764,10.720332033203,0,0
-159.30217555054,88.987009378503,5.5247624762476,1321962.4397426,7652.8362638101,3094520.8547764,10.724762476248,0,0
-159.30217536524,89.038455576449,5.5291929192919,1321962.4397426,7652.8362638101,3094520.8547764,10.729192919292,0,0
-159.30217517995,89.089901774395,5.5336233623362,1321962.4397426,7652.8362638101,3094520.8547764,10.733623362336,0,0
-159.30217499466,89.14134797234,5.5380538053805,1321962.4397426,7652.8362638101,3094520.8547764,10.738053805381,0,0
-159.30217480937,89.192794170286,5.5424842484248,1321962.4397426,7652.8362638101,3094520.8547764,10.742484248425,0,0
-159.30217462407,89.244240368232,5.5469146914691,1321962.4397426,7652.8362638101,3094520.8547764,10.746914691469,0,0
-159.30217443878,89.295686566178,5.5513451345134,1321962.4397426,7652.8362638101,3094520.8547764,10.751345134513,0,0
-159.30217425349,89.347132764124,5.5557755775578,1321962.4397426,7652.8362638101,3094520.8547764,10.755775577558,0,0
-159.30217406819,89.398578962069,5.5602060206021,1321962.4397426,7652.8362638101,3094520.8547764,10.760206020602,0,0
-159.3021738829,89.450025160015,5.5646364636464,1321962.4397426,7652.8362638101,3094520.8547764,10.764636463646,0,0
-159.30217369761,89.501471357961,5.5690669066907,1321962.4397426,7652.8362638101,3094520.8547764,10.769066906691,0,0
-159.30217351232,89.552917555907,5.573497349735,1321962.4397426,7652.8362638101,3094520.8547764,10.773497349735,0,0
-159.30217332702,89.604363753852,5.5779277927793,1321962.4397426,7652.8362638101,3094520.8547764,10.777927792779,0,0
-159.30217314173,89.655809951798,5.5823582358236,1321962.4397426,7652.8362638101,3094520.8547764,10.782358235824,0,0
-159.30217295644,89.707256149744,5.5867886788679,1321962.4397426,7652.8362638101,3094520.8547764,10.786788678868,0,0
-159.30217277115,89.75870234769,5.5912191219122,1321962.4397426,7652.8362638101,3094520.8547764,10.791219121912,0,0
-159.30217258585,89.810148545635,5.5956495649565,1321962.4397426,7652.8362638101,3094520.8547764,10.795649564956,0,0
-159.30217240056,89.861594743581,5.6000800080008,1321962.4397426,7652.8362638101,3094520.8547764,10.800080008001,0,0
-159.30217221527,89.913040941527,5.6045104510451,1321962.4397426,7652.8362638101,3094520.8547764,10.804510451045,0,0
-159.30217202998,89.964487139473,5.6089408940894,1321962.4397426,7652.8362638101,3094520.8547764,10.808940894089,0,0
-159.30217184468,90.015933337418,5.6133713371337,1321962.4397426,7652.8362638101,3094520.8547764,10.813371337134,0,0
-159.30217165939,90.067379535364,5.617801780178,1321962.4397426,7652.8362638101,3094520.8547764,10.817801780178,0,0
-159.3021714741,90.11882573331,5.6222322232223,1321962.4397426,7652.8362638101,3094520.8547764,10.822232223222,0,0
-159.30217128881,90.170271931256,5.6266626662666,1321962.4397426,7652.8362638101,3094520.8547764,10.826662666267,0,0
-159.30217110351,90.221718129201,5.6310931093109,1321962.4397426,7652.8362638101,3094520.8547764,10.831093109311,0,0
-159.30217091822,90.273164327147,5.6355235523552,1321962.4397426,7652.8362638101,3094520.8547764,10.835523552355,0,0
-159.30217073293,90.324610525093,5.6399539953995,1321962.4397426,7652.8362638101,3094520.8547764,10.8399539954,0,0
-159.30217054621,90.376056719124,5.6443844384438,1328729.2354877,-8857.7642157299,3045428.0335874,10.844384438444,0,0
-159.3021703573,90.427502907164,5.6488148814881,1328729.2354877,-8857.7642157299,3045428.0335874,10.848814881488,0,0
-159.3021701684,90.478949095204,5.6532453245325,1328729.2354877,-8857.7642157299,3045428.0335874,10.853245324532,0,0
-159.3021699795,90.530395283244,5.6576757675768,1328729.2354877,-8857.7642157299,3045428.0335874,10.857675767577,0,0
-159.30216979059,90.581841471283,5.6621062106211,1328729.2354877,-8857.7642157299,3045428.0335874,10.862106210621,0,0
-159.30216960169,90.633287659323,5.6665366536654,1328729.2354877,-8857.7642157299,3045428.0335874,10.866536653665,0,0
-159.30216941278,90.684733847363,5.6709670967097,1328729.2354877,-8857.7642157299,3045428.0335874,10.87096709671,0,0
-159.30216922388,90.736180035403,5.675397539754,1328729.2354877,-8857.7642157299,3045428.0335874,10.875397539754,0,0
-159.30216903498,90.787626223442,5.6798279827983,1328729.2354877,-8857.7642157299,3045428.0335874,10.879827982798,0,0
-159.30216884607,90.839072411482,5.6842584258426,1328729.2354877,-8857.7642157299,3045428.0335874,10.884258425843,0,0
-159.30216865717,90.890518599522,5.6886888688869,1328729.2354877,-8857.7642157299,3045428.0335874,10.888688868887,0,0
-159.30216846827,90.941964787561,5.6931193119312,1328729.2354877,-8857.7642157299,3045428.0335874,10.893119311931,0,0
-159.30216827936,90.993410975601,5.6975497549755,1328729.2354877,-8857.7642157299,3045428.0335874,10.897549754975,0,0
-159.30216809046,91.044857163641,5.7019801980198,1328729.2354877,-8857.7642157299,3045428.0335874,10.90198019802,0,0
-159.30216790155,91.096303351681,5.7064106410641,1328729.2354877,-8857.7642157299,3045428.0335874,10.906410641064,0,0
-159.30216771265,91.14774953972,5.7108410841084,1328729.2354877,-8857.7642157299,3045428.0335874,10.910841084108,0,0
-159.30216752375,91.19919572776,5.7152715271527,1328729.2354877,-8857.7642157299,3045428.0335874,10.915271527153,0,0
-159.30216733484,91.2506419158,5.719701970197,1328729.2354877,-8857.7642157299,3045428.0335874,10.919701970197,0,0
-159.30216714594,91.302088103839,5.7241324132413,1328729.2354877,-8857.7642157299,3045428.0335874,10.924132413241,0,0
-159.30216695703,91.353534291879,5.7285628562856,1328729.2354877,-8857.7642157299,3045428.0335874,10.928562856286,0,0
-159.30216676813,91.404980479919,5.7329932993299,1328729.2354877,-8857.7642157299,3045428.0335874,10.93299329933,0,0
-159.30216657923,91.456426667959,5.7374237423742,1328729.2354877,-8857.7642157299,3045428.0335874,10.937423742374,0,0
-159.30216639032,91.507872855998,5.7418541854185,1328729.2354877,-8857.7642157299,3045428.0335874,10.941854185419,0,0
-159.30216620142,91.559319044038,5.7462846284628,1328729.2354877,-8857.7642157299,3045428.0335874,10.946284628463,0,0
-159.30216601251,91.610765232078,5.7507150715072,1328729.2354877,-8857.7642157299,3045428.0335874,10.950715071507,0,0
-159.30216582361,91.662211420118,5.7551455145515,1328729.2354877,-8857.7642157299,3045428.0335874,10.955145514551,0,0
-159.30216563471,91.713657608157,5.7595759575958,1328729.2354877,-8857.7642157299,3045428.0335874,10.959575957596,0,0
-159.3021654458,91.765103796197,5.7640064006401,1328729.2354877,-8857.7642157299,3045428.0335874,10.96400640064,0,0
-159.3021652569,91.816549984237,5.7684368436844,1328729.2354877,-8857.7642157299,3045428.0335874,10.968436843684,0,0
-159.30216506799,91.867996172276,5.7728672867287,1328729.2354877,-8857.7642157299,3045428.0335874,10.972867286729,0,0
-159.30216487909,91.919442360316,5.777297729773,1328729.2354877,-8857.7642157299,3045428.0335874,10.977297729773,0,0
-159.30216469019,91.970888548356,5.7817281728173,1328729.2354877,-8857.7642157299,3045428.0335874,10.981728172817,0,0
-159.30216450128,92.022334736396,5.7861586158616,1328729.2354877,-8857.7642157299,3045428.0335874,10.986158615862,0,0
-159.30216431238,92.073780924435,5.7905890589059,1328729.2354877,-8857.7642157299,3045428.0335874,10.990589058906,0,0
-159.30216412347,92.125227112475,5.7950195019502,1328729.2354877,-8857.7642157299,3045428.0335874,10.99501950195,0,0
-159.30216393457,92.176673300515,5.7994499449945,1328729.2354877,-8857.7642157299,3045428.0335874,10.999449944994,0,0
-159.30216374567,92.228119488555,5.8038803880388,1328729.2354877,-8857.7642157299,3045428.0335874,11.003880388039,0,0
-159.30216355676,92.279565676594,5.8083108310831,1328729.2354877,-8857.7642157299,3045428.0335874,11.008310831083,0,0
-159.30216336786,92.331011864634,5.8127412741274,1328729.2354877,-8857.7642157299,3045428.0335874,11.012741274127,0,0
-159.30216317895,92.382458052674,5.8171717171717,1328729.2354877,-8857.7642157299,3045428.0335874,11.017171717172,0,0
-159.30216299005,92.433904240713,5.821602160216,1328729.2354877,-8857.7642157299,3045428.0335874,11.021602160216,0,0
-159.30216280115,92.485350428753,5.8260326032603,1328729.2354877,-8857.7642157299,3045428.0335874,11.02603260326,0,0
-159.30216261224,92.536796616793,5.8304630463046,1328729.2354877,-8857.7642157299,3045428.0335874,11.030463046305,0,0
-159.30216242334,92.588242804833,5.8348934893489,1328729.2354877,-8857.7642157299,3045428.0335874,11.034893489349,0,0
-159.30216223443,92.639688992872,5.8393239323932,1328729.2354877,-8857.7642157299,3045428.0335874,11.039323932393,0,0
-159.30216204553,92.691135180912,5.8437543754375,1328729.2354877,-8857.7642157299,3045428.0335874,11.043754375438,0,0
-159.30216185663,92.742581368952,5.8481848184818,1328729.2354877,-8857.7642157299,3045428.0335874,11.048184818482,0,0
-159.30216166772,92.794027556992,5.8526152615262,1328729.2354877,-8857.7642157299,3045428.0335874,11.052615261526,0,0
-159.30216147882,92.845473745031,5.8570457045705,1328729.2354877,-8857.7642157299,3045428.0335874,11.05704570457,0,0
-159.30216128992,92.896919933071,5.8614761476148,1328729.2354877,-8857.7642157299,3045428.0335874,11.061476147615,0,0
-159.30216110101,92.948366121111,5.8659065906591,1328729.2354877,-8857.7642157299,3045428.0335874,11.065906590659,0,0
-159.30216091211,92.99981230915,5.8703370337034,1328729.2354877,-8857.7642157299,3045428.0335874,11.070337033703,0,0
-159.3021607232,93.05125849719,5.8747674767477,1328729.2354877,-8857.7642157299,3045428.0335874,11.074767476748,0,0
-159.3021605343,93.10270468523,5.879197919792,1328729.2354877,-8857.7642157299,3045428.0335874,11.079197919792,0,0
-159.3021603454,93.15415087327,5.8836283628363,1328729.2354877,-8857.7642157299,3045428.0335874,11.083628362836,0,0
-159.30216015649,93.205597061309,5.8880588058806,1328729.2354877,-8857.7642157299,3045428.0335874,11.088058805881,0,0
-159.30215996759,93.257043249349,5.8924892489249,1328729.2354877,-8857.7642157299,3045428.0335874,11.092489248925,0,0
-159.30215977868,93.308489437389,5.8969196919692,1328729.2354877,-8857.7642157299,3045428.0335874,11.096919691969,0,0
-159.30215958978,93.359935625428,5.9013501350135,1328729.2354877,-8857.7642157299,3045428.0335874,11.101350135014,0,0
-159.30215940088,93.411381813468,5.9057805780578,1328729.2354877,-8857.7642157299,3045428.0335874,11.105780578058,0,0
-159.30215921197,93.462828001508,5.9102110211021,1328729.2354877,-8857.7642157299,3045428.0335874,11.110211021102,0,0
-159.30215902307,93.514274189548,5.9146414641464,1328729.2354877,-8857.7642157299,3045428.0335874,11.114641464146,0,0
-159.30215883416,93.565720377587,5.9190719071907,1328729.2354877,-8857.7642157299,3045428.0335874,11.119071907191,0,0
-159.30215864526,93.617166565627,5.923502350235,1328729.2354877,-8857.7642157299,3045428.0335874,11.123502350235,0,0
-159.30215845636,93.668612753667,5.9279327932793,1328729.2354877,-8857.7642157299,3045428.0335874,11.127932793279,0,0
-159.30215826745,93.720058941707,5.9323632363236,1328729.2354877,-8857.7642157299,3045428.0335874,11.132363236324,0,0
-159.30215807855,93.771505129746,5.9367936793679,1328729.2354877,-8857.7642157299,3045428.0335874,11.136793679368,0,0
-159.30215788964,93.822951317786,5.9412241224122,1328729.2354877,-8857.7642157299,3045428.0335874,11.141224122412,0,0
-159.30215770074,93.874397505826,5.9456545654565,1328729.2354877,-8857.7642157299,3045428.0335874,11.145654565457,0,0
-159.30215751184,93.925843693865,5.9500850085008,1328729.2354877,-8857.7642157299,3045428.0335874,11.150085008501,0,0
-159.30215732293,93.977289881905,5.9545154515452,1328729.2354877,-8857.7642157299,3045428.0335874,11.154515451545,0,0
-159.30215713403,94.028736069945,5.9589458945895,1328729.2354877,-8857.7642157299,3045428.0335874,11.158945894589,0,0
-159.30215694512,94.080182257985,5.9633763376338,1328729.2354877,-8857.7642157299,3045428.0335874,11.163376337634,0,0
-159.30215675622,94.131628446024,5.9678067806781,1328729.2354877,-8857.7642157299,3045428.0335874,11.167806780678,0,0
-159.30215656732,94.183074634064,5.9722372237224,1328729.2354877,-8857.7642157299,3045428.0335874,11.172237223722,0,0
-159.30215637841,94.234520822104,5.9766676667667,1328729.2354877,-8857.7642157299,3045428.0335874,11.176667666767,0,0
-159.30215618951,94.285967010144,5.981098109811,1328729.2354877,-8857.7642157299,3045428.0335874,11.181098109811,0,0
-159.3021560006,94.337413198183,5.9855285528553,1328729.2354877,-8857.7642157299,3045428.0335874,11.185528552855,0,0
-159.3021558117,94.388859386223,5.9899589958996,1328729.2354877,-8857.7642157299,3045428.0335874,11.1899589959,0,0
-159.3021556228,94.440305574263,5.9943894389439,1328729.2354877,-8857.7642157299,3045428.0335874,11.194389438944,0,0
-159.30215543389,94.491751762302,5.9988198819882,1328729.2354877,-8857.7642157299,3045428.0335874,11.198819881988,0,0
-159.30215524499,94.543197950342,6.0032503250325,1328729.2354877,-8857.7642157299,3045428.0335874,11.203250325033,0,0
-159.30215505609,94.594644138382,6.0076807680768,1328729.2354877,-8857.7642157299,3045428.0335874,11.207680768077,0,0
-159.30215486718,94.646090326422,6.0121112111211,1328729.2354877,-8857.7642157299,3045428.0335874,11.212111211121,0,0
-159.30215467828,94.697536514461,6.0165416541654,1328729.2354877,-8857.7642157299,3045428.0335874,11.216541654165,0,0
-159.30215448937,94.748982702501,6.0209720972097,1328729.2354877,-8857.7642157299,3045428.0335874,11.22097209721,0,0
-159.30215430047,94.800428890541,6.025402540254,1328729.2354877,-8857.7642157299,3045428.0335874,11.225402540254,0,0
-159.30215411157,94.85187507858,6.0298329832983,1328729.2354877,-8857.7642157299,3045428.0335874,11.229832983298,0,0
-159.30215392266,94.90332126662,6.0342634263426,1328729.2354877,-8857.7642157299,3045428.0335874,11.234263426343,0,0
-159.30215373376,94.95476745466,6.0386938693869,1328729.2354877,-8857.7642157299,3045428.0335874,11.238693869387,0,0
-159.30215354485,95.0062136427,6.0431243124312,1328729.2354877,-8857.7642157299,3045428.0335874,11.243124312431,0,0
-159.30215335595,95.057659830739,6.0475547554755,1328729.2354877,-8857.7642157299,3045428.0335874,11.247554755476,0,0
-159.30215316705,95.109106018779,6.0519851985199,1328729.2354877,-8857.7642157299,3045428.0335874,11.25198519852,0,0
-159.30215297814,95.160552206819,6.0564156415642,1328729.2354877,-8857.7642157299,3045428.0335874,11.256415641564,0,0
-159.30215278924,95.211998394859,6.0608460846085,1328729.2354877,-8857.7642157299,3045428.0335874,11.260846084608,0,0
-159.30215260021,95.263444585057,6.0652765276528,1326514.6189453,7893.7605319968,3030830.626244,11.265276527653,0,0
-159.3021524109,95.314890780263,6.0697069706971,1326514.6189453,7893.7605319968,3030830.626244,11.269706970697,0,0
-159.3021522216,95.36633697547,6.0741374137414,1326514.6189453,7893.7605319968,3030830.626244,11.274137413741,0,0
-159.30215203229,95.417783170677,6.0785678567857,1326514.6189453,7893.7605319968,3030830.626244,11.278567856786,0,0
-159.30215184298,95.469229365883,6.08299829983,1326514.6189453,7893.7605319968,3030830.626244,11.28299829983,0,0
-159.30215165367,95.52067556109,6.0874287428743,1326514.6189453,7893.7605319968,3030830.626244,11.287428742874,0,0
-159.30215146437,95.572121756297,6.0918591859186,1326514.6189453,7893.7605319968,3030830.626244,11.291859185919,0,0
-159.30215127506,95.623567951503,6.0962896289629,1326514.6189453,7893.7605319968,3030830.626244,11.296289628963,0,0
-159.30215108575,95.67501414671,6.1007200720072,1326514.6189453,7893.7605319968,3030830.626244,11.300720072007,0,0
-159.30215089644,95.726460341916,6.1051505150515,1326514.6189453,7893.7605319968,3030830.626244,11.305150515052,0,0
-159.30215070713,95.777906537123,6.1095809580958,1326514.6189453,7893.7605319968,3030830.626244,11.309580958096,0,0
-159.30215051783,95.82935273233,6.1140114011401,1326514.6189453,7893.7605319968,3030830.626244,11.31401140114,0,0
-159.30215032852,95.880798927536,6.1184418441844,1326514.6189453,7893.7605319968,3030830.626244,11.318441844184,0,0
-159.30215013921,95.932245122743,6.1228722872287,1326514.6189453,7893.7605319968,3030830.626244,11.322872287229,0,0
-159.3021499499,95.983691317949,6.127302730273,1326514.6189453,7893.7605319968,3030830.626244,11.327302730273,0,0
-159.3021497606,96.035137513156,6.1317331733173,1326514.6189453,7893.7605319968,3030830.626244,11.331733173317,0,0
-159.30214957129,96.086583708363,6.1361636163616,1326514.6189453,7893.7605319968,3030830.626244,11.336163616362,0,0
-159.30214938198,96.138029903569,6.1405940594059,1326514.6189453,7893.7605319968,3030830.626244,11.340594059406,0,0
-159.30214919267,96.189476098776,6.1450245024502,1326514.6189453,7893.7605319968,3030830.626244,11.34502450245,0,0
-159.30214900336,96.240922293982,6.1494549454945,1326514.6189453,7893.7605319968,3030830.626244,11.349454945495,0,0
-159.30214881406,96.292368489189,6.1538853885389,1326514.6189453,7893.7605319968,3030830.626244,11.353885388539,0,0
-159.30214862475,96.343814684396,6.1583158315832,1326514.6189453,7893.7605319968,3030830.626244,11.358315831583,0,0
-159.30214843544,96.395260879602,6.1627462746275,1326514.6189453,7893.7605319968,3030830.626244,11.362746274627,0,0
-159.30214824613,96.446707074809,6.1671767176718,1326514.6189453,7893.7605319968,3030830.626244,11.367176717672,0,0
-159.30214805682,96.498153270015,6.1716071607161,1326514.6189453,7893.7605319968,3030830.626244,11.371607160716,0,0
-159.30214786752,96.549599465222,6.1760376037604,1326514.6189453,7893.7605319968,3030830.626244,11.37603760376,0,0
-159.30214767821,96.601045660429,6.1804680468047,1326514.6189453,7893.7605319968,3030830.626244,11.380468046805,0,0
-159.3021474889,96.652491855635,6.184898489849,1326514.6189453,7893.7605319968,3030830.626244,11.384898489849,0,0
-159.30214729959,96.703938050842,6.1893289328933,1326514.6189453,7893.7605319968,3030830.626244,11.389328932893,0,0
-159.30214711029,96.755384246048,6.1937593759376,1326514.6189453,7893.7605319968,3030830.626244,11.393759375938,0,0
-159.30214692098,96.806830441255,6.1981898189819,1326514.6189453,7893.7605319968,3030830.626244,11.398189818982,0,0
-159.30214673167,96.858276636462,6.2026202620262,1326514.6189453,7893.7605319968,3030830.626244,11.402620262026,0,0
-159.30214654236,96.909722831668,6.2070507050705,1326514.6189453,7893.7605319968,3030830.626244,11.407050705071,0,0
-159.30214635305,96.961169026875,6.2114811481148,1326514.6189453,7893.7605319968,3030830.626244,11.411481148115,0,0
-159.30214616375,97.012615222082,6.2159115911591,1326514.6189453,7893.7605319968,3030830.626244,11.415911591159,0,0
-159.30214597444,97.064061417288,6.2203420342034,1326514.6189453,7893.7605319968,3030830.626244,11.420342034203,0,0
-159.30214578513,97.115507612495,6.2247724772477,1326514.6189453,7893.7605319968,3030830.626244,11.424772477248,0,0
-159.30214559582,97.166953807701,6.229202920292,1326514.6189453,7893.7605319968,3030830.626244,11.429202920292,0,0
-159.30214540652,97.218400002908,6.2336333633363,1326514.6189453,7893.7605319968,3030830.626244,11.433633363336,0,0
-159.30214521721,97.269846198115,6.2380638063806,1326514.6189453,7893.7605319968,3030830.626244,11.438063806381,0,0
-159.3021450279,97.321292393321,6.2424942494249,1326514.6189453,7893.7605319968,3030830.626244,11.442494249425,0,0
-159.30214483859,97.372738588528,6.2469246924692,1326514.6189453,7893.7605319968,3030830.626244,11.446924692469,0,0
-159.30214464928,97.424184783734,6.2513551355136,1326514.6189453,7893.7605319968,3030830.626244,11.451355135514,0,0
-159.30214445998,97.475630978941,6.2557855785579,1326514.6189453,7893.7605319968,3030830.626244,11.455785578558,0,0
-159.30214427067,97.527077174148,6.2602160216022,1326514.6189453,7893.7605319968,3030830.626244,11.460216021602,0,0
-159.30214408136,97.578523369354,6.2646464646465,1326514.6189453,7893.7605319968,3030830.626244,11.464646464646,0,0
-159.30214389205,97.629969564561,6.2690769076908,1326514.6189453,7893.7605319968,3030830.626244,11.469076907691,0,0
-159.30214370275,97.681415759767,6.2735073507351,1326514.6189453,7893.7605319968,3030830.626244,11.473507350735,0,0
-159.30214351344,97.732861954974,6.2779377937794,1326514.6189453,7893.7605319968,3030830.626244,11.477937793779,0,0
-159.30214332413,97.784308150181,6.2823682368237,1326514.6189453,7893.7605319968,3030830.626244,11.482368236824,0,0
-159.30214313482,97.835754345387,6.286798679868,1326514.6189453,7893.7605319968,3030830.626244,11.486798679868,0,0
-159.30214294551,97.887200540594,6.2912291229123,1326514.6189453,7893.7605319968,3030830.626244,11.491229122912,0,0
-159.30214275621,97.9386467358,6.2956595659566,1326514.6189453,7893.7605319968,3030830.626244,11.495659565957,0,0
-159.3021425669,97.990092931007,6.3000900090009,1326514.6189453,7893.7605319968,3030830.626244,11.500090009001,0,0
-159.30214237759,98.041539126214,6.3045204520452,1326514.6189453,7893.7605319968,3030830.626244,11.504520452045,0,0
-159.30214218828,98.09298532142,6.3089508950895,1326514.6189453,7893.7605319968,3030830.626244,11.50895089509,0,0
-159.30214199898,98.144431516627,6.3133813381338,1326514.6189453,7893.7605319968,3030830.626244,11.513381338134,0,0
-159.30214180967,98.195877711833,6.3178117811781,1326514.6189453,7893.7605319968,3030830.626244,11.517811781178,0,0
-159.30214162036,98.24732390704,6.3222422242224,1326514.6189453,7893.7605319968,3030830.626244,11.522242224222,0,0
-159.30214143105,98.298770102247,6.3266726672667,1326514.6189453,7893.7605319968,3030830.626244,11.526672667267,0,0
-159.30214124174,98.350216297453,6.331103110311,1326514.6189453,7893.7605319968,3030830.626244,11.531103110311,0,0
-159.30214105244,98.40166249266,6.3355335533553,1326514.6189453,7893.7605319968,3030830.626244,11.535533553355,0,0
-159.30214086313,98.453108687866,6.3399639963996,1326514.6189453,7893.7605319968,3030830.626244,11.5399639964,0,0
-159.30214067382,98.504554883073,6.3443944394439,1326514.6189453,7893.7605319968,3030830.626244,11.544394439444,0,0
-159.30214048451,98.55600107828,6.3488248824882,1326514.6189453,7893.7605319968,3030830.626244,11.548824882488,0,0
-159.30214029521,98.607447273486,6.3532553255326,1326514.6189453,7893.7605319968,3030830.626244,11.553255325533,0,0
-159.3021401059,98.658893468693,6.3576857685769,1326514.6189453,7893.7605319968,3030830.626244,11.557685768577,0,0
-159.30213991659,98.7103396639,6.3621162116212,1326514.6189453,7893.7605319968,3030830.626244,11.562116211621,0,0
-159.30213972728,98.761785859106,6.3665466546655,1326514.6189453,7893.7605319968,3030830.626244,11.566546654665,0,0
-159.30213953797,98.813232054313,6.3709770977098,1326514.6189453,7893.7605319968,3030830.626244,11.57097709771,0,0
-159.30213934867,98.864678249519,6.3754075407541,1326514.6189453,7893.7605319968,3030830.626244,11.575407540754,0,0
-159.30213915936,98.916124444726,6.3798379837984,1326514.6189453,7893.7605319968,3030830.626244,11.579837983798,0,0
-159.30213897005,98.967570639933,6.3842684268427,1326514.6189453,7893.7605319968,3030830.626244,11.584268426843,0,0
-159.30213878074,99.019016835139,6.388698869887,1326514.6189453,7893.7605319968,3030830.626244,11.588698869887,0,0
-159.30213859143,99.070463030346,6.3931293129313,1326514.6189453,7893.7605319968,3030830.626244,11.593129312931,0,0
-159.30213840213,99.121909225552,6.3975597559756,1326514.6189453,7893.7605319968,3030830.626244,11.597559755976,0,0
-159.30213821282,99.173355420759,6.4019901990199,1326514.6189453,7893.7605319968,3030830.626244,11.60199019902,0,0
-159.30213802351,99.224801615966,6.4064206420642,1326514.6189453,7893.7605319968,3030830.626244,11.606420642064,0,0
-159.3021378342,99.276247811172,6.4108510851085,1326514.6189453,7893.7605319968,3030830.626244,11.610851085109,0,0
-159.3021376449,99.327694006379,6.4152815281528,1326514.6189453,7893.7605319968,3030830.626244,11.615281528153,0,0
-159.30213745559,99.379140201585,6.4197119711971,1326514.6189453,7893.7605319968,3030830.626244,11.619711971197,0,0
-159.30213726628,99.430586396792,6.4241424142414,1326514.6189453,7893.7605319968,3030830.626244,11.624142414241,0,0
-159.30213707697,99.482032591999,6.4285728572857,1326514.6189453,7893.7605319968,3030830.626244,11.628572857286,0,0
-159.30213688766,99.533478787205,6.43300330033,1326514.6189453,7893.7605319968,3030830.626244,11.63300330033,0,0
-159.30213669836,99.584924982412,6.4374337433743,1326514.6189453,7893.7605319968,3030830.626244,11.637433743374,0,0
-159.30213650905,99.636371177618,6.4418641864186,1326514.6189453,7893.7605319968,3030830.626244,11.641864186419,0,0
-159.30213631974,99.687817372825,6.4462946294629,1326514.6189453,7893.7605319968,3030830.626244,11.646294629463,0,0
-159.30213613043,99.739263568032,6.4507250725072,1326514.6189453,7893.7605319968,3030830.626244,11.650725072507,0,0
-159.30213594113,99.790709763238,6.4551555155516,1326514.6189453,7893.7605319968,3030830.626244,11.655155515552,0,0
-159.30213575182,99.842155958445,6.4595859585959,1326514.6189453,7893.7605319968,3030830.626244,11.659585958596,0,0
-159.30213556109,99.893602149204,6.4640164016402,1329068.7833721,-7576.400632829,2983398.631804,11.66401640164,0,0
-159.30213536892,99.945048335463,6.4684468446845,1329068.7833721,-7576.400632829,2983398.631804,11.668446844684,0,0
-159.30213517676,99.996494521722,6.4728772877288,1329068.7833721,-7576.400632829,2983398.631804,11.672877287729,0,0
-159.30213498459,100.04794070798,6.4773077307731,1329068.7833721,-7576.400632829,2983398.631804,11.677307730773,0,0
-159.30213479243,100.09938689424,6.4817381738174,1329068.7833721,-7576.400632829,2983398.631804,11.681738173817,0,0
-159.30213460026,100.1508330805,6.4861686168617,1329068.7833721,-7576.400632829,2983398.631804,11.686168616862,0,0
-159.3021344081,100.20227926676,6.490599059906,1329068.7833721,-7576.400632829,2983398.631804,11.690599059906,0,0
-159.30213421593,100.25372545302,6.4950295029503,1329068.7833721,-7576.400632829,2983398.631804,11.69502950295,0,0
-159.30213402377,100.30517163928,6.4994599459946,1329068.7833721,-7576.400632829,2983398.631804,11.699459945995,0,0
-159.3021338316,100.35661782554,6.5038903890389,1329068.7833721,-7576.400632829,2983398.631804,11.703890389039,0,0
-159.30213363943,100.40806401179,6.5083208320832,1329068.7833721,-7576.400632829,2983398.631804,11.708320832083,0,0
-159.30213344727,100.45951019805,6.5127512751275,1329068.7833721,-7576.400632829,2983398.631804,11.712751275128,0,0
-159.3021332551,100.51095638431,6.5171817181718,1329068.7833721,-7576.400632829,2983398.631804,11.717181718172,0,0
-159.30213306294,100.56240257057,6.5216121612161,1329068.7833721,-7576.400632829,2983398.631804,11.721612161216,0,0
-159.30213287077,100.61384875683,6.5260426042604,1329068.7833721,-7576.400632829,2983398.631804,11.72604260426,0,0
-159.30213267861,100.66529494309,6.5304730473047,1329068.7833721,-7576.400632829,2983398.631804,11.730473047305,0,0
-159.30213248644,100.71674112935,6.534903490349,1329068.7833721,-7576.400632829,2983398.631804,11.734903490349,0,0
-159.30213229428,100.76818731561,6.5393339333933,1329068.7833721,-7576.400632829,2983398.631804,11.739333933393,0,0
-159.30213210211,100.81963350187,6.5437643764376,1329068.7833721,-7576.400632829,2983398.631804,11.743764376438,0,0
-159.30213190994,100.87107968813,6.5481948194819,1329068.7833721,-7576.400632829,2983398.631804,11.748194819482,0,0
-159.30213171778,100.92252587438,6.5526252625263,1329068.7833721,-7576.400632829,2983398.631804,11.752625262526,0,0
-159.30213152561,100.97397206064,6.5570557055706,1329068.7833721,-7576.400632829,2983398.631804,11.757055705571,0,0
-159.30213133345,101.0254182469,6.5614861486149,1329068.7833721,-7576.400632829,2983398.631804,11.761486148615,0,0
-159.30213114128,101.07686443316,6.5659165916592,1329068.7833721,-7576.400632829,2983398.631804,11.765916591659,0,0
-159.30213094912,101.12831061942,6.5703470347035,1329068.7833721,-7576.400632829,2983398.631804,11.770347034703,0,0
-159.30213075695,101.17975680568,6.5747774777478,1329068.7833721,-7576.400632829,2983398.631804,11.774777477748,0,0
-159.30213056479,101.23120299194,6.5792079207921,1329068.7833721,-7576.400632829,2983398.631804,11.779207920792,0,0
-159.30213037262,101.2826491782,6.5836383638364,1329068.7833721,-7576.400632829,2983398.631804,11.783638363836,0,0
-159.30213018045,101.33409536446,6.5880688068807,1329068.7833721,-7576.400632829,2983398.631804,11.788068806881,0,0
-159.30212998829,101.38554155072,6.592499249925,1329068.7833721,-7576.400632829,2983398.631804,11.792499249925,0,0
-159.30212979612,101.43698773697,6.5969296929693,1329068.7833721,-7576.400632829,2983398.631804,11.796929692969,0,0
-159.30212960396,101.48843392323,6.6013601360136,1329068.7833721,-7576.400632829,2983398.631804,11.801360136014,0,0
-159.30212941179,101.53988010949,6.6057905790579,1329068.7833721,-7576.400632829,2983398.631804,11.805790579058,0,0
-159.30212921963,101.59132629575,6.6102210221022,1329068.7833721,-7576.400632829,2983398.631804,11.810221022102,0,0
-159.30212902746,101.64277248201,6.6146514651465,1329068.7833721,-7576.400632829,2983398.631804,11.814651465147,0,0
-159.3021288353,101.69421866827,6.6190819081908,1329068.7833721,-7576.400632829,2983398.631804,11.819081908191,0,0
-159.30212864313,101.74566485453,6.6235123512351,1329068.7833721,-7576.400632829,2983398.631804,11.823512351235,0,0
-159.30212845096,101.79711104079,6.6279427942794,1329068.7833721,-7576.400632829,2983398.631804,11.827942794279,0,0
-159.3021282588,101.84855722705,6.6323732373237,1329068.7833721,-7576.400632829,2983398.631804,11.832373237324,0,0
-159.30212806663,101.90000341331,6.636803680368,1329068.7833721,-7576.400632829,2983398.631804,11.836803680368,0,0
-159.30212787447,101.95144959956,6.6412341234123,1329068.7833721,-7576.400632829,2983398.631804,11.841234123412,0,0
-159.3021276823,102.00289578582,6.6456645664566,1329068.7833721,-7576.400632829,2983398.631804,11.845664566457,0,0
-159.30212749014,102.05434197208,6.650095009501,1329068.7833721,-7576.400632829,2983398.631804,11.850095009501,0,0
-159.30212729797,102.10578815834,6.6545254525453,1329068.7833721,-7576.400632829,2983398.631804,11.854525452545,0,0
-159.30212710581,102.1572343446,6.6589558955896,1329068.7833721,-7576.400632829,2983398.631804,11.85895589559,0,0
-159.30212691364,102.20868053086,6.6633863386339,1329068.7833721,-7576.400632829,2983398.631804,11.863386338634,0,0
-159.30212672148,102.26012671712,6.6678167816782,1329068.7833721,-7576.400632829,2983398.631804,11.867816781678,0,0
-159.30212652931,102.31157290338,6.6722472247225,1329068.7833721,-7576.400632829,2983398.631804,11.872247224722,0,0
-159.30212633714,102.36301908964,6.6766776677668,1329068.7833721,-7576.400632829,2983398.631804,11.876677667767,0,0
-159.30212614498,102.4144652759,6.6811081108111,1329068.7833721,-7576.400632829,2983398.631804,11.881108110811,0,0
-159.30212595281,102.46591146215,6.6855385538554,1329068.7833721,-7576.400632829,2983398.631804,11.885538553855,0,0
-159.30212576065,102.51735764841,6.6899689968997,1329068.7833721,-7576.400632829,2983398.631804,11.8899689969,0,0
-159.30212556848,102.56880383467,6.694399439944,1329068.7833721,-7576.400632829,2983398.631804,11.894399439944,0,0
-159.30212537632,102.62025002093,6.6988298829883,1329068.7833721,-7576.400632829,2983398.631804,11.898829882988,0,0
-159.30212518415,102.67169620719,6.7032603260326,1329068.7833721,-7576.400632829,2983398.631804,11.903260326033,0,0
-159.30212499199,102.72314239345,6.7076907690769,1329068.7833721,-7576.400632829,2983398.631804,11.907690769077,0,0
-159.30212479982,102.77458857971,6.7121212121212,1329068.7833721,-7576.400632829,2983398.631804,11.912121212121,0,0
-159.30212460765,102.82603476597,6.7165516551655,1329068.7833721,-7576.400632829,2983398.631804,11.916551655166,0,0
-159.30212441549,102.87748095223,6.7209820982098,1329068.7833721,-7576.400632829,2983398.631804,11.92098209821,0,0
-159.30212422332,102.92892713849,6.7254125412541,1329068.7833721,-7576.400632829,2983398.631804,11.925412541254,0,0
-159.30212403116,102.98037332474,6.7298429842984,1329068.7833721,-7576.400632829,2983398.631804,11.929842984298,0,0
-159.30212383875,103.03181951386,6.7342734273427,1327022.3562329,7686.4013825915,2966442.8859197,11.934273427343,0,0
-159.30212364604,103.08326570675,6.738703870387,1327022.3562329,7686.4013825915,2966442.8859197,11.938703870387,0,0
-159.30212345332,103.13471189964,6.7431343134313,1327022.3562329,7686.4013825915,2966442.8859197,11.943134313431,0,0
-159.3021232606,103.18615809253,6.7475647564756,1327022.3562329,7686.4013825915,2966442.8859197,11.947564756476,0,0
-159.30212306788,103.23760428543,6.75199519952,1327022.3562329,7686.4013825915,2966442.8859197,11.95199519952,0,0
-159.30212287516,103.28905047832,6.7564256425643,1327022.3562329,7686.4013825915,2966442.8859197,11.956425642564,0,0
-159.30212268245,103.34049667121,6.7608560856086,1327022.3562329,7686.4013825915,2966442.8859197,11.960856085609,0,0
-159.30212248973,103.3919428641,6.7652865286529,1327022.3562329,7686.4013825915,2966442.8859197,11.965286528653,0,0
-159.30212229701,103.44338905699,6.7697169716972,1327022.3562329,7686.4013825915,2966442.8859197,11.969716971697,0,0
-159.30212210429,103.49483524988,6.7741474147415,1327022.3562329,7686.4013825915,2966442.8859197,11.974147414741,0,0
-159.30212191157,103.54628144277,6.7785778577858,1327022.3562329,7686.4013825915,2966442.8859197,11.978577857786,0,0
-159.30212171886,103.59772763566,6.7830083008301,1327022.3562329,7686.4013825915,2966442.8859197,11.98300830083,0,0
-159.30212152614,103.64917382855,6.7874387438744,1327022.3562329,7686.4013825915,2966442.8859197,11.987438743874,0,0
-159.30212133342,103.70062002144,6.7918691869187,1327022.3562329,7686.4013825915,2966442.8859197,11.991869186919,0,0
-159.3021211407,103.75206621434,6.796299629963,1327022.3562329,7686.4013825915,2966442.8859197,11.996299629963,0,0
-159.30212094798,103.80351240723,6.8007300730073,1327022.3562329,7686.4013825915,2966442.8859197,12.000730073007,0,0
-159.30212075527,103.85495860012,6.8051605160516,1327022.3562329,7686.4013825915,2966442.8859197,12.005160516052,0,0
-159.30212056255,103.90640479301,6.8095909590959,1327022.3562329,7686.4013825915,2966442.8859197,12.009590959096,0,0
-159.30212036983,103.9578509859,6.8140214021402,1327022.3562329,7686.4013825915,2966442.8859197,12.01402140214,0,0
-159.30212017711,104.00929717879,6.8184518451845,1327022.3562329,7686.4013825915,2966442.8859197,12.018451845185,0,0
-159.30211998439,104.06074337168,6.8228822882288,1327022.3562329,7686.4013825915,2966442.8859197,12.022882288229,0,0
-159.30211979168,104.11218956457,6.8273127312731,1327022.3562329,7686.4013825915,2966442.8859197,12.027312731273,0,0
-159.30211959896,104.16363575746,6.8317431743174,1327022.3562329,7686.4013825915,2966442.8859197,12.031743174317,0,0
-159.30211940624,104.21508195036,6.8361736173617,1327022.3562329,7686.4013825915,2966442.8859197,12.036173617362,0,0
-159.30211921352,104.26652814325,6.840604060406,1327022.3562329,7686.4013825915,2966442.8859197,12.040604060406,0,0
-159.3021190208,104.31797433614,6.8450345034503,1327022.3562329,7686.4013825915,2966442.8859197,12.04503450345,0,0
-159.30211882809,104.36942052903,6.8494649464946,1327022.3562329,7686.4013825915,2966442.8859197,12.049464946495,0,0
-159.30211863537,104.42086672192,6.853895389539,1327022.3562329,7686.4013825915,2966442.8859197,12.053895389539,0,0
-159.30211844265,104.47231291481,6.8583258325833,1327022.3562329,7686.4013825915,2966442.8859197,12.058325832583,0,0
-159.30211824993,104.5237591077,6.8627562756276,1327022.3562329,7686.4013825915,2966442.8859197,12.062756275628,0,0
-159.30211805721,104.57520530059,6.8671867186719,1327022.3562329,7686.4013825915,2966442.8859197,12.067186718672,0,0
-159.3021178645,104.62665149348,6.8716171617162,1327022.3562329,7686.4013825915,2966442.8859197,12.071617161716,0,0
-159.30211767178,104.67809768638,6.8760476047605,1327022.3562329,7686.4013825915,2966442.8859197,12.07604760476,0,0
-159.30211747906,104.72954387927,6.8804780478048,1327022.3562329,7686.4013825915,2966442.8859197,12.080478047805,0,0
-159.30211728634,104.78099007216,6.8849084908491,1327022.3562329,7686.4013825915,2966442.8859197,12.084908490849,0,0
-159.30211709362,104.83243626505,6.8893389338934,1327022.3562329,7686.4013825915,2966442.8859197,12.089338933893,0,0
-159.30211690091,104.88388245794,6.8937693769377,1327022.3562329,7686.4013825915,2966442.8859197,12.093769376938,0,0
-159.30211670819,104.93532865083,6.898199819982,1327022.3562329,7686.4013825915,2966442.8859197,12.098199819982,0,0
-159.30211651547,104.98677484372,6.9026302630263,1327022.3562329,7686.4013825915,2966442.8859197,12.102630263026,0,0
-159.30211632275,105.03822103661,6.9070607060706,1327022.3562329,7686.4013825915,2966442.8859197,12.107060706071,0,0
-159.30211613003,105.0896672295,6.9114911491149,1327022.3562329,7686.4013825915,2966442.8859197,12.111491149115,0,0
-159.30211593732,105.1411134224,6.9159215921592,1327022.3562329,7686.4013825915,2966442.8859197,12.115921592159,0,0
-159.3021157446,105.19255961529,6.9203520352035,1327022.3562329,7686.4013825915,2966442.8859197,12.120352035204,0,0
-159.30211555188,105.24400580818,6.9247824782478,1327022.3562329,7686.4013825915,2966442.8859197,12.124782478248,0,0
-159.30211535916,105.29545200107,6.9292129212921,1327022.3562329,7686.4013825915,2966442.8859197,12.129212921292,0,0
-159.30211516644,105.34689819396,6.9336433643364,1327022.3562329,7686.4013825915,2966442.8859197,12.133643364336,0,0
-159.30211497373,105.39834438685,6.9380738073807,1327022.3562329,7686.4013825915,2966442.8859197,12.138073807381,0,0
-159.30211478101,105.44979057974,6.942504250425,1327022.3562329,7686.4013825915,2966442.8859197,12.142504250425,0,0
-159.30211458829,105.50123677263,6.9469346934693,1327022.3562329,7686.4013825915,2966442.8859197,12.146934693469,0,0
-159.30211439557,105.55268296552,6.9513651365137,1327022.3562329,7686.4013825915,2966442.8859197,12.151365136514,0,0
-159.30211420285,105.60412915842,6.955795579558,1327022.3562329,7686.4013825915,2966442.8859197,12.155795579558,0,0
-159.30211401014,105.65557535131,6.9602260226023,1327022.3562329,7686.4013825915,2966442.8859197,12.160226022602,0,0
-159.30211381742,105.7070215442,6.9646564656466,1327022.3562329,7686.4013825915,2966442.8859197,12.164656465647,0,0
-159.3021136247,105.75846773709,6.9690869086909,1327022.3562329,7686.4013825915,2966442.8859197,12.169086908691,0,0
-159.30211343198,105.80991392998,6.9735173517352,1327022.3562329,7686.4013825915,2966442.8859197,12.173517351735,0,0
-159.30211323926,105.86136012287,6.9779477947795,1327022.3562329,7686.4013825915,2966442.8859197,12.177947794779,0,0
-159.30211304655,105.91280631576,6.9823782378238,1327022.3562329,7686.4013825915,2966442.8859197,12.182378237824,0,0
-159.30211285383,105.96425250865,6.9868086808681,1327022.3562329,7686.4013825915,2966442.8859197,12.186808680868,0,0
-159.30211266111,106.01569870154,6.9912391239124,1327022.3562329,7686.4013825915,2966442.8859197,12.191239123912,0,0
-159.30211246839,106.06714489444,6.9956695669567,1327022.3562329,7686.4013825915,2966442.8859197,12.195669566957,0,0
-159.30211227567,106.11859108733,7.000100010001,1327022.3562329,7686.4013825915,2966442.8859197,12.200100010001,0,0
-159.30211208296,106.17003728022,7.0045304530453,1327022.3562329,7686.4013825915,2966442.8859197,12.204530453045,0,0
-159.30211189024,106.22148347311,7.0089608960896,1327022.3562329,7686.4013825915,2966442.8859197,12.20896089609,0,0
-159.30211169752,106.272929666,7.0133913391339,1327022.3562329,7686.4013825915,2966442.8859197,12.213391339134,0,0
-159.3021115048,106.32437585889,7.0178217821782,1327022.3562329,7686.4013825915,2966442.8859197,12.217821782178,0,0
-159.30211131208,106.37582205178,7.0222522252225,1327022.3562329,7686.4013825915,2966442.8859197,12.222252225223,0,0
-159.30211111937,106.42726824467,7.0266826682668,1327022.3562329,7686.4013825915,2966442.8859197,12.226682668267,0,0
-159.30211092665,106.47871443756,7.0311131113111,1327022.3562329,7686.4013825915,2966442.8859197,12.231113111311,0,0
-159.30211073393,106.53016063046,7.0355435543554,1327022.3562329,7686.4013825915,2966442.8859197,12.235543554355,0,0
-159.30211054121,106.58160682335,7.0399739973997,1327022.3562329,7686.4013825915,2966442.8859197,12.2399739974,0,0
-159.30211034849,106.63305301624,7.044404440444,1327022.3562329,7686.4013825915,2966442.8859197,12.244404440444,0,0
-159.30211015578,106.68449920913,7.0488348834883,1327022.3562329,7686.4013825915,2966442.8859197,12.248834883488,0,0
-159.30210996306,106.73594540202,7.0532653265327,1327022.3562329,7686.4013825915,2966442.8859197,12.253265326533,0,0
-159.30210977034,106.78739159491,7.057695769577,1327022.3562329,7686.4013825915,2966442.8859197,12.257695769577,0,0
-159.30210957762,106.8388377878,7.0621262126213,1327022.3562329,7686.4013825915,2966442.8859197,12.262126212621,0,0
-159.3021093849,106.89028398069,7.0665566556656,1327022.3562329,7686.4013825915,2966442.8859197,12.266556655666,0,0
-159.30210919219,106.94173017358,7.0709870987099,1327022.3562329,7686.4013825915,2966442.8859197,12.27098709871,0,0
-159.30210899947,106.99317636648,7.0754175417542,1327022.3562329,7686.4013825915,2966442.8859197,12.275417541754,0,0
-159.30210880675,107.04462255937,7.0798479847985,1327022.3562329,7686.4013825915,2966442.8859197,12.279847984798,0,0
-159.30210861403,107.09606875226,7.0842784278428,1327022.3562329,7686.4013825915,2966442.8859197,12.284278427843,0,0
-159.30210842131,107.14751494515,7.0887088708871,1327022.3562329,7686.4013825915,2966442.8859197,12.288708870887,0,0
-159.3021082286,107.19896113804,7.0931393139314,1327022.3562329,7686.4013825915,2966442.8859197,12.293139313931,0,0
-159.30210803588,107.25040733093,7.0975697569757,1327022.3562329,7686.4013825915,2966442.8859197,12.297569756976,0,0
-159.30210784316,107.30185352382,7.10200020002,1327022.3562329,7686.4013825915,2966442.8859197,12.30200020002,0,0
-159.30210765044,107.35329971671,7.1064306430643,1327022.3562329,7686.4013825915,2966442.8859197,12.306430643064,0,0
-159.30210745772,107.4047459096,7.1108610861086,1327022.3562329,7686.4013825915,2966442.8859197,12.310861086109,0,0
-159.30210726501,107.4561921025,7.1152915291529,1327022.3562329,7686.4013825915,2966442.8859197,12.315291529153,0,0
-159.30210707229,107.50763829539,7.1197219721972,1327022.3562329,7686.4013825915,2966442.8859197,12.319721972197,0,0
-159.30210687957,107.55908448828,7.1241524152415,1327022.3562329,7686.4013825915,2966442.8859197,12.324152415242,0,0
-159.30210668685,107.61053068117,7.1285828582858,1327022.3562329,7686.4013825915,2966442.8859197,12.328582858286,0,0
-159.30210649413,107.66197687406,7.1330133013301,1327022.3562329,7686.4013825915,2966442.8859197,12.33301330133,0,0
-159.30210630142,107.71342306695,7.1374437443744,1327022.3562329,7686.4013825915,2966442.8859197,12.337443744374,0,0
-159.3021061087,107.76486925984,7.1418741874187,1327022.3562329,7686.4013825915,2966442.8859197,12.341874187419,0,0
-159.30210591598,107.81631545273,7.146304630463,1327022.3562329,7686.4013825915,2966442.8859197,12.346304630463,0,0
-159.30210572326,107.86776164562,7.1507350735073,1327022.3562329,7686.4013825915,2966442.8859197,12.350735073507,0,0
-159.30210553054,107.91920783852,7.1551655165517,1327022.3562329,7686.4013825915,2966442.8859197,12.355165516552,0,0
-159.30210533783,107.97065403141,7.159595959596,1327022.3562329,7686.4013825915,2966442.8859197,12.359595959596,0,0
-159.30210514511,108.0221002243,7.1640264026403,1327022.3562329,7686.4013825915,2966442.8859197,12.36402640264,0,0
-159.30210495239,108.07354641719,7.1684568456846,1327022.3562329,7686.4013825915,2966442.8859197,12.368456845685,0,0
-159.30210475967,108.12499261008,7.1728872887289,1327022.3562329,7686.4013825915,2966442.8859197,12.372887288729,0,0
-159.30210456695,108.17643880297,7.1773177317732,1327022.3562329,7686.4013825915,2966442.8859197,12.377317731773,0,0
-159.30210437424,108.22788499586,7.1817481748175,1327022.3562329,7686.4013825915,2966442.8859197,12.381748174817,0,0
-159.30210418152,108.27933118875,7.1861786178618,1327022.3562329,7686.4013825915,2966442.8859197,12.386178617862,0,0
-159.3021039888,108.33077738164,7.1906090609061,1327022.3562329,7686.4013825915,2966442.8859197,12.390609060906,0,0
-159.30210379608,108.38222357454,7.1950395039504,1327022.3562329,7686.4013825915,2966442.8859197,12.39503950395,0,0
-159.30210360336,108.43366976743,7.1994699469947,1327022.3562329,7686.4013825915,2966442.8859197,12.399469946995,0,0
-159.30210341065,108.48511596032,7.203900390039,1327022.3562329,7686.4013825915,2966442.8859197,12.403900390039,0,0
-159.30210321793,108.53656215321,7.2083308330833,1327022.3562329,7686.4013825915,2966442.8859197,12.408330833083,0,0
-159.30210302521,108.5880083461,7.2127612761276,1327022.3562329,7686.4013825915,2966442.8859197,12.412761276128,0,0
-159.30210283249,108.63945453899,7.2171917191719,1327022.3562329,7686.4013825915,2966442.8859197,12.417191719172,0,0
-159.30210263977,108.69090073188,7.2216221622162,1327022.3562329,7686.4013825915,2966442.8859197,12.421622162216,0,0
-159.30210244706,108.74234692477,7.2260526052605,1327022.3562329,7686.4013825915,2966442.8859197,12.426052605261,0,0
-159.30210225434,108.79379311766,7.2304830483048,1327022.3562329,7686.4013825915,2966442.8859197,12.430483048305,0,0
-159.30210206162,108.84523931056,7.2349134913491,1327022.3562329,7686.4013825915,2966442.8859197,12.434913491349,0,0
-159.3021018689,108.89668550345,7.2393439343934,1327022.3562329,7686.4013825915,2966442.8859197,12.439343934393,0,0
-159.30210167618,108.94813169634,7.2437743774377,1327022.3562329,7686.4013825915,2966442.8859197,12.443774377438,0,0
-159.30210148346,108.99957788923,7.248204820482,1327022.3562329,7686.4013825915,2966442.8859197,12.448204820482,0,0
-159.30210129075,109.05102408212,7.2526352635264,1327022.3562329,7686.4013825915,2966442.8859197,12.452635263526,0,0
-159.30210109803,109.10247027501,7.2570657065707,1327022.3562329,7686.4013825915,2966442.8859197,12.457065706571,0,0
-159.30210090531,109.1539164679,7.261496149615,1327022.3562329,7686.4013825915,2966442.8859197,12.461496149615,0,0
-159.30210071259,109.20536266079,7.2659265926593,1327022.3562329,7686.4013825915,2966442.8859197,12.465926592659,0,0
-159.30210051987,109.25680885368,7.2703570357036,1327022.3562329,7686.4013825915,2966442.8859197,12.470357035704,0,0
-159.30210032716,109.30825504658,7.2747874787479,1327022.3562329,7686.4013825915,2966442.8859197,12.474787478748,0,0
-159.30210013444,109.35970123947,7.2792179217922,1327022.3562329,7686.4013825915,2966442.8859197,12.479217921792,0,0
-159.30209994172,109.41114743236,7.2836483648365,1327022.3562329,7686.4013825915,2966442.8859197,12.483648364836,0,0
-159.302099749,109.46259362525,7.2880788078808,1327022.3562329,7686.4013825915,2966442.8859197,12.488078807881,0,0
-159.30209955628,109.51403981814,7.2925092509251,1327022.3562329,7686.4013825915,2966442.8859197,12.492509250925,0,0
-159.30209936357,109.56548601103,7.2969396939694,1327022.3562329,7686.4013825915,2966442.8859197,12.496939693969,0,0
-159.30209917085,109.61693220392,7.3013701370137,1327022.3562329,7686.4013825915,2966442.8859197,12.501370137014,0,0
-159.30209897813,109.66837839681,7.305800580058,1327022.3562329,7686.4013825915,2966442.8859197,12.505800580058,0,0
-159.30209878541,109.7198245897,7.3102310231023,1327022.3562329,7686.4013825915,2966442.8859197,12.510231023102,0,0
-159.30209859269,109.7712707826,7.3146614661466,1327022.3562329,7686.4013825915,2966442.8859197,12.514661466147,0,0
-159.30209839998,109.82271697549,7.3190919091909,1327022.3562329,7686.4013825915,2966442.8859197,12.519091909191,0,0
-159.30209820726,109.87416316838,7.3235223522352,1327022.3562329,7686.4013825915,2966442.8859197,12.523522352235,0,0
-159.30209801454,109.92560936127,7.3279527952795,1327022.3562329,7686.4013825915,2966442.8859197,12.52795279528,0,0
-159.30209782182,109.97705555416,7.3323832383238,1327022.3562329,7686.4013825915,2966442.8859197,12.532383238324,0,0
-159.3020976291,110.02850174705,7.3368136813681,1327022.3562329,7686.4013825915,2966442.8859197,12.536813681368,0,0
-159.30209743639,110.07994793994,7.3412441244124,1327022.3562329,7686.4013825915,2966442.8859197,12.541244124412,0,0
-159.30209724367,110.13139413283,7.3456745674567,1327022.3562329,7686.4013825915,2966442.8859197,12.545674567457,0,0
-159.30209705095,110.18284032572,7.350105010501,1327022.3562329,7686.4013825915,2966442.8859197,12.550105010501,0,0
-159.30209685823,110.23428651862,7.3545354535454,1327022.3562329,7686.4013825915,2966442.8859197,12.554535453545,0,0
-159.30209666551,110.28573271151,7.3589658965897,1327022.3562329,7686.4013825915,2966442.8859197,12.55896589659,0,0
-159.3020964728,110.3371789044,7.363396339634,1327022.3562329,7686.4013825915,2966442.8859197,12.563396339634,0,0
-159.30209628008,110.38862509729,7.3678267826783,1327022.3562329,7686.4013825915,2966442.8859197,12.567826782678,0,0
-159.30209608736,110.44007129018,7.3722572257226,1327022.3562329,7686.4013825915,2966442.8859197,12.572257225723,0,0
-159.30209589464,110.49151748307,7.3766876687669,1327022.3562329,7686.4013825915,2966442.8859197,12.576687668767,0,0
-159.30209570192,110.54296367596,7.3811181118112,1327022.3562329,7686.4013825915,2966442.8859197,12.581118111811,0,0
-159.30209550921,110.59440986885,7.3855485548555,1327022.3562329,7686.4013825915,2966442.8859197,12.585548554855,0,0
-159.30209531649,110.64585606174,7.3899789978998,1327022.3562329,7686.4013825915,2966442.8859197,12.5899789979,0,0
-159.30209512377,110.69730225464,7.3944094409441,1327022.3562329,7686.4013825915,2966442.8859197,12.594409440944,0,0
-159.30209492957,110.74874844169,7.3988398839884,1325772.1687301,-6399.850082517,2925712.4811796,12.598839883988,0,0
-159.30209473495,110.80019462704,7.4032703270327,1325772.1687301,-6399.850082517,2925712.4811796,12.603270327033,0,0
-159.30209454032,110.85164081239,7.407700770077,1325772.1687301,-6399.850082517,2925712.4811796,12.607700770077,0,0
-159.3020943457,110.90308699774,7.4121312131213,1325772.1687301,-6399.850082517,2925712.4811796,12.612131213121,0,0
-159.30209415107,110.95453318309,7.4165616561656,1325772.1687301,-6399.850082517,2925712.4811796,12.616561656166,0,0
-159.30209395644,111.00597936844,7.4209920992099,1325772.1687301,-6399.850082517,2925712.4811796,12.62099209921,0,0
-159.30209376182,111.0574255538,7.4254225422542,1325772.1687301,-6399.850082517,2925712.4811796,12.625422542254,0,0
-159.30209356719,111.10887173915,7.4298529852985,1325772.1687301,-6399.850082517,2925712.4811796,12.629852985299,0,0
-159.30209337257,111.1603179245,7.4342834283428,1325772.1687301,-6399.850082517,2925712.4811796,12.634283428343,0,0
-159.30209317794,111.21176410985,7.4387138713871,1325772.1687301,-6399.850082517,2925712.4811796,12.638713871387,0,0
-159.30209298331,111.2632102952,7.4431443144314,1325772.1687301,-6399.850082517,2925712.4811796,12.643144314431,0,0
-159.30209278869,111.31465648055,7.4475747574757,1325772.1687301,-6399.850082517,2925712.4811796,12.647574757476,0,0
-159.30209259406,111.3661026659,7.4520052005201,1325772.1687301,-6399.850082517,2925712.4811796,12.65200520052,0,0
-159.30209239943,111.41754885125,7.4564356435644,1325772.1687301,-6399.850082517,2925712.4811796,12.656435643564,0,0
-159.30209220481,111.46899503661,7.4608660866087,1325772.1687301,-6399.850082517,2925712.4811796,12.660866086609,0,0
-159.30209201018,111.52044122196,7.465296529653,1325772.1687301,-6399.850082517,2925712.4811796,12.665296529653,0,0
-159.30209181556,111.57188740731,7.4697269726973,1325772.1687301,-6399.850082517,2925712.4811796,12.669726972697,0,0
-159.30209162093,111.62333359266,7.4741574157416,1325772.1687301,-6399.850082517,2925712.4811796,12.674157415742,0,0
-159.3020914263,111.67477977801,7.4785878587859,1325772.1687301,-6399.850082517,2925712.4811796,12.678587858786,0,0
-159.30209123168,111.72622596336,7.4830183018302,1325772.1687301,-6399.850082517,2925712.4811796,12.68301830183,0,0
-159.30209103705,111.77767214871,7.4874487448745,1325772.1687301,-6399.850082517,2925712.4811796,12.687448744874,0,0
-159.30209084243,111.82911833406,7.4918791879188,1325772.1687301,-6399.850082517,2925712.4811796,12.691879187919,0,0
-159.3020906478,111.88056451942,7.4963096309631,1325772.1687301,-6399.850082517,2925712.4811796,12.696309630963,0,0
-159.30209045317,111.93201070477,7.5007400740074,1325772.1687301,-6399.850082517,2925712.4811796,12.700740074007,0,0
-159.30209025819,111.98345689214,7.5051705170517,1326430.2331175,8056.9787671005,2905153.6891259,12.705170517052,0,0
-159.3020900624,112.03490308415,7.509600960096,1326430.2331175,8056.9787671005,2905153.6891259,12.709600960096,0,0
-159.3020898666,112.08634927616,7.5140314031403,1326430.2331175,8056.9787671005,2905153.6891259,12.71403140314,0,0
-159.30208967081,112.13779546816,7.5184618461846,1326430.2331175,8056.9787671005,2905153.6891259,12.718461846185,0,0
-159.30208947502,112.18924166017,7.5228922892289,1326430.2331175,8056.9787671005,2905153.6891259,12.722892289229,0,0
-159.30208927922,112.24068785218,7.5273227322732,1326430.2331175,8056.9787671005,2905153.6891259,12.727322732273,0,0
-159.30208908343,112.29213404418,7.5317531753175,1326430.2331175,8056.9787671005,2905153.6891259,12.731753175318,0,0
-159.30208888764,112.34358023619,7.5361836183618,1326430.2331175,8056.9787671005,2905153.6891259,12.736183618362,0,0
-159.30208869184,112.3950264282,7.5406140614061,1326430.2331175,8056.9787671005,2905153.6891259,12.740614061406,0,0
-159.30208849605,112.44647262021,7.5450445044504,1326430.2331175,8056.9787671005,2905153.6891259,12.74504450445,0,0
-159.30208830026,112.49791881221,7.5494749474947,1326430.2331175,8056.9787671005,2905153.6891259,12.749474947495,0,0
-159.30208810446,112.54936500422,7.5539053905391,1326430.2331175,8056.9787671005,2905153.6891259,12.753905390539,0,0
-159.30208790867,112.60081119623,7.5583358335834,1326430.2331175,8056.9787671005,2905153.6891259,12.758335833583,0,0
-159.30208771287,112.65225738823,7.5627662766277,1326430.2331175,8056.9787671005,2905153.6891259,12.762766276628,0,0
-159.30208751708,112.70370358024,7.567196719672,1326430.2331175,8056.9787671005,2905153.6891259,12.767196719672,0,0
-159.30208732129,112.75514977225,7.5716271627163,1326430.2331175,8056.9787671005,2905153.6891259,12.771627162716,0,0
-159.30208712549,112.80659596425,7.5760576057606,1326430.2331175,8056.9787671005,2905153.6891259,12.776057605761,0,0
-159.3020869297,112.85804215626,7.5804880488049,1326430.2331175,8056.9787671005,2905153.6891259,12.780488048805,0,0
-159.30208673391,112.90948834827,7.5849184918492,1326430.2331175,8056.9787671005,2905153.6891259,12.784918491849,0,0
-159.30208653811,112.96093454028,7.5893489348935,1326430.2331175,8056.9787671005,2905153.6891259,12.789348934893,0,0
-159.30208634232,113.01238073228,7.5937793779378,1326430.2331175,8056.9787671005,2905153.6891259,12.793779377938,0,0
-159.30208614653,113.06382692429,7.5982098209821,1326430.2331175,8056.9787671005,2905153.6891259,12.798209820982,0,0
-159.30208595073,113.1152731163,7.6026402640264,1326430.2331175,8056.9787671005,2905153.6891259,12.802640264026,0,0
-159.30208575494,113.1667193083,7.6070707070707,1326430.2331175,8056.9787671005,2905153.6891259,12.807070707071,0,0
-159.30208555914,113.21816550031,7.611501150115,1326430.2331175,8056.9787671005,2905153.6891259,12.811501150115,0,0
-159.30208536335,113.26961169232,7.6159315931593,1326430.2331175,8056.9787671005,2905153.6891259,12.815931593159,0,0
-159.30208516756,113.32105788432,7.6203620362036,1326430.2331175,8056.9787671005,2905153.6891259,12.820362036204,0,0
-159.30208497176,113.37250407633,7.6247924792479,1326430.2331175,8056.9787671005,2905153.6891259,12.824792479248,0,0
-159.30208477597,113.42395026834,7.6292229222922,1326430.2331175,8056.9787671005,2905153.6891259,12.829222922292,0,0
-159.30208458018,113.47539646035,7.6336533653365,1326430.2331175,8056.9787671005,2905153.6891259,12.833653365337,0,0
-159.30208438438,113.52684265235,7.6380838083808,1326430.2331175,8056.9787671005,2905153.6891259,12.838083808381,0,0
-159.30208418859,113.57828884436,7.6425142514251,1326430.2331175,8056.9787671005,2905153.6891259,12.842514251425,0,0
-159.3020839928,113.62973503637,7.6469446944694,1326430.2331175,8056.9787671005,2905153.6891259,12.846944694469,0,0
-159.302083797,113.68118122837,7.6513751375138,1326430.2331175,8056.9787671005,2905153.6891259,12.851375137514,0,0
-159.30208360121,113.73262742038,7.6558055805581,1326430.2331175,8056.9787671005,2905153.6891259,12.855805580558,0,0
-159.30208340541,113.78407361239,7.6602360236024,1326430.2331175,8056.9787671005,2905153.6891259,12.860236023602,0,0
-159.30208320962,113.83551980439,7.6646664666467,1326430.2331175,8056.9787671005,2905153.6891259,12.864666466647,0,0
-159.30208301383,113.8869659964,7.669096909691,1326430.2331175,8056.9787671005,2905153.6891259,12.869096909691,0,0
-159.30208281803,113.93841218841,7.6735273527353,1326430.2331175,8056.9787671005,2905153.6891259,12.873527352735,0,0
-159.30208262224,113.98985838042,7.6779577957796,1326430.2331175,8056.9787671005,2905153.6891259,12.87795779578,0,0
-159.30208242645,114.04130457242,7.6823882388239,1326430.2331175,8056.9787671005,2905153.6891259,12.882388238824,0,0
-159.30208223065,114.09275076443,7.6868186818682,1326430.2331175,8056.9787671005,2905153.6891259,12.886818681868,0,0
-159.30208203486,114.14419695644,7.6912491249125,1326430.2331175,8056.9787671005,2905153.6891259,12.891249124912,0,0
-159.30208183906,114.19564314844,7.6956795679568,1326430.2331175,8056.9787671005,2905153.6891259,12.895679567957,0,0
-159.30208164327,114.24708934045,7.7001100110011,1326430.2331175,8056.9787671005,2905153.6891259,12.900110011001,0,0
-159.30208144748,114.29853553246,7.7045404540454,1326430.2331175,8056.9787671005,2905153.6891259,12.904540454045,0,0
-159.30208125168,114.34998172446,7.7089708970897,1326430.2331175,8056.9787671005,2905153.6891259,12.90897089709,0,0
-159.30208105589,114.40142791647,7.713401340134,1326430.2331175,8056.9787671005,2905153.6891259,12.913401340134,0,0
-159.3020808601,114.45287410848,7.7178317831783,1326430.2331175,8056.9787671005,2905153.6891259,12.917831783178,0,0
-159.3020806643,114.50432030049,7.7222622262226,1326430.2331175,8056.9787671005,2905153.6891259,12.922262226223,0,0
-159.30208046851,114.55576649249,7.7266926692669,1326430.2331175,8056.9787671005,2905153.6891259,12.926692669267,0,0
-159.30208027272,114.6072126845,7.7311231123112,1326430.2331175,8056.9787671005,2905153.6891259,12.931123112311,0,0
-159.30208007692,114.65865887651,7.7355535553555,1326430.2331175,8056.9787671005,2905153.6891259,12.935553555356,0,0
-159.30207988113,114.71010506851,7.7399839983998,1326430.2331175,8056.9787671005,2905153.6891259,12.9399839984,0,0
-159.30207968533,114.76155126052,7.7444144414441,1326430.2331175,8056.9787671005,2905153.6891259,12.944414441444,0,0
-159.30207948954,114.81299745253,7.7488448844884,1326430.2331175,8056.9787671005,2905153.6891259,12.948844884488,0,0
-159.30207929375,114.86444364453,7.7532753275328,1326430.2331175,8056.9787671005,2905153.6891259,12.953275327533,0,0
-159.30207909795,114.91588983654,7.7577057705771,1326430.2331175,8056.9787671005,2905153.6891259,12.957705770577,0,0
-159.30207890216,114.96733602855,7.7621362136214,1326430.2331175,8056.9787671005,2905153.6891259,12.962136213621,0,0
-159.30207870637,115.01878222056,7.7665666566657,1326430.2331175,8056.9787671005,2905153.6891259,12.966566656666,0,0
-159.30207851057,115.07022841256,7.77099709971,1326430.2331175,8056.9787671005,2905153.6891259,12.97099709971,0,0
-159.30207831478,115.12167460457,7.7754275427543,1326430.2331175,8056.9787671005,2905153.6891259,12.975427542754,0,0
-159.30207811899,115.17312079658,7.7798579857986,1326430.2331175,8056.9787671005,2905153.6891259,12.979857985799,0,0
-159.30207792319,115.22456698858,7.7842884288429,1326430.2331175,8056.9787671005,2905153.6891259,12.984288428843,0,0
-159.3020777274,115.27601318059,7.7887188718872,1326430.2331175,8056.9787671005,2905153.6891259,12.988718871887,0,0
-159.3020775316,115.3274593726,7.7931493149315,1326430.2331175,8056.9787671005,2905153.6891259,12.993149314931,0,0
-159.30207733581,115.3789055646,7.7975797579758,1326430.2331175,8056.9787671005,2905153.6891259,12.997579757976,0,0
-159.30207714002,115.43035175661,7.8020102010201,1326430.2331175,8056.9787671005,2905153.6891259,13.00201020102,0,0
-159.30207694422,115.48179794862,7.8064406440644,1326430.2331175,8056.9787671005,2905153.6891259,13.006440644064,0,0
-159.30207674843,115.53324414063,7.8108710871087,1326430.2331175,8056.9787671005,2905153.6891259,13.010871087109,0,0
-159.30207655264,115.58469033263,7.815301530153,1326430.2331175,8056.9787671005,2905153.6891259,13.015301530153,0,0
-159.30207635684,115.63613652464,7.8197319731973,1326430.2331175,8056.9787671005,2905153.6891259,13.019731973197,0,0
-159.30207616105,115.68758271665,7.8241624162416,1326430.2331175,8056.9787671005,2905153.6891259,13.024162416242,0,0
-159.30207596526,115.73902890865,7.8285928592859,1326430.2331175,8056.9787671005,2905153.6891259,13.028592859286,0,0
-159.30207576946,115.79047510066,7.8330233023302,1326430.2331175,8056.9787671005,2905153.6891259,13.03302330233,0,0
-159.30207557367,115.84192129267,7.8374537453745,1326430.2331175,8056.9787671005,2905153.6891259,13.037453745375,0,0
-159.30207537787,115.89336748467,7.8418841884188,1326430.2331175,8056.9787671005,2905153.6891259,13.041884188419,0,0
-159.30207518208,115.94481367668,7.8463146314631,1326430.2331175,8056.9787671005,2905153.6891259,13.046314631463,0,0
-159.30207498629,115.99625986869,7.8507450745074,1326430.2331175,8056.9787671005,2905153.6891259,13.050745074507,0,0
-159.30207479049,116.0477060607,7.8551755175518,1326430.2331175,8056.9787671005,2905153.6891259,13.055175517552,0,0
-159.3020745947,116.0991522527,7.8596059605961,1326430.2331175,8056.9787671005,2905153.6891259,13.059605960596,0,0
-159.30207439891,116.15059844471,7.8640364036404,1326430.2331175,8056.9787671005,2905153.6891259,13.06403640364,0,0
-159.30207420311,116.20204463672,7.8684668466847,1326430.2331175,8056.9787671005,2905153.6891259,13.068466846685,0,0
-159.30207400732,116.25349082872,7.872897289729,1326430.2331175,8056.9787671005,2905153.6891259,13.072897289729,0,0
-159.30207381153,116.30493702073,7.8773277327733,1326430.2331175,8056.9787671005,2905153.6891259,13.077327732773,0,0
-159.30207361573,116.35638321274,7.8817581758176,1326430.2331175,8056.9787671005,2905153.6891259,13.081758175818,0,0
-159.30207341994,116.40782940474,7.8861886188619,1326430.2331175,8056.9787671005,2905153.6891259,13.086188618862,0,0
-159.30207322414,116.45927559675,7.8906190619062,1326430.2331175,8056.9787671005,2905153.6891259,13.090619061906,0,0
-159.30207302835,116.51072178876,7.8950495049505,1326430.2331175,8056.9787671005,2905153.6891259,13.09504950495,0,0
-159.30207283256,116.56216798077,7.8994799479948,1326430.2331175,8056.9787671005,2905153.6891259,13.099479947995,0,0
-159.30207263676,116.61361417277,7.9039103910391,1326430.2331175,8056.9787671005,2905153.6891259,13.103910391039,0,0
-159.30207244097,116.66506036478,7.9083408340834,1326430.2331175,8056.9787671005,2905153.6891259,13.108340834083,0,0
-159.30207224518,116.71650655679,7.9127712771277,1326430.2331175,8056.9787671005,2905153.6891259,13.112771277128,0,0
-159.30207204938,116.76795274879,7.917201720172,1326430.2331175,8056.9787671005,2905153.6891259,13.117201720172,0,0
-159.30207185359,116.8193989408,7.9216321632163,1326430.2331175,8056.9787671005,2905153.6891259,13.121632163216,0,0
-159.3020716578,116.87084513281,7.9260626062606,1326430.2331175,8056.9787671005,2905153.6891259,13.126062606261,0,0
-159.302071462,116.92229132481,7.9304930493049,1326430.2331175,8056.9787671005,2905153.6891259,13.130493049305,0,0
-159.30207126621,116.97373751682,7.9349234923492,1326430.2331175,8056.9787671005,2905153.6891259,13.134923492349,0,0
-159.30207107041,117.02518370883,7.9393539353935,1326430.2331175,8056.9787671005,2905153.6891259,13.139353935394,0,0
-159.30207087462,117.07662990084,7.9437843784378,1326430.2331175,8056.9787671005,2905153.6891259,13.143784378438,0,0
-159.30207067883,117.12807609284,7.9482148214821,1326430.2331175,8056.9787671005,2905153.6891259,13.148214821482,0,0
-159.30207048303,117.17952228485,7.9526452645265,1326430.2331175,8056.9787671005,2905153.6891259,13.152645264526,0,0
-159.30207028724,117.23096847686,7.9570757075708,1326430.2331175,8056.9787671005,2905153.6891259,13.157075707571,0,0
-159.30207009145,117.28241466886,7.9615061506151,1326430.2331175,8056.9787671005,2905153.6891259,13.161506150615,0,0
-159.30206989565,117.33386086087,7.9659365936594,1326430.2331175,8056.9787671005,2905153.6891259,13.165936593659,0,0
-159.30206969986,117.38530705288,7.9703670367037,1326430.2331175,8056.9787671005,2905153.6891259,13.170367036704,0,0
-159.30206950407,117.43675324488,7.974797479748,1326430.2331175,8056.9787671005,2905153.6891259,13.174797479748,0,0
-159.30206930827,117.48819943689,7.9792279227923,1326430.2331175,8056.9787671005,2905153.6891259,13.179227922792,0,0
-159.30206911248,117.5396456289,7.9836583658366,1326430.2331175,8056.9787671005,2905153.6891259,13.183658365837,0,0
-159.30206891668,117.59109182091,7.9880888088809,1326430.2331175,8056.9787671005,2905153.6891259,13.188088808881,0,0
-159.30206872089,117.64253801291,7.9925192519252,1326430.2331175,8056.9787671005,2905153.6891259,13.192519251925,0,0
-159.3020685251,117.69398420492,7.9969496949695,1326430.2331175,8056.9787671005,2905153.6891259,13.196949694969,0,0
-159.3020683293,117.74543039693,8.0013801380138,1326430.2331175,8056.9787671005,2905153.6891259,13.201380138014,0,0
-159.30206813351,117.79687658893,8.0058105810581,1326430.2331175,8056.9787671005,2905153.6891259,13.205810581058,0,0
-159.30206793772,117.84832278094,8.0102410241024,1326430.2331175,8056.9787671005,2905153.6891259,13.210241024102,0,0
-159.30206774192,117.89976897295,8.0146714671467,1326430.2331175,8056.9787671005,2905153.6891259,13.214671467147,0,0
-159.30206754613,117.95121516495,8.019101910191,1326430.2331175,8056.9787671005,2905153.6891259,13.219101910191,0,0
-159.30206735034,118.00266135696,8.0235323532353,1326430.2331175,8056.9787671005,2905153.6891259,13.223532353235,0,0
-159.30206715454,118.05410754897,8.0279627962796,1326430.2331175,8056.9787671005,2905153.6891259,13.22796279628,0,0
-159.30206695875,118.10555374097,8.0323932393239,1326430.2331175,8056.9787671005,2905153.6891259,13.232393239324,0,0
-159.30206676295,118.15699993298,8.0368236823682,1326430.2331175,8056.9787671005,2905153.6891259,13.236823682368,0,0
-159.30206656716,118.20844612499,8.0412541254125,1326430.2331175,8056.9787671005,2905153.6891259,13.241254125413,0,0
-159.30206637137,118.259892317,8.0456845684568,1326430.2331175,8056.9787671005,2905153.6891259,13.245684568457,0,0
-159.30206617557,118.311338509,8.0501150115011,1326430.2331175,8056.9787671005,2905153.6891259,13.250115011501,0,0
-159.30206597978,118.36278470101,8.0545454545455,1326430.2331175,8056.9787671005,2905153.6891259,13.254545454545,0,0
-159.30206578399,118.41423089302,8.0589758975898,1326430.2331175,8056.9787671005,2905153.6891259,13.25897589759,0,0
-159.30206558819,118.46567708502,8.0634063406341,1326430.2331175,8056.9787671005,2905153.6891259,13.263406340634,0,0
-159.3020653924,118.51712327703,8.0678367836784,1326430.2331175,8056.9787671005,2905153.6891259,13.267836783678,0,0
-159.30206519661,118.56856946904,8.0722672267227,1326430.2331175,8056.9787671005,2905153.6891259,13.272267226723,0,0
-159.30206500081,118.62001566104,8.076697669767,1326430.2331175,8056.9787671005,2905153.6891259,13.276697669767,0,0
-159.30206480502,118.67146185305,8.0811281128113,1326430.2331175,8056.9787671005,2905153.6891259,13.281128112811,0,0
-159.30206460922,118.72290804506,8.0855585558556,1326430.2331175,8056.9787671005,2905153.6891259,13.285558555856,0,0
-159.30206441343,118.77435423707,8.0899889988999,1326430.2331175,8056.9787671005,2905153.6891259,13.2899889989,0,0
-159.30206421764,118.82580042907,8.0944194419442,1326430.2331175,8056.9787671005,2905153.6891259,13.294419441944,0,0
-159.30206402184,118.87724662108,8.0988498849885,1326430.2331175,8056.9787671005,2905153.6891259,13.298849884988,0,0
-159.30206382605,118.92869281309,8.1032803280328,1326430.2331175,8056.9787671005,2905153.6891259,13.303280328033,0,0
-159.30206363026,118.98013900509,8.1077107710771,1326430.2331175,8056.9787671005,2905153.6891259,13.307710771077,0,0
-159.30206343446,119.0315851971,8.1121412141214,1326430.2331175,8056.9787671005,2905153.6891259,13.312141214121,0,0
-159.30206323867,119.08303138911,8.1165716571657,1326430.2331175,8056.9787671005,2905153.6891259,13.316571657166,0,0
-159.30206304288,119.13447758111,8.12100210021,1326430.2331175,8056.9787671005,2905153.6891259,13.32100210021,0,0
-159.30206284708,119.18592377312,8.1254325432543,1326430.2331175,8056.9787671005,2905153.6891259,13.325432543254,0,0
-159.30206265129,119.23736996513,8.1298629862986,1326430.2331175,8056.9787671005,2905153.6891259,13.329862986299,0,0
-159.30206245549,119.28881615714,8.1342934293429,1326430.2331175,8056.9787671005,2905153.6891259,13.334293429343,0,0
-159.3020622597,119.34026234914,8.1387238723872,1326430.2331175,8056.9787671005,2905153.6891259,13.338723872387,0,0
-159.30206206391,119.39170854115,8.1431543154315,1326430.2331175,8056.9787671005,2905153.6891259,13.343154315432,0,0
-159.30206186811,119.44315473316,8.1475847584758,1326430.2331175,8056.9787671005,2905153.6891259,13.347584758476,0,0
-159.30206167232,119.49460092516,8.1520152015202,1326430.2331175,8056.9787671005,2905153.6891259,13.35201520152,0,0
-159.30206147653,119.54604711717,8.1564456445645,1326430.2331175,8056.9787671005,2905153.6891259,13.356445644564,0,0
-159.30206128073,119.59749330918,8.1608760876088,1326430.2331175,8056.9787671005,2905153.6891259,13.360876087609,0,0
-159.30206108494,119.64893950118,8.1653065306531,1326430.2331175,8056.9787671005,2905153.6891259,13.365306530653,0,0
-159.30206088914,119.70038569319,8.1697369736974,1326430.2331175,8056.9787671005,2905153.6891259,13.369736973697,0,0
-159.30206069335,119.7518318852,8.1741674167417,1326430.2331175,8056.9787671005,2905153.6891259,13.374167416742,0,0
-159.30206049756,119.80327807721,8.178597859786,1326430.2331175,8056.9787671005,2905153.6891259,13.378597859786,0,0
-159.30206030176,119.85472426921,8.1830283028303,1326430.2331175,8056.9787671005,2905153.6891259,13.38302830283,0,0
-159.30206010597,119.90617046122,8.1874587458746,1326430.2331175,8056.9787671005,2905153.6891259,13.387458745875,0,0
-159.30205991018,119.95761665323,8.1918891889189,1326430.2331175,8056.9787671005,2905153.6891259,13.391889188919,0,0
-159.30205971438,120.00906284523,8.1963196319632,1326430.2331175,8056.9787671005,2905153.6891259,13.396319631963,0,0
-159.30205951859,120.06050903724,8.2007500750075,1326430.2331175,8056.9787671005,2905153.6891259,13.400750075008,0,0
-159.3020593228,120.11195522925,8.2051805180518,1326430.2331175,8056.9787671005,2905153.6891259,13.405180518052,0,0
-159.302059127,120.16340142125,8.2096109610961,1326430.2331175,8056.9787671005,2905153.6891259,13.409610961096,0,0
-159.30205893121,120.21484761326,8.2140414041404,1326430.2331175,8056.9787671005,2905153.6891259,13.41404140414,0,0
-159.30205873541,120.26629380527,8.2184718471847,1326430.2331175,8056.9787671005,2905153.6891259,13.418471847185,0,0
-159.30205853962,120.31773999728,8.222902290229,1326430.2331175,8056.9787671005,2905153.6891259,13.422902290229,0,0
-159.30205834383,120.36918618928,8.2273327332733,1326430.2331175,8056.9787671005,2905153.6891259,13.427332733273,0,0
-159.30205814803,120.42063238129,8.2317631763176,1326430.2331175,8056.9787671005,2905153.6891259,13.431763176318,0,0
-159.30205795224,120.4720785733,8.2361936193619,1326430.2331175,8056.9787671005,2905153.6891259,13.436193619362,0,0
-159.30205775645,120.5235247653,8.2406240624062,1326430.2331175,8056.9787671005,2905153.6891259,13.440624062406,0,0
-159.30205756065,120.57497095731,8.2450545054505,1326430.2331175,8056.9787671005,2905153.6891259,13.445054505451,0,0
-159.30205736486,120.62641714932,8.2494849484948,1326430.2331175,8056.9787671005,2905153.6891259,13.449484948495,0,0
-159.30205716907,120.67786334132,8.2539153915392,1326430.2331175,8056.9787671005,2905153.6891259,13.453915391539,0,0
-159.30205697327,120.72930953333,8.2583458345835,1326430.2331175,8056.9787671005,2905153.6891259,13.458345834583,0,0
-159.30205677748,120.78075572534,8.2627762776278,1326430.2331175,8056.9787671005,2905153.6891259,13.462776277628,0,0
-159.30205658168,120.83220191735,8.2672067206721,1326430.2331175,8056.9787671005,2905153.6891259,13.467206720672,0,0
-159.30205638589,120.88364810935,8.2716371637164,1326430.2331175,8056.9787671005,2905153.6891259,13.471637163716,0,0
-159.3020561901,120.93509430136,8.2760676067607,1326430.2331175,8056.9787671005,2905153.6891259,13.476067606761,0,0
-159.3020559943,120.98654049337,8.280498049805,1326430.2331175,8056.9787671005,2905153.6891259,13.480498049805,0,0
-159.30205579851,121.03798668537,8.2849284928493,1326430.2331175,8056.9787671005,2905153.6891259,13.484928492849,0,0
-159.30205560272,121.08943287738,8.2893589358936,1326430.2331175,8056.9787671005,2905153.6891259,13.489358935894,0,0
-159.30205540692,121.14087906939,8.2937893789379,1326430.2331175,8056.9787671005,2905153.6891259,13.493789378938,0,0
-159.30205521113,121.19232526139,8.2982198219822,1326430.2331175,8056.9787671005,2905153.6891259,13.498219821982,0,0
-159.30205501534,121.2437714534,8.3026502650265,1326430.2331175,8056.9787671005,2905153.6891259,13.502650265027,0,0
-159.30205481954,121.29521764541,8.3070807080708,1326430.2331175,8056.9787671005,2905153.6891259,13.507080708071,0,0
-159.30205462375,121.34666383742,8.3115111511151,1326430.2331175,8056.9787671005,2905153.6891259,13.511511151115,0,0
-159.30205442795,121.39811002942,8.3159415941594,1326430.2331175,8056.9787671005,2905153.6891259,13.515941594159,0,0
-159.30205423216,121.44955622143,8.3203720372037,1326430.2331175,8056.9787671005,2905153.6891259,13.520372037204,0,0
-159.30205403637,121.50100241344,8.324802480248,1326430.2331175,8056.9787671005,2905153.6891259,13.524802480248,0,0
-159.30205384057,121.55244860544,8.3292329232923,1326430.2331175,8056.9787671005,2905153.6891259,13.529232923292,0,0
-159.30205364478,121.60389479745,8.3336633663366,1326430.2331175,8056.9787671005,2905153.6891259,13.533663366337,0,0
-159.30205344899,121.65534098946,8.3380938093809,1326430.2331175,8056.9787671005,2905153.6891259,13.538093809381,0,0
-159.30205325262,121.70678717763,8.3425242524252,1323272.7252481,-5355.9743043901,2877291.3403582,13.542524252425,0,0
-159.30205305588,121.75823336336,8.3469546954695,1323272.7252481,-5355.9743043901,2877291.3403582,13.54695469547,0,0
-159.302052859,121.80967954997,8.3513851385139,1323453.8715462,6844.7906326331,2859788.5872235,13.551385138514,0,0
-159.30205266133,121.8611257413,8.3558155815582,1323453.8715462,6844.7906326331,2859788.5872235,13.555815581558,0,0
-159.30205246367,121.91257193262,8.3602460246025,1323453.8715462,6844.7906326331,2859788.5872235,13.560246024602,0,0
-159.302052266,121.96401812395,8.3646764676468,1323453.8715462,6844.7906326331,2859788.5872235,13.564676467647,0,0
-159.30205206833,122.01546431527,8.3691069106911,1323453.8715462,6844.7906326331,2859788.5872235,13.569106910691,0,0
-159.30205187066,122.06691050659,8.3735373537354,1323453.8715462,6844.7906326331,2859788.5872235,13.573537353735,0,0
-159.30205167299,122.11835669792,8.3779677967797,1323453.8715462,6844.7906326331,2859788.5872235,13.57796779678,0,0
-159.30205147533,122.16980288924,8.382398239824,1323453.8715462,6844.7906326331,2859788.5872235,13.582398239824,0,0
-159.30205127766,122.22124908057,8.3868286828683,1323453.8715462,6844.7906326331,2859788.5872235,13.586828682868,0,0
-159.30205107999,122.27269527189,8.3912591259126,1323453.8715462,6844.7906326331,2859788.5872235,13.591259125913,0,0
-159.30205088232,122.32414146322,8.3956895689569,1323453.8715462,6844.7906326331,2859788.5872235,13.595689568957,0,0
-159.30205068466,122.37558765454,8.4001200120012,1323453.8715462,6844.7906326331,2859788.5872235,13.600120012001,0,0
-159.30205048699,122.42703384587,8.4045504550455,1323453.8715462,6844.7906326331,2859788.5872235,13.604550455046,0,0
-159.30205028932,122.47848003719,8.4089808980898,1323453.8715462,6844.7906326331,2859788.5872235,13.60898089809,0,0
-159.30205009165,122.52992622852,8.4134113411341,1323453.8715462,6844.7906326331,2859788.5872235,13.613411341134,0,0
-159.30204989398,122.58137241984,8.4178417841784,1323453.8715462,6844.7906326331,2859788.5872235,13.617841784178,0,0
-159.30204969632,122.63281861117,8.4222722272227,1323453.8715462,6844.7906326331,2859788.5872235,13.622272227223,0,0
-159.30204949865,122.68426480249,8.426702670267,1323453.8715462,6844.7906326331,2859788.5872235,13.626702670267,0,0
-159.30204930098,122.73571099382,8.4311331133113,1323453.8715462,6844.7906326331,2859788.5872235,13.631133113311,0,0
-159.30204910331,122.78715718514,8.4355635563556,1323453.8715462,6844.7906326331,2859788.5872235,13.635563556356,0,0
-159.30204890564,122.83860337647,8.4399939993999,1323453.8715462,6844.7906326331,2859788.5872235,13.6399939994,0,0
-159.30204870798,122.89004956779,8.4444244424442,1323453.8715462,6844.7906326331,2859788.5872235,13.644424442444,0,0
-159.30204851031,122.94149575912,8.4488548854885,1323453.8715462,6844.7906326331,2859788.5872235,13.648854885489,0,0
-159.30204831264,122.99294195044,8.4532853285329,1323453.8715462,6844.7906326331,2859788.5872235,13.653285328533,0,0
-159.30204811497,123.04438814177,8.4577157715772,1323453.8715462,6844.7906326331,2859788.5872235,13.657715771577,0,0
-159.30204791731,123.09583433309,8.4621462146215,1323453.8715462,6844.7906326331,2859788.5872235,13.662146214621,0,0
-159.30204771964,123.14728052442,8.4665766576658,1323453.8715462,6844.7906326331,2859788.5872235,13.666576657666,0,0
-159.30204752197,123.19872671574,8.4710071007101,1323453.8715462,6844.7906326331,2859788.5872235,13.67100710071,0,0
-159.3020473243,123.25017290706,8.4754375437544,1323453.8715462,6844.7906326331,2859788.5872235,13.675437543754,0,0
-159.30204712663,123.30161909839,8.4798679867987,1323453.8715462,6844.7906326331,2859788.5872235,13.679867986799,0,0
-159.30204692897,123.35306528971,8.484298429843,1323453.8715462,6844.7906326331,2859788.5872235,13.684298429843,0,0
-159.3020467313,123.40451148104,8.4887288728873,1323453.8715462,6844.7906326331,2859788.5872235,13.688728872887,0,0
-159.30204653357,123.45595767237,8.4931593159316,1323696.6099624,-7130.0642649709,2853273.1151899,13.693159315932,0,0
-159.30204633553,123.50740386377,8.4975897589759,1323696.6099624,-7130.0642649709,2853273.1151899,13.697589758976,0,0
-159.30204613749,123.55885005516,8.5020202020202,1323696.6099624,-7130.0642649709,2853273.1151899,13.70202020202,0,0
-159.30204593944,123.61029624655,8.5064506450645,1323696.6099624,-7130.0642649709,2853273.1151899,13.706450645065,0,0
-159.3020457414,123.66174243794,8.5108810881088,1323696.6099624,-7130.0642649709,2853273.1151899,13.710881088109,0,0
-159.30204554336,123.71318862933,8.5153115311531,1323696.6099624,-7130.0642649709,2853273.1151899,13.715311531153,0,0
-159.30204534531,123.76463482072,8.5197419741974,1323696.6099624,-7130.0642649709,2853273.1151899,13.719741974197,0,0
-159.30204514727,123.81608101211,8.5241724172417,1323696.6099624,-7130.0642649709,2853273.1151899,13.724172417242,0,0
-159.30204494923,123.8675272035,8.528602860286,1323696.6099624,-7130.0642649709,2853273.1151899,13.728602860286,0,0
-159.30204475118,123.91897339489,8.5330333033303,1323696.6099624,-7130.0642649709,2853273.1151899,13.73303330333,0,0
-159.30204455314,123.97041958628,8.5374637463746,1323696.6099624,-7130.0642649709,2853273.1151899,13.737463746375,0,0
-159.3020443551,124.02186577767,8.5418941894189,1323696.6099624,-7130.0642649709,2853273.1151899,13.741894189419,0,0
-159.30204415705,124.07331196906,8.5463246324632,1323696.6099624,-7130.0642649709,2853273.1151899,13.746324632463,0,0
-159.30204395901,124.12475816046,8.5507550755075,1323696.6099624,-7130.0642649709,2853273.1151899,13.750755075508,0,0
-159.30204376097,124.17620435185,8.5551855185519,1323696.6099624,-7130.0642649709,2853273.1151899,13.755185518552,0,0
-159.30204356292,124.22765054324,8.5596159615962,1323696.6099624,-7130.0642649709,2853273.1151899,13.759615961596,0,0
-159.30204336488,124.27909673463,8.5640464046405,1323696.6099624,-7130.0642649709,2853273.1151899,13.76404640464,0,0
-159.30204316684,124.33054292602,8.5684768476848,1323696.6099624,-7130.0642649709,2853273.1151899,13.768476847685,0,0
-159.30204296879,124.38198911741,8.5729072907291,1323696.6099624,-7130.0642649709,2853273.1151899,13.772907290729,0,0
-159.30204277075,124.4334353088,8.5773377337734,1323696.6099624,-7130.0642649709,2853273.1151899,13.777337733773,0,0
-159.30204257271,124.48488150019,8.5817681768177,1323696.6099624,-7130.0642649709,2853273.1151899,13.781768176818,0,0
-159.30204237466,124.53632769158,8.586198619862,1323696.6099624,-7130.0642649709,2853273.1151899,13.786198619862,0,0
-159.30204217662,124.58777388297,8.5906290629063,1323696.6099624,-7130.0642649709,2853273.1151899,13.790629062906,0,0
-159.30204197858,124.63922007436,8.5950595059506,1323696.6099624,-7130.0642649709,2853273.1151899,13.795059505951,0,0
-159.30204178053,124.69066626575,8.5994899489949,1323696.6099624,-7130.0642649709,2853273.1151899,13.799489948995,0,0
-159.30204158249,124.74211245715,8.6039203920392,1323696.6099624,-7130.0642649709,2853273.1151899,13.803920392039,0,0
-159.30204138445,124.79355864854,8.6083508350835,1323696.6099624,-7130.0642649709,2853273.1151899,13.808350835084,0,0
-159.3020411864,124.84500483993,8.6127812781278,1323696.6099624,-7130.0642649709,2853273.1151899,13.812781278128,0,0
-159.30204098836,124.89645103132,8.6172117211721,1323696.6099624,-7130.0642649709,2853273.1151899,13.817211721172,0,0
-159.30204079032,124.94789722271,8.6216421642164,1323696.6099624,-7130.0642649709,2853273.1151899,13.821642164216,0,0
-159.30204059227,124.9993434141,8.6260726072607,1323696.6099624,-7130.0642649709,2853273.1151899,13.826072607261,0,0
-159.30204039423,125.05078960549,8.630503050305,1323696.6099624,-7130.0642649709,2853273.1151899,13.830503050305,0,0
-159.30204019619,125.10223579688,8.6349334933493,1323696.6099624,-7130.0642649709,2853273.1151899,13.834933493349,0,0
-159.30203999814,125.15368198827,8.6393639363936,1323696.6099624,-7130.0642649709,2853273.1151899,13.839363936394,0,0
-159.3020398001,125.20512817966,8.6437943794379,1323696.6099624,-7130.0642649709,2853273.1151899,13.843794379438,0,0
-159.30203960206,125.25657437105,8.6482248224822,1323696.6099624,-7130.0642649709,2853273.1151899,13.848224822482,0,0
-159.30203940401,125.30802056244,8.6526552655266,1323696.6099624,-7130.0642649709,2853273.1151899,13.852655265527,0,0
-159.30203920597,125.35946675384,8.6570857085709,1323696.6099624,-7130.0642649709,2853273.1151899,13.857085708571,0,0
-159.30203900793,125.41091294523,8.6615161516152,1323696.6099624,-7130.0642649709,2853273.1151899,13.861516151615,0,0
-159.30203880988,125.46235913662,8.6659465946595,1323696.6099624,-7130.0642649709,2853273.1151899,13.865946594659,0,0
-159.30203861184,125.51380532801,8.6703770377038,1323696.6099624,-7130.0642649709,2853273.1151899,13.870377037704,0,0
-159.3020384138,125.5652515194,8.6748074807481,1323696.6099624,-7130.0642649709,2853273.1151899,13.874807480748,0,0
-159.30203821575,125.61669771079,8.6792379237924,1323696.6099624,-7130.0642649709,2853273.1151899,13.879237923792,0,0
-159.30203801771,125.66814390218,8.6836683668367,1323696.6099624,-7130.0642649709,2853273.1151899,13.883668366837,0,0
-159.30203781967,125.71959009357,8.688098809881,1323696.6099624,-7130.0642649709,2853273.1151899,13.888098809881,0,0
-159.30203762162,125.77103628496,8.6925292529253,1323696.6099624,-7130.0642649709,2853273.1151899,13.892529252925,0,0
-159.30203742358,125.82248247635,8.6969596959696,1323696.6099624,-7130.0642649709,2853273.1151899,13.89695969597,0,0
-159.30203722554,125.87392866774,8.7013901390139,1323696.6099624,-7130.0642649709,2853273.1151899,13.901390139014,0,0
-159.30203702749,125.92537485913,8.7058205820582,1323696.6099624,-7130.0642649709,2853273.1151899,13.905820582058,0,0
-159.30203682945,125.97682105053,8.7102510251025,1323696.6099624,-7130.0642649709,2853273.1151899,13.910251025103,0,0
-159.30203663141,126.02826724192,8.7146814681468,1323696.6099624,-7130.0642649709,2853273.1151899,13.914681468147,0,0
-159.30203643336,126.07971343331,8.7191119111911,1323696.6099624,-7130.0642649709,2853273.1151899,13.919111911191,0,0
-159.30203623532,126.1311596247,8.7235423542354,1323696.6099624,-7130.0642649709,2853273.1151899,13.923542354235,0,0
-159.30203603728,126.18260581609,8.7279727972797,1323696.6099624,-7130.0642649709,2853273.1151899,13.92797279728,0,0
-159.30203583923,126.23405200748,8.732403240324,1323696.6099624,-7130.0642649709,2853273.1151899,13.932403240324,0,0
-159.30203564119,126.28549819887,8.7368336833683,1323696.6099624,-7130.0642649709,2853273.1151899,13.936833683368,0,0
-159.30203544315,126.33694439026,8.7412641264126,1323696.6099624,-7130.0642649709,2853273.1151899,13.941264126413,0,0
-159.3020352451,126.38839058165,8.7456945694569,1323696.6099624,-7130.0642649709,2853273.1151899,13.945694569457,0,0
-159.30203504706,126.43983677304,8.7501250125013,1323696.6099624,-7130.0642649709,2853273.1151899,13.950125012501,0,0
-159.30203484902,126.49128296443,8.7545554555456,1323696.6099624,-7130.0642649709,2853273.1151899,13.954555455546,0,0
-159.30203465098,126.54272915582,8.7589858985899,1323696.6099624,-7130.0642649709,2853273.1151899,13.95898589859,0,0
-159.30203445293,126.59417534722,8.7634163416342,1323696.6099624,-7130.0642649709,2853273.1151899,13.963416341634,0,0
-159.30203425489,126.64562153861,8.7678467846785,1323696.6099624,-7130.0642649709,2853273.1151899,13.967846784678,0,0
-159.30203405685,126.69706773,8.7722772277228,1323696.6099624,-7130.0642649709,2853273.1151899,13.972277227723,0,0
-159.3020338588,126.74851392139,8.7767076707671,1323696.6099624,-7130.0642649709,2853273.1151899,13.976707670767,0,0
-159.30203366076,126.79996011278,8.7811381138114,1323696.6099624,-7130.0642649709,2853273.1151899,13.981138113811,0,0
-159.30203346272,126.85140630417,8.7855685568557,1323696.6099624,-7130.0642649709,2853273.1151899,13.985568556856,0,0
-159.30203326467,126.90285249556,8.7899989999,1323696.6099624,-7130.0642649709,2853273.1151899,13.9899989999,0,0
-159.30203306663,126.95429868695,8.7944294429443,1323696.6099624,-7130.0642649709,2853273.1151899,13.994429442944,0,0
-159.30203286859,127.00574487834,8.7988598859886,1323696.6099624,-7130.0642649709,2853273.1151899,13.998859885989,0,0
-159.30203267054,127.05719106973,8.8032903290329,1323696.6099624,-7130.0642649709,2853273.1151899,14.003290329033,0,0
-159.3020324725,127.10863726112,8.8077207720772,1323696.6099624,-7130.0642649709,2853273.1151899,14.007720772077,0,0
-159.30203227446,127.16008345251,8.8121512151215,1323696.6099624,-7130.0642649709,2853273.1151899,14.012151215122,0,0
-159.30203207641,127.21152964391,8.8165816581658,1323696.6099624,-7130.0642649709,2853273.1151899,14.016581658166,0,0
-159.30203187837,127.2629758353,8.8210121012101,1323696.6099624,-7130.0642649709,2853273.1151899,14.02101210121,0,0
-159.30203168033,127.31442202669,8.8254425442544,1323696.6099624,-7130.0642649709,2853273.1151899,14.025442544254,0,0
-159.30203148228,127.36586821808,8.8298729872987,1323696.6099624,-7130.0642649709,2853273.1151899,14.029872987299,0,0
-159.30203128424,127.41731440947,8.834303430343,1323696.6099624,-7130.0642649709,2853273.1151899,14.034303430343,0,0
-159.3020310862,127.46876060086,8.8387338733873,1323696.6099624,-7130.0642649709,2853273.1151899,14.038733873387,0,0
-159.30203088815,127.52020679225,8.8431643164316,1323696.6099624,-7130.0642649709,2853273.1151899,14.043164316432,0,0
-159.30203069011,127.57165298364,8.8475947594759,1323696.6099624,-7130.0642649709,2853273.1151899,14.047594759476,0,0
-159.30203049207,127.62309917503,8.8520252025203,1323696.6099624,-7130.0642649709,2853273.1151899,14.05202520252,0,0
-159.30203029402,127.67454536642,8.8564556455646,1323696.6099624,-7130.0642649709,2853273.1151899,14.056455645565,0,0
-159.30203009598,127.72599155781,8.8608860886089,1323696.6099624,-7130.0642649709,2853273.1151899,14.060886088609,0,0
-159.30202989794,127.77743774921,8.8653165316532,1323696.6099624,-7130.0642649709,2853273.1151899,14.065316531653,0,0
-159.30202969989,127.8288839406,8.8697469746975,1323696.6099624,-7130.0642649709,2853273.1151899,14.069746974697,0,0
-159.30202950185,127.88033013199,8.8741774177418,1323696.6099624,-7130.0642649709,2853273.1151899,14.074177417742,0,0
-159.30202930381,127.93177632338,8.8786078607861,1323696.6099624,-7130.0642649709,2853273.1151899,14.078607860786,0,0
-159.30202910576,127.98322251477,8.8830383038304,1323696.6099624,-7130.0642649709,2853273.1151899,14.08303830383,0,0
-159.30202890772,128.03466870616,8.8874687468747,1323696.6099624,-7130.0642649709,2853273.1151899,14.087468746875,0,0
-159.30202870968,128.08611489755,8.891899189919,1323696.6099624,-7130.0642649709,2853273.1151899,14.091899189919,0,0
-159.30202851163,128.13756108894,8.8963296329633,1323696.6099624,-7130.0642649709,2853273.1151899,14.096329632963,0,0
-159.30202831359,128.18900728033,8.9007600760076,1323696.6099624,-7130.0642649709,2853273.1151899,14.100760076008,0,0
-159.30202811555,128.24045347172,8.9051905190519,1323696.6099624,-7130.0642649709,2853273.1151899,14.105190519052,0,0
-159.3020279175,128.29189966311,8.9096209620962,1323696.6099624,-7130.0642649709,2853273.1151899,14.109620962096,0,0
-159.30202771946,128.3433458545,8.9140514051405,1323696.6099624,-7130.0642649709,2853273.1151899,14.114051405141,0,0
-159.30202752142,128.3947920459,8.9184818481848,1323696.6099624,-7130.0642649709,2853273.1151899,14.118481848185,0,0
-159.30202732337,128.44623823729,8.9229122912291,1323696.6099624,-7130.0642649709,2853273.1151899,14.122912291229,0,0
-159.30202712533,128.49768442868,8.9273427342734,1323696.6099624,-7130.0642649709,2853273.1151899,14.127342734273,0,0
-159.30202692729,128.54913062007,8.9317731773177,1323696.6099624,-7130.0642649709,2853273.1151899,14.131773177318,0,0
-159.30202672924,128.60057681146,8.936203620362,1323696.6099624,-7130.0642649709,2853273.1151899,14.136203620362,0,0
-159.3020265312,128.65202300285,8.9406340634063,1323696.6099624,-7130.0642649709,2853273.1151899,14.140634063406,0,0
-159.30202633316,128.70346919424,8.9450645064506,1323696.6099624,-7130.0642649709,2853273.1151899,14.145064506451,0,0
-159.30202613511,128.75491538563,8.9494949494949,1323696.6099624,-7130.0642649709,2853273.1151899,14.149494949495,0,0
-159.30202593707,128.80636157702,8.9539253925393,1323696.6099624,-7130.0642649709,2853273.1151899,14.153925392539,0,0
-159.30202573903,128.85780776841,8.9583558355836,1323696.6099624,-7130.0642649709,2853273.1151899,14.158355835584,0,0
-159.30202554098,128.9092539598,8.9627862786279,1323696.6099624,-7130.0642649709,2853273.1151899,14.162786278628,0,0
-159.30202534294,128.96070015119,8.9672167216722,1323696.6099624,-7130.0642649709,2853273.1151899,14.167216721672,0,0
-159.3020251449,129.01214634259,8.9716471647165,1323696.6099624,-7130.0642649709,2853273.1151899,14.171647164716,0,0
-159.30202494685,129.06359253398,8.9760776077608,1323696.6099624,-7130.0642649709,2853273.1151899,14.176077607761,0,0
-159.30202474881,129.11503872537,8.9805080508051,1323696.6099624,-7130.0642649709,2853273.1151899,14.180508050805,0,0
-159.30202455077,129.16648491676,8.9849384938494,1323696.6099624,-7130.0642649709,2853273.1151899,14.184938493849,0,0
-159.30202435272,129.21793110815,8.9893689368937,1323696.6099624,-7130.0642649709,2853273.1151899,14.189368936894,0,0
-159.30202415468,129.26937729954,8.993799379938,1323696.6099624,-7130.0642649709,2853273.1151899,14.193799379938,0,0
-159.30202395664,129.32082349093,8.9982298229823,1323696.6099624,-7130.0642649709,2853273.1151899,14.198229822982,0,0
-159.30202375859,129.37226968232,9.0026602660266,1323696.6099624,-7130.0642649709,2853273.1151899,14.202660266027,0,0
-159.30202356055,129.42371587371,9.0070907090709,1323696.6099624,-7130.0642649709,2853273.1151899,14.207090709071,0,0
-159.30202336251,129.4751620651,9.0115211521152,1323696.6099624,-7130.0642649709,2853273.1151899,14.211521152115,0,0
-159.30202316446,129.52660825649,9.0159515951595,1323696.6099624,-7130.0642649709,2853273.1151899,14.21595159516,0,0
-159.30202296642,129.57805444788,9.0203820382038,1323696.6099624,-7130.0642649709,2853273.1151899,14.220382038204,0,0
-159.30202276838,129.62950063928,9.0248124812481,1323696.6099624,-7130.0642649709,2853273.1151899,14.224812481248,0,0
-159.30202257033,129.68094683067,9.0292429242924,1323696.6099624,-7130.0642649709,2853273.1151899,14.229242924292,0,0
-159.30202237229,129.73239302206,9.0336733673367,1323696.6099624,-7130.0642649709,2853273.1151899,14.233673367337,0,0
-159.30202217425,129.78383921345,9.038103810381,1323696.6099624,-7130.0642649709,2853273.1151899,14.238103810381,0,0
-159.3020219762,129.83528540484,9.0425342534253,1323696.6099624,-7130.0642649709,2853273.1151899,14.242534253425,0,0
-159.30202177816,129.88673159623,9.0469646964696,1323696.6099624,-7130.0642649709,2853273.1151899,14.24696469647,0,0
-159.30202158012,129.93817778762,9.051395139514,1323696.6099624,-7130.0642649709,2853273.1151899,14.251395139514,0,0
-159.30202138207,129.98962397901,9.0558255825583,1323696.6099624,-7130.0642649709,2853273.1151899,14.255825582558,0,0
-159.30202118403,130.0410701704,9.0602560256026,1323696.6099624,-7130.0642649709,2853273.1151899,14.260256025603,0,0
-159.30202098599,130.09251636179,9.0646864686469,1323696.6099624,-7130.0642649709,2853273.1151899,14.264686468647,0,0
-159.30202078794,130.14396255318,9.0691169116912,1323696.6099624,-7130.0642649709,2853273.1151899,14.269116911691,0,0
-159.3020205899,130.19540874457,9.0735473547355,1323696.6099624,-7130.0642649709,2853273.1151899,14.273547354735,0,0
-159.30202039186,130.24685493597,9.0779777977798,1323696.6099624,-7130.0642649709,2853273.1151899,14.27797779778,0,0
-159.30202019381,130.29830112736,9.0824082408241,1323696.6099624,-7130.0642649709,2853273.1151899,14.282408240824,0,0
-159.30201999577,130.34974731875,9.0868386838684,1323696.6099624,-7130.0642649709,2853273.1151899,14.286838683868,0,0
-159.30201979773,130.40119351014,9.0912691269127,1323696.6099624,-7130.0642649709,2853273.1151899,14.291269126913,0,0
-159.30201959969,130.45263970153,9.095699569957,1323696.6099624,-7130.0642649709,2853273.1151899,14.295699569957,0,0
-159.30201940164,130.50408589292,9.1001300130013,1323696.6099624,-7130.0642649709,2853273.1151899,14.300130013001,0,0
-159.3020192036,130.55553208431,9.1045604560456,1323696.6099624,-7130.0642649709,2853273.1151899,14.304560456046,0,0
-159.30201900556,130.6069782757,9.1089908990899,1323696.6099624,-7130.0642649709,2853273.1151899,14.30899089909,0,0
-159.30201880751,130.65842446709,9.1134213421342,1323696.6099624,-7130.0642649709,2853273.1151899,14.313421342134,0,0
-159.30201860947,130.70987065848,9.1178517851785,1323696.6099624,-7130.0642649709,2853273.1151899,14.317851785179,0,0
-159.30201841143,130.76131684987,9.1222822282228,1323696.6099624,-7130.0642649709,2853273.1151899,14.322282228223,0,0
-159.30201821338,130.81276304126,9.1267126712671,1323696.6099624,-7130.0642649709,2853273.1151899,14.326712671267,0,0
-159.30201801534,130.86420923266,9.1311431143114,1323696.6099624,-7130.0642649709,2853273.1151899,14.331143114311,0,0
-159.3020178173,130.91565542405,9.1355735573557,1323696.6099624,-7130.0642649709,2853273.1151899,14.335573557356,0,0
-159.30201761925,130.96710161544,9.1400040004,1323696.6099624,-7130.0642649709,2853273.1151899,14.3400040004,0,0
-159.30201742121,131.01854780683,9.1444344434443,1323696.6099624,-7130.0642649709,2853273.1151899,14.344434443444,0,0
-159.30201722317,131.06999399822,9.1488648864886,1323696.6099624,-7130.0642649709,2853273.1151899,14.348864886489,0,0
-159.30201702512,131.12144018961,9.153295329533,1323696.6099624,-7130.0642649709,2853273.1151899,14.353295329533,0,0
-159.30201682708,131.172886381,9.1577257725773,1323696.6099624,-7130.0642649709,2853273.1151899,14.357725772577,0,0
-159.30201662904,131.22433257239,9.1621562156216,1323696.6099624,-7130.0642649709,2853273.1151899,14.362156215622,0,0
-159.30201643099,131.27577876378,9.1665866586659,1323696.6099624,-7130.0642649709,2853273.1151899,14.366586658666,0,0
-159.30201623295,131.32722495517,9.1710171017102,1323696.6099624,-7130.0642649709,2853273.1151899,14.37101710171,0,0
-159.30201603491,131.37867114656,9.1754475447545,1323696.6099624,-7130.0642649709,2853273.1151899,14.375447544754,0,0
-159.30201583686,131.43011733795,9.1798779877988,1323696.6099624,-7130.0642649709,2853273.1151899,14.379877987799,0,0
-159.30201563882,131.48156352935,9.1843084308431,1323696.6099624,-7130.0642649709,2853273.1151899,14.384308430843,0,0
-159.30201544078,131.53300972074,9.1887388738874,1323696.6099624,-7130.0642649709,2853273.1151899,14.388738873887,0,0
-159.30201524273,131.58445591213,9.1931693169317,1323696.6099624,-7130.0642649709,2853273.1151899,14.393169316932,0,0
-159.30201504469,131.63590210352,9.197599759976,1323696.6099624,-7130.0642649709,2853273.1151899,14.397599759976,0,0
-159.30201484665,131.68734829491,9.2020302030203,1323696.6099624,-7130.0642649709,2853273.1151899,14.40203020302,0,0
-159.3020146486,131.7387944863,9.2064606460646,1323696.6099624,-7130.0642649709,2853273.1151899,14.406460646065,0,0
-159.30201445056,131.79024067769,9.2108910891089,1323696.6099624,-7130.0642649709,2853273.1151899,14.410891089109,0,0
-159.30201425252,131.84168686908,9.2153215321532,1323696.6099624,-7130.0642649709,2853273.1151899,14.415321532153,0,0
-159.30201405447,131.89313306047,9.2197519751975,1323696.6099624,-7130.0642649709,2853273.1151899,14.419751975198,0,0
-159.30201385643,131.94457925186,9.2241824182418,1323696.6099624,-7130.0642649709,2853273.1151899,14.424182418242,0,0
-159.30201365839,131.99602544325,9.2286128612861,1323696.6099624,-7130.0642649709,2853273.1151899,14.428612861286,0,0
-159.30201346034,132.04747163465,9.2330433043304,1323696.6099624,-7130.0642649709,2853273.1151899,14.43304330433,0,0
-159.3020132623,132.09891782604,9.2374737473747,1323696.6099624,-7130.0642649709,2853273.1151899,14.437473747375,0,0
-159.30201306426,132.15036401743,9.241904190419,1323696.6099624,-7130.0642649709,2853273.1151899,14.441904190419,0,0
-159.30201286621,132.20181020882,9.2463346334633,1323696.6099624,-7130.0642649709,2853273.1151899,14.446334633463,0,0
-159.30201266817,132.25325640021,9.2507650765077,1323696.6099624,-7130.0642649709,2853273.1151899,14.450765076508,0,0
-159.30201247013,132.3047025916,9.255195519552,1323696.6099624,-7130.0642649709,2853273.1151899,14.455195519552,0,0
-159.30201227208,132.35614878299,9.2596259625963,1323696.6099624,-7130.0642649709,2853273.1151899,14.459625962596,0,0
-159.3020120739,132.40759497766,9.2640564056406,1319645.3026865,3632.2079144042,2837089.6122373,14.464056405641,0,0
-159.30201187566,132.45904117367,9.2684868486849,1319645.3026865,3632.2079144042,2837089.6122373,14.468486848685,0,0
-159.30201167743,132.51048736969,9.2729172917292,1319645.3026865,3632.2079144042,2837089.6122373,14.472917291729,0,0
-159.30201147919,132.5619335657,9.2773477347735,1319645.3026865,3632.2079144042,2837089.6122373,14.477347734773,0,0
-159.30201128095,132.61337976172,9.2817781778178,1319645.3026865,3632.2079144042,2837089.6122373,14.481778177818,0,0
-159.30201108271,132.66482595773,9.2862086208621,1319645.3026865,3632.2079144042,2837089.6122373,14.486208620862,0,0
-159.30201088447,132.71627215375,9.2906390639064,1319645.3026865,3632.2079144042,2837089.6122373,14.490639063906,0,0
-159.30201068624,132.76771834976,9.2950695069507,1319645.3026865,3632.2079144042,2837089.6122373,14.495069506951,0,0
-159.302010488,132.81916454578,9.299499949995,1319645.3026865,3632.2079144042,2837089.6122373,14.499499949995,0,0
-159.30201028976,132.87061074179,9.3039303930393,1319645.3026865,3632.2079144042,2837089.6122373,14.503930393039,0,0
-159.30201009152,132.92205693781,9.3083608360836,1319645.3026865,3632.2079144042,2837089.6122373,14.508360836084,0,0
-159.30200989328,132.97350313382,9.3127912791279,1319645.3026865,3632.2079144042,2837089.6122373,14.512791279128,0,0
-159.30200969505,133.02494932984,9.3172217221722,1319645.3026865,3632.2079144042,2837089.6122373,14.517221722172,0,0
-159.30200949681,133.07639552585,9.3216521652165,1319645.3026865,3632.2079144042,2837089.6122373,14.521652165217,0,0
-159.30200929798,133.12784171968,9.3260826082608,1320432.5432405,-5797.720534697,2813860.8068678,14.526082608261,0,0
-159.30200909842,133.17928791073,9.3305130513051,1320432.5432405,-5797.720534697,2813860.8068678,14.530513051305,0,0
-159.30200889886,133.23073410179,9.3349434943494,1320432.5432405,-5797.720534697,2813860.8068678,14.534943494349,0,0
-159.30200869929,133.28218029284,9.3393739373937,1320432.5432405,-5797.720534697,2813860.8068678,14.539373937394,0,0
-159.30200849973,133.3336264839,9.343804380438,1320432.5432405,-5797.720534697,2813860.8068678,14.543804380438,0,0
-159.30200830016,133.38507267495,9.3482348234823,1320432.5432405,-5797.720534697,2813860.8068678,14.548234823482,0,0
-159.3020081006,133.43651886601,9.3526652665267,1320432.5432405,-5797.720534697,2813860.8068678,14.552665266527,0,0
-159.30200790103,133.48796505706,9.357095709571,1320432.5432405,-5797.720534697,2813860.8068678,14.557095709571,0,0
-159.30200770147,133.53941124812,9.3615261526153,1320432.5432405,-5797.720534697,2813860.8068678,14.561526152615,0,0
-159.30200750191,133.59085743917,9.3659565956596,1320432.5432405,-5797.720534697,2813860.8068678,14.56595659566,0,0
-159.30200730234,133.64230363023,9.3703870387039,1320432.5432405,-5797.720534697,2813860.8068678,14.570387038704,0,0
-159.30200710278,133.69374982128,9.3748174817482,1320432.5432405,-5797.720534697,2813860.8068678,14.574817481748,0,0
-159.30200690321,133.74519601234,9.3792479247925,1320432.5432405,-5797.720534697,2813860.8068678,14.579247924792,0,0
-159.30200670365,133.79664220339,9.3836783678368,1320432.5432405,-5797.720534697,2813860.8068678,14.583678367837,0,0
-159.30200650409,133.84808839445,9.3881088108811,1320432.5432405,-5797.720534697,2813860.8068678,14.588108810881,0,0
-159.30200630452,133.8995345855,9.3925392539254,1320432.5432405,-5797.720534697,2813860.8068678,14.592539253925,0,0
-159.30200610496,133.95098077656,9.3969696969697,1320432.5432405,-5797.720534697,2813860.8068678,14.59696969697,0,0
-159.30200590539,134.00242696761,9.401400140014,1320432.5432405,-5797.720534697,2813860.8068678,14.601400140014,0,0
-159.30200570583,134.05387315867,9.4058305830583,1320432.5432405,-5797.720534697,2813860.8068678,14.605830583058,0,0
-159.30200550627,134.10531934972,9.4102610261026,1320432.5432405,-5797.720534697,2813860.8068678,14.610261026103,0,0
-159.3020053067,134.15676554078,9.4146914691469,1320432.5432405,-5797.720534697,2813860.8068678,14.614691469147,0,0
-159.30200510714,134.20821173183,9.4191219121912,1320432.5432405,-5797.720534697,2813860.8068678,14.619121912191,0,0
-159.30200490757,134.25965792289,9.4235523552355,1320432.5432405,-5797.720534697,2813860.8068678,14.623552355236,0,0
-159.30200470801,134.31110411394,9.4279827982798,1320432.5432405,-5797.720534697,2813860.8068678,14.62798279828,0,0
-159.30200450845,134.362550305,9.4324132413241,1320432.5432405,-5797.720534697,2813860.8068678,14.632413241324,0,0
-159.30200430888,134.41399649605,9.4368436843684,1320432.5432405,-5797.720534697,2813860.8068678,14.636843684368,0,0
-159.30200410932,134.46544268711,9.4412741274127,1320432.5432405,-5797.720534697,2813860.8068678,14.641274127413,0,0
-159.30200390975,134.51688887816,9.445704570457,1320432.5432405,-5797.720534697,2813860.8068678,14.645704570457,0,0
-159.30200371019,134.56833506922,9.4501350135013,1320432.5432405,-5797.720534697,2813860.8068678,14.650135013501,0,0
-159.30200351063,134.61978126027,9.4545654565457,1320432.5432405,-5797.720534697,2813860.8068678,14.654565456546,0,0
-159.30200331106,134.67122745133,9.45899589959,1320432.5432405,-5797.720534697,2813860.8068678,14.65899589959,0,0
-159.3020031115,134.72267364238,9.4634263426343,1320432.5432405,-5797.720534697,2813860.8068678,14.663426342634,0,0
-159.30200291193,134.77411983344,9.4678567856786,1320432.5432405,-5797.720534697,2813860.8068678,14.667856785679,0,0
-159.30200271237,134.82556602449,9.4722872287229,1320432.5432405,-5797.720534697,2813860.8068678,14.672287228723,0,0
-159.3020025128,134.87701221555,9.4767176717672,1320432.5432405,-5797.720534697,2813860.8068678,14.676717671767,0,0
-159.30200231324,134.9284584066,9.4811481148115,1320432.5432405,-5797.720534697,2813860.8068678,14.681148114811,0,0
-159.30200211368,134.97990459766,9.4855785578558,1320432.5432405,-5797.720534697,2813860.8068678,14.685578557856,0,0
-159.30200191411,135.03135078871,9.4900090009001,1320432.5432405,-5797.720534697,2813860.8068678,14.6900090009,0,0
-159.30200171455,135.08279697977,9.4944394439444,1320432.5432405,-5797.720534697,2813860.8068678,14.694439443944,0,0
-159.30200151498,135.13424317082,9.4988698869887,1320432.5432405,-5797.720534697,2813860.8068678,14.698869886989,0,0
-159.30200131542,135.18568936188,9.503300330033,1320432.5432405,-5797.720534697,2813860.8068678,14.703300330033,0,0
-159.30200111586,135.23713555293,9.5077307730773,1320432.5432405,-5797.720534697,2813860.8068678,14.707730773077,0,0
-159.30200091629,135.28858174399,9.5121612161216,1320432.5432405,-5797.720534697,2813860.8068678,14.712161216122,0,0
-159.30200071673,135.34002793504,9.5165916591659,1320432.5432405,-5797.720534697,2813860.8068678,14.716591659166,0,0
-159.30200051716,135.3914741261,9.5210221022102,1320432.5432405,-5797.720534697,2813860.8068678,14.72102210221,0,0
-159.3020003176,135.44292031715,9.5254525452545,1320432.5432405,-5797.720534697,2813860.8068678,14.725452545255,0,0
-159.30200011804,135.49436650821,9.5298829882988,1320432.5432405,-5797.720534697,2813860.8068678,14.729882988299,0,0
-159.30199991847,135.54581269926,9.5343134313431,1320432.5432405,-5797.720534697,2813860.8068678,14.734313431343,0,0
-159.30199971891,135.59725889032,9.5387438743874,1320432.5432405,-5797.720534697,2813860.8068678,14.738743874387,0,0
-159.30199951934,135.64870508137,9.5431743174317,1320432.5432405,-5797.720534697,2813860.8068678,14.743174317432,0,0
-159.30199931978,135.70015127243,9.547604760476,1320432.5432405,-5797.720534697,2813860.8068678,14.747604760476,0,0
-159.30199912022,135.75159746348,9.5520352035204,1320432.5432405,-5797.720534697,2813860.8068678,14.75203520352,0,0
-159.30199892065,135.80304365454,9.5564656465647,1320432.5432405,-5797.720534697,2813860.8068678,14.756465646565,0,0
-159.30199872109,135.85448984559,9.560896089609,1320432.5432405,-5797.720534697,2813860.8068678,14.760896089609,0,0
-159.30199852152,135.90593603665,9.5653265326533,1320432.5432405,-5797.720534697,2813860.8068678,14.765326532653,0,0
-159.30199832196,135.9573822277,9.5697569756976,1320432.5432405,-5797.720534697,2813860.8068678,14.769756975698,0,0
-159.3019981224,136.00882841876,9.5741874187419,1320432.5432405,-5797.720534697,2813860.8068678,14.774187418742,0,0
-159.30199792283,136.06027460981,9.5786178617862,1320432.5432405,-5797.720534697,2813860.8068678,14.778617861786,0,0
-159.30199772327,136.11172080087,9.5830483048305,1320432.5432405,-5797.720534697,2813860.8068678,14.78304830483,0,0
-159.3019975237,136.16316699192,9.5874787478748,1320432.5432405,-5797.720534697,2813860.8068678,14.787478747875,0,0
-159.30199732414,136.21461318298,9.5919091909191,1320432.5432405,-5797.720534697,2813860.8068678,14.791909190919,0,0
-159.30199712457,136.26605937403,9.5963396339634,1320432.5432405,-5797.720534697,2813860.8068678,14.796339633963,0,0
-159.30199692501,136.31750556509,9.6007700770077,1320432.5432405,-5797.720534697,2813860.8068678,14.800770077008,0,0
-159.30199672545,136.36895175614,9.605200520052,1320432.5432405,-5797.720534697,2813860.8068678,14.805200520052,0,0
-159.30199652588,136.4203979472,9.6096309630963,1320432.5432405,-5797.720534697,2813860.8068678,14.809630963096,0,0
-159.30199632632,136.47184413825,9.6140614061406,1320432.5432405,-5797.720534697,2813860.8068678,14.814061406141,0,0
-159.30199612675,136.52329032931,9.6184918491849,1320432.5432405,-5797.720534697,2813860.8068678,14.818491849185,0,0
-159.30199592719,136.57473652036,9.6229222922292,1320432.5432405,-5797.720534697,2813860.8068678,14.822922292229,0,0
-159.30199572763,136.62618271142,9.6273527352735,1320432.5432405,-5797.720534697,2813860.8068678,14.827352735274,0,0
-159.30199552806,136.67762890247,9.6317831783178,1320432.5432405,-5797.720534697,2813860.8068678,14.831783178318,0,0
-159.3019953285,136.72907509353,9.6362136213621,1320432.5432405,-5797.720534697,2813860.8068678,14.836213621362,0,0
-159.30199512893,136.78052128458,9.6406440644064,1320432.5432405,-5797.720534697,2813860.8068678,14.840644064406,0,0
-159.30199492937,136.83196747564,9.6450745074507,1320432.5432405,-5797.720534697,2813860.8068678,14.845074507451,0,0
-159.30199472981,136.88341366669,9.6495049504951,1320432.5432405,-5797.720534697,2813860.8068678,14.849504950495,0,0
-159.30199453024,136.93485985775,9.6539353935394,1320432.5432405,-5797.720534697,2813860.8068678,14.853935393539,0,0
-159.30199433068,136.9863060488,9.6583658365837,1320432.5432405,-5797.720534697,2813860.8068678,14.858365836584,0,0
-159.30199413111,137.03775223986,9.662796279628,1320432.5432405,-5797.720534697,2813860.8068678,14.862796279628,0,0
-159.30199393155,137.08919843091,9.6672267226723,1320432.5432405,-5797.720534697,2813860.8068678,14.867226722672,0,0
-159.30199373199,137.14064462197,9.6716571657166,1320432.5432405,-5797.720534697,2813860.8068678,14.871657165717,0,0
-159.30199353242,137.19209081302,9.6760876087609,1320432.5432405,-5797.720534697,2813860.8068678,14.876087608761,0,0
-159.30199333286,137.24353700408,9.6805180518052,1320432.5432405,-5797.720534697,2813860.8068678,14.880518051805,0,0
-159.30199313329,137.29498319513,9.6849484948495,1320432.5432405,-5797.720534697,2813860.8068678,14.884948494849,0,0
-159.30199293373,137.34642938619,9.6893789378938,1320432.5432405,-5797.720534697,2813860.8068678,14.889378937894,0,0
-159.30199273417,137.39787557724,9.6938093809381,1320432.5432405,-5797.720534697,2813860.8068678,14.893809380938,0,0
-159.3019925346,137.4493217683,9.6982398239824,1320432.5432405,-5797.720534697,2813860.8068678,14.898239823982,0,0
-159.30199233504,137.50076795935,9.7026702670267,1320432.5432405,-5797.720534697,2813860.8068678,14.902670267027,0,0
-159.30199213547,137.55221415041,9.707100710071,1320432.5432405,-5797.720534697,2813860.8068678,14.907100710071,0,0
-159.30199193591,137.60366034146,9.7115311531153,1320432.5432405,-5797.720534697,2813860.8068678,14.911531153115,0,0
-159.30199173634,137.65510653252,9.7159615961596,1320432.5432405,-5797.720534697,2813860.8068678,14.91596159616,0,0
-159.30199153678,137.70655272357,9.7203920392039,1320432.5432405,-5797.720534697,2813860.8068678,14.920392039204,0,0
-159.30199133722,137.75799891463,9.7248224822482,1320432.5432405,-5797.720534697,2813860.8068678,14.924822482248,0,0
-159.30199113765,137.80944510568,9.7292529252925,1320432.5432405,-5797.720534697,2813860.8068678,14.929252925293,0,0
-159.30199093809,137.86089129674,9.7336833683368,1320432.5432405,-5797.720534697,2813860.8068678,14.933683368337,0,0
-159.30199073852,137.91233748779,9.7381138113811,1320432.5432405,-5797.720534697,2813860.8068678,14.938113811381,0,0
-159.30199053896,137.96378367885,9.7425442544254,1320432.5432405,-5797.720534697,2813860.8068678,14.942544254425,0,0
-159.3019903394,138.0152298699,9.7469746974697,1320432.5432405,-5797.720534697,2813860.8068678,14.94697469747,0,0
-159.30199013983,138.06667606096,9.7514051405141,1320432.5432405,-5797.720534697,2813860.8068678,14.951405140514,0,0
-159.30198994027,138.11812225201,9.7558355835584,1320432.5432405,-5797.720534697,2813860.8068678,14.955835583558,0,0
-159.3019897407,138.16956844307,9.7602660266027,1320432.5432405,-5797.720534697,2813860.8068678,14.960266026603,0,0
-159.30198954114,138.22101463412,9.764696469647,1320432.5432405,-5797.720534697,2813860.8068678,14.964696469647,0,0
-159.30198934158,138.27246082518,9.7691269126913,1320432.5432405,-5797.720534697,2813860.8068678,14.969126912691,0,0
-159.30198914201,138.32390701623,9.7735573557356,1320432.5432405,-5797.720534697,2813860.8068678,14.973557355736,0,0
-159.30198894245,138.37535320729,9.7779877987799,1320432.5432405,-5797.720534697,2813860.8068678,14.97798779878,0,0
-159.30198874288,138.42679939834,9.7824182418242,1320432.5432405,-5797.720534697,2813860.8068678,14.982418241824,0,0
-159.30198854332,138.4782455894,9.7868486848685,1320432.5432405,-5797.720534697,2813860.8068678,14.986848684868,0,0
-159.30198834376,138.52969178045,9.7912791279128,1320432.5432405,-5797.720534697,2813860.8068678,14.991279127913,0,0
-159.30198814419,138.58113797151,9.7957095709571,1320432.5432405,-5797.720534697,2813860.8068678,14.995709570957,0,0
-159.30198794463,138.63258416256,9.8001400140014,1320432.5432405,-5797.720534697,2813860.8068678,15.000140014001,0,0
-159.30198774506,138.68403035362,9.8045704570457,1320432.5432405,-5797.720534697,2813860.8068678,15.004570457046,0,0
-159.3019875455,138.73547654467,9.80900090009,1320432.5432405,-5797.720534697,2813860.8068678,15.00900090009,0,0
-159.30198734594,138.78692273573,9.8134313431343,1320432.5432405,-5797.720534697,2813860.8068678,15.013431343134,0,0
-159.30198714637,138.83836892678,9.8178617861786,1320432.5432405,-5797.720534697,2813860.8068678,15.017861786179,0,0
-159.30198694681,138.88981511784,9.8222922292229,1320432.5432405,-5797.720534697,2813860.8068678,15.022292229223,0,0
-159.30198674724,138.94126130889,9.8267226722672,1320432.5432405,-5797.720534697,2813860.8068678,15.026722672267,0,0
-159.30198654768,138.99270749995,9.8311531153115,1320432.5432405,-5797.720534697,2813860.8068678,15.031153115312,0,0
-159.30198634811,139.044153691,9.8355835583558,1320432.5432405,-5797.720534697,2813860.8068678,15.035583558356,0,0
-159.30198614855,139.09559988206,9.8400140014001,1320432.5432405,-5797.720534697,2813860.8068678,15.0400140014,0,0
-159.30198594899,139.14704607311,9.8444444444444,1320432.5432405,-5797.720534697,2813860.8068678,15.044444444444,0,0
-159.30198574942,139.19849226417,9.8488748874887,1320432.5432405,-5797.720534697,2813860.8068678,15.048874887489,0,0
-159.30198554986,139.24993845522,9.8533053305331,1320432.5432405,-5797.720534697,2813860.8068678,15.053305330533,0,0
-159.30198535029,139.30138464628,9.8577357735774,1320432.5432405,-5797.720534697,2813860.8068678,15.057735773577,0,0
-159.30198515073,139.35283083733,9.8621662166217,1320432.5432405,-5797.720534697,2813860.8068678,15.062166216622,0,0
-159.30198495117,139.40427702839,9.866596659666,1320432.5432405,-5797.720534697,2813860.8068678,15.066596659666,0,0
-159.3019847516,139.45572321944,9.8710271027103,1320432.5432405,-5797.720534697,2813860.8068678,15.07102710271,0,0
-159.30198455204,139.5071694105,9.8754575457546,1320432.5432405,-5797.720534697,2813860.8068678,15.075457545755,0,0
-159.30198435247,139.55861560155,9.8798879887989,1320432.5432405,-5797.720534697,2813860.8068678,15.079887988799,0,0
-159.30198415291,139.61006179261,9.8843184318432,1320432.5432405,-5797.720534697,2813860.8068678,15.084318431843,0,0
-159.30198395335,139.66150798366,9.8887488748875,1320432.5432405,-5797.720534697,2813860.8068678,15.088748874887,0,0
-159.30198375378,139.71295417472,9.8931793179318,1320432.5432405,-5797.720534697,2813860.8068678,15.093179317932,0,0
-159.30198355422,139.76440036577,9.8976097609761,1320432.5432405,-5797.720534697,2813860.8068678,15.097609760976,0,0
-159.30198335465,139.81584655683,9.9020402040204,1320432.5432405,-5797.720534697,2813860.8068678,15.10204020402,0,0
-159.30198315509,139.86729274788,9.9064706470647,1320432.5432405,-5797.720534697,2813860.8068678,15.106470647065,0,0
-159.30198295553,139.91873893894,9.910901090109,1320432.5432405,-5797.720534697,2813860.8068678,15.110901090109,0,0
-159.30198275596,139.97018512999,9.9153315331533,1320432.5432405,-5797.720534697,2813860.8068678,15.115331533153,0,0
-159.3019825564,140.02163132105,9.9197619761976,1320432.5432405,-5797.720534697,2813860.8068678,15.119761976198,0,0
-159.30198235683,140.0730775121,9.9241924192419,1320432.5432405,-5797.720534697,2813860.8068678,15.124192419242,0,0
-159.30198215727,140.12452370316,9.9286228622862,1320432.5432405,-5797.720534697,2813860.8068678,15.128622862286,0,0
-159.3019819577,140.17596989421,9.9330533053305,1320432.5432405,-5797.720534697,2813860.8068678,15.133053305331,0,0
-159.30198175814,140.22741608527,9.9374837483748,1320432.5432405,-5797.720534697,2813860.8068678,15.137483748375,0,0
-159.30198155858,140.27886227632,9.9419141914191,1320432.5432405,-5797.720534697,2813860.8068678,15.141914191419,0,0
-159.30198135901,140.33030846738,9.9463446344634,1320432.5432405,-5797.720534697,2813860.8068678,15.146344634463,0,0
-159.30198115945,140.38175465843,9.9507750775077,1320432.5432405,-5797.720534697,2813860.8068678,15.150775077508,0,0
-159.30198095988,140.43320084949,9.9552055205521,1320432.5432405,-5797.720534697,2813860.8068678,15.155205520552,0,0
-159.30198076032,140.48464704054,9.9596359635964,1320432.5432405,-5797.720534697,2813860.8068678,15.159635963596,0,0
-159.30198056076,140.5360932316,9.9640664066407,1320432.5432405,-5797.720534697,2813860.8068678,15.164066406641,0,0
-159.30198036119,140.58753942265,9.968496849685,1320432.5432405,-5797.720534697,2813860.8068678,15.168496849685,0,0
-159.30198016163,140.63898561371,9.9729272927293,1320432.5432405,-5797.720534697,2813860.8068678,15.172927292729,0,0
-159.30197996206,140.69043180476,9.9773577357736,1320432.5432405,-5797.720534697,2813860.8068678,15.177357735774,0,0
-159.3019797625,140.74187799582,9.9817881788179,1320432.5432405,-5797.720534697,2813860.8068678,15.181788178818,0,0
-159.30197956294,140.79332418687,9.9862186218622,1320432.5432405,-5797.720534697,2813860.8068678,15.186218621862,0,0
-159.30197936337,140.84477037793,9.9906490649065,1320432.5432405,-5797.720534697,2813860.8068678,15.190649064906,0,0
-159.30197916381,140.89621656898,9.9950795079508,1320432.5432405,-5797.720534697,2813860.8068678,15.195079507951,0,0
-159.30197896424,140.94766276004,9.9995099509951,1320432.5432405,-5797.720534697,2813860.8068678,15.199509950995,0,0
-159.30197876468,140.99910895109,10.003940394039,1320432.5432405,-5797.720534697,2813860.8068678,15.203940394039,0,0
-159.30197856512,141.05055514215,10.008370837084,1320432.5432405,-5797.720534697,2813860.8068678,15.208370837084,0,0
-159.30197836555,141.1020013332,10.012801280128,1320432.5432405,-5797.720534697,2813860.8068678,15.212801280128,0,0
-159.30197816599,141.15344752426,10.017231723172,1320432.5432405,-5797.720534697,2813860.8068678,15.217231723172,0,0
-159.30197796642,141.20489371531,10.021662166217,1320432.5432405,-5797.720534697,2813860.8068678,15.221662166217,0,0
-159.30197776686,141.25633990637,10.026092609261,1320432.5432405,-5797.720534697,2813860.8068678,15.226092609261,0,0
-159.3019775673,141.30778609742,10.030523052305,1320432.5432405,-5797.720534697,2813860.8068678,15.230523052305,0,0
-159.30197736773,141.35923228848,10.03495349535,1320432.5432405,-5797.720534697,2813860.8068678,15.23495349535,0,0
-159.30197716817,141.41067847953,10.039383938394,1320432.5432405,-5797.720534697,2813860.8068678,15.239383938394,0,0
-159.3019769686,141.46212467059,10.043814381438,1320432.5432405,-5797.720534697,2813860.8068678,15.243814381438,0,0
-159.30197676904,141.51357086164,10.048244824482,1320432.5432405,-5797.720534697,2813860.8068678,15.248244824482,0,0
-159.30197656947,141.5650170527,10.052675267527,1320432.5432405,-5797.720534697,2813860.8068678,15.252675267527,0,0
-159.30197636991,141.61646324375,10.057105710571,1320432.5432405,-5797.720534697,2813860.8068678,15.257105710571,0,0
-159.30197617035,141.66790943481,10.061536153615,1320432.5432405,-5797.720534697,2813860.8068678,15.261536153615,0,0
-159.30197597078,141.71935562586,10.06596659666,1320432.5432405,-5797.720534697,2813860.8068678,15.26596659666,0,0
-159.30197577122,141.77080181692,10.070397039704,1320432.5432405,-5797.720534697,2813860.8068678,15.270397039704,0,0
-159.30197557165,141.82224800797,10.074827482748,1320432.5432405,-5797.720534697,2813860.8068678,15.274827482748,0,0
-159.30197537209,141.87369419903,10.079257925793,1320432.5432405,-5797.720534697,2813860.8068678,15.279257925793,0,0
-159.30197517253,141.92514039008,10.083688368837,1320432.5432405,-5797.720534697,2813860.8068678,15.283688368837,0,0
-159.30197497296,141.97658658114,10.088118811881,1320432.5432405,-5797.720534697,2813860.8068678,15.288118811881,0,0
-159.3019747734,142.02803277219,10.092549254925,1320432.5432405,-5797.720534697,2813860.8068678,15.292549254925,0,0
-159.30197457383,142.07947896325,10.09697969797,1320432.5432405,-5797.720534697,2813860.8068678,15.29697969797,0,0
-159.30197437427,142.1309251543,10.101410141014,1320432.5432405,-5797.720534697,2813860.8068678,15.301410141014,0,0
-159.30197417471,142.18237134536,10.105840584058,1320432.5432405,-5797.720534697,2813860.8068678,15.305840584058,0,0
-159.30197397514,142.23381753641,10.110271027103,1320432.5432405,-5797.720534697,2813860.8068678,15.310271027103,0,0
-159.30197377558,142.28526372747,10.114701470147,1320432.5432405,-5797.720534697,2813860.8068678,15.314701470147,0,0
-159.30197357601,142.33670991852,10.119131913191,1320432.5432405,-5797.720534697,2813860.8068678,15.319131913191,0,0
-159.30197337645,142.38815610958,10.123562356236,1320432.5432405,-5797.720534697,2813860.8068678,15.323562356236,0,0
-159.30197317689,142.43960230063,10.12799279928,1320432.5432405,-5797.720534697,2813860.8068678,15.32799279928,0,0
-159.30197297732,142.49104849169,10.132423242324,1320432.5432405,-5797.720534697,2813860.8068678,15.332423242324,0,0
-159.30197277776,142.54249468274,10.136853685369,1320432.5432405,-5797.720534697,2813860.8068678,15.336853685369,0,0
-159.30197257819,142.5939408738,10.141284128413,1320432.5432405,-5797.720534697,2813860.8068678,15.341284128413,0,0
-159.30197237863,142.64538706485,10.145714571457,1320432.5432405,-5797.720534697,2813860.8068678,15.345714571457,0,0
-159.30197217907,142.69683325591,10.150145014501,1320432.5432405,-5797.720534697,2813860.8068678,15.350145014501,0,0
-159.3019719795,142.74827944696,10.154575457546,1320432.5432405,-5797.720534697,2813860.8068678,15.354575457546,0,0
-159.30197177994,142.79972563802,10.15900590059,1320432.5432405,-5797.720534697,2813860.8068678,15.35900590059,0,0
-159.30197158037,142.85117182907,10.163436343634,1320432.5432405,-5797.720534697,2813860.8068678,15.363436343634,0,0
-159.30197138081,142.90261802013,10.167866786679,1320432.5432405,-5797.720534697,2813860.8068678,15.367866786679,0,0
-159.30197118124,142.95406421118,10.172297229723,1320432.5432405,-5797.720534697,2813860.8068678,15.372297229723,0,0
-159.30197098168,143.00551040224,10.176727672767,1320432.5432405,-5797.720534697,2813860.8068678,15.376727672767,0,0
-159.30197078212,143.05695659329,10.181158115812,1320432.5432405,-5797.720534697,2813860.8068678,15.381158115812,0,0
-159.30197058255,143.10840278435,10.185588558856,1320432.5432405,-5797.720534697,2813860.8068678,15.385588558856,0,0
-159.30197038299,143.1598489754,10.1900190019,1320432.5432405,-5797.720534697,2813860.8068678,15.3900190019,0,0
-159.30197018342,143.21129516646,10.194449444944,1320432.5432405,-5797.720534697,2813860.8068678,15.394449444944,0,0
-159.30196998386,143.26274135751,10.198879887989,1320432.5432405,-5797.720534697,2813860.8068678,15.398879887989,0,0
-159.3019697843,143.31418754857,10.203310331033,1320432.5432405,-5797.720534697,2813860.8068678,15.403310331033,0,0
-159.30196958473,143.36563373962,10.207740774077,1320432.5432405,-5797.720534697,2813860.8068678,15.407740774077,0,0
-159.30196938517,143.41707993068,10.212171217122,1320432.5432405,-5797.720534697,2813860.8068678,15.412171217122,0,0
-159.30196918559,143.46852612371,10.216601660166,1316089.3288665,2826.4208878735,2800052.5503609,15.416601660166,0,0
-159.301968986,143.51997231841,10.22103210321,1316089.3288665,2826.4208878735,2800052.5503609,15.42103210321,0,0
-159.30196878641,143.5714185131,10.225462546255,1316089.3288665,2826.4208878735,2800052.5503609,15.425462546255,0,0
-159.30196858682,143.6228647078,10.229892989299,1316089.3288665,2826.4208878735,2800052.5503609,15.429892989299,0,0
-159.30196838723,143.67431090249,10.234323432343,1316089.3288665,2826.4208878735,2800052.5503609,15.434323432343,0,0
-159.30196818764,143.72575709719,10.238753875388,1316089.3288665,2826.4208878735,2800052.5503609,15.438753875388,0,0
-159.30196798805,143.77720329188,10.243184318432,1316089.3288665,2826.4208878735,2800052.5503609,15.443184318432,0,0
-159.30196778846,143.82864948658,10.247614761476,1316089.3288665,2826.4208878735,2800052.5503609,15.447614761476,0,0
-159.30196758887,143.88009568127,10.25204520452,1316089.3288665,2826.4208878735,2800052.5503609,15.45204520452,0,0
-159.30196738928,143.93154187597,10.256475647565,1316089.3288665,2826.4208878735,2800052.5503609,15.456475647565,0,0
-159.30196718969,143.98298807066,10.260906090609,1316089.3288665,2826.4208878735,2800052.5503609,15.460906090609,0,0
-159.3019669901,144.03443426536,10.265336533653,1316089.3288665,2826.4208878735,2800052.5503609,15.465336533653,0,0
-159.30196679051,144.08588046005,10.269766976698,1316089.3288665,2826.4208878735,2800052.5503609,15.469766976698,0,0
-159.30196659092,144.13732665474,10.274197419742,1316089.3288665,2826.4208878735,2800052.5503609,15.474197419742,0,0
-159.30196639133,144.18877284944,10.278627862786,1316089.3288665,2826.4208878735,2800052.5503609,15.478627862786,0,0
-159.30196619174,144.24021904413,10.283058305831,1316089.3288665,2826.4208878735,2800052.5503609,15.483058305831,0,0
-159.30196599215,144.29166523883,10.287488748875,1316089.3288665,2826.4208878735,2800052.5503609,15.487488748875,0,0
-159.30196579256,144.34311143352,10.291919191919,1316089.3288665,2826.4208878735,2800052.5503609,15.491919191919,0,0
-159.30196559297,144.39455762822,10.296349634963,1316089.3288665,2826.4208878735,2800052.5503609,15.496349634963,0,0
-159.30196539339,144.44600382291,10.300780078008,1316089.3288665,2826.4208878735,2800052.5503609,15.500780078008,0,0
-159.3019651938,144.49745001761,10.305210521052,1316089.3288665,2826.4208878735,2800052.5503609,15.505210521052,0,0
-159.30196499421,144.5488962123,10.309640964096,1316089.3288665,2826.4208878735,2800052.5503609,15.509640964096,0,0
-159.30196479462,144.600342407,10.314071407141,1316089.3288665,2826.4208878735,2800052.5503609,15.514071407141,0,0
-159.30196459503,144.65178860169,10.318501850185,1316089.3288665,2826.4208878735,2800052.5503609,15.518501850185,0,0
-159.30196439544,144.70323479639,10.322932293229,1316089.3288665,2826.4208878735,2800052.5503609,15.522932293229,0,0
-159.30196419585,144.75468099108,10.327362736274,1316089.3288665,2826.4208878735,2800052.5503609,15.527362736274,0,0
-159.30196399626,144.80612718578,10.331793179318,1316089.3288665,2826.4208878735,2800052.5503609,15.531793179318,0,0
-159.30196379667,144.85757338047,10.336223622362,1316089.3288665,2826.4208878735,2800052.5503609,15.536223622362,0,0
-159.30196359708,144.90901957517,10.340654065407,1316089.3288665,2826.4208878735,2800052.5503609,15.540654065407,0,0
-159.30196339749,144.96046576986,10.345084508451,1316089.3288665,2826.4208878735,2800052.5503609,15.545084508451,0,0
-159.3019631979,145.01191196456,10.349514951495,1316089.3288665,2826.4208878735,2800052.5503609,15.549514951495,0,0
-159.30196299831,145.06335815925,10.353945394539,1316089.3288665,2826.4208878735,2800052.5503609,15.553945394539,0,0
-159.30196279872,145.11480435394,10.358375837584,1316089.3288665,2826.4208878735,2800052.5503609,15.558375837584,0,0
-159.30196259913,145.16625054864,10.362806280628,1316089.3288665,2826.4208878735,2800052.5503609,15.562806280628,0,0
-159.30196239954,145.21769674333,10.367236723672,1316089.3288665,2826.4208878735,2800052.5503609,15.567236723672,0,0
-159.30196219995,145.26914293803,10.371667166717,1316089.3288665,2826.4208878735,2800052.5503609,15.571667166717,0,0
-159.30196200036,145.32058913272,10.376097609761,1316089.3288665,2826.4208878735,2800052.5503609,15.576097609761,0,0
-159.30196180077,145.37203532742,10.380528052805,1316089.3288665,2826.4208878735,2800052.5503609,15.580528052805,0,0
-159.30196160118,145.42348152211,10.38495849585,1316089.3288665,2826.4208878735,2800052.5503609,15.58495849585,0,0
-159.30196140159,145.47492771681,10.389388938894,1316089.3288665,2826.4208878735,2800052.5503609,15.589388938894,0,0
-159.301961202,145.5263739115,10.393819381938,1316089.3288665,2826.4208878735,2800052.5503609,15.593819381938,0,0
-159.30196100197,145.57782010437,10.398249824982,1316181.1785659,-5061.9319078236,2781713.6326707,15.598249824982,0,0
-159.30196080142,145.62926629505,10.402680268027,1316181.1785659,-5061.9319078236,2781713.6326707,15.602680268027,0,0
-159.30196060087,145.68071248573,10.407110711071,1316181.1785659,-5061.9319078236,2781713.6326707,15.607110711071,0,0
-159.30196040032,145.73215867641,10.411541154115,1316181.1785659,-5061.9319078236,2781713.6326707,15.611541154115,0,0
-159.30196019976,145.78360486709,10.41597159716,1316181.1785659,-5061.9319078236,2781713.6326707,15.61597159716,0,0
-159.30195999921,145.83505105777,10.420402040204,1316181.1785659,-5061.9319078236,2781713.6326707,15.620402040204,0,0
-159.30195979866,145.88649724845,10.424832483248,1316181.1785659,-5061.9319078236,2781713.6326707,15.624832483248,0,0
-159.30195959811,145.93794343913,10.429262926293,1316181.1785659,-5061.9319078236,2781713.6326707,15.629262926293,0,0
-159.30195939755,145.98938962981,10.433693369337,1316181.1785659,-5061.9319078236,2781713.6326707,15.633693369337,0,0
-159.301959197,146.04083582049,10.438123812381,1316181.1785659,-5061.9319078236,2781713.6326707,15.638123812381,0,0
-159.30195899645,146.09228201117,10.442554255426,1316181.1785659,-5061.9319078236,2781713.6326707,15.642554255426,0,0
-159.30195879589,146.14372820185,10.44698469847,1316181.1785659,-5061.9319078235,2781713.6326707,15.64698469847,0,0
-159.30195859534,146.19517439253,10.451415141514,1316181.1785659,-5061.9319078235,2781713.6326707,15.651415141514,0,0
-159.30195839479,146.24662058321,10.455845584558,1316181.1785659,-5061.9319078236,2781713.6326707,15.655845584558,0,0
-159.30195819424,146.29806677389,10.460276027603,1316181.1785659,-5061.9319078236,2781713.6326707,15.660276027603,0,0
-159.30195799368,146.34951296457,10.464706470647,1316181.1785659,-5061.9319078236,2781713.6326707,15.664706470647,0,0
-159.30195779313,146.40095915525,10.469136913691,1316181.1785659,-5061.9319078236,2781713.6326707,15.669136913691,0,0
-159.30195759258,146.45240534593,10.473567356736,1316181.1785659,-5061.9319078236,2781713.6326707,15.673567356736,0,0
-159.30195739203,146.50385153661,10.47799779978,1316181.1785659,-5061.9319078236,2781713.6326707,15.67799779978,0,0
-159.30195719147,146.55529772729,10.482428242824,1316181.1785659,-5061.9319078236,2781713.6326707,15.682428242824,0,0
-159.30195699092,146.60674391797,10.486858685869,1316181.1785659,-5061.9319078236,2781713.6326707,15.686858685869,0,0
-159.30195679037,146.65819010865,10.491289128913,1316181.1785659,-5061.9319078236,2781713.6326707,15.691289128913,0,0
-159.30195658982,146.70963629933,10.495719571957,1316181.1785659,-5061.9319078236,2781713.6326707,15.695719571957,0,0
-159.30195638926,146.76108249001,10.500150015001,1316181.1785659,-5061.9319078236,2781713.6326707,15.700150015001,0,0
-159.30195618871,146.81252868069,10.504580458046,1316181.1785659,-5061.9319078236,2781713.6326707,15.704580458046,0,0
-159.30195598816,146.86397487137,10.50901090109,1316181.1785659,-5061.9319078236,2781713.6326707,15.70901090109,0,0
-159.3019557876,146.91542106205,10.513441344134,1316181.1785659,-5061.9319078236,2781713.6326707,15.713441344134,0,0
-159.30195558705,146.96686725273,10.517871787179,1316181.1785659,-5061.9319078236,2781713.6326707,15.717871787179,0,0
-159.3019553865,147.01831344341,10.522302230223,1316181.1785659,-5061.9319078236,2781713.6326707,15.722302230223,0,0
-159.30195518595,147.06975963409,10.526732673267,1316181.1785659,-5061.9319078236,2781713.6326707,15.726732673267,0,0
-159.30195498539,147.12120582477,10.531163116312,1316181.1785659,-5061.9319078236,2781713.6326707,15.731163116312,0,0
-159.30195478484,147.17265201545,10.535593559356,1316181.1785659,-5061.9319078236,2781713.6326707,15.735593559356,0,0
-159.30195458429,147.22409820613,10.5400240024,1316181.1785659,-5061.9319078236,2781713.6326707,15.7400240024,0,0
-159.30195438374,147.27554439681,10.544454445445,1316181.1785659,-5061.9319078236,2781713.6326707,15.744454445445,0,0
-159.30195418318,147.32699058749,10.548884888489,1316181.1785659,-5061.9319078235,2781713.6326707,15.748884888489,0,0
-159.30195398263,147.37843677817,10.553315331533,1316181.1785659,-5061.9319078235,2781713.6326707,15.753315331533,0,0
-159.30195378208,147.42988296885,10.557745774577,1316181.1785659,-5061.9319078235,2781713.6326707,15.757745774577,0,0
-159.30195358153,147.48132915953,10.562176217622,1316181.1785659,-5061.9319078235,2781713.6326707,15.762176217622,0,0
-159.30195338097,147.53277535021,10.566606660666,1316181.1785659,-5061.9319078235,2781713.6326707,15.766606660666,0,0
-159.30195318042,147.58422154089,10.57103710371,1316181.1785659,-5061.9319078235,2781713.6326707,15.77103710371,0,0
-159.30195297987,147.63566773157,10.575467546755,1316181.1785659,-5061.9319078236,2781713.6326707,15.775467546755,0,0
-159.30195277931,147.68711392225,10.579897989799,1316181.1785659,-5061.9319078236,2781713.6326707,15.779897989799,0,0
-159.30195257876,147.73856011293,10.584328432843,1316181.1785659,-5061.9319078236,2781713.6326707,15.784328432843,0,0
-159.30195237821,147.79000630361,10.588758875888,1316181.1785659,-5061.9319078236,2781713.6326707,15.788758875888,0,0
-159.30195217766,147.84145249429,10.593189318932,1316181.1785659,-5061.9319078236,2781713.6326707,15.793189318932,0,0
-159.3019519771,147.89289868497,10.597619761976,1316181.1785659,-5061.9319078236,2781713.6326707,15.797619761976,0,0
-159.30195177655,147.94434487565,10.602050205021,1316181.1785659,-5061.9319078236,2781713.6326707,15.80205020502,0,0
-159.301951576,147.99579106633,10.606480648065,1316181.1785659,-5061.9319078236,2781713.6326707,15.806480648065,0,0
-159.30195137545,148.04723725701,10.610911091109,1316181.1785659,-5061.9319078236,2781713.6326707,15.810911091109,0,0
-159.30195117489,148.09868344769,10.615341534153,1316181.1785659,-5061.9319078236,2781713.6326707,15.815341534153,0,0
-159.30195097434,148.15012963837,10.619771977198,1316181.1785659,-5061.9319078236,2781713.6326707,15.819771977198,0,0
-159.30195077379,148.20157582905,10.624202420242,1316181.1785659,-5061.9319078236,2781713.6326707,15.824202420242,0,0
-159.30195057324,148.25302201973,10.628632863286,1316181.1785659,-5061.9319078236,2781713.6326707,15.828632863286,0,0
-159.30195037268,148.30446821041,10.633063306331,1316181.1785659,-5061.9319078236,2781713.6326707,15.833063306331,0,0
-159.30195017213,148.35591440109,10.637493749375,1316181.1785659,-5061.9319078236,2781713.6326707,15.837493749375,0,0
-159.30194997158,148.40736059177,10.641924192419,1316181.1785659,-5061.9319078236,2781713.6326707,15.841924192419,0,0
-159.30194977102,148.45880678245,10.646354635464,1316181.1785659,-5061.9319078236,2781713.6326707,15.846354635464,0,0
-159.30194957047,148.51025297313,10.650785078508,1316181.1785659,-5061.9319078236,2781713.6326707,15.850785078508,0,0
-159.30194936992,148.56169916381,10.655215521552,1316181.1785659,-5061.9319078235,2781713.6326707,15.855215521552,0,0
-159.30194916937,148.61314535449,10.659645964596,1316181.1785659,-5061.9319078235,2781713.6326707,15.859645964596,0,0
-159.30194896881,148.66459154517,10.664076407641,1316181.1785659,-5061.9319078235,2781713.6326707,15.864076407641,0,0
-159.30194876826,148.71603773585,10.668506850685,1316181.1785659,-5061.9319078235,2781713.6326707,15.868506850685,0,0
-159.30194856771,148.76748392653,10.672937293729,1316181.1785659,-5061.9319078235,2781713.6326707,15.872937293729,0,0
-159.30194836716,148.81893011721,10.677367736774,1316181.1785659,-5061.9319078235,2781713.6326707,15.877367736774,0,0
-159.3019481666,148.87037630789,10.681798179818,1316181.1785659,-5061.9319078235,2781713.6326707,15.881798179818,0,0
-159.30194796605,148.92182249857,10.686228622862,1316181.1785659,-5061.9319078235,2781713.6326707,15.886228622862,0,0
-159.3019477655,148.97326868925,10.690659065907,1316181.1785659,-5061.9319078235,2781713.6326707,15.890659065907,0,0
-159.30194756495,149.02471487993,10.695089508951,1316181.1785659,-5061.9319078236,2781713.6326707,15.895089508951,0,0
-159.30194736439,149.07616107061,10.699519951995,1316181.1785659,-5061.9319078236,2781713.6326707,15.899519951995,0,0
-159.30194716384,149.12760726129,10.70395039504,1316181.1785659,-5061.9319078236,2781713.6326707,15.90395039504,0,0
-159.30194696329,149.17905345197,10.708380838084,1316181.1785659,-5061.9319078236,2781713.6326707,15.908380838084,0,0
-159.30194676273,149.23049964265,10.712811281128,1316181.1785659,-5061.9319078236,2781713.6326707,15.912811281128,0,0
-159.30194656218,149.28194583333,10.717241724172,1316181.1785659,-5061.9319078236,2781713.6326707,15.917241724172,0,0
-159.30194636163,149.33339202401,10.721672167217,1316181.1785659,-5061.9319078236,2781713.6326707,15.921672167217,0,0
-159.30194616108,149.38483821469,10.726102610261,1316181.1785659,-5061.9319078236,2781713.6326707,15.926102610261,0,0
-159.30194596052,149.43628440537,10.730533053305,1316181.1785659,-5061.9319078236,2781713.6326707,15.930533053305,0,0
-159.30194575997,149.48773059605,10.73496349635,1316181.1785659,-5061.9319078236,2781713.6326707,15.93496349635,0,0
-159.30194555942,149.53917678673,10.739393939394,1316181.1785659,-5061.9319078236,2781713.6326707,15.939393939394,0,0
-159.30194535887,149.5906229774,10.743824382438,1316181.1785659,-5061.9319078236,2781713.6326707,15.943824382438,0,0
-159.30194515831,149.64206916808,10.748254825483,1316181.1785659,-5061.9319078236,2781713.6326707,15.948254825483,0,0
-159.30194495776,149.69351535876,10.752685268527,1316181.1785659,-5061.9319078236,2781713.6326707,15.952685268527,0,0
-159.30194475721,149.74496154944,10.757115711571,1316181.1785659,-5061.9319078235,2781713.6326707,15.957115711571,0,0
-159.30194455666,149.79640774012,10.761546154615,1316181.1785659,-5061.9319078235,2781713.6326707,15.961546154615,0,0
-159.3019443561,149.8478539308,10.76597659766,1316181.1785659,-5061.9319078235,2781713.6326707,15.96597659766,0,0
-159.30194415555,149.89930012148,10.770407040704,1316181.1785659,-5061.9319078235,2781713.6326707,15.970407040704,0,0
-159.301943955,149.95074631216,10.774837483748,1316181.1785659,-5061.9319078235,2781713.6326707,15.974837483748,0,0
-159.30194375444,150.00219250284,10.779267926793,1316181.1785659,-5061.9319078235,2781713.6326707,15.979267926793,0,0
-159.30194355389,150.05363869352,10.783698369837,1316181.1785659,-5061.9319078235,2781713.6326707,15.983698369837,0,0
-159.30194335334,150.1050848842,10.788128812881,1316181.1785659,-5061.9319078235,2781713.6326707,15.988128812881,0,0
-159.30194315279,150.15653107488,10.792559255926,1316181.1785659,-5061.9319078235,2781713.6326707,15.992559255926,0,0
-159.30194295223,150.20797726556,10.79698969897,1316181.1785659,-5061.9319078235,2781713.6326707,15.99698969897,0,0
-159.30194275168,150.25942345624,10.801420142014,1316181.1785659,-5061.9319078235,2781713.6326707,16.001420142014,0,0
-159.30194255113,150.31086964692,10.805850585059,1316181.1785659,-5061.9319078235,2781713.6326707,16.005850585059,0,0
-159.30194235058,150.3623158376,10.810281028103,1316181.1785659,-5061.9319078235,2781713.6326707,16.010281028103,0,0
-159.30194215002,150.41376202828,10.814711471147,1316181.1785659,-5061.9319078236,2781713.6326707,16.014711471147,0,0
-159.30194194947,150.46520821896,10.819141914191,1316181.1785659,-5061.9319078236,2781713.6326707,16.019141914191,0,0
-159.30194174892,150.51665440964,10.823572357236,1316181.1785659,-5061.9319078236,2781713.6326707,16.023572357236,0,0
-159.30194154837,150.56810060032,10.82800280028,1316181.1785659,-5061.9319078236,2781713.6326707,16.02800280028,0,0
-159.30194134781,150.619546791,10.832433243324,1316181.1785659,-5061.9319078236,2781713.6326707,16.032433243324,0,0
-159.30194114726,150.67099298168,10.836863686369,1316181.1785659,-5061.9319078236,2781713.6326707,16.036863686369,0,0
-159.30194094671,150.72243917236,10.841294129413,1316181.1785659,-5061.9319078236,2781713.6326707,16.041294129413,0,0
-159.30194074615,150.77388536304,10.845724572457,1316181.1785659,-5061.9319078236,2781713.6326707,16.045724572457,0,0
-159.3019405456,150.82533155372,10.850155015502,1316181.1785659,-5061.9319078236,2781713.6326707,16.050155015502,0,0
-159.30194034505,150.8767777444,10.854585458546,1316181.1785659,-5061.9319078236,2781713.6326707,16.054585458546,0,0
-159.3019401445,150.92822393508,10.85901590159,1316181.1785659,-5061.9319078236,2781713.6326707,16.05901590159,0,0
-159.30193994394,150.97967012576,10.863446344634,1316181.1785659,-5061.9319078235,2781713.6326707,16.063446344634,0,0
-159.30193974339,151.03111631644,10.867876787679,1316181.1785659,-5061.9319078235,2781713.6326707,16.067876787679,0,0
-159.30193954284,151.08256250712,10.872307230723,1316181.1785659,-5061.9319078235,2781713.6326707,16.072307230723,0,0
-159.30193934229,151.1340086978,10.876737673767,1316181.1785659,-5061.9319078235,2781713.6326707,16.076737673767,0,0
-159.30193914173,151.18545488848,10.881168116812,1316181.1785659,-5061.9319078235,2781713.6326707,16.081168116812,0,0
-159.30193894118,151.23690107916,10.885598559856,1316181.1785659,-5061.9319078235,2781713.6326707,16.085598559856,0,0
-159.30193874063,151.28834726984,10.8900290029,1316181.1785659,-5061.9319078235,2781713.6326707,16.0900290029,0,0
-159.30193854008,151.33979346052,10.894459445945,1316181.1785659,-5061.9319078235,2781713.6326707,16.094459445945,0,0
-159.30193833952,151.3912396512,10.898889888989,1316181.1785659,-5061.9319078235,2781713.6326707,16.098889888989,0,0
-159.30193813897,151.44268584188,10.903320332033,1316181.1785659,-5061.9319078235,2781713.6326707,16.103320332033,0,0
-159.30193793842,151.49413203256,10.907750775078,1316181.1785659,-5061.9319078235,2781713.6326707,16.107750775078,0,0
-159.30193773786,151.54557822324,10.912181218122,1316181.1785659,-5061.9319078235,2781713.6326707,16.112181218122,0,0
-159.30193753731,151.59702441392,10.916611661166,1316181.1785659,-5061.9319078235,2781713.6326707,16.116611661166,0,0
-159.30193733676,151.6484706046,10.92104210421,1316181.1785659,-5061.9319078235,2781713.6326707,16.12104210421,0,0
-159.30193713621,151.69991679528,10.925472547255,1316181.1785659,-5061.9319078235,2781713.6326707,16.125472547255,0,0
-159.30193693565,151.75136298596,10.929902990299,1316181.1785659,-5061.9319078235,2781713.6326707,16.129902990299,0,0
-159.3019367351,151.80280917664,10.934333433343,1316181.1785659,-5061.9319078236,2781713.6326707,16.134333433343,0,0
-159.30193653455,151.85425536732,10.938763876388,1316181.1785659,-5061.9319078236,2781713.6326707,16.138763876388,0,0
-159.301936334,151.905701558,10.943194319432,1316181.1785659,-5061.9319078236,2781713.6326707,16.143194319432,0,0
-159.30193613344,151.95714774868,10.947624762476,1316181.1785659,-5061.9319078236,2781713.6326707,16.147624762476,0,0
-159.30193593289,152.00859393936,10.952055205521,1316181.1785659,-5061.9319078236,2781713.6326707,16.152055205521,0,0
-159.30193573234,152.06004013004,10.956485648565,1316181.1785659,-5061.9319078236,2781713.6326707,16.156485648565,0,0
-159.30193553179,152.11148632072,10.960916091609,1316181.1785659,-5061.9319078236,2781713.6326707,16.160916091609,0,0
-159.30193533123,152.1629325114,10.965346534653,1316181.1785659,-5061.9319078235,2781713.6326707,16.165346534653,0,0
-159.30193513068,152.21437870208,10.969776977698,1316181.1785659,-5061.9319078235,2781713.6326707,16.169776977698,0,0
-159.30193493013,152.26582489276,10.974207420742,1316181.1785659,-5061.9319078235,2781713.6326707,16.174207420742,0,0
-159.30193472957,152.31727108344,10.978637863786,1316181.1785659,-5061.9319078235,2781713.6326707,16.178637863786,0,0
-159.30193452902,152.36871727412,10.983068306831,1316181.1785659,-5061.9319078235,2781713.6326707,16.183068306831,0,0
-159.30193432847,152.4201634648,10.987498749875,1316181.1785659,-5061.9319078235,2781713.6326707,16.187498749875,0,0
-159.30193412792,152.47160965548,10.991929192919,1316181.1785659,-5061.9319078235,2781713.6326707,16.191929192919,0,0
-159.30193392736,152.52305584616,10.996359635964,1316181.1785659,-5061.9319078235,2781713.6326707,16.196359635964,0,0
-159.30193372681,152.57450203684,11.000790079008,1316181.1785659,-5061.9319078235,2781713.6326707,16.200790079008,0,0
-159.30193352626,152.62594822752,11.005220522052,1316181.1785659,-5061.9319078235,2781713.6326707,16.205220522052,0,0
-159.30193332571,152.6773944182,11.009650965097,1316181.1785659,-5061.9319078235,2781713.6326707,16.209650965097,0,0
-159.30193312515,152.72884060888,11.014081408141,1316181.1785659,-5061.9319078235,2781713.6326707,16.214081408141,0,0
-159.3019329246,152.78028679956,11.018511851185,1316181.1785659,-5061.9319078235,2781713.6326707,16.218511851185,0,0
-159.30193272405,152.83173299024,11.022942294229,1316181.1785659,-5061.9319078235,2781713.6326707,16.222942294229,0,0
-159.3019325235,152.88317918092,11.027372737274,1316181.1785659,-5061.9319078235,2781713.6326707,16.227372737274,0,0
-159.30193232294,152.9346253716,11.031803180318,1316181.1785659,-5061.9319078235,2781713.6326707,16.231803180318,0,0
-159.30193212239,152.98607156228,11.036233623362,1316181.1785659,-5061.9319078235,2781713.6326707,16.236233623362,0,0
-159.30193192184,153.03751775296,11.040664066407,1316181.1785659,-5061.9319078235,2781713.6326707,16.240664066407,0,0
-159.30193172128,153.08896394364,11.045094509451,1316181.1785659,-5061.9319078235,2781713.6326707,16.245094509451,0,0
-159.30193152073,153.14041013432,11.049524952495,1316181.1785659,-5061.9319078235,2781713.6326707,16.249524952495,0,0
-159.30193132018,153.191856325,11.05395539554,1316181.1785659,-5061.9319078236,2781713.6326707,16.25395539554,0,0
-159.30193111963,153.24330251568,11.058385838584,1316181.1785659,-5061.9319078236,2781713.6326707,16.258385838584,0,0
-159.30193091907,153.29474870636,11.062816281628,1316181.1785659,-5061.9319078236,2781713.6326707,16.262816281628,0,0
-159.30193071852,153.34619489704,11.067246724672,1316181.1785659,-5061.9319078236,2781713.6326707,16.267246724672,0,0
-159.30193051797,153.39764108772,11.071677167717,1316181.1785659,-5061.9319078235,2781713.6326707,16.271677167717,0,0
-159.30193031742,153.4490872784,11.076107610761,1316181.1785659,-5061.9319078235,2781713.6326707,16.276107610761,0,0
-159.30193011686,153.50053346908,11.080538053805,1316181.1785659,-5061.9319078235,2781713.6326707,16.280538053805,0,0
-159.30192991631,153.55197965976,11.08496849685,1316181.1785659,-5061.9319078235,2781713.6326707,16.28496849685,0,0
-159.30192971576,153.60342585044,11.089398939894,1316181.1785659,-5061.9319078235,2781713.6326707,16.289398939894,0,0
-159.30192951521,153.65487204112,11.093829382938,1316181.1785659,-5061.9319078235,2781713.6326707,16.293829382938,0,0
-159.30192931465,153.7063182318,11.098259825983,1316181.1785659,-5061.9319078235,2781713.6326707,16.298259825983,0,0
-159.3019291141,153.75776442248,11.102690269027,1316181.1785659,-5061.9319078235,2781713.6326707,16.302690269027,0,0
-159.30192891355,153.80921061316,11.107120712071,1316181.1785659,-5061.9319078235,2781713.6326707,16.307120712071,0,0
-159.30192871299,153.86065680384,11.111551155116,1316181.1785659,-5061.9319078235,2781713.6326707,16.311551155116,0,0
-159.30192851244,153.91210299451,11.11598159816,1316181.1785659,-5061.9319078235,2781713.6326707,16.31598159816,0,0
-159.30192831189,153.96354918519,11.120412041204,1316181.1785659,-5061.9319078235,2781713.6326707,16.320412041204,0,0
-159.30192811134,154.01499537587,11.124842484248,1316181.1785659,-5061.9319078235,2781713.6326707,16.324842484248,0,0
-159.30192791078,154.06644156655,11.129272927293,1316181.1785659,-5061.9319078235,2781713.6326707,16.329272927293,0,0
-159.30192771023,154.11788775723,11.133703370337,1316181.1785659,-5061.9319078235,2781713.6326707,16.333703370337,0,0
-159.30192750968,154.16933394791,11.138133813381,1316181.1785659,-5061.9319078235,2781713.6326707,16.338133813381,0,0
-159.30192730913,154.22078013859,11.142564256426,1316181.1785659,-5061.9319078235,2781713.6326707,16.342564256426,0,0
-159.30192710857,154.27222632927,11.14699469947,1316181.1785659,-5061.9319078235,2781713.6326707,16.34699469947,0,0
-159.30192690802,154.32367251995,11.151425142514,1316181.1785659,-5061.9319078235,2781713.6326707,16.351425142514,0,0
-159.30192670747,154.37511871063,11.155855585559,1316181.1785659,-5061.9319078235,2781713.6326707,16.355855585559,0,0
-159.30192650692,154.42656490131,11.160286028603,1316181.1785659,-5061.9319078235,2781713.6326707,16.360286028603,0,0
-159.30192630636,154.47801109199,11.164716471647,1316181.1785659,-5061.9319078235,2781713.6326707,16.364716471647,0,0
-159.30192610581,154.52945728267,11.169146914691,1316181.1785659,-5061.9319078235,2781713.6326707,16.369146914691,0,0
-159.30192590526,154.58090347335,11.173577357736,1316181.1785659,-5061.9319078235,2781713.6326707,16.373577357736,0,0
-159.3019257047,154.63234966403,11.17800780078,1316181.1785659,-5061.9319078235,2781713.6326707,16.37800780078,0,0
-159.30192550415,154.68379585471,11.182438243824,1316181.1785659,-5061.9319078235,2781713.6326707,16.382438243824,0,0
-159.3019253036,154.73524204539,11.186868686869,1316181.1785659,-5061.9319078235,2781713.6326707,16.386868686869,0,0
-159.30192510305,154.78668823607,11.191299129913,1316181.1785659,-5061.9319078235,2781713.6326707,16.391299129913,0,0
-159.30192490249,154.83813442675,11.195729572957,1316181.1785659,-5061.9319078235,2781713.6326707,16.395729572957,0,0
-159.30192470194,154.88958061743,11.200160016002,1316181.1785659,-5061.9319078235,2781713.6326707,16.400160016002,0,0
-159.30192450139,154.94102680811,11.204590459046,1316181.1785659,-5061.9319078235,2781713.6326707,16.404590459046,0,0
-159.30192430084,154.99247299879,11.20902090209,1316181.1785659,-5061.9319078235,2781713.6326707,16.40902090209,0,0
-159.30192410028,155.04391918947,11.213451345135,1316181.1785659,-5061.9319078235,2781713.6326707,16.413451345135,0,0
-159.30192389973,155.09536538015,11.217881788179,1316181.1785659,-5061.9319078235,2781713.6326707,16.417881788179,0,0
-159.30192369918,155.14681157083,11.222312231223,1316181.1785659,-5061.9319078235,2781713.6326707,16.422312231223,0,0
-159.30192349863,155.19825776256,11.226742674267,1311890.5888986,3294.0933387942,2768605.5442079,16.426742674267,0,0
-159.30192329808,155.24970395675,11.231173117312,1311890.5888986,3294.0933387942,2768605.5442079,16.431173117312,0,0
-159.30192309752,155.30115015095,11.235603560356,1311890.5888986,3294.0933387942,2768605.5442079,16.435603560356,0,0
-159.30192289697,155.35259634514,11.2400340034,1311890.5888986,3294.0933387942,2768605.5442079,16.4400340034,0,0
-159.30192269642,155.40404253933,11.244464446445,1311890.5888986,3294.0933387942,2768605.5442079,16.444464446445,0,0
-159.30192249587,155.45548873352,11.248894889489,1311890.5888986,3294.0933387942,2768605.5442079,16.448894889489,0,0
-159.30192229532,155.50693492771,11.253325332533,1311890.5888986,3294.0933387942,2768605.5442079,16.453325332533,0,0
-159.30192209477,155.55838112191,11.257755775578,1311890.5888986,3294.0933387942,2768605.5442079,16.457755775578,0,0
-159.30192189422,155.6098273161,11.262186218622,1311890.5888986,3294.0933387942,2768605.5442079,16.462186218622,0,0
-159.30192169367,155.66127351029,11.266616661666,1311890.5888986,3294.0933387942,2768605.5442079,16.466616661666,0,0
-159.30192149312,155.71271970448,11.27104710471,1311890.5888986,3294.0933387942,2768605.5442079,16.47104710471,0,0
-159.30192129257,155.76416589867,11.275477547755,1311890.5888986,3294.0933387942,2768605.5442079,16.475477547755,0,0
-159.30192109202,155.81561209286,11.279907990799,1311890.5888986,3294.0933387942,2768605.5442079,16.479907990799,0,0
-159.30192089147,155.86705828706,11.284338433843,1311890.5888986,3294.0933387942,2768605.5442079,16.484338433843,0,0
-159.30192069092,155.91850448125,11.288768876888,1311890.5888986,3294.0933387942,2768605.5442079,16.488768876888,0,0
-159.30192049037,155.96995067544,11.293199319932,1311890.5888986,3294.0933387942,2768605.5442079,16.493199319932,0,0
-159.30192028982,156.02139686963,11.297629762976,1311890.5888986,3294.0933387942,2768605.5442079,16.497629762976,0,0
-159.30192008927,156.07284306382,11.302060206021,1311890.5888986,3294.0933387942,2768605.5442079,16.502060206021,0,0
-159.30191988872,156.12428925802,11.306490649065,1311890.5888986,3294.0933387942,2768605.5442079,16.506490649065,0,0
-159.30191968817,156.17573545221,11.310921092109,1311890.5888986,3294.0933387942,2768605.5442079,16.510921092109,0,0
-159.30191948762,156.2271816464,11.315351535154,1311890.5888986,3294.0933387942,2768605.5442079,16.515351535154,0,0
-159.30191928707,156.27862784059,11.319781978198,1311890.5888986,3294.0933387942,2768605.5442079,16.519781978198,0,0
-159.30191908652,156.33007403478,11.324212421242,1311890.5888986,3294.0933387942,2768605.5442079,16.524212421242,0,0
-159.30191888597,156.38152022898,11.328642864286,1311890.5888986,3294.0933387942,2768605.5442079,16.528642864286,0,0
-159.30191868541,156.43296642317,11.333073307331,1311890.5888986,3294.0933387942,2768605.5442079,16.533073307331,0,0
-159.30191848486,156.48441261736,11.337503750375,1311890.5888986,3294.0933387942,2768605.5442079,16.537503750375,0,0
-159.30191828431,156.53585881155,11.341934193419,1311890.5888986,3294.0933387942,2768605.5442079,16.541934193419,0,0
-159.30191808376,156.58730500574,11.346364636464,1311890.5888986,3294.0933387942,2768605.5442079,16.546364636464,0,0
-159.30191788321,156.63875119994,11.350795079508,1311890.5888986,3294.0933387942,2768605.5442079,16.550795079508,0,0
-159.30191768266,156.69019739413,11.355225522552,1311890.5888986,3294.0933387942,2768605.5442079,16.555225522552,0,0
-159.30191748211,156.74164358832,11.359655965597,1311890.5888986,3294.0933387942,2768605.5442079,16.559655965597,0,0
-159.30191728156,156.79308978251,11.364086408641,1311890.5888986,3294.0933387942,2768605.5442079,16.564086408641,0,0
-159.30191708101,156.8445359767,11.368516851685,1311890.5888986,3294.0933387942,2768605.5442079,16.568516851685,0,0
-159.30191688046,156.89598217089,11.372947294729,1311890.5888986,3294.0933387942,2768605.5442079,16.572947294729,0,0
-159.30191667991,156.94742836509,11.377377737774,1311890.5888986,3294.0933387942,2768605.5442079,16.577377737774,0,0
-159.30191647936,156.99887455928,11.381808180818,1311890.5888986,3294.0933387942,2768605.5442079,16.581808180818,0,0
-159.30191627881,157.05032075347,11.386238623862,1311890.5888986,3294.0933387942,2768605.5442079,16.586238623862,0,0
-159.30191607826,157.10176694766,11.390669066907,1311890.5888986,3294.0933387942,2768605.5442079,16.590669066907,0,0
-159.30191587771,157.15321314185,11.395099509951,1311890.5888986,3294.0933387942,2768605.5442079,16.595099509951,0,0
-159.30191567716,157.20465933605,11.399529952995,1311890.5888986,3294.0933387942,2768605.5442079,16.599529952995,0,0
-159.30191547661,157.25610553024,11.40396039604,1311890.5888986,3294.0933387942,2768605.5442079,16.60396039604,0,0
-159.30191527606,157.30755172443,11.408390839084,1311890.5888986,3294.0933387942,2768605.5442079,16.608390839084,0,0
-159.30191507551,157.35899791862,11.412821282128,1311890.5888986,3294.0933387942,2768605.5442079,16.612821282128,0,0
-159.30191487496,157.41044411281,11.417251725173,1311890.5888986,3294.0933387942,2768605.5442079,16.617251725173,0,0
-159.30191467441,157.46189030701,11.421682168217,1311890.5888986,3294.0933387942,2768605.5442079,16.621682168217,0,0
-159.30191447386,157.5133365012,11.426112611261,1311890.5888986,3294.0933387942,2768605.5442079,16.626112611261,0,0
-159.3019142733,157.56478269539,11.430543054305,1311890.5888986,3294.0933387942,2768605.5442079,16.630543054305,0,0
-159.30191407275,157.61622888958,11.43497349735,1311890.5888986,3294.0933387942,2768605.5442079,16.63497349735,0,0
-159.3019138722,157.66767508377,11.439403940394,1311890.5888986,3294.0933387942,2768605.5442079,16.639403940394,0,0
-159.30191367165,157.71912127796,11.443834383438,1311890.5888986,3294.0933387942,2768605.5442079,16.643834383438,0,0
-159.3019134711,157.77056747216,11.448264826483,1311890.5888986,3294.0933387942,2768605.5442079,16.648264826483,0,0
-159.30191327055,157.82201366635,11.452695269527,1311890.5888986,3294.0933387942,2768605.5442079,16.652695269527,0,0
-159.30191307,157.87345986054,11.457125712571,1311890.5888986,3294.0933387942,2768605.5442079,16.657125712571,0,0
-159.30191286945,157.92490605473,11.461556155616,1311890.5888986,3294.0933387942,2768605.5442079,16.661556155616,0,0
-159.3019126689,157.97635224892,11.46598659866,1311890.5888986,3294.0933387942,2768605.5442079,16.66598659866,0,0
-159.30191246835,158.02779844312,11.470417041704,1311890.5888986,3294.0933387942,2768605.5442079,16.670417041704,0,0
-159.3019122678,158.07924463731,11.474847484748,1311890.5888986,3294.0933387942,2768605.5442079,16.674847484748,0,0
-159.30191206725,158.1306908315,11.479277927793,1311890.5888986,3294.0933387942,2768605.5442079,16.679277927793,0,0
-159.3019118667,158.18213702569,11.483708370837,1311890.5888986,3294.0933387942,2768605.5442079,16.683708370837,0,0
-159.30191166615,158.23358321988,11.488138813881,1311890.5888986,3294.0933387942,2768605.5442079,16.688138813881,0,0
-159.3019114656,158.28502941408,11.492569256926,1311890.5888986,3294.0933387942,2768605.5442079,16.692569256926,0,0
-159.30191126505,158.33647560827,11.49699969997,1311890.5888986,3294.0933387942,2768605.5442079,16.69699969997,0,0
-159.3019110645,158.38792180246,11.501430143014,1311890.5888986,3294.0933387942,2768605.5442079,16.701430143014,0,0
-159.30191086395,158.43936799665,11.505860586059,1311890.5888986,3294.0933387942,2768605.5442079,16.705860586059,0,0
-159.3019106634,158.49081419084,11.510291029103,1311890.5888986,3294.0933387942,2768605.5442079,16.710291029103,0,0
-159.30191046285,158.54226038504,11.514721472147,1311890.5888986,3294.0933387942,2768605.5442079,16.714721472147,0,0
-159.3019102623,158.59370657923,11.519151915192,1311890.5888986,3294.0933387942,2768605.5442079,16.719151915192,0,0
-159.30191006175,158.64515277342,11.523582358236,1311890.5888986,3294.0933387942,2768605.5442079,16.723582358236,0,0
-159.3019098612,158.69659896761,11.52801280128,1311890.5888986,3294.0933387942,2768605.5442079,16.72801280128,0,0
-159.30190966057,158.74804516144,11.532443244324,1311815.704848,-4623.9837872229,2752630.5279056,16.732443244324,0,0
-159.3019094592,158.79949135177,11.536873687369,1311815.704848,-4623.9837872229,2752630.5279056,16.736873687369,0,0
-159.30190925784,158.8509375421,11.541304130413,1311815.704848,-4623.9837872229,2752630.5279056,16.741304130413,0,0
-159.30190905647,158.90238373243,11.545734573457,1311815.704848,-4623.9837872229,2752630.5279056,16.745734573457,0,0
-159.30190885511,158.95382992276,11.550165016502,1311815.704848,-4623.9837872229,2752630.5279056,16.750165016502,0,0
-159.30190865375,159.00527611309,11.554595459546,1311815.704848,-4623.9837872229,2752630.5279056,16.754595459546,0,0
-159.30190845238,159.05672230342,11.55902590259,1311815.704848,-4623.9837872229,2752630.5279056,16.75902590259,0,0
-159.30190825102,159.10816849375,11.563456345635,1311815.704848,-4623.9837872229,2752630.5279056,16.763456345635,0,0
-159.30190804965,159.15961468408,11.567886788679,1311815.704848,-4623.9837872229,2752630.5279056,16.767886788679,0,0
-159.30190784829,159.21106087441,11.572317231723,1311815.704848,-4623.9837872229,2752630.5279056,16.772317231723,0,0
-159.30190764692,159.26250706474,11.576747674767,1311815.704848,-4623.9837872229,2752630.5279056,16.776747674767,0,0
-159.30190744556,159.31395325507,11.581178117812,1311815.704848,-4623.9837872229,2752630.5279056,16.781178117812,0,0
-159.30190724419,159.3653994454,11.585608560856,1311815.704848,-4623.9837872229,2752630.5279056,16.785608560856,0,0
-159.30190704283,159.41684563573,11.5900390039,1311815.704848,-4623.9837872229,2752630.5279056,16.7900390039,0,0
-159.30190684146,159.46829182606,11.594469446945,1311815.704848,-4623.9837872229,2752630.5279056,16.794469446945,0,0
-159.3019066401,159.51973801639,11.598899889989,1311815.704848,-4623.9837872229,2752630.5279056,16.798899889989,0,0
-159.30190643873,159.57118420672,11.603330333033,1311815.704848,-4623.9837872229,2752630.5279056,16.803330333033,0,0
-159.30190623737,159.62263039705,11.607760776078,1311815.704848,-4623.9837872229,2752630.5279056,16.807760776078,0,0
-159.301906036,159.67407658738,11.612191219122,1311815.704848,-4623.9837872229,2752630.5279056,16.812191219122,0,0
-159.30190583464,159.72552277771,11.616621662166,1311815.704848,-4623.9837872229,2752630.5279056,16.816621662166,0,0
-159.30190563327,159.77696896804,11.621052105211,1311815.704848,-4623.9837872229,2752630.5279056,16.821052105211,0,0
-159.30190543191,159.82841515837,11.625482548255,1311815.704848,-4623.9837872229,2752630.5279056,16.825482548255,0,0
-159.30190523055,159.8798613487,11.629912991299,1311815.704848,-4623.9837872229,2752630.5279056,16.829912991299,0,0
-159.30190502918,159.93130753903,11.634343434343,1311815.704848,-4623.9837872229,2752630.5279056,16.834343434343,0,0
-159.30190482782,159.98275372936,11.638773877388,1311815.704848,-4623.9837872229,2752630.5279056,16.838773877388,0,0
-159.30190462645,160.03419991969,11.643204320432,1311815.704848,-4623.9837872229,2752630.5279056,16.843204320432,0,0
-159.30190442509,160.08564611002,11.647634763476,1311815.704848,-4623.9837872229,2752630.5279056,16.847634763476,0,0
-159.30190422372,160.13709230035,11.652065206521,1311815.704848,-4623.9837872229,2752630.5279056,16.852065206521,0,0
-159.30190402236,160.18853849068,11.656495649565,1311815.704848,-4623.9837872229,2752630.5279056,16.856495649565,0,0
-159.30190382099,160.23998468101,11.660926092609,1311815.704848,-4623.9837872229,2752630.5279056,16.860926092609,0,0
-159.30190361963,160.29143087134,11.665356535654,1311815.704848,-4623.9837872229,2752630.5279056,16.865356535654,0,0
-159.30190341826,160.34287706167,11.669786978698,1311815.704848,-4623.9837872229,2752630.5279056,16.869786978698,0,0
-159.3019032169,160.394323252,11.674217421742,1311815.704848,-4623.9837872229,2752630.5279056,16.874217421742,0,0
-159.30190301553,160.44576944233,11.678647864786,1311815.704848,-4623.9837872229,2752630.5279056,16.878647864786,0,0
-159.30190281417,160.49721563266,11.683078307831,1311815.704848,-4623.9837872229,2752630.5279056,16.883078307831,0,0
-159.3019026128,160.54866182299,11.687508750875,1311815.704848,-4623.9837872229,2752630.5279056,16.887508750875,0,0
-159.30190241144,160.60010801332,11.691939193919,1311815.704848,-4623.9837872229,2752630.5279056,16.891939193919,0,0
-159.30190221007,160.65155420365,11.696369636964,1311815.704848,-4623.9837872229,2752630.5279056,16.896369636964,0,0
-159.30190200871,160.70300039398,11.700800080008,1311815.704848,-4623.9837872229,2752630.5279056,16.900800080008,0,0
-159.30190180735,160.75444658431,11.705230523052,1311815.704848,-4623.9837872229,2752630.5279056,16.905230523052,0,0
-159.30190160598,160.80589277464,11.709660966097,1311815.704848,-4623.9837872229,2752630.5279056,16.909660966097,0,0
-159.30190140462,160.85733896497,11.714091409141,1311815.704848,-4623.9837872229,2752630.5279056,16.914091409141,0,0
-159.30190120325,160.9087851553,11.718521852185,1311815.704848,-4623.9837872229,2752630.5279056,16.918521852185,0,0
-159.30190100189,160.96023134563,11.72295229523,1311815.704848,-4623.9837872229,2752630.5279056,16.92295229523,0,0
-159.30190080052,161.01167753595,11.727382738274,1311815.704848,-4623.9837872229,2752630.5279056,16.927382738274,0,0
-159.30190059916,161.06312372628,11.731813181318,1311815.704848,-4623.9837872229,2752630.5279056,16.931813181318,0,0
-159.30190039779,161.11456991661,11.736243624362,1311815.704848,-4623.9837872229,2752630.5279056,16.936243624362,0,0
-159.30190019643,161.16601610694,11.740674067407,1311815.704848,-4623.9837872229,2752630.5279056,16.940674067407,0,0
-159.30189999506,161.21746229727,11.745104510451,1311815.704848,-4623.9837872229,2752630.5279056,16.945104510451,0,0
-159.3018997937,161.2689084876,11.749534953495,1311815.704848,-4623.9837872229,2752630.5279056,16.949534953495,0,0
-159.30189959233,161.32035467793,11.75396539654,1311815.704848,-4623.9837872229,2752630.5279056,16.95396539654,0,0
-159.30189939097,161.37180086826,11.758395839584,1311815.704848,-4623.9837872229,2752630.5279056,16.958395839584,0,0
-159.3018991896,161.42324705859,11.762826282628,1311815.704848,-4623.9837872229,2752630.5279056,16.962826282628,0,0
-159.30189898824,161.47469324892,11.767256725673,1311815.704848,-4623.9837872229,2752630.5279056,16.967256725673,0,0
-159.30189878687,161.52613943925,11.771687168717,1311815.704848,-4623.9837872229,2752630.5279056,16.971687168717,0,0
-159.30189858551,161.57758562958,11.776117611761,1311815.704848,-4623.9837872229,2752630.5279056,16.976117611761,0,0
-159.30189838414,161.62903181991,11.780548054805,1311815.704848,-4623.9837872229,2752630.5279056,16.980548054805,0,0
-159.30189818278,161.68047801024,11.78497849785,1311815.704848,-4623.9837872229,2752630.5279056,16.98497849785,0,0
-159.30189798142,161.73192420057,11.789408940894,1311815.704848,-4623.9837872229,2752630.5279056,16.989408940894,0,0
-159.30189778005,161.7833703909,11.793839383938,1311815.704848,-4623.9837872229,2752630.5279056,16.993839383938,0,0
-159.30189757869,161.83481658123,11.798269826983,1311815.704848,-4623.9837872229,2752630.5279056,16.998269826983,0,0
-159.30189737732,161.88626277156,11.802700270027,1311815.704848,-4623.9837872229,2752630.5279056,17.002700270027,0,0
-159.30189717596,161.93770896189,11.807130713071,1311815.704848,-4623.9837872229,2752630.5279056,17.007130713071,0,0
-159.30189697459,161.98915515222,11.811561156116,1311815.704848,-4623.9837872229,2752630.5279056,17.011561156116,0,0
-159.30189677323,162.04060134255,11.81599159916,1311815.704848,-4623.9837872229,2752630.5279056,17.01599159916,0,0
-159.30189657186,162.09204753288,11.820422042204,1311815.704848,-4623.9837872229,2752630.5279056,17.020422042204,0,0
-159.3018963705,162.14349372321,11.824852485249,1311815.704848,-4623.9837872229,2752630.5279056,17.024852485249,0,0
-159.30189616913,162.19493991354,11.829282928293,1311815.704848,-4623.9837872229,2752630.5279056,17.029282928293,0,0
-159.30189596777,162.24638610387,11.833713371337,1311815.704848,-4623.9837872229,2752630.5279056,17.033713371337,0,0
-159.3018957664,162.2978322942,11.838143814381,1311815.704848,-4623.9837872229,2752630.5279056,17.038143814381,0,0
-159.30189556504,162.34927848453,11.842574257426,1311815.704848,-4623.9837872229,2752630.5279056,17.042574257426,0,0
-159.30189536367,162.40072467486,11.84700470047,1311815.704848,-4623.9837872229,2752630.5279056,17.04700470047,0,0
-159.30189516231,162.45217086519,11.851435143514,1311815.704848,-4623.9837872229,2752630.5279056,17.051435143514,0,0
-159.30189496094,162.50361705552,11.855865586559,1311815.704848,-4623.9837872229,2752630.5279056,17.055865586559,0,0
-159.30189475958,162.55506324585,11.860296029603,1311815.704848,-4623.9837872229,2752630.5279056,17.060296029603,0,0
-159.30189455822,162.60650943618,11.864726472647,1311815.704848,-4623.9837872229,2752630.5279056,17.064726472647,0,0
-159.30189435685,162.65795562651,11.869156915692,1311815.704848,-4623.9837872229,2752630.5279056,17.069156915692,0,0
-159.30189415549,162.70940181684,11.873587358736,1311815.704848,-4623.9837872229,2752630.5279056,17.073587358736,0,0
-159.30189395412,162.76084800717,11.87801780178,1311815.704848,-4623.9837872229,2752630.5279056,17.07801780178,0,0
-159.30189375276,162.8122941975,11.882448244824,1311815.704848,-4623.9837872229,2752630.5279056,17.082448244824,0,0
-159.30189355139,162.86374038783,11.886878687869,1311815.704848,-4623.9837872229,2752630.5279056,17.086878687869,0,0
-159.30189335003,162.91518657816,11.891309130913,1311815.704848,-4623.9837872229,2752630.5279056,17.091309130913,0,0
-159.30189314866,162.96663276849,11.895739573957,1311815.704848,-4623.9837872229,2752630.5279056,17.095739573957,0,0
-159.3018929473,163.01807895882,11.900170017002,1311815.704848,-4623.9837872229,2752630.5279056,17.100170017002,0,0
-159.30189274593,163.06952514915,11.904600460046,1311815.704848,-4623.9837872229,2752630.5279056,17.104600460046,0,0
-159.30189254457,163.12097133948,11.90903090309,1311815.704848,-4623.9837872229,2752630.5279056,17.10903090309,0,0
-159.3018923432,163.17241752981,11.913461346135,1311815.704848,-4623.9837872229,2752630.5279056,17.113461346135,0,0
-159.30189214184,163.22386372014,11.917891789179,1311815.704848,-4623.9837872229,2752630.5279056,17.117891789179,0,0
-159.30189194047,163.27530991047,11.922322232223,1311815.704848,-4623.9837872229,2752630.5279056,17.122322232223,0,0
-159.30189173911,163.3267561008,11.926752675268,1311815.704848,-4623.9837872229,2752630.5279056,17.126752675268,0,0
-159.30189153774,163.37820229113,11.931183118312,1311815.704848,-4623.9837872229,2752630.5279056,17.131183118312,0,0
-159.30189133638,163.42964848146,11.935613561356,1311815.704848,-4623.9837872229,2752630.5279056,17.135613561356,0,0
-159.30189113502,163.48109467179,11.9400440044,1311815.704848,-4623.9837872229,2752630.5279056,17.1400440044,0,0
-159.30189093365,163.53254086212,11.944474447445,1311815.704848,-4623.9837872229,2752630.5279056,17.144474447445,0,0
-159.30189073229,163.58398705245,11.948904890489,1311815.704848,-4623.9837872229,2752630.5279056,17.148904890489,0,0
-159.30189053092,163.63543324277,11.953335333533,1311815.704848,-4623.9837872229,2752630.5279056,17.153335333533,0,0
-159.30189032956,163.6868794331,11.957765776578,1311815.704848,-4623.9837872229,2752630.5279056,17.157765776578,0,0
-159.30189012819,163.73832562343,11.962196219622,1311815.704848,-4623.9837872229,2752630.5279056,17.162196219622,0,0
-159.30188992683,163.78977181376,11.966626662666,1311815.704848,-4623.9837872229,2752630.5279056,17.166626662666,0,0
-159.30188972546,163.84121800409,11.971057105711,1311815.704848,-4623.9837872229,2752630.5279056,17.171057105711,0,0
-159.3018895241,163.89266419442,11.975487548755,1311815.704848,-4623.9837872229,2752630.5279056,17.175487548755,0,0
-159.30188932273,163.94411038475,11.979917991799,1311815.704848,-4623.9837872229,2752630.5279056,17.179917991799,0,0
-159.30188912137,163.99555657508,11.984348434843,1311815.704848,-4623.9837872229,2752630.5279056,17.184348434843,0,0
-159.30188892,164.04700276541,11.988778877888,1311815.704848,-4623.9837872229,2752630.5279056,17.188778877888,0,0
-159.30188871864,164.09844895574,11.993209320932,1311815.704848,-4623.9837872229,2752630.5279056,17.193209320932,0,0
-159.30188851727,164.14989514607,11.997639763976,1311815.704848,-4623.9837872229,2752630.5279056,17.197639763976,0,0
-159.30188831591,164.2013413364,12.002070207021,1311815.704848,-4623.9837872229,2752630.5279056,17.202070207021,0,0
-159.30188811454,164.25278752673,12.006500650065,1311815.704848,-4623.9837872229,2752630.5279056,17.206500650065,0,0
-159.30188791318,164.30423371706,12.010931093109,1311815.704848,-4623.9837872229,2752630.5279056,17.210931093109,0,0
-159.30188771182,164.35567990739,12.015361536154,1311815.704848,-4623.9837872229,2752630.5279056,17.215361536154,0,0
-159.30188751045,164.40712609772,12.019791979198,1311815.704848,-4623.9837872229,2752630.5279056,17.219791979198,0,0
-159.30188730909,164.45857228805,12.024222422242,1311815.704848,-4623.9837872229,2752630.5279056,17.224222422242,0,0
-159.30188710772,164.51001847838,12.028652865287,1311815.704848,-4623.9837872229,2752630.5279056,17.228652865287,0,0
-159.30188690636,164.56146466871,12.033083308331,1311815.704848,-4623.9837872229,2752630.5279056,17.233083308331,0,0
-159.30188670499,164.61291085904,12.037513751375,1311815.704848,-4623.9837872229,2752630.5279056,17.237513751375,0,0
-159.30188650363,164.66435704937,12.041944194419,1311815.704848,-4623.9837872229,2752630.5279056,17.241944194419,0,0
-159.30188630226,164.7158032397,12.046374637464,1311815.704848,-4623.9837872229,2752630.5279056,17.246374637464,0,0
-159.3018861009,164.76724943003,12.050805080508,1311815.704848,-4623.9837872229,2752630.5279056,17.250805080508,0,0
-159.30188589953,164.81869562036,12.055235523552,1311815.704848,-4623.9837872229,2752630.5279056,17.255235523552,0,0
-159.30188569817,164.87014181069,12.059665966597,1311815.704848,-4623.9837872229,2752630.5279056,17.259665966597,0,0
-159.3018854968,164.92158800102,12.064096409641,1311815.704848,-4623.9837872229,2752630.5279056,17.264096409641,0,0
-159.30188529544,164.97303419135,12.068526852685,1311815.704848,-4623.9837872229,2752630.5279056,17.268526852685,0,0
-159.30188509407,165.02448038168,12.07295729573,1311815.704848,-4623.9837872229,2752630.5279056,17.27295729573,0,0
-159.30188489271,165.07592657201,12.077387738774,1311815.704848,-4623.9837872229,2752630.5279056,17.277387738774,0,0
-159.30188469134,165.12737276234,12.081818181818,1311815.704848,-4623.9837872229,2752630.5279056,17.281818181818,0,0
-159.30188448998,165.17881895267,12.086248624862,1311815.704848,-4623.9837872229,2752630.5279056,17.286248624862,0,0
-159.30188428862,165.230265143,12.090679067907,1311815.704848,-4623.9837872229,2752630.5279056,17.290679067907,0,0
-159.30188408725,165.28171133333,12.095109510951,1311815.704848,-4623.9837872229,2752630.5279056,17.295109510951,0,0
-159.30188388589,165.33315752366,12.099539953995,1311815.704848,-4623.9837872229,2752630.5279056,17.299539953995,0,0
-159.30188368452,165.38460371399,12.10397039704,1311815.704848,-4623.9837872229,2752630.5279056,17.30397039704,0,0
-159.30188348316,165.43604990432,12.108400840084,1311815.704848,-4623.9837872229,2752630.5279056,17.308400840084,0,0
-159.30188328179,165.48749609465,12.112831283128,1311815.704848,-4623.9837872229,2752630.5279056,17.312831283128,0,0
-159.30188308043,165.53894228498,12.117261726173,1311815.704848,-4623.9837872229,2752630.5279056,17.317261726173,0,0
-159.30188287906,165.59038847531,12.121692169217,1311815.704848,-4623.9837872229,2752630.5279056,17.321692169217,0,0
-159.3018826777,165.64183466564,12.126122612261,1311815.704848,-4623.9837872229,2752630.5279056,17.326122612261,0,0
-159.30188247633,165.69328085597,12.130553055306,1311815.704848,-4623.9837872229,2752630.5279056,17.330553055306,0,0
-159.30188227497,165.7447270463,12.13498349835,1311815.704848,-4623.9837872229,2752630.5279056,17.33498349835,0,0
-159.3018820736,165.79617323663,12.139413941394,1311815.704848,-4623.9837872229,2752630.5279056,17.339413941394,0,0
-159.30188187224,165.84761942696,12.143844384438,1311815.704848,-4623.9837872229,2752630.5279056,17.343844384438,0,0
-159.30188167087,165.89906561729,12.148274827483,1311815.704848,-4623.9837872229,2752630.5279056,17.348274827483,0,0
-159.30188146951,165.95051180762,12.152705270527,1311815.704848,-4623.9837872229,2752630.5279056,17.352705270527,0,0
-159.30188126814,166.00195799795,12.157135713571,1311815.704848,-4623.9837872229,2752630.5279056,17.357135713571,0,0
-159.30188106678,166.05340418828,12.161566156616,1311815.704848,-4623.9837872229,2752630.5279056,17.361566156616,0,0
-159.30188086541,166.10485037861,12.16599659966,1311815.704848,-4623.9837872229,2752630.5279056,17.36599659966,0,0
-159.30188066405,166.15629656894,12.170427042704,1311815.704848,-4623.9837872229,2752630.5279056,17.370427042704,0,0
-159.30188046269,166.20774275927,12.174857485749,1311815.704848,-4623.9837872229,2752630.5279056,17.374857485749,0,0
-159.30188026132,166.25918894959,12.179287928793,1311815.704848,-4623.9837872229,2752630.5279056,17.379287928793,0,0
-159.30188005996,166.31063513992,12.183718371837,1311815.704848,-4623.9837872229,2752630.5279056,17.383718371837,0,0
-159.30187985859,166.36208133025,12.188148814881,1311815.704848,-4623.9837872229,2752630.5279056,17.388148814881,0,0
-159.30187965723,166.41352752058,12.192579257926,1311815.704848,-4623.9837872229,2752630.5279056,17.392579257926,0,0
-159.30187945586,166.46497371091,12.19700970097,1311815.704848,-4623.9837872229,2752630.5279056,17.39700970097,0,0
-159.3018792545,166.51641990124,12.201440144014,1311815.704848,-4623.9837872229,2752630.5279056,17.401440144014,0,0
-159.30187905313,166.56786609157,12.205870587059,1311815.704848,-4623.9837872229,2752630.5279056,17.405870587059,0,0
-159.30187885177,166.6193122819,12.210301030103,1311815.704848,-4623.9837872229,2752630.5279056,17.410301030103,0,0
-159.3018786504,166.67075847223,12.214731473147,1311815.704848,-4623.9837872229,2752630.5279056,17.414731473147,0,0
-159.30187844904,166.72220466256,12.219161916192,1311815.704848,-4623.9837872229,2752630.5279056,17.419161916192,0,0
-159.30187824767,166.77365085289,12.223592359236,1311815.704848,-4623.9837872229,2752630.5279056,17.423592359236,0,0
-159.30187804631,166.82509704322,12.22802280228,1311815.704848,-4623.9837872229,2752630.5279056,17.42802280228,0,0
-159.30187784494,166.87654323355,12.232453245325,1311815.704848,-4623.9837872229,2752630.5279056,17.432453245325,0,0
-159.30187764358,166.92798942388,12.236883688369,1311815.704848,-4623.9837872229,2752630.5279056,17.436883688369,0,0
-159.30187744221,166.97943561421,12.241314131413,1311815.704848,-4623.9837872229,2752630.5279056,17.441314131413,0,0
-159.30187724085,167.03088180454,12.245744574457,1311815.704848,-4623.9837872229,2752630.5279056,17.445744574457,0,0
-159.30187703949,167.08232799487,12.250175017502,1311815.704848,-4623.9837872229,2752630.5279056,17.450175017502,0,0
-159.30187683812,167.1337741852,12.254605460546,1311815.704848,-4623.9837872229,2752630.5279056,17.454605460546,0,0
-159.30187663676,167.18522037553,12.25903590359,1311815.704848,-4623.9837872229,2752630.5279056,17.45903590359,0,0
-159.30187643539,167.23666656586,12.263466346635,1311815.704848,-4623.9837872229,2752630.5279056,17.463466346635,0,0
-159.30187623403,167.28811275619,12.267896789679,1311815.704848,-4623.9837872229,2752630.5279056,17.467896789679,0,0
-159.30187603266,167.33955894652,12.272327232723,1311815.704848,-4623.9837872229,2752630.5279056,17.472327232723,0,0
-159.3018758313,167.39100513685,12.276757675768,1311815.704848,-4623.9837872229,2752630.5279056,17.476757675768,0,0
-159.30187562993,167.44245132718,12.281188118812,1311815.704848,-4623.9837872229,2752630.5279056,17.481188118812,0,0
-159.30187542857,167.49389751751,12.285618561856,1311815.704848,-4623.9837872229,2752630.5279056,17.485618561856,0,0
-159.3018752272,167.54534370784,12.2900490049,1311815.704848,-4623.9837872229,2752630.5279056,17.4900490049,0,0
-159.30187502584,167.59678989817,12.294479447945,1311815.704848,-4623.9837872229,2752630.5279056,17.494479447945,0,0
-159.30187482447,167.6482360885,12.298909890989,1311815.704848,-4623.9837872229,2752630.5279056,17.498909890989,0,0
-159.30187462311,167.69968227883,12.303340334033,1311815.704848,-4623.9837872229,2752630.5279056,17.503340334033,0,0
-159.30187442174,167.75112846916,12.307770777078,1311815.704848,-4623.9837872229,2752630.5279056,17.507770777078,0,0
-159.30187422038,167.80257465949,12.312201220122,1311815.704848,-4623.9837872229,2752630.5279056,17.512201220122,0,0
-159.30187401901,167.85402084982,12.316631663166,1311815.704848,-4623.9837872229,2752630.5279056,17.516631663166,0,0
-159.30187381765,167.9054670411,12.321062106211,1308288.4277843,3034.3868243516,2741695.5283661,17.521062106211,0,0
-159.30187361628,167.95691323465,12.325492549255,1308288.4277843,3034.3868243516,2741695.5283661,17.525492549255,0,0
-159.30187341491,168.00835942821,12.329922992299,1308288.4277843,3034.3868243516,2741695.5283661,17.529922992299,0,0
-159.30187321353,168.05980562176,12.334353435344,1308288.4277843,3034.3868243516,2741695.5283661,17.534353435344,0,0
-159.30187301216,168.11125181531,12.338783878388,1308288.4277843,3034.3868243516,2741695.5283661,17.538783878388,0,0
-159.30187281079,168.16269800887,12.343214321432,1308288.4277843,3034.3868243516,2741695.5283661,17.543214321432,0,0
-159.30187260942,168.21414420242,12.347644764476,1308288.4277843,3034.3868243516,2741695.5283661,17.547644764476,0,0
-159.30187240805,168.26559039597,12.352075207521,1308288.4277843,3034.3868243516,2741695.5283661,17.552075207521,0,0
-159.30187220668,168.31703658952,12.356505650565,1308288.4277843,3034.3868243516,2741695.5283661,17.556505650565,0,0
-159.30187200531,168.36848278308,12.360936093609,1308288.4277843,3034.3868243516,2741695.5283661,17.560936093609,0,0
-159.30187180394,168.41992897663,12.365366536654,1308288.4277843,3034.3868243516,2741695.5283661,17.565366536654,0,0
-159.30187160257,168.47137517018,12.369796979698,1308288.4277843,3034.3868243516,2741695.5283661,17.569796979698,0,0
-159.30187140119,168.52282136373,12.374227422742,1308288.4277843,3034.3868243516,2741695.5283661,17.574227422742,0,0
-159.30187119982,168.57426755729,12.378657865787,1308288.4277843,3034.3868243516,2741695.5283661,17.578657865787,0,0
-159.30187099845,168.62571375084,12.383088308831,1308288.4277843,3034.3868243516,2741695.5283661,17.583088308831,0,0
-159.30187079708,168.67715994439,12.387518751875,1308288.4277843,3034.3868243516,2741695.5283661,17.587518751875,0,0
-159.30187059571,168.72860613795,12.391949194919,1308288.4277843,3034.3868243516,2741695.5283661,17.591949194919,0,0
-159.30187039434,168.7800523315,12.396379637964,1308288.4277843,3034.3868243516,2741695.5283661,17.596379637964,0,0
-159.30187019297,168.83149852505,12.400810081008,1308288.4277843,3034.3868243516,2741695.5283661,17.600810081008,0,0
-159.3018699916,168.8829447186,12.405240524052,1308288.4277843,3034.3868243516,2741695.5283661,17.605240524052,0,0
-159.30186979023,168.93439091216,12.409670967097,1308288.4277843,3034.3868243516,2741695.5283661,17.609670967097,0,0
-159.30186958885,168.98583710571,12.414101410141,1308288.4277843,3034.3868243516,2741695.5283661,17.614101410141,0,0
-159.30186938748,169.03728329926,12.418531853185,1308288.4277843,3034.3868243516,2741695.5283661,17.618531853185,0,0
-159.30186918611,169.08872949281,12.42296229623,1308288.4277843,3034.3868243516,2741695.5283661,17.62296229623,0,0
-159.30186898474,169.14017568637,12.427392739274,1308288.4277843,3034.3868243516,2741695.5283661,17.627392739274,0,0
-159.30186878337,169.19162187992,12.431823182318,1308288.4277843,3034.3868243516,2741695.5283661,17.631823182318,0,0
-159.301868582,169.24306807347,12.436253625363,1308288.4277843,3034.3868243516,2741695.5283661,17.636253625363,0,0
-159.30186838063,169.29451426703,12.440684068407,1308288.4277843,3034.3868243516,2741695.5283661,17.640684068407,0,0
-159.30186817926,169.34596046058,12.445114511451,1308288.4277843,3034.3868243516,2741695.5283661,17.645114511451,0,0
-159.30186797789,169.39740665413,12.449544954495,1308288.4277843,3034.3868243516,2741695.5283661,17.649544954495,0,0
-159.30186777651,169.44885284768,12.45397539754,1308288.4277843,3034.3868243516,2741695.5283661,17.65397539754,0,0
-159.30186757514,169.50029904124,12.458405840584,1308288.4277843,3034.3868243516,2741695.5283661,17.658405840584,0,0
-159.30186737377,169.55174523479,12.462836283628,1308288.4277843,3034.3868243516,2741695.5283661,17.662836283628,0,0
-159.3018671724,169.60319142834,12.467266726673,1308288.4277843,3034.3868243516,2741695.5283661,17.667266726673,0,0
-159.30186697103,169.65463762189,12.471697169717,1308288.4277843,3034.3868243516,2741695.5283661,17.671697169717,0,0
-159.30186676966,169.70608381545,12.476127612761,1308288.4277843,3034.3868243516,2741695.5283661,17.676127612761,0,0
-159.30186656829,169.757530009,12.480558055806,1308288.4277843,3034.3868243516,2741695.5283661,17.680558055806,0,0
-159.30186636692,169.80897620255,12.48498849885,1308288.4277843,3034.3868243516,2741695.5283661,17.68498849885,0,0
-159.30186616555,169.86042239611,12.489418941894,1308288.4277843,3034.3868243516,2741695.5283661,17.689418941894,0,0
-159.30186596417,169.91186858966,12.493849384938,1308288.4277843,3034.3868243516,2741695.5283661,17.693849384938,0,0
-159.3018657628,169.96331478321,12.498279827983,1308288.4277843,3034.3868243516,2741695.5283661,17.698279827983,0,0
-159.30186556143,170.01476097676,12.502710271027,1308288.4277843,3034.3868243516,2741695.5283661,17.702710271027,0,0
-159.30186536006,170.06620717032,12.507140714071,1308288.4277843,3034.3868243516,2741695.5283661,17.707140714071,0,0
-159.30186515869,170.11765336387,12.511571157116,1308288.4277843,3034.3868243516,2741695.5283661,17.711571157116,0,0
-159.30186495732,170.16909955742,12.51600160016,1308288.4277843,3034.3868243516,2741695.5283661,17.71600160016,0,0
-159.30186475595,170.22054575097,12.520432043204,1308288.4277843,3034.3868243516,2741695.5283661,17.720432043204,0,0
-159.30186455458,170.27199194453,12.524862486249,1308288.4277843,3034.3868243516,2741695.5283661,17.724862486249,0,0
-159.30186435321,170.32343813808,12.529292929293,1308288.4277843,3034.3868243516,2741695.5283661,17.729292929293,0,0
-159.30186415183,170.37488433163,12.533723372337,1308288.4277843,3034.3868243516,2741695.5283661,17.733723372337,0,0
-159.30186395046,170.42633052519,12.538153815382,1308288.4277843,3034.3868243516,2741695.5283661,17.738153815382,0,0
-159.30186374909,170.47777671874,12.542584258426,1308288.4277843,3034.3868243516,2741695.5283661,17.742584258426,0,0
-159.30186354772,170.52922291229,12.54701470147,1308288.4277843,3034.3868243516,2741695.5283661,17.74701470147,0,0
-159.30186334635,170.58066910584,12.551445144514,1308288.4277843,3034.3868243516,2741695.5283661,17.751445144514,0,0
-159.30186314498,170.6321152994,12.555875587559,1308288.4277843,3034.3868243516,2741695.5283661,17.755875587559,0,0
-159.30186294361,170.68356149295,12.560306030603,1308288.4277843,3034.3868243516,2741695.5283661,17.760306030603,0,0
-159.30186274224,170.7350076865,12.564736473647,1308288.4277843,3034.3868243516,2741695.5283661,17.764736473647,0,0
-159.30186254087,170.78645388005,12.569166916692,1308288.4277843,3034.3868243516,2741695.5283661,17.769166916692,0,0
-159.30186233949,170.83790007361,12.573597359736,1308288.4277843,3034.3868243516,2741695.5283661,17.773597359736,0,0
-159.30186213812,170.88934626716,12.57802780278,1308288.4277843,3034.3868243516,2741695.5283661,17.77802780278,0,0
-159.30186193675,170.94079246071,12.582458245825,1308288.4277843,3034.3868243516,2741695.5283661,17.782458245825,0,0
-159.30186173538,170.99223865427,12.586888688869,1308288.4277843,3034.3868243516,2741695.5283661,17.786888688869,0,0
-159.30186153401,171.04368484782,12.591319131913,1308288.4277843,3034.3868243516,2741695.5283661,17.791319131913,0,0
-159.30186133264,171.09513104137,12.595749574957,1308288.4277843,3034.3868243516,2741695.5283661,17.795749574957,0,0
-159.30186113127,171.14657723492,12.600180018002,1308288.4277843,3034.3868243516,2741695.5283661,17.800180018002,0,0
-159.3018609299,171.19802342848,12.604610461046,1308288.4277843,3034.3868243516,2741695.5283661,17.804610461046,0,0
-159.30186072853,171.24946962203,12.60904090409,1308288.4277843,3034.3868243516,2741695.5283661,17.80904090409,0,0
-159.30186052715,171.30091581558,12.613471347135,1308288.4277843,3034.3868243516,2741695.5283661,17.813471347135,0,0
-159.30186032578,171.35236200914,12.617901790179,1308288.4277843,3034.3868243516,2741695.5283661,17.817901790179,0,0
-159.30186012441,171.40380820269,12.622332233223,1308288.4277843,3034.3868243516,2741695.5283661,17.822332233223,0,0
-159.30185992304,171.45525439624,12.626762676268,1308288.4277843,3034.3868243516,2741695.5283661,17.826762676268,0,0
-159.30185972167,171.50670058979,12.631193119312,1308288.4277843,3034.3868243516,2741695.5283661,17.831193119312,0,0
-159.3018595203,171.55814678335,12.635623562356,1308288.4277843,3034.3868243516,2741695.5283661,17.835623562356,0,0
-159.30185931893,171.6095929769,12.640054005401,1308288.4277843,3034.3868243516,2741695.5283661,17.840054005401,0,0
-159.30185911756,171.66103917045,12.644484448445,1308288.4277843,3034.3868243516,2741695.5283661,17.844484448445,0,0
-159.30185891619,171.712485364,12.648914891489,1308288.4277843,3034.3868243516,2741695.5283661,17.848914891489,0,0
-159.30185871481,171.76393155756,12.653345334533,1308288.4277843,3034.3868243516,2741695.5283661,17.853345334533,0,0
-159.30185851344,171.81537775111,12.657775777578,1308288.4277843,3034.3868243516,2741695.5283661,17.857775777578,0,0
-159.30185831207,171.86682394466,12.662206220622,1308288.4277843,3034.3868243516,2741695.5283661,17.862206220622,0,0
-159.3018581107,171.91827013822,12.666636663666,1308288.4277843,3034.3868243516,2741695.5283661,17.866636663666,0,0
-159.30185790933,171.96971633177,12.671067106711,1308288.4277843,3034.3868243516,2741695.5283661,17.871067106711,0,0
-159.30185770796,172.02116252532,12.675497549755,1308288.4277843,3034.3868243516,2741695.5283661,17.875497549755,0,0
-159.30185750659,172.07260871887,12.679927992799,1308288.4277843,3034.3868243516,2741695.5283661,17.879927992799,0,0
-159.30185730522,172.12405491243,12.684358435844,1308288.4277843,3034.3868243516,2741695.5283661,17.884358435844,0,0
-159.30185710385,172.17550110598,12.688788878888,1308288.4277843,3034.3868243516,2741695.5283661,17.888788878888,0,0
-159.30185690247,172.22694729953,12.693219321932,1308288.4277843,3034.3868243516,2741695.5283661,17.893219321932,0,0
-159.3018567011,172.27839349308,12.697649764976,1308288.4277843,3034.3868243516,2741695.5283661,17.897649764976,0,0
-159.30185649973,172.32983968664,12.702080208021,1308288.4277843,3034.3868243516,2741695.5283661,17.902080208021,0,0
-159.30185629836,172.38128588019,12.706510651065,1308288.4277843,3034.3868243516,2741695.5283661,17.906510651065,0,0
-159.30185609699,172.43273207374,12.710941094109,1308288.4277843,3034.3868243516,2741695.5283661,17.910941094109,0,0
-159.30185589562,172.4841782673,12.715371537154,1308288.4277843,3034.3868243516,2741695.5283661,17.915371537154,0,0
-159.30185569425,172.53562446085,12.719801980198,1308288.4277843,3034.3868243516,2741695.5283661,17.919801980198,0,0
-159.30185549288,172.5870706544,12.724232423242,1308288.4277843,3034.3868243516,2741695.5283661,17.924232423242,0,0
-159.30185529151,172.63851684795,12.728662866287,1308288.4277843,3034.3868243516,2741695.5283661,17.928662866287,0,0
-159.30185509013,172.68996304151,12.733093309331,1308288.4277843,3034.3868243516,2741695.5283661,17.933093309331,0,0
-159.30185488876,172.74140923506,12.737523752375,1308288.4277843,3034.3868243516,2741695.5283661,17.937523752375,0,0
-159.30185468715,172.79285542729,12.74195419542,1307504.0631723,-3727.4569352937,2727954.6559255,17.94195419542,0,0
-159.30185448519,172.84430161761,12.746384638464,1307504.0631723,-3727.4569352937,2727954.6559255,17.946384638464,0,0
-159.30185428324,172.89574780793,12.750815081508,1307504.0631723,-3727.4569352937,2727954.6559255,17.950815081508,0,0
-159.30185408128,172.94719399825,12.755245524552,1307504.0631723,-3727.4569352937,2727954.6559255,17.955245524552,0,0
-159.30185387932,172.99864018858,12.759675967597,1307504.0631723,-3727.4569352937,2727954.6559255,17.959675967597,0,0
-159.30185367737,173.0500863789,12.764106410641,1307504.0631723,-3727.4569352937,2727954.6559255,17.964106410641,0,0
-159.30185347541,173.10153256922,12.768536853685,1307504.0631723,-3727.4569352937,2727954.6559255,17.968536853685,0,0
-159.30185327345,173.15297875954,12.77296729673,1307504.0631723,-3727.4569352937,2727954.6559255,17.97296729673,0,0
-159.30185307149,173.20442494986,12.777397739774,1307504.0631723,-3727.4569352937,2727954.6559255,17.977397739774,0,0
-159.30185286954,173.25587114019,12.781828182818,1307504.0631723,-3727.4569352937,2727954.6559255,17.981828182818,0,0
-159.30185266758,173.30731733051,12.786258625863,1307504.0631723,-3727.4569352937,2727954.6559255,17.986258625863,0,0
-159.30185246562,173.35876352083,12.790689068907,1307504.0631723,-3727.4569352937,2727954.6559255,17.990689068907,0,0
-159.30185226366,173.41020971115,12.795119511951,1307504.0631723,-3727.4569352937,2727954.6559255,17.995119511951,0,0
-159.30185206171,173.46165590147,12.799549954995,1307504.0631723,-3727.4569352937,2727954.6559255,17.999549954995,0,0
-159.30185185975,173.51310209179,12.80398039804,1307504.0631723,-3727.4569352937,2727954.6559255,18.00398039804,0,0
-159.30185165779,173.56454828212,12.808410841084,1307504.0631723,-3727.4569352937,2727954.6559255,18.008410841084,0,0
-159.30185145583,173.61599447244,12.812841284128,1307504.0631723,-3727.4569352937,2727954.6559255,18.012841284128,0,0
-159.30185125388,173.66744066276,12.817271727173,1307504.0631723,-3727.4569352937,2727954.6559255,18.017271727173,0,0
-159.30185105192,173.71888685308,12.821702170217,1307504.0631723,-3727.4569352937,2727954.6559255,18.021702170217,0,0
-159.30185084996,173.7703330434,12.826132613261,1307504.0631723,-3727.4569352937,2727954.6559255,18.026132613261,0,0
-159.301850648,173.82177923373,12.830563056306,1307504.0631723,-3727.4569352937,2727954.6559255,18.030563056306,0,0
-159.30185044605,173.87322542405,12.83499349935,1307504.0631723,-3727.4569352937,2727954.6559255,18.03499349935,0,0
-159.30185024409,173.92467161437,12.839423942394,1307504.0631723,-3727.4569352937,2727954.6559255,18.039423942394,0,0
-159.30185004213,173.97611780469,12.843854385439,1307504.0631723,-3727.4569352937,2727954.6559255,18.043854385439,0,0
-159.30184984018,174.02756399501,12.848284828483,1307504.0631723,-3727.4569352937,2727954.6559255,18.048284828483,0,0
-159.30184963822,174.07901018534,12.852715271527,1307504.0631723,-3727.4569352937,2727954.6559255,18.052715271527,0,0
-159.30184943626,174.13045637566,12.857145714571,1307504.0631723,-3727.4569352937,2727954.6559255,18.057145714571,0,0
-159.3018492343,174.18190256598,12.861576157616,1307504.0631723,-3727.4569352937,2727954.6559255,18.061576157616,0,0
-159.30184903235,174.2333487563,12.86600660066,1307504.0631723,-3727.4569352937,2727954.6559255,18.06600660066,0,0
-159.30184883039,174.28479494662,12.870437043704,1307504.0631723,-3727.4569352937,2727954.6559255,18.070437043704,0,0
-159.30184862843,174.33624113695,12.874867486749,1307504.0631723,-3727.4569352937,2727954.6559255,18.074867486749,0,0
-159.30184842647,174.38768732727,12.879297929793,1307504.0631723,-3727.4569352937,2727954.6559255,18.079297929793,0,0
-159.30184822452,174.43913351759,12.883728372837,1307504.0631723,-3727.4569352937,2727954.6559255,18.083728372837,0,0
-159.30184802256,174.49057970791,12.888158815882,1307504.0631723,-3727.4569352937,2727954.6559255,18.088158815882,0,0
-159.3018478206,174.54202589823,12.892589258926,1307504.0631723,-3727.4569352937,2727954.6559255,18.092589258926,0,0
-159.30184761864,174.59347208856,12.89701970197,1307504.0631723,-3727.4569352937,2727954.6559255,18.09701970197,0,0
-159.30184741669,174.64491827888,12.901450145015,1307504.0631723,-3727.4569352937,2727954.6559255,18.101450145014,0,0
-159.30184721473,174.6963644692,12.905880588059,1307504.0631723,-3727.4569352937,2727954.6559255,18.105880588059,0,0
-159.30184701277,174.74781065952,12.910311031103,1307504.0631723,-3727.4569352937,2727954.6559255,18.110311031103,0,0
-159.30184681081,174.79925684984,12.914741474147,1307504.0631723,-3727.4569352937,2727954.6559255,18.114741474147,0,0
-159.30184660886,174.85070304017,12.919171917192,1307504.0631723,-3727.4569352937,2727954.6559255,18.119171917192,0,0
-159.3018464069,174.90214923049,12.923602360236,1307504.0631723,-3727.4569352937,2727954.6559255,18.123602360236,0,0
-159.30184620494,174.95359542081,12.92803280328,1307504.0631723,-3727.4569352937,2727954.6559255,18.12803280328,0,0
-159.30184600298,175.00504161113,12.932463246325,1307504.0631723,-3727.4569352937,2727954.6559255,18.132463246325,0,0
-159.30184580103,175.05648780145,12.936893689369,1307504.0631723,-3727.4569352937,2727954.6559255,18.136893689369,0,0
-159.30184559907,175.10793399178,12.941324132413,1307504.0631723,-3727.4569352937,2727954.6559255,18.141324132413,0,0
-159.30184539711,175.1593801821,12.945754575458,1307504.0631723,-3727.4569352937,2727954.6559255,18.145754575458,0,0
-159.30184519516,175.21082637242,12.950185018502,1307504.0631723,-3727.4569352937,2727954.6559255,18.150185018502,0,0
-159.3018449932,175.26227256274,12.954615461546,1307504.0631723,-3727.4569352937,2727954.6559255,18.154615461546,0,0
-159.30184479124,175.31371875306,12.95904590459,1307504.0631723,-3727.4569352937,2727954.6559255,18.15904590459,0,0
-159.30184458928,175.36516494339,12.963476347635,1307504.0631723,-3727.4569352937,2727954.6559255,18.163476347635,0,0
-159.30184438733,175.41661113371,12.967906790679,1307504.0631723,-3727.4569352937,2727954.6559255,18.167906790679,0,0
-159.30184418537,175.46805732403,12.972337233723,1307504.0631723,-3727.4569352937,2727954.6559255,18.172337233723,0,0
-159.30184398341,175.51950351435,12.976767676768,1307504.0631723,-3727.4569352937,2727954.6559255,18.176767676768,0,0
-159.30184378145,175.57094970467,12.981198119812,1307504.0631723,-3727.4569352937,2727954.6559255,18.181198119812,0,0
-159.3018435795,175.62239589499,12.985628562856,1307504.0631723,-3727.4569352937,2727954.6559255,18.185628562856,0,0
-159.30184337754,175.67384208532,12.990059005901,1307504.0631723,-3727.4569352937,2727954.6559255,18.190059005901,0,0
-159.30184317558,175.72528827564,12.994489448945,1307504.0631723,-3727.4569352937,2727954.6559255,18.194489448945,0,0
-159.30184297362,175.77673446596,12.998919891989,1307504.0631723,-3727.4569352937,2727954.6559255,18.198919891989,0,0
-159.30184277167,175.82818065628,13.003350335034,1307504.0631723,-3727.4569352937,2727954.6559255,18.203350335034,0,0
-159.30184256971,175.8796268466,13.007780778078,1307504.0631723,-3727.4569352937,2727954.6559255,18.207780778078,0,0
-159.30184236775,175.93107303693,13.012211221122,1307504.0631723,-3727.4569352937,2727954.6559255,18.212211221122,0,0
-159.30184216579,175.98251922725,13.016641664166,1307504.0631723,-3727.4569352937,2727954.6559255,18.216641664166,0,0
-159.30184196384,176.03396541757,13.021072107211,1307504.0631723,-3727.4569352937,2727954.6559255,18.221072107211,0,0
-159.30184176188,176.08541160789,13.025502550255,1307504.0631723,-3727.4569352937,2727954.6559255,18.225502550255,0,0
-159.30184155992,176.13685779821,13.029932993299,1307504.0631723,-3727.4569352937,2727954.6559255,18.229932993299,0,0
-159.30184135797,176.18830398854,13.034363436344,1307504.0631723,-3727.4569352937,2727954.6559255,18.234363436344,0,0
-159.30184115601,176.23975017886,13.038793879388,1307504.0631723,-3727.4569352937,2727954.6559255,18.238793879388,0,0
-159.30184095405,176.29119636918,13.043224322432,1307504.0631723,-3727.4569352937,2727954.6559255,18.243224322432,0,0
-159.30184075209,176.3426425595,13.047654765477,1307504.0631723,-3727.4569352937,2727954.6559255,18.247654765477,0,0
-159.30184055014,176.39408874982,13.052085208521,1307504.0631723,-3727.4569352937,2727954.6559255,18.252085208521,0,0
-159.30184034818,176.44553494015,13.056515651565,1307504.0631723,-3727.4569352937,2727954.6559255,18.256515651565,0,0
-159.30184014622,176.49698113047,13.060946094609,1307504.0631723,-3727.4569352937,2727954.6559255,18.260946094609,0,0
-159.30183994426,176.54842732079,13.065376537654,1307504.0631723,-3727.4569352937,2727954.6559255,18.265376537654,0,0
-159.30183974231,176.59987351111,13.069806980698,1307504.0631723,-3727.4569352937,2727954.6559255,18.269806980698,0,0
-159.30183954035,176.65131970143,13.074237423742,1307504.0631723,-3727.4569352937,2727954.6559255,18.274237423742,0,0
-159.30183933839,176.70276589176,13.078667866787,1307504.0631723,-3727.4569352937,2727954.6559255,18.278667866787,0,0
-159.30183913643,176.75421208208,13.083098309831,1307504.0631723,-3727.4569352937,2727954.6559255,18.283098309831,0,0
-159.30183893448,176.8056582724,13.087528752875,1307504.0631723,-3727.4569352937,2727954.6559255,18.287528752875,0,0
-159.30183873252,176.85710446272,13.09195919592,1307504.0631723,-3727.4569352937,2727954.6559255,18.29195919592,0,0
-159.30183853056,176.90855065304,13.096389638964,1307504.0631723,-3727.4569352937,2727954.6559255,18.296389638964,0,0
-159.3018383286,176.95999684337,13.100820082008,1307504.0631723,-3727.4569352937,2727954.6559255,18.300820082008,0,0
-159.30183812665,177.01144303369,13.105250525053,1307504.0631723,-3727.4569352937,2727954.6559255,18.305250525053,0,0
-159.30183792469,177.06288922401,13.109680968097,1307504.0631723,-3727.4569352937,2727954.6559255,18.309680968097,0,0
-159.30183772273,177.11433541433,13.114111411141,1307504.0631723,-3727.4569352937,2727954.6559255,18.314111411141,0,0
-159.30183752077,177.16578160465,13.118541854185,1307504.0631723,-3727.4569352937,2727954.6559255,18.318541854185,0,0
-159.30183731882,177.21722779498,13.12297229723,1307504.0631723,-3727.4569352937,2727954.6559255,18.32297229723,0,0
-159.30183711686,177.2686739853,13.127402740274,1307504.0631723,-3727.4569352937,2727954.6559255,18.327402740274,0,0
-159.3018369149,177.32012017562,13.131833183318,1307504.0631723,-3727.4569352937,2727954.6559255,18.331833183318,0,0
-159.30183671295,177.37156636594,13.136263626363,1307504.0631723,-3727.4569352937,2727954.6559255,18.336263626363,0,0
-159.30183651099,177.42301255626,13.140694069407,1307504.0631723,-3727.4569352937,2727954.6559255,18.340694069407,0,0
-159.30183630903,177.47445874659,13.145124512451,1307504.0631723,-3727.4569352937,2727954.6559255,18.345124512451,0,0
-159.30183610707,177.52590493691,13.149554955496,1307504.0631723,-3727.4569352937,2727954.6559255,18.349554955496,0,0
-159.30183590512,177.57735112723,13.15398539854,1307504.0631723,-3727.4569352937,2727954.6559255,18.35398539854,0,0
-159.30183570316,177.62879731755,13.158415841584,1307504.0631723,-3727.4569352937,2727954.6559255,18.358415841584,0,0
-159.3018355012,177.68024350787,13.162846284628,1307504.0631723,-3727.4569352937,2727954.6559255,18.362846284628,0,0
-159.30183529924,177.7316896982,13.167276727673,1307504.0631723,-3727.4569352937,2727954.6559255,18.367276727673,0,0
-159.30183509729,177.78313588852,13.171707170717,1307504.0631723,-3727.4569352937,2727954.6559255,18.371707170717,0,0
-159.30183489533,177.83458207884,13.176137613761,1307504.0631723,-3727.4569352937,2727954.6559255,18.376137613761,0,0
-159.30183469337,177.88602826916,13.180568056806,1307504.0631723,-3727.4569352937,2727954.6559255,18.380568056806,0,0
-159.30183449141,177.93747445948,13.18499849985,1307504.0631723,-3727.4569352937,2727954.6559255,18.38499849985,0,0
-159.30183428946,177.9889206498,13.189428942894,1307504.0631723,-3727.4569352937,2727954.6559255,18.389428942894,0,0
-159.3018340875,178.04036684013,13.193859385939,1307504.0631723,-3727.4569352937,2727954.6559255,18.393859385939,0,0
-159.30183388554,178.09181303045,13.198289828983,1307504.0631723,-3727.4569352937,2727954.6559255,18.398289828983,0,0
-159.30183368358,178.14325922077,13.202720272027,1307504.0631723,-3727.4569352937,2727954.6559255,18.402720272027,0,0
-159.30183348163,178.19470541109,13.207150715072,1307504.0631723,-3727.4569352937,2727954.6559255,18.407150715072,0,0
-159.30183327967,178.24615160141,13.211581158116,1307504.0631723,-3727.4569352937,2727954.6559255,18.411581158116,0,0
-159.30183307771,178.29759779174,13.21601160116,1307504.0631723,-3727.4569352937,2727954.6559255,18.41601160116,0,0
-159.30183287576,178.34904398206,13.220442044204,1307504.0631723,-3727.4569352937,2727954.6559255,18.420442044204,0,0
-159.3018326738,178.40049017238,13.224872487249,1307504.0631723,-3727.4569352937,2727954.6559255,18.424872487249,0,0
-159.30183247184,178.4519363627,13.229302930293,1307504.0631723,-3727.4569352937,2727954.6559255,18.429302930293,0,0
-159.30183226988,178.50338255302,13.233733373337,1307504.0631723,-3727.4569352937,2727954.6559255,18.433733373337,0,0
-159.30183206793,178.55482874335,13.238163816382,1307504.0631723,-3727.4569352937,2727954.6559255,18.438163816382,0,0
-159.30183186597,178.60627493367,13.242594259426,1307504.0631723,-3727.4569352937,2727954.6559255,18.442594259426,0,0
-159.30183166401,178.65772112399,13.24702470247,1307504.0631723,-3727.4569352937,2727954.6559255,18.44702470247,0,0
-159.30183146205,178.70916731431,13.251455145515,1307504.0631723,-3727.4569352937,2727954.6559255,18.451455145515,0,0
-159.3018312601,178.76061350463,13.255885588559,1307504.0631723,-3727.4569352937,2727954.6559255,18.455885588559,0,0
-159.30183105814,178.81205969496,13.260316031603,1307504.0631723,-3727.4569352937,2727954.6559255,18.460316031603,0,0
-159.30183085618,178.86350588528,13.264746474647,1307504.0631723,-3727.4569352937,2727954.6559255,18.464746474647,0,0
-159.30183065422,178.9149520756,13.269176917692,1307504.0631723,-3727.4569352937,2727954.6559255,18.469176917692,0,0
-159.30183045227,178.96639826592,13.273607360736,1307504.0631723,-3727.4569352937,2727954.6559255,18.473607360736,0,0
-159.30183025031,179.01784445624,13.27803780378,1307504.0631723,-3727.4569352937,2727954.6559255,18.47803780378,0,0
-159.30183004835,179.06929064657,13.282468246825,1307504.0631723,-3727.4569352937,2727954.6559255,18.482468246825,0,0
-159.30182984639,179.12073683689,13.286898689869,1307504.0631723,-3727.4569352937,2727954.6559255,18.486898689869,0,0
-159.30182964444,179.17218302721,13.291329132913,1307504.0631723,-3727.4569352937,2727954.6559255,18.491329132913,0,0
-159.30182944248,179.22362921753,13.295759575958,1307504.0631723,-3727.4569352937,2727954.6559255,18.495759575958,0,0
-159.30182924052,179.27507540785,13.300190019002,1307504.0631723,-3727.4569352937,2727954.6559255,18.500190019002,0,0
-159.30182903857,179.32652159818,13.304620462046,1307504.0631723,-3727.4569352937,2727954.6559255,18.504620462046,0,0
-159.30182883661,179.3779677885,13.309050905091,1307504.0631723,-3727.4569352937,2727954.6559255,18.509050905091,0,0
-159.30182863465,179.42941397882,13.313481348135,1307504.0631723,-3727.4569352937,2727954.6559255,18.513481348135,0,0
-159.30182843269,179.48086016914,13.317911791179,1307504.0631723,-3727.4569352937,2727954.6559255,18.517911791179,0,0
-159.30182823074,179.53230635946,13.322342234223,1307504.0631723,-3727.4569352937,2727954.6559255,18.522342234223,0,0
-159.30182802878,179.58375254979,13.326772677268,1307504.0631723,-3727.4569352937,2727954.6559255,18.526772677268,0,0
-159.30182782682,179.63519874011,13.331203120312,1307504.0631723,-3727.4569352937,2727954.6559255,18.531203120312,0,0
-159.30182762486,179.68664493043,13.335633563356,1307504.0631723,-3727.4569352937,2727954.6559255,18.535633563356,0,0
-159.30182742291,179.73809112075,13.340064006401,1307504.0631723,-3727.4569352937,2727954.6559255,18.540064006401,0,0
-159.30182722095,179.78953731107,13.344494449445,1307504.0631723,-3727.4569352937,2727954.6559255,18.544494449445,0,0
-159.30182701899,179.8409835014,13.348924892489,1307504.0631723,-3727.4569352937,2727954.6559255,18.548924892489,0,0
-159.30182681703,179.89242969172,13.353355335534,1307504.0631723,-3727.4569352937,2727954.6559255,18.553355335534,0,0
-159.30182661508,179.94387588204,13.357785778578,1307504.0631723,-3727.4569352937,2727954.6559255,18.557785778578,0,0
-159.30182641312,179.99532207236,13.362216221622,1307504.0631723,-3727.4569352937,2727954.6559255,18.562216221622,0,0
-159.30182621116,180.04676826268,13.366646664666,1307504.0631723,-3727.4569352937,2727954.6559255,18.566646664666,0,0
-159.3018260092,180.098214453,13.371077107711,1307504.0631723,-3727.4569352937,2727954.6559255,18.571077107711,0,0
-159.30182580725,180.14966064333,13.375507550755,1307504.0631723,-3727.4569352937,2727954.6559255,18.575507550755,0,0
-159.30182560529,180.20110683365,13.379937993799,1307504.0631723,-3727.4569352937,2727954.6559255,18.579937993799,0,0
-159.30182540333,180.25255302397,13.384368436844,1307504.0631723,-3727.4569352937,2727954.6559255,18.584368436844,0,0
-159.30182520137,180.30399921429,13.388798879888,1307504.0631723,-3727.4569352937,2727954.6559255,18.588798879888,0,0
-159.30182499942,180.35544540461,13.393229322932,1307504.0631723,-3727.4569352937,2727954.6559255,18.593229322932,0,0
-159.30182479746,180.40689159494,13.397659765977,1307504.0631723,-3727.4569352937,2727954.6559255,18.597659765977,0,0
-159.3018245955,180.45833778526,13.402090209021,1307504.0631723,-3727.4569352937,2727954.6559255,18.602090209021,0,0
-159.30182439355,180.50978397558,13.406520652065,1307504.0631723,-3727.4569352937,2727954.6559255,18.606520652065,0,0
-159.30182419159,180.5612301659,13.41095109511,1307504.0631723,-3727.4569352937,2727954.6559255,18.61095109511,0,0
-159.30182398963,180.61267635622,13.415381538154,1307504.0631723,-3727.4569352937,2727954.6559255,18.615381538154,0,0
-159.30182378767,180.66412254655,13.419811981198,1307504.0631723,-3727.4569352937,2727954.6559255,18.619811981198,0,0
-159.30182358572,180.71556873687,13.424242424242,1307504.0631723,-3727.4569352937,2727954.6559255,18.624242424242,0,0
-159.30182338376,180.76701492719,13.428672867287,1307504.0631723,-3727.4569352937,2727954.6559255,18.628672867287,0,0
-159.3018231818,180.81846111751,13.433103310331,1307504.0631723,-3727.4569352937,2727954.6559255,18.633103310331,0,0
-159.30182297984,180.86990730783,13.437533753375,1307504.0631723,-3727.4569352937,2727954.6559255,18.637533753375,0,0
-159.30182277789,180.92135349816,13.44196419642,1307504.0631723,-3727.4569352937,2727954.6559255,18.64196419642,0,0
-159.30182257593,180.97279968848,13.446394639464,1307504.0631723,-3727.4569352937,2727954.6559255,18.646394639464,0,0
-159.30182237397,181.0242458788,13.450825082508,1307504.0631723,-3727.4569352937,2727954.6559255,18.650825082508,0,0
-159.30182217201,181.07569206912,13.455255525553,1307504.0631723,-3727.4569352937,2727954.6559255,18.655255525553,0,0
-159.30182197006,181.12713825944,13.459685968597,1307504.0631723,-3727.4569352937,2727954.6559255,18.659685968597,0,0
-159.3018217681,181.17858444977,13.464116411641,1307504.0631723,-3727.4569352937,2727954.6559255,18.664116411641,0,0
-159.30182156614,181.23003064009,13.468546854685,1307504.0631723,-3727.4569352937,2727954.6559255,18.668546854685,0,0
-159.30182136418,181.28147683041,13.47297729773,1307504.0631723,-3727.4569352937,2727954.6559255,18.67297729773,0,0
-159.30182116223,181.33292302073,13.477407740774,1307504.0631723,-3727.4569352937,2727954.6559255,18.677407740774,0,0
-159.30182096028,181.38436921275,13.481838183818,1304344.921423,2707.9429415184,2718646.0793672,18.681838183818,0,0
-159.30182075834,181.43581540577,13.486268626863,1304344.921423,2707.9429415184,2718646.0793672,18.686268626863,0,0
-159.30182055641,181.48726159879,13.490699069907,1304344.921423,2707.9429415184,2718646.0793672,18.690699069907,0,0
-159.30182035447,181.5387077918,13.495129512951,1304344.921423,2707.9429415184,2718646.0793672,18.695129512951,0,0
-159.30182015253,181.59015398482,13.499559955996,1304344.921423,2707.9429415184,2718646.0793672,18.699559955996,0,0
-159.30181995059,181.64160017784,13.50399039904,1304344.921423,2707.9429415184,2718646.0793672,18.70399039904,0,0
-159.30181974865,181.69304637086,13.508420842084,1304344.921423,2707.9429415184,2718646.0793672,18.708420842084,0,0
-159.30181954672,181.74449256388,13.512851285129,1304344.921423,2707.9429415184,2718646.0793672,18.712851285129,0,0
-159.30181934478,181.7959387569,13.517281728173,1304344.921423,2707.9429415184,2718646.0793672,18.717281728173,0,0
-159.30181914284,181.84738494991,13.521712171217,1304344.921423,2707.9429415184,2718646.0793672,18.721712171217,0,0
-159.3018189409,181.89883114293,13.526142614261,1304344.921423,2707.9429415184,2718646.0793672,18.726142614261,0,0
-159.30181873896,181.95027733595,13.530573057306,1304344.921423,2707.9429415184,2718646.0793672,18.730573057306,0,0
-159.30181853703,182.00172352897,13.53500350035,1304344.921423,2707.9429415184,2718646.0793672,18.73500350035,0,0
-159.30181833509,182.05316972199,13.539433943394,1304344.921423,2707.9429415184,2718646.0793672,18.739433943394,0,0
-159.30181813315,182.10461591501,13.543864386439,1304344.921423,2707.9429415184,2718646.0793672,18.743864386439,0,0
-159.30181793121,182.15606210802,13.548294829483,1304344.921423,2707.9429415184,2718646.0793672,18.748294829483,0,0
-159.30181772927,182.20750830104,13.552725272527,1304344.921423,2707.9429415184,2718646.0793672,18.752725272527,0,0
-159.30181752734,182.25895449406,13.557155715572,1304344.921423,2707.9429415184,2718646.0793672,18.757155715572,0,0
-159.3018173254,182.31040068708,13.561586158616,1304344.921423,2707.9429415184,2718646.0793672,18.761586158616,0,0
-159.30181712346,182.3618468801,13.56601660166,1304344.921423,2707.9429415184,2718646.0793672,18.76601660166,0,0
-159.30181692152,182.41329307311,13.570447044704,1304344.921423,2707.9429415184,2718646.0793672,18.770447044704,0,0
-159.30181671958,182.46473926613,13.574877487749,1304344.921423,2707.9429415184,2718646.0793672,18.774877487749,0,0
-159.30181651765,182.51618545915,13.579307930793,1304344.921423,2707.9429415184,2718646.0793672,18.779307930793,0,0
-159.30181631571,182.56763165217,13.583738373837,1304344.921423,2707.9429415184,2718646.0793672,18.783738373837,0,0
-159.30181611377,182.61907784519,13.588168816882,1304344.921423,2707.9429415184,2718646.0793672,18.788168816882,0,0
-159.30181591183,182.67052403821,13.592599259926,1304344.921423,2707.9429415184,2718646.0793672,18.792599259926,0,0
-159.30181570989,182.72197023122,13.59702970297,1304344.921423,2707.9429415184,2718646.0793672,18.79702970297,0,0
-159.30181550796,182.77341642424,13.601460146015,1304344.921423,2707.9429415184,2718646.0793672,18.801460146015,0,0
-159.30181530602,182.82486261726,13.605890589059,1304344.921423,2707.9429415184,2718646.0793672,18.805890589059,0,0
-159.30181510408,182.87630881028,13.610321032103,1304344.921423,2707.9429415184,2718646.0793672,18.810321032103,0,0
-159.30181490214,182.9277550033,13.614751475148,1304344.921423,2707.9429415184,2718646.0793672,18.814751475148,0,0
-159.3018147002,182.97920119631,13.619181918192,1304344.921423,2707.9429415184,2718646.0793672,18.819181918192,0,0
-159.30181449827,183.03064738933,13.623612361236,1304344.921423,2707.9429415184,2718646.0793672,18.823612361236,0,0
-159.30181429633,183.08209358235,13.62804280428,1304344.921423,2707.9429415184,2718646.0793672,18.82804280428,0,0
-159.30181409439,183.13353977537,13.632473247325,1304344.921423,2707.9429415184,2718646.0793672,18.832473247325,0,0
-159.30181389245,183.18498596839,13.636903690369,1304344.921423,2707.9429415184,2718646.0793672,18.836903690369,0,0
-159.30181369051,183.23643216141,13.641334133413,1304344.921423,2707.9429415184,2718646.0793672,18.841334133413,0,0
-159.30181348858,183.28787835442,13.645764576458,1304344.921423,2707.9429415184,2718646.0793672,18.845764576458,0,0
-159.30181328664,183.33932454744,13.650195019502,1304344.921423,2707.9429415184,2718646.0793672,18.850195019502,0,0
-159.3018130847,183.39077074046,13.654625462546,1304344.921423,2707.9429415184,2718646.0793672,18.854625462546,0,0
-159.30181288276,183.44221693348,13.659055905591,1304344.921423,2707.9429415184,2718646.0793672,18.859055905591,0,0
-159.30181268082,183.4936631265,13.663486348635,1304344.921423,2707.9429415184,2718646.0793672,18.863486348635,0,0
-159.30181247889,183.54510931952,13.667916791679,1304344.921423,2707.9429415184,2718646.0793672,18.867916791679,0,0
-159.30181227695,183.59655551253,13.672347234723,1304344.921423,2707.9429415184,2718646.0793672,18.872347234723,0,0
-159.30181207501,183.64800170555,13.676777677768,1304344.921423,2707.9429415184,2718646.0793672,18.876777677768,0,0
-159.30181187307,183.69944789857,13.681208120812,1304344.921423,2707.9429415184,2718646.0793672,18.881208120812,0,0
-159.30181167113,183.75089409159,13.685638563856,1304344.921423,2707.9429415184,2718646.0793672,18.885638563856,0,0
-159.3018114692,183.80234028461,13.690069006901,1304344.921423,2707.9429415184,2718646.0793672,18.890069006901,0,0
-159.30181126726,183.85378647762,13.694499449945,1304344.921423,2707.9429415184,2718646.0793672,18.894499449945,0,0
-159.30181106532,183.90523267064,13.698929892989,1304344.921423,2707.9429415184,2718646.0793672,18.898929892989,0,0
-159.30181086338,183.95667886366,13.703360336034,1304344.921423,2707.9429415184,2718646.0793672,18.903360336034,0,0
-159.30181066144,184.00812505668,13.707790779078,1304344.921423,2707.9429415184,2718646.0793672,18.907790779078,0,0
-159.30181045951,184.0595712497,13.712221222122,1304344.921423,2707.9429415184,2718646.0793672,18.912221222122,0,0
-159.30181025757,184.11101744272,13.716651665167,1304344.921423,2707.9429415184,2718646.0793672,18.916651665167,0,0
-159.30181005563,184.16246363573,13.721082108211,1304344.921423,2707.9429415184,2718646.0793672,18.921082108211,0,0
-159.30180985369,184.21390982875,13.725512551255,1304344.921423,2707.9429415184,2718646.0793672,18.925512551255,0,0
-159.30180965175,184.26535602177,13.729942994299,1304344.921423,2707.9429415184,2718646.0793672,18.929942994299,0,0
-159.30180944981,184.31680221479,13.734373437344,1304344.921423,2707.9429415184,2718646.0793672,18.934373437344,0,0
-159.30180924788,184.36824840781,13.738803880388,1304344.921423,2707.9429415184,2718646.0793672,18.938803880388,0,0
-159.30180904594,184.41969460082,13.743234323432,1304344.921423,2707.9429415184,2718646.0793672,18.943234323432,0,0
-159.301808844,184.47114079384,13.747664766477,1304344.921423,2707.9429415184,2718646.0793672,18.947664766477,0,0
-159.30180864206,184.52258698686,13.752095209521,1304344.921423,2707.9429415184,2718646.0793672,18.952095209521,0,0
-159.30180844012,184.57403317988,13.756525652565,1304344.921423,2707.9429415184,2718646.0793672,18.956525652565,0,0
-159.30180823819,184.6254793729,13.76095609561,1304344.921423,2707.9429415184,2718646.0793672,18.96095609561,0,0
-159.30180803625,184.67692556592,13.765386538654,1304344.921423,2707.9429415184,2718646.0793672,18.965386538654,0,0
-159.30180783431,184.72837175893,13.769816981698,1304344.921423,2707.9429415184,2718646.0793672,18.969816981698,0,0
-159.30180763237,184.77981795195,13.774247424742,1304344.921423,2707.9429415184,2718646.0793672,18.974247424742,0,0
-159.30180743043,184.83126414497,13.778677867787,1304344.921423,2707.9429415184,2718646.0793672,18.978677867787,0,0
-159.3018072285,184.88271033799,13.783108310831,1304344.921423,2707.9429415184,2718646.0793672,18.983108310831,0,0
-159.30180702656,184.93415653101,13.787538753875,1304344.921423,2707.9429415184,2718646.0793672,18.987538753875,0,0
-159.30180682462,184.98560272403,13.79196919692,1304344.921423,2707.9429415184,2718646.0793672,18.99196919692,0,0
-159.30180662268,185.03704891704,13.796399639964,1304344.921423,2707.9429415184,2718646.0793672,18.996399639964,0,0
-159.30180642074,185.08849511006,13.800830083008,1304344.921423,2707.9429415184,2718646.0793672,19.000830083008,0,0
-159.30180621881,185.13994130308,13.805260526053,1304344.921423,2707.9429415184,2718646.0793672,19.005260526053,0,0
-159.30180601687,185.1913874961,13.809690969097,1304344.921423,2707.9429415184,2718646.0793672,19.009690969097,0,0
-159.30180581493,185.24283368912,13.814121412141,1304344.921423,2707.9429415184,2718646.0793672,19.014121412141,0,0
-159.30180561299,185.29427988213,13.818551855186,1304344.921423,2707.9429415184,2718646.0793672,19.018551855186,0,0
-159.30180541105,185.34572607515,13.82298229823,1304344.921423,2707.9429415184,2718646.0793672,19.02298229823,0,0
-159.30180520912,185.39717226817,13.827412741274,1304344.921423,2707.9429415184,2718646.0793672,19.027412741274,0,0
-159.30180500718,185.44861846119,13.831843184318,1304344.921423,2707.9429415184,2718646.0793672,19.031843184318,0,0
-159.30180480524,185.50006465421,13.836273627363,1304344.921423,2707.9429415184,2718646.0793672,19.036273627363,0,0
-159.3018046033,185.55151084723,13.840704070407,1304344.921423,2707.9429415184,2718646.0793672,19.040704070407,0,0
-159.30180440136,185.60295704024,13.845134513451,1304344.921423,2707.9429415184,2718646.0793672,19.045134513451,0,0
-159.30180419943,185.65440323326,13.849564956496,1304344.921423,2707.9429415184,2718646.0793672,19.049564956496,0,0
-159.30180399749,185.70584942628,13.85399539954,1304344.921423,2707.9429415184,2718646.0793672,19.05399539954,0,0
-159.30180379555,185.7572956193,13.858425842584,1304344.921423,2707.9429415184,2718646.0793672,19.058425842584,0,0
-159.30180359361,185.80874181232,13.862856285629,1304344.921423,2707.9429415184,2718646.0793672,19.062856285629,0,0
-159.30180339167,185.86018800533,13.867286728673,1304344.921423,2707.9429415184,2718646.0793672,19.067286728673,0,0
-159.30180318974,185.91163419835,13.871717171717,1304344.921423,2707.9429415184,2718646.0793672,19.071717171717,0,0
-159.3018029878,185.96308039137,13.876147614761,1304344.921423,2707.9429415184,2718646.0793672,19.076147614761,0,0
-159.30180278586,186.01452658439,13.880578057806,1304344.921423,2707.9429415184,2718646.0793672,19.080578057806,0,0
-159.30180258392,186.06597277741,13.88500850085,1304344.921423,2707.9429415184,2718646.0793672,19.08500850085,0,0
-159.30180238198,186.11741897043,13.889438943894,1304344.921423,2707.9429415184,2718646.0793672,19.089438943894,0,0
-159.30180218005,186.16886516344,13.893869386939,1304344.921423,2707.9429415184,2718646.0793672,19.093869386939,0,0
-159.30180197811,186.22031135646,13.898299829983,1304344.921423,2707.9429415184,2718646.0793672,19.098299829983,0,0
-159.30180177617,186.27175754948,13.902730273027,1304344.921423,2707.9429415184,2718646.0793672,19.102730273027,0,0
-159.30180157423,186.3232037425,13.907160716072,1304344.921423,2707.9429415184,2718646.0793672,19.107160716072,0,0
-159.30180137229,186.37464993552,13.911591159116,1304344.921423,2707.9429415184,2718646.0793672,19.111591159116,0,0
-159.30180117036,186.42609612853,13.91602160216,1304344.921423,2707.9429415184,2718646.0793672,19.11602160216,0,0
-159.30180096842,186.47754232155,13.920452045205,1304344.921423,2707.9429415184,2718646.0793672,19.120452045205,0,0
-159.30180076648,186.52898851457,13.924882488249,1304344.921423,2707.9429415184,2718646.0793672,19.124882488249,0,0
-159.30180056454,186.58043470759,13.929312931293,1304344.921423,2707.9429415184,2718646.0793672,19.129312931293,0,0
-159.3018003626,186.63188090061,13.933743374337,1304344.921423,2707.9429415184,2718646.0793672,19.133743374337,0,0
-159.30180016067,186.68332709363,13.938173817382,1304344.921423,2707.9429415184,2718646.0793672,19.138173817382,0,0
-159.30179995873,186.73477328664,13.942604260426,1304344.921423,2707.9429415184,2718646.0793672,19.142604260426,0,0
-159.30179975679,186.78621947966,13.94703470347,1304344.921423,2707.9429415184,2718646.0793672,19.14703470347,0,0
-159.30179955485,186.83766567268,13.951465146515,1304344.921423,2707.9429415184,2718646.0793672,19.151465146515,0,0
-159.30179935291,186.8891118657,13.955895589559,1304344.921423,2707.9429415184,2718646.0793672,19.155895589559,0,0
-159.30179915098,186.94055805872,13.960326032603,1304344.921423,2707.9429415184,2718646.0793672,19.160326032603,0,0
-159.30179894904,186.99200425174,13.964756475648,1304344.921423,2707.9429415184,2718646.0793672,19.164756475648,0,0
-159.3017987471,187.04345044475,13.969186918692,1304344.921423,2707.9429415184,2718646.0793672,19.169186918692,0,0
-159.30179854516,187.09489663777,13.973617361736,1304344.921423,2707.9429415184,2718646.0793672,19.173617361736,0,0
-159.30179834322,187.14634283079,13.97804780478,1304344.921423,2707.9429415184,2718646.0793672,19.17804780478,0,0
-159.30179814129,187.19778902381,13.982478247825,1304344.921423,2707.9429415184,2718646.0793672,19.182478247825,0,0
-159.30179793935,187.24923521683,13.986908690869,1304344.921423,2707.9429415184,2718646.0793672,19.186908690869,0,0
-159.30179773741,187.30068140984,13.991339133913,1304344.921423,2707.9429415184,2718646.0793672,19.191339133913,0,0
-159.30179753547,187.35212760286,13.995769576958,1304344.921423,2707.9429415184,2718646.0793672,19.195769576958,0,0
-159.30179733353,187.40357379588,14.000200020002,1304344.921423,2707.9429415184,2718646.0793672,19.200200020002,0,0
-159.3017971316,187.4550199889,14.004630463046,1304344.921423,2707.9429415184,2718646.0793672,19.204630463046,0,0
-159.30179692966,187.50646618192,14.009060906091,1304344.921423,2707.9429415184,2718646.0793672,19.209060906091,0,0
-159.30179672772,187.55791237494,14.013491349135,1304344.921423,2707.9429415184,2718646.0793672,19.213491349135,0,0
-159.30179652575,187.60935856779,14.017921792179,1303591.4193651,-2815.3352662414,2706817.2535035,19.217921792179,0,0
-159.30179632332,187.66080475815,14.022352235224,1303591.4193651,-2815.3352662414,2706817.2535035,19.222352235224,0,0
-159.30179612089,187.7122509485,14.026782678268,1303591.4193651,-2815.3352662414,2706817.2535035,19.226782678268,0,0
-159.30179591846,187.76369713886,14.031213121312,1303591.4193651,-2815.3352662414,2706817.2535035,19.231213121312,0,0
-159.30179571603,187.81514332922,14.035643564356,1303591.4193651,-2815.3352662414,2706817.2535035,19.235643564356,0,0
-159.3017955136,187.86658951957,14.040074007401,1303591.4193651,-2815.3352662414,2706817.2535035,19.240074007401,0,0
-159.30179531117,187.91803570993,14.044504450445,1303591.4193651,-2815.3352662414,2706817.2535035,19.244504450445,0,0
-159.30179510874,187.96948190029,14.048934893489,1303591.4193651,-2815.3352662414,2706817.2535035,19.248934893489,0,0
-159.30179490631,188.02092809064,14.053365336534,1303591.4193651,-2815.3352662414,2706817.2535035,19.253365336534,0,0
-159.30179470388,188.072374281,14.057795779578,1303591.4193651,-2815.3352662414,2706817.2535035,19.257795779578,0,0
-159.30179450145,188.12382047136,14.062226222622,1303591.4193651,-2815.3352662414,2706817.2535035,19.262226222622,0,0
-159.30179429902,188.17526666171,14.066656665667,1303591.4193651,-2815.3352662414,2706817.2535035,19.266656665667,0,0
-159.30179409659,188.22671285207,14.071087108711,1303591.4193651,-2815.3352662414,2706817.2535035,19.271087108711,0,0
-159.30179389416,188.27815904243,14.075517551755,1303591.4193651,-2815.3352662414,2706817.2535035,19.275517551755,0,0
-159.30179369173,188.32960523278,14.079947994799,1303591.4193651,-2815.3352662414,2706817.2535035,19.279947994799,0,0
-159.3017934893,188.38105142314,14.084378437844,1303591.4193651,-2815.3352662414,2706817.2535035,19.284378437844,0,0
-159.30179328687,188.4324976135,14.088808880888,1303591.4193651,-2815.3352662414,2706817.2535035,19.288808880888,0,0
-159.30179308444,188.48394380385,14.093239323932,1303591.4193651,-2815.3352662414,2706817.2535035,19.293239323932,0,0
-159.30179288201,188.53538999421,14.097669766977,1303591.4193651,-2815.3352662414,2706817.2535035,19.297669766977,0,0
-159.30179267958,188.58683618456,14.102100210021,1303591.4193651,-2815.3352662414,2706817.2535035,19.302100210021,0,0
-159.30179247715,188.63828237492,14.106530653065,1303591.4193651,-2815.3352662414,2706817.2535035,19.306530653065,0,0
-159.30179227472,188.68972856528,14.11096109611,1303591.4193651,-2815.3352662414,2706817.2535035,19.31096109611,0,0
-159.30179207229,188.74117475563,14.115391539154,1303591.4193651,-2815.3352662414,2706817.2535035,19.315391539154,0,0
-159.30179186985,188.79262094599,14.119821982198,1303591.4193651,-2815.3352662414,2706817.2535035,19.319821982198,0,0
-159.30179166742,188.84406713635,14.124252425243,1303591.4193651,-2815.3352662414,2706817.2535035,19.324252425243,0,0
-159.30179146499,188.8955133267,14.128682868287,1303591.4193651,-2815.3352662414,2706817.2535035,19.328682868287,0,0
-159.30179126256,188.94695951706,14.133113311331,1303591.4193651,-2815.3352662414,2706817.2535035,19.333113311331,0,0
-159.30179106013,188.99840570742,14.137543754375,1303591.4193651,-2815.3352662414,2706817.2535035,19.337543754375,0,0
-159.3017908577,189.04985189777,14.14197419742,1303591.4193651,-2815.3352662414,2706817.2535035,19.34197419742,0,0
-159.30179065527,189.10129808813,14.146404640464,1303591.4193651,-2815.3352662414,2706817.2535035,19.346404640464,0,0
-159.30179045284,189.15274427849,14.150835083508,1303591.4193651,-2815.3352662414,2706817.2535035,19.350835083508,0,0
-159.30179025041,189.20419046884,14.155265526553,1303591.4193651,-2815.3352662414,2706817.2535035,19.355265526553,0,0
-159.30179004798,189.2556366592,14.159695969597,1303591.4193651,-2815.3352662414,2706817.2535035,19.359695969597,0,0
-159.30178984555,189.30708284956,14.164126412641,1303591.4193651,-2815.3352662414,2706817.2535035,19.364126412641,0,0
-159.30178964312,189.35852903991,14.168556855686,1303591.4193651,-2815.3352662414,2706817.2535035,19.368556855686,0,0
-159.30178944069,189.40997523027,14.17298729873,1303591.4193651,-2815.3352662414,2706817.2535035,19.37298729873,0,0
-159.30178923826,189.46142142062,14.177417741774,1303591.4193651,-2815.3352662414,2706817.2535035,19.377417741774,0,0
-159.30178903583,189.51286761098,14.181848184818,1303591.4193651,-2815.3352662414,2706817.2535035,19.381848184818,0,0
-159.3017888334,189.56431380134,14.186278627863,1303591.4193651,-2815.3352662414,2706817.2535035,19.386278627863,0,0
-159.30178863097,189.61575999169,14.190709070907,1303591.4193651,-2815.3352662414,2706817.2535035,19.390709070907,0,0
-159.30178842854,189.66720618205,14.195139513951,1303591.4193651,-2815.3352662414,2706817.2535035,19.395139513951,0,0
-159.30178822611,189.71865237241,14.199569956996,1303591.4193651,-2815.3352662414,2706817.2535035,19.399569956996,0,0
-159.30178802368,189.77009856276,14.20400040004,1303591.4193651,-2815.3352662414,2706817.2535035,19.40400040004,0,0
-159.30178782125,189.82154475312,14.208430843084,1303591.4193651,-2815.3352662414,2706817.2535035,19.408430843084,0,0
-159.30178761882,189.87299094348,14.212861286129,1303591.4193651,-2815.3352662414,2706817.2535035,19.412861286129,0,0
-159.30178741639,189.92443713383,14.217291729173,1303591.4193651,-2815.3352662414,2706817.2535035,19.417291729173,0,0
-159.30178721396,189.97588332419,14.221722172217,1303591.4193651,-2815.3352662414,2706817.2535035,19.421722172217,0,0
-159.30178701153,190.02732951455,14.226152615262,1303591.4193651,-2815.3352662414,2706817.2535035,19.426152615262,0,0
-159.3017868091,190.0787757049,14.230583058306,1303591.4193651,-2815.3352662414,2706817.2535035,19.430583058306,0,0
-159.30178660667,190.13022189526,14.23501350135,1303591.4193651,-2815.3352662414,2706817.2535035,19.43501350135,0,0
-159.30178640424,190.18166808562,14.239443944394,1303591.4193651,-2815.3352662414,2706817.2535035,19.439443944394,0,0
-159.30178620181,190.23311427597,14.243874387439,1303591.4193651,-2815.3352662414,2706817.2535035,19.443874387439,0,0
-159.30178599938,190.28456046633,14.248304830483,1303591.4193651,-2815.3352662414,2706817.2535035,19.448304830483,0,0
-159.30178579695,190.33600665668,14.252735273527,1303591.4193651,-2815.3352662414,2706817.2535035,19.452735273527,0,0
-159.30178559452,190.38745284704,14.257165716572,1303591.4193651,-2815.3352662414,2706817.2535035,19.457165716572,0,0
-159.30178539209,190.4388990374,14.261596159616,1303591.4193651,-2815.3352662414,2706817.2535035,19.461596159616,0,0
-159.30178518965,190.49034522775,14.26602660266,1303591.4193651,-2815.3352662414,2706817.2535035,19.46602660266,0,0
-159.30178498722,190.54179141811,14.270457045705,1303591.4193651,-2815.3352662414,2706817.2535035,19.470457045705,0,0
-159.30178478479,190.59323760847,14.274887488749,1303591.4193651,-2815.3352662414,2706817.2535035,19.474887488749,0,0
-159.30178458236,190.64468379882,14.279317931793,1303591.4193651,-2815.3352662414,2706817.2535035,19.479317931793,0,0
-159.30178437993,190.69612998918,14.283748374837,1303591.4193651,-2815.3352662414,2706817.2535035,19.483748374837,0,0
-159.3017841775,190.74757617954,14.288178817882,1303591.4193651,-2815.3352662414,2706817.2535035,19.488178817882,0,0
-159.30178397507,190.79902236989,14.292609260926,1303591.4193651,-2815.3352662414,2706817.2535035,19.492609260926,0,0
-159.30178377264,190.85046856025,14.29703970397,1303591.4193651,-2815.3352662414,2706817.2535035,19.49703970397,0,0
-159.30178357021,190.90191475061,14.301470147015,1303591.4193651,-2815.3352662414,2706817.2535035,19.501470147015,0,0
-159.30178336778,190.95336094096,14.305900590059,1303591.4193651,-2815.3352662414,2706817.2535035,19.505900590059,0,0
-159.30178316535,191.00480713132,14.310331033103,1303591.4193651,-2815.3352662414,2706817.2535035,19.510331033103,0,0
-159.30178296292,191.05625332168,14.314761476148,1303591.4193651,-2815.3352662414,2706817.2535035,19.514761476148,0,0
-159.30178276049,191.10769951203,14.319191919192,1303591.4193651,-2815.3352662414,2706817.2535035,19.519191919192,0,0
-159.30178255806,191.15914570239,14.323622362236,1303591.4193651,-2815.3352662414,2706817.2535035,19.523622362236,0,0
-159.30178235563,191.21059189274,14.328052805281,1303591.4193651,-2815.3352662414,2706817.2535035,19.528052805281,0,0
-159.3017821532,191.2620380831,14.332483248325,1303591.4193651,-2815.3352662414,2706817.2535035,19.532483248325,0,0
-159.30178195077,191.31348427346,14.336913691369,1303591.4193651,-2815.3352662414,2706817.2535035,19.536913691369,0,0
-159.30178174834,191.36493046381,14.341344134413,1303591.4193651,-2815.3352662414,2706817.2535035,19.541344134413,0,0
-159.30178154591,191.41637665417,14.345774577458,1303591.4193651,-2815.3352662414,2706817.2535035,19.545774577458,0,0
-159.30178134348,191.46782284453,14.350205020502,1303591.4193651,-2815.3352662414,2706817.2535035,19.550205020502,0,0
-159.30178114105,191.51926903488,14.354635463546,1303591.4193651,-2815.3352662414,2706817.2535035,19.554635463546,0,0
-159.30178093862,191.57071522524,14.359065906591,1303591.4193651,-2815.3352662414,2706817.2535035,19.559065906591,0,0
-159.30178073619,191.6221614156,14.363496349635,1303591.4193651,-2815.3352662414,2706817.2535035,19.563496349635,0,0
-159.30178053376,191.67360760595,14.367926792679,1303591.4193651,-2815.3352662414,2706817.2535035,19.567926792679,0,0
-159.30178033133,191.72505379631,14.372357235724,1303591.4193651,-2815.3352662414,2706817.2535035,19.572357235724,0,0
-159.3017801289,191.77649998667,14.376787678768,1303591.4193651,-2815.3352662414,2706817.2535035,19.576787678768,0,0
-159.30177992647,191.82794617702,14.381218121812,1303591.4193651,-2815.3352662414,2706817.2535035,19.581218121812,0,0
-159.30177972404,191.87939236738,14.385648564856,1303591.4193651,-2815.3352662414,2706817.2535035,19.585648564856,0,0
-159.30177952161,191.93083855774,14.390079007901,1303591.4193651,-2815.3352662414,2706817.2535035,19.590079007901,0,0
-159.30177931918,191.98228474809,14.394509450945,1303591.4193651,-2815.3352662414,2706817.2535035,19.594509450945,0,0
-159.30177911675,192.03373093845,14.398939893989,1303591.4193651,-2815.3352662414,2706817.2535035,19.598939893989,0,0
-159.30177891432,192.0851771288,14.403370337034,1303591.4193651,-2815.3352662414,2706817.2535035,19.603370337034,0,0
-159.30177871189,192.13662331916,14.407800780078,1303591.4193651,-2815.3352662414,2706817.2535035,19.607800780078,0,0
-159.30177850945,192.18806950952,14.412231223122,1303591.4193651,-2815.3352662414,2706817.2535035,19.612231223122,0,0
-159.30177830702,192.23951569987,14.416661666167,1303591.4193651,-2815.3352662414,2706817.2535035,19.616661666167,0,0
-159.30177810459,192.29096189023,14.421092109211,1303591.4193651,-2815.3352662414,2706817.2535035,19.621092109211,0,0
-159.30177790216,192.34240808059,14.425522552255,1303591.4193651,-2815.3352662414,2706817.2535035,19.625522552255,0,0
-159.30177769973,192.39385427094,14.4299529953,1303591.4193651,-2815.3352662414,2706817.2535035,19.6299529953,0,0
-159.3017774973,192.4453004613,14.434383438344,1303591.4193651,-2815.3352662414,2706817.2535035,19.634383438344,0,0
-159.30177729487,192.49674665166,14.438813881388,1303591.4193651,-2815.3352662414,2706817.2535035,19.638813881388,0,0
-159.30177709244,192.54819284201,14.443244324432,1303591.4193651,-2815.3352662414,2706817.2535035,19.643244324432,0,0
-159.30177689001,192.59963903237,14.447674767477,1303591.4193651,-2815.3352662414,2706817.2535035,19.647674767477,0,0
-159.30177668758,192.65108522273,14.452105210521,1303591.4193651,-2815.3352662414,2706817.2535035,19.652105210521,0,0
-159.30177648515,192.70253141308,14.456535653565,1303591.4193651,-2815.3352662414,2706817.2535035,19.656535653565,0,0
-159.30177628272,192.75397760344,14.46096609661,1303591.4193651,-2815.3352662414,2706817.2535035,19.66096609661,0,0
-159.30177608029,192.8054237938,14.465396539654,1303591.4193651,-2815.3352662414,2706817.2535035,19.665396539654,0,0
-159.30177587786,192.85686998415,14.469826982698,1303591.4193651,-2815.3352662414,2706817.2535035,19.669826982698,0,0
-159.30177567543,192.90831617451,14.474257425743,1303591.4193651,-2815.3352662414,2706817.2535035,19.674257425743,0,0
-159.301775473,192.95976236486,14.478687868787,1303591.4193651,-2815.3352662414,2706817.2535035,19.678687868787,0,0
-159.30177527057,193.01120855522,14.483118311831,1303591.4193651,-2815.3352662414,2706817.2535035,19.683118311831,0,0
-159.30177506814,193.06265474558,14.487548754875,1303591.4193651,-2815.3352662414,2706817.2535035,19.687548754875,0,0
-159.30177486571,193.11410093593,14.49197919792,1303591.4193651,-2815.3352662414,2706817.2535035,19.69197919792,0,0
-159.30177466328,193.16554712629,14.496409640964,1303591.4193651,-2815.3352662414,2706817.2535035,19.696409640964,0,0
-159.30177446085,193.21699331665,14.500840084008,1303591.4193651,-2815.3352662414,2706817.2535035,19.700840084008,0,0
-159.30177425842,193.268439507,14.505270527053,1303591.4193651,-2815.3352662414,2706817.2535035,19.705270527053,0,0
-159.30177405599,193.31988569736,14.509700970097,1303591.4193651,-2815.3352662414,2706817.2535035,19.709700970097,0,0
-159.30177385356,193.37133188772,14.514131413141,1303591.4193651,-2815.3352662414,2706817.2535035,19.714131413141,0,0
-159.30177365113,193.42277807807,14.518561856186,1303591.4193651,-2815.3352662414,2706817.2535035,19.718561856186,0,0
-159.3017734487,193.47422426843,14.52299229923,1303591.4193651,-2815.3352662414,2706817.2535035,19.72299229923,0,0
-159.30177324627,193.52567045879,14.527422742274,1303591.4193651,-2815.3352662414,2706817.2535035,19.727422742274,0,0
-159.30177304384,193.57711664914,14.531853185319,1303591.4193651,-2815.3352662414,2706817.2535035,19.731853185319,0,0
-159.30177284141,193.6285628395,14.536283628363,1303591.4193651,-2815.3352662414,2706817.2535035,19.736283628363,0,0
-159.30177263898,193.68000902986,14.540714071407,1303591.4193651,-2815.3352662414,2706817.2535035,19.740714071407,0,0
-159.30177243655,193.73145522021,14.545144514451,1303591.4193651,-2815.3352662414,2706817.2535035,19.745144514451,0,0
-159.30177223412,193.78290141057,14.549574957496,1303591.4193651,-2815.3352662414,2706817.2535035,19.749574957496,0,0
-159.30177203169,193.83434760092,14.55400540054,1303591.4193651,-2815.3352662414,2706817.2535035,19.75400540054,0,0
-159.30177182926,193.88579379128,14.558435843584,1303591.4193651,-2815.3352662414,2706817.2535035,19.758435843584,0,0
-159.30177162682,193.93723998164,14.562866286629,1303591.4193651,-2815.3352662414,2706817.2535035,19.762866286629,0,0
-159.30177142439,193.98868617199,14.567296729673,1303591.4193651,-2815.3352662414,2706817.2535035,19.767296729673,0,0
-159.30177122196,194.04013236235,14.571727172717,1303591.4193651,-2815.3352662414,2706817.2535035,19.771727172717,0,0
-159.30177101953,194.09157855271,14.576157615762,1303591.4193651,-2815.3352662414,2706817.2535035,19.776157615762,0,0
-159.3017708171,194.14302474306,14.580588058806,1303591.4193651,-2815.3352662414,2706817.2535035,19.780588058806,0,0
-159.30177061467,194.19447093342,14.58501850185,1303591.4193651,-2815.3352662414,2706817.2535035,19.78501850185,0,0
-159.30177041224,194.24591712378,14.589448944894,1303591.4193651,-2815.3352662414,2706817.2535035,19.789448944894,0,0
-159.30177020981,194.29736331413,14.593879387939,1303591.4193651,-2815.3352662414,2706817.2535035,19.793879387939,0,0
-159.30177000738,194.34880950449,14.598309830983,1303591.4193651,-2815.3352662414,2706817.2535035,19.798309830983,0,0
-159.30176980495,194.40025569485,14.602740274027,1303591.4193651,-2815.3352662414,2706817.2535035,19.802740274027,0,0
-159.30176960252,194.4517018852,14.607170717072,1303591.4193651,-2815.3352662414,2706817.2535035,19.807170717072,0,0
-159.30176940009,194.50314807556,14.611601160116,1303591.4193651,-2815.3352662414,2706817.2535035,19.811601160116,0,0
-159.30176919766,194.55459426592,14.61603160316,1303591.4193651,-2815.3352662414,2706817.2535035,19.81603160316,0,0
-159.30176899523,194.60604045627,14.620462046205,1303591.4193651,-2815.3352662414,2706817.2535035,19.820462046205,0,0
-159.3017687928,194.65748664663,14.624892489249,1303591.4193651,-2815.3352662414,2706817.2535035,19.824892489249,0,0
-159.30176859037,194.70893283698,14.629322932293,1303591.4193651,-2815.3352662414,2706817.2535035,19.829322932293,0,0
-159.30176838794,194.76037902734,14.633753375338,1303591.4193651,-2815.3352662414,2706817.2535035,19.833753375338,0,0
-159.30176818551,194.8118252177,14.638183818382,1303591.4193651,-2815.3352662414,2706817.2535035,19.838183818382,0,0
-159.30176798308,194.86327140805,14.642614261426,1303591.4193651,-2815.3352662414,2706817.2535035,19.842614261426,0,0
-159.30176778065,194.91471759841,14.64704470447,1303591.4193651,-2815.3352662414,2706817.2535035,19.84704470447,0,0
-159.30176757822,194.96616378877,14.651475147515,1303591.4193651,-2815.3352662414,2706817.2535035,19.851475147515,0,0
-159.30176737579,195.01760997912,14.655905590559,1303591.4193651,-2815.3352662414,2706817.2535035,19.855905590559,0,0
-159.30176717336,195.06905616948,14.660336033603,1303591.4193651,-2815.3352662414,2706817.2535035,19.860336033603,0,0
-159.30176697093,195.12050235984,14.664766476648,1303591.4193651,-2815.3352662414,2706817.2535035,19.864766476648,0,0
-159.3017667685,195.17194855019,14.669196919692,1303591.4193651,-2815.3352662414,2706817.2535035,19.869196919692,0,0
-159.30176656607,195.22339474055,14.673627362736,1303591.4193651,-2815.3352662414,2706817.2535035,19.873627362736,0,0
-159.30176636364,195.27484093091,14.678057805781,1303591.4193651,-2815.3352662414,2706817.2535035,19.878057805781,0,0
-159.30176616121,195.32628712126,14.682488248825,1303591.4193651,-2815.3352662414,2706817.2535035,19.882488248825,0,0
-159.30176595878,195.37773331162,14.686918691869,1303591.4193651,-2815.3352662414,2706817.2535035,19.886918691869,0,0
-159.30176575634,195.42917950411,14.691349134913,1301041.6753644,2438.3787764856,2698791.0162705,19.891349134913,0,0
-159.30176555389,195.48062569668,14.695779577958,1301041.6753644,2438.3787764856,2698791.0162705,19.895779577958,0,0
-159.30176535145,195.53207188925,14.700210021002,1301041.6753644,2438.3787764856,2698791.0162705,19.900210021002,0,0
-159.30176514901,195.58351808182,14.704640464046,1301041.6753644,2438.3787764856,2698791.0162705,19.904640464046,0,0
-159.30176494657,195.6349642744,14.709070907091,1301041.6753644,2438.3787764856,2698791.0162705,19.909070907091,0,0
-159.30176474413,195.68641046697,14.713501350135,1301041.6753644,2438.3787764856,2698791.0162705,19.913501350135,0,0
-159.30176454169,195.73785665954,14.717931793179,1301041.6753644,2438.3787764856,2698791.0162705,19.917931793179,0,0
-159.30176433925,195.78930285211,14.722362236224,1301041.6753644,2438.3787764856,2698791.0162705,19.922362236224,0,0
-159.30176413681,195.84074904468,14.726792679268,1301041.6753644,2438.3787764856,2698791.0162705,19.926792679268,0,0
-159.30176393436,195.89219523725,14.731223122312,1301041.6753644,2438.3787764856,2698791.0162705,19.931223122312,0,0
-159.30176373192,195.94364142982,14.735653565357,1301041.6753644,2438.3787764856,2698791.0162705,19.935653565357,0,0
-159.30176352948,195.99508762239,14.740084008401,1301041.6753644,2438.3787764856,2698791.0162705,19.940084008401,0,0
-159.30176332704,196.04653381496,14.744514451445,1301041.6753644,2438.3787764856,2698791.0162705,19.944514451445,0,0
-159.3017631246,196.09798000753,14.748944894489,1301041.6753644,2438.3787764856,2698791.0162705,19.948944894489,0,0
-159.30176292216,196.14942620011,14.753375337534,1301041.6753644,2438.3787764856,2698791.0162705,19.953375337534,0,0
-159.30176271972,196.20087239268,14.757805780578,1301041.6753644,2438.3787764856,2698791.0162705,19.957805780578,0,0
-159.30176251728,196.25231858525,14.762236223622,1301041.6753644,2438.3787764856,2698791.0162705,19.962236223622,0,0
-159.30176231483,196.30376477782,14.766666666667,1301041.6753644,2438.3787764856,2698791.0162705,19.966666666667,0,0
-159.30176211239,196.35521097039,14.771097109711,1301041.6753644,2438.3787764856,2698791.0162705,19.971097109711,0,0
-159.30176190995,196.40665716296,14.775527552755,1301041.6753644,2438.3787764856,2698791.0162705,19.975527552755,0,0
-159.30176170751,196.45810335553,14.7799579958,1301041.6753644,2438.3787764856,2698791.0162705,19.9799579958,0,0
-159.30176150507,196.5095495481,14.784388438844,1301041.6753644,2438.3787764856,2698791.0162705,19.984388438844,0,0
-159.30176130263,196.56099574067,14.788818881888,1301041.6753644,2438.3787764856,2698791.0162705,19.988818881888,0,0
-159.30176110019,196.61244193324,14.793249324932,1301041.6753644,2438.3787764856,2698791.0162705,19.993249324932,0,0
-159.30176089775,196.66388812581,14.797679767977,1301041.6753644,2438.3787764856,2698791.0162705,19.997679767977,0,0
-159.30176069531,196.71533431839,14.802110211021,1301041.6753644,2438.3787764856,2698791.0162705,20.002110211021,0,0
-159.30176049286,196.76678051096,14.806540654065,1301041.6753644,2438.3787764856,2698791.0162705,20.006540654065,0,0
-159.30176029042,196.81822670353,14.81097109711,1301041.6753644,2438.3787764856,2698791.0162705,20.01097109711,0,0
-159.30176008798,196.8696728961,14.815401540154,1301041.6753644,2438.3787764856,2698791.0162705,20.015401540154,0,0
-159.30175988554,196.92111908867,14.819831983198,1301041.6753644,2438.3787764856,2698791.0162705,20.019831983198,0,0
-159.3017596831,196.97256528124,14.824262426243,1301041.6753644,2438.3787764856,2698791.0162705,20.024262426243,0,0
-159.30175948066,197.02401147381,14.828692869287,1301041.6753644,2438.3787764856,2698791.0162705,20.028692869287,0,0
-159.30175927822,197.07545766638,14.833123312331,1301041.6753644,2438.3787764856,2698791.0162705,20.033123312331,0,0
-159.30175907578,197.12690385895,14.837553755376,1301041.6753644,2438.3787764856,2698791.0162705,20.037553755376,0,0
-159.30175887333,197.17835005152,14.84198419842,1301041.6753644,2438.3787764856,2698791.0162705,20.04198419842,0,0
-159.30175867089,197.2297962441,14.846414641464,1301041.6753644,2438.3787764856,2698791.0162705,20.046414641464,0,0
-159.30175846845,197.28124243667,14.850845084508,1301041.6753644,2438.3787764856,2698791.0162705,20.050845084508,0,0
-159.30175826601,197.33268862924,14.855275527553,1301041.6753644,2438.3787764856,2698791.0162705,20.055275527553,0,0
-159.30175806357,197.38413482181,14.859705970597,1301041.6753644,2438.3787764856,2698791.0162705,20.059705970597,0,0
-159.30175786113,197.43558101438,14.864136413641,1301041.6753644,2438.3787764856,2698791.0162705,20.064136413641,0,0
-159.30175765869,197.48702720695,14.868566856686,1301041.6753644,2438.3787764856,2698791.0162705,20.068566856686,0,0
-159.30175745625,197.53847339952,14.87299729973,1301041.6753644,2438.3787764856,2698791.0162705,20.07299729973,0,0
-159.3017572538,197.58991959209,14.877427742774,1301041.6753644,2438.3787764856,2698791.0162705,20.077427742774,0,0
-159.30175705136,197.64136578466,14.881858185819,1301041.6753644,2438.3787764856,2698791.0162705,20.081858185819,0,0
-159.30175684892,197.69281197723,14.886288628863,1301041.6753644,2438.3787764856,2698791.0162705,20.086288628863,0,0
-159.30175664648,197.7442581698,14.890719071907,1301041.6753644,2438.3787764856,2698791.0162705,20.090719071907,0,0
-159.30175644404,197.79570436238,14.895149514951,1301041.6753644,2438.3787764856,2698791.0162705,20.095149514951,0,0
-159.3017562416,197.84715055495,14.899579957996,1301041.6753644,2438.3787764856,2698791.0162705,20.099579957996,0,0
-159.30175603916,197.89859674752,14.90401040104,1301041.6753644,2438.3787764856,2698791.0162705,20.10401040104,0,0
-159.30175583672,197.95004294009,14.908440844084,1301041.6753644,2438.3787764856,2698791.0162705,20.108440844084,0,0
-159.30175563427,198.00148913266,14.912871287129,1301041.6753644,2438.3787764856,2698791.0162705,20.112871287129,0,0
-159.30175543183,198.05293532523,14.917301730173,1301041.6753644,2438.3787764856,2698791.0162705,20.117301730173,0,0
-159.30175522939,198.1043815178,14.921732173217,1301041.6753644,2438.3787764856,2698791.0162705,20.121732173217,0,0
-159.30175502695,198.15582771037,14.926162616262,1301041.6753644,2438.3787764856,2698791.0162705,20.126162616262,0,0
-159.30175482451,198.20727390294,14.930593059306,1301041.6753644,2438.3787764856,2698791.0162705,20.130593059306,0,0
-159.30175462207,198.25872009551,14.93502350235,1301041.6753644,2438.3787764856,2698791.0162705,20.13502350235,0,0
-159.30175441963,198.31016628809,14.939453945395,1301041.6753644,2438.3787764856,2698791.0162705,20.139453945395,0,0
-159.30175421719,198.36161248066,14.943884388439,1301041.6753644,2438.3787764856,2698791.0162705,20.143884388439,0,0
-159.30175401474,198.41305867323,14.948314831483,1301041.6753644,2438.3787764856,2698791.0162705,20.148314831483,0,0
-159.3017538123,198.4645048658,14.952745274527,1301041.6753644,2438.3787764856,2698791.0162705,20.152745274527,0,0
-159.30175360986,198.51595105837,14.957175717572,1301041.6753644,2438.3787764856,2698791.0162705,20.157175717572,0,0
-159.30175340742,198.56739725094,14.961606160616,1301041.6753644,2438.3787764856,2698791.0162705,20.161606160616,0,0
-159.30175320498,198.61884344351,14.96603660366,1301041.6753644,2438.3787764856,2698791.0162705,20.16603660366,0,0
-159.30175300254,198.67028963608,14.970467046705,1301041.6753644,2438.3787764856,2698791.0162705,20.170467046705,0,0
-159.3017528001,198.72173582865,14.974897489749,1301041.6753644,2438.3787764856,2698791.0162705,20.174897489749,0,0
-159.30175259766,198.77318202122,14.979327932793,1301041.6753644,2438.3787764856,2698791.0162705,20.179327932793,0,0
-159.30175239522,198.82462821379,14.983758375838,1301041.6753644,2438.3787764856,2698791.0162705,20.183758375838,0,0
-159.30175219277,198.87607440637,14.988188818882,1301041.6753644,2438.3787764856,2698791.0162705,20.188188818882,0,0
-159.30175199033,198.92752059894,14.992619261926,1301041.6753644,2438.3787764856,2698791.0162705,20.192619261926,0,0
-159.30175178789,198.97896679151,14.99704970497,1301041.6753644,2438.3787764856,2698791.0162705,20.19704970497,0,0
-159.30175158545,199.03041298408,15.001480148015,1301041.6753644,2438.3787764856,2698791.0162705,20.201480148015,0,0
-159.30175138301,199.08185917665,15.005910591059,1301041.6753644,2438.3787764856,2698791.0162705,20.205910591059,0,0
-159.30175118057,199.13330536922,15.010341034103,1301041.6753644,2438.3787764856,2698791.0162705,20.210341034103,0,0
-159.30175097813,199.18475156179,15.014771477148,1301041.6753644,2438.3787764856,2698791.0162705,20.214771477148,0,0
-159.30175077569,199.23619775436,15.019201920192,1301041.6753644,2438.3787764856,2698791.0162705,20.219201920192,0,0
-159.30175057324,199.28764394693,15.023632363236,1301041.6753644,2438.3787764856,2698791.0162705,20.223632363236,0,0
-159.3017503708,199.3390901395,15.028062806281,1301041.6753644,2438.3787764856,2698791.0162705,20.228062806281,0,0
-159.30175016836,199.39053633208,15.032493249325,1301041.6753644,2438.3787764856,2698791.0162705,20.232493249325,0,0
-159.30174996592,199.44198252465,15.036923692369,1301041.6753644,2438.3787764856,2698791.0162705,20.236923692369,0,0
-159.30174976348,199.49342871722,15.041354135414,1301041.6753644,2438.3787764856,2698791.0162705,20.241354135414,0,0
-159.30174956104,199.54487490979,15.045784578458,1301041.6753644,2438.3787764856,2698791.0162705,20.245784578458,0,0
-159.3017493586,199.59632110236,15.050215021502,1301041.6753644,2438.3787764856,2698791.0162705,20.250215021502,0,0
-159.30174915616,199.64776729493,15.054645464546,1301041.6753644,2438.3787764856,2698791.0162705,20.254645464546,0,0
-159.30174895371,199.6992134875,15.059075907591,1301041.6753644,2438.3787764856,2698791.0162705,20.259075907591,0,0
-159.30174875127,199.75065968007,15.063506350635,1301041.6753644,2438.3787764856,2698791.0162705,20.263506350635,0,0
-159.30174854883,199.80210587264,15.067936793679,1301041.6753644,2438.3787764856,2698791.0162705,20.267936793679,0,0
-159.30174834639,199.85355206521,15.072367236724,1301041.6753644,2438.3787764856,2698791.0162705,20.272367236724,0,0
-159.30174814395,199.90499825778,15.076797679768,1301041.6753644,2438.3787764856,2698791.0162705,20.276797679768,0,0
-159.30174794151,199.95644445036,15.081228122812,1301041.6753644,2438.3787764856,2698791.0162705,20.281228122812,0,0
-159.30174773907,200.00789064293,15.085658565857,1301041.6753644,2438.3787764856,2698791.0162705,20.285658565857,0,0
-159.30174753663,200.0593368355,15.090089008901,1301041.6753644,2438.3787764856,2698791.0162705,20.290089008901,0,0
-159.30174733418,200.11078302807,15.094519451945,1301041.6753644,2438.3787764856,2698791.0162705,20.294519451945,0,0
-159.30174713174,200.16222922064,15.098949894989,1301041.6753644,2438.3787764856,2698791.0162705,20.298949894989,0,0
-159.3017469293,200.21367541321,15.103380338034,1301041.6753644,2438.3787764856,2698791.0162704,20.303380338034,0,0
-159.30174672686,200.26512160578,15.107810781078,1301041.6753644,2438.3787764856,2698791.0162704,20.307810781078,0,0
-159.30174652442,200.31656779835,15.112241224122,1301041.6753644,2438.3787764856,2698791.0162704,20.312241224122,0,0
-159.30174632198,200.36801399092,15.116671667167,1301041.6753644,2438.3787764856,2698791.0162704,20.316671667167,0,0
-159.30174611954,200.41946018349,15.121102110211,1301041.6753644,2438.3787764856,2698791.0162704,20.321102110211,0,0
-159.3017459171,200.47090637606,15.125532553255,1301041.6753644,2438.3787764856,2698791.0162704,20.325532553255,0,0
-159.30174571465,200.52235256864,15.1299629963,1301041.6753644,2438.3787764856,2698791.0162704,20.3299629963,0,0
-159.30174551221,200.57379876121,15.134393439344,1301041.6753644,2438.3787764856,2698791.0162704,20.334393439344,0,0
-159.30174530977,200.62524495378,15.138823882388,1301041.6753644,2438.3787764856,2698791.0162704,20.338823882388,0,0
-159.30174510733,200.67669114635,15.143254325433,1301041.6753644,2438.3787764856,2698791.0162704,20.343254325433,0,0
-159.30174490489,200.72813733892,15.147684768477,1301041.6753644,2438.3787764856,2698791.0162704,20.347684768477,0,0
-159.30174470245,200.77958353149,15.152115211521,1301041.6753644,2438.3787764856,2698791.0162704,20.352115211521,0,0
-159.30174450001,200.83102972406,15.156545654565,1301041.6753644,2438.3787764856,2698791.0162704,20.356545654565,0,0
-159.30174429757,200.88247591663,15.16097609761,1301041.6753644,2438.3787764856,2698791.0162704,20.36097609761,0,0
-159.30174409513,200.9339221092,15.165406540654,1301041.6753644,2438.3787764856,2698791.0162704,20.365406540654,0,0
-159.30174389268,200.98536830177,15.169836983698,1301041.6753644,2438.3787764856,2698791.0162704,20.369836983698,0,0
-159.30174369024,201.03681449435,15.174267426743,1301041.6753644,2438.3787764856,2698791.0162704,20.374267426743,0,0
-159.3017434878,201.08826068692,15.178697869787,1301041.6753644,2438.3787764856,2698791.0162704,20.378697869787,0,0
-159.30174328536,201.13970687949,15.183128312831,1301041.6753644,2438.3787764856,2698791.0162704,20.383128312831,0,0
-159.30174308292,201.19115307206,15.187558755876,1301041.6753644,2438.3787764856,2698791.0162704,20.387558755876,0,0
-159.30174288048,201.24259926463,15.19198919892,1301041.6753644,2438.3787764856,2698791.0162704,20.39198919892,0,0
-159.30174267804,201.2940454572,15.196419641964,1301041.6753644,2438.3787764856,2698791.0162704,20.396419641964,0,0
-159.3017424756,201.34549164977,15.200850085009,1301041.6753644,2438.3787764856,2698791.0162704,20.400850085008,0,0
-159.30174227315,201.39693784234,15.205280528053,1301041.6753644,2438.3787764856,2698791.0162704,20.405280528053,0,0
-159.30174207071,201.44838403491,15.209710971097,1301041.6753644,2438.3787764856,2698791.0162704,20.409710971097,0,0
-159.30174186827,201.49983022748,15.214141414141,1301041.6753644,2438.3787764856,2698791.0162704,20.414141414141,0,0
-159.30174166583,201.55127642005,15.218571857186,1301041.6753644,2438.3787764856,2698791.0162704,20.418571857186,0,0
-159.30174146339,201.60272261263,15.22300230023,1301041.6753644,2438.3787764856,2698791.0162704,20.42300230023,0,0
-159.30174126095,201.6541688052,15.227432743274,1301041.6753644,2438.3787764856,2698791.0162704,20.427432743274,0,0
-159.30174105851,201.70561499777,15.231863186319,1301041.6753644,2438.3787764856,2698791.0162704,20.431863186319,0,0
-159.30174085607,201.75706119034,15.236293629363,1301041.6753644,2438.3787764856,2698791.0162704,20.436293629363,0,0
-159.30174065362,201.80850738291,15.240724072407,1301041.6753644,2438.3787764856,2698791.0162704,20.440724072407,0,0
-159.30174045118,201.85995357548,15.245154515452,1301041.6753644,2438.3787764856,2698791.0162704,20.445154515452,0,0
-159.30174024874,201.91139976805,15.249584958496,1301041.6753644,2438.3787764856,2698791.0162704,20.449584958496,0,0
-159.3017400463,201.96284596062,15.25401540154,1301041.6753644,2438.3787764856,2698791.0162704,20.45401540154,0,0
-159.30173984386,202.01429215319,15.258445844584,1301041.6753644,2438.3787764856,2698791.0162704,20.458445844584,0,0
-159.30173964142,202.06573834576,15.262876287629,1301041.6753644,2438.3787764856,2698791.0162704,20.462876287629,0,0
-159.30173943898,202.11718453834,15.267306730673,1301041.6753644,2438.3787764856,2698791.0162704,20.467306730673,0,0
-159.30173923654,202.16863073091,15.271737173717,1301041.6753644,2438.3787764856,2698791.0162704,20.471737173717,0,0
-159.30173903409,202.22007692348,15.276167616762,1301041.6753644,2438.3787764856,2698791.0162704,20.476167616762,0,0
-159.30173883165,202.27152311605,15.280598059806,1301041.6753644,2438.3787764856,2698791.0162704,20.480598059806,0,0
-159.30173862921,202.32296930862,15.28502850285,1301041.6753644,2438.3787764856,2698791.0162704,20.48502850285,0,0
-159.30173842677,202.37441550119,15.289458945895,1301041.6753644,2438.3787764856,2698791.0162704,20.489458945895,0,0
-159.30173822433,202.42586169376,15.293889388939,1301041.6753644,2438.3787764856,2698791.0162704,20.493889388939,0,0
-159.30173802189,202.47730788633,15.298319831983,1301041.6753644,2438.3787764856,2698791.0162704,20.498319831983,0,0
-159.30173781945,202.5287540789,15.302750275028,1301041.6753644,2438.3787764856,2698791.0162704,20.502750275028,0,0
-159.30173761701,202.58020027147,15.307180718072,1301041.6753644,2438.3787764856,2698791.0162704,20.507180718072,0,0
-159.30173741456,202.63164646404,15.311611161116,1301041.6753644,2438.3787764856,2698791.0162704,20.511611161116,0,0
-159.30173721212,202.68309265662,15.31604160416,1301041.6753644,2438.3787764856,2698791.0162704,20.51604160416,0,0
-159.30173700968,202.73453884919,15.320472047205,1301041.6753644,2438.3787764856,2698791.0162704,20.520472047205,0,0
-159.30173680724,202.78598504176,15.324902490249,1301041.6753644,2438.3787764856,2698791.0162704,20.524902490249,0,0
-159.3017366048,202.83743123433,15.329332933293,1301041.6753644,2438.3787764856,2698791.0162704,20.529332933293,0,0
-159.30173640236,202.8888774269,15.333763376338,1301041.6753644,2438.3787764856,2698791.0162704,20.533763376338,0,0
-159.30173619992,202.94032361947,15.338193819382,1301041.6753644,2438.3787764856,2698791.0162704,20.538193819382,0,0
-159.30173599748,202.99176981204,15.342624262426,1301041.6753644,2438.3787764856,2698791.0162704,20.542624262426,0,0
-159.30173579504,203.04321600461,15.347054705471,1301041.6753644,2438.3787764856,2698791.0162704,20.547054705471,0,0
-159.30173559259,203.09466219718,15.351485148515,1301041.6753644,2438.3787764856,2698791.0162704,20.551485148515,0,0
-159.3017353899,203.14610838826,15.355915591559,1300080.8109229,-2158.0050165414,2688707.5598343,20.555915591559,0,0
-159.30173518709,203.19755457864,15.360346034603,1300080.8109229,-2158.0050165414,2688707.5598343,20.560346034603,0,0
-159.30173498428,203.24900076902,15.364776477648,1300080.8109229,-2158.0050165414,2688707.5598343,20.564776477648,0,0
-159.30173478147,203.3004469594,15.369206920692,1300080.8109229,-2158.0050165414,2688707.5598343,20.569206920692,0,0
-159.30173457866,203.35189314978,15.373637363736,1300080.8109229,-2158.0050165414,2688707.5598343,20.573637363736,0,0
-159.30173437585,203.40333934015,15.378067806781,1300080.8109229,-2158.0050165414,2688707.5598343,20.578067806781,0,0
-159.30173417304,203.45478553053,15.382498249825,1300080.8109229,-2158.0050165414,2688707.5598343,20.582498249825,0,0
-159.30173397023,203.50623172091,15.386928692869,1300080.8109229,-2158.0050165414,2688707.5598343,20.586928692869,0,0
-159.30173376742,203.55767791129,15.391359135914,1300080.8109229,-2158.0050165414,2688707.5598343,20.591359135914,0,0
-159.30173356461,203.60912410166,15.395789578958,1300080.8109229,-2158.0050165414,2688707.5598343,20.595789578958,0,0
-159.3017333618,203.66057029204,15.400220022002,1300080.8109229,-2158.0050165414,2688707.5598343,20.600220022002,0,0
-159.30173315899,203.71201648242,15.404650465047,1300080.8109229,-2158.0050165414,2688707.5598343,20.604650465047,0,0
-159.30173295618,203.7634626728,15.409080908091,1300080.8109229,-2158.0050165414,2688707.5598343,20.609080908091,0,0
-159.30173275337,203.81490886318,15.413511351135,1300080.8109229,-2158.0050165414,2688707.5598343,20.613511351135,0,0
-159.30173255056,203.86635505355,15.417941794179,1300080.8109229,-2158.0050165414,2688707.5598343,20.617941794179,0,0
-159.30173234775,203.91780124393,15.422372237224,1300080.8109229,-2158.0050165414,2688707.5598343,20.622372237224,0,0
-159.30173214494,203.96924743431,15.426802680268,1300080.8109229,-2158.0050165414,2688707.5598343,20.626802680268,0,0
-159.30173194213,204.02069362469,15.431233123312,1300080.8109229,-2158.0050165414,2688707.5598343,20.631233123312,0,0
-159.30173173932,204.07213981506,15.435663566357,1300080.8109229,-2158.0050165414,2688707.5598343,20.635663566357,0,0
-159.3017315365,204.12358600544,15.440094009401,1300080.8109229,-2158.0050165414,2688707.5598343,20.640094009401,0,0
-159.30173133369,204.17503219582,15.444524452445,1300080.8109229,-2158.0050165414,2688707.5598343,20.644524452445,0,0
-159.30173113088,204.2264783862,15.44895489549,1300080.8109229,-2158.0050165414,2688707.5598343,20.64895489549,0,0
-159.30173092807,204.27792457658,15.453385338534,1300080.8109229,-2158.0050165414,2688707.5598343,20.653385338534,0,0
-159.30173072526,204.32937076695,15.457815781578,1300080.8109229,-2158.0050165414,2688707.5598343,20.657815781578,0,0
-159.30173052245,204.38081695733,15.462246224622,1300080.8109229,-2158.0050165414,2688707.5598343,20.662246224622,0,0
-159.30173031964,204.43226314771,15.466676667667,1300080.8109229,-2158.0050165414,2688707.5598343,20.666676667667,0,0
-159.30173011683,204.48370933809,15.471107110711,1300080.8109229,-2158.0050165414,2688707.5598343,20.671107110711,0,0
-159.30172991402,204.53515552846,15.475537553755,1300080.8109229,-2158.0050165414,2688707.5598343,20.675537553755,0,0
-159.30172971121,204.58660171884,15.4799679968,1300080.8109229,-2158.0050165414,2688707.5598343,20.6799679968,0,0
-159.3017295084,204.63804790922,15.484398439844,1300080.8109229,-2158.0050165414,2688707.5598343,20.684398439844,0,0
-159.30172930559,204.6894940996,15.488828882888,1300080.8109229,-2158.0050165414,2688707.5598343,20.688828882888,0,0
-159.30172910278,204.74094028998,15.493259325933,1300080.8109229,-2158.0050165414,2688707.5598343,20.693259325933,0,0
-159.30172889997,204.79238648035,15.497689768977,1300080.8109229,-2158.0050165414,2688707.5598343,20.697689768977,0,0
-159.30172869716,204.84383267073,15.502120212021,1300080.8109229,-2158.0050165414,2688707.5598343,20.702120212021,0,0
-159.30172849435,204.89527886111,15.506550655066,1300080.8109229,-2158.0050165414,2688707.5598343,20.706550655066,0,0
-159.30172829154,204.94672505149,15.51098109811,1300080.8109229,-2158.0050165414,2688707.5598343,20.71098109811,0,0
-159.30172808873,204.99817124187,15.515411541154,1300080.8109229,-2158.0050165414,2688707.5598343,20.715411541154,0,0
-159.30172788592,205.04961743224,15.519841984198,1300080.8109229,-2158.0050165414,2688707.5598343,20.719841984198,0,0
-159.30172768311,205.10106362262,15.524272427243,1300080.8109229,-2158.0050165414,2688707.5598343,20.724272427243,0,0
-159.3017274803,205.152509813,15.528702870287,1300080.8109229,-2158.0050165414,2688707.5598343,20.728702870287,0,0
-159.30172727749,205.20395600338,15.533133313331,1300080.8109229,-2158.0050165414,2688707.5598343,20.733133313331,0,0
-159.30172707468,205.25540219375,15.537563756376,1300080.8109229,-2158.0050165414,2688707.5598343,20.737563756376,0,0
-159.30172687187,205.30684838413,15.54199419942,1300080.8109229,-2158.0050165414,2688707.5598343,20.74199419942,0,0
-159.30172666906,205.35829457451,15.546424642464,1300080.8109229,-2158.0050165414,2688707.5598343,20.746424642464,0,0
-159.30172646625,205.40974076489,15.550855085509,1300080.8109229,-2158.0050165414,2688707.5598343,20.750855085509,0,0
-159.30172626344,205.46118695527,15.555285528553,1300080.8109229,-2158.0050165414,2688707.5598343,20.755285528553,0,0
-159.30172606062,205.51263314564,15.559715971597,1300080.8109229,-2158.0050165414,2688707.5598343,20.759715971597,0,0
-159.30172585781,205.56407933602,15.564146414641,1300080.8109229,-2158.0050165414,2688707.5598343,20.764146414641,0,0
-159.301725655,205.6155255264,15.568576857686,1300080.8109229,-2158.0050165414,2688707.5598343,20.768576857686,0,0
-159.30172545219,205.66697171678,15.57300730073,1300080.8109229,-2158.0050165414,2688707.5598343,20.77300730073,0,0
-159.30172524938,205.71841790715,15.577437743774,1300080.8109229,-2158.0050165414,2688707.5598343,20.777437743774,0,0
-159.30172504657,205.76986409753,15.581868186819,1300080.8109229,-2158.0050165414,2688707.5598343,20.781868186819,0,0
-159.30172484376,205.82131028791,15.586298629863,1300080.8109229,-2158.0050165414,2688707.5598343,20.786298629863,0,0
-159.30172464095,205.87275647829,15.590729072907,1300080.8109229,-2158.0050165414,2688707.5598343,20.790729072907,0,0
-159.30172443814,205.92420266867,15.595159515952,1300080.8109229,-2158.0050165414,2688707.5598343,20.795159515952,0,0
-159.30172423533,205.97564885904,15.599589958996,1300080.8109229,-2158.0050165414,2688707.5598343,20.799589958996,0,0
-159.30172403252,206.02709504942,15.60402040204,1300080.8109229,-2158.0050165414,2688707.5598343,20.80402040204,0,0
-159.30172382971,206.0785412398,15.608450845085,1300080.8109229,-2158.0050165414,2688707.5598343,20.808450845085,0,0
-159.3017236269,206.12998743018,15.612881288129,1300080.8109229,-2158.0050165414,2688707.5598343,20.812881288129,0,0
-159.30172342409,206.18143362055,15.617311731173,1300080.8109229,-2158.0050165414,2688707.5598343,20.817311731173,0,0
-159.30172322128,206.23287981093,15.621742174217,1300080.8109229,-2158.0050165414,2688707.5598343,20.821742174217,0,0
-159.30172301847,206.28432600131,15.626172617262,1300080.8109229,-2158.0050165414,2688707.5598343,20.826172617262,0,0
-159.30172281566,206.33577219169,15.630603060306,1300080.8109229,-2158.0050165414,2688707.5598343,20.830603060306,0,0
-159.30172261285,206.38721838207,15.63503350335,1300080.8109229,-2158.0050165414,2688707.5598343,20.83503350335,0,0
-159.30172241004,206.43866457244,15.639463946395,1300080.8109229,-2158.0050165414,2688707.5598343,20.839463946395,0,0
-159.30172220723,206.49011076282,15.643894389439,1300080.8109229,-2158.0050165414,2688707.5598343,20.843894389439,0,0
-159.30172200442,206.5415569532,15.648324832483,1300080.8109229,-2158.0050165414,2688707.5598343,20.848324832483,0,0
-159.30172180161,206.59300314358,15.652755275528,1300080.8109229,-2158.0050165414,2688707.5598343,20.852755275528,0,0
-159.3017215988,206.64444933395,15.657185718572,1300080.8109229,-2158.0050165414,2688707.5598343,20.857185718572,0,0
-159.30172139599,206.69589552433,15.661616161616,1300080.8109229,-2158.0050165414,2688707.5598343,20.861616161616,0,0
-159.30172119318,206.74734171471,15.66604660466,1300080.8109229,-2158.0050165414,2688707.5598343,20.86604660466,0,0
-159.30172099037,206.79878790509,15.670477047705,1300080.8109229,-2158.0050165414,2688707.5598343,20.870477047705,0,0
-159.30172078756,206.85023409547,15.674907490749,1300080.8109229,-2158.0050165414,2688707.5598343,20.874907490749,0,0
-159.30172058474,206.90168028584,15.679337933793,1300080.8109229,-2158.0050165414,2688707.5598343,20.879337933793,0,0
-159.30172038193,206.95312647622,15.683768376838,1300080.8109229,-2158.0050165414,2688707.5598343,20.883768376838,0,0
-159.30172017912,207.0045726666,15.688198819882,1300080.8109229,-2158.0050165414,2688707.5598343,20.888198819882,0,0
-159.30171997631,207.05601885698,15.692629262926,1300080.8109229,-2158.0050165414,2688707.5598343,20.892629262926,0,0
-159.3017197735,207.10746504735,15.697059705971,1300080.8109229,-2158.0050165414,2688707.5598343,20.897059705971,0,0
-159.30171957069,207.15891123773,15.701490149015,1300080.8109229,-2158.0050165414,2688707.5598343,20.901490149015,0,0
-159.30171936788,207.21035742811,15.705920592059,1300080.8109229,-2158.0050165414,2688707.5598343,20.905920592059,0,0
-159.30171916507,207.26180361849,15.710351035104,1300080.8109229,-2158.0050165414,2688707.5598343,20.910351035104,0,0
-159.30171896226,207.31324980887,15.714781478148,1300080.8109229,-2158.0050165414,2688707.5598343,20.914781478148,0,0
-159.30171875945,207.36469599924,15.719211921192,1300080.8109229,-2158.0050165414,2688707.5598343,20.919211921192,0,0
-159.30171855664,207.41614218962,15.723642364236,1300080.8109229,-2158.0050165414,2688707.5598343,20.923642364236,0,0
-159.30171835383,207.46758838,15.728072807281,1300080.8109229,-2158.0050165414,2688707.5598343,20.928072807281,0,0
-159.30171815102,207.51903457038,15.732503250325,1300080.8109229,-2158.0050165414,2688707.5598343,20.932503250325,0,0
-159.30171794821,207.57048076076,15.736933693369,1300080.8109229,-2158.0050165414,2688707.5598343,20.936933693369,0,0
-159.3017177454,207.62192695113,15.741364136414,1300080.8109229,-2158.0050165414,2688707.5598343,20.941364136414,0,0
-159.30171754259,207.67337314151,15.745794579458,1300080.8109229,-2158.0050165414,2688707.5598343,20.945794579458,0,0
-159.30171733978,207.72481933189,15.750225022502,1300080.8109229,-2158.0050165414,2688707.5598343,20.950225022502,0,0
-159.30171713697,207.77626552227,15.754655465547,1300080.8109229,-2158.0050165414,2688707.5598343,20.954655465547,0,0
-159.30171693416,207.82771171264,15.759085908591,1300080.8109229,-2158.0050165414,2688707.5598343,20.959085908591,0,0
-159.30171673135,207.87915790302,15.763516351635,1300080.8109229,-2158.0050165414,2688707.5598343,20.963516351635,0,0
-159.30171652854,207.9306040934,15.767946794679,1300080.8109229,-2158.0050165414,2688707.5598343,20.967946794679,0,0
-159.30171632573,207.98205028378,15.772377237724,1300080.8109229,-2158.0050165414,2688707.5598343,20.972377237724,0,0
-159.30171612292,208.03349647416,15.776807680768,1300080.8109229,-2158.0050165414,2688707.5598343,20.976807680768,0,0
-159.30171592011,208.08494266453,15.781238123812,1300080.8109229,-2158.0050165414,2688707.5598343,20.981238123812,0,0
-159.3017157173,208.13638885491,15.785668566857,1300080.8109229,-2158.0050165414,2688707.5598343,20.985668566857,0,0
-159.30171551449,208.18783504529,15.790099009901,1300080.8109229,-2158.0050165414,2688707.5598343,20.990099009901,0,0
-159.30171531168,208.23928123567,15.794529452945,1300080.8109229,-2158.0050165414,2688707.5598343,20.994529452945,0,0
-159.30171510886,208.29072742604,15.79895989599,1300080.8109229,-2158.0050165414,2688707.5598343,20.99895989599,0,0
-159.30171490605,208.34217361642,15.803390339034,1300080.8109229,-2158.0050165414,2688707.5598343,21.003390339034,0,0
-159.30171470324,208.3936198068,15.807820782078,1300080.8109229,-2158.0050165414,2688707.5598343,21.007820782078,0,0
-159.30171450043,208.44506599718,15.812251225123,1300080.8109229,-2158.0050165414,2688707.5598343,21.012251225123,0,0
-159.30171429762,208.49651218756,15.816681668167,1300080.8109229,-2158.0050165414,2688707.5598343,21.016681668167,0,0
-159.30171409481,208.54795837793,15.821112111211,1300080.8109229,-2158.0050165414,2688707.5598343,21.021112111211,0,0
-159.301713892,208.59940456831,15.825542554255,1300080.8109229,-2158.0050165414,2688707.5598343,21.025542554255,0,0
-159.30171368919,208.65085075869,15.8299729973,1300080.8109229,-2158.0050165414,2688707.5598343,21.0299729973,0,0
-159.30171348638,208.70229694907,15.834403440344,1300080.8109229,-2158.0050165414,2688707.5598343,21.034403440344,0,0
-159.30171328357,208.75374313944,15.838833883388,1300080.8109229,-2158.0050165414,2688707.5598343,21.038833883388,0,0
-159.30171308076,208.80518932982,15.843264326433,1300080.8109229,-2158.0050165414,2688707.5598343,21.043264326433,0,0
-159.30171287795,208.8566355202,15.847694769477,1300080.8109229,-2158.0050165414,2688707.5598343,21.047694769477,0,0
-159.30171267514,208.90808171058,15.852125212521,1300080.8109229,-2158.0050165414,2688707.5598343,21.052125212521,0,0
-159.30171247233,208.95952790096,15.856555655566,1300080.8109229,-2158.0050165414,2688707.5598343,21.056555655566,0,0
-159.30171226952,209.01097409133,15.86098609861,1300080.8109229,-2158.0050165414,2688707.5598343,21.06098609861,0,0
-159.30171206671,209.06242028171,15.865416541654,1300080.8109229,-2158.0050165414,2688707.5598343,21.065416541654,0,0
-159.3017118639,209.11386647209,15.869846984698,1300080.8109229,-2158.0050165414,2688707.5598343,21.069846984698,0,0
-159.30171166109,209.16531266247,15.874277427743,1300080.8109229,-2158.0050165414,2688707.5598343,21.074277427743,0,0
-159.30171145828,209.21675885284,15.878707870787,1300080.8109229,-2158.0050165414,2688707.5598343,21.078707870787,0,0
-159.30171125547,209.26820504322,15.883138313831,1300080.8109229,-2158.0050165414,2688707.5598343,21.083138313831,0,0
-159.30171105266,209.3196512336,15.887568756876,1300080.8109229,-2158.0050165414,2688707.5598343,21.087568756876,0,0
-159.30171084985,209.37109742398,15.89199919992,1300080.8109229,-2158.0050165414,2688707.5598343,21.09199919992,0,0
-159.30171064704,209.42254361436,15.896429642964,1300080.8109229,-2158.0050165414,2688707.5598343,21.096429642964,0,0
-159.30171044423,209.47398980473,15.900860086009,1300080.8109229,-2158.0050165414,2688707.5598343,21.100860086009,0,0
-159.30171024142,209.52543599511,15.905290529053,1300080.8109229,-2158.0050165414,2688707.5598343,21.105290529053,0,0
-159.30171003861,209.57688218549,15.909720972097,1300080.8109229,-2158.0050165414,2688707.5598343,21.109720972097,0,0
-159.3017098358,209.62832837587,15.914151415142,1300080.8109229,-2158.0050165414,2688707.5598343,21.114151415142,0,0
-159.30170963298,209.67977456625,15.918581858186,1300080.8109229,-2158.0050165414,2688707.5598343,21.118581858186,0,0
-159.30170943017,209.73122075662,15.92301230123,1300080.8109229,-2158.0050165414,2688707.5598343,21.12301230123,0,0
-159.30170922736,209.782666947,15.927442744274,1300080.8109229,-2158.0050165414,2688707.5598343,21.127442744274,0,0
-159.30170902455,209.83411313738,15.931873187319,1300080.8109229,-2158.0050165414,2688707.5598343,21.131873187319,0,0
-159.30170882176,209.8855593291,15.936303630363,1297623.336025,2090.2880231462,2681713.808049,21.136303630363,0,0
-159.30170861898,209.93700552125,15.940734073407,1297623.336025,2090.2880231462,2681713.808049,21.140734073407,0,0
-159.3017084162,209.9884517134,15.945164516452,1297623.336025,2090.2880231462,2681713.808049,21.145164516452,0,0
-159.30170821342,210.03989790555,15.949594959496,1297623.336025,2090.2880231462,2681713.808049,21.149594959496,0,0
-159.30170801063,210.0913440977,15.95402540254,1297623.336025,2090.2880231462,2681713.808049,21.15402540254,0,0
-159.30170780785,210.14279028985,15.958455845585,1297623.336025,2090.2880231462,2681713.808049,21.158455845585,0,0
-159.30170760507,210.19423648199,15.962886288629,1297623.336025,2090.2880231462,2681713.808049,21.162886288629,0,0
-159.30170740229,210.24568267414,15.967316731673,1297623.336025,2090.2880231462,2681713.808049,21.167316731673,0,0
-159.3017071995,210.29712886629,15.971747174717,1297623.336025,2090.2880231462,2681713.808049,21.171747174717,0,0
-159.30170699672,210.34857505844,15.976177617762,1297623.336025,2090.2880231462,2681713.808049,21.176177617762,0,0
-159.30170679394,210.40002125059,15.980608060806,1297623.336025,2090.2880231462,2681713.808049,21.180608060806,0,0
-159.30170659116,210.45146744274,15.98503850385,1297623.336025,2090.2880231462,2681713.808049,21.18503850385,0,0
-159.30170638837,210.50291363489,15.989468946895,1297623.336025,2090.2880231462,2681713.808049,21.189468946895,0,0
-159.30170618559,210.55435982703,15.993899389939,1297623.336025,2090.2880231462,2681713.808049,21.193899389939,0,0
-159.30170598281,210.60580601918,15.998329832983,1297623.336025,2090.2880231462,2681713.808049,21.198329832983,0,0
-159.30170578003,210.65725221133,16.002760276028,1297623.336025,2090.2880231462,2681713.808049,21.202760276028,0,0
-159.30170557724,210.70869840348,16.007190719072,1297623.336025,2090.2880231462,2681713.808049,21.207190719072,0,0
-159.30170537446,210.76014459563,16.011621162116,1297623.336025,2090.2880231462,2681713.808049,21.211621162116,0,0
-159.30170517168,210.81159078778,16.016051605161,1297623.336025,2090.2880231462,2681713.808049,21.216051605161,0,0
-159.3017049689,210.86303697992,16.020482048205,1297623.336025,2090.2880231462,2681713.808049,21.220482048205,0,0
-159.30170476611,210.91448317207,16.024912491249,1297623.336025,2090.2880231462,2681713.808049,21.224912491249,0,0
-159.30170456333,210.96592936422,16.029342934293,1297623.336025,2090.2880231462,2681713.808049,21.229342934293,0,0
-159.30170436055,211.01737555637,16.033773377338,1297623.336025,2090.2880231462,2681713.808049,21.233773377338,0,0
-159.30170415777,211.06882174852,16.038203820382,1297623.336025,2090.2880231462,2681713.808049,21.238203820382,0,0
-159.30170395498,211.12026794067,16.042634263426,1297623.336025,2090.2880231462,2681713.808049,21.242634263426,0,0
-159.3017037522,211.17171413282,16.047064706471,1297623.336025,2090.2880231462,2681713.808049,21.247064706471,0,0
-159.30170354942,211.22316032496,16.051495149515,1297623.336025,2090.2880231462,2681713.808049,21.251495149515,0,0
-159.30170334664,211.27460651711,16.055925592559,1297623.336025,2090.2880231462,2681713.808049,21.255925592559,0,0
-159.30170314385,211.32605270926,16.060356035604,1297623.336025,2090.2880231462,2681713.808049,21.260356035604,0,0
-159.30170294107,211.37749890141,16.064786478648,1297623.336025,2090.2880231462,2681713.808049,21.264786478648,0,0
-159.30170273829,211.42894509356,16.069216921692,1297623.336025,2090.2880231462,2681713.808049,21.269216921692,0,0
-159.30170253551,211.48039128571,16.073647364736,1297623.336025,2090.2880231462,2681713.808049,21.273647364736,0,0
-159.30170233272,211.53183747786,16.078077807781,1297623.336025,2090.2880231462,2681713.808049,21.278077807781,0,0
-159.30170212994,211.58328367,16.082508250825,1297623.336025,2090.2880231462,2681713.808049,21.282508250825,0,0
-159.30170192716,211.63472986215,16.086938693869,1297623.336025,2090.2880231462,2681713.808049,21.286938693869,0,0
-159.30170172438,211.6861760543,16.091369136914,1297623.336025,2090.2880231462,2681713.808049,21.291369136914,0,0
-159.30170152159,211.73762224645,16.095799579958,1297623.336025,2090.2880231462,2681713.808049,21.295799579958,0,0
-159.30170131881,211.7890684386,16.100230023002,1297623.336025,2090.2880231462,2681713.808049,21.300230023002,0,0
-159.30170111603,211.84051463075,16.104660466047,1297623.336025,2090.2880231462,2681713.808049,21.304660466047,0,0
-159.30170091325,211.89196082289,16.109090909091,1297623.336025,2090.2880231462,2681713.808049,21.309090909091,0,0
-159.30170071046,211.94340701504,16.113521352135,1297623.336025,2090.2880231462,2681713.808049,21.313521352135,0,0
-159.30170050768,211.99485320719,16.11795179518,1297623.336025,2090.2880231462,2681713.808049,21.31795179518,0,0
-159.3017003049,212.04629939934,16.122382238224,1297623.336025,2090.2880231462,2681713.808049,21.322382238224,0,0
-159.30170010212,212.09774559149,16.126812681268,1297623.336025,2090.2880231462,2681713.808049,21.326812681268,0,0
-159.30169989933,212.14919178364,16.131243124312,1297623.336025,2090.2880231462,2681713.808049,21.331243124312,0,0
-159.30169969655,212.20063797579,16.135673567357,1297623.336025,2090.2880231462,2681713.808049,21.335673567357,0,0
-159.30169949377,212.25208416793,16.140104010401,1297623.336025,2090.2880231462,2681713.808049,21.340104010401,0,0
-159.30169929099,212.30353036008,16.144534453445,1297623.336025,2090.2880231462,2681713.808049,21.344534453445,0,0
-159.3016990882,212.35497655223,16.14896489649,1297623.336025,2090.2880231462,2681713.808049,21.34896489649,0,0
-159.30169888542,212.40642274438,16.153395339534,1297623.336025,2090.2880231462,2681713.808049,21.353395339534,0,0
-159.30169868264,212.45786893653,16.157825782578,1297623.336025,2090.2880231462,2681713.808049,21.357825782578,0,0
-159.30169847986,212.50931512868,16.162256225623,1297623.336025,2090.2880231462,2681713.808049,21.362256225623,0,0
-159.30169827707,212.56076132083,16.166686668667,1297623.336025,2090.2880231462,2681713.808049,21.366686668667,0,0
-159.30169807429,212.61220751297,16.171117111711,1297623.336025,2090.2880231462,2681713.808049,21.371117111711,0,0
-159.30169787151,212.66365370512,16.175547554755,1297623.336025,2090.2880231462,2681713.808049,21.375547554755,0,0
-159.30169766873,212.71509989727,16.1799779978,1297623.336025,2090.2880231462,2681713.808049,21.3799779978,0,0
-159.30169746594,212.76654608942,16.184408440844,1297623.336025,2090.2880231462,2681713.808049,21.384408440844,0,0
-159.30169726316,212.81799228157,16.188838883888,1297623.336025,2090.2880231462,2681713.808049,21.388838883888,0,0
-159.30169706038,212.86943847372,16.193269326933,1297623.336025,2090.2880231462,2681713.808049,21.393269326933,0,0
-159.3016968576,212.92088466586,16.197699769977,1297623.336025,2090.2880231462,2681713.808049,21.397699769977,0,0
-159.30169665481,212.97233085801,16.202130213021,1297623.336025,2090.2880231462,2681713.808049,21.402130213021,0,0
-159.30169645203,213.02377705016,16.206560656066,1297623.336025,2090.2880231462,2681713.808049,21.406560656066,0,0
-159.30169624925,213.07522324231,16.21099109911,1297623.336025,2090.2880231462,2681713.808049,21.41099109911,0,0
-159.30169604647,213.12666943446,16.215421542154,1297623.336025,2090.2880231462,2681713.808049,21.415421542154,0,0
-159.30169584368,213.17811562661,16.219851985199,1297623.336025,2090.2880231462,2681713.808049,21.419851985199,0,0
-159.3016956409,213.22956181876,16.224282428243,1297623.336025,2090.2880231462,2681713.808049,21.424282428243,0,0
-159.30169543812,213.2810080109,16.228712871287,1297623.336025,2090.2880231462,2681713.808049,21.428712871287,0,0
-159.30169523534,213.33245420305,16.233143314331,1297623.336025,2090.2880231462,2681713.808049,21.433143314331,0,0
-159.30169503255,213.3839003952,16.237573757376,1297623.336025,2090.2880231462,2681713.808049,21.437573757376,0,0
-159.30169482977,213.43534658735,16.24200420042,1297623.336025,2090.2880231462,2681713.808049,21.44200420042,0,0
-159.30169462699,213.4867927795,16.246434643464,1297623.336025,2090.2880231462,2681713.808049,21.446434643464,0,0
-159.30169442421,213.53823897165,16.250865086509,1297623.336025,2090.2880231462,2681713.808049,21.450865086509,0,0
-159.30169422142,213.5896851638,16.255295529553,1297623.336025,2090.2880231462,2681713.808049,21.455295529553,0,0
-159.30169401864,213.64113135594,16.259725972597,1297623.336025,2090.2880231462,2681713.808049,21.459725972597,0,0
-159.30169381586,213.69257754809,16.264156415642,1297623.336025,2090.2880231462,2681713.808049,21.464156415642,0,0
-159.30169361308,213.74402374024,16.268586858686,1297623.336025,2090.2880231462,2681713.808049,21.468586858686,0,0
-159.30169341029,213.79546993239,16.27301730173,1297623.336025,2090.2880231462,2681713.808049,21.47301730173,0,0
-159.30169320751,213.84691612454,16.277447744774,1297623.336025,2090.2880231462,2681713.808049,21.477447744774,0,0
-159.30169300473,213.89836231669,16.281878187819,1297623.336025,2090.2880231462,2681713.808049,21.481878187819,0,0
-159.30169280195,213.94980850883,16.286308630863,1297623.336025,2090.2880231462,2681713.808049,21.486308630863,0,0
-159.30169259916,214.00125470098,16.290739073907,1297623.336025,2090.2880231462,2681713.808049,21.490739073907,0,0
-159.30169239638,214.05270089313,16.295169516952,1297623.336025,2090.2880231462,2681713.808049,21.495169516952,0,0
-159.3016921936,214.10414708528,16.299599959996,1297623.336025,2090.2880231462,2681713.808049,21.499599959996,0,0
-159.30169199082,214.15559327743,16.30403040304,1297623.336025,2090.2880231462,2681713.808049,21.50403040304,0,0
-159.30169178803,214.20703946958,16.308460846085,1297623.336025,2090.2880231462,2681713.808049,21.508460846085,0,0
-159.30169158525,214.25848566173,16.312891289129,1297623.336025,2090.2880231462,2681713.808049,21.512891289129,0,0
-159.30169138247,214.30993185387,16.317321732173,1297623.336025,2090.2880231462,2681713.808049,21.517321732173,0,0
-159.30169117968,214.36137804602,16.321752175218,1297623.336025,2090.2880231462,2681713.808049,21.521752175218,0,0
-159.3016909769,214.41282423817,16.326182618262,1297623.336025,2090.2880231462,2681713.808049,21.526182618262,0,0
-159.30169077412,214.46427043032,16.330613061306,1297623.336025,2090.2880231462,2681713.808049,21.530613061306,0,0
-159.30169057134,214.51571662247,16.33504350435,1297623.336025,2090.2880231462,2681713.808049,21.53504350435,0,0
-159.30169036855,214.56716281462,16.339473947395,1297623.336025,2090.2880231462,2681713.808049,21.539473947395,0,0
-159.30169016577,214.61860900677,16.343904390439,1297623.336025,2090.2880231462,2681713.808049,21.543904390439,0,0
-159.30168996299,214.67005519891,16.348334833483,1297623.336025,2090.2880231462,2681713.808049,21.548334833483,0,0
-159.30168976021,214.72150139106,16.352765276528,1297623.336025,2090.2880231462,2681713.808049,21.552765276528,0,0
-159.30168955742,214.77294758321,16.357195719572,1297623.336025,2090.2880231462,2681713.808049,21.557195719572,0,0
-159.30168935464,214.82439377536,16.361626162616,1297623.336025,2090.2880231462,2681713.808049,21.561626162616,0,0
-159.30168915186,214.87583996751,16.366056605661,1297623.336025,2090.2880231462,2681713.808049,21.566056605661,0,0
-159.30168894908,214.92728615966,16.370487048705,1297623.336025,2090.2880231462,2681713.808049,21.570487048705,0,0
-159.30168874629,214.97873235181,16.374917491749,1297623.336025,2090.2880231462,2681713.808049,21.574917491749,0,0
-159.30168854351,215.03017854395,16.379347934793,1297623.336025,2090.2880231462,2681713.808049,21.579347934793,0,0
-159.30168834073,215.0816247361,16.383778377838,1297623.336025,2090.2880231462,2681713.808049,21.583778377838,0,0
-159.30168813795,215.13307092825,16.388208820882,1297623.336025,2090.2880231462,2681713.808049,21.588208820882,0,0
-159.30168793516,215.1845171204,16.392639263926,1297623.336025,2090.2880231462,2681713.808049,21.592639263926,0,0
-159.30168773238,215.23596331255,16.397069706971,1297623.336025,2090.2880231462,2681713.808049,21.597069706971,0,0
-159.3016875296,215.2874095047,16.401500150015,1297623.336025,2090.2880231462,2681713.808049,21.601500150015,0,0
-159.30168732682,215.33885569684,16.405930593059,1297623.336025,2090.2880231462,2681713.808049,21.605930593059,0,0
-159.30168712403,215.39030188899,16.410361036104,1297623.336025,2090.2880231462,2681713.808049,21.610361036104,0,0
-159.30168692125,215.44174808114,16.414791479148,1297623.336025,2090.2880231462,2681713.808049,21.614791479148,0,0
-159.30168671847,215.49319427329,16.419221922192,1297623.336025,2090.2880231462,2681713.808049,21.619221922192,0,0
-159.30168651569,215.54464046544,16.423652365237,1297623.336025,2090.2880231462,2681713.808049,21.623652365237,0,0
-159.3016863129,215.59608665759,16.428082808281,1297623.336025,2090.2880231462,2681713.808049,21.628082808281,0,0
-159.30168611012,215.64753284974,16.432513251325,1297623.336025,2090.2880231462,2681713.808049,21.632513251325,0,0
-159.30168590734,215.69897904188,16.436943694369,1297623.336025,2090.2880231462,2681713.808049,21.636943694369,0,0
-159.30168570456,215.75042523403,16.441374137414,1297623.336025,2090.2880231462,2681713.808049,21.641374137414,0,0
-159.30168550177,215.80187142618,16.445804580458,1297623.336025,2090.2880231462,2681713.808049,21.645804580458,0,0
-159.30168529899,215.85331761833,16.450235023502,1297623.336025,2090.2880231462,2681713.808049,21.650235023502,0,0
-159.30168509621,215.90476381048,16.454665466547,1297623.336025,2090.2880231462,2681713.808049,21.654665466547,0,0
-159.30168489343,215.95621000263,16.459095909591,1297623.336025,2090.2880231462,2681713.808049,21.659095909591,0,0
-159.30168469064,216.00765619478,16.463526352635,1297623.336025,2090.2880231462,2681713.808049,21.663526352635,0,0
-159.30168448786,216.05910238692,16.46795679568,1297623.336025,2090.2880231462,2681713.808049,21.66795679568,0,0
-159.30168428508,216.11054857907,16.472387238724,1297623.336025,2090.2880231462,2681713.808049,21.672387238724,0,0
-159.3016840823,216.16199477122,16.476817681768,1297623.336025,2090.2880231462,2681713.808049,21.676817681768,0,0
-159.30168387951,216.21344096337,16.481248124812,1297623.336025,2090.2880231462,2681713.808049,21.681248124812,0,0
-159.30168367673,216.26488715552,16.485678567857,1297623.336025,2090.2880231462,2681713.808049,21.685678567857,0,0
-159.30168347395,216.31633334767,16.490109010901,1297623.336025,2090.2880231462,2681713.808049,21.690109010901,0,0
-159.30168327117,216.36777953981,16.494539453945,1297623.336025,2090.2880231462,2681713.808049,21.694539453945,0,0
-159.30168306838,216.41922573196,16.49896989699,1297623.336025,2090.2880231462,2681713.808049,21.69896989699,0,0
-159.3016828656,216.47067192411,16.503400340034,1297623.336025,2090.2880231462,2681713.808049,21.703400340034,0,0
-159.30168266282,216.52211811626,16.507830783078,1297623.336025,2090.2880231462,2681713.808049,21.707830783078,0,0
-159.30168246004,216.57356430841,16.512261226123,1297623.336025,2090.2880231462,2681713.808049,21.712261226123,0,0
-159.30168225725,216.62501050056,16.516691669167,1297623.336025,2090.2880231462,2681713.808049,21.716691669167,0,0
-159.30168205447,216.67645669271,16.521122112211,1297623.336025,2090.2880231462,2681713.808049,21.721122112211,0,0
-159.30168185169,216.72790288485,16.525552555256,1297623.336025,2090.2880231462,2681713.808049,21.725552555256,0,0
-159.30168164891,216.779349077,16.5299829983,1297623.336025,2090.2880231462,2681713.808049,21.7299829983,0,0
-159.30168144612,216.83079526915,16.534413441344,1297623.336025,2090.2880231462,2681713.808049,21.734413441344,0,0
-159.30168124334,216.8822414613,16.538843884388,1297623.336025,2090.2880231462,2681713.808049,21.738843884388,0,0
-159.30168104056,216.93368765345,16.543274327433,1297623.336025,2090.2880231462,2681713.808049,21.743274327433,0,0
-159.30168083778,216.9851338456,16.547704770477,1297623.336025,2090.2880231462,2681713.808049,21.747704770477,0,0
-159.30168063499,217.03658003775,16.552135213521,1297623.336025,2090.2880231462,2681713.808049,21.752135213521,0,0
-159.30168043221,217.08802622989,16.556565656566,1297623.336025,2090.2880231462,2681713.808049,21.756565656566,0,0
-159.30168022943,217.13947242204,16.56099609961,1297623.336025,2090.2880231462,2681713.808049,21.76099609961,0,0
-159.30168002665,217.19091861419,16.565426542654,1297623.336025,2090.2880231462,2681713.808049,21.765426542654,0,0
-159.30167982386,217.24236480634,16.569856985699,1297623.336025,2090.2880231462,2681713.808049,21.769856985699,0,0
-159.30167962108,217.29381099849,16.574287428743,1297623.336025,2090.2880231462,2681713.808049,21.774287428743,0,0
-159.3016794183,217.34525719064,16.578717871787,1297623.336025,2090.2880231462,2681713.808049,21.778717871787,0,0
-159.30167921552,217.39670338278,16.583148314831,1297623.336025,2090.2880231462,2681713.808049,21.783148314831,0,0
-159.30167901273,217.44814957493,16.587578757876,1297623.336025,2090.2880231462,2681713.808049,21.787578757876,0,0
-159.30167880995,217.49959576708,16.59200920092,1297623.336025,2090.2880231462,2681713.808049,21.79200920092,0,0
-159.30167860717,217.55104195923,16.596439643964,1297623.336025,2090.2880231462,2681713.808049,21.796439643964,0,0
-159.30167840439,217.60248815138,16.600870087009,1297623.336025,2090.2880231462,2681713.808049,21.800870087009,0,0
-159.3016782016,217.65393434353,16.605300530053,1297623.336025,2090.2880231462,2681713.808049,21.805300530053,0,0
-159.30167799882,217.70538053568,16.609730973097,1297623.336025,2090.2880231462,2681713.808049,21.809730973097,0,0
-159.30167779604,217.75682672782,16.614161416142,1297623.336025,2090.2880231462,2681713.808049,21.814161416142,0,0
-159.30167759326,217.80827291997,16.618591859186,1297623.336025,2090.2880231462,2681713.808049,21.818591859186,0,0
-159.30167739047,217.85971911212,16.62302230223,1297623.336025,2090.2880231462,2681713.808049,21.82302230223,0,0
-159.30167718769,217.91116530427,16.627452745275,1297623.336025,2090.2880231462,2681713.808049,21.827452745275,0,0
-159.30167698491,217.96261149642,16.631883188319,1297623.336025,2090.2880231462,2681713.808049,21.831883188319,0,0
-159.30167678213,218.01405768857,16.636313631363,1297623.336025,2090.2880231462,2681713.808049,21.836313631363,0,0
-159.30167657934,218.06550388072,16.640744074407,1297623.336025,2090.2880231462,2681713.808049,21.840744074407,0,0
-159.30167637656,218.11695007286,16.645174517452,1297623.336025,2090.2880231462,2681713.808049,21.845174517452,0,0
-159.30167617378,218.16839626501,16.649604960496,1297623.336025,2090.2880231462,2681713.808049,21.849604960496,0,0
-159.301675971,218.21984245716,16.65403540354,1297623.336025,2090.2880231462,2681713.808049,21.85403540354,0,0
-159.30167576821,218.27128864931,16.658465846585,1297623.336025,2090.2880231462,2681713.808049,21.858465846585,0,0
-159.30167556543,218.32273484146,16.662896289629,1297623.336025,2090.2880231462,2681713.808049,21.862896289629,0,0
-159.30167536265,218.37418103361,16.667326732673,1297623.336025,2090.2880231462,2681713.808049,21.867326732673,0,0
-159.30167515987,218.42562722575,16.671757175718,1297623.336025,2090.2880231462,2681713.808049,21.871757175718,0,0
-159.30167495708,218.4770734179,16.676187618762,1297623.336025,2090.2880231462,2681713.808049,21.876187618762,0,0
-159.3016747543,218.52851961005,16.680618061806,1297623.336025,2090.2880231462,2681713.808049,21.880618061806,0,0
-159.30167455152,218.5799658022,16.68504850485,1297623.336025,2090.2880231462,2681713.808049,21.88504850485,0,0
-159.30167434874,218.63141199435,16.689478947895,1297623.336025,2090.2880231462,2681713.808049,21.889478947895,0,0
-159.30167414595,218.6828581865,16.693909390939,1297623.336025,2090.2880231462,2681713.808049,21.893909390939,0,0
-159.30167394317,218.73430437865,16.698339833983,1297623.336025,2090.2880231462,2681713.808049,21.898339833983,0,0
-159.30167374039,218.78575057079,16.702770277028,1297623.336025,2090.2880231462,2681713.808049,21.902770277028,0,0
-159.30167353761,218.83719676294,16.707200720072,1297623.336025,2090.2880231462,2681713.808049,21.907200720072,0,0
-159.30167333482,218.88864295509,16.711631163116,1297623.336025,2090.2880231462,2681713.808049,21.911631163116,0,0
-159.30167313204,218.94008914724,16.716061606161,1297623.336025,2090.2880231462,2681713.808049,21.916061606161,0,0
-159.30167292926,218.99153533939,16.720492049205,1297623.336025,2090.2880231462,2681713.808049,21.920492049205,0,0
-159.30167272648,219.04298153154,16.724922492249,1297623.336025,2090.2880231462,2681713.808049,21.924922492249,0,0
-159.30167252369,219.09442772369,16.729352935294,1297623.336025,2090.2880231462,2681713.808049,21.929352935294,0,0
-159.30167232091,219.14587391583,16.733783378338,1297623.336025,2090.2880231462,2681713.808049,21.933783378338,0,0
-159.30167211813,219.19732010798,16.738213821382,1297623.336025,2090.2880231462,2681713.808049,21.938213821382,0,0
-159.30167191535,219.24876630013,16.742644264426,1297623.336025,2090.2880231462,2681713.808049,21.942644264426,0,0
-159.30167171256,219.30021249228,16.747074707471,1297623.336025,2090.2880231462,2681713.808049,21.947074707471,0,0
-159.30167150978,219.35165868443,16.751505150515,1297623.336025,2090.2880231462,2681713.808049,21.951505150515,0,0
-159.301671307,219.40310487658,16.755935593559,1297623.336025,2090.2880231462,2681713.808049,21.955935593559,0,0
-159.30167110422,219.45455106872,16.760366036604,1297623.336025,2090.2880231462,2681713.808049,21.960366036604,0,0
-159.30167090143,219.50599726087,16.764796479648,1297623.336025,2090.2880231462,2681713.808049,21.964796479648,0,0
-159.30167069865,219.55744345302,16.769226922692,1297623.336025,2090.2880231462,2681713.808049,21.969226922692,0,0
-159.30167049587,219.60888964517,16.773657365737,1297623.336025,2090.2880231462,2681713.808049,21.973657365737,0,0
-159.30167029309,219.66033583732,16.778087808781,1297623.336025,2090.2880231462,2681713.808049,21.978087808781,0,0
-159.3016700903,219.71178202947,16.782518251825,1297623.336025,2090.2880231462,2681713.808049,21.982518251825,0,0
-159.30166988737,219.76322822091,16.786948694869,1296934.768943,-1294.1685935385,2672845.3650941,21.986948694869,0,0
-159.30166968424,219.81467441135,16.791379137914,1296934.768943,-1294.1685935385,2672845.3650941,21.991379137914,0,0
-159.30166948111,219.8661206018,16.795809580958,1296934.768943,-1294.1685935385,2672845.3650941,21.995809580958,0,0
-159.30166927798,219.91756679224,16.800240024002,1296934.768943,-1294.1685935385,2672845.3650941,22.000240024002,0,0
-159.30166907485,219.96901298268,16.804670467047,1296934.768943,-1294.1685935385,2672845.3650941,22.004670467047,0,0
-159.30166887171,220.02045917313,16.809100910091,1296934.768943,-1294.1685935385,2672845.3650941,22.009100910091,0,0
-159.30166866858,220.07190536357,16.813531353135,1296934.768943,-1294.1685935385,2672845.3650941,22.013531353135,0,0
-159.30166846545,220.12335155402,16.81796179618,1296934.768943,-1294.1685935385,2672845.3650941,22.01796179618,0,0
-159.30166826232,220.17479774446,16.822392239224,1296934.768943,-1294.1685935385,2672845.3650941,22.022392239224,0,0
-159.30166805919,220.22624393491,16.826822682268,1296934.768943,-1294.1685935385,2672845.3650941,22.026822682268,0,0
-159.30166785605,220.27769012535,16.831253125313,1296934.768943,-1294.1685935385,2672845.3650941,22.031253125313,0,0
-159.30166765292,220.3291363158,16.835683568357,1296934.768943,-1294.1685935385,2672845.3650941,22.035683568357,0,0
-159.30166744979,220.38058250624,16.840114011401,1296934.768943,-1294.1685935385,2672845.3650941,22.040114011401,0,0
-159.30166724666,220.43202869669,16.844544454445,1296934.768943,-1294.1685935385,2672845.3650941,22.044544454445,0,0
-159.30166704353,220.48347488713,16.84897489749,1296934.768943,-1294.1685935385,2672845.3650941,22.04897489749,0,0
-159.30166684039,220.53492107757,16.853405340534,1296934.768943,-1294.1685935385,2672845.3650941,22.053405340534,0,0
-159.30166663726,220.58636726802,16.857835783578,1296934.768943,-1294.1685935385,2672845.3650941,22.057835783578,0,0
-159.30166643413,220.63781345846,16.862266226623,1296934.768943,-1294.1685935385,2672845.3650941,22.062266226623,0,0
-159.301666231,220.68925964891,16.866696669667,1296934.768943,-1294.1685935385,2672845.3650941,22.066696669667,0,0
-159.30166602787,220.74070583935,16.871127112711,1296934.768943,-1294.1685935385,2672845.3650941,22.071127112711,0,0
-159.30166582473,220.7921520298,16.875557555756,1296934.768943,-1294.1685935385,2672845.3650941,22.075557555756,0,0
-159.3016656216,220.84359822024,16.8799879988,1296934.768943,-1294.1685935385,2672845.3650941,22.0799879988,0,0
-159.30166541847,220.89504441069,16.884418441844,1296934.768943,-1294.1685935385,2672845.3650941,22.084418441844,0,0
-159.30166521534,220.94649060113,16.888848884888,1296934.768943,-1294.1685935385,2672845.3650941,22.088848884888,0,0
-159.30166501221,220.99793679158,16.893279327933,1296934.768943,-1294.1685935385,2672845.3650941,22.093279327933,0,0
-159.30166480907,221.04938298202,16.897709770977,1296934.768943,-1294.1685935385,2672845.3650941,22.097709770977,0,0
-159.30166460594,221.10082917246,16.902140214021,1296934.768943,-1294.1685935385,2672845.3650941,22.102140214021,0,0
-159.30166440281,221.15227536291,16.906570657066,1296934.768943,-1294.1685935385,2672845.3650941,22.106570657066,0,0
-159.30166419968,221.20372155335,16.91100110011,1296934.768943,-1294.1685935385,2672845.3650941,22.11100110011,0,0
-159.30166399655,221.2551677438,16.915431543154,1296934.768943,-1294.1685935385,2672845.3650941,22.115431543154,0,0
-159.30166379341,221.30661393424,16.919861986199,1296934.768943,-1294.1685935385,2672845.3650941,22.119861986199,0,0
-159.30166359028,221.35806012469,16.924292429243,1296934.768943,-1294.1685935385,2672845.3650941,22.124292429243,0,0
-159.30166338715,221.40950631513,16.928722872287,1296934.768943,-1294.1685935385,2672845.3650941,22.128722872287,0,0
-159.30166318402,221.46095250558,16.933153315332,1296934.768943,-1294.1685935385,2672845.3650941,22.133153315332,0,0
-159.30166298089,221.51239869602,16.937583758376,1296934.768943,-1294.1685935385,2672845.3650941,22.137583758376,0,0
-159.30166277775,221.56384488647,16.94201420142,1296934.768943,-1294.1685935385,2672845.3650941,22.14201420142,0,0
-159.30166257462,221.61529107691,16.946444644464,1296934.768943,-1294.1685935385,2672845.3650941,22.146444644464,0,0
-159.30166237149,221.66673726735,16.950875087509,1296934.768943,-1294.1685935385,2672845.3650941,22.150875087509,0,0
-159.30166216836,221.7181834578,16.955305530553,1296934.768943,-1294.1685935385,2672845.3650941,22.155305530553,0,0
-159.30166196523,221.76962964824,16.959735973597,1296934.768943,-1294.1685935385,2672845.3650941,22.159735973597,0,0
-159.30166176209,221.82107583869,16.964166416642,1296934.768943,-1294.1685935385,2672845.3650941,22.164166416642,0,0
-159.30166155896,221.87252202913,16.968596859686,1296934.768943,-1294.1685935385,2672845.3650941,22.168596859686,0,0
-159.30166135583,221.92396821958,16.97302730273,1296934.768943,-1294.1685935385,2672845.3650941,22.17302730273,0,0
-159.3016611527,221.97541441002,16.977457745775,1296934.768943,-1294.1685935385,2672845.3650941,22.177457745775,0,0
-159.30166094957,222.02686060047,16.981888188819,1296934.768943,-1294.1685935385,2672845.3650941,22.181888188819,0,0
-159.30166074643,222.07830679091,16.986318631863,1296934.768943,-1294.1685935385,2672845.3650941,22.186318631863,0,0
-159.3016605433,222.12975298136,16.990749074907,1296934.768943,-1294.1685935385,2672845.3650941,22.190749074907,0,0
-159.30166034017,222.1811991718,16.995179517952,1296934.768943,-1294.1685935385,2672845.3650941,22.195179517952,0,0
-159.30166013704,222.23264536224,16.999609960996,1296934.768943,-1294.1685935385,2672845.3650941,22.199609960996,0,0
-159.30165993391,222.28409155269,17.00404040404,1296934.768943,-1294.1685935385,2672845.3650941,22.20404040404,0,0
-159.30165973077,222.33553774313,17.008470847085,1296934.768943,-1294.1685935385,2672845.3650941,22.208470847085,0,0
-159.30165952764,222.38698393358,17.012901290129,1296934.768943,-1294.1685935385,2672845.3650941,22.212901290129,0,0
-159.30165932451,222.43843012402,17.017331733173,1296934.768943,-1294.1685935385,2672845.3650941,22.217331733173,0,0
-159.30165912138,222.48987631447,17.021762176218,1296934.768943,-1294.1685935385,2672845.3650941,22.221762176218,0,0
-159.30165891825,222.54132250491,17.026192619262,1296934.768943,-1294.1685935385,2672845.3650941,22.226192619262,0,0
-159.30165871511,222.59276869536,17.030623062306,1296934.768943,-1294.1685935385,2672845.3650941,22.230623062306,0,0
-159.30165851198,222.6442148858,17.035053505351,1296934.768943,-1294.1685935385,2672845.3650941,22.235053505351,0,0
-159.30165830885,222.69566107625,17.039483948395,1296934.768943,-1294.1685935385,2672845.3650941,22.239483948395,0,0
-159.30165810572,222.74710726669,17.043914391439,1296934.768943,-1294.1685935385,2672845.3650941,22.243914391439,0,0
-159.30165790259,222.79855345714,17.048344834483,1296934.768943,-1294.1685935385,2672845.3650941,22.248344834483,0,0
-159.30165769945,222.84999964758,17.052775277528,1296934.768943,-1294.1685935385,2672845.3650941,22.252775277528,0,0
-159.30165749632,222.90144583802,17.057205720572,1296934.768943,-1294.1685935385,2672845.3650941,22.257205720572,0,0
-159.30165729319,222.95289202847,17.061636163616,1296934.768943,-1294.1685935385,2672845.3650941,22.261636163616,0,0
-159.30165709006,223.00433821891,17.066066606661,1296934.768943,-1294.1685935385,2672845.3650941,22.266066606661,0,0
-159.30165688693,223.05578440936,17.070497049705,1296934.768943,-1294.1685935385,2672845.3650941,22.270497049705,0,0
-159.30165668379,223.1072305998,17.074927492749,1296934.768943,-1294.1685935385,2672845.3650941,22.274927492749,0,0
-159.30165648066,223.15867679025,17.079357935794,1296934.768943,-1294.1685935385,2672845.3650941,22.279357935794,0,0
-159.30165627753,223.21012298069,17.083788378838,1296934.768943,-1294.1685935385,2672845.3650941,22.283788378838,0,0
-159.3016560744,223.26156917114,17.088218821882,1296934.768943,-1294.1685935385,2672845.3650941,22.288218821882,0,0
-159.30165587127,223.31301536158,17.092649264926,1296934.768943,-1294.1685935385,2672845.3650941,22.292649264926,0,0
-159.30165566813,223.36446155203,17.097079707971,1296934.768943,-1294.1685935385,2672845.3650941,22.297079707971,0,0
-159.301655465,223.41590774247,17.101510151015,1296934.768943,-1294.1685935385,2672845.3650941,22.301510151015,0,0
-159.30165526187,223.46735393291,17.105940594059,1296934.768943,-1294.1685935385,2672845.3650941,22.305940594059,0,0
-159.30165505874,223.51880012336,17.110371037104,1296934.768943,-1294.1685935385,2672845.3650941,22.310371037104,0,0
-159.30165485561,223.5702463138,17.114801480148,1296934.768943,-1294.1685935385,2672845.3650941,22.314801480148,0,0
-159.30165465247,223.62169250425,17.119231923192,1296934.768943,-1294.1685935385,2672845.3650941,22.319231923192,0,0
-159.30165444934,223.67313869469,17.123662366237,1296934.768943,-1294.1685935385,2672845.3650941,22.323662366237,0,0
-159.30165424621,223.72458488514,17.128092809281,1296934.768943,-1294.1685935385,2672845.3650941,22.328092809281,0,0
-159.30165404308,223.77603107558,17.132523252325,1296934.768943,-1294.1685935385,2672845.3650941,22.332523252325,0,0
-159.30165383995,223.82747726603,17.13695369537,1296934.768943,-1294.1685935385,2672845.3650941,22.33695369537,0,0
-159.30165363681,223.87892345647,17.141384138414,1296934.768943,-1294.1685935385,2672845.3650941,22.341384138414,0,0
-159.30165343368,223.93036964692,17.145814581458,1296934.768943,-1294.1685935385,2672845.3650941,22.345814581458,0,0
-159.30165323055,223.98181583736,17.150245024502,1296934.768943,-1294.1685935385,2672845.3650941,22.350245024502,0,0
-159.30165302742,224.0332620278,17.154675467547,1296934.768943,-1294.1685935385,2672845.3650941,22.354675467547,0,0
-159.30165282429,224.08470821825,17.159105910591,1296934.768943,-1294.1685935385,2672845.3650941,22.359105910591,0,0
-159.30165262115,224.13615440869,17.163536353635,1296934.768943,-1294.1685935385,2672845.3650941,22.363536353635,0,0
-159.30165241802,224.18760059914,17.16796679668,1296934.768943,-1294.1685935385,2672845.3650941,22.36796679668,0,0
-159.30165221489,224.23904678958,17.172397239724,1296934.768943,-1294.1685935385,2672845.3650941,22.372397239724,0,0
-159.30165201176,224.29049298003,17.176827682768,1296934.768943,-1294.1685935385,2672845.3650941,22.376827682768,0,0
-159.30165180863,224.34193917047,17.181258125813,1296934.768943,-1294.1685935385,2672845.3650941,22.381258125813,0,0
-159.30165160549,224.39338536092,17.185688568857,1296934.768943,-1294.1685935385,2672845.3650941,22.385688568857,0,0
-159.30165140239,224.44483155258,17.190119011901,1294741.1042696,2053.6722344359,2666833.9434373,22.390119011901,0,0
-159.3016511993,224.49627774441,17.194549454945,1294741.1042696,2053.6722344359,2666833.9434373,22.394549454945,0,0
-159.3016509962,224.54772393624,17.19897989799,1294741.1042696,2053.6722344359,2666833.9434373,22.39897989799,0,0
-159.30165079311,224.59917012807,17.203410341034,1294741.1042696,2053.6722344359,2666833.9434373,22.403410341034,0,0
-159.30165059001,224.6506163199,17.207840784078,1294741.1042696,2053.6722344359,2666833.9434373,22.407840784078,0,0
-159.30165038692,224.70206251173,17.212271227123,1294741.1042696,2053.6722344359,2666833.9434373,22.412271227123,0,0
-159.30165018382,224.75350870356,17.216701670167,1294741.1042696,2053.6722344359,2666833.9434373,22.416701670167,0,0
-159.30164998073,224.80495489539,17.221132113211,1294741.1042696,2053.6722344359,2666833.9434373,22.421132113211,0,0
-159.30164977763,224.85640108722,17.225562556256,1294741.1042696,2053.6722344359,2666833.9434373,22.425562556256,0,0
-159.30164957454,224.90784727905,17.2299929993,1294741.1042696,2053.6722344359,2666833.9434373,22.4299929993,0,0
-159.30164937144,224.95929347088,17.234423442344,1294741.1042696,2053.6722344359,2666833.9434373,22.434423442344,0,0
-159.30164916835,225.01073966271,17.238853885389,1294741.1042696,2053.6722344359,2666833.9434373,22.438853885389,0,0
-159.30164896525,225.06218585454,17.243284328433,1294741.1042696,2053.6722344359,2666833.9434373,22.443284328433,0,0
-159.30164876216,225.11363204637,17.247714771477,1294741.1042696,2053.6722344359,2666833.9434373,22.447714771477,0,0
-159.30164855906,225.1650782382,17.252145214521,1294741.1042696,2053.6722344359,2666833.9434373,22.452145214521,0,0
-159.30164835597,225.21652443003,17.256575657566,1294741.1042696,2053.6722344359,2666833.9434373,22.456575657566,0,0
-159.30164815287,225.26797062186,17.26100610061,1294741.1042696,2053.6722344359,2666833.9434373,22.46100610061,0,0
-159.30164794978,225.31941681369,17.265436543654,1294741.1042696,2053.6722344359,2666833.9434373,22.465436543654,0,0
-159.30164774668,225.37086300552,17.269866986699,1294741.1042696,2053.6722344359,2666833.9434373,22.469866986699,0,0
-159.30164754359,225.42230919735,17.274297429743,1294741.1042696,2053.6722344359,2666833.9434373,22.474297429743,0,0
-159.30164734049,225.47375538918,17.278727872787,1294741.1042696,2053.6722344359,2666833.9434373,22.478727872787,0,0
-159.3016471374,225.52520158101,17.283158315832,1294741.1042696,2053.6722344359,2666833.9434373,22.483158315832,0,0
-159.3016469343,225.57664777284,17.287588758876,1294741.1042696,2053.6722344359,2666833.9434373,22.487588758876,0,0
-159.30164673121,225.62809396467,17.29201920192,1294741.1042696,2053.6722344359,2666833.9434373,22.49201920192,0,0
-159.30164652811,225.6795401565,17.296449644964,1294741.1042696,2053.6722344359,2666833.9434373,22.496449644964,0,0
-159.30164632502,225.73098634833,17.300880088009,1294741.1042696,2053.6722344359,2666833.9434373,22.500880088009,0,0
-159.30164612192,225.78243254016,17.305310531053,1294741.1042696,2053.6722344359,2666833.9434373,22.505310531053,0,0
-159.30164591883,225.83387873199,17.309740974097,1294741.1042696,2053.6722344359,2666833.9434373,22.509740974097,0,0
-159.30164571573,225.88532492382,17.314171417142,1294741.1042696,2053.6722344359,2666833.9434373,22.514171417142,0,0
-159.30164551263,225.93677111565,17.318601860186,1294741.1042696,2053.6722344359,2666833.9434373,22.518601860186,0,0
-159.30164530954,225.98821730748,17.32303230323,1294741.1042696,2053.6722344359,2666833.9434373,22.52303230323,0,0
-159.30164510644,226.03966349931,17.327462746275,1294741.1042696,2053.6722344359,2666833.9434373,22.527462746275,0,0
-159.30164490335,226.09110969114,17.331893189319,1294741.1042696,2053.6722344359,2666833.9434373,22.531893189319,0,0
-159.30164470025,226.14255588297,17.336323632363,1294741.1042696,2053.6722344359,2666833.9434373,22.536323632363,0,0
-159.30164449716,226.1940020748,17.340754075408,1294741.1042696,2053.6722344359,2666833.9434373,22.540754075408,0,0
-159.30164429406,226.24544826662,17.345184518452,1294741.1042696,2053.6722344359,2666833.9434373,22.545184518452,0,0
-159.30164409097,226.29689445845,17.349614961496,1294741.1042696,2053.6722344359,2666833.9434373,22.549614961496,0,0
-159.30164388787,226.34834065028,17.35404540454,1294741.1042696,2053.6722344359,2666833.9434373,22.55404540454,0,0
-159.30164368478,226.39978684211,17.358475847585,1294741.1042696,2053.6722344359,2666833.9434373,22.558475847585,0,0
-159.30164348168,226.45123303394,17.362906290629,1294741.1042696,2053.6722344359,2666833.9434373,22.562906290629,0,0
-159.30164327859,226.50267922577,17.367336733673,1294741.1042696,2053.6722344359,2666833.9434373,22.567336733673,0,0
-159.30164307549,226.5541254176,17.371767176718,1294741.1042696,2053.6722344359,2666833.9434373,22.571767176718,0,0
-159.3016428724,226.60557160943,17.376197619762,1294741.1042696,2053.6722344359,2666833.9434373,22.576197619762,0,0
-159.3016426693,226.65701780126,17.380628062806,1294741.1042696,2053.6722344359,2666833.9434373,22.580628062806,0,0
-159.30164246621,226.70846399309,17.385058505851,1294741.1042696,2053.6722344359,2666833.9434373,22.585058505851,0,0
-159.30164226311,226.75991018492,17.389488948895,1294741.1042696,2053.6722344359,2666833.9434373,22.589488948895,0,0
-159.30164206002,226.81135637675,17.393919391939,1294741.1042696,2053.6722344359,2666833.9434373,22.593919391939,0,0
-159.30164185692,226.86280256858,17.398349834983,1294741.1042696,2053.6722344359,2666833.9434373,22.598349834983,0,0
-159.30164165383,226.91424876041,17.402780278028,1294741.1042696,2053.6722344359,2666833.9434373,22.602780278028,0,0
-159.30164145073,226.96569495224,17.407210721072,1294741.1042696,2053.6722344359,2666833.9434373,22.607210721072,0,0
-159.30164124764,227.01714114407,17.411641164116,1294741.1042696,2053.6722344359,2666833.9434373,22.611641164116,0,0
-159.30164104454,227.0685873359,17.416071607161,1294741.1042696,2053.6722344359,2666833.9434373,22.616071607161,0,0
-159.30164084145,227.12003352773,17.420502050205,1294741.1042696,2053.6722344359,2666833.9434373,22.620502050205,0,0
-159.30164063835,227.17147971956,17.424932493249,1294741.1042696,2053.6722344359,2666833.9434373,22.624932493249,0,0
-159.30164043526,227.22292591139,17.429362936294,1294741.1042696,2053.6722344359,2666833.9434373,22.629362936294,0,0
-159.30164023216,227.27437210322,17.433793379338,1294741.1042696,2053.6722344359,2666833.9434373,22.633793379338,0,0
-159.30164002907,227.32581829505,17.438223822382,1294741.1042696,2053.6722344359,2666833.9434373,22.638223822382,0,0
-159.30163982597,227.37726448688,17.442654265427,1294741.1042696,2053.6722344359,2666833.9434373,22.642654265427,0,0
-159.30163962288,227.42871067871,17.447084708471,1294741.1042696,2053.6722344359,2666833.9434373,22.647084708471,0,0
-159.30163941978,227.48015687054,17.451515151515,1294741.1042696,2053.6722344359,2666833.9434373,22.651515151515,0,0
-159.30163921668,227.53160306237,17.455945594559,1294741.1042696,2053.6722344359,2666833.9434373,22.655945594559,0,0
-159.30163901359,227.5830492542,17.460376037604,1294741.1042696,2053.6722344359,2666833.9434373,22.660376037604,0,0
-159.30163881049,227.63449544603,17.464806480648,1294741.1042696,2053.6722344359,2666833.9434373,22.664806480648,0,0
-159.3016386074,227.68594163786,17.469236923692,1294741.1042696,2053.6722344359,2666833.9434373,22.669236923692,0,0
-159.3016384043,227.73738782969,17.473667366737,1294741.1042696,2053.6722344359,2666833.9434373,22.673667366737,0,0
-159.30163820121,227.78883402152,17.478097809781,1294741.1042696,2053.6722344359,2666833.9434373,22.678097809781,0,0
-159.30163799811,227.84028021335,17.482528252825,1294741.1042696,2053.6722344359,2666833.9434373,22.682528252825,0,0
-159.30163779502,227.89172640518,17.48695869587,1294741.1042696,2053.6722344359,2666833.9434373,22.68695869587,0,0
-159.30163759192,227.94317259701,17.491389138914,1294741.1042696,2053.6722344359,2666833.9434373,22.691389138914,0,0
-159.30163738883,227.99461878884,17.495819581958,1294741.1042696,2053.6722344359,2666833.9434373,22.695819581958,0,0
-159.30163718573,228.04606498067,17.500250025002,1294741.1042696,2053.6722344359,2666833.9434373,22.700250025002,0,0
-159.30163698264,228.0975111725,17.504680468047,1294741.1042696,2053.6722344359,2666833.9434373,22.704680468047,0,0
-159.30163677954,228.14895736433,17.509110911091,1294741.1042696,2053.6722344359,2666833.9434373,22.709110911091,0,0
-159.30163657645,228.20040355616,17.513541354135,1294741.1042696,2053.6722344359,2666833.9434373,22.713541354135,0,0
-159.30163637335,228.25184974799,17.51797179718,1294741.1042696,2053.6722344359,2666833.9434373,22.71797179718,0,0
-159.30163617026,228.30329593982,17.522402240224,1294741.1042696,2053.6722344359,2666833.9434373,22.722402240224,0,0
-159.30163596716,228.35474213165,17.526832683268,1294741.1042696,2053.6722344359,2666833.9434373,22.726832683268,0,0
-159.30163576407,228.40618832348,17.531263126313,1294741.1042696,2053.6722344359,2666833.9434373,22.731263126313,0,0
-159.30163556097,228.45763451531,17.535693569357,1294741.1042696,2053.6722344359,2666833.9434373,22.735693569357,0,0
-159.30163535788,228.50908070714,17.540124012401,1294741.1042696,2053.6722344359,2666833.9434373,22.740124012401,0,0
-159.30163515478,228.56052689897,17.544554455446,1294741.1042696,2053.6722344359,2666833.9434373,22.744554455446,0,0
-159.30163495169,228.6119730908,17.54898489849,1294741.1042696,2053.6722344359,2666833.9434373,22.74898489849,0,0
-159.30163474859,228.66341928262,17.553415341534,1294741.1042696,2053.6722344359,2666833.9434373,22.753415341534,0,0
-159.3016345455,228.71486547445,17.557845784578,1294741.1042696,2053.6722344359,2666833.9434373,22.757845784578,0,0
-159.3016343424,228.76631166628,17.562276227623,1294741.1042696,2053.6722344359,2666833.9434373,22.762276227623,0,0
-159.30163413931,228.81775785811,17.566706670667,1294741.1042696,2053.6722344359,2666833.9434373,22.766706670667,0,0
-159.30163393621,228.86920404994,17.571137113711,1294741.1042696,2053.6722344359,2666833.9434373,22.771137113711,0,0
-159.30163373312,228.92065024177,17.575567556756,1294741.1042696,2053.6722344359,2666833.9434373,22.775567556756,0,0
-159.30163353002,228.9720964336,17.5799979998,1294741.1042696,2053.6722344359,2666833.9434373,22.7799979998,0,0
-159.30163332692,229.02354262543,17.584428442844,1294741.1042696,2053.6722344359,2666833.9434373,22.784428442844,0,0
-159.30163312383,229.07498881726,17.588858885889,1294741.1042696,2053.6722344359,2666833.9434373,22.788858885889,0,0
-159.30163292073,229.12643500909,17.593289328933,1294741.1042696,2053.6722344359,2666833.9434373,22.793289328933,0,0
-159.30163271764,229.17788120092,17.597719771977,1294741.1042696,2053.6722344359,2666833.9434373,22.797719771977,0,0
-159.30163251454,229.22932739275,17.602150215021,1294741.1042696,2053.6722344359,2666833.9434373,22.802150215021,0,0
-159.30163231145,229.28077358458,17.606580658066,1294741.1042696,2053.6722344359,2666833.9434373,22.806580658066,0,0
-159.30163210835,229.33221977641,17.61101110111,1294741.1042696,2053.6722344359,2666833.9434373,22.81101110111,0,0
-159.30163190526,229.38366596824,17.615441544154,1294741.1042696,2053.6722344359,2666833.9434373,22.815441544154,0,0
-159.30163170216,229.43511216007,17.619871987199,1294741.1042696,2053.6722344359,2666833.9434373,22.819871987199,0,0
-159.30163149907,229.4865583519,17.624302430243,1294741.1042696,2053.6722344359,2666833.9434373,22.824302430243,0,0
-159.30163129597,229.53800454373,17.628732873287,1294741.1042696,2053.6722344359,2666833.9434373,22.828732873287,0,0
-159.30163109288,229.58945073556,17.633163316332,1294741.1042696,2053.6722344359,2666833.9434373,22.833163316332,0,0
-159.30163088978,229.64089692739,17.637593759376,1294741.1042696,2053.6722344359,2666833.9434373,22.837593759376,0,0
-159.30163068669,229.69234311922,17.64202420242,1294741.1042696,2053.6722344359,2666833.9434373,22.84202420242,0,0
-159.30163048359,229.74378931105,17.646454645465,1294741.1042696,2053.6722344359,2666833.9434373,22.846454645465,0,0
-159.3016302805,229.79523550288,17.650885088509,1294741.1042696,2053.6722344359,2666833.9434373,22.850885088509,0,0
-159.3016300774,229.84668169471,17.655315531553,1294741.1042696,2053.6722344359,2666833.9434373,22.855315531553,0,0
-159.30162987431,229.89812788654,17.659745974597,1294741.1042696,2053.6722344359,2666833.9434373,22.859745974597,0,0
-159.30162967121,229.94957407837,17.664176417642,1294741.1042696,2053.6722344359,2666833.9434373,22.864176417642,0,0
-159.30162946812,230.0010202702,17.668606860686,1294741.1042696,2053.6722344359,2666833.9434373,22.868606860686,0,0
-159.30162926502,230.05246646203,17.67303730373,1294741.1042696,2053.6722344359,2666833.9434373,22.87303730373,0,0
-159.30162906193,230.10391265386,17.677467746775,1294741.1042696,2053.6722344359,2666833.9434373,22.877467746775,0,0
-159.30162885883,230.15535884569,17.681898189819,1294741.1042696,2053.6722344359,2666833.9434373,22.881898189819,0,0
-159.30162865574,230.20680503752,17.686328632863,1294741.1042696,2053.6722344359,2666833.9434373,22.886328632863,0,0
-159.30162845264,230.25825122935,17.690759075908,1294741.1042696,2053.6722344359,2666833.9434373,22.890759075908,0,0
-159.30162824955,230.30969742118,17.695189518952,1294741.1042696,2053.6722344359,2666833.9434373,22.895189518952,0,0
-159.30162804645,230.36114361301,17.699619961996,1294741.1042696,2053.6722344359,2666833.9434373,22.899619961996,0,0
-159.30162784336,230.41258980484,17.704050405041,1294741.1042696,2053.6722344359,2666833.9434373,22.904050405041,0,0
-159.30162764026,230.46403599667,17.708480848085,1294741.1042696,2053.6722344359,2666833.9434373,22.908480848085,0,0
-159.30162743716,230.5154821885,17.712911291129,1294741.1042696,2053.6722344359,2666833.9434373,22.912911291129,0,0
-159.30162723407,230.56692838033,17.717341734173,1294741.1042696,2053.6722344359,2666833.9434373,22.917341734173,0,0
-159.30162703097,230.61837457216,17.721772177218,1294741.1042696,2053.6722344359,2666833.9434373,22.921772177218,0,0
-159.30162682788,230.66982076399,17.726202620262,1294741.1042696,2053.6722344359,2666833.9434373,22.926202620262,0,0
-159.30162662478,230.72126695582,17.730633063306,1294741.1042696,2053.6722344359,2666833.9434373,22.930633063306,0,0
-159.30162642169,230.77271314765,17.735063506351,1294741.1042696,2053.6722344359,2666833.9434373,22.935063506351,0,0
-159.30162621859,230.82415933948,17.739493949395,1294741.1042696,2053.6722344359,2666833.9434373,22.939493949395,0,0
-159.3016260155,230.87560553131,17.743924392439,1294741.1042696,2053.6722344359,2666833.9434373,22.943924392439,0,0
-159.3016258124,230.92705172314,17.748354835484,1294741.1042696,2053.6722344359,2666833.9434373,22.948354835484,0,0
-159.30162560931,230.97849791497,17.752785278528,1294741.1042696,2053.6722344359,2666833.9434373,22.952785278528,0,0
-159.30162540621,231.0299441068,17.757215721572,1294741.1042696,2053.6722344359,2666833.9434373,22.957215721572,0,0
-159.30162520312,231.08139029862,17.761646164616,1294741.1042696,2053.6722344359,2666833.9434373,22.961646164616,0,0
-159.30162500002,231.13283649045,17.766076607661,1294741.1042696,2053.6722344359,2666833.9434373,22.966076607661,0,0
-159.30162479693,231.18428268228,17.770507050705,1294741.1042696,2053.6722344359,2666833.9434373,22.970507050705,0,0
-159.30162459383,231.23572887411,17.774937493749,1294741.1042696,2053.6722344359,2666833.9434373,22.974937493749,0,0
-159.30162439074,231.28717506594,17.779367936794,1294741.1042696,2053.6722344359,2666833.9434373,22.979367936794,0,0
-159.30162418764,231.33862125777,17.783798379838,1294741.1042696,2053.6722344359,2666833.9434373,22.983798379838,0,0
-159.30162398455,231.3900674496,17.788228822882,1294741.1042696,2053.6722344359,2666833.9434373,22.988228822882,0,0
-159.30162378145,231.44151364143,17.792659265927,1294741.1042696,2053.6722344359,2666833.9434373,22.992659265927,0,0
-159.30162357836,231.49295983326,17.797089708971,1294741.1042696,2053.6722344359,2666833.9434373,22.997089708971,0,0
-159.30162337526,231.54440602509,17.801520152015,1294741.1042696,2053.6722344359,2666833.9434373,23.001520152015,0,0
-159.30162317217,231.59585221692,17.80595059506,1294741.1042696,2053.6722344359,2666833.9434373,23.00595059506,0,0
-159.30162296907,231.64729840875,17.810381038104,1294741.1042696,2053.6722344359,2666833.9434373,23.010381038104,0,0
-159.30162276598,231.69874460058,17.814811481148,1294741.1042696,2053.6722344359,2666833.9434373,23.014811481148,0,0
-159.30162256288,231.75019079241,17.819241924192,1294741.1042696,2053.6722344359,2666833.9434373,23.019241924192,0,0
-159.30162235979,231.80163698424,17.823672367237,1294741.1042696,2053.6722344359,2666833.9434373,23.023672367237,0,0
-159.30162215669,231.85308317607,17.828102810281,1294741.1042696,2053.6722344359,2666833.9434373,23.028102810281,0,0
-159.3016219536,231.9045293679,17.832533253325,1294741.1042696,2053.6722344359,2666833.9434373,23.032533253325,0,0
-159.3016217505,231.95597555973,17.83696369637,1294741.1042696,2053.6722344359,2666833.9434373,23.03696369637,0,0
-159.30162154741,232.00742175156,17.841394139414,1294741.1042696,2053.6722344359,2666833.9434373,23.041394139414,0,0
-159.30162134431,232.05886794339,17.845824582458,1294741.1042696,2053.6722344359,2666833.9434373,23.045824582458,0,0
-159.30162114121,232.11031413522,17.850255025503,1294741.1042696,2053.6722344359,2666833.9434373,23.050255025503,0,0
-159.30162093812,232.16176032705,17.854685468547,1294741.1042696,2053.6722344359,2666833.9434373,23.054685468547,0,0
-159.30162073502,232.21320651888,17.859115911591,1294741.1042696,2053.6722344359,2666833.9434373,23.059115911591,0,0
-159.30162053193,232.26465271071,17.863546354635,1294741.1042696,2053.6722344359,2666833.9434373,23.063546354635,0,0
-159.30162032883,232.31609890254,17.86797679768,1294741.1042696,2053.6722344359,2666833.9434373,23.06797679768,0,0
-159.30162012574,232.36754509437,17.872407240724,1294741.1042696,2053.6722344359,2666833.9434373,23.072407240724,0,0
-159.30161992264,232.4189912862,17.876837683768,1294741.1042696,2053.6722344359,2666833.9434373,23.076837683768,0,0
-159.30161971955,232.47043747803,17.881268126813,1294741.1042696,2053.6722344359,2666833.9434373,23.081268126813,0,0
-159.30161951645,232.52188366986,17.885698569857,1294741.1042696,2053.6722344359,2666833.9434373,23.085698569857,0,0
-159.30161931336,232.57332986169,17.890129012901,1294741.1042696,2053.6722344359,2666833.9434373,23.090129012901,0,0
-159.30161911026,232.62477605352,17.894559455946,1294741.1042696,2053.6722344359,2666833.9434373,23.094559455946,0,0
-159.30161890717,232.67622224535,17.89898989899,1294741.1042696,2053.6722344359,2666833.9434373,23.09898989899,0,0
-159.30161870407,232.72766843718,17.903420342034,1294741.1042696,2053.6722344359,2666833.9434373,23.103420342034,0,0
-159.30161850098,232.77911462901,17.907850785079,1294741.1042696,2053.6722344359,2666833.9434373,23.107850785079,0,0
-159.30161829788,232.83056082084,17.912281228123,1294741.1042696,2053.6722344359,2666833.9434373,23.112281228123,0,0
-159.30161809479,232.88200701267,17.916711671167,1294741.1042696,2053.6722344359,2666833.9434373,23.116711671167,0,0
-159.30161789169,232.9334532045,17.921142114211,1294741.1042696,2053.6722344359,2666833.9434373,23.121142114211,0,0
-159.3016176886,232.98489939633,17.925572557256,1294741.1042696,2053.6722344359,2666833.9434373,23.125572557256,0,0
-159.3016174855,233.03634558816,17.9300030003,1294741.1042696,2053.6722344359,2666833.9434373,23.1300030003,0,0
-159.30161728241,233.08779177999,17.934433443344,1294741.1042696,2053.6722344359,2666833.9434373,23.134433443344,0,0
-159.30161707931,233.13923797182,17.938863886389,1294741.1042696,2053.6722344359,2666833.9434373,23.138863886389,0,0
-159.30161687622,233.19068416365,17.943294329433,1294741.1042696,2053.6722344359,2666833.9434373,23.143294329433,0,0
-159.30161667312,233.24213035548,17.947724772477,1294741.1042696,2053.6722344359,2666833.9434373,23.147724772477,0,0
-159.30161647003,233.29357654731,17.952155215522,1294741.1042696,2053.6722344359,2666833.9434373,23.152155215522,0,0
-159.30161626693,233.34502273914,17.956585658566,1294741.1042696,2053.6722344359,2666833.9434373,23.156585658566,0,0
-159.30161606384,233.39646893097,17.96101610161,1294741.1042696,2053.6722344359,2666833.9434373,23.16101610161,0,0
-159.30161586074,233.44791512279,17.965446544654,1294741.1042696,2053.6722344359,2666833.9434373,23.165446544654,0,0
-159.30161565765,233.49936131462,17.969876987699,1294741.1042696,2053.6722344359,2666833.9434373,23.169876987699,0,0
-159.30161545455,233.55080750645,17.974307430743,1294741.1042696,2053.6722344359,2666833.9434373,23.174307430743,0,0
-159.30161525145,233.60225369828,17.978737873787,1294741.1042696,2053.6722344359,2666833.9434373,23.178737873787,0,0
-159.30161504836,233.65369989011,17.983168316832,1294741.1042696,2053.6722344359,2666833.9434373,23.183168316832,0,0
-159.30161484526,233.70514608194,17.987598759876,1294741.1042696,2053.6722344359,2666833.9434373,23.187598759876,0,0
-159.30161464217,233.75659227377,17.99202920292,1294741.1042696,2053.6722344359,2666833.9434373,23.19202920292,0,0
-159.30161443907,233.8080384656,17.996459645965,1294741.1042696,2053.6722344359,2666833.9434373,23.196459645965,0,0
-159.30161423598,233.85948465743,18.000890089009,1294741.1042696,2053.6722344359,2666833.9434373,23.200890089009,0,0
-159.30161403288,233.91093084926,18.005320532053,1294741.1042696,2053.6722344359,2666833.9434373,23.205320532053,0,0
-159.30161382979,233.96237704109,18.009750975098,1294741.1042696,2053.6722344359,2666833.9434373,23.209750975098,0,0
-159.30161362669,234.01382323292,18.014181418142,1294741.1042696,2053.6722344359,2666833.9434373,23.214181418142,0,0
-159.3016134236,234.06526942475,18.018611861186,1294741.1042696,2053.6722344359,2666833.9434373,23.218611861186,0,0
-159.3016132205,234.11671561658,18.02304230423,1294741.1042696,2053.6722344359,2666833.9434373,23.22304230423,0,0
-159.30161301741,234.16816180841,18.027472747275,1294741.1042696,2053.6722344359,2666833.9434373,23.227472747275,0,0
-159.30161281431,234.21960800024,18.031903190319,1294741.1042696,2053.6722344359,2666833.9434373,23.231903190319,0,0
-159.30161261122,234.27105419207,18.036333633363,1294741.1042696,2053.6722344359,2666833.9434373,23.236333633363,0,0
-159.30161240812,234.3225003839,18.040764076408,1294741.1042696,2053.6722344359,2666833.9434373,23.240764076408,0,0
-159.30161220503,234.37394657573,18.045194519452,1294741.1042696,2053.6722344359,2666833.9434373,23.245194519452,0,0
-159.30161200193,234.42539276756,18.049624962496,1294741.1042696,2053.6722344359,2666833.9434373,23.249624962496,0,0
-159.30161179884,234.47683895939,18.054055405541,1294741.1042696,2053.6722344359,2666833.9434373,23.254055405541,0,0
-159.30161159574,234.52828515122,18.058485848585,1294741.1042696,2053.6722344359,2666833.9434373,23.258485848585,0,0
-159.30161139265,234.57973134305,18.062916291629,1294741.1042696,2053.6722344359,2666833.9434373,23.262916291629,0,0
-159.30161118955,234.63117753488,18.067346734673,1294741.1042696,2053.6722344359,2666833.9434373,23.267346734673,0,0
-159.30161098646,234.68262372671,18.071777177718,1294741.1042696,2053.6722344359,2666833.9434373,23.271777177718,0,0
-159.30161078336,234.73406991854,18.076207620762,1294741.1042696,2053.6722344359,2666833.9434373,23.276207620762,0,0
-159.30161058027,234.78551611037,18.080638063806,1294741.1042696,2053.6722344359,2666833.9434373,23.280638063806,0,0
-159.30161037717,234.8369623022,18.085068506851,1294741.1042696,2053.6722344359,2666833.9434373,23.285068506851,0,0
-159.30161017408,234.88840849403,18.089498949895,1294741.1042696,2053.6722344359,2666833.9434373,23.289498949895,0,0
-159.30160997098,234.93985468586,18.093929392939,1294741.1042696,2053.6722344359,2666833.9434373,23.293929392939,0,0
-159.30160976789,234.99130087769,18.098359835984,1294741.1042696,2053.6722344359,2666833.9434373,23.298359835984,0,0
-159.30160956479,235.04274706952,18.102790279028,1294741.1042696,2053.6722344359,2666833.9434373,23.302790279028,0,0
-159.30160936169,235.09419326135,18.107220722072,1294741.1042696,2053.6722344359,2666833.9434373,23.307220722072,0,0
-159.3016091586,235.14563945318,18.111651165117,1294741.1042696,2053.6722344359,2666833.9434373,23.311651165117,0,0
-159.3016089555,235.19708564501,18.116081608161,1294741.1042696,2053.6722344359,2666833.9434373,23.316081608161,0,0
-159.30160875241,235.24853183684,18.120512051205,1294741.1042696,2053.6722344359,2666833.9434373,23.320512051205,0,0
-159.30160854931,235.29997802867,18.124942494249,1294741.1042696,2053.6722344359,2666833.9434373,23.324942494249,0,0
-159.30160834622,235.3514242205,18.129372937294,1294741.1042696,2053.6722344359,2666833.9434373,23.329372937294,0,0
-159.30160814312,235.40287041233,18.133803380338,1294741.1042696,2053.6722344359,2666833.9434373,23.333803380338,0,0
-159.30160794003,235.45431660416,18.138233823382,1294741.1042696,2053.6722344359,2666833.9434373,23.338233823382,0,0
-159.30160773693,235.50576279599,18.142664266427,1294741.1042696,2053.6722344359,2666833.9434373,23.342664266427,0,0
-159.30160753384,235.55720898782,18.147094709471,1294741.1042696,2053.6722344359,2666833.9434373,23.347094709471,0,0
-159.30160733074,235.60865517965,18.151525152515,1294741.1042696,2053.6722344359,2666833.9434373,23.351525152515,0,0
-159.30160712765,235.66010137148,18.15595559556,1294741.1042696,2053.6722344359,2666833.9434373,23.35595559556,0,0
-159.30160692455,235.71154756331,18.160386038604,1294741.1042696,2053.6722344359,2666833.9434373,23.360386038604,0,0
-159.30160672146,235.76299375514,18.164816481648,1294741.1042696,2053.6722344359,2666833.9434373,23.364816481648,0,0
-159.30160651836,235.81443994697,18.169246924692,1294741.1042696,2053.6722344359,2666833.9434373,23.369246924692,0,0
-159.30160631527,235.8658861388,18.173677367737,1294741.1042696,2053.6722344359,2666833.9434373,23.373677367737,0,0
-159.30160611217,235.91733233062,18.178107810781,1294741.1042696,2053.6722344359,2666833.9434373,23.378107810781,0,0
-159.30160590908,235.96877852245,18.182538253825,1294741.1042696,2053.6722344359,2666833.9434373,23.382538253825,0,0
-159.30160570598,236.02022471428,18.18696869687,1294741.1042696,2053.6722344359,2666833.9434373,23.38696869687,0,0
-159.30160550289,236.07167090611,18.191399139914,1294741.1042696,2053.6722344359,2666833.9434373,23.391399139914,0,0
-159.30160529979,236.12311709794,18.195829582958,1294741.1042696,2053.6722344359,2666833.9434373,23.395829582958,0,0
-159.3016050967,236.17456328977,18.200260026003,1294741.1042696,2053.6722344359,2666833.9434373,23.400260026003,0,0
-159.3016048936,236.2260094816,18.204690469047,1294741.1042696,2053.6722344359,2666833.9434373,23.404690469047,0,0
-159.30160469051,236.27745567343,18.209120912091,1294741.1042696,2053.6722344359,2666833.9434373,23.409120912091,0,0
-159.30160448741,236.32890186526,18.213551355136,1294741.1042696,2053.6722344359,2666833.9434373,23.413551355136,0,0
-159.30160428432,236.38034805709,18.21798179818,1294741.1042696,2053.6722344359,2666833.9434373,23.41798179818,0,0
-159.30160408122,236.43179424892,18.222412241224,1294741.1042696,2053.6722344359,2666833.9434373,23.422412241224,0,0
-159.30160387813,236.48324044075,18.226842684268,1294741.1042696,2053.6722344359,2666833.9434373,23.426842684268,0,0
-159.30160367503,236.53468663258,18.231273127313,1294741.1042696,2053.6722344359,2666833.9434373,23.431273127313,0,0
-159.30160347194,236.58613282441,18.235703570357,1294741.1042696,2053.6722344359,2666833.9434373,23.435703570357,0,0
-159.30160326884,236.63757901624,18.240134013401,1294741.1042696,2053.6722344359,2666833.9434373,23.440134013401,0,0
-159.30160306574,236.68902520807,18.244564456446,1294741.1042696,2053.6722344359,2666833.9434373,23.444564456446,0,0
-159.30160286265,236.7404713999,18.24899489949,1294741.1042696,2053.6722344359,2666833.9434373,23.44899489949,0,0
-159.30160265955,236.79191759173,18.253425342534,1294741.1042696,2053.6722344359,2666833.9434373,23.453425342534,0,0
-159.30160245646,236.84336378356,18.257855785579,1294741.1042696,2053.6722344359,2666833.9434373,23.457855785579,0,0
-159.30160225336,236.89480997539,18.262286228623,1294741.1042696,2053.6722344359,2666833.9434373,23.462286228623,0,0
-159.30160205027,236.94625616722,18.266716671667,1294741.1042696,2053.6722344359,2666833.9434373,23.466716671667,0,0
-159.30160184717,236.99770235905,18.271147114711,1294741.1042696,2053.6722344359,2666833.9434373,23.471147114711,0,0
-159.30160164408,237.04914855088,18.275577557756,1294741.1042696,2053.6722344359,2666833.9434373,23.475577557756,0,0
-159.30160144098,237.10059474271,18.2800080008,1294741.1042696,2053.6722344359,2666833.9434373,23.4800080008,0,0
-159.30160123789,237.15204093454,18.284438443844,1294741.1042696,2053.6722344359,2666833.9434373,23.484438443844,0,0
-159.30160103479,237.20348712637,18.288868886889,1294741.1042696,2053.6722344359,2666833.9434373,23.488868886889,0,0
-159.3016008317,237.2549333182,18.293299329933,1294741.1042696,2053.6722344359,2666833.9434373,23.493299329933,0,0
-159.3016006286,237.30637951003,18.297729772977,1294741.1042696,2053.6722344359,2666833.9434373,23.497729772977,0,0
-159.30160042551,237.35782570186,18.302160216022,1294741.1042696,2053.6722344359,2666833.9434373,23.502160216022,0,0
-159.30160022241,237.40927189369,18.306590659066,1294741.1042696,2053.6722344359,2666833.9434373,23.506590659066,0,0
-159.30160001932,237.46071808552,18.31102110211,1294741.1042696,2053.6722344359,2666833.9434373,23.51102110211,0,0
-159.30159981622,237.51216427735,18.315451545155,1294741.1042696,2053.6722344359,2666833.9434373,23.515451545155,0,0
-159.30159961313,237.56361046918,18.319881988199,1294741.1042696,2053.6722344359,2666833.9434373,23.519881988199,0,0
-159.30159941003,237.61505666101,18.324312431243,1294741.1042696,2053.6722344359,2666833.9434373,23.524312431243,0,0
-159.30159920676,237.66650285249,18.328742874287,1296203.5030856,689.04827797238,2658471.9712835,23.528742874287,0,0
-159.301599003,237.71794904303,18.333173317332,1296203.5030856,689.04827797238,2658471.9712835,23.533173317332,0,0
-159.30159879924,237.76939523356,18.337603760376,1296203.5030856,689.04827797238,2658471.9712835,23.537603760376,0,0
-159.30159859548,237.8208414241,18.34203420342,1296203.5030856,689.04827797238,2658471.9712835,23.54203420342,0,0
-159.30159839172,237.87228761464,18.346464646465,1296203.5030856,689.04827797238,2658471.9712835,23.546464646465,0,0
-159.30159818796,237.92373380517,18.350895089509,1296203.5030856,689.04827797238,2658471.9712835,23.550895089509,0,0
-159.3015979842,237.97517999571,18.355325532553,1296203.5030856,689.04827797238,2658471.9712835,23.555325532553,0,0
-159.30159778044,238.02662618624,18.359755975598,1296203.5030856,689.04827797238,2658471.9712835,23.559755975598,0,0
-159.30159757668,238.07807237678,18.364186418642,1296203.5030856,689.04827797238,2658471.9712835,23.564186418642,0,0
-159.30159737292,238.12951856732,18.368616861686,1296203.5030856,689.04827797238,2658471.9712835,23.568616861686,0,0
-159.30159716916,238.18096475785,18.37304730473,1296203.5030856,689.04827797238,2658471.9712835,23.57304730473,0,0
-159.3015969654,238.23241094839,18.377477747775,1296203.5030856,689.04827797238,2658471.9712835,23.577477747775,0,0
-159.30159676165,238.28385713893,18.381908190819,1296203.5030856,689.04827797238,2658471.9712835,23.581908190819,0,0
-159.30159655789,238.33530332946,18.386338633863,1296203.5030856,689.04827797238,2658471.9712835,23.586338633863,0,0
-159.30159635413,238.38674952,18.390769076908,1296203.5030856,689.04827797238,2658471.9712835,23.590769076908,0,0
-159.30159615037,238.43819571054,18.395199519952,1296203.5030856,689.04827797238,2658471.9712835,23.595199519952,0,0
-159.30159594661,238.48964190107,18.399629962996,1296203.5030856,689.04827797238,2658471.9712835,23.599629962996,0,0
-159.30159574285,238.54108809161,18.404060406041,1296203.5030856,689.04827797238,2658471.9712835,23.604060406041,0,0
-159.30159553909,238.59253428215,18.408490849085,1296203.5030856,689.04827797238,2658471.9712835,23.608490849085,0,0
-159.30159533533,238.64398047268,18.412921292129,1296203.5030856,689.04827797238,2658471.9712835,23.612921292129,0,0
-159.30159513157,238.69542666322,18.417351735174,1296203.5030856,689.04827797238,2658471.9712835,23.617351735174,0,0
-159.30159492781,238.74687285376,18.421782178218,1296203.5030856,689.04827797238,2658471.9712835,23.621782178218,0,0
-159.30159472405,238.79831904429,18.426212621262,1296203.5030856,689.04827797238,2658471.9712835,23.626212621262,0,0
-159.30159452029,238.84976523483,18.430643064306,1296203.5030856,689.04827797238,2658471.9712835,23.630643064306,0,0
-159.30159431653,238.90121142537,18.435073507351,1296203.5030856,689.04827797238,2658471.9712835,23.635073507351,0,0
-159.30159411277,238.9526576159,18.439503950395,1296203.5030856,689.04827797238,2658471.9712835,23.639503950395,0,0
-159.30159390901,239.00410380644,18.443934393439,1296203.5030856,689.04827797238,2658471.9712835,23.643934393439,0,0
-159.30159370594,239.05554999754,18.448364836484,1291118.5782474,2183.2504944679,2656591.167913,23.648364836484,0,0
-159.30159350289,239.10699618867,18.452795279528,1291118.5782474,2183.2504944679,2656591.167913,23.652795279528,0,0
-159.30159329984,239.15844237979,18.457225722572,1291118.5782474,2183.2504944679,2656591.167913,23.657225722572,0,0
-159.30159309679,239.20988857091,18.461656165617,1291118.5782474,2183.2504944679,2656591.167913,23.661656165617,0,0
-159.30159289374,239.26133476203,18.466086608661,1291118.5782474,2183.2504944679,2656591.167913,23.666086608661,0,0
-159.30159269069,239.31278095316,18.470517051705,1291118.5782474,2183.2504944679,2656591.167913,23.670517051705,0,0
-159.30159248764,239.36422714428,18.474947494749,1291118.5782474,2183.2504944679,2656591.167913,23.674947494749,0,0
-159.30159228459,239.4156733354,18.479377937794,1291118.5782474,2183.2504944679,2656591.167913,23.679377937794,0,0
-159.30159208154,239.46711952652,18.483808380838,1291118.5782474,2183.2504944679,2656591.167913,23.683808380838,0,0
-159.30159187849,239.51856571764,18.488238823882,1291118.5782474,2183.2504944679,2656591.167913,23.688238823882,0,0
-159.30159167544,239.57001190877,18.492669266927,1291118.5782474,2183.2504944679,2656591.167913,23.692669266927,0,0
-159.30159147239,239.62145809989,18.497099709971,1291118.5782474,2183.2504944679,2656591.167913,23.697099709971,0,0
-159.30159126934,239.67290429101,18.501530153015,1291118.5782474,2183.2504944679,2656591.167913,23.701530153015,0,0
-159.30159106628,239.72435048213,18.50596059606,1291118.5782474,2183.2504944679,2656591.167913,23.70596059606,0,0
-159.30159086323,239.77579667325,18.510391039104,1291118.5782474,2183.2504944679,2656591.167913,23.710391039104,0,0
-159.30159066018,239.82724286438,18.514821482148,1291118.5782474,2183.2504944679,2656591.167913,23.714821482148,0,0
-159.30159045713,239.8786890555,18.519251925193,1291118.5782474,2183.2504944679,2656591.167913,23.719251925193,0,0
-159.30159025408,239.93013524662,18.523682368237,1291118.5782474,2183.2504944679,2656591.167913,23.723682368237,0,0
-159.30159005103,239.98158143774,18.528112811281,1291118.5782474,2183.2504944679,2656591.167913,23.728112811281,0,0
-159.30158984798,240.03302762887,18.532543254325,1291118.5782474,2183.2504944679,2656591.167913,23.732543254325,0,0
-159.30158964493,240.08447381999,18.53697369737,1291118.5782474,2183.2504944679,2656591.167913,23.73697369737,0,0
-159.30158944188,240.13592001111,18.541404140414,1291118.5782474,2183.2504944679,2656591.167913,23.741404140414,0,0
-159.30158923883,240.18736620223,18.545834583458,1291118.5782474,2183.2504944679,2656591.167913,23.745834583458,0,0
-159.30158903578,240.23881239335,18.550265026503,1291118.5782474,2183.2504944679,2656591.167913,23.750265026503,0,0
-159.30158883273,240.29025858448,18.554695469547,1291118.5782474,2183.2504944679,2656591.167913,23.754695469547,0,0
-159.30158862968,240.3417047756,18.559125912591,1291118.5782474,2183.2504944679,2656591.167913,23.759125912591,0,0
-159.30158842663,240.39315096672,18.563556355636,1291118.5782474,2183.2504944679,2656591.167913,23.763556355636,0,0
-159.30158822358,240.44459715784,18.56798679868,1291118.5782474,2183.2504944679,2656591.167913,23.76798679868,0,0
-159.30158802052,240.49604334897,18.572417241724,1291118.5782474,2183.2504944679,2656591.167913,23.772417241724,0,0
-159.30158781747,240.54748954009,18.576847684768,1291118.5782474,2183.2504944679,2656591.167913,23.776847684768,0,0
-159.30158761442,240.59893573121,18.581278127813,1291118.5782474,2183.2504944679,2656591.167913,23.781278127813,0,0
-159.30158741137,240.65038192233,18.585708570857,1291118.5782474,2183.2504944679,2656591.167913,23.785708570857,0,0
-159.30158720832,240.70182811345,18.590139013901,1291118.5782474,2183.2504944679,2656591.167913,23.790139013901,0,0
-159.30158700527,240.75327430458,18.594569456946,1291118.5782474,2183.2504944679,2656591.167913,23.794569456946,0,0
-159.30158680222,240.8047204957,18.59899989999,1291118.5782474,2183.2504944679,2656591.167913,23.79899989999,0,0
-159.30158659917,240.85616668682,18.603430343034,1291118.5782474,2183.2504944679,2656591.167913,23.803430343034,0,0
-159.30158639612,240.90761287794,18.607860786079,1291118.5782474,2183.2504944679,2656591.167913,23.807860786079,0,0
-159.30158619307,240.95905906906,18.612291229123,1291118.5782474,2183.2504944679,2656591.167913,23.812291229123,0,0
-159.30158599002,241.01050526019,18.616721672167,1291118.5782474,2183.2504944679,2656591.167913,23.816721672167,0,0
-159.30158578697,241.06195145131,18.621152115212,1291118.5782474,2183.2504944679,2656591.167913,23.821152115212,0,0
-159.30158558392,241.11339764243,18.625582558256,1291118.5782474,2183.2504944679,2656591.167913,23.825582558256,0,0
-159.30158538087,241.16484383355,18.6300130013,1291118.5782474,2183.2504944679,2656591.167913,23.8300130013,0,0
-159.30158517782,241.21629002468,18.634443444344,1291118.5782474,2183.2504944679,2656591.167913,23.834443444344,0,0
-159.30158497476,241.2677362158,18.638873887389,1291118.5782474,2183.2504944679,2656591.167913,23.838873887389,0,0
-159.30158477171,241.31918240692,18.643304330433,1291118.5782474,2183.2504944679,2656591.167913,23.843304330433,0,0
-159.30158456866,241.37062859804,18.647734773477,1291118.5782474,2183.2504944679,2656591.167913,23.847734773477,0,0
-159.30158436561,241.42207478916,18.652165216522,1291118.5782474,2183.2504944679,2656591.167913,23.852165216522,0,0
-159.30158416256,241.47352098029,18.656595659566,1291118.5782474,2183.2504944679,2656591.167913,23.856595659566,0,0
-159.30158395951,241.52496717141,18.66102610261,1291118.5782474,2183.2504944679,2656591.167913,23.86102610261,0,0
-159.30158375646,241.57641336253,18.665456545655,1291118.5782474,2183.2504944679,2656591.167913,23.865456545655,0,0
-159.30158355341,241.62785955365,18.669886988699,1291118.5782474,2183.2504944679,2656591.167913,23.869886988699,0,0
-159.30158335036,241.67930574477,18.674317431743,1291118.5782474,2183.2504944679,2656591.167913,23.874317431743,0,0
-159.30158314731,241.7307519359,18.678747874787,1291118.5782474,2183.2504944679,2656591.167913,23.878747874787,0,0
-159.30158294426,241.78219812702,18.683178317832,1291118.5782474,2183.2504944679,2656591.167913,23.883178317832,0,0
-159.30158274121,241.83364431814,18.687608760876,1291118.5782474,2183.2504944679,2656591.167913,23.887608760876,0,0
-159.30158253816,241.88509050926,18.69203920392,1291118.5782474,2183.2504944679,2656591.167913,23.89203920392,0,0
-159.30158233511,241.93653670039,18.696469646965,1291118.5782474,2183.2504944679,2656591.167913,23.896469646965,0,0
-159.30158213206,241.98798289151,18.700900090009,1291118.5782474,2183.2504944679,2656591.167913,23.900900090009,0,0
-159.301581929,242.03942908263,18.705330533053,1291118.5782474,2183.2504944679,2656591.167913,23.905330533053,0,0
-159.30158172595,242.09087527375,18.709760976098,1291118.5782474,2183.2504944679,2656591.167913,23.909760976098,0,0
-159.3015815229,242.14232146487,18.714191419142,1291118.5782474,2183.2504944679,2656591.167913,23.914191419142,0,0
-159.30158131985,242.193767656,18.718621862186,1291118.5782474,2183.2504944679,2656591.167913,23.918621862186,0,0
-159.3015811168,242.24521384712,18.723052305231,1291118.5782474,2183.2504944679,2656591.167913,23.923052305231,0,0
-159.30158091375,242.29666003824,18.727482748275,1291118.5782474,2183.2504944679,2656591.167913,23.927482748275,0,0
-159.3015807107,242.34810622936,18.731913191319,1291118.5782474,2183.2504944679,2656591.167913,23.931913191319,0,0
-159.30158050765,242.39955242049,18.736343634363,1291118.5782474,2183.2504944679,2656591.167913,23.936343634363,0,0
-159.3015803046,242.45099861161,18.740774077408,1291118.5782474,2183.2504944679,2656591.167913,23.940774077408,0,0
-159.30158010155,242.50244480273,18.745204520452,1291118.5782474,2183.2504944679,2656591.167913,23.945204520452,0,0
-159.3015798985,242.55389099385,18.749634963496,1291118.5782474,2183.2504944679,2656591.167913,23.949634963496,0,0
-159.30157969545,242.60533718497,18.754065406541,1291118.5782474,2183.2504944679,2656591.167913,23.954065406541,0,0
-159.3015794924,242.6567833761,18.758495849585,1291118.5782474,2183.2504944679,2656591.167913,23.958495849585,0,0
-159.30157928935,242.70822956722,18.762926292629,1291118.5782474,2183.2504944679,2656591.167913,23.962926292629,0,0
-159.3015790863,242.75967575834,18.767356735674,1291118.5782474,2183.2504944679,2656591.167913,23.967356735674,0,0
-159.30157888303,242.81112194954,18.771787178718,1294287.7224001,-2958.3490042934,2651827.7075408,23.971787178718,0,0
-159.30157867923,242.86256814095,18.776217621762,1294287.7224001,-2958.3490042934,2651827.7075408,23.976217621762,0,0
-159.30157847543,242.91401433235,18.780648064806,1294287.7224001,-2958.3490042934,2651827.7075408,23.980648064806,0,0
-159.30157827163,242.96546052376,18.785078507851,1294287.7224001,-2958.3490042934,2651827.7075408,23.985078507851,0,0
-159.30157806783,243.01690671516,18.789508950895,1294287.7224001,-2958.3490042934,2651827.7075408,23.989508950895,0,0
-159.30157786403,243.06835290656,18.793939393939,1294287.7224001,-2958.3490042934,2651827.7075408,23.993939393939,0,0
-159.30157766023,243.11979909797,18.798369836984,1294287.7224001,-2958.3490042934,2651827.7075408,23.998369836984,0,0
-159.30157745643,243.17124528937,18.802800280028,1294287.7224001,-2958.3490042934,2651827.7075408,24.002800280028,0,0
-159.30157725263,243.22269148077,18.807230723072,1294287.7224001,-2958.3490042934,2651827.7075408,24.007230723072,0,0
-159.30157704883,243.27413767218,18.811661166117,1294287.7224001,-2958.3490042934,2651827.7075408,24.011661166117,0,0
-159.30157684503,243.32558386358,18.816091609161,1294287.7224001,-2958.3490042934,2651827.7075408,24.016091609161,0,0
-159.30157664123,243.37703005499,18.820522052205,1294287.7224001,-2958.3490042934,2651827.7075408,24.020522052205,0,0
-159.30157643743,243.42847624639,18.82495249525,1294287.7224001,-2958.3490042934,2651827.7075408,24.02495249525,0,0
-159.30157623363,243.47992243779,18.829382938294,1294287.7224001,-2958.3490042934,2651827.7075408,24.029382938294,0,0
-159.30157602983,243.5313686292,18.833813381338,1294287.7224001,-2958.3490042934,2651827.7075408,24.033813381338,0,0
-159.30157582604,243.5828148206,18.838243824382,1294287.7224001,-2958.3490042934,2651827.7075408,24.038243824382,0,0
-159.30157562224,243.634261012,18.842674267427,1294287.7224001,-2958.3490042934,2651827.7075408,24.042674267427,0,0
-159.30157541844,243.68570720341,18.847104710471,1294287.7224001,-2958.3490042934,2651827.7075408,24.047104710471,0,0
-159.30157521464,243.73715339481,18.851535153515,1294287.7224001,-2958.3490042934,2651827.7075408,24.051535153515,0,0
-159.30157501084,243.78859958622,18.85596559656,1294287.7224001,-2958.3490042934,2651827.7075408,24.05596559656,0,0
-159.30157480704,243.84004577762,18.860396039604,1294287.7224001,-2958.3490042934,2651827.7075408,24.060396039604,0,0
-159.30157460324,243.89149196902,18.864826482648,1294287.7224001,-2958.3490042934,2651827.7075408,24.064826482648,0,0
-159.30157439944,243.94293816043,18.869256925693,1294287.7224001,-2958.3490042934,2651827.7075408,24.069256925693,0,0
-159.30157419564,243.99438435183,18.873687368737,1294287.7224001,-2958.3490042934,2651827.7075408,24.073687368737,0,0
-159.30157399184,244.04583054323,18.878117811781,1294287.7224001,-2958.3490042934,2651827.7075408,24.078117811781,0,0
-159.30157378804,244.09727673464,18.882548254825,1294287.7224001,-2958.3490042934,2651827.7075408,24.082548254825,0,0
-159.30157358424,244.14872292604,18.88697869787,1294287.7224001,-2958.3490042934,2651827.7075408,24.08697869787,0,0
-159.30157338044,244.20016911745,18.891409140914,1294287.7224001,-2958.3490042934,2651827.7075408,24.091409140914,0,0
-159.30157317664,244.25161530885,18.895839583958,1294287.7224001,-2958.3490042934,2651827.7075408,24.095839583958,0,0
-159.30157297284,244.30306150025,18.900270027003,1294287.7224001,-2958.3490042934,2651827.7075408,24.100270027003,0,0
-159.30157276905,244.35450769166,18.904700470047,1294287.7224001,-2958.3490042934,2651827.7075408,24.104700470047,0,0
-159.30157256525,244.40595388306,18.909130913091,1294287.7224001,-2958.3490042934,2651827.7075408,24.109130913091,0,0
-159.30157236145,244.45740007446,18.913561356136,1294287.7224001,-2958.3490042934,2651827.7075408,24.113561356136,0,0
-159.30157215765,244.50884626587,18.91799179918,1294287.7224001,-2958.3490042934,2651827.7075408,24.11799179918,0,0
-159.30157195385,244.56029245727,18.922422242224,1294287.7224001,-2958.3490042934,2651827.7075408,24.122422242224,0,0
-159.30157175005,244.61173864868,18.926852685269,1294287.7224001,-2958.3490042934,2651827.7075408,24.126852685269,0,0
-159.30157154625,244.66318484008,18.931283128313,1294287.7224001,-2958.3490042934,2651827.7075408,24.131283128313,0,0
-159.30157134245,244.71463103148,18.935713571357,1294287.7224001,-2958.3490042934,2651827.7075408,24.135713571357,0,0
-159.30157113865,244.76607722289,18.940144014401,1294287.7224001,-2958.3490042934,2651827.7075408,24.140144014401,0,0
-159.30157093485,244.81752341429,18.944574457446,1294287.7224001,-2958.3490042934,2651827.7075408,24.144574457446,0,0
-159.30157073105,244.86896960569,18.94900490049,1294287.7224001,-2958.3490042934,2651827.7075408,24.14900490049,0,0
-159.30157052725,244.9204157971,18.953435343534,1294287.7224001,-2958.3490042934,2651827.7075408,24.153435343534,0,0
-159.30157032345,244.9718619885,18.957865786579,1294287.7224001,-2958.3490042934,2651827.7075408,24.157865786579,0,0
-159.30157011965,245.02330817991,18.962296229623,1294287.7224001,-2958.3490042934,2651827.7075408,24.162296229623,0,0
-159.30156991585,245.07475437131,18.966726672667,1294287.7224001,-2958.3490042934,2651827.7075408,24.166726672667,0,0
-159.30156971206,245.12620056271,18.971157115712,1294287.7224001,-2958.3490042934,2651827.7075408,24.171157115712,0,0
-159.30156950826,245.17764675412,18.975587558756,1294287.7224001,-2958.3490042934,2651827.7075408,24.175587558756,0,0
-159.30156930446,245.22909294552,18.9800180018,1294287.7224001,-2958.3490042934,2651827.7075408,24.1800180018,0,0
-159.30156910066,245.28053913692,18.984448444844,1294287.7224001,-2958.3490042934,2651827.7075408,24.184448444844,0,0
-159.30156889686,245.33198532833,18.988878887889,1294287.7224001,-2958.3490042934,2651827.7075408,24.188878887889,0,0
-159.30156869306,245.38343151973,18.993309330933,1294287.7224001,-2958.3490042934,2651827.7075408,24.193309330933,0,0
-159.30156848926,245.43487771114,18.997739773977,1294287.7224001,-2958.3490042934,2651827.7075408,24.197739773977,0,0
-159.30156828546,245.48632390254,19.002170217022,1294287.7224001,-2958.3490042934,2651827.7075408,24.202170217022,0,0
-159.30156808166,245.53777009394,19.006600660066,1294287.7224001,-2958.3490042934,2651827.7075408,24.206600660066,0,0
-159.30156787786,245.58921628535,19.01103110311,1294287.7224001,-2958.3490042934,2651827.7075408,24.21103110311,0,0
-159.30156767406,245.64066247675,19.015461546155,1294287.7224001,-2958.3490042934,2651827.7075408,24.215461546155,0,0
-159.30156747026,245.69210866815,19.019891989199,1294287.7224001,-2958.3490042934,2651827.7075408,24.219891989199,0,0
-159.30156726646,245.74355485956,19.024322432243,1294287.7224001,-2958.3490042934,2651827.7075408,24.224322432243,0,0
-159.30156706266,245.79500105096,19.028752875288,1294287.7224001,-2958.3490042934,2651827.7075408,24.228752875288,0,0
-159.30156685886,245.84644724237,19.033183318332,1294287.7224001,-2958.3490042934,2651827.7075408,24.233183318332,0,0
-159.30156665507,245.89789343377,19.037613761376,1294287.7224001,-2958.3490042934,2651827.7075408,24.237613761376,0,0
-159.30156645127,245.94933962517,19.04204420442,1294287.7224001,-2958.3490042934,2651827.7075408,24.24204420442,0,0
-159.30156624747,246.00078581658,19.046474647465,1294287.7224001,-2958.3490042934,2651827.7075408,24.246474647465,0,0
-159.30156604367,246.05223200798,19.050905090509,1294287.7224001,-2958.3490042934,2651827.7075408,24.250905090509,0,0
-159.30156583987,246.10367819938,19.055335533553,1294287.7224001,-2958.3490042934,2651827.7075408,24.255335533553,0,0
-159.30156563607,246.15512439079,19.059765976598,1294287.7224001,-2958.3490042934,2651827.7075408,24.259765976598,0,0
-159.30156543227,246.20657058219,19.064196419642,1294287.7224001,-2958.3490042934,2651827.7075408,24.264196419642,0,0
-159.30156522847,246.2580167736,19.068626862686,1294287.7224001,-2958.3490042934,2651827.7075408,24.268626862686,0,0
-159.30156502467,246.309462965,19.073057305731,1294287.7224001,-2958.3490042934,2651827.7075408,24.273057305731,0,0
-159.30156482087,246.3609091564,19.077487748775,1294287.7224001,-2958.3490042934,2651827.7075408,24.277487748775,0,0
-159.30156461707,246.41235534781,19.081918191819,1294287.7224001,-2958.3490042934,2651827.7075408,24.281918191819,0,0
-159.30156441327,246.46380153921,19.086348634863,1294287.7224001,-2958.3490042934,2651827.7075408,24.286348634863,0,0
-159.30156420947,246.51524773061,19.090779077908,1294287.7224001,-2958.3490042934,2651827.7075408,24.290779077908,0,0
-159.30156400567,246.56669392202,19.095209520952,1294287.7224001,-2958.3490042934,2651827.7075408,24.295209520952,0,0
-159.30156380187,246.61814011342,19.099639963996,1294287.7224001,-2958.3490042934,2651827.7075408,24.299639963996,0,0
-159.30156359808,246.66958630483,19.104070407041,1294287.7224001,-2958.3490042934,2651827.7075408,24.304070407041,0,0
-159.30156339428,246.72103249623,19.108500850085,1294287.7224001,-2958.3490042934,2651827.7075408,24.308500850085,0,0
-159.30156319048,246.77247868763,19.112931293129,1294287.7224001,-2958.3490042934,2651827.7075408,24.312931293129,0,0
-159.30156298668,246.82392487904,19.117361736174,1294287.7224001,-2958.3490042934,2651827.7075408,24.317361736174,0,0
-159.30156278288,246.87537107044,19.121792179218,1294287.7224001,-2958.3490042934,2651827.7075408,24.321792179218,0,0
-159.30156257908,246.92681726184,19.126222622262,1294287.7224001,-2958.3490042934,2651827.7075408,24.326222622262,0,0
-159.30156237528,246.97826345325,19.130653065307,1294287.7224001,-2958.3490042934,2651827.7075408,24.330653065307,0,0
-159.30156217148,247.02970964465,19.135083508351,1294287.7224001,-2958.3490042934,2651827.7075408,24.335083508351,0,0
-159.30156196768,247.08115583605,19.139513951395,1294287.7224001,-2958.3490042934,2651827.7075408,24.339513951395,0,0
-159.30156176388,247.13260202746,19.143944394439,1294287.7224001,-2958.3490042934,2651827.7075408,24.343944394439,0,0
-159.30156156008,247.18404821886,19.148374837484,1294287.7224001,-2958.3490042934,2651827.7075408,24.348374837484,0,0
-159.30156135628,247.23549441027,19.152805280528,1294287.7224001,-2958.3490042934,2651827.7075408,24.352805280528,0,0
-159.30156115248,247.28694060167,19.157235723572,1294287.7224001,-2958.3490042934,2651827.7075408,24.357235723572,0,0
-159.30156094868,247.33838679307,19.161666166617,1294287.7224001,-2958.3490042934,2651827.7075408,24.361666166617,0,0
-159.30156074488,247.38983298448,19.166096609661,1294287.7224001,-2958.3490042934,2651827.7075408,24.366096609661,0,0
-159.30156054109,247.44127917588,19.170527052705,1294287.7224001,-2958.3490042934,2651827.7075408,24.370527052705,0,0
-159.30156033729,247.49272536728,19.17495749575,1294287.7224001,-2958.3490042934,2651827.7075408,24.37495749575,0,0
-159.30156013349,247.54417155869,19.179387938794,1294287.7224001,-2958.3490042934,2651827.7075408,24.379387938794,0,0
-159.30155992969,247.59561775009,19.183818381838,1294287.7224001,-2958.3490042934,2651827.7075408,24.383818381838,0,0
-159.30155972589,247.6470639415,19.188248824882,1294287.7224001,-2958.3490042934,2651827.7075408,24.388248824882,0,0
-159.30155952209,247.6985101329,19.192679267927,1294287.7224001,-2958.3490042934,2651827.7075408,24.392679267927,0,0
-159.30155931829,247.7499563243,19.197109710971,1294287.7224001,-2958.3490042934,2651827.7075408,24.397109710971,0,0
-159.30155911449,247.80140251571,19.201540154015,1294287.7224001,-2958.3490042934,2651827.7075408,24.401540154015,0,0
-159.30155891069,247.85284870711,19.20597059706,1294287.7224001,-2958.3490042934,2651827.7075408,24.40597059706,0,0
-159.30155870689,247.90429489851,19.210401040104,1294287.7224001,-2958.3490042934,2651827.7075408,24.410401040104,0,0
-159.30155850309,247.95574108992,19.214831483148,1294287.7224001,-2958.3490042934,2651827.7075408,24.414831483148,0,0
-159.30155829929,248.00718728132,19.219261926193,1294287.7224001,-2958.3490042934,2651827.7075408,24.419261926193,0,0
-159.30155809549,248.05863347273,19.223692369237,1294287.7224001,-2958.3490042934,2651827.7075408,24.423692369237,0,0
-159.30155789169,248.11007966413,19.228122812281,1294287.7224001,-2958.3490042934,2651827.7075408,24.428122812281,0,0
-159.30155768789,248.16152585553,19.232553255326,1294287.7224001,-2958.3490042934,2651827.7075408,24.432553255326,0,0
-159.3015574841,248.21297204694,19.23698369837,1294287.7224001,-2958.3490042934,2651827.7075408,24.43698369837,0,0
-159.3015572803,248.26441823834,19.241414141414,1294287.7224001,-2958.3490042934,2651827.7075408,24.441414141414,0,0
-159.3015570765,248.31586442974,19.245844584458,1294287.7224001,-2958.3490042934,2651827.7075408,24.445844584458,0,0
-159.3015568727,248.36731062115,19.250275027503,1294287.7224001,-2958.3490042934,2651827.7075408,24.450275027503,0,0
-159.3015566689,248.41875681255,19.254705470547,1294287.7224001,-2958.3490042934,2651827.7075408,24.454705470547,0,0
-159.3015564651,248.47020300396,19.259135913591,1294287.7224001,-2958.3490042934,2651827.7075408,24.459135913591,0,0
-159.3015562613,248.52164919536,19.263566356636,1294287.7224001,-2958.3490042934,2651827.7075408,24.463566356636,0,0
-159.3015560575,248.57309538676,19.26799679968,1294287.7224001,-2958.3490042934,2651827.7075408,24.46799679968,0,0
-159.3015558537,248.62454157817,19.272427242724,1294287.7224001,-2958.3490042934,2651827.7075408,24.472427242724,0,0
-159.3015556499,248.67598776957,19.276857685769,1294287.7224001,-2958.3490042934,2651827.7075408,24.476857685769,0,0
-159.3015554461,248.72743396097,19.281288128813,1294287.7224001,-2958.3490042934,2651827.7075408,24.481288128813,0,0
-159.3015552423,248.77888015238,19.285718571857,1294287.7224001,-2958.3490042934,2651827.7075408,24.485718571857,0,0
-159.3015550385,248.83032634378,19.290149014901,1294287.7224001,-2958.3490042934,2651827.7075408,24.490149014901,0,0
-159.3015548347,248.88177253519,19.294579457946,1294287.7224001,-2958.3490042934,2651827.7075408,24.494579457946,0,0
-159.3015546309,248.93321872659,19.29900990099,1294287.7224001,-2958.3490042934,2651827.7075408,24.49900990099,0,0
-159.30155442711,248.98466491799,19.303440344034,1294287.7224001,-2958.3490042934,2651827.7075408,24.503440344034,0,0
-159.30155422331,249.0361111094,19.307870787079,1294287.7224001,-2958.3490042934,2651827.7075408,24.507870787079,0,0
-159.30155401951,249.0875573008,19.312301230123,1294287.7224001,-2958.3490042934,2651827.7075408,24.512301230123,0,0
-159.30155381571,249.1390034922,19.316731673167,1294287.7224001,-2958.3490042934,2651827.7075408,24.516731673167,0,0
-159.30155361191,249.19044968361,19.321162116212,1294287.7224001,-2958.3490042934,2651827.7075408,24.521162116212,0,0
-159.30155340811,249.24189587501,19.325592559256,1294287.7224001,-2958.3490042934,2651827.7075408,24.525592559256,0,0
-159.30155320431,249.29334206642,19.3300230023,1294287.7224001,-2958.3490042934,2651827.7075408,24.5300230023,0,0
-159.30155300051,249.34478825782,19.334453445345,1294287.7224001,-2958.3490042934,2651827.7075408,24.534453445345,0,0
-159.30155279671,249.39623444922,19.338883888389,1294287.7224001,-2958.3490042934,2651827.7075408,24.538883888389,0,0
-159.30155259291,249.44768064063,19.343314331433,1294287.7224001,-2958.3490042934,2651827.7075408,24.543314331433,0,0
-159.30155238911,249.49912683203,19.347744774477,1294287.7224001,-2958.3490042934,2651827.7075408,24.547744774477,0,0
-159.30155218531,249.55057302343,19.352175217522,1294287.7224001,-2958.3490042934,2651827.7075408,24.552175217522,0,0
-159.30155198151,249.60201921484,19.356605660566,1294287.7224001,-2958.3490042934,2651827.7075408,24.556605660566,0,0
-159.30155177771,249.65346540624,19.36103610361,1294287.7224001,-2958.3490042934,2651827.7075408,24.56103610361,0,0
-159.30155157391,249.70491159765,19.365466546655,1294287.7224001,-2958.3490042934,2651827.7075408,24.565466546655,0,0
-159.30155137012,249.75635778905,19.369896989699,1294287.7224001,-2958.3490042934,2651827.7075408,24.569896989699,0,0
-159.30155116632,249.80780398045,19.374327432743,1294287.7224001,-2958.3490042934,2651827.7075408,24.574327432743,0,0
-159.30155096252,249.85925017186,19.378757875788,1294287.7224001,-2958.3490042934,2651827.7075408,24.578757875788,0,0
-159.30155075872,249.91069636326,19.383188318832,1294287.7224001,-2958.3490042934,2651827.7075408,24.583188318832,0,0
-159.30155055492,249.96214255466,19.387618761876,1294287.7224001,-2958.3490042934,2651827.7075408,24.587618761876,0,0
-159.30155035112,250.01358874607,19.39204920492,1294287.7224001,-2958.3490042934,2651827.7075408,24.59204920492,0,0
-159.30155014732,250.06503493747,19.396479647965,1294287.7224001,-2958.3490042934,2651827.7075408,24.596479647965,0,0
-159.30154994352,250.11648112888,19.400910091009,1294287.7224001,-2958.3490042934,2651827.7075408,24.600910091009,0,0
-159.30154973972,250.16792732028,19.405340534053,1294287.7224001,-2958.3490042934,2651827.7075408,24.605340534053,0,0
-159.30154953592,250.21937351168,19.409770977098,1294287.7224001,-2958.3490042934,2651827.7075408,24.609770977098,0,0
-159.30154933212,250.27081970309,19.414201420142,1294287.7224001,-2958.3490042934,2651827.7075408,24.614201420142,0,0
-159.30154912832,250.32226589449,19.418631863186,1294287.7224001,-2958.3490042934,2651827.7075408,24.618631863186,0,0
-159.30154892452,250.37371208589,19.423062306231,1294287.7224001,-2958.3490042934,2651827.7075408,24.623062306231,0,0
-159.30154872072,250.4251582773,19.427492749275,1294287.7224001,-2958.3490042934,2651827.7075408,24.627492749275,0,0
-159.30154851692,250.4766044687,19.431923192319,1294287.7224001,-2958.3490042934,2651827.7075408,24.631923192319,0,0
-159.30154831313,250.52805066011,19.436353635364,1294287.7224001,-2958.3490042934,2651827.7075408,24.636353635364,0,0
-159.30154810933,250.57949685151,19.440784078408,1294287.7224001,-2958.3490042934,2651827.7075408,24.640784078408,0,0
-159.30154790553,250.63094304291,19.445214521452,1294287.7224001,-2958.3490042934,2651827.7075408,24.645214521452,0,0
-159.30154770173,250.68238923432,19.449644964496,1294287.7224001,-2958.3490042934,2651827.7075408,24.649644964496,0,0
-159.30154749793,250.73383542572,19.454075407541,1294287.7224001,-2958.3490042934,2651827.7075408,24.654075407541,0,0
-159.30154729413,250.78528161712,19.458505850585,1294287.7224001,-2958.3490042934,2651827.7075408,24.658505850585,0,0
-159.30154709033,250.83672780853,19.462936293629,1294287.7224001,-2958.3490042934,2651827.7075408,24.662936293629,0,0
-159.30154688653,250.88817399993,19.467366736674,1294287.7224001,-2958.3490042934,2651827.7075408,24.667366736674,0,0
-159.30154668273,250.93962019134,19.471797179718,1294287.7224001,-2958.3490042934,2651827.7075408,24.671797179718,0,0
-159.30154647893,250.99106638274,19.476227622762,1294287.7224001,-2958.3490042934,2651827.7075408,24.676227622762,0,0
-159.30154627513,251.04251257414,19.480658065807,1294287.7224001,-2958.3490042934,2651827.7075408,24.680658065807,0,0
-159.30154607133,251.09395876555,19.485088508851,1294287.7224001,-2958.3490042934,2651827.7075408,24.685088508851,0,0
-159.30154586753,251.14540495695,19.489518951895,1294287.7224001,-2958.3490042934,2651827.7075408,24.689518951895,0,0
-159.30154566373,251.19685114835,19.493949394939,1294287.7224001,-2958.3490042934,2651827.7075408,24.693949394939,0,0
-159.30154545993,251.24829733976,19.498379837984,1294287.7224001,-2958.3490042933,2651827.7075408,24.698379837984,0,0
-159.30154525614,251.29974353116,19.502810281028,1294287.7224001,-2958.3490042933,2651827.7075408,24.702810281028,0,0
-159.30154505234,251.35118972256,19.507240724072,1294287.7224001,-2958.3490042933,2651827.7075408,24.707240724072,0,0
-159.30154484854,251.40263591397,19.511671167117,1294287.7224001,-2958.3490042933,2651827.7075408,24.711671167117,0,0
-159.30154464474,251.45408210537,19.516101610161,1294287.7224001,-2958.3490042933,2651827.7075408,24.716101610161,0,0
-159.30154444094,251.50552829678,19.520532053205,1294287.7224001,-2958.3490042933,2651827.7075408,24.720532053205,0,0
-159.30154423714,251.55697448818,19.52496249625,1294287.7224001,-2958.3490042933,2651827.7075408,24.72496249625,0,0
-159.30154403334,251.60842067958,19.529392939294,1294287.7224001,-2958.3490042933,2651827.7075408,24.729392939294,0,0
-159.30154382954,251.65986687099,19.533823382338,1294287.7224001,-2958.3490042933,2651827.7075408,24.733823382338,0,0
-159.30154362574,251.71131306239,19.538253825383,1294287.7224001,-2958.3490042933,2651827.7075408,24.738253825383,0,0
-159.30154342194,251.76275925379,19.542684268427,1294287.7224001,-2958.3490042933,2651827.7075408,24.742684268427,0,0
-159.30154321814,251.8142054452,19.547114711471,1294287.7224001,-2958.3490042933,2651827.7075408,24.747114711471,0,0
-159.30154301434,251.8656516366,19.551545154515,1294287.7224001,-2958.3490042933,2651827.7075408,24.751545154515,0,0
-159.30154281054,251.91709782801,19.55597559756,1294287.7224001,-2958.3490042933,2651827.7075408,24.75597559756,0,0
-159.30154260674,251.96854401941,19.560406040604,1294287.7224001,-2958.3490042933,2651827.7075408,24.760406040604,0,0
-159.30154240294,252.01999021081,19.564836483648,1294287.7224001,-2958.3490042933,2651827.7075408,24.764836483648,0,0
-159.30154219915,252.07143640222,19.569266926693,1294287.7224001,-2958.3490042933,2651827.7075408,24.769266926693,0,0
-159.30154199572,252.12288259496,19.573697369737,1290286.3391235,888.29844518499,2647545.7743629,24.773697369737,0,0
-159.30154179233,252.17432878785,19.578127812781,1290286.3391235,888.29844518499,2647545.7743629,24.778127812781,0,0
-159.30154158894,252.22577498074,19.582558255826,1290286.3391235,888.29844518499,2647545.7743629,24.782558255826,0,0
-159.30154138556,252.27722117363,19.58698869887,1290286.3391235,888.29844518499,2647545.7743629,24.78698869887,0,0
-159.30154118217,252.32866736652,19.591419141914,1290286.3391235,888.29844518499,2647545.7743629,24.791419141914,0,0
-159.30154097878,252.38011355941,19.595849584958,1290286.3391235,888.29844518499,2647545.7743629,24.795849584958,0,0
-159.3015407754,252.4315597523,19.600280028003,1290286.3391235,888.29844518499,2647545.7743629,24.800280028003,0,0
-159.30154057201,252.48300594519,19.604710471047,1290286.3391235,888.29844518499,2647545.7743629,24.804710471047,0,0
-159.30154036862,252.53445213808,19.609140914091,1290286.3391235,888.29844518499,2647545.7743629,24.809140914091,0,0
-159.30154016524,252.58589833097,19.613571357136,1290286.3391235,888.29844518499,2647545.7743629,24.813571357136,0,0
-159.30153996185,252.63734452386,19.61800180018,1290286.3391235,888.29844518499,2647545.7743629,24.81800180018,0,0
-159.30153975846,252.68879071675,19.622432243224,1290286.3391235,888.29844518499,2647545.7743629,24.822432243224,0,0
-159.30153955508,252.74023690964,19.626862686269,1290286.3391235,888.29844518499,2647545.7743629,24.826862686269,0,0
-159.30153935169,252.79168310253,19.631293129313,1290286.3391235,888.29844518499,2647545.7743629,24.831293129313,0,0
-159.30153914831,252.84312929542,19.635723572357,1290286.3391235,888.29844518499,2647545.7743629,24.835723572357,0,0
-159.30153894492,252.89457548831,19.640154015402,1290286.3391235,888.29844518499,2647545.7743629,24.840154015402,0,0
-159.30153874153,252.9460216812,19.644584458446,1290286.3391235,888.29844518499,2647545.7743629,24.844584458446,0,0
-159.30153853815,252.99746787409,19.64901490149,1290286.3391235,888.29844518499,2647545.7743629,24.84901490149,0,0
-159.30153833476,253.04891406698,19.653445344534,1290286.3391235,888.29844518499,2647545.7743629,24.853445344534,0,0
-159.30153813137,253.10036025987,19.657875787579,1290286.3391235,888.29844518499,2647545.7743629,24.857875787579,0,0
-159.30153792799,253.15180645276,19.662306230623,1290286.3391235,888.29844518499,2647545.7743629,24.862306230623,0,0
-159.3015377246,253.20325264565,19.666736673667,1290286.3391235,888.29844518499,2647545.7743629,24.866736673667,0,0
-159.30153752121,253.25469883854,19.671167116712,1290286.3391235,888.29844518499,2647545.7743629,24.871167116712,0,0
-159.30153731783,253.30614503143,19.675597559756,1290286.3391235,888.29844518499,2647545.7743629,24.875597559756,0,0
-159.30153711444,253.35759122432,19.6800280028,1290286.3391235,888.29844518499,2647545.7743629,24.8800280028,0,0
-159.30153691105,253.40903741721,19.684458445845,1290286.3391235,888.29844518499,2647545.7743629,24.884458445845,0,0
-159.30153670767,253.4604836101,19.688888888889,1290286.3391235,888.29844518499,2647545.7743629,24.888888888889,0,0
-159.30153650428,253.51192980299,19.693319331933,1290286.3391235,888.29844518499,2647545.7743629,24.893319331933,0,0
-159.30153630089,253.56337599588,19.697749774977,1290286.3391235,888.29844518499,2647545.7743629,24.897749774977,0,0
-159.30153609751,253.61482218877,19.702180218022,1290286.3391235,888.29844518499,2647545.7743629,24.902180218022,0,0
-159.30153589412,253.66626838166,19.706610661066,1290286.3391235,888.29844518499,2647545.7743629,24.906610661066,0,0
-159.30153569073,253.71771457455,19.71104110411,1290286.3391235,888.29844518499,2647545.7743629,24.91104110411,0,0
-159.30153548735,253.76916076744,19.715471547155,1290286.3391235,888.29844518499,2647545.7743629,24.915471547155,0,0
-159.30153528396,253.82060696033,19.719901990199,1290286.3391235,888.29844518499,2647545.7743629,24.919901990199,0,0
-159.30153508057,253.87205315322,19.724332433243,1290286.3391235,888.29844518499,2647545.7743629,24.924332433243,0,0
-159.30153487719,253.92349934611,19.728762876288,1290286.3391235,888.29844518499,2647545.7743629,24.928762876288,0,0
-159.3015346738,253.97494553899,19.733193319332,1290286.3391235,888.29844518499,2647545.7743629,24.933193319332,0,0
-159.30153447042,254.02639173188,19.737623762376,1290286.3391235,888.29844518499,2647545.7743629,24.937623762376,0,0
-159.30153426703,254.07783792477,19.742054205421,1290286.3391235,888.29844518499,2647545.7743629,24.942054205421,0,0
-159.30153406364,254.12928411766,19.746484648465,1290286.3391235,888.29844518499,2647545.7743629,24.946484648465,0,0
-159.30153386026,254.18073031055,19.750915091509,1290286.3391235,888.29844518499,2647545.7743629,24.950915091509,0,0
-159.30153365687,254.23217650344,19.755345534553,1290286.3391235,888.29844518499,2647545.7743629,24.955345534553,0,0
-159.30153345348,254.28362269633,19.759775977598,1290286.3391235,888.29844518499,2647545.7743629,24.959775977598,0,0
-159.3015332501,254.33506888922,19.764206420642,1290286.3391235,888.29844518499,2647545.7743629,24.964206420642,0,0
-159.30153304671,254.38651508211,19.768636863686,1290286.3391235,888.29844518499,2647545.7743629,24.968636863686,0,0
-159.30153284332,254.437961275,19.773067306731,1290286.3391235,888.29844518499,2647545.7743629,24.973067306731,0,0
-159.30153263994,254.48940746789,19.777497749775,1290286.3391235,888.29844518499,2647545.7743629,24.977497749775,0,0
-159.30153243655,254.54085366078,19.781928192819,1290286.3391235,888.29844518499,2647545.7743629,24.981928192819,0,0
-159.30153223316,254.59229985367,19.786358635864,1290286.3391235,888.29844518499,2647545.7743629,24.986358635864,0,0
-159.30153202978,254.64374604656,19.790789078908,1290286.3391235,888.29844518499,2647545.7743629,24.990789078908,0,0
-159.30153182639,254.69519223945,19.795219521952,1290286.3391235,888.29844518499,2647545.7743629,24.995219521952,0,0
-159.301531623,254.74663843234,19.799649964996,1290286.3391235,888.29844518499,2647545.7743629,24.999649964996,0,0
-159.30153141962,254.79808462523,19.804080408041,1290286.3391235,888.29844518499,2647545.7743629,25.004080408041,0,0
-159.30153121623,254.84953081812,19.808510851085,1290286.3391235,888.29844518499,2647545.7743629,25.008510851085,0,0
-159.30153101284,254.90097701101,19.812941294129,1290286.3391235,888.29844518499,2647545.7743629,25.012941294129,0,0
-159.30153080946,254.9524232039,19.817371737174,1290286.3391235,888.29844518499,2647545.7743629,25.017371737174,0,0
-159.301530606,255.00386939624,19.821802180218,1289532.2314709,-2612.5276188828,2641186.0148175,25.021802180218,0,0
-159.3015304024,255.05531558753,19.826232623262,1289532.2314709,-2612.5276188828,2641186.0148175,25.026232623262,0,0
-159.30153019881,255.10676177882,19.830663066307,1289532.2314709,-2612.5276188828,2641186.0148175,25.030663066307,0,0
-159.30152999521,255.15820797011,19.835093509351,1289532.2314709,-2612.5276188828,2641186.0148175,25.035093509351,0,0
-159.30152979161,255.2096541614,19.839523952395,1289532.2314709,-2612.5276188828,2641186.0148175,25.039523952395,0,0
-159.30152958802,255.26110035269,19.84395439544,1289532.2314709,-2612.5276188828,2641186.0148175,25.04395439544,0,0
-159.30152938442,255.31254654399,19.848384838484,1289532.2314709,-2612.5276188828,2641186.0148175,25.048384838484,0,0
-159.30152918083,255.36399273528,19.852815281528,1289532.2314709,-2612.5276188828,2641186.0148175,25.052815281528,0,0
-159.30152897723,255.41543892657,19.857245724572,1289532.2314709,-2612.5276188828,2641186.0148175,25.057245724572,0,0
-159.30152877364,255.46688511786,19.861676167617,1289532.2314709,-2612.5276188828,2641186.0148175,25.061676167617,0,0
-159.30152857004,255.51833130915,19.866106610661,1289532.2314709,-2612.5276188828,2641186.0148175,25.066106610661,0,0
-159.30152836644,255.56977750044,19.870537053705,1289532.2314709,-2612.5276188828,2641186.0148175,25.070537053705,0,0
-159.30152816285,255.62122369173,19.87496749675,1289532.2314709,-2612.5276188828,2641186.0148175,25.07496749675,0,0
-159.30152795925,255.67266988302,19.879397939794,1289532.2314709,-2612.5276188828,2641186.0148175,25.079397939794,0,0
-159.30152775566,255.72411607432,19.883828382838,1289532.2314709,-2612.5276188828,2641186.0148175,25.083828382838,0,0
-159.30152755206,255.77556226561,19.888258825883,1289532.2314709,-2612.5276188828,2641186.0148175,25.088258825883,0,0
-159.30152734846,255.8270084569,19.892689268927,1289532.2314709,-2612.5276188828,2641186.0148175,25.092689268927,0,0
-159.30152714487,255.87845464819,19.897119711971,1289532.2314709,-2612.5276188828,2641186.0148175,25.097119711971,0,0
-159.30152694127,255.92990083948,19.901550155015,1289532.2314709,-2612.5276188828,2641186.0148175,25.101550155015,0,0
-159.30152673768,255.98134703077,19.90598059806,1289532.2314709,-2612.5276188828,2641186.0148175,25.10598059806,0,0
-159.30152653408,256.03279322206,19.910411041104,1289532.2314709,-2612.5276188828,2641186.0148175,25.110411041104,0,0
-159.30152633048,256.08423941335,19.914841484148,1289532.2314709,-2612.5276188828,2641186.0148175,25.114841484148,0,0
-159.30152612689,256.13568560464,19.919271927193,1289532.2314709,-2612.5276188828,2641186.0148175,25.119271927193,0,0
-159.30152592329,256.18713179594,19.923702370237,1289532.2314709,-2612.5276188828,2641186.0148175,25.123702370237,0,0
-159.3015257197,256.23857798723,19.928132813281,1289532.2314709,-2612.5276188828,2641186.0148175,25.128132813281,0,0
-159.3015255161,256.29002417852,19.932563256326,1289532.2314709,-2612.5276188828,2641186.0148175,25.132563256326,0,0
-159.30152531251,256.34147036981,19.93699369937,1289532.2314709,-2612.5276188828,2641186.0148175,25.13699369937,0,0
-159.30152510891,256.3929165611,19.941424142414,1289532.2314709,-2612.5276188828,2641186.0148175,25.141424142414,0,0
-159.30152490531,256.44436275239,19.945854585459,1289532.2314709,-2612.5276188828,2641186.0148175,25.145854585459,0,0
-159.30152470172,256.49580894368,19.950285028503,1289532.2314709,-2612.5276188828,2641186.0148175,25.150285028503,0,0
-159.30152449812,256.54725513497,19.954715471547,1289532.2314709,-2612.5276188828,2641186.0148175,25.154715471547,0,0
-159.30152429453,256.59870132627,19.959145914591,1289532.2314709,-2612.5276188828,2641186.0148175,25.159145914591,0,0
-159.30152409093,256.65014751756,19.963576357636,1289532.2314709,-2612.5276188828,2641186.0148175,25.163576357636,0,0
-159.30152388733,256.70159370885,19.96800680068,1289532.2314709,-2612.5276188828,2641186.0148175,25.16800680068,0,0
-159.30152368374,256.75303990014,19.972437243724,1289532.2314709,-2612.5276188828,2641186.0148175,25.172437243724,0,0
-159.30152348014,256.80448609143,19.976867686769,1289532.2314709,-2612.5276188828,2641186.0148175,25.176867686769,0,0
-159.30152327655,256.85593228272,19.981298129813,1289532.2314709,-2612.5276188828,2641186.0148175,25.181298129813,0,0
-159.30152307295,256.90737847401,19.985728572857,1289532.2314709,-2612.5276188828,2641186.0148175,25.185728572857,0,0
-159.30152286935,256.9588246653,19.990159015902,1289532.2314709,-2612.5276188828,2641186.0148175,25.190159015902,0,0
-159.30152266576,257.0102708566,19.994589458946,1289532.2314709,-2612.5276188828,2641186.0148175,25.194589458946,0,0
-159.30152246216,257.06171704789,19.99901990199,1289532.2314709,-2612.5276188828,2641186.0148175,25.19901990199,0,0
-159.30152225857,257.11316323918,20.003450345035,1289532.2314709,-2612.5276188828,2641186.0148175,25.203450345035,0,0
-159.30152205497,257.16460943047,20.007880788079,1289532.2314709,-2612.5276188828,2641186.0148175,25.207880788079,0,0
-159.30152185138,257.21605562176,20.012311231123,1289532.2314709,-2612.5276188828,2641186.0148175,25.212311231123,0,0
-159.30152164778,257.26750181305,20.016741674167,1289532.2314709,-2612.5276188828,2641186.0148175,25.216741674167,0,0
-159.30152144418,257.31894800434,20.021172117212,1289532.2314709,-2612.5276188828,2641186.0148175,25.221172117212,0,0
-159.30152124059,257.37039419563,20.025602560256,1289532.2314709,-2612.5276188828,2641186.0148175,25.225602560256,0,0
-159.30152103699,257.42184038692,20.0300330033,1289532.2314709,-2612.5276188828,2641186.0148175,25.2300330033,0,0
-159.3015208334,257.47328657822,20.034463446345,1289532.2314709,-2612.5276188828,2641186.0148175,25.234463446345,0,0
-159.3015206298,257.52473276951,20.038893889389,1289532.2314709,-2612.5276188828,2641186.0148175,25.238893889389,0,0
-159.3015204262,257.5761789608,20.043324332433,1289532.2314709,-2612.5276188828,2641186.0148175,25.243324332433,0,0
-159.30152022261,257.62762515209,20.047754775478,1289532.2314709,-2612.5276188828,2641186.0148175,25.247754775478,0,0
-159.30152001901,257.67907134338,20.052185218522,1289532.2314709,-2612.5276188828,2641186.0148175,25.252185218522,0,0
-159.30151981542,257.73051753467,20.056615661566,1289532.2314709,-2612.5276188828,2641186.0148175,25.256615661566,0,0
-159.30151961182,257.78196372596,20.06104610461,1289532.2314709,-2612.5276188828,2641186.0148175,25.26104610461,0,0
-159.30151940822,257.83340991725,20.065476547655,1289532.2314709,-2612.5276188828,2641186.0148175,25.265476547655,0,0
-159.30151920463,257.88485610855,20.069906990699,1289532.2314709,-2612.5276188828,2641186.0148175,25.269906990699,0,0
-159.30151900103,257.93630229984,20.074337433743,1289532.2314709,-2612.5276188828,2641186.0148175,25.274337433743,0,0
-159.30151879744,257.98774849113,20.078767876788,1289532.2314709,-2612.5276188828,2641186.0148175,25.278767876788,0,0
-159.30151859384,258.03919468242,20.083198319832,1289532.2314709,-2612.5276188828,2641186.0148175,25.283198319832,0,0
-159.30151839025,258.09064087371,20.087628762876,1289532.2314709,-2612.5276188828,2641186.0148175,25.287628762876,0,0
-159.30151818665,258.142087065,20.092059205921,1289532.2314709,-2612.5276188828,2641186.0148175,25.292059205921,0,0
-159.30151798305,258.19353325629,20.096489648965,1289532.2314709,-2612.5276188828,2641186.0148175,25.296489648965,0,0
-159.30151777946,258.24497944758,20.100920092009,1289532.2314709,-2612.5276188828,2641186.0148175,25.300920092009,0,0
-159.30151757586,258.29642563888,20.105350535054,1289532.2314709,-2612.5276188828,2641186.0148175,25.305350535054,0,0
-159.30151737227,258.34787183017,20.109780978098,1289532.2314709,-2612.5276188828,2641186.0148175,25.309780978098,0,0
-159.30151716867,258.39931802146,20.114211421142,1289532.2314709,-2612.5276188828,2641186.0148175,25.314211421142,0,0
-159.30151696507,258.45076421275,20.118641864186,1289532.2314709,-2612.5276188828,2641186.0148175,25.318641864186,0,0
-159.30151676148,258.50221040404,20.123072307231,1289532.2314709,-2612.5276188828,2641186.0148175,25.323072307231,0,0
-159.30151655788,258.55365659533,20.127502750275,1289532.2314709,-2612.5276188828,2641186.0148175,25.327502750275,0,0
-159.30151635429,258.60510278662,20.131933193319,1289532.2314709,-2612.5276188828,2641186.0148175,25.331933193319,0,0
-159.30151615069,258.65654897791,20.136363636364,1289532.2314709,-2612.5276188828,2641186.0148175,25.336363636364,0,0
-159.30151594709,258.7079951692,20.140794079408,1289532.2314709,-2612.5276188828,2641186.0148175,25.340794079408,0,0
-159.3015157435,258.7594413605,20.145224522452,1289532.2314709,-2612.5276188828,2641186.0148175,25.345224522452,0,0
-159.3015155399,258.81088755179,20.149654965497,1289532.2314709,-2612.5276188828,2641186.0148175,25.349654965497,0,0
-159.30151533631,258.86233374308,20.154085408541,1289532.2314709,-2612.5276188828,2641186.0148175,25.354085408541,0,0
-159.30151513271,258.91377993437,20.158515851585,1289532.2314709,-2612.5276188828,2641186.0148175,25.358515851585,0,0
-159.30151492911,258.96522612566,20.162946294629,1289532.2314709,-2612.5276188828,2641186.0148175,25.362946294629,0,0
-159.30151472552,259.01667231695,20.167376737674,1289532.2314709,-2612.5276188828,2641186.0148175,25.367376737674,0,0
-159.30151452192,259.06811850824,20.171807180718,1289532.2314709,-2612.5276188828,2641186.0148175,25.371807180718,0,0
-159.30151431833,259.11956469953,20.176237623762,1289532.2314709,-2612.5276188828,2641186.0148175,25.376237623762,0,0
-159.30151411473,259.17101089083,20.180668066807,1289532.2314709,-2612.5276188828,2641186.0148175,25.380668066807,0,0
-159.30151391114,259.22245708212,20.185098509851,1289532.2314709,-2612.5276188828,2641186.0148175,25.385098509851,0,0
-159.30151370754,259.27390327341,20.189528952895,1289532.2314709,-2612.5276188828,2641186.0148175,25.389528952895,0,0
-159.30151350394,259.3253494647,20.19395939594,1289532.2314709,-2612.5276188828,2641186.0148175,25.39395939594,0,0
-159.30151330035,259.37679565599,20.198389838984,1289532.2314709,-2612.5276188828,2641186.0148175,25.398389838984,0,0
-159.30151309675,259.42824184728,20.202820282028,1289532.2314709,-2612.5276188828,2641186.0148175,25.402820282028,0,0
-159.30151289316,259.47968803857,20.207250725073,1289532.2314709,-2612.5276188828,2641186.0148175,25.407250725073,0,0
-159.30151268956,259.53113422986,20.211681168117,1289532.2314709,-2612.5276188828,2641186.0148175,25.411681168117,0,0
-159.30151248596,259.58258042115,20.216111611161,1289532.2314709,-2612.5276188828,2641186.0148175,25.416111611161,0,0
-159.30151228237,259.63402661245,20.220542054205,1289532.2314709,-2612.5276188828,2641186.0148175,25.420542054205,0,0
-159.30151207877,259.68547280374,20.22497249725,1289532.2314709,-2612.5276188828,2641186.0148175,25.42497249725,0,0
-159.30151187518,259.73691899503,20.229402940294,1289532.2314709,-2612.5276188828,2641186.0148175,25.429402940294,0,0
-159.30151167158,259.78836518632,20.233833383338,1289532.2314709,-2612.5276188828,2641186.0148175,25.433833383338,0,0
-159.30151146798,259.83981137761,20.238263826383,1289532.2314709,-2612.5276188828,2641186.0148175,25.438263826383,0,0
-159.30151126439,259.8912575689,20.242694269427,1289532.2314709,-2612.5276188828,2641186.0148175,25.442694269427,0,0
-159.30151106079,259.94270376019,20.247124712471,1289532.2314709,-2612.5276188828,2641186.0148175,25.447124712471,0,0
-159.3015108572,259.99414995148,20.251555155516,1289532.2314709,-2612.5276188828,2641186.0148175,25.451555155516,0,0
-159.3015106536,260.04559614278,20.25598559856,1289532.2314709,-2612.5276188828,2641186.0148175,25.45598559856,0,0
-159.30151045001,260.09704233407,20.260416041604,1289532.2314709,-2612.5276188828,2641186.0148175,25.460416041604,0,0
-159.30151024641,260.14848852536,20.264846484648,1289532.2314709,-2612.5276188828,2641186.0148175,25.464846484648,0,0
-159.30151004281,260.19993471665,20.269276927693,1289532.2314709,-2612.5276188828,2641186.0148175,25.469276927693,0,0
-159.30150983922,260.25138090794,20.273707370737,1289532.2314709,-2612.5276188828,2641186.0148175,25.473707370737,0,0
-159.30150963562,260.30282709923,20.278137813781,1289532.2314709,-2612.5276188828,2641186.0148175,25.478137813781,0,0
-159.30150943203,260.35427329052,20.282568256826,1289532.2314709,-2612.5276188828,2641186.0148175,25.482568256826,0,0
-159.30150922843,260.40571948181,20.28699869987,1289532.2314709,-2612.5276188828,2641186.0148175,25.48699869987,0,0
-159.30150902483,260.45716567311,20.291429142914,1289532.2314709,-2612.5276188828,2641186.0148175,25.491429142914,0,0
-159.30150882124,260.5086118644,20.295859585959,1289532.2314709,-2612.5276188828,2641186.0148175,25.495859585959,0,0
-159.30150861764,260.56005805569,20.300290029003,1289532.2314709,-2612.5276188828,2641186.0148175,25.500290029003,0,0
-159.30150841405,260.61150424698,20.304720472047,1289532.2314709,-2612.5276188828,2641186.0148175,25.504720472047,0,0
-159.30150821045,260.66295043827,20.309150915092,1289532.2314709,-2612.5276188828,2641186.0148175,25.509150915092,0,0
-159.30150800685,260.71439662956,20.313581358136,1289532.2314709,-2612.5276188828,2641186.0148175,25.513581358136,0,0
-159.30150780326,260.76584282085,20.31801180118,1289532.2314709,-2612.5276188828,2641186.0148175,25.51801180118,0,0
-159.30150759966,260.81728901214,20.322442244224,1289532.2314709,-2612.5276188828,2641186.0148175,25.522442244224,0,0
-159.30150739607,260.86873520343,20.326872687269,1289532.2314709,-2612.5276188828,2641186.0148175,25.526872687269,0,0
-159.30150719247,260.92018139473,20.331303130313,1289532.2314709,-2612.5276188828,2641186.0148175,25.531303130313,0,0
-159.30150698888,260.97162758602,20.335733573357,1289532.2314709,-2612.5276188828,2641186.0148175,25.535733573357,0,0
-159.30150678528,261.02307377731,20.340164016402,1289532.2314709,-2612.5276188828,2641186.0148175,25.540164016402,0,0
-159.30150658168,261.0745199686,20.344594459446,1289532.2314709,-2612.5276188828,2641186.0148175,25.544594459446,0,0
-159.30150637809,261.12596615989,20.34902490249,1289532.2314709,-2612.5276188828,2641186.0148175,25.54902490249,0,0
-159.30150617449,261.17741235118,20.353455345535,1289532.2314709,-2612.5276188828,2641186.0148175,25.553455345535,0,0
-159.3015059709,261.22885854247,20.357885788579,1289532.2314709,-2612.5276188828,2641186.0148175,25.557885788579,0,0
-159.3015057673,261.28030473376,20.362316231623,1289532.2314709,-2612.5276188828,2641186.0148175,25.562316231623,0,0
-159.3015055637,261.33175092506,20.366746674667,1289532.2314709,-2612.5276188828,2641186.0148175,25.566746674667,0,0
-159.30150536011,261.38319711635,20.371177117712,1289532.2314709,-2612.5276188828,2641186.0148175,25.571177117712,0,0
-159.30150515651,261.43464330764,20.375607560756,1289532.2314709,-2612.5276188828,2641186.0148175,25.575607560756,0,0
-159.30150495292,261.48608949893,20.3800380038,1289532.2314709,-2612.5276188828,2641186.0148175,25.5800380038,0,0
-159.30150474932,261.53753569022,20.384468446845,1289532.2314709,-2612.5276188828,2641186.0148175,25.584468446845,0,0
-159.30150454572,261.58898188151,20.388898889889,1289532.2314709,-2612.5276188828,2641186.0148175,25.588898889889,0,0
-159.30150434213,261.6404280728,20.393329332933,1289532.2314709,-2612.5276188828,2641186.0148175,25.593329332933,0,0
-159.30150413853,261.69187426409,20.397759775978,1289532.2314709,-2612.5276188828,2641186.0148175,25.597759775978,0,0
-159.30150393494,261.74332045539,20.402190219022,1289532.2314709,-2612.5276188828,2641186.0148175,25.602190219022,0,0
-159.30150373134,261.79476664668,20.406620662066,1289532.2314709,-2612.5276188828,2641186.0148175,25.606620662066,0,0
-159.30150352775,261.84621283797,20.411051105111,1289532.2314709,-2612.5276188828,2641186.0148175,25.611051105111,0,0
-159.30150332415,261.89765902926,20.415481548155,1289532.2314709,-2612.5276188828,2641186.0148175,25.615481548155,0,0
-159.30150312055,261.94910522055,20.419911991199,1289532.2314709,-2612.5276188828,2641186.0148175,25.619911991199,0,0
-159.30150291696,262.00055141184,20.424342434243,1289532.2314709,-2612.5276188828,2641186.0148175,25.624342434243,0,0
-159.30150271336,262.05199760313,20.428772877288,1289532.2314709,-2612.5276188828,2641186.0148175,25.628772877288,0,0
-159.30150250977,262.10344379442,20.433203320332,1289532.2314709,-2612.5276188828,2641186.0148175,25.633203320332,0,0
-159.30150230617,262.15488998571,20.437633763376,1289532.2314709,-2612.5276188828,2641186.0148175,25.637633763376,0,0
-159.30150210257,262.20633617701,20.442064206421,1289532.2314709,-2612.5276188828,2641186.0148175,25.642064206421,0,0
-159.30150189898,262.2577823683,20.446494649465,1289532.2314709,-2612.5276188828,2641186.0148175,25.646494649465,0,0
-159.30150169538,262.30922855959,20.450925092509,1289532.2314709,-2612.5276188828,2641186.0148175,25.650925092509,0,0
-159.30150149179,262.36067475088,20.455355535554,1289532.2314709,-2612.5276188828,2641186.0148175,25.655355535554,0,0
-159.30150128819,262.41212094217,20.459785978598,1289532.2314709,-2612.5276188828,2641186.0148175,25.659785978598,0,0
-159.30150108459,262.46356713346,20.464216421642,1289532.2314709,-2612.5276188828,2641186.0148175,25.664216421642,0,0
-159.301500881,262.51501332475,20.468646864686,1289532.2314709,-2612.5276188828,2641186.0148175,25.668646864686,0,0
-159.3015006774,262.56645951604,20.473077307731,1289532.2314709,-2612.5276188828,2641186.0148175,25.673077307731,0,0
-159.30150047381,262.61790570734,20.477507750775,1289532.2314709,-2612.5276188828,2641186.0148175,25.677507750775,0,0
-159.30150027021,262.66935189863,20.481938193819,1289532.2314709,-2612.5276188828,2641186.0148175,25.681938193819,0,0
-159.30150006662,262.72079808992,20.486368636864,1289532.2314709,-2612.5276188828,2641186.0148175,25.686368636864,0,0
-159.30149986302,262.77224428121,20.490799079908,1289532.2314709,-2612.5276188828,2641186.0148175,25.690799079908,0,0
-159.30149965942,262.8236904725,20.495229522952,1289532.2314709,-2612.5276188828,2641186.0148175,25.695229522952,0,0
-159.30149945583,262.87513666379,20.499659965997,1289532.2314709,-2612.5276188828,2641186.0148175,25.699659965997,0,0
-159.30149925223,262.92658285508,20.504090409041,1289532.2314709,-2612.5276188828,2641186.0148175,25.704090409041,0,0
-159.30149904864,262.97802904637,20.508520852085,1289532.2314709,-2612.5276188828,2641186.0148175,25.708520852085,0,0
-159.30149884504,263.02947523767,20.51295129513,1289532.2314709,-2612.5276188828,2641186.0148175,25.71295129513,0,0
-159.30149864144,263.08092142896,20.517381738174,1289532.2314709,-2612.5276188828,2641186.0148175,25.717381738174,0,0
-159.30149843785,263.13236762025,20.521812181218,1289532.2314709,-2612.5276188828,2641186.0148175,25.721812181218,0,0
-159.30149823425,263.18381381154,20.526242624262,1289532.2314709,-2612.5276188828,2641186.0148175,25.726242624262,0,0
-159.30149803066,263.23526000283,20.530673067307,1289532.2314709,-2612.5276188828,2641186.0148175,25.730673067307,0,0
-159.30149782706,263.28670619412,20.535103510351,1289532.2314709,-2612.5276188828,2641186.0148175,25.735103510351,0,0
-159.30149762346,263.33815238541,20.539533953395,1289532.2314709,-2612.5276188828,2641186.0148175,25.739533953395,0,0
-159.30149741987,263.3895985767,20.54396439644,1289532.2314709,-2612.5276188828,2641186.0148175,25.74396439644,0,0
-159.30149721627,263.44104476799,20.548394839484,1289532.2314709,-2612.5276188828,2641186.0148175,25.748394839484,0,0
-159.30149701268,263.49249095929,20.552825282528,1289532.2314709,-2612.5276188828,2641186.0148175,25.752825282528,0,0
-159.30149680908,263.54393715058,20.557255725573,1289532.2314709,-2612.5276188828,2641186.0148175,25.757255725573,0,0
-159.30149660548,263.59538334187,20.561686168617,1289532.2314709,-2612.5276188828,2641186.0148175,25.761686168617,0,0
-159.30149640189,263.64682953316,20.566116611661,1289532.2314709,-2612.5276188828,2641186.0148175,25.766116611661,0,0
-159.30149619829,263.69827572445,20.570547054705,1289532.2314709,-2612.5276188828,2641186.0148175,25.770547054705,0,0
-159.3014959947,263.74972191574,20.57497749775,1289532.2314709,-2612.5276188828,2641186.0148175,25.77497749775,0,0
-159.3014957911,263.80116810703,20.579407940794,1289532.2314709,-2612.5276188828,2641186.0148175,25.779407940794,0,0
-159.30149558751,263.85261429832,20.583838383838,1289532.2314709,-2612.5276188828,2641186.0148175,25.783838383838,0,0
-159.30149538391,263.90406048962,20.588268826883,1289532.2314709,-2612.5276188828,2641186.0148175,25.788268826883,0,0
-159.30149518031,263.95550668091,20.592699269927,1289532.2314709,-2612.5276188828,2641186.0148175,25.792699269927,0,0
-159.30149497672,264.0069528722,20.597129712971,1289532.2314709,-2612.5276188828,2641186.0148175,25.797129712971,0,0
-159.30149477312,264.05839906349,20.601560156016,1289532.2314709,-2612.5276188828,2641186.0148175,25.801560156016,0,0
-159.30149456953,264.10984525478,20.60599059906,1289532.2314709,-2612.5276188828,2641186.0148175,25.80599059906,0,0
-159.30149436593,264.16129144607,20.610421042104,1289532.2314709,-2612.5276188828,2641186.0148175,25.810421042104,0,0
-159.30149416233,264.21273763736,20.614851485149,1289532.2314709,-2612.5276188828,2641186.0148175,25.814851485149,0,0
-159.30149395874,264.26418382865,20.619281928193,1289532.2314709,-2612.5276188828,2641186.0148175,25.819281928193,0,0
-159.30149375514,264.31563001995,20.623712371237,1289532.2314709,-2612.5276188828,2641186.0148175,25.823712371237,0,0
-159.30149355155,264.36707621124,20.628142814281,1289532.2314709,-2612.5276188828,2641186.0148175,25.828142814281,0,0
-159.30149334795,264.41852240253,20.632573257326,1289532.2314709,-2612.5276188828,2641186.0148175,25.832573257326,0,0
-159.30149314435,264.46996859382,20.63700370037,1289532.2314709,-2612.5276188828,2641186.0148175,25.83700370037,0,0
-159.30149294076,264.52141478511,20.641434143414,1289532.2314709,-2612.5276188828,2641186.0148175,25.841434143414,0,0
-159.30149273716,264.5728609764,20.645864586459,1289532.2314709,-2612.5276188828,2641186.0148175,25.845864586459,0,0
-159.30149253357,264.62430716769,20.650295029503,1289532.2314709,-2612.5276188828,2641186.0148175,25.850295029503,0,0
-159.30149232997,264.67575335898,20.654725472547,1289532.2314709,-2612.5276188828,2641186.0148175,25.854725472547,0,0
-159.30149212638,264.72719955027,20.659155915592,1289532.2314709,-2612.5276188828,2641186.0148175,25.859155915592,0,0
-159.30149192278,264.77864574157,20.663586358636,1289532.2314709,-2612.5276188828,2641186.0148175,25.863586358636,0,0
-159.30149171918,264.83009193286,20.66801680168,1289532.2314709,-2612.5276188828,2641186.0148175,25.86801680168,0,0
-159.30149151559,264.88153812415,20.672447244724,1289532.2314709,-2612.5276188828,2641186.0148175,25.872447244724,0,0
-159.30149131199,264.93298431544,20.676877687769,1289532.2314709,-2612.5276188828,2641186.0148175,25.876877687769,0,0
-159.3014911084,264.98443050673,20.681308130813,1289532.2314709,-2612.5276188828,2641186.0148175,25.881308130813,0,0
-159.3014909048,265.03587669802,20.685738573857,1289532.2314709,-2612.5276188828,2641186.0148175,25.885738573857,0,0
-159.3014907012,265.08732288931,20.690169016902,1289532.2314709,-2612.5276188828,2641186.0148175,25.890169016902,0,0
-159.30149049761,265.1387690806,20.694599459946,1289532.2314709,-2612.5276188828,2641186.0148175,25.894599459946,0,0
-159.30149029401,265.1902152719,20.69902990299,1289532.2314709,-2612.5276188828,2641186.0148175,25.89902990299,0,0
-159.30149009042,265.24166146319,20.703460346035,1289532.2314709,-2612.5276188828,2641186.0148175,25.903460346035,0,0
-159.30148988682,265.29310765448,20.707890789079,1289532.2314709,-2612.5276188828,2641186.0148175,25.907890789079,0,0
-159.30148968322,265.34455384577,20.712321232123,1289532.2314709,-2612.5276188828,2641186.0148175,25.912321232123,0,0
-159.30148947963,265.39600003706,20.716751675168,1289532.2314709,-2612.5276188828,2641186.0148175,25.916751675168,0,0
-159.30148927603,265.44744622835,20.721182118212,1289532.2314709,-2612.5276188828,2641186.0148175,25.921182118212,0,0
-159.30148907244,265.49889241964,20.725612561256,1289532.2314709,-2612.5276188828,2641186.0148175,25.925612561256,0,0
-159.30148886884,265.55033861093,20.7300430043,1289532.2314709,-2612.5276188828,2641186.0148175,25.9300430043,0,0
-159.30148866525,265.60178480223,20.734473447345,1289532.2314709,-2612.5276188828,2641186.0148175,25.934473447345,0,0
-159.30148846165,265.65323099352,20.738903890389,1289532.2314709,-2612.5276188828,2641186.0148175,25.938903890389,0,0
-159.30148825805,265.70467718481,20.743334333433,1289532.2314709,-2612.5276188828,2641186.0148175,25.943334333433,0,0
-159.30148805446,265.7561233761,20.747764776478,1289532.2314709,-2612.5276188828,2641186.0148175,25.947764776478,0,0
-159.30148785086,265.80756956739,20.752195219522,1289532.2314709,-2612.5276188828,2641186.0148175,25.952195219522,0,0
-159.30148764727,265.85901575868,20.756625662566,1289532.2314709,-2612.5276188828,2641186.0148175,25.956625662566,0,0
-159.30148744367,265.91046194997,20.761056105611,1289532.2314709,-2612.5276188828,2641186.0148175,25.961056105611,0,0
-159.30148724007,265.96190814126,20.765486548655,1289532.2314709,-2612.5276188828,2641186.0148175,25.965486548655,0,0
-159.30148703648,266.01335433255,20.769916991699,1289532.2314709,-2612.5276188828,2641186.0148175,25.969916991699,0,0
-159.30148683288,266.06480052385,20.774347434743,1289532.2314709,-2612.5276188828,2641186.0148175,25.974347434743,0,0
-159.30148662929,266.11624671514,20.778777877788,1289532.2314709,-2612.5276188828,2641186.0148175,25.978777877788,0,0
-159.30148642569,266.16769290643,20.783208320832,1289532.2314709,-2612.5276188828,2641186.0148175,25.983208320832,0,0
-159.30148622209,266.21913909772,20.787638763876,1289532.2314709,-2612.5276188828,2641186.0148175,25.987638763876,0,0
-159.3014860185,266.27058528901,20.792069206921,1289532.2314709,-2612.5276188828,2641186.0148175,25.992069206921,0,0
-159.3014858149,266.3220314803,20.796499649965,1289532.2314709,-2612.5276188828,2641186.0148175,25.996499649965,0,0
-159.30148561131,266.37347767159,20.800930093009,1289532.2314709,-2612.5276188828,2641186.0148175,26.000930093009,0,0
-159.30148540771,266.42492386288,20.805360536054,1289532.2314709,-2612.5276188828,2641186.0148175,26.005360536054,0,0
-159.30148520412,266.47637005418,20.809790979098,1289532.2314709,-2612.5276188828,2641186.0148175,26.009790979098,0,0
-159.30148500052,266.52781624547,20.814221422142,1289532.2314709,-2612.5276188828,2641186.0148175,26.014221422142,0,0
-159.30148479692,266.57926243676,20.818651865187,1289532.2314709,-2612.5276188828,2641186.0148175,26.018651865187,0,0
-159.30148459333,266.63070862805,20.823082308231,1289532.2314709,-2612.5276188828,2641186.0148175,26.023082308231,0,0
-159.30148438973,266.68215481934,20.827512751275,1289532.2314709,-2612.5276188828,2641186.0148175,26.027512751275,0,0
-159.30148418614,266.73360101063,20.831943194319,1289532.2314709,-2612.5276188828,2641186.0148175,26.031943194319,0,0
-159.30148398254,266.78504720192,20.836373637364,1289532.2314709,-2612.5276188828,2641186.0148175,26.036373637364,0,0
-159.30148377894,266.83649339321,20.840804080408,1289532.2314709,-2612.5276188828,2641186.0148175,26.040804080408,0,0
-159.30148357535,266.88793958451,20.845234523452,1289532.2314709,-2612.5276188828,2641186.0148175,26.045234523452,0,0
-159.30148337175,266.9393857758,20.849664966497,1289532.2314709,-2612.5276188828,2641186.0148175,26.049664966497,0,0
-159.30148316816,266.99083196709,20.854095409541,1289532.2314709,-2612.5276188828,2641186.0148175,26.054095409541,0,0
-159.30148296456,267.04227815838,20.858525852585,1289532.2314709,-2612.5276188828,2641186.0148175,26.058525852585,0,0
-159.30148276096,267.09372434967,20.86295629563,1289532.2314709,-2612.5276188828,2641186.0148175,26.06295629563,0,0
-159.30148255737,267.14517054096,20.867386738674,1289532.2314709,-2612.5276188828,2641186.0148175,26.067386738674,0,0
-159.30148235377,267.19661673225,20.871817181718,1289532.2314709,-2612.5276188828,2641186.0148175,26.071817181718,0,0
-159.30148215018,267.24806292354,20.876247624762,1289532.2314709,-2612.5276188828,2641186.0148175,26.076247624762,0,0
-159.30148194658,267.29950911483,20.880678067807,1289532.2314709,-2612.5276188828,2641186.0148175,26.080678067807,0,0
-159.30148174299,267.35095530613,20.885108510851,1289532.2314709,-2612.5276188828,2641186.0148175,26.085108510851,0,0
-159.30148153939,267.40240149742,20.889538953895,1289532.2314709,-2612.5276188828,2641186.0148175,26.089538953895,0,0
-159.30148133579,267.45384768871,20.89396939694,1289532.2314709,-2612.5276188828,2641186.0148175,26.09396939694,0,0
-159.3014811322,267.50529388,20.898399839984,1289532.2314709,-2612.5276188828,2641186.0148175,26.098399839984,0,0
-159.3014809286,267.55674007129,20.902830283028,1289532.2314709,-2612.5276188828,2641186.0148175,26.102830283028,0,0
-159.30148072501,267.60818626258,20.907260726073,1289532.2314709,-2612.5276188828,2641186.0148175,26.107260726073,0,0
-159.30148052141,267.65963245387,20.911691169117,1289532.2314709,-2612.5276188828,2641186.0148175,26.111691169117,0,0
-159.30148031781,267.71107864516,20.916121612161,1289532.2314709,-2612.5276188828,2641186.0148175,26.116121612161,0,0
-159.30148011422,267.76252483646,20.920552055206,1289532.2314709,-2612.5276188828,2641186.0148175,26.120552055206,0,0
-159.30147991062,267.81397102775,20.92498249825,1289532.2314709,-2612.5276188828,2641186.0148175,26.12498249825,0,0
-159.30147970703,267.86541721904,20.929412941294,1289532.2314709,-2612.5276188828,2641186.0148175,26.129412941294,0,0
-159.30147950343,267.91686341033,20.933843384338,1289532.2314709,-2612.5276188828,2641186.0148175,26.133843384338,0,0
-159.30147929983,267.96830960162,20.938273827383,1289532.2314709,-2612.5276188828,2641186.0148175,26.138273827383,0,0
-159.30147909624,268.01975579291,20.942704270427,1289532.2314709,-2612.5276188828,2641186.0148175,26.142704270427,0,0
-159.30147889264,268.0712019842,20.947134713471,1289532.2314709,-2612.5276188828,2641186.0148175,26.147134713471,0,0
-159.30147868905,268.12264817549,20.951565156516,1289532.2314709,-2612.5276188828,2641186.0148175,26.151565156516,0,0
-159.30147848545,268.17409436678,20.95599559956,1289532.2314709,-2612.5276188828,2641186.0148175,26.15599559956,0,0
-159.30147828186,268.22554055808,20.960426042604,1289532.2314709,-2612.5276188828,2641186.0148175,26.160426042604,0,0
-159.30147807826,268.27698674937,20.964856485649,1289532.2314709,-2612.5276188828,2641186.0148175,26.164856485649,0,0
-159.30147787466,268.32843294066,20.969286928693,1289532.2314709,-2612.5276188828,2641186.0148175,26.169286928693,0,0
-159.30147767107,268.37987913195,20.973717371737,1289532.2314709,-2612.5276188828,2641186.0148175,26.173717371737,0,0
-159.30147746747,268.43132532324,20.978147814781,1289532.2314709,-2612.5276188828,2641186.0148175,26.178147814781,0,0
-159.30147726387,268.48277151455,20.982578257826,1289006.6667914,995.09377491811,2637393.7523307,26.182578257826,0,0
-159.30147706017,268.5342177074,20.98700870087,1289006.6667914,995.09377491811,2637393.7523307,26.18700870087,0,0
-159.30147685646,268.58566390025,20.991439143914,1289006.6667914,995.09377491811,2637393.7523307,26.191439143914,0,0
-159.30147665275,268.6371100931,20.995869586959,1289006.6667914,995.09377491811,2637393.7523307,26.195869586959,0,0
-159.30147644904,268.68855628595,21.000300030003,1289006.6667914,995.09377491811,2637393.7523307,26.200300030003,0,0
-159.30147624533,268.7400024788,21.004730473047,1289006.6667914,995.09377491811,2637393.7523307,26.204730473047,0,0
-159.30147604162,268.79144867165,21.009160916092,1289006.6667914,995.09377491811,2637393.7523307,26.209160916092,0,0
-159.30147583791,268.8428948645,21.013591359136,1289006.6667914,995.09377491811,2637393.7523307,26.213591359136,0,0
-159.3014756342,268.89434105735,21.01802180218,1289006.6667914,995.09377491811,2637393.7523307,26.21802180218,0,0
-159.3014754305,268.9457872502,21.022452245225,1289006.6667914,995.09377491811,2637393.7523307,26.222452245225,0,0
-159.30147522679,268.99723344304,21.026882688269,1289006.6667914,995.09377491811,2637393.7523307,26.226882688269,0,0
-159.30147502308,269.04867963589,21.031313131313,1289006.6667914,995.09377491811,2637393.7523307,26.231313131313,0,0
-159.30147481937,269.10012582874,21.035743574357,1289006.6667914,995.09377491811,2637393.7523307,26.235743574357,0,0
-159.30147461566,269.15157202159,21.040174017402,1289006.6667914,995.09377491811,2637393.7523307,26.240174017402,0,0
-159.30147441195,269.20301821444,21.044604460446,1289006.6667914,995.09377491811,2637393.7523307,26.244604460446,0,0
-159.30147420824,269.25446440729,21.04903490349,1289006.6667914,995.09377491811,2637393.7523307,26.24903490349,0,0
-159.30147400454,269.30591060014,21.053465346535,1289006.6667914,995.09377491811,2637393.7523307,26.253465346535,0,0
-159.30147380083,269.35735679299,21.057895789579,1289006.6667914,995.09377491811,2637393.7523307,26.257895789579,0,0
-159.30147359712,269.40880298584,21.062326232623,1289006.6667914,995.09377491811,2637393.7523307,26.262326232623,0,0
-159.30147339341,269.46024917869,21.066756675668,1289006.6667914,995.09377491811,2637393.7523307,26.266756675668,0,0
-159.3014731897,269.51169537154,21.071187118712,1289006.6667914,995.09377491811,2637393.7523307,26.271187118712,0,0
-159.30147298599,269.56314156439,21.075617561756,1289006.6667914,995.09377491811,2637393.7523307,26.275617561756,0,0
-159.30147278228,269.61458775724,21.0800480048,1289006.6667914,995.09377491811,2637393.7523307,26.2800480048,0,0
-159.30147257857,269.66603395009,21.084478447845,1289006.6667914,995.09377491811,2637393.7523307,26.284478447845,0,0
-159.30147237487,269.71748014294,21.088908890889,1289006.6667914,995.09377491811,2637393.7523307,26.288908890889,0,0
-159.30147217116,269.76892633579,21.093339333933,1289006.6667914,995.09377491811,2637393.7523307,26.293339333933,0,0
-159.30147196745,269.82037252864,21.097769776978,1289006.6667914,995.09377491811,2637393.7523307,26.297769776978,0,0
-159.30147176374,269.87181872149,21.102200220022,1289006.6667914,995.09377491811,2637393.7523307,26.302200220022,0,0
-159.30147156003,269.92326491434,21.106630663066,1289006.6667914,995.09377491811,2637393.7523307,26.306630663066,0,0
-159.30147135632,269.97471110719,21.111061106111,1289006.6667914,995.09377491811,2637393.7523307,26.311061106111,0,0
-159.30147115261,270.02615730004,21.115491549155,1289006.6667914,995.09377491811,2637393.7523307,26.315491549155,0,0
-159.3014709489,270.07760349288,21.119921992199,1289006.6667914,995.09377491811,2637393.7523307,26.319921992199,0,0
-159.3014707452,270.12904968573,21.124352435244,1289006.6667914,995.09377491811,2637393.7523307,26.324352435244,0,0
-159.30147054149,270.18049587858,21.128782878288,1289006.6667914,995.09377491811,2637393.7523307,26.328782878288,0,0
-159.30147033778,270.23194207143,21.133213321332,1289006.6667914,995.09377491811,2637393.7523307,26.333213321332,0,0
-159.30147013407,270.28338826428,21.137643764376,1289006.6667914,995.09377491811,2637393.7523307,26.337643764376,0,0
-159.30146993036,270.33483445713,21.142074207421,1289006.6667914,995.09377491811,2637393.7523307,26.342074207421,0,0
-159.30146972665,270.38628064998,21.146504650465,1289006.6667914,995.09377491811,2637393.7523307,26.346504650465,0,0
-159.30146952294,270.43772684283,21.150935093509,1289006.6667914,995.09377491811,2637393.7523307,26.350935093509,0,0
-159.30146931924,270.48917303568,21.155365536554,1289006.6667914,995.09377491811,2637393.7523307,26.355365536554,0,0
-159.30146911553,270.54061922853,21.159795979598,1289006.6667914,995.09377491811,2637393.7523307,26.359795979598,0,0
-159.30146891182,270.59206542138,21.164226422642,1289006.6667914,995.09377491811,2637393.7523307,26.364226422642,0,0
-159.30146870799,270.64351161319,21.168656865687,1288128.2525793,-2267.3899920543,2631449.9405264,26.368656865687,0,0
-159.30146850411,270.69495780456,21.173087308731,1288128.2525793,-2267.3899920543,2631449.9405264,26.373087308731,0,0
-159.30146830024,270.74640399594,21.177517751775,1288128.2525793,-2267.3899920543,2631449.9405264,26.377517751775,0,0
-159.30146809636,270.79785018731,21.181948194819,1288128.2525793,-2267.3899920543,2631449.9405264,26.381948194819,0,0
-159.30146789248,270.84929637869,21.186378637864,1288128.2525793,-2267.3899920543,2631449.9405264,26.386378637864,0,0
-159.30146768861,270.90074257007,21.190809080908,1288128.2525793,-2267.3899920543,2631449.9405264,26.390809080908,0,0
-159.30146748473,270.95218876144,21.195239523952,1288128.2525793,-2267.3899920543,2631449.9405264,26.395239523952,0,0
-159.30146728085,271.00363495282,21.199669966997,1288128.2525793,-2267.3899920543,2631449.9405264,26.399669966997,0,0
-159.30146707698,271.05508114419,21.204100410041,1288128.2525793,-2267.3899920543,2631449.9405264,26.404100410041,0,0
-159.3014668731,271.10652733557,21.208530853085,1288128.2525793,-2267.3899920543,2631449.9405264,26.408530853085,0,0
-159.30146666922,271.15797352694,21.21296129613,1288128.2525793,-2267.3899920543,2631449.9405264,26.41296129613,0,0
-159.30146646535,271.20941971832,21.217391739174,1288128.2525793,-2267.3899920543,2631449.9405264,26.417391739174,0,0
-159.30146626147,271.26086590969,21.221822182218,1288128.2525793,-2267.3899920543,2631449.9405264,26.421822182218,0,0
-159.30146605759,271.31231210107,21.226252625263,1288128.2525793,-2267.3899920543,2631449.9405264,26.426252625263,0,0
-159.30146585371,271.36375829245,21.230683068307,1288128.2525793,-2267.3899920543,2631449.9405264,26.430683068307,0,0
-159.30146564984,271.41520448382,21.235113511351,1288128.2525793,-2267.3899920543,2631449.9405264,26.435113511351,0,0
-159.30146544596,271.4666506752,21.239543954395,1288128.2525793,-2267.3899920543,2631449.9405264,26.439543954395,0,0
-159.30146524208,271.51809686657,21.24397439744,1288128.2525793,-2267.3899920543,2631449.9405264,26.44397439744,0,0
-159.30146503821,271.56954305795,21.248404840484,1288128.2525793,-2267.3899920543,2631449.9405264,26.448404840484,0,0
-159.30146483433,271.62098924932,21.252835283528,1288128.2525793,-2267.3899920543,2631449.9405264,26.452835283528,0,0
-159.30146463045,271.6724354407,21.257265726573,1288128.2525793,-2267.3899920543,2631449.9405264,26.457265726573,0,0
-159.30146442658,271.72388163207,21.261696169617,1288128.2525793,-2267.3899920543,2631449.9405264,26.461696169617,0,0
-159.3014642227,271.77532782345,21.266126612661,1288128.2525793,-2267.3899920543,2631449.9405264,26.466126612661,0,0
-159.30146401882,271.82677401483,21.270557055706,1288128.2525793,-2267.3899920543,2631449.9405264,26.470557055706,0,0
-159.30146381495,271.8782202062,21.27498749875,1288128.2525793,-2267.3899920543,2631449.9405264,26.47498749875,0,0
-159.30146361107,271.92966639758,21.279417941794,1288128.2525793,-2267.3899920543,2631449.9405264,26.479417941794,0,0
-159.30146340719,271.98111258895,21.283848384838,1288128.2525793,-2267.3899920543,2631449.9405264,26.483848384838,0,0
-159.30146320332,272.03255878033,21.288278827883,1288128.2525793,-2267.3899920543,2631449.9405264,26.488278827883,0,0
-159.30146299944,272.0840049717,21.292709270927,1288128.2525793,-2267.3899920543,2631449.9405264,26.492709270927,0,0
-159.30146279556,272.13545116308,21.297139713971,1288128.2525793,-2267.3899920543,2631449.9405264,26.497139713971,0,0
-159.30146259169,272.18689735445,21.301570157016,1288128.2525793,-2267.3899920543,2631449.9405264,26.501570157016,0,0
-159.30146238781,272.23834354583,21.30600060006,1288128.2525793,-2267.3899920543,2631449.9405264,26.50600060006,0,0
-159.30146218393,272.28978973721,21.310431043104,1288128.2525793,-2267.3899920543,2631449.9405264,26.510431043104,0,0
-159.30146198005,272.34123592858,21.314861486149,1288128.2525793,-2267.3899920543,2631449.9405264,26.514861486149,0,0
-159.30146177618,272.39268211996,21.319291929193,1288128.2525793,-2267.3899920543,2631449.9405264,26.519291929193,0,0
-159.3014615723,272.44412831133,21.323722372237,1288128.2525793,-2267.3899920543,2631449.9405264,26.523722372237,0,0
-159.30146136842,272.49557450271,21.328152815282,1288128.2525793,-2267.3899920543,2631449.9405264,26.528152815282,0,0
-159.30146116455,272.54702069408,21.332583258326,1288128.2525793,-2267.3899920543,2631449.9405264,26.532583258326,0,0
-159.30146096067,272.59846688546,21.33701370137,1288128.2525793,-2267.3899920543,2631449.9405264,26.53701370137,0,0
-159.30146075679,272.64991307683,21.341444144414,1288128.2525793,-2267.3899920543,2631449.9405264,26.541444144414,0,0
-159.30146055292,272.70135926821,21.345874587459,1288128.2525793,-2267.3899920543,2631449.9405264,26.545874587459,0,0
-159.30146034904,272.75280545959,21.350305030503,1288128.2525793,-2267.3899920543,2631449.9405264,26.550305030503,0,0
-159.30146014516,272.80425165096,21.354735473547,1288128.2525793,-2267.3899920543,2631449.9405264,26.554735473547,0,0
-159.30145994129,272.85569784234,21.359165916592,1288128.2525793,-2267.3899920543,2631449.9405264,26.559165916592,0,0
-159.30145973741,272.90714403371,21.363596359636,1288128.2525793,-2267.3899920543,2631449.9405264,26.563596359636,0,0
-159.30145953353,272.95859022509,21.36802680268,1288128.2525793,-2267.3899920543,2631449.9405264,26.56802680268,0,0
-159.30145932966,273.01003641646,21.372457245725,1288128.2525793,-2267.3899920543,2631449.9405264,26.572457245725,0,0
-159.30145912578,273.06148260784,21.376887688769,1288128.2525793,-2267.3899920543,2631449.9405264,26.576887688769,0,0
-159.3014589219,273.11292879921,21.381318131813,1288128.2525793,-2267.3899920543,2631449.9405264,26.581318131813,0,0
-159.30145871803,273.16437499059,21.385748574857,1288128.2525793,-2267.3899920543,2631449.9405264,26.585748574857,0,0
-159.30145851415,273.21582118197,21.390179017902,1288128.2525793,-2267.3899920543,2631449.9405264,26.590179017902,0,0
-159.30145831027,273.26726737334,21.394609460946,1288128.2525793,-2267.3899920543,2631449.9405264,26.594609460946,0,0
-159.30145810639,273.31871356472,21.39903990399,1288128.2525793,-2267.3899920543,2631449.9405264,26.59903990399,0,0
-159.30145790252,273.37015975609,21.403470347035,1288128.2525793,-2267.3899920543,2631449.9405264,26.603470347035,0,0
-159.30145769864,273.42160594747,21.407900790079,1288128.2525793,-2267.3899920543,2631449.9405264,26.607900790079,0,0
-159.30145749476,273.47305213884,21.412331233123,1288128.2525793,-2267.3899920543,2631449.9405264,26.612331233123,0,0
-159.30145729089,273.52449833022,21.416761676168,1288128.2525793,-2267.3899920543,2631449.9405264,26.616761676168,0,0
-159.30145708701,273.57594452159,21.421192119212,1288128.2525793,-2267.3899920543,2631449.9405264,26.621192119212,0,0
-159.30145688313,273.62739071297,21.425622562256,1288128.2525793,-2267.3899920543,2631449.9405264,26.625622562256,0,0
-159.30145667926,273.67883690435,21.430053005301,1288128.2525793,-2267.3899920543,2631449.9405264,26.630053005301,0,0
-159.30145647538,273.73028309572,21.434483448345,1288128.2525793,-2267.3899920543,2631449.9405264,26.634483448345,0,0
-159.3014562715,273.7817292871,21.438913891389,1288128.2525793,-2267.3899920543,2631449.9405264,26.638913891389,0,0
-159.30145606763,273.83317547847,21.443344334433,1288128.2525793,-2267.3899920543,2631449.9405264,26.643344334433,0,0
-159.30145586375,273.88462166985,21.447774777478,1288128.2525793,-2267.3899920543,2631449.9405264,26.647774777478,0,0
-159.30145565987,273.93606786122,21.452205220522,1288128.2525793,-2267.3899920543,2631449.9405264,26.652205220522,0,0
-159.301455456,273.9875140526,21.456635663566,1288128.2525793,-2267.3899920543,2631449.9405264,26.656635663566,0,0
-159.30145525212,274.03896024397,21.461066106611,1288128.2525793,-2267.3899920543,2631449.9405264,26.661066106611,0,0
-159.30145504824,274.09040643535,21.465496549655,1288128.2525793,-2267.3899920543,2631449.9405264,26.665496549655,0,0
-159.30145484437,274.14185262673,21.469926992699,1288128.2525793,-2267.3899920543,2631449.9405264,26.669926992699,0,0
-159.30145464049,274.1932988181,21.474357435744,1288128.2525793,-2267.3899920543,2631449.9405264,26.674357435744,0,0
-159.30145443661,274.24474500948,21.478787878788,1288128.2525793,-2267.3899920543,2631449.9405264,26.678787878788,0,0
-159.30145423273,274.29619120085,21.483218321832,1288128.2525793,-2267.3899920543,2631449.9405264,26.683218321832,0,0
-159.30145402886,274.34763739223,21.487648764876,1288128.2525793,-2267.3899920543,2631449.9405264,26.687648764876,0,0
-159.30145382498,274.3990835836,21.492079207921,1288128.2525793,-2267.3899920543,2631449.9405264,26.692079207921,0,0
-159.3014536211,274.45052977498,21.496509650965,1288128.2525793,-2267.3899920543,2631449.9405264,26.696509650965,0,0
-159.30145341723,274.50197596635,21.500940094009,1288128.2525793,-2267.3899920543,2631449.9405264,26.700940094009,0,0
-159.30145321335,274.55342215773,21.505370537054,1288128.2525793,-2267.3899920543,2631449.9405264,26.705370537054,0,0
-159.30145300947,274.60486834911,21.509800980098,1288128.2525793,-2267.3899920543,2631449.9405264,26.709800980098,0,0
-159.3014528056,274.65631454048,21.514231423142,1288128.2525793,-2267.3899920543,2631449.9405264,26.714231423142,0,0
-159.30145260172,274.70776073186,21.518661866187,1288128.2525793,-2267.3899920543,2631449.9405264,26.718661866187,0,0
-159.30145239784,274.75920692323,21.523092309231,1288128.2525793,-2267.3899920543,2631449.9405264,26.723092309231,0,0
-159.30145219397,274.81065311461,21.527522752275,1288128.2525793,-2267.3899920543,2631449.9405264,26.727522752275,0,0
-159.30145199009,274.86209930598,21.53195319532,1288128.2525793,-2267.3899920543,2631449.9405264,26.73195319532,0,0
-159.30145178621,274.91354549736,21.536383638364,1288128.2525793,-2267.3899920543,2631449.9405264,26.736383638364,0,0
-159.30145158234,274.96499168873,21.540814081408,1288128.2525793,-2267.3899920543,2631449.9405264,26.740814081408,0,0
-159.30145137846,275.01643788011,21.545244524452,1288128.2525793,-2267.3899920543,2631449.9405264,26.745244524452,0,0
-159.30145117458,275.06788407149,21.549674967497,1288128.2525793,-2267.3899920543,2631449.9405264,26.749674967497,0,0
-159.30145097071,275.11933026286,21.554105410541,1288128.2525793,-2267.3899920543,2631449.9405264,26.754105410541,0,0
-159.30145076683,275.17077645424,21.558535853585,1288128.2525793,-2267.3899920543,2631449.9405264,26.758535853585,0,0
-159.30145056295,275.22222264561,21.56296629663,1288128.2525793,-2267.3899920543,2631449.9405264,26.76296629663,0,0
-159.30145035907,275.27366883699,21.567396739674,1288128.2525793,-2267.3899920543,2631449.9405264,26.767396739674,0,0
-159.3014501552,275.32511502836,21.571827182718,1288128.2525793,-2267.3899920543,2631449.9405264,26.771827182718,0,0
-159.30144995132,275.37656121974,21.576257625763,1288128.2525793,-2267.3899920543,2631449.9405264,26.776257625763,0,0
-159.30144974744,275.42800741111,21.580688068807,1288128.2525793,-2267.3899920543,2631449.9405264,26.780688068807,0,0
-159.30144954357,275.47945360249,21.585118511851,1288128.2525793,-2267.3899920543,2631449.9405264,26.785118511851,0,0
-159.30144933969,275.53089979387,21.589548954895,1288128.2525793,-2267.3899920543,2631449.9405264,26.789548954895,0,0
-159.30144913581,275.58234598524,21.59397939794,1288128.2525793,-2267.3899920543,2631449.9405264,26.79397939794,0,0
-159.30144893194,275.63379217662,21.598409840984,1288128.2525793,-2267.3899920543,2631449.9405264,26.798409840984,0,0
-159.30144872806,275.68523836799,21.602840284028,1288128.2525793,-2267.3899920543,2631449.9405264,26.802840284028,0,0
-159.30144852418,275.73668455937,21.607270727073,1288128.2525793,-2267.3899920543,2631449.9405264,26.807270727073,0,0
-159.30144832031,275.78813075074,21.611701170117,1288128.2525793,-2267.3899920543,2631449.9405264,26.811701170117,0,0
-159.30144811643,275.83957694212,21.616131613161,1288128.2525793,-2267.3899920543,2631449.9405264,26.816131613161,0,0
-159.30144791255,275.89102313349,21.620562056206,1288128.2525793,-2267.3899920543,2631449.9405264,26.820562056206,0,0
-159.30144770868,275.94246932487,21.62499249925,1288128.2525793,-2267.3899920543,2631449.9405264,26.82499249925,0,0
-159.3014475048,275.99391551625,21.629422942294,1288128.2525793,-2267.3899920543,2631449.9405264,26.829422942294,0,0
-159.30144730092,276.04536170762,21.633853385339,1288128.2525793,-2267.3899920543,2631449.9405264,26.833853385339,0,0
-159.30144709705,276.096807899,21.638283828383,1288128.2525793,-2267.3899920543,2631449.9405264,26.838283828383,0,0
-159.30144689317,276.14825409037,21.642714271427,1288128.2525793,-2267.3899920543,2631449.9405264,26.842714271427,0,0
-159.30144668929,276.19970028175,21.647144714471,1288128.2525793,-2267.3899920543,2631449.9405264,26.847144714471,0,0
-159.30144648541,276.25114647312,21.651575157516,1288128.2525793,-2267.3899920543,2631449.9405264,26.851575157516,0,0
-159.30144628154,276.3025926645,21.65600560056,1288128.2525793,-2267.3899920543,2631449.9405264,26.85600560056,0,0
-159.30144607766,276.35403885587,21.660436043604,1288128.2525793,-2267.3899920543,2631449.9405264,26.860436043604,0,0
-159.30144587378,276.40548504725,21.664866486649,1288128.2525793,-2267.3899920543,2631449.9405264,26.864866486649,0,0
-159.30144566991,276.45693123863,21.669296929693,1288128.2525793,-2267.3899920543,2631449.9405264,26.869296929693,0,0
-159.30144546603,276.50837743,21.673727372737,1288128.2525793,-2267.3899920543,2631449.9405264,26.873727372737,0,0
-159.30144526215,276.55982362138,21.678157815782,1288128.2525793,-2267.3899920543,2631449.9405264,26.878157815782,0,0
-159.30144505828,276.61126981275,21.682588258826,1288128.2525793,-2267.3899920543,2631449.9405264,26.882588258826,0,0
-159.3014448544,276.66271600413,21.68701870187,1288128.2525793,-2267.3899920543,2631449.9405264,26.88701870187,0,0
-159.30144465052,276.7141621955,21.691449144914,1288128.2525793,-2267.3899920543,2631449.9405264,26.891449144914,0,0
-159.30144444665,276.76560838688,21.695879587959,1288128.2525793,-2267.3899920543,2631449.9405264,26.895879587959,0,0
-159.30144424277,276.81705457825,21.700310031003,1288128.2525793,-2267.3899920543,2631449.9405264,26.900310031003,0,0
-159.30144403889,276.86850076963,21.704740474047,1288128.2525793,-2267.3899920543,2631449.9405264,26.904740474047,0,0
-159.30144383502,276.91994696101,21.709170917092,1288128.2525793,-2267.3899920543,2631449.9405264,26.909170917092,0,0
-159.30144363114,276.97139315238,21.713601360136,1288128.2525793,-2267.3899920543,2631449.9405264,26.913601360136,0,0
-159.30144342726,277.02283934376,21.71803180318,1288128.2525793,-2267.3899920543,2631449.9405264,26.91803180318,0,0
-159.30144322339,277.07428553513,21.722462246225,1288128.2525793,-2267.3899920543,2631449.9405264,26.922462246225,0,0
-159.30144301951,277.12573172651,21.726892689269,1288128.2525793,-2267.3899920543,2631449.9405264,26.926892689269,0,0
-159.30144281563,277.17717791788,21.731323132313,1288128.2525793,-2267.3899920543,2631449.9405264,26.931323132313,0,0
-159.30144261175,277.22862410926,21.735753575358,1288128.2525793,-2267.3899920543,2631449.9405264,26.935753575358,0,0
-159.30144240788,277.28007030063,21.740184018402,1288128.2525793,-2267.3899920543,2631449.9405264,26.940184018402,0,0
-159.301442204,277.33151649201,21.744614461446,1288128.2525793,-2267.3899920543,2631449.9405264,26.944614461446,0,0
-159.30144200012,277.38296268339,21.74904490449,1288128.2525793,-2267.3899920543,2631449.9405264,26.94904490449,0,0
-159.30144179625,277.43440887476,21.753475347535,1288128.2525793,-2267.3899920543,2631449.9405264,26.953475347535,0,0
-159.30144159237,277.48585506614,21.757905790579,1288128.2525793,-2267.3899920543,2631449.9405264,26.957905790579,0,0
-159.30144138849,277.53730125751,21.762336233623,1288128.2525793,-2267.3899920543,2631449.9405264,26.962336233623,0,0
-159.30144118462,277.58874744889,21.766766676668,1288128.2525793,-2267.3899920543,2631449.9405264,26.966766676668,0,0
-159.30144098074,277.64019364026,21.771197119712,1288128.2525793,-2267.3899920543,2631449.9405264,26.971197119712,0,0
-159.30144077686,277.69163983164,21.775627562756,1288128.2525793,-2267.3899920543,2631449.9405264,26.975627562756,0,0
-159.30144057299,277.74308602301,21.780058005801,1288128.2525793,-2267.3899920543,2631449.9405264,26.980058005801,0,0
-159.30144036911,277.79453221439,21.784488448845,1288128.2525793,-2267.3899920543,2631449.9405264,26.984488448845,0,0
-159.30144016523,277.84597840577,21.788918891889,1288128.2525793,-2267.3899920543,2631449.9405264,26.988918891889,0,0
-159.30143996136,277.89742459714,21.793349334933,1288128.2525793,-2267.3899920543,2631449.9405264,26.993349334933,0,0
-159.30143975748,277.94887078852,21.797779777978,1288128.2525793,-2267.3899920543,2631449.9405264,26.997779777978,0,0
-159.3014395536,278.00031697989,21.802210221022,1288128.2525793,-2267.3899920543,2631449.9405264,27.002210221022,0,0
-159.30143934973,278.05176317127,21.806640664066,1288128.2525793,-2267.3899920543,2631449.9405264,27.006640664066,0,0
-159.30143914585,278.10320936264,21.811071107111,1288128.2525793,-2267.3899920543,2631449.9405264,27.011071107111,0,0
-159.30143894197,278.15465555402,21.815501550155,1288128.2525793,-2267.3899920543,2631449.9405264,27.015501550155,0,0
-159.30143873809,278.20610174539,21.819931993199,1288128.2525793,-2267.3899920543,2631449.9405264,27.019931993199,0,0
-159.30143853422,278.25754793677,21.824362436244,1288128.2525793,-2267.3899920543,2631449.9405264,27.024362436244,0,0
-159.30143833034,278.30899412815,21.828792879288,1288128.2525793,-2267.3899920543,2631449.9405264,27.028792879288,0,0
-159.30143812646,278.36044031952,21.833223322332,1288128.2525793,-2267.3899920543,2631449.9405264,27.033223322332,0,0
-159.30143792259,278.4118865109,21.837653765377,1288128.2525793,-2267.3899920543,2631449.9405264,27.037653765377,0,0
-159.30143771871,278.46333270227,21.842084208421,1288128.2525793,-2267.3899920543,2631449.9405264,27.042084208421,0,0
-159.30143751483,278.51477889365,21.846514651465,1288128.2525793,-2267.3899920543,2631449.9405264,27.046514651465,0,0
-159.30143731096,278.56622508502,21.850945094509,1288128.2525793,-2267.3899920543,2631449.9405264,27.050945094509,0,0
-159.30143710708,278.6176712764,21.855375537554,1288128.2525793,-2267.3899920543,2631449.9405264,27.055375537554,0,0
-159.3014369032,278.66911746777,21.859805980598,1288128.2525793,-2267.3899920543,2631449.9405264,27.059805980598,0,0
-159.30143669933,278.72056365915,21.864236423642,1288128.2525793,-2267.3899920543,2631449.9405264,27.064236423642,0,0
-159.30143649545,278.77200985053,21.868666866687,1288128.2525793,-2267.3899920543,2631449.9405264,27.068666866687,0,0
-159.30143629157,278.8234560419,21.873097309731,1288128.2525793,-2267.3899920543,2631449.9405264,27.073097309731,0,0
-159.3014360877,278.87490223328,21.877527752775,1288128.2525793,-2267.3899920543,2631449.9405264,27.077527752775,0,0
-159.30143588382,278.92634842465,21.88195819582,1288128.2525793,-2267.3899920543,2631449.9405264,27.08195819582,0,0
-159.30143567994,278.97779461603,21.886388638864,1288128.2525793,-2267.3899920543,2631449.9405264,27.086388638864,0,0
-159.30143547607,279.0292408074,21.890819081908,1288128.2525793,-2267.3899920543,2631449.9405264,27.090819081908,0,0
-159.30143527219,279.08068699878,21.895249524952,1288128.2525793,-2267.3899920543,2631449.9405264,27.095249524952,0,0
-159.30143506831,279.13213319015,21.899679967997,1288128.2525793,-2267.3899920543,2631449.9405264,27.099679967997,0,0
-159.30143486444,279.18357938153,21.904110411041,1288128.2525793,-2267.3899920543,2631449.9405264,27.104110411041,0,0
-159.30143466056,279.23502557291,21.908540854085,1288128.2525793,-2267.3899920543,2631449.9405264,27.108540854085,0,0
-159.30143445668,279.28647176428,21.91297129713,1288128.2525793,-2267.3899920543,2631449.9405264,27.11297129713,0,0
-159.3014342528,279.33791795566,21.917401740174,1288128.2525793,-2267.3899920543,2631449.9405264,27.117401740174,0,0
-159.30143404893,279.38936414703,21.921832183218,1288128.2525793,-2267.3899920543,2631449.9405264,27.121832183218,0,0
-159.30143384505,279.44081033841,21.926262626263,1288128.2525793,-2267.3899920543,2631449.9405264,27.126262626263,0,0
-159.30143364117,279.49225652978,21.930693069307,1288128.2525793,-2267.3899920543,2631449.9405264,27.130693069307,0,0
-159.3014334373,279.54370272116,21.935123512351,1288128.2525793,-2267.3899920543,2631449.9405264,27.135123512351,0,0
-159.30143323342,279.59514891253,21.939553955396,1288128.2525793,-2267.3899920543,2631449.9405264,27.139553955396,0,0
-159.30143302954,279.64659510391,21.94398439844,1288128.2525793,-2267.3899920543,2631449.9405264,27.14398439844,0,0
-159.30143282567,279.69804129529,21.948414841484,1288128.2525793,-2267.3899920543,2631449.9405264,27.148414841484,0,0
-159.30143262179,279.74948748666,21.952845284528,1288128.2525793,-2267.3899920543,2631449.9405264,27.152845284528,0,0
-159.30143241791,279.80093367804,21.957275727573,1288128.2525793,-2267.3899920543,2631449.9405264,27.157275727573,0,0
-159.30143221404,279.85237986941,21.961706170617,1288128.2525793,-2267.3899920543,2631449.9405264,27.161706170617,0,0
-159.30143201016,279.90382606079,21.966136613661,1288128.2525793,-2267.3899920543,2631449.9405264,27.166136613661,0,0
-159.30143180628,279.95527225216,21.970567056706,1288128.2525793,-2267.3899920543,2631449.9405264,27.170567056706,0,0
-159.30143160241,280.00671844354,21.97499749975,1288128.2525793,-2267.3899920543,2631449.9405264,27.17499749975,0,0
-159.30143139853,280.05816463491,21.979427942794,1288128.2525793,-2267.3899920543,2631449.9405264,27.179427942794,0,0
-159.30143119465,280.10961082629,21.983858385839,1288128.2525793,-2267.3899920543,2631449.9405264,27.183858385839,0,0
-159.30143099078,280.16105701767,21.988288828883,1288128.2525793,-2267.3899920543,2631449.9405264,27.188288828883,0,0
-159.3014307869,280.21250320904,21.992719271927,1288128.2525793,-2267.3899920543,2631449.9405264,27.192719271927,0,0
-159.30143058302,280.26394940042,21.997149714971,1288128.2525793,-2267.3899920543,2631449.9405264,27.197149714971,0,0
-159.30143037914,280.31539559179,22.001580158016,1288128.2525793,-2267.3899920543,2631449.9405264,27.201580158016,0,0
-159.30143017527,280.36684178317,22.00601060106,1288128.2525793,-2267.3899920543,2631449.9405264,27.20601060106,0,0
-159.30142997139,280.41828797454,22.010441044104,1288128.2525793,-2267.3899920543,2631449.9405264,27.210441044104,0,0
-159.30142976751,280.46973416592,22.014871487149,1288128.2525793,-2267.3899920543,2631449.9405264,27.214871487149,0,0
-159.30142956364,280.52118035729,22.019301930193,1288128.2525793,-2267.3899920543,2631449.9405264,27.219301930193,0,0
-159.30142935976,280.57262654867,22.023732373237,1288128.2525793,-2267.3899920543,2631449.9405264,27.223732373237,0,0
-159.30142915588,280.62407274005,22.028162816282,1288128.2525793,-2267.3899920543,2631449.9405264,27.228162816282,0,0
-159.30142895201,280.67551893142,22.032593259326,1288128.2525793,-2267.3899920543,2631449.9405264,27.232593259326,0,0
-159.30142874813,280.7269651228,22.03702370237,1288128.2525793,-2267.3899920543,2631449.9405264,27.23702370237,0,0
-159.30142854425,280.77841131417,22.041454145415,1288128.2525793,-2267.3899920543,2631449.9405264,27.241454145415,0,0
-159.30142834038,280.82985750555,22.045884588459,1288128.2525793,-2267.3899920543,2631449.9405264,27.245884588459,0,0
-159.3014281365,280.88130369692,22.050315031503,1288128.2525793,-2267.3899920543,2631449.9405264,27.250315031503,0,0
-159.30142793262,280.9327498883,22.054745474547,1288128.2525793,-2267.3899920543,2631449.9405264,27.254745474547,0,0
-159.30142772875,280.98419607967,22.059175917592,1288128.2525793,-2267.3899920543,2631449.9405264,27.259175917592,0,0
-159.30142752487,281.03564227105,22.063606360636,1288128.2525793,-2267.3899920543,2631449.9405264,27.263606360636,0,0
-159.30142732099,281.08708846243,22.06803680368,1288128.2525793,-2267.3899920543,2631449.9405264,27.26803680368,0,0
-159.30142711712,281.1385346538,22.072467246725,1288128.2525793,-2267.3899920543,2631449.9405264,27.272467246725,0,0
-159.30142691324,281.18998084518,22.076897689769,1288128.2525793,-2267.3899920543,2631449.9405264,27.276897689769,0,0
-159.30142670936,281.24142703655,22.081328132813,1288128.2525793,-2267.3899920543,2631449.9405264,27.281328132813,0,0
-159.30142650548,281.29287322793,22.085758575858,1288128.2525793,-2267.3899920543,2631449.9405264,27.285758575858,0,0
-159.30142630161,281.3443194193,22.090189018902,1288128.2525793,-2267.3899920543,2631449.9405264,27.290189018902,0,0
-159.30142609773,281.39576561068,22.094619461946,1288128.2525793,-2267.3899920543,2631449.9405264,27.294619461946,0,0
-159.30142589385,281.44721180205,22.09904990499,1288128.2525793,-2267.3899920543,2631449.9405264,27.29904990499,0,0
-159.30142568998,281.49865799343,22.103480348035,1288128.2525793,-2267.3899920543,2631449.9405264,27.303480348035,0,0
-159.3014254861,281.55010418481,22.107910791079,1288128.2525793,-2267.3899920543,2631449.9405264,27.307910791079,0,0
-159.30142528222,281.60155037618,22.112341234123,1288128.2525793,-2267.3899920543,2631449.9405264,27.312341234123,0,0
-159.30142507835,281.65299656756,22.116771677168,1288128.2525793,-2267.3899920543,2631449.9405264,27.316771677168,0,0
-159.30142487447,281.70444275893,22.121202120212,1288128.2525793,-2267.3899920543,2631449.9405264,27.321202120212,0,0
-159.30142467059,281.75588895031,22.125632563256,1288128.2525793,-2267.3899920543,2631449.9405264,27.325632563256,0,0
-159.30142446672,281.80733514168,22.130063006301,1288128.2525793,-2267.3899920543,2631449.9405264,27.330063006301,0,0
-159.30142426284,281.85878133306,22.134493449345,1288128.2525793,-2267.3899920543,2631449.9405264,27.334493449345,0,0
-159.30142405896,281.91022752444,22.138923892389,1288128.2525793,-2267.3899920543,2631449.9405264,27.338923892389,0,0
-159.30142385509,281.96167371581,22.143354335434,1288128.2525793,-2267.3899920543,2631449.9405264,27.343354335434,0,0
-159.30142365121,282.01311990719,22.147784778478,1288128.2525793,-2267.3899920543,2631449.9405264,27.347784778478,0,0
-159.30142344733,282.06456609856,22.152215221522,1288128.2525793,-2267.3899920543,2631449.9405264,27.352215221522,0,0
-159.30142324346,282.11601228994,22.156645664566,1288128.2525793,-2267.3899920543,2631449.9405264,27.356645664566,0,0
-159.30142303958,282.16745848131,22.161076107611,1288128.2525793,-2267.3899920543,2631449.9405264,27.361076107611,0,0
-159.3014228357,282.21890467269,22.165506550655,1288128.2525793,-2267.3899920543,2631449.9405264,27.365506550655,0,0
-159.30142263182,282.27035086406,22.169936993699,1288128.2525793,-2267.3899920543,2631449.9405264,27.369936993699,0,0
-159.30142242795,282.32179705544,22.174367436744,1288128.2525793,-2267.3899920543,2631449.9405264,27.374367436744,0,0
-159.30142222407,282.37324324682,22.178797879788,1288128.2525793,-2267.3899920543,2631449.9405264,27.378797879788,0,0
-159.30142202019,282.42468943819,22.183228322832,1288128.2525793,-2267.3899920543,2631449.9405264,27.383228322832,0,0
-159.30142181632,282.47613562957,22.187658765877,1288128.2525793,-2267.3899920543,2631449.9405264,27.387658765877,0,0
-159.30142161244,282.52758182094,22.192089208921,1288128.2525793,-2267.3899920543,2631449.9405264,27.392089208921,0,0
-159.30142140856,282.57902801232,22.196519651965,1288128.2525793,-2267.3899920543,2631449.9405264,27.396519651965,0,0
-159.30142120469,282.63047420369,22.200950095009,1288128.2525793,-2267.3899920543,2631449.9405264,27.400950095009,0,0
-159.30142100081,282.68192039507,22.205380538054,1288128.2525793,-2267.3899920543,2631449.9405264,27.405380538054,0,0
-159.30142079693,282.73336658644,22.209810981098,1288128.2525793,-2267.3899920543,2631449.9405264,27.409810981098,0,0
-159.30142059306,282.78481277782,22.214241424142,1288128.2525793,-2267.3899920543,2631449.9405264,27.414241424142,0,0
-159.30142038918,282.8362589692,22.218671867187,1288128.2525793,-2267.3899920543,2631449.9405264,27.418671867187,0,0
-159.3014201853,282.88770516057,22.223102310231,1288128.2525793,-2267.3899920543,2631449.9405264,27.423102310231,0,0
-159.30141998143,282.93915135195,22.227532753275,1288128.2525793,-2267.3899920543,2631449.9405264,27.427532753275,0,0
-159.30141977755,282.99059754332,22.23196319632,1288128.2525793,-2267.3899920543,2631449.9405264,27.43196319632,0,0
-159.30141957367,283.0420437347,22.236393639364,1288128.2525793,-2267.3899920543,2631449.9405264,27.436393639364,0,0
-159.3014193698,283.09348992607,22.240824082408,1288128.2525793,-2267.3899920543,2631449.9405264,27.440824082408,0,0
-159.30141916592,283.14493611745,22.245254525453,1288128.2525793,-2267.3899920543,2631449.9405264,27.445254525453,0,0
-159.30141896204,283.19638230882,22.249684968497,1288128.2525793,-2267.3899920543,2631449.9405264,27.449684968497,0,0
-159.30141875816,283.2478285002,22.254115411541,1288128.2525793,-2267.3899920543,2631449.9405264,27.454115411541,0,0
-159.30141855429,283.29927469158,22.258545854585,1288128.2525793,-2267.3899920543,2631449.9405264,27.458545854585,0,0
-159.30141835041,283.35072088295,22.26297629763,1288128.2525793,-2267.3899920543,2631449.9405264,27.46297629763,0,0
-159.30141814653,283.40216707433,22.267406740674,1288128.2525793,-2267.3899920543,2631449.9405264,27.467406740674,0,0
-159.30141794266,283.4536132657,22.271837183718,1288128.2525793,-2267.3899920543,2631449.9405264,27.471837183718,0,0
-159.30141773878,283.50505945708,22.276267626763,1288128.2525793,-2267.3899920543,2631449.9405264,27.476267626763,0,0
-159.3014175349,283.55650564845,22.280698069807,1288128.2525793,-2267.3899920543,2631449.9405264,27.480698069807,0,0
-159.30141733103,283.60795183983,22.285128512851,1288128.2525793,-2267.3899920543,2631449.9405264,27.485128512851,0,0
-159.30141712715,283.6593980312,22.289558955896,1288128.2525793,-2267.3899920543,2631449.9405264,27.489558955896,0,0
-159.30141692327,283.71084422258,22.29398939894,1288128.2525793,-2267.3899920543,2631449.9405264,27.49398939894,0,0
-159.3014167194,283.76229041396,22.298419841984,1288128.2525793,-2267.3899920543,2631449.9405264,27.498419841984,0,0
-159.30141651552,283.81373660533,22.302850285029,1288128.2525793,-2267.3899920543,2631449.9405264,27.502850285029,0,0
-159.30141631164,283.86518279671,22.307280728073,1288128.2525793,-2267.3899920543,2631449.9405264,27.507280728073,0,0
-159.30141610777,283.91662898808,22.311711171117,1288128.2525793,-2267.3899920543,2631449.9405264,27.511711171117,0,0
-159.30141590389,283.96807517946,22.316141614161,1288128.2525793,-2267.3899920543,2631449.9405264,27.516141614161,0,0
-159.30141570001,284.01952137083,22.320572057206,1288128.2525793,-2267.3899920543,2631449.9405264,27.520572057206,0,0
-159.30141549614,284.07096756221,22.32500250025,1288128.2525793,-2267.3899920543,2631449.9405264,27.52500250025,0,0
-159.30141529226,284.12241375358,22.329432943294,1288128.2525793,-2267.3899920543,2631449.9405264,27.529432943294,0,0
-159.30141508838,284.17385994496,22.333863386339,1288128.2525793,-2267.3899920543,2631449.9405264,27.533863386339,0,0
-159.3014148845,284.22530613634,22.338293829383,1288128.2525793,-2267.3899920543,2631449.9405264,27.538293829383,0,0
-159.30141468063,284.27675232771,22.342724272427,1288128.2525793,-2267.3899920543,2631449.9405264,27.542724272427,0,0
-159.30141447675,284.32819851909,22.347154715472,1288128.2525793,-2267.3899920543,2631449.9405264,27.547154715472,0,0
-159.30141427287,284.37964471046,22.351585158516,1288128.2525793,-2267.3899920543,2631449.9405264,27.551585158516,0,0
-159.301414069,284.43109090184,22.35601560156,1288128.2525793,-2267.3899920543,2631449.9405264,27.55601560156,0,0
-159.30141386512,284.48253709321,22.360446044604,1288128.2525793,-2267.3899920543,2631449.9405264,27.560446044604,0,0
-159.30141366124,284.53398328459,22.364876487649,1288128.2525793,-2267.3899920543,2631449.9405264,27.564876487649,0,0
-159.30141345737,284.58542947596,22.369306930693,1288128.2525793,-2267.3899920543,2631449.9405264,27.569306930693,0,0
-159.30141325349,284.63687566734,22.373737373737,1288128.2525793,-2267.3899920543,2631449.9405264,27.573737373737,0,0
-159.30141304961,284.68832185872,22.378167816782,1288128.2525793,-2267.3899920543,2631449.9405264,27.578167816782,0,0
-159.30141284574,284.73976805009,22.382598259826,1288128.2525793,-2267.3899920543,2631449.9405264,27.582598259826,0,0
-159.30141264186,284.79121424147,22.38702870287,1288128.2525793,-2267.3899920543,2631449.9405264,27.58702870287,0,0
-159.30141243798,284.84266043284,22.391459145915,1288128.2525793,-2267.3899920543,2631449.9405264,27.591459145915,0,0
-159.30141223411,284.89410662422,22.395889588959,1288128.2525793,-2267.3899920543,2631449.9405264,27.595889588959,0,0
-159.30141203023,284.94555281559,22.400320032003,1288128.2525793,-2267.3899920543,2631449.9405264,27.600320032003,0,0
-159.30141182635,284.99699900697,22.404750475048,1288128.2525793,-2267.3899920543,2631449.9405264,27.604750475048,0,0
-159.30141162248,285.04844519834,22.409180918092,1288128.2525793,-2267.3899920543,2631449.9405264,27.609180918092,0,0
-159.3014114186,285.09989138972,22.413611361136,1288128.2525793,-2267.3899920543,2631449.9405264,27.613611361136,0,0
-159.30141121472,285.1513375811,22.41804180418,1288128.2525793,-2267.3899920543,2631449.9405264,27.61804180418,0,0
-159.30141101084,285.20278377247,22.422472247225,1288128.2525793,-2267.3899920543,2631449.9405264,27.622472247225,0,0
-159.30141080697,285.25422996385,22.426902690269,1288128.2525793,-2267.3899920543,2631449.9405264,27.626902690269,0,0
-159.30141060309,285.30567615522,22.431333133313,1288128.2525793,-2267.3899920543,2631449.9405264,27.631333133313,0,0
-159.30141039921,285.3571223466,22.435763576358,1288128.2525793,-2267.3899920543,2631449.9405264,27.635763576358,0,0
-159.30141019534,285.40856853797,22.440194019402,1288128.2525793,-2267.3899920543,2631449.9405264,27.640194019402,0,0
-159.30140999146,285.46001472935,22.444624462446,1288128.2525793,-2267.3899920543,2631449.9405264,27.644624462446,0,0
-159.30140978758,285.51146092072,22.449054905491,1288128.2525793,-2267.3899920543,2631449.9405264,27.649054905491,0,0
-159.30140958371,285.5629071121,22.453485348535,1288128.2525793,-2267.3899920543,2631449.9405264,27.653485348535,0,0
-159.30140937983,285.61435330348,22.457915791579,1288128.2525793,-2267.3899920543,2631449.9405264,27.657915791579,0,0
-159.30140917595,285.66579949485,22.462346234623,1288128.2525793,-2267.3899920543,2631449.9405264,27.662346234623,0,0
-159.30140897208,285.71724568623,22.466776677668,1288128.2525793,-2267.3899920543,2631449.9405264,27.666776677668,0,0
-159.3014087682,285.7686918776,22.471207120712,1288128.2525793,-2267.3899920543,2631449.9405264,27.671207120712,0,0
-159.30140856432,285.82013806898,22.475637563756,1288128.2525793,-2267.3899920543,2631449.9405264,27.675637563756,0,0
-159.30140836045,285.87158426035,22.480068006801,1288128.2525793,-2267.3899920543,2631449.9405264,27.680068006801,0,0
-159.30140815657,285.92303045173,22.484498449845,1288128.2525793,-2267.3899920543,2631449.9405264,27.684498449845,0,0
-159.30140795269,285.9744766431,22.488928892889,1288128.2525793,-2267.3899920543,2631449.9405264,27.688928892889,0,0
-159.30140774882,286.02592283448,22.493359335934,1288128.2525793,-2267.3899920543,2631449.9405264,27.693359335934,0,0
-159.30140754494,286.07736902586,22.497789778978,1288128.2525793,-2267.3899920543,2631449.9405264,27.697789778978,0,0
-159.30140734106,286.12881521723,22.502220222022,1288128.2525793,-2267.3899920543,2631449.9405264,27.702220222022,0,0
-159.30140713718,286.18026140861,22.506650665067,1288128.2525793,-2267.3899920543,2631449.9405264,27.706650665067,0,0
-159.30140693331,286.23170759998,22.511081108111,1288128.2525793,-2267.3899920543,2631449.9405264,27.711081108111,0,0
-159.30140672943,286.28315379136,22.515511551155,1288128.2525793,-2267.3899920543,2631449.9405264,27.715511551155,0,0
-159.30140652555,286.33459998273,22.519941994199,1288128.2525793,-2267.3899920543,2631449.9405264,27.719941994199,0,0
-159.30140632168,286.38604617411,22.524372437244,1288128.2525793,-2267.3899920543,2631449.9405264,27.724372437244,0,0
-159.3014061178,286.43749236548,22.528802880288,1288128.2525793,-2267.3899920543,2631449.9405264,27.728802880288,0,0
-159.30140591392,286.48893855686,22.533233323332,1288128.2525793,-2267.3899920543,2631449.9405264,27.733233323332,0,0
-159.30140571005,286.54038474824,22.537663766377,1288128.2525793,-2267.3899920543,2631449.9405264,27.737663766377,0,0
-159.30140550617,286.59183093961,22.542094209421,1288128.2525793,-2267.3899920543,2631449.9405264,27.742094209421,0,0
-159.30140530229,286.64327713099,22.546524652465,1288128.2525793,-2267.3899920543,2631449.9405264,27.746524652465,0,0
-159.30140509842,286.69472332236,22.55095509551,1288128.2525793,-2267.3899920543,2631449.9405264,27.75095509551,0,0
-159.30140489454,286.74616951374,22.555385538554,1288128.2525793,-2267.3899920543,2631449.9405264,27.755385538554,0,0
-159.30140469066,286.79761570511,22.559815981598,1288128.2525793,-2267.3899920543,2631449.9405264,27.759815981598,0,0
-159.30140448679,286.84906189649,22.564246424642,1288128.2525793,-2267.3899920543,2631449.9405264,27.764246424642,0,0
-159.30140428294,286.90050808859,22.568676867687,1286247.3847454,923.38605368051,2626813.0463129,27.768676867687,0,0
-159.30140407912,286.95195428127,22.573107310731,1286247.3847454,923.38605368051,2626813.0463129,27.773107310731,0,0
-159.3014038753,287.00340047396,22.577537753775,1286247.3847454,923.38605368051,2626813.0463129,27.777537753775,0,0
-159.30140367149,287.05484666665,22.58196819682,1286247.3847454,923.38605368051,2626813.0463129,27.78196819682,0,0
-159.30140346767,287.10629285934,22.586398639864,1286247.3847454,923.38605368051,2626813.0463129,27.786398639864,0,0
-159.30140326385,287.15773905203,22.590829082908,1286247.3847454,923.38605368051,2626813.0463129,27.790829082908,0,0
-159.30140306003,287.20918524472,22.595259525953,1286247.3847454,923.38605368051,2626813.0463129,27.795259525953,0,0
-159.30140285621,287.26063143741,22.599689968997,1286247.3847454,923.38605368051,2626813.0463129,27.799689968997,0,0
-159.30140265239,287.3120776301,22.604120412041,1286247.3847454,923.38605368051,2626813.0463129,27.804120412041,0,0
-159.30140244857,287.36352382278,22.608550855086,1286247.3847454,923.38605368051,2626813.0463129,27.808550855086,0,0
-159.30140224476,287.41497001547,22.61298129813,1286247.3847454,923.38605368051,2626813.0463129,27.81298129813,0,0
-159.30140204094,287.46641620816,22.617411741174,1286247.3847454,923.38605368051,2626813.0463129,27.817411741174,0,0
-159.30140183712,287.51786240085,22.621842184218,1286247.3847454,923.38605368051,2626813.0463129,27.821842184218,0,0
-159.3014016333,287.56930859354,22.626272627263,1286247.3847454,923.38605368051,2626813.0463129,27.826272627263,0,0
-159.30140142948,287.62075478623,22.630703070307,1286247.3847454,923.38605368051,2626813.0463129,27.830703070307,0,0
-159.30140122566,287.67220097892,22.635133513351,1286247.3847454,923.38605368051,2626813.0463129,27.835133513351,0,0
-159.30140102185,287.72364717161,22.639563956396,1286247.3847454,923.38605368051,2626813.0463129,27.839563956396,0,0
-159.30140081803,287.77509336429,22.64399439944,1286247.3847454,923.38605368051,2626813.0463129,27.84399439944,0,0
-159.30140061421,287.82653955698,22.648424842484,1286247.3847454,923.38605368051,2626813.0463129,27.848424842484,0,0
-159.30140041039,287.87798574967,22.652855285529,1286247.3847454,923.38605368051,2626813.0463129,27.852855285529,0,0
-159.30140020657,287.92943194236,22.657285728573,1286247.3847454,923.38605368051,2626813.0463129,27.857285728573,0,0
-159.30140000275,287.98087813505,22.661716171617,1286247.3847454,923.38605368051,2626813.0463129,27.861716171617,0,0
-159.30139979893,288.03232432774,22.666146614661,1286247.3847454,923.38605368051,2626813.0463129,27.866146614661,0,0
-159.30139959512,288.08377052043,22.670577057706,1286247.3847454,923.38605368051,2626813.0463129,27.870577057706,0,0
-159.3013993913,288.13521671312,22.67500750075,1286247.3847454,923.38605368051,2626813.0463129,27.87500750075,0,0
-159.30139918748,288.1866629058,22.679437943794,1286247.3847454,923.38605368051,2626813.0463129,27.879437943794,0,0
-159.30139898366,288.23810909849,22.683868386839,1286247.3847454,923.38605368051,2626813.0463129,27.883868386839,0,0
-159.30139877984,288.28955529118,22.688298829883,1286247.3847454,923.38605368051,2626813.0463129,27.888298829883,0,0
-159.30139857602,288.34100148387,22.692729272927,1286247.3847454,923.38605368051,2626813.0463129,27.892729272927,0,0
-159.3013983722,288.39244767656,22.697159715972,1286247.3847454,923.38605368051,2626813.0463129,27.897159715972,0,0
-159.30139816839,288.44389386925,22.701590159016,1286247.3847454,923.38605368051,2626813.0463129,27.901590159016,0,0
-159.30139796457,288.49534006194,22.70602060206,1286247.3847454,923.38605368051,2626813.0463129,27.90602060206,0,0
-159.30139776075,288.54678625463,22.710451045105,1286247.3847454,923.38605368051,2626813.0463129,27.910451045105,0,0
-159.30139755693,288.59823244731,22.714881488149,1286247.3847454,923.38605368051,2626813.0463129,27.914881488149,0,0
-159.30139735311,288.64967864,22.719311931193,1286247.3847454,923.38605368051,2626813.0463129,27.919311931193,0,0
-159.30139714929,288.70112483269,22.723742374237,1286247.3847454,923.38605368051,2626813.0463129,27.923742374237,0,0
-159.30139694548,288.75257102538,22.728172817282,1286247.3847454,923.38605368051,2626813.0463129,27.928172817282,0,0
-159.30139674166,288.80401721807,22.732603260326,1286247.3847454,923.38605368051,2626813.0463129,27.932603260326,0,0
-159.30139653784,288.85546341076,22.73703370337,1286247.3847454,923.38605368051,2626813.0463129,27.93703370337,0,0
-159.30139633402,288.90690960345,22.741464146415,1286247.3847454,923.38605368051,2626813.0463129,27.941464146415,0,0
-159.3013961302,288.95835579614,22.745894589459,1286247.3847454,923.38605368051,2626813.0463129,27.945894589459,0,0
-159.30139592638,289.00980198882,22.750325032503,1286247.3847454,923.38605368051,2626813.0463129,27.950325032503,0,0
-159.30139572256,289.06124818151,22.754755475548,1286247.3847454,923.38605368051,2626813.0463129,27.954755475548,0,0
-159.30139551875,289.1126943742,22.759185918592,1286247.3847454,923.38605368051,2626813.0463129,27.959185918592,0,0
-159.30139531493,289.16414056689,22.763616361636,1286247.3847454,923.38605368051,2626813.0463129,27.963616361636,0,0
-159.30139511111,289.21558675958,22.76804680468,1286247.3847454,923.38605368051,2626813.0463129,27.96804680468,0,0
-159.30139490729,289.26703295227,22.772477247725,1286247.3847454,923.38605368051,2626813.0463129,27.972477247725,0,0
-159.30139470347,289.31847914496,22.776907690769,1286247.3847454,923.38605368051,2626813.0463129,27.976907690769,0,0
-159.30139449965,289.36992533765,22.781338133813,1286247.3847454,923.38605368051,2626813.0463129,27.981338133813,0,0
-159.30139429583,289.42137153033,22.785768576858,1286247.3847454,923.38605368051,2626813.0463129,27.985768576858,0,0
-159.30139409202,289.47281772302,22.790199019902,1286247.3847454,923.38605368051,2626813.0463129,27.990199019902,0,0
-159.3013938882,289.52426391571,22.794629462946,1286247.3847454,923.38605368051,2626813.0463129,27.994629462946,0,0
-159.30139368438,289.5757101084,22.799059905991,1286247.3847454,923.38605368051,2626813.0463129,27.999059905991,0,0
-159.30139348056,289.62715630109,22.803490349035,1286247.3847454,923.38605368051,2626813.0463129,28.003490349035,0,0
-159.30139327674,289.67860249378,22.807920792079,1286247.3847454,923.38605368051,2626813.0463129,28.007920792079,0,0
-159.30139307292,289.73004868647,22.812351235124,1286247.3847454,923.38605368051,2626813.0463129,28.012351235124,0,0
-159.30139286911,289.78149487916,22.816781678168,1286247.3847454,923.38605368051,2626813.0463129,28.016781678168,0,0
-159.30139266529,289.83294107184,22.821212121212,1286247.3847454,923.38605368051,2626813.0463129,28.021212121212,0,0
-159.30139246147,289.88438726453,22.825642564256,1286247.3847454,923.38605368051,2626813.0463129,28.025642564256,0,0
-159.3013922575,289.93583345647,22.830073007301,1286056.4990449,-2024.8163022945,2620817.5093836,28.030073007301,0,0
-159.3013920534,289.98727964773,22.834503450345,1286056.4990449,-2024.8163022945,2620817.5093836,28.034503450345,0,0
-159.3013918493,290.03872583899,22.838933893389,1286056.4990449,-2024.8163022945,2620817.5093836,28.038933893389,0,0
-159.30139164521,290.09017203026,22.843364336434,1286056.4990449,-2024.8163022945,2620817.5093836,28.043364336434,0,0
-159.30139144111,290.14161822152,22.847794779478,1286056.4990449,-2024.8163022945,2620817.5093836,28.047794779478,0,0
-159.30139123701,290.19306441279,22.852225222522,1286056.4990449,-2024.8163022945,2620817.5093836,28.052225222522,0,0
-159.30139103291,290.24451060405,22.856655665567,1286056.4990449,-2024.8163022945,2620817.5093836,28.056655665567,0,0
-159.30139082881,290.29595679532,22.861086108611,1286056.4990449,-2024.8163022945,2620817.5093836,28.061086108611,0,0
-159.30139062471,290.34740298658,22.865516551655,1286056.4990449,-2024.8163022945,2620817.5093836,28.065516551655,0,0
-159.30139042062,290.39884917785,22.869946994699,1286056.4990449,-2024.8163022945,2620817.5093836,28.069946994699,0,0
-159.30139021652,290.45029536911,22.874377437744,1286056.4990449,-2024.8163022945,2620817.5093836,28.074377437744,0,0
-159.30139001242,290.50174156038,22.878807880788,1286056.4990449,-2024.8163022945,2620817.5093836,28.078807880788,0,0
-159.30138980832,290.55318775164,22.883238323832,1286056.4990449,-2024.8163022945,2620817.5093836,28.083238323832,0,0
-159.30138960422,290.6046339429,22.887668766877,1286056.4990449,-2024.8163022945,2620817.5093836,28.087668766877,0,0
-159.30138940012,290.65608013417,22.892099209921,1286056.4990449,-2024.8163022945,2620817.5093836,28.092099209921,0,0
-159.30138919603,290.70752632543,22.896529652965,1286056.4990449,-2024.8163022945,2620817.5093836,28.096529652965,0,0
-159.30138899193,290.7589725167,22.90096009601,1286056.4990449,-2024.8163022945,2620817.5093836,28.10096009601,0,0
-159.30138878783,290.81041870796,22.905390539054,1286056.4990449,-2024.8163022945,2620817.5093836,28.105390539054,0,0
-159.30138858373,290.86186489923,22.909820982098,1286056.4990449,-2024.8163022945,2620817.5093836,28.109820982098,0,0
-159.30138837963,290.91331109049,22.914251425143,1286056.4990449,-2024.8163022945,2620817.5093836,28.114251425143,0,0
-159.30138817553,290.96475728176,22.918681868187,1286056.4990449,-2024.8163022945,2620817.5093836,28.118681868187,0,0
-159.30138797144,291.01620347302,22.923112311231,1286056.4990449,-2024.8163022945,2620817.5093836,28.123112311231,0,0
-159.30138776734,291.06764966428,22.927542754275,1286056.4990449,-2024.8163022945,2620817.5093836,28.127542754275,0,0
-159.30138756324,291.11909585555,22.93197319732,1286056.4990449,-2024.8163022945,2620817.5093836,28.13197319732,0,0
-159.30138735914,291.17054204681,22.936403640364,1286056.4990449,-2024.8163022945,2620817.5093836,28.136403640364,0,0
-159.30138715504,291.22198823808,22.940834083408,1286056.4990449,-2024.8163022945,2620817.5093836,28.140834083408,0,0
-159.30138695095,291.27343442934,22.945264526453,1286056.4990449,-2024.8163022945,2620817.5093836,28.145264526453,0,0
-159.30138674685,291.32488062061,22.949694969497,1286056.4990449,-2024.8163022945,2620817.5093836,28.149694969497,0,0
-159.30138654275,291.37632681187,22.954125412541,1286056.4990449,-2024.8163022945,2620817.5093836,28.154125412541,0,0
-159.30138633865,291.42777300314,22.958555855586,1286056.4990449,-2024.8163022945,2620817.5093836,28.158555855586,0,0
-159.30138613455,291.4792191944,22.96298629863,1286056.4990449,-2024.8163022945,2620817.5093836,28.16298629863,0,0
-159.30138593045,291.53066538566,22.967416741674,1286056.4990449,-2024.8163022945,2620817.5093836,28.167416741674,0,0
-159.30138572636,291.58211157693,22.971847184718,1286056.4990449,-2024.8163022945,2620817.5093836,28.171847184718,0,0
-159.30138552226,291.63355776819,22.976277627763,1286056.4990449,-2024.8163022945,2620817.5093836,28.176277627763,0,0
-159.30138531816,291.68500395946,22.980708070807,1286056.4990449,-2024.8163022945,2620817.5093836,28.180708070807,0,0
-159.30138511406,291.73645015072,22.985138513851,1286056.4990449,-2024.8163022945,2620817.5093836,28.185138513851,0,0
-159.30138490996,291.78789634199,22.989568956896,1286056.4990449,-2024.8163022945,2620817.5093836,28.189568956896,0,0
-159.30138470586,291.83934253325,22.99399939994,1286056.4990449,-2024.8163022945,2620817.5093836,28.19399939994,0,0
-159.30138450177,291.89078872452,22.998429842984,1286056.4990449,-2024.8163022945,2620817.5093836,28.198429842984,0,0
-159.30138429767,291.94223491578,23.002860286029,1286056.4990449,-2024.8163022945,2620817.5093836,28.202860286029,0,0
-159.30138409357,291.99368110704,23.007290729073,1286056.4990449,-2024.8163022945,2620817.5093836,28.207290729073,0,0
-159.30138388947,292.04512729831,23.011721172117,1286056.4990449,-2024.8163022945,2620817.5093836,28.211721172117,0,0
-159.30138368537,292.09657348957,23.016151615162,1286056.4990449,-2024.8163022945,2620817.5093836,28.216151615162,0,0
-159.30138348127,292.14801968084,23.020582058206,1286056.4990449,-2024.8163022945,2620817.5093836,28.220582058206,0,0
-159.30138327718,292.1994658721,23.02501250125,1286056.4990449,-2024.8163022945,2620817.5093836,28.22501250125,0,0
-159.30138307308,292.25091206337,23.029442944294,1286056.4990449,-2024.8163022945,2620817.5093836,28.229442944294,0,0
-159.30138286898,292.30235825463,23.033873387339,1286056.4990449,-2024.8163022945,2620817.5093836,28.233873387339,0,0
-159.30138266488,292.3538044459,23.038303830383,1286056.4990449,-2024.8163022945,2620817.5093836,28.238303830383,0,0
-159.30138246078,292.40525063716,23.042734273427,1286056.4990449,-2024.8163022945,2620817.5093836,28.242734273427,0,0
-159.30138225668,292.45669682843,23.047164716472,1286056.4990449,-2024.8163022945,2620817.5093836,28.247164716472,0,0
-159.30138205259,292.50814301969,23.051595159516,1286056.4990449,-2024.8163022945,2620817.5093836,28.251595159516,0,0
-159.30138184849,292.55958921095,23.05602560256,1286056.4990449,-2024.8163022945,2620817.5093836,28.25602560256,0,0
-159.30138164439,292.61103540222,23.060456045605,1286056.4990449,-2024.8163022945,2620817.5093836,28.260456045605,0,0
-159.30138144029,292.66248159348,23.064886488649,1286056.4990449,-2024.8163022945,2620817.5093836,28.264886488649,0,0
-159.30138123619,292.71392778475,23.069316931693,1286056.4990449,-2024.8163022945,2620817.5093836,28.269316931693,0,0
-159.30138103209,292.76537397601,23.073747374737,1286056.4990449,-2024.8163022945,2620817.5093836,28.273747374737,0,0
-159.301380828,292.81682016728,23.078177817782,1286056.4990449,-2024.8163022945,2620817.5093836,28.278177817782,0,0
-159.3013806239,292.86826635854,23.082608260826,1286056.4990449,-2024.8163022945,2620817.5093836,28.282608260826,0,0
-159.3013804198,292.91971254981,23.08703870387,1286056.4990449,-2024.8163022945,2620817.5093836,28.28703870387,0,0
-159.3013802157,292.97115874107,23.091469146915,1286056.4990449,-2024.8163022945,2620817.5093836,28.291469146915,0,0
-159.3013800116,293.02260493233,23.095899589959,1286056.4990449,-2024.8163022945,2620817.5093836,28.295899589959,0,0
-159.3013798075,293.0740511236,23.100330033003,1286056.4990449,-2024.8163022945,2620817.5093836,28.300330033003,0,0
-159.30137960341,293.12549731486,23.104760476048,1286056.4990449,-2024.8163022945,2620817.5093836,28.304760476048,0,0
-159.30137939931,293.17694350613,23.109190919092,1286056.4990449,-2024.8163022945,2620817.5093836,28.309190919092,0,0
-159.30137919521,293.22838969739,23.113621362136,1286056.4990449,-2024.8163022945,2620817.5093836,28.313621362136,0,0
-159.30137899111,293.27983588866,23.118051805181,1286056.4990449,-2024.8163022945,2620817.5093836,28.318051805181,0,0
-159.30137878701,293.33128207992,23.122482248225,1286056.4990449,-2024.8163022945,2620817.5093836,28.322482248225,0,0
-159.30137858291,293.38272827119,23.126912691269,1286056.4990449,-2024.8163022945,2620817.5093836,28.326912691269,0,0
-159.30137837882,293.43417446245,23.131343134313,1286056.4990449,-2024.8163022945,2620817.5093836,28.331343134313,0,0
-159.30137817472,293.48562065371,23.135773577358,1286056.4990449,-2024.8163022945,2620817.5093836,28.335773577358,0,0
-159.30137797062,293.53706684498,23.140204020402,1286056.4990449,-2024.8163022945,2620817.5093836,28.340204020402,0,0
-159.30137776652,293.58851303624,23.144634463446,1286056.4990449,-2024.8163022945,2620817.5093836,28.344634463446,0,0
-159.30137756242,293.63995922751,23.149064906491,1286056.4990449,-2024.8163022945,2620817.5093836,28.349064906491,0,0
-159.30137735833,293.69140541877,23.153495349535,1286056.4990449,-2024.8163022945,2620817.5093836,28.353495349535,0,0
-159.30137715423,293.74285161004,23.157925792579,1286056.4990449,-2024.8163022945,2620817.5093836,28.357925792579,0,0
-159.30137695013,293.7942978013,23.162356235624,1286056.4990449,-2024.8163022945,2620817.5093836,28.362356235624,0,0
-159.30137674603,293.84574399257,23.166786678668,1286056.4990449,-2024.8163022945,2620817.5093836,28.366786678668,0,0
-159.30137654193,293.89719018383,23.171217121712,1286056.4990449,-2024.8163022945,2620817.5093836,28.371217121712,0,0
-159.30137633783,293.94863637509,23.175647564756,1286056.4990449,-2024.8163022945,2620817.5093836,28.375647564756,0,0
-159.30137613374,294.00008256636,23.180078007801,1286056.4990449,-2024.8163022945,2620817.5093836,28.380078007801,0,0
-159.30137592964,294.05152875762,23.184508450845,1286056.4990449,-2024.8163022945,2620817.5093836,28.384508450845,0,0
-159.30137572554,294.10297494889,23.188938893889,1286056.4990449,-2024.8163022945,2620817.5093836,28.388938893889,0,0
-159.30137552144,294.15442114015,23.193369336934,1286056.4990449,-2024.8163022945,2620817.5093836,28.393369336934,0,0
-159.30137531734,294.20586733142,23.197799779978,1286056.4990449,-2024.8163022945,2620817.5093836,28.397799779978,0,0
-159.30137511324,294.25731352268,23.202230223022,1286056.4990449,-2024.8163022945,2620817.5093836,28.402230223022,0,0
-159.30137490915,294.30875971395,23.206660666067,1286056.4990449,-2024.8163022945,2620817.5093836,28.406660666067,0,0
-159.30137470505,294.36020590521,23.211091109111,1286056.4990449,-2024.8163022945,2620817.5093836,28.411091109111,0,0
-159.30137450095,294.41165209647,23.215521552155,1286056.4990449,-2024.8163022945,2620817.5093836,28.415521552155,0,0
-159.30137429685,294.46309828774,23.2199519952,1286056.4990449,-2024.8163022945,2620817.5093836,28.4199519952,0,0
-159.30137409275,294.514544479,23.224382438244,1286056.4990449,-2024.8163022945,2620817.5093836,28.424382438244,0,0
-159.30137388865,294.56599067027,23.228812881288,1286056.4990449,-2024.8163022945,2620817.5093836,28.428812881288,0,0
-159.30137368456,294.61743686153,23.233243324332,1286056.4990449,-2024.8163022945,2620817.5093836,28.433243324332,0,0
-159.30137348046,294.6688830528,23.237673767377,1286056.4990449,-2024.8163022945,2620817.5093836,28.437673767377,0,0
-159.30137327636,294.72032924406,23.242104210421,1286056.4990449,-2024.8163022945,2620817.5093836,28.442104210421,0,0
-159.30137307226,294.77177543533,23.246534653465,1286056.4990449,-2024.8163022945,2620817.5093836,28.446534653465,0,0
-159.30137286816,294.82322162659,23.25096509651,1286056.4990449,-2024.8163022945,2620817.5093836,28.45096509651,0,0
-159.30137266406,294.87466781786,23.255395539554,1286056.4990449,-2024.8163022945,2620817.5093836,28.455395539554,0,0
-159.30137245997,294.92611400912,23.259825982598,1286056.4990449,-2024.8163022945,2620817.5093836,28.459825982598,0,0
-159.30137225587,294.97756020038,23.264256425643,1286056.4990449,-2024.8163022945,2620817.5093836,28.464256425643,0,0
-159.30137205177,295.02900639165,23.268686868687,1286056.4990449,-2024.8163022945,2620817.5093836,28.468686868687,0,0
-159.30137184767,295.08045258291,23.273117311731,1286056.4990449,-2024.8163022945,2620817.5093836,28.473117311731,0,0
-159.30137164357,295.13189877418,23.277547754775,1286056.4990449,-2024.8163022945,2620817.5093836,28.477547754775,0,0
-159.30137143947,295.18334496544,23.28197819782,1286056.4990449,-2024.8163022945,2620817.5093836,28.48197819782,0,0
-159.30137123538,295.23479115671,23.286408640864,1286056.4990449,-2024.8163022945,2620817.5093836,28.486408640864,0,0
-159.30137103128,295.28623734797,23.290839083908,1286056.4990449,-2024.8163022945,2620817.5093836,28.490839083908,0,0
-159.30137082718,295.33768353924,23.295269526953,1286056.4990449,-2024.8163022945,2620817.5093836,28.495269526953,0,0
-159.30137062308,295.3891297305,23.299699969997,1286056.4990449,-2024.8163022945,2620817.5093836,28.499699969997,0,0
-159.30137041898,295.44057592176,23.304130413041,1286056.4990449,-2024.8163022945,2620817.5093836,28.504130413041,0,0
-159.30137021488,295.49202211303,23.308560856086,1286056.4990449,-2024.8163022945,2620817.5093836,28.508560856086,0,0
-159.30137001079,295.54346830429,23.31299129913,1286056.4990449,-2024.8163022945,2620817.5093836,28.51299129913,0,0
-159.30136980669,295.59491449556,23.317421742174,1286056.4990449,-2024.8163022945,2620817.5093836,28.517421742174,0,0
-159.30136960259,295.64636068682,23.321852185219,1286056.4990449,-2024.8163022945,2620817.5093836,28.521852185219,0,0
-159.30136939849,295.69780687809,23.326282628263,1286056.4990449,-2024.8163022945,2620817.5093836,28.526282628263,0,0
-159.30136919439,295.74925306935,23.330713071307,1286056.4990449,-2024.8163022945,2620817.5093836,28.530713071307,0,0
-159.30136899029,295.80069926062,23.335143514351,1286056.4990449,-2024.8163022945,2620817.5093836,28.535143514351,0,0
-159.3013687862,295.85214545188,23.339573957396,1286056.4990449,-2024.8163022945,2620817.5093836,28.539573957396,0,0
-159.3013685821,295.90359164314,23.34400440044,1286056.4990449,-2024.8163022945,2620817.5093836,28.54400440044,0,0
-159.301368378,295.95503783441,23.348434843484,1286056.4990449,-2024.8163022945,2620817.5093836,28.548434843484,0,0
-159.3013681739,296.00648402567,23.352865286529,1286056.4990449,-2024.8163022945,2620817.5093836,28.552865286529,0,0
-159.3013679698,296.05793021694,23.357295729573,1286056.4990449,-2024.8163022945,2620817.5093836,28.557295729573,0,0
-159.30136776571,296.1093764082,23.361726172617,1286056.4990449,-2024.8163022945,2620817.5093836,28.561726172617,0,0
-159.30136756161,296.16082259947,23.366156615662,1286056.4990449,-2024.8163022945,2620817.5093836,28.566156615662,0,0
-159.30136735751,296.21226879073,23.370587058706,1286056.4990449,-2024.8163022945,2620817.5093836,28.570587058706,0,0
-159.30136715341,296.263714982,23.37501750175,1286056.4990449,-2024.8163022945,2620817.5093836,28.57501750175,0,0
-159.30136694931,296.31516117326,23.379447944794,1286056.4990449,-2024.8163022945,2620817.5093836,28.579447944794,0,0
-159.30136674521,296.36660736452,23.383878387839,1286056.4990449,-2024.8163022945,2620817.5093836,28.583878387839,0,0
-159.30136654112,296.41805355579,23.388308830883,1286056.4990449,-2024.8163022945,2620817.5093836,28.588308830883,0,0
-159.30136633702,296.46949974705,23.392739273927,1286056.4990449,-2024.8163022945,2620817.5093836,28.592739273927,0,0
-159.30136613292,296.52094593832,23.397169716972,1286056.4990449,-2024.8163022945,2620817.5093836,28.597169716972,0,0
-159.30136592882,296.57239212958,23.401600160016,1286056.4990449,-2024.8163022945,2620817.5093836,28.601600160016,0,0
-159.30136572472,296.62383832085,23.40603060306,1286056.4990449,-2024.8163022945,2620817.5093836,28.60603060306,0,0
-159.30136552062,296.67528451211,23.410461046105,1286056.4990449,-2024.8163022945,2620817.5093836,28.610461046105,0,0
-159.30136531653,296.72673070338,23.414891489149,1286056.4990449,-2024.8163022945,2620817.5093836,28.614891489149,0,0
-159.30136511243,296.77817689464,23.419321932193,1286056.4990449,-2024.8163022945,2620817.5093836,28.619321932193,0,0
-159.30136490833,296.82962308591,23.423752375238,1286056.4990449,-2024.8163022945,2620817.5093836,28.623752375238,0,0
-159.30136470423,296.88106927717,23.428182818282,1286056.4990449,-2024.8163022945,2620817.5093836,28.628182818282,0,0
-159.30136450013,296.93251546843,23.432613261326,1286056.4990449,-2024.8163022945,2620817.5093836,28.632613261326,0,0
-159.30136429603,296.9839616597,23.43704370437,1286056.4990449,-2024.8163022945,2620817.5093836,28.63704370437,0,0
-159.30136409194,297.03540785096,23.441474147415,1286056.4990449,-2024.8163022945,2620817.5093836,28.641474147415,0,0
-159.30136388784,297.08685404223,23.445904590459,1286056.4990449,-2024.8163022945,2620817.5093836,28.645904590459,0,0
-159.30136368374,297.13830023349,23.450335033503,1286056.4990449,-2024.8163022945,2620817.5093836,28.650335033503,0,0
-159.30136347964,297.18974642476,23.454765476548,1286056.4990449,-2024.8163022945,2620817.5093836,28.654765476548,0,0
-159.30136327554,297.24119261602,23.459195919592,1286056.4990449,-2024.8163022945,2620817.5093836,28.659195919592,0,0
-159.30136307144,297.29263880729,23.463626362636,1286056.4990449,-2024.8163022945,2620817.5093836,28.663626362636,0,0
-159.30136286735,297.34408499855,23.468056805681,1286056.4990449,-2024.8163022945,2620817.5093836,28.668056805681,0,0
-159.30136266325,297.39553118981,23.472487248725,1286056.4990449,-2024.8163022945,2620817.5093836,28.672487248725,0,0
-159.30136245915,297.44697738108,23.476917691769,1286056.4990449,-2024.8163022945,2620817.5093836,28.676917691769,0,0
-159.30136225505,297.49842357234,23.481348134813,1286056.4990449,-2024.8163022945,2620817.5093836,28.681348134813,0,0
-159.30136205095,297.54986976361,23.485778577858,1286056.4990449,-2024.8163022945,2620817.5093836,28.685778577858,0,0
-159.30136184685,297.60131595487,23.490209020902,1286056.4990449,-2024.8163022945,2620817.5093836,28.690209020902,0,0
-159.30136164276,297.65276214614,23.494639463946,1286056.4990449,-2024.8163022945,2620817.5093836,28.694639463946,0,0
-159.30136143866,297.7042083374,23.499069906991,1286056.4990449,-2024.8163022945,2620817.5093836,28.699069906991,0,0
-159.30136123456,297.75565452867,23.503500350035,1286056.4990449,-2024.8163022945,2620817.5093836,28.703500350035,0,0
-159.30136103046,297.80710071993,23.507930793079,1286056.4990449,-2024.8163022945,2620817.5093836,28.707930793079,0,0
-159.30136082636,297.85854691119,23.512361236124,1286056.4990449,-2024.8163022945,2620817.5093836,28.712361236124,0,0
-159.30136062226,297.90999310246,23.516791679168,1286056.4990449,-2024.8163022945,2620817.5093836,28.716791679168,0,0
-159.30136041817,297.96143929372,23.521222122212,1286056.4990449,-2024.8163022945,2620817.5093836,28.721222122212,0,0
-159.30136021407,298.01288548499,23.525652565257,1286056.4990449,-2024.8163022945,2620817.5093836,28.725652565257,0,0
-159.30136000997,298.06433167625,23.530083008301,1286056.4990449,-2024.8163022945,2620817.5093836,28.730083008301,0,0
-159.30135980587,298.11577786752,23.534513451345,1286056.4990449,-2024.8163022945,2620817.5093836,28.734513451345,0,0
-159.30135960177,298.16722405878,23.538943894389,1286056.4990449,-2024.8163022945,2620817.5093836,28.738943894389,0,0
-159.30135939767,298.21867025005,23.543374337434,1286056.4990449,-2024.8163022945,2620817.5093836,28.743374337434,0,0
-159.30135919358,298.27011644131,23.547804780478,1286056.4990449,-2024.8163022945,2620817.5093836,28.747804780478,0,0
-159.30135898948,298.32156263257,23.552235223522,1286056.4990449,-2024.8163022945,2620817.5093836,28.752235223522,0,0
-159.30135878538,298.37300882384,23.556665666567,1286056.4990449,-2024.8163022945,2620817.5093836,28.756665666567,0,0
-159.30135858128,298.4244550151,23.561096109611,1286056.4990449,-2024.8163022945,2620817.5093836,28.761096109611,0,0
-159.30135837718,298.47590120637,23.565526552655,1286056.4990449,-2024.8163022945,2620817.5093836,28.765526552655,0,0
-159.30135817309,298.52734739763,23.5699569957,1286056.4990449,-2024.8163022945,2620817.5093836,28.7699569957,0,0
-159.30135796899,298.5787935889,23.574387438744,1286056.4990449,-2024.8163022945,2620817.5093836,28.774387438744,0,0
-159.30135776489,298.63023978016,23.578817881788,1286056.4990449,-2024.8163022945,2620817.5093836,28.778817881788,0,0
-159.30135756079,298.68168597143,23.583248324832,1286056.4990449,-2024.8163022945,2620817.5093836,28.783248324832,0,0
-159.30135735669,298.73313216269,23.587678767877,1286056.4990449,-2024.8163022945,2620817.5093836,28.787678767877,0,0
-159.30135715259,298.78457835395,23.592109210921,1286056.4990449,-2024.8163022945,2620817.5093836,28.792109210921,0,0
-159.3013569485,298.83602454522,23.596539653965,1286056.4990449,-2024.8163022945,2620817.5093836,28.796539653965,0,0
-159.3013567444,298.88747073648,23.60097009701,1286056.4990449,-2024.8163022945,2620817.5093836,28.80097009701,0,0
-159.3013565403,298.93891692775,23.605400540054,1286056.4990449,-2024.8163022945,2620817.5093836,28.805400540054,0,0
-159.3013563362,298.99036311901,23.609830983098,1286056.4990449,-2024.8163022945,2620817.5093836,28.809830983098,0,0
-159.3013561321,299.04180931028,23.614261426143,1286056.4990449,-2024.8163022945,2620817.5093836,28.814261426143,0,0
-159.301355928,299.09325550154,23.618691869187,1286056.4990449,-2024.8163022945,2620817.5093836,28.818691869187,0,0
-159.30135572391,299.14470169281,23.623122312231,1286056.4990449,-2024.8163022945,2620817.5093836,28.823122312231,0,0
-159.30135551981,299.19614788407,23.627552755276,1286056.4990449,-2024.8163022945,2620817.5093836,28.827552755276,0,0
-159.30135531571,299.24759407534,23.63198319832,1286056.4990449,-2024.8163022945,2620817.5093836,28.83198319832,0,0
-159.30135511161,299.2990402666,23.636413641364,1286056.4990449,-2024.8163022945,2620817.5093836,28.836413641364,0,0
-159.30135490751,299.35048645786,23.640844084408,1286056.4990449,-2024.8163022945,2620817.5093836,28.840844084408,0,0
-159.30135470341,299.40193264913,23.645274527453,1286056.4990449,-2024.8163022945,2620817.5093836,28.845274527453,0,0
-159.30135449932,299.45337884039,23.649704970497,1286056.4990449,-2024.8163022945,2620817.5093836,28.849704970497,0,0
-159.30135429522,299.50482503166,23.654135413541,1286056.4990449,-2024.8163022945,2620817.5093836,28.854135413541,0,0
-159.30135409112,299.55627122292,23.658565856586,1286056.4990449,-2024.8163022945,2620817.5093836,28.858565856586,0,0
-159.30135388702,299.60771741419,23.66299629963,1286056.4990449,-2024.8163022945,2620817.5093836,28.86299629963,0,0
-159.30135368292,299.65916360545,23.667426742674,1286056.4990449,-2024.8163022945,2620817.5093836,28.867426742674,0,0
-159.30135347882,299.71060979672,23.671857185719,1286056.4990449,-2024.8163022945,2620817.5093836,28.871857185719,0,0
-159.30135327473,299.76205598798,23.676287628763,1286056.4990449,-2024.8163022945,2620817.5093836,28.876287628763,0,0
-159.30135307063,299.81350217924,23.680718071807,1286056.4990449,-2024.8163022945,2620817.5093836,28.880718071807,0,0
-159.30135286653,299.86494837051,23.685148514851,1286056.4990449,-2024.8163022945,2620817.5093836,28.885148514851,0,0
-159.30135266243,299.91639456177,23.689578957896,1286056.4990449,-2024.8163022945,2620817.5093836,28.889578957896,0,0
-159.30135245833,299.96784075304,23.69400940094,1286056.4990449,-2024.8163022945,2620817.5093836,28.89400940094,0,0
-159.30135225423,300.0192869443,23.698439843984,1286056.4990449,-2024.8163022945,2620817.5093836,28.898439843984,0,0
-159.30135205014,300.07073313557,23.702870287029,1286056.4990449,-2024.8163022945,2620817.5093836,28.902870287029,0,0
-159.30135184604,300.12217932683,23.707300730073,1286056.4990449,-2024.8163022945,2620817.5093836,28.907300730073,0,0
-159.30135164194,300.1736255181,23.711731173117,1286056.4990449,-2024.8163022945,2620817.5093836,28.911731173117,0,0
-159.30135143784,300.22507170936,23.716161616162,1286056.4990449,-2024.8163022945,2620817.5093836,28.916161616162,0,0
-159.30135123374,300.27651790062,23.720592059206,1286056.4990449,-2024.8163022945,2620817.5093836,28.920592059206,0,0
-159.30135102964,300.32796409189,23.72502250225,1286056.4990449,-2024.8163022945,2620817.5093836,28.92502250225,0,0
-159.30135082555,300.37941028315,23.729452945295,1286056.4990449,-2024.8163022945,2620817.5093836,28.929452945295,0,0
-159.30135062145,300.43085647442,23.733883388339,1286056.4990449,-2024.8163022945,2620817.5093836,28.933883388339,0,0
-159.30135041735,300.48230266568,23.738313831383,1286056.4990449,-2024.8163022945,2620817.5093836,28.938313831383,0,0
-159.30135021325,300.53374885695,23.742744274427,1286056.4990449,-2024.8163022945,2620817.5093836,28.942744274427,0,0
-159.30135000915,300.58519504821,23.747174717472,1286056.4990449,-2024.8163022945,2620817.5093836,28.947174717472,0,0
-159.30134980505,300.63664123948,23.751605160516,1286056.4990449,-2024.8163022945,2620817.5093836,28.951605160516,0,0
-159.30134960096,300.68808743074,23.75603560356,1286056.4990449,-2024.8163022945,2620817.5093836,28.95603560356,0,0
-159.30134939686,300.739533622,23.760466046605,1286056.4990449,-2024.8163022945,2620817.5093836,28.960466046605,0,0
-159.30134919276,300.79097981327,23.764896489649,1286056.4990449,-2024.8163022945,2620817.5093836,28.964896489649,0,0
-159.30134898866,300.84242600453,23.769326932693,1286056.4990449,-2024.8163022945,2620817.5093836,28.969326932693,0,0
-159.30134878456,300.8938721958,23.773757375738,1286056.4990449,-2024.8163022945,2620817.5093836,28.973757375738,0,0
-159.30134858046,300.94531838706,23.778187818782,1286056.4990449,-2024.8163022945,2620817.5093836,28.978187818782,0,0
-159.30134837637,300.99676457833,23.782618261826,1286056.4990449,-2024.8163022945,2620817.5093836,28.982618261826,0,0
-159.30134817227,301.04821076959,23.78704870487,1286056.4990449,-2024.8163022945,2620817.5093836,28.98704870487,0,0
-159.30134796817,301.09965696086,23.791479147915,1286056.4990449,-2024.8163022945,2620817.5093836,28.991479147915,0,0
-159.30134776407,301.15110315212,23.795909590959,1286056.4990449,-2024.8163022945,2620817.5093836,28.995909590959,0,0
-159.30134755997,301.20254934339,23.800340034003,1286056.4990449,-2024.8163022945,2620817.5093836,29.000340034003,0,0
-159.30134735588,301.25399553465,23.804770477048,1286056.4990449,-2024.8163022945,2620817.5093836,29.004770477048,0,0
-159.30134715178,301.30544172591,23.809200920092,1286056.4990449,-2024.8163022945,2620817.5093836,29.009200920092,0,0
-159.30134694768,301.35688791718,23.813631363136,1286056.4990449,-2024.8163022945,2620817.5093836,29.013631363136,0,0
-159.30134674358,301.40833410844,23.818061806181,1286056.4990449,-2024.8163022945,2620817.5093836,29.018061806181,0,0
-159.30134653948,301.45978029971,23.822492249225,1286056.4990449,-2024.8163022945,2620817.5093836,29.022492249225,0,0
-159.30134633538,301.51122649097,23.826922692269,1286056.4990449,-2024.8163022945,2620817.5093836,29.026922692269,0,0
-159.30134613129,301.56267268224,23.831353135314,1286056.4990449,-2024.8163022945,2620817.5093836,29.031353135314,0,0
-159.30134592719,301.6141188735,23.835783578358,1286056.4990449,-2024.8163022945,2620817.5093836,29.035783578358,0,0
-159.30134572309,301.66556506477,23.840214021402,1286056.4990449,-2024.8163022945,2620817.5093836,29.040214021402,0,0
-159.30134551899,301.71701125603,23.844644464446,1286056.4990449,-2024.8163022945,2620817.5093836,29.044644464446,0,0
-159.30134531489,301.76845744729,23.849074907491,1286056.4990449,-2024.8163022945,2620817.5093836,29.049074907491,0,0
-159.30134511079,301.81990363856,23.853505350535,1286056.4990449,-2024.8163022945,2620817.5093836,29.053505350535,0,0
-159.3013449067,301.87134982982,23.857935793579,1286056.4990449,-2024.8163022945,2620817.5093836,29.057935793579,0,0
-159.3013447026,301.92279602109,23.862366236624,1286056.4990449,-2024.8163022945,2620817.5093836,29.062366236624,0,0
-159.3013444985,301.97424221235,23.866796679668,1286056.4990449,-2024.8163022945,2620817.5093836,29.066796679668,0,0
-159.3013442944,302.02568840362,23.871227122712,1286056.4990449,-2024.8163022945,2620817.5093836,29.071227122712,0,0
-159.3013440903,302.07713459488,23.875657565757,1286056.4990449,-2024.8163022945,2620817.5093836,29.075657565757,0,0
-159.3013438862,302.12858078615,23.880088008801,1286056.4990449,-2024.8163022945,2620817.5093836,29.080088008801,0,0
-159.30134368211,302.18002697741,23.884518451845,1286056.4990449,-2024.8163022945,2620817.5093836,29.084518451845,0,0
-159.30134347801,302.23147316867,23.888948894889,1286056.4990449,-2024.8163022945,2620817.5093836,29.088948894889,0,0
-159.30134327391,302.28291935994,23.893379337934,1286056.4990449,-2024.8163022945,2620817.5093836,29.093379337934,0,0
-159.30134306981,302.3343655512,23.897809780978,1286056.4990449,-2024.8163022945,2620817.5093836,29.097809780978,0,0
-159.30134286571,302.38581174247,23.902240224022,1286056.4990449,-2024.8163022945,2620817.5093836,29.102240224022,0,0
-159.30134266161,302.43725793373,23.906670667067,1286056.4990449,-2024.8163022945,2620817.5093836,29.106670667067,0,0
-159.30134245752,302.488704125,23.911101110111,1286056.4990449,-2024.8163022945,2620817.5093836,29.111101110111,0,0
-159.30134225342,302.54015031626,23.915531553155,1286056.4990449,-2024.8163022945,2620817.5093836,29.115531553155,0,0
-159.30134204932,302.59159650753,23.9199619962,1286056.4990449,-2024.8163022945,2620817.5093836,29.1199619962,0,0
-159.30134184522,302.64304269879,23.924392439244,1286056.4990449,-2024.8163022945,2620817.5093836,29.124392439244,0,0
-159.30134164112,302.69448889005,23.928822882288,1286056.4990449,-2024.8163022945,2620817.5093836,29.128822882288,0,0
-159.30134143702,302.74593508132,23.933253325333,1286056.4990449,-2024.8163022945,2620817.5093836,29.133253325333,0,0
-159.30134123293,302.79738127258,23.937683768377,1286056.4990449,-2024.8163022945,2620817.5093836,29.137683768377,0,0
-159.30134102883,302.84882746385,23.942114211421,1286056.4990449,-2024.8163022945,2620817.5093836,29.142114211421,0,0
-159.30134082473,302.90027365511,23.946544654465,1286056.4990449,-2024.8163022945,2620817.5093836,29.146544654465,0,0
-159.30134062063,302.95171984638,23.95097509751,1286056.4990449,-2024.8163022945,2620817.5093836,29.15097509751,0,0
-159.30134041653,303.00316603764,23.955405540554,1286056.4990449,-2024.8163022945,2620817.5093836,29.155405540554,0,0
-159.30134021243,303.05461222891,23.959835983598,1286056.4990449,-2024.8163022945,2620817.5093836,29.159835983598,0,0
-159.30134000834,303.10605842017,23.964266426643,1286056.4990449,-2024.8163022945,2620817.5093836,29.164266426643,0,0
-159.30133980424,303.15750461144,23.968696869687,1286056.4990449,-2024.8163022945,2620817.5093836,29.168696869687,0,0
-159.30133960014,303.2089508027,23.973127312731,1286056.4990449,-2024.8163022945,2620817.5093836,29.173127312731,0,0
-159.30133939604,303.26039699396,23.977557755776,1286056.4990449,-2024.8163022945,2620817.5093836,29.177557755776,0,0
-159.30133919194,303.31184318523,23.98198819882,1286056.4990449,-2024.8163022945,2620817.5093836,29.18198819882,0,0
-159.30133898784,303.36328937649,23.986418641864,1286056.4990449,-2024.8163022945,2620817.5093836,29.186418641864,0,0
-159.30133878375,303.41473556776,23.990849084908,1286056.4990449,-2024.8163022945,2620817.5093836,29.190849084908,0,0
-159.30133857965,303.46618175902,23.995279527953,1286056.4990449,-2024.8163022945,2620817.5093836,29.195279527953,0,0
-159.30133837555,303.51762795029,23.999709970997,1286056.4990449,-2024.8163022945,2620817.5093836,29.199709970997,0,0
-159.30133817145,303.56907414155,24.004140414041,1286056.4990449,-2024.8163022945,2620817.5093836,29.204140414041,0,0
-159.30133796735,303.62052033282,24.008570857086,1286056.4990449,-2024.8163022945,2620817.5093836,29.208570857086,0,0
-159.30133776326,303.67196652408,24.01300130013,1286056.4990449,-2024.8163022945,2620817.5093836,29.21300130013,0,0
-159.30133755916,303.72341271534,24.017431743174,1286056.4990449,-2024.8163022945,2620817.5093836,29.217431743174,0,0
-159.30133735506,303.77485890661,24.021862186219,1286056.4990449,-2024.8163022945,2620817.5093836,29.221862186219,0,0
-159.30133715096,303.82630509787,24.026292629263,1286056.4990449,-2024.8163022945,2620817.5093836,29.226292629263,0,0
-159.30133694686,303.87775128914,24.030723072307,1286056.4990449,-2024.8163022945,2620817.5093836,29.230723072307,0,0
-159.30133674276,303.9291974804,24.035153515352,1286056.4990449,-2024.8163022945,2620817.5093836,29.235153515352,0,0
-159.30133653867,303.98064367167,24.039583958396,1286056.4990449,-2024.8163022945,2620817.5093836,29.239583958396,0,0
-159.30133633457,304.03208986293,24.04401440144,1286056.4990449,-2024.8163022945,2620817.5093836,29.24401440144,0,0
-159.30133613047,304.0835360542,24.048444844484,1286056.4990449,-2024.8163022945,2620817.5093836,29.248444844484,0,0
-159.30133592637,304.13498224546,24.052875287529,1286056.4990449,-2024.8163022945,2620817.5093836,29.252875287529,0,0
-159.30133572227,304.18642843672,24.057305730573,1286056.4990449,-2024.8163022945,2620817.5093836,29.257305730573,0,0
-159.30133551817,304.23787462799,24.061736173617,1286056.4990449,-2024.8163022945,2620817.5093836,29.261736173617,0,0
-159.30133531408,304.28932081925,24.066166616662,1286056.4990449,-2024.8163022945,2620817.5093836,29.266166616662,0,0
-159.30133510998,304.34076701052,24.070597059706,1286056.4990449,-2024.8163022945,2620817.5093836,29.270597059706,0,0
-159.30133490588,304.39221320178,24.07502750275,1286056.4990449,-2024.8163022945,2620817.5093836,29.27502750275,0,0
-159.30133470178,304.44365939305,24.079457945795,1286056.4990449,-2024.8163022945,2620817.5093836,29.279457945795,0,0
-159.30133449768,304.49510558431,24.083888388839,1286056.4990449,-2024.8163022945,2620817.5093836,29.283888388839,0,0
-159.30133429358,304.54655177558,24.088318831883,1286056.4990449,-2024.8163022945,2620817.5093836,29.288318831883,0,0
-159.30133408949,304.59799796684,24.092749274927,1286056.4990449,-2024.8163022945,2620817.5093836,29.292749274927,0,0
-159.30133388539,304.6494441581,24.097179717972,1286056.4990449,-2024.8163022945,2620817.5093836,29.297179717972,0,0
-159.30133368129,304.70089034937,24.101610161016,1286056.4990449,-2024.8163022945,2620817.5093836,29.301610161016,0,0
-159.30133347719,304.75233654063,24.10604060406,1286056.4990449,-2024.8163022945,2620817.5093836,29.30604060406,0,0
-159.30133327309,304.8037827319,24.110471047105,1286056.4990449,-2024.8163022945,2620817.5093836,29.310471047105,0,0
-159.30133306899,304.85522892316,24.114901490149,1286056.4990449,-2024.8163022945,2620817.5093836,29.314901490149,0,0
-159.3013328649,304.90667511443,24.119331933193,1286056.4990449,-2024.8163022945,2620817.5093836,29.319331933193,0,0
-159.3013326608,304.95812130569,24.123762376238,1286056.4990449,-2024.8163022945,2620817.5093836,29.323762376238,0,0
-159.3013324567,305.00956749696,24.128192819282,1286056.4990449,-2024.8163022945,2620817.5093836,29.328192819282,0,0
-159.3013322526,305.06101368822,24.132623262326,1286056.4990449,-2024.8163022945,2620817.5093836,29.332623262326,0,0
-159.3013320485,305.11245987948,24.137053705371,1286056.4990449,-2024.8163022945,2620817.5093836,29.337053705371,0,0
-159.3013318444,305.16390607075,24.141484148415,1286056.4990449,-2024.8163022945,2620817.5093836,29.341484148415,0,0
-159.30133164031,305.21535226201,24.145914591459,1286056.4990449,-2024.8163022945,2620817.5093836,29.345914591459,0,0
-159.30133143621,305.26679845328,24.150345034503,1286056.4990449,-2024.8163022945,2620817.5093836,29.350345034503,0,0
-159.30133123211,305.31824464454,24.154775477548,1286056.4990449,-2024.8163022945,2620817.5093836,29.354775477548,0,0
-159.30133102801,305.36969083581,24.159205920592,1286056.4990449,-2024.8163022945,2620817.5093836,29.359205920592,0,0
-159.30133082391,305.42113702707,24.163636363636,1286056.4990449,-2024.8163022945,2620817.5093836,29.363636363636,0,0
-159.30133061981,305.47258321834,24.168066806681,1286056.4990449,-2024.8163022945,2620817.5093836,29.368066806681,0,0
-159.30133041572,305.5240294096,24.172497249725,1286056.4990449,-2024.8163022945,2620817.5093836,29.372497249725,0,0
-159.30133021162,305.57547560087,24.176927692769,1286056.4990449,-2024.8163022945,2620817.5093836,29.376927692769,0,0
-159.30133000752,305.62692179213,24.181358135814,1286056.4990449,-2024.8163022945,2620817.5093836,29.381358135814,0,0
-159.30132980342,305.67836798339,24.185788578858,1286056.4990449,-2024.8163022945,2620817.5093836,29.385788578858,0,0
-159.30132959932,305.72981417466,24.190219021902,1286056.4990449,-2024.8163022945,2620817.5093836,29.390219021902,0,0
-159.30132939522,305.78126036592,24.194649464946,1286056.4990449,-2024.8163022945,2620817.5093836,29.394649464946,0,0
-159.30132919113,305.83270655719,24.199079907991,1286056.4990449,-2024.8163022945,2620817.5093836,29.399079907991,0,0
-159.30132898703,305.88415274845,24.203510351035,1286056.4990449,-2024.8163022945,2620817.5093836,29.403510351035,0,0
-159.30132878293,305.93559893972,24.207940794079,1286056.4990449,-2024.8163022945,2620817.5093836,29.407940794079,0,0
-159.30132857883,305.98704513098,24.212371237124,1286056.4990449,-2024.8163022945,2620817.5093836,29.412371237124,0,0
-159.30132837473,306.03849132225,24.216801680168,1286056.4990449,-2024.8163022945,2620817.5093836,29.416801680168,0,0
-159.30132817064,306.08993751351,24.221232123212,1286056.4990449,-2024.8163022945,2620817.5093836,29.421232123212,0,0
-159.30132796654,306.14138370477,24.225662566257,1286056.4990449,-2024.8163022945,2620817.5093836,29.425662566257,0,0
-159.30132776244,306.19282989604,24.230093009301,1286056.4990449,-2024.8163022945,2620817.5093836,29.430093009301,0,0
-159.30132755834,306.2442760873,24.234523452345,1286056.4990449,-2024.8163022945,2620817.5093836,29.434523452345,0,0
-159.30132735424,306.29572227857,24.23895389539,1286056.4990449,-2024.8163022945,2620817.5093836,29.43895389539,0,0
-159.30132715014,306.34716846983,24.243384338434,1286056.4990449,-2024.8163022945,2620817.5093836,29.443384338434,0,0
-159.30132694605,306.3986146611,24.247814781478,1286056.4990449,-2024.8163022945,2620817.5093836,29.447814781478,0,0
-159.30132674195,306.45006085236,24.252245224522,1286056.4990449,-2024.8163022945,2620817.5093836,29.452245224522,0,0
-159.30132653785,306.50150704363,24.256675667567,1286056.4990449,-2024.8163022945,2620817.5093836,29.456675667567,0,0
-159.30132633375,306.55295323489,24.261106110611,1286056.4990449,-2024.8163022945,2620817.5093836,29.461106110611,0,0
-159.30132612965,306.60439942615,24.265536553655,1286056.4990449,-2024.8163022945,2620817.5093836,29.465536553655,0,0
-159.30132592555,306.65584561742,24.2699669967,1286056.4990449,-2024.8163022945,2620817.5093836,29.4699669967,0,0
-159.30132572146,306.70729180868,24.274397439744,1286056.4990449,-2024.8163022945,2620817.5093836,29.474397439744,0,0
-159.30132551736,306.75873799995,24.278827882788,1286056.4990449,-2024.8163022945,2620817.5093836,29.478827882788,0,0
-159.30132531326,306.81018419121,24.283258325833,1286056.4990449,-2024.8163022945,2620817.5093836,29.483258325833,0,0
-159.30132510916,306.86163038248,24.287688768877,1286056.4990449,-2024.8163022945,2620817.5093836,29.487688768877,0,0
-159.30132490506,306.91307657374,24.292119211921,1286056.4990449,-2024.8163022945,2620817.5093836,29.492119211921,0,0
-159.30132470096,306.96452276501,24.296549654965,1286056.4990449,-2024.8163022945,2620817.5093836,29.496549654965,0,0
-159.30132449687,307.01596895627,24.30098009801,1286056.4990449,-2024.8163022945,2620817.5093836,29.50098009801,0,0
-159.30132429277,307.06741514753,24.305410541054,1286056.4990449,-2024.8163022945,2620817.5093836,29.505410541054,0,0
-159.30132408867,307.1188613388,24.309840984098,1286056.4990449,-2024.8163022945,2620817.5093836,29.509840984098,0,0
-159.30132388457,307.17030753006,24.314271427143,1286056.4990449,-2024.8163022945,2620817.5093836,29.514271427143,0,0
-159.30132368047,307.22175372133,24.318701870187,1286056.4990449,-2024.8163022945,2620817.5093836,29.518701870187,0,0
-159.30132347639,307.27319991291,24.323132313231,1284231.2880139,838.449266104,2616104.0928172,29.523132313231,0,0
-159.30132327233,307.32464610536,24.327562756276,1284231.2880139,838.449266104,2616104.0928172,29.527562756276,0,0
-159.30132306828,307.3760922978,24.33199319932,1284231.2880139,838.449266104,2616104.0928172,29.53199319932,0,0
-159.30132286423,307.42753849024,24.336423642364,1284231.2880139,838.449266104,2616104.0928172,29.536423642364,0,0
-159.30132266018,307.47898468269,24.340854085409,1284231.2880139,838.449266104,2616104.0928172,29.540854085409,0,0
-159.30132245612,307.53043087513,24.345284528453,1284231.2880139,838.449266104,2616104.0928172,29.545284528453,0,0
-159.30132225207,307.58187706757,24.349714971497,1284231.2880139,838.449266104,2616104.0928172,29.549714971497,0,0
-159.30132204802,307.63332326002,24.354145414541,1284231.2880139,838.449266104,2616104.0928172,29.554145414541,0,0
-159.30132184396,307.68476945246,24.358575857586,1284231.2880139,838.449266104,2616104.0928172,29.558575857586,0,0
-159.30132163991,307.7362156449,24.36300630063,1284231.2880139,838.449266104,2616104.0928172,29.56300630063,0,0
-159.30132143586,307.78766183735,24.367436743674,1284231.2880139,838.449266104,2616104.0928172,29.567436743674,0,0
-159.30132123181,307.83910802979,24.371867186719,1284231.2880139,838.449266104,2616104.0928172,29.571867186719,0,0
-159.30132102775,307.89055422223,24.376297629763,1284231.2880139,838.449266104,2616104.0928172,29.576297629763,0,0
-159.3013208237,307.94200041467,24.380728072807,1284231.2880139,838.449266104,2616104.0928172,29.580728072807,0,0
-159.30132061965,307.99344660712,24.385158515852,1284231.2880139,838.449266104,2616104.0928172,29.585158515852,0,0
-159.3013204156,308.04489279956,24.389588958896,1284231.2880139,838.449266104,2616104.0928172,29.589588958896,0,0
-159.30132021154,308.096338992,24.39401940194,1284231.2880139,838.449266104,2616104.0928172,29.59401940194,0,0
-159.30132000749,308.14778518445,24.398449844984,1284231.2880139,838.449266104,2616104.0928172,29.598449844984,0,0
-159.30131980344,308.19923137689,24.402880288029,1284231.2880139,838.449266104,2616104.0928172,29.602880288029,0,0
-159.30131959938,308.25067756933,24.407310731073,1284231.2880139,838.449266104,2616104.0928172,29.607310731073,0,0
-159.30131939533,308.30212376178,24.411741174117,1284231.2880139,838.449266104,2616104.0928172,29.611741174117,0,0
-159.30131919128,308.35356995422,24.416171617162,1284231.2880139,838.449266104,2616104.0928172,29.616171617162,0,0
-159.30131898723,308.40501614666,24.420602060206,1284231.2880139,838.449266104,2616104.0928172,29.620602060206,0,0
-159.30131878317,308.45646233911,24.42503250325,1284231.2880139,838.449266104,2616104.0928172,29.62503250325,0,0
-159.30131857912,308.50790853155,24.429462946295,1284231.2880139,838.449266104,2616104.0928172,29.629462946295,0,0
-159.30131837507,308.55935472399,24.433893389339,1284231.2880139,838.449266104,2616104.0928172,29.633893389339,0,0
-159.30131817102,308.61080091643,24.438323832383,1284231.2880139,838.449266104,2616104.0928172,29.638323832383,0,0
-159.30131796696,308.66224710888,24.442754275428,1284231.2880139,838.449266104,2616104.0928172,29.642754275428,0,0
-159.30131776291,308.71369330132,24.447184718472,1284231.2880139,838.449266104,2616104.0928172,29.647184718472,0,0
-159.30131755886,308.76513949376,24.451615161516,1284231.2880139,838.449266104,2616104.0928172,29.651615161516,0,0
-159.3013173548,308.81658568621,24.45604560456,1284231.2880139,838.449266104,2616104.0928172,29.65604560456,0,0
-159.30131715075,308.86803187865,24.460476047605,1284231.2880139,838.449266104,2616104.0928172,29.660476047605,0,0
-159.3013169467,308.91947807109,24.464906490649,1284231.2880139,838.449266104,2616104.0928172,29.664906490649,0,0
-159.30131674265,308.97092426354,24.469336933693,1284231.2880139,838.449266104,2616104.0928172,29.669336933693,0,0
-159.30131653859,309.02237045598,24.473767376738,1284231.2880139,838.449266104,2616104.0928172,29.673767376738,0,0
-159.30131633454,309.07381664842,24.478197819782,1284231.2880139,838.449266104,2616104.0928172,29.678197819782,0,0
-159.30131613049,309.12526284087,24.482628262826,1284231.2880139,838.449266104,2616104.0928172,29.682628262826,0,0
-159.30131592644,309.17670903331,24.487058705871,1284231.2880139,838.449266104,2616104.0928172,29.687058705871,0,0
-159.30131572238,309.22815522575,24.491489148915,1284231.2880139,838.449266104,2616104.0928172,29.691489148915,0,0
-159.30131551833,309.27960141819,24.495919591959,1284231.2880139,838.449266104,2616104.0928172,29.695919591959,0,0
-159.30131531428,309.33104761064,24.500350035003,1284231.2880139,838.449266104,2616104.0928172,29.700350035003,0,0
-159.30131511022,309.38249380308,24.504780478048,1284231.2880139,838.449266104,2616104.0928172,29.704780478048,0,0
-159.30131490617,309.43393999552,24.509210921092,1284231.2880139,838.449266104,2616104.0928172,29.709210921092,0,0
-159.30131470212,309.48538618797,24.513641364136,1284231.2880139,838.449266104,2616104.0928172,29.713641364136,0,0
-159.30131449807,309.53683238041,24.518071807181,1284231.2880139,838.449266104,2616104.0928172,29.718071807181,0,0
-159.30131429401,309.58827857285,24.522502250225,1284231.2880139,838.449266104,2616104.0928172,29.722502250225,0,0
-159.30131408996,309.6397247653,24.526932693269,1284231.2880139,838.449266104,2616104.0928172,29.726932693269,0,0
-159.30131388591,309.69117095774,24.531363136314,1284231.2880139,838.449266104,2616104.0928172,29.731363136314,0,0
-159.30131368186,309.74261715018,24.535793579358,1284231.2880139,838.449266104,2616104.0928172,29.735793579358,0,0
-159.3013134778,309.79406334262,24.540224022402,1284231.2880139,838.449266104,2616104.0928172,29.740224022402,0,0
-159.30131327375,309.84550953507,24.544654465447,1284231.2880139,838.449266104,2616104.0928172,29.744654465447,0,0
-159.3013130697,309.89695572751,24.549084908491,1284231.2880139,838.449266104,2616104.0928172,29.749084908491,0,0
-159.30131286564,309.94840191995,24.553515351535,1284231.2880139,838.449266104,2616104.0928172,29.753515351535,0,0
-159.30131266159,309.9998481124,24.557945794579,1284231.2880139,838.449266104,2616104.0928172,29.757945794579,0,0
-159.30131245754,310.05129430484,24.562376237624,1284231.2880139,838.449266104,2616104.0928172,29.762376237624,0,0
-159.30131225349,310.10274049728,24.566806680668,1284231.2880139,838.449266104,2616104.0928172,29.766806680668,0,0
-159.30131204943,310.15418668973,24.571237123712,1284231.2880139,838.449266104,2616104.0928172,29.771237123712,0,0
-159.30131184538,310.20563288217,24.575667566757,1284231.2880139,838.449266104,2616104.0928172,29.775667566757,0,0
-159.30131164133,310.25707907461,24.580098009801,1284231.2880139,838.449266104,2616104.0928172,29.780098009801,0,0
-159.30131143727,310.30852526706,24.584528452845,1284231.2880139,838.449266104,2616104.0928172,29.784528452845,0,0
-159.30131123322,310.3599714595,24.58895889589,1284231.2880139,838.449266104,2616104.0928172,29.78895889589,0,0
-159.30131102917,310.41141765194,24.593389338934,1284231.2880139,838.449266104,2616104.0928172,29.793389338934,0,0
-159.30131082512,310.46286384438,24.597819781978,1284231.2880139,838.449266104,2616104.0928172,29.797819781978,0,0
-159.30131062106,310.51431003683,24.602250225022,1284231.2880139,838.449266104,2616104.0928172,29.802250225022,0,0
-159.30131041701,310.56575622927,24.606680668067,1284231.2880139,838.449266104,2616104.0928172,29.806680668067,0,0
-159.30131021296,310.61720242171,24.611111111111,1284231.2880139,838.449266104,2616104.0928172,29.811111111111,0,0
-159.30131000891,310.66864861416,24.615541554155,1284231.2880139,838.449266104,2616104.0928172,29.815541554155,0,0
-159.30130980485,310.7200948066,24.6199719972,1284231.2880139,838.449266104,2616104.0928172,29.8199719972,0,0
-159.3013096008,310.77154099904,24.624402440244,1284231.2880139,838.449266104,2616104.0928172,29.824402440244,0,0
-159.30130939675,310.82298719149,24.628832883288,1284231.2880139,838.449266104,2616104.0928172,29.828832883288,0,0
-159.30130919269,310.87443338393,24.633263326333,1284231.2880139,838.449266104,2616104.0928172,29.833263326333,0,0
-159.30130898864,310.92587957637,24.637693769377,1284231.2880139,838.449266104,2616104.0928172,29.837693769377,0,0
-159.30130878459,310.97732576882,24.642124212421,1284231.2880139,838.449266104,2616104.0928172,29.842124212421,0,0
-159.30130858054,311.02877196126,24.646554655466,1284231.2880139,838.449266104,2616104.0928172,29.846554655466,0,0
-159.30130837648,311.0802181537,24.65098509851,1284231.2880139,838.449266104,2616104.0928172,29.85098509851,0,0
-159.30130817243,311.13166434614,24.655415541554,1284231.2880139,838.449266104,2616104.0928172,29.855415541554,0,0
-159.30130796838,311.18311053859,24.659845984598,1284231.2880139,838.449266104,2616104.0928172,29.859845984598,0,0
-159.30130776433,311.23455673103,24.664276427643,1284231.2880139,838.449266104,2616104.0928172,29.864276427643,0,0
-159.30130756027,311.28600292347,24.668706870687,1284231.2880139,838.449266104,2616104.0928172,29.868706870687,0,0
-159.30130735622,311.33744911592,24.673137313731,1284231.2880139,838.449266104,2616104.0928172,29.873137313731,0,0
-159.30130715217,311.38889530836,24.677567756776,1284231.2880139,838.449266104,2616104.0928172,29.877567756776,0,0
-159.30130694811,311.4403415008,24.68199819982,1284231.2880139,838.449266104,2616104.0928172,29.88199819982,0,0
-159.30130674406,311.49178769325,24.686428642864,1284231.2880139,838.449266104,2616104.0928172,29.886428642864,0,0
-159.30130654001,311.54323388569,24.690859085909,1284231.2880139,838.449266104,2616104.0928172,29.890859085909,0,0
-159.30130633596,311.59468007813,24.695289528953,1284231.2880139,838.449266104,2616104.0928172,29.895289528953,0,0
-159.3013061319,311.64612627058,24.699719971997,1284231.2880139,838.449266104,2616104.0928172,29.899719971997,0,0
-159.30130592785,311.69757246302,24.704150415042,1284231.2880139,838.449266104,2616104.0928172,29.904150415041,0,0
-159.3013057238,311.74901865546,24.708580858086,1284231.2880139,838.449266104,2616104.0928172,29.908580858086,0,0
-159.30130551975,311.8004648479,24.71301130113,1284231.2880139,838.449266104,2616104.0928172,29.91301130113,0,0
-159.30130531569,311.85191104035,24.717441744174,1284231.2880139,838.449266104,2616104.0928172,29.917441744174,0,0
-159.30130511164,311.90335723279,24.721872187219,1284231.2880139,838.449266104,2616104.0928172,29.921872187219,0,0
-159.30130490759,311.95480342523,24.726302630263,1284231.2880139,838.449266104,2616104.0928172,29.926302630263,0,0
-159.30130470353,312.00624961768,24.730733073307,1284231.2880139,838.449266104,2616104.0928172,29.930733073307,0,0
-159.30130449948,312.05769581012,24.735163516352,1284231.2880139,838.449266104,2616104.0928172,29.935163516352,0,0
-159.30130429543,312.10914200256,24.739593959396,1284231.2880139,838.449266104,2616104.0928172,29.939593959396,0,0
-159.30130409138,312.16058819501,24.74402440244,1284231.2880139,838.449266104,2616104.0928172,29.94402440244,0,0
-159.30130388732,312.21203438745,24.748454845485,1284231.2880139,838.449266104,2616104.0928172,29.948454845485,0,0
-159.30130368327,312.26348057989,24.752885288529,1284231.2880139,838.449266104,2616104.0928172,29.952885288529,0,0
-159.30130347922,312.31492677234,24.757315731573,1284231.2880139,838.449266104,2616104.0928172,29.957315731573,0,0
-159.30130327517,312.36637296478,24.761746174617,1284231.2880139,838.449266104,2616104.0928172,29.961746174617,0,0
-159.30130307111,312.41781915722,24.766176617662,1284231.2880139,838.449266104,2616104.0928172,29.966176617662,0,0
-159.30130286706,312.46926534966,24.770607060706,1284231.2880139,838.449266104,2616104.0928172,29.970607060706,0,0
-159.30130266301,312.52071154211,24.77503750375,1284231.2880139,838.449266104,2616104.0928172,29.97503750375,0,0
-159.30130245895,312.57215773455,24.779467946795,1284231.2880139,838.449266104,2616104.0928172,29.979467946795,0,0
-159.3013022549,312.62360392699,24.783898389839,1284231.2880139,838.449266104,2616104.0928172,29.983898389839,0,0
-159.30130205085,312.67505011944,24.788328832883,1284231.2880139,838.449266104,2616104.0928172,29.988328832883,0,0
-159.3013018468,312.72649631188,24.792759275928,1284231.2880139,838.449266104,2616104.0928172,29.992759275928,0,0
-159.30130164274,312.77794250432,24.797189718972,1284231.2880139,838.449266104,2616104.0928172,29.997189718972,0,0
-159.30130143869,312.82938869677,24.801620162016,1284231.2880139,838.449266104,2616104.0928172,30.001620162016,0,0
-159.30130123455,312.88083488826,24.806050605061,1283536.0876071,-1706.5719816961,2611948.3129553,30.006050605061,0,0
-159.30130103039,312.93228107957,24.810481048105,1283536.0876071,-1706.5719816961,2611948.3129553,30.010481048105,0,0
-159.30130082623,312.98372727089,24.814911491149,1283536.0876071,-1706.5719816961,2611948.3129553,30.014911491149,0,0
-159.30130062208,313.0351734622,24.819341934193,1283536.0876071,-1706.5719816961,2611948.3129553,30.019341934193,0,0
-159.30130041792,313.08661965352,24.823772377238,1283536.0876071,-1706.5719816961,2611948.3129553,30.023772377238,0,0
-159.30130021376,313.13806584483,24.828202820282,1283536.0876071,-1706.5719816961,2611948.3129553,30.028202820282,0,0
-159.3013000096,313.18951203615,24.832633263326,1283536.0876071,-1706.5719816961,2611948.3129553,30.032633263326,0,0
-159.30129980545,313.24095822746,24.837063706371,1283536.0876071,-1706.5719816961,2611948.3129553,30.037063706371,0,0
-159.30129960129,313.29240441878,24.841494149415,1283536.0876071,-1706.5719816961,2611948.3129553,30.041494149415,0,0
-159.30129939713,313.34385061009,24.845924592459,1283536.0876071,-1706.5719816961,2611948.3129553,30.045924592459,0,0
-159.30129919297,313.39529680141,24.850355035504,1283536.0876071,-1706.5719816961,2611948.3129553,30.050355035504,0,0
-159.30129898882,313.44674299272,24.854785478548,1283536.0876071,-1706.5719816961,2611948.3129553,30.054785478548,0,0
-159.30129878466,313.49818918404,24.859215921592,1283536.0876071,-1706.5719816961,2611948.3129553,30.059215921592,0,0
-159.3012985805,313.54963537535,24.863646364636,1283536.0876071,-1706.5719816961,2611948.3129553,30.063646364636,0,0
-159.30129837634,313.60108156667,24.868076807681,1283536.0876071,-1706.5719816961,2611948.3129553,30.068076807681,0,0
-159.30129817219,313.65252775798,24.872507250725,1283536.0876071,-1706.5719816961,2611948.3129553,30.072507250725,0,0
-159.30129796803,313.7039739493,24.876937693769,1283536.0876071,-1706.5719816961,2611948.3129553,30.076937693769,0,0
-159.30129776387,313.75542014061,24.881368136814,1283536.0876071,-1706.5719816961,2611948.3129553,30.081368136814,0,0
-159.30129755971,313.80686633193,24.885798579858,1283536.0876071,-1706.5719816961,2611948.3129553,30.085798579858,0,0
-159.30129735556,313.85831252325,24.890229022902,1283536.0876071,-1706.5719816961,2611948.3129553,30.090229022902,0,0
-159.3012971514,313.90975871456,24.894659465947,1283536.0876071,-1706.5719816961,2611948.3129553,30.094659465947,0,0
-159.30129694724,313.96120490588,24.899089908991,1283536.0876071,-1706.5719816961,2611948.3129553,30.099089908991,0,0
-159.30129674309,314.01265109719,24.903520352035,1283536.0876071,-1706.5719816961,2611948.3129553,30.103520352035,0,0
-159.30129653893,314.06409728851,24.90795079508,1283536.0876071,-1706.5719816961,2611948.3129553,30.10795079508,0,0
-159.30129633477,314.11554347982,24.912381238124,1283536.0876071,-1706.5719816961,2611948.3129553,30.112381238124,0,0
-159.30129613061,314.16698967114,24.916811681168,1283536.0876071,-1706.5719816961,2611948.3129553,30.116811681168,0,0
-159.30129592646,314.21843586245,24.921242124212,1283536.0876071,-1706.5719816961,2611948.3129553,30.121242124212,0,0
-159.3012957223,314.26988205377,24.925672567257,1283536.0876071,-1706.5719816961,2611948.3129553,30.125672567257,0,0
-159.30129551814,314.32132824508,24.930103010301,1283536.0876071,-1706.5719816961,2611948.3129553,30.130103010301,0,0
-159.30129531398,314.3727744364,24.934533453345,1283536.0876071,-1706.5719816961,2611948.3129553,30.134533453345,0,0
-159.30129510983,314.42422062771,24.93896389639,1283536.0876071,-1706.5719816961,2611948.3129553,30.13896389639,0,0
-159.30129490567,314.47566681903,24.943394339434,1283536.0876071,-1706.5719816961,2611948.3129553,30.143394339434,0,0
-159.30129470151,314.52711301034,24.947824782478,1283536.0876071,-1706.5719816961,2611948.3129553,30.147824782478,0,0
-159.30129449735,314.57855920166,24.952255225523,1283536.0876071,-1706.5719816961,2611948.3129553,30.152255225523,0,0
-159.3012942932,314.63000539297,24.956685668567,1283536.0876071,-1706.5719816961,2611948.3129553,30.156685668567,0,0
-159.30129408904,314.68145158429,24.961116111611,1283536.0876071,-1706.5719816961,2611948.3129553,30.161116111611,0,0
-159.30129388488,314.7328977756,24.965546554655,1283536.0876071,-1706.5719816961,2611948.3129553,30.165546554655,0,0
-159.30129368072,314.78434396692,24.9699769977,1283536.0876071,-1706.5719816961,2611948.3129553,30.1699769977,0,0
-159.30129347657,314.83579015823,24.974407440744,1283536.0876071,-1706.5719816961,2611948.3129553,30.174407440744,0,0
-159.30129327241,314.88723634955,24.978837883788,1283536.0876071,-1706.5719816961,2611948.3129553,30.178837883788,0,0
-159.30129306825,314.93868254086,24.983268326833,1283536.0876071,-1706.5719816961,2611948.3129553,30.183268326833,0,0
-159.30129286409,314.99012873218,24.987698769877,1283536.0876071,-1706.5719816961,2611948.3129553,30.187698769877,0,0
-159.30129265994,315.0415749235,24.992129212921,1283536.0876071,-1706.5719816961,2611948.3129553,30.192129212921,0,0
-159.30129245578,315.09302111481,24.996559655966,1283536.0876071,-1706.5719816961,2611948.3129553,30.196559655966,0,0
-159.30129225162,315.14446730613,25.00099009901,1283536.0876071,-1706.5719816961,2611948.3129553,30.20099009901,0,0
-159.30129204746,315.19591349744,25.005420542054,1283536.0876071,-1706.5719816961,2611948.3129553,30.205420542054,0,0
-159.30129184331,315.24735968876,25.009850985099,1283536.0876071,-1706.5719816961,2611948.3129553,30.209850985099,0,0
-159.30129163915,315.29880588007,25.014281428143,1283536.0876071,-1706.5719816961,2611948.3129553,30.214281428143,0,0
-159.30129143499,315.35025207139,25.018711871187,1283536.0876071,-1706.5719816961,2611948.3129553,30.218711871187,0,0
-159.30129123083,315.4016982627,25.023142314231,1283536.0876071,-1706.5719816961,2611948.3129553,30.223142314231,0,0
-159.30129102668,315.45314445402,25.027572757276,1283536.0876071,-1706.5719816961,2611948.3129553,30.227572757276,0,0
-159.30129082252,315.50459064533,25.03200320032,1283536.0876071,-1706.5719816961,2611948.3129553,30.23200320032,0,0
-159.30129061836,315.55603683665,25.036433643364,1283536.0876071,-1706.5719816961,2611948.3129553,30.236433643364,0,0
-159.3012904142,315.60748302796,25.040864086409,1283536.0876071,-1706.5719816961,2611948.3129553,30.240864086409,0,0
-159.30129021005,315.65892921928,25.045294529453,1283536.0876071,-1706.5719816961,2611948.3129553,30.245294529453,0,0
-159.30129000589,315.71037541059,25.049724972497,1283536.0876071,-1706.5719816961,2611948.3129553,30.249724972497,0,0
-159.30128980173,315.76182160191,25.054155415542,1283536.0876071,-1706.5719816961,2611948.3129553,30.254155415542,0,0
-159.30128959757,315.81326779322,25.058585858586,1283536.0876071,-1706.5719816961,2611948.3129553,30.258585858586,0,0
-159.30128939342,315.86471398454,25.06301630163,1283536.0876071,-1706.5719816961,2611948.3129553,30.26301630163,0,0
-159.30128918926,315.91616017585,25.067446744674,1283536.0876071,-1706.5719816961,2611948.3129553,30.267446744674,0,0
-159.3012889851,315.96760636717,25.071877187719,1283536.0876071,-1706.5719816961,2611948.3129553,30.271877187719,0,0
-159.30128878094,316.01905255848,25.076307630763,1283536.0876071,-1706.5719816961,2611948.3129553,30.276307630763,0,0
-159.30128857679,316.0704987498,25.080738073807,1283536.0876071,-1706.5719816961,2611948.3129553,30.280738073807,0,0
-159.30128837263,316.12194494111,25.085168516852,1283536.0876071,-1706.5719816961,2611948.3129553,30.285168516852,0,0
-159.30128816847,316.17339113243,25.089598959896,1283536.0876071,-1706.5719816961,2611948.3129553,30.289598959896,0,0
-159.30128796431,316.22483732375,25.09402940294,1283536.0876071,-1706.5719816961,2611948.3129553,30.29402940294,0,0
-159.30128776016,316.27628351506,25.098459845985,1283536.0876071,-1706.5719816961,2611948.3129553,30.298459845985,0,0
-159.301287556,316.32772970638,25.102890289029,1283536.0876071,-1706.5719816961,2611948.3129553,30.302890289029,0,0
-159.30128735184,316.37917589769,25.107320732073,1283536.0876071,-1706.5719816961,2611948.3129553,30.307320732073,0,0
-159.30128714768,316.43062208901,25.111751175118,1283536.0876071,-1706.5719816961,2611948.3129553,30.311751175118,0,0
-159.30128694353,316.48206828032,25.116181618162,1283536.0876071,-1706.5719816961,2611948.3129553,30.316181618162,0,0
-159.30128673937,316.53351447164,25.120612061206,1283536.0876071,-1706.5719816961,2611948.3129553,30.320612061206,0,0
-159.30128653521,316.58496066295,25.12504250425,1283536.0876071,-1706.5719816961,2611948.3129553,30.32504250425,0,0
-159.30128633105,316.63640685427,25.129472947295,1283536.0876071,-1706.5719816961,2611948.3129553,30.329472947295,0,0
-159.3012861269,316.68785304558,25.133903390339,1283536.0876071,-1706.5719816961,2611948.3129553,30.333903390339,0,0
-159.30128592274,316.7392992369,25.138333833383,1283536.0876071,-1706.5719816961,2611948.3129553,30.338333833383,0,0
-159.30128571858,316.79074542821,25.142764276428,1283536.0876071,-1706.5719816961,2611948.3129553,30.342764276428,0,0
-159.30128551442,316.84219161953,25.147194719472,1283536.0876071,-1706.5719816961,2611948.3129553,30.347194719472,0,0
-159.30128531027,316.89363781084,25.151625162516,1283536.0876071,-1706.5719816961,2611948.3129553,30.351625162516,0,0
-159.30128510611,316.94508400216,25.156055605561,1283536.0876071,-1706.5719816961,2611948.3129553,30.356055605561,0,0
-159.30128490195,316.99653019347,25.160486048605,1283536.0876071,-1706.5719816961,2611948.3129553,30.360486048605,0,0
-159.30128469779,317.04797638479,25.164916491649,1283536.0876071,-1706.5719816961,2611948.3129553,30.364916491649,0,0
-159.30128449364,317.0994225761,25.169346934693,1283536.0876071,-1706.5719816961,2611948.3129553,30.369346934693,0,0
-159.30128428948,317.15086876742,25.173777377738,1283536.0876071,-1706.5719816961,2611948.3129553,30.373777377738,0,0
-159.30128408532,317.20231495873,25.178207820782,1283536.0876071,-1706.5719816961,2611948.3129553,30.378207820782,0,0
-159.30128388117,317.25376115005,25.182638263826,1283536.0876071,-1706.5719816961,2611948.3129553,30.382638263826,0,0
-159.30128367701,317.30520734136,25.187068706871,1283536.0876071,-1706.5719816961,2611948.3129553,30.387068706871,0,0
-159.30128347285,317.35665353268,25.191499149915,1283536.0876071,-1706.5719816961,2611948.3129553,30.391499149915,0,0
-159.30128326869,317.408099724,25.195929592959,1283536.0876071,-1706.5719816961,2611948.3129553,30.395929592959,0,0
-159.30128306454,317.45954591531,25.200360036004,1283536.0876071,-1706.5719816961,2611948.3129553,30.400360036004,0,0
-159.30128286038,317.51099210663,25.204790479048,1283536.0876071,-1706.5719816961,2611948.3129553,30.404790479048,0,0
-159.30128265622,317.56243829794,25.209220922092,1283536.0876071,-1706.5719816961,2611948.3129553,30.409220922092,0,0
-159.30128245206,317.61388448926,25.213651365137,1283536.0876071,-1706.5719816961,2611948.3129553,30.413651365137,0,0
-159.30128224791,317.66533068057,25.218081808181,1283536.0876071,-1706.5719816961,2611948.3129553,30.418081808181,0,0
-159.30128204375,317.71677687189,25.222512251225,1283536.0876071,-1706.5719816961,2611948.3129553,30.422512251225,0,0
-159.30128183959,317.7682230632,25.226942694269,1283536.0876071,-1706.5719816961,2611948.3129553,30.426942694269,0,0
-159.30128163543,317.81966925452,25.231373137314,1283536.0876071,-1706.5719816961,2611948.3129553,30.431373137314,0,0
-159.30128143128,317.87111544583,25.235803580358,1283536.0876071,-1706.5719816961,2611948.3129553,30.435803580358,0,0
-159.30128122712,317.92256163715,25.240234023402,1283536.0876071,-1706.5719816961,2611948.3129553,30.440234023402,0,0
-159.30128102296,317.97400782846,25.244664466447,1283536.0876071,-1706.5719816961,2611948.3129553,30.444664466447,0,0
-159.3012808188,318.02545401978,25.249094909491,1283536.0876071,-1706.5719816961,2611948.3129553,30.449094909491,0,0
-159.30128061465,318.07690021109,25.253525352535,1283536.0876071,-1706.5719816961,2611948.3129553,30.453525352535,0,0
-159.30128041049,318.12834640241,25.25795579558,1283536.0876071,-1706.5719816961,2611948.3129553,30.45795579558,0,0
-159.30128020633,318.17979259372,25.262386238624,1283536.0876071,-1706.5719816961,2611948.3129553,30.462386238624,0,0
-159.30128000217,318.23123878504,25.266816681668,1283536.0876071,-1706.5719816961,2611948.3129553,30.466816681668,0,0
-159.30127979802,318.28268497635,25.271247124712,1283536.0876071,-1706.5719816961,2611948.3129553,30.471247124712,0,0
-159.30127959386,318.33413116767,25.275677567757,1283536.0876071,-1706.5719816961,2611948.3129553,30.475677567757,0,0
-159.3012793897,318.38557735898,25.280108010801,1283536.0876071,-1706.5719816961,2611948.3129553,30.480108010801,0,0
-159.30127918554,318.4370235503,25.284538453845,1283536.0876071,-1706.5719816961,2611948.3129553,30.484538453845,0,0
-159.30127898139,318.48846974161,25.28896889689,1283536.0876071,-1706.5719816961,2611948.3129553,30.48896889689,0,0
-159.30127877723,318.53991593293,25.293399339934,1283536.0876071,-1706.5719816961,2611948.3129553,30.493399339934,0,0
-159.30127857307,318.59136212425,25.297829782978,1283536.0876071,-1706.5719816961,2611948.3129553,30.497829782978,0,0
-159.30127836891,318.64280831556,25.302260226023,1283536.0876071,-1706.5719816961,2611948.3129553,30.502260226023,0,0
-159.30127816476,318.69425450688,25.306690669067,1283536.0876071,-1706.5719816961,2611948.3129553,30.506690669067,0,0
-159.3012779606,318.74570069819,25.311121112111,1283536.0876071,-1706.5719816961,2611948.3129553,30.511121112111,0,0
-159.30127775644,318.79714688951,25.315551555156,1283536.0876071,-1706.5719816961,2611948.3129553,30.515551555156,0,0
-159.30127755228,318.84859308082,25.3199819982,1283536.0876071,-1706.5719816961,2611948.3129553,30.5199819982,0,0
-159.30127734813,318.90003927214,25.324412441244,1283536.0876071,-1706.5719816961,2611948.3129553,30.524412441244,0,0
-159.30127714397,318.95148546345,25.328842884288,1283536.0876071,-1706.5719816961,2611948.3129553,30.528842884288,0,0
-159.30127693981,319.00293165477,25.333273327333,1283536.0876071,-1706.5719816961,2611948.3129553,30.533273327333,0,0
-159.30127673565,319.05437784608,25.337703770377,1283536.0876071,-1706.5719816961,2611948.3129553,30.537703770377,0,0
-159.3012765315,319.1058240374,25.342134213421,1283536.0876071,-1706.5719816961,2611948.3129553,30.542134213421,0,0
-159.30127632734,319.15727022871,25.346564656466,1283536.0876071,-1706.5719816961,2611948.3129553,30.546564656466,0,0
-159.30127612318,319.20871642003,25.35099509951,1283536.0876071,-1706.5719816961,2611948.3129553,30.55099509951,0,0
-159.30127591902,319.26016261134,25.355425542554,1283536.0876071,-1706.5719816961,2611948.3129553,30.555425542554,0,0
-159.30127571487,319.31160880266,25.359855985599,1283536.0876071,-1706.5719816961,2611948.3129553,30.559855985599,0,0
-159.30127551071,319.36305499397,25.364286428643,1283536.0876071,-1706.5719816961,2611948.3129553,30.564286428643,0,0
-159.30127530655,319.41450118529,25.368716871687,1283536.0876071,-1706.5719816961,2611948.3129553,30.568716871687,0,0
-159.30127510239,319.4659473766,25.373147314731,1283536.0876071,-1706.5719816961,2611948.3129553,30.573147314731,0,0
-159.30127489824,319.51739356792,25.377577757776,1283536.0876071,-1706.5719816961,2611948.3129553,30.577577757776,0,0
-159.30127469408,319.56883975923,25.38200820082,1283536.0876071,-1706.5719816961,2611948.3129553,30.58200820082,0,0
-159.30127448992,319.62028595055,25.386438643864,1283536.0876071,-1706.5719816961,2611948.3129553,30.586438643864,0,0
-159.30127428576,319.67173214187,25.390869086909,1283536.0876071,-1706.5719816961,2611948.3129553,30.590869086909,0,0
-159.30127408161,319.72317833318,25.395299529953,1283536.0876071,-1706.5719816961,2611948.3129553,30.595299529953,0,0
-159.30127387745,319.7746245245,25.399729972997,1283536.0876071,-1706.5719816961,2611948.3129553,30.599729972997,0,0
-159.30127367329,319.82607071581,25.404160416042,1283536.0876071,-1706.5719816961,2611948.3129553,30.604160416042,0,0
-159.30127346913,319.87751690713,25.408590859086,1283536.0876071,-1706.5719816961,2611948.3129553,30.608590859086,0,0
-159.30127326498,319.92896309844,25.41302130213,1283536.0876071,-1706.5719816961,2611948.3129553,30.61302130213,0,0
-159.30127306082,319.98040928976,25.417451745175,1283536.0876071,-1706.5719816961,2611948.3129553,30.617451745175,0,0
-159.30127285666,320.03185548107,25.421882188219,1283536.0876071,-1706.5719816961,2611948.3129553,30.621882188219,0,0
-159.3012726525,320.08330167239,25.426312631263,1283536.0876071,-1706.5719816961,2611948.3129553,30.626312631263,0,0
-159.30127244835,320.1347478637,25.430743074307,1283536.0876071,-1706.5719816961,2611948.3129553,30.630743074307,0,0
-159.30127224419,320.18619405502,25.435173517352,1283536.0876071,-1706.5719816961,2611948.3129553,30.635173517352,0,0
-159.30127204003,320.23764024633,25.439603960396,1283536.0876071,-1706.5719816961,2611948.3129553,30.639603960396,0,0
-159.30127183587,320.28908643765,25.44403440344,1283536.0876071,-1706.5719816961,2611948.3129553,30.64403440344,0,0
-159.30127163172,320.34053262896,25.448464846485,1283536.0876071,-1706.5719816961,2611948.3129553,30.648464846485,0,0
-159.30127142756,320.39197882028,25.452895289529,1283536.0876071,-1706.5719816961,2611948.3129553,30.652895289529,0,0
-159.3012712234,320.44342501159,25.457325732573,1283536.0876071,-1706.5719816961,2611948.3129553,30.657325732573,0,0
-159.30127101925,320.49487120291,25.461756175618,1283536.0876071,-1706.5719816961,2611948.3129553,30.661756175618,0,0
-159.30127081509,320.54631739422,25.466186618662,1283536.0876071,-1706.5719816961,2611948.3129553,30.666186618662,0,0
-159.30127061093,320.59776358554,25.470617061706,1283536.0876071,-1706.5719816961,2611948.3129553,30.670617061706,0,0
-159.30127040677,320.64920977685,25.47504750475,1283536.0876071,-1706.5719816961,2611948.3129553,30.67504750475,0,0
-159.30127020262,320.70065596817,25.479477947795,1283536.0876071,-1706.5719816961,2611948.3129553,30.679477947795,0,0
-159.30126999846,320.75210215948,25.483908390839,1283536.0876071,-1706.5719816961,2611948.3129553,30.683908390839,0,0
-159.3012697943,320.8035483508,25.488338833883,1283536.0876071,-1706.5719816961,2611948.3129553,30.688338833883,0,0
-159.30126959014,320.85499454212,25.492769276928,1283536.0876071,-1706.5719816961,2611948.3129553,30.692769276928,0,0
-159.30126938599,320.90644073343,25.497199719972,1283536.0876071,-1706.5719816961,2611948.3129553,30.697199719972,0,0
-159.30126918183,320.95788692475,25.501630163016,1283536.0876071,-1706.5719816961,2611948.3129553,30.701630163016,0,0
-159.30126897767,321.00933311606,25.506060606061,1283536.0876071,-1706.5719816961,2611948.3129553,30.706060606061,0,0
-159.30126877351,321.06077930738,25.510491049105,1283536.0876071,-1706.5719816961,2611948.3129553,30.710491049105,0,0
-159.30126856936,321.11222549869,25.514921492149,1283536.0876071,-1706.5719816961,2611948.3129553,30.714921492149,0,0
-159.3012683652,321.16367169001,25.519351935194,1283536.0876071,-1706.5719816961,2611948.3129553,30.719351935194,0,0
-159.30126816104,321.21511788132,25.523782378238,1283536.0876071,-1706.5719816961,2611948.3129553,30.723782378238,0,0
-159.30126795688,321.26656407264,25.528212821282,1283536.0876071,-1706.5719816961,2611948.3129553,30.728212821282,0,0
-159.30126775273,321.31801026395,25.532643264326,1283536.0876071,-1706.5719816961,2611948.3129553,30.732643264326,0,0
-159.30126754857,321.36945645527,25.537073707371,1283536.0876071,-1706.5719816961,2611948.3129553,30.737073707371,0,0
-159.30126734441,321.42090264658,25.541504150415,1283536.0876071,-1706.5719816961,2611948.3129553,30.741504150415,0,0
-159.30126714025,321.4723488379,25.545934593459,1283536.0876071,-1706.5719816961,2611948.3129553,30.745934593459,0,0
-159.3012669361,321.52379502921,25.550365036504,1283536.0876071,-1706.5719816961,2611948.3129553,30.750365036504,0,0
-159.30126673194,321.57524122053,25.554795479548,1283536.0876071,-1706.5719816961,2611948.3129553,30.754795479548,0,0
-159.30126652778,321.62668741184,25.559225922592,1283536.0876071,-1706.5719816961,2611948.3129553,30.759225922592,0,0
-159.30126632362,321.67813360316,25.563656365637,1283536.0876071,-1706.5719816961,2611948.3129553,30.763656365637,0,0
-159.30126611947,321.72957979447,25.568086808681,1283536.0876071,-1706.5719816961,2611948.3129553,30.768086808681,0,0
-159.30126591531,321.78102598579,25.572517251725,1283536.0876071,-1706.5719816961,2611948.3129553,30.772517251725,0,0
-159.30126571115,321.8324721771,25.576947694769,1283536.0876071,-1706.5719816961,2611948.3129553,30.776947694769,0,0
-159.30126550699,321.88391836842,25.581378137814,1283536.0876071,-1706.5719816961,2611948.3129553,30.781378137814,0,0
-159.30126530284,321.93536455973,25.585808580858,1283536.0876071,-1706.5719816961,2611948.3129553,30.785808580858,0,0
-159.30126509868,321.98681075105,25.590239023902,1283536.0876071,-1706.5719816961,2611948.3129553,30.790239023902,0,0
-159.30126489452,322.03825694237,25.594669466947,1283536.0876071,-1706.5719816961,2611948.3129553,30.794669466947,0,0
-159.30126469036,322.08970313368,25.599099909991,1283536.0876071,-1706.5719816961,2611948.3129553,30.799099909991,0,0
-159.30126448621,322.141149325,25.603530353035,1283536.0876071,-1706.5719816961,2611948.3129553,30.803530353035,0,0
-159.30126428205,322.19259551631,25.60796079608,1283536.0876071,-1706.5719816961,2611948.3129553,30.80796079608,0,0
-159.30126407789,322.24404170763,25.612391239124,1283536.0876071,-1706.5719816961,2611948.3129553,30.812391239124,0,0
-159.30126387373,322.29548789894,25.616821682168,1283536.0876071,-1706.5719816961,2611948.3129553,30.816821682168,0,0
-159.30126366958,322.34693409026,25.621252125213,1283536.0876071,-1706.5719816961,2611948.3129553,30.821252125213,0,0
-159.30126346542,322.39838028157,25.625682568257,1283536.0876071,-1706.5719816961,2611948.3129553,30.825682568257,0,0
-159.30126326126,322.44982647289,25.630113011301,1283536.0876071,-1706.5719816961,2611948.3129553,30.830113011301,0,0
-159.3012630571,322.5012726642,25.634543454345,1283536.0876071,-1706.5719816961,2611948.3129553,30.834543454345,0,0
-159.30126285295,322.55271885552,25.63897389739,1283536.0876071,-1706.5719816961,2611948.3129553,30.83897389739,0,0
-159.30126264879,322.60416504683,25.643404340434,1283536.0876071,-1706.5719816961,2611948.3129553,30.843404340434,0,0
-159.30126244463,322.65561123815,25.647834783478,1283536.0876071,-1706.5719816961,2611948.3129553,30.847834783478,0,0
-159.30126224047,322.70705742946,25.652265226523,1283536.0876071,-1706.5719816961,2611948.3129553,30.852265226523,0,0
-159.30126203632,322.75850362078,25.656695669567,1283536.0876071,-1706.5719816961,2611948.3129553,30.856695669567,0,0
-159.30126183216,322.80994981209,25.661126112611,1283536.0876071,-1706.5719816961,2611948.3129553,30.861126112611,0,0
-159.301261628,322.86139600341,25.665556555656,1283536.0876071,-1706.5719816961,2611948.3129553,30.865556555656,0,0
-159.30126142384,322.91284219472,25.6699869987,1283536.0876071,-1706.5719816961,2611948.3129553,30.8699869987,0,0
-159.30126121969,322.96428838604,25.674417441744,1283536.0876071,-1706.5719816961,2611948.3129553,30.874417441744,0,0
-159.30126101553,323.01573457735,25.678847884788,1283536.0876071,-1706.5719816961,2611948.3129553,30.878847884788,0,0
-159.30126081137,323.06718076867,25.683278327833,1283536.0876071,-1706.5719816961,2611948.3129553,30.883278327833,0,0
-159.30126060721,323.11862695998,25.687708770877,1283536.0876071,-1706.5719816961,2611948.3129553,30.887708770877,0,0
-159.30126040306,323.1700731513,25.692139213921,1283536.0876071,-1706.5719816961,2611948.3129553,30.892139213921,0,0
-159.3012601989,323.22151934262,25.696569656966,1283536.0876071,-1706.5719816961,2611948.3129553,30.896569656966,0,0
-159.30125999474,323.27296553393,25.70100010001,1283536.0876071,-1706.5719816961,2611948.3129553,30.90100010001,0,0
-159.30125979058,323.32441172525,25.705430543054,1283536.0876071,-1706.5719816961,2611948.3129553,30.905430543054,0,0
-159.30125958643,323.37585791656,25.709860986099,1283536.0876071,-1706.5719816961,2611948.3129553,30.909860986099,0,0
-159.30125938227,323.42730410788,25.714291429143,1283536.0876071,-1706.5719816961,2611948.3129553,30.914291429143,0,0
-159.30125917811,323.47875029919,25.718721872187,1283536.0876071,-1706.5719816961,2611948.3129553,30.918721872187,0,0
-159.30125897395,323.53019649051,25.723152315232,1283536.0876071,-1706.5719816961,2611948.3129553,30.923152315232,0,0
-159.3012587698,323.58164268182,25.727582758276,1283536.0876071,-1706.5719816961,2611948.3129553,30.927582758276,0,0
-159.30125856564,323.63308887314,25.73201320132,1283536.0876071,-1706.5719816961,2611948.3129553,30.93201320132,0,0
-159.30125836148,323.68453506445,25.736443644364,1283536.0876071,-1706.5719816961,2611948.3129553,30.936443644364,0,0
-159.30125815732,323.73598125577,25.740874087409,1283536.0876071,-1706.5719816961,2611948.3129553,30.940874087409,0,0
-159.30125795317,323.78742744708,25.745304530453,1283536.0876071,-1706.5719816961,2611948.3129553,30.945304530453,0,0
-159.30125774901,323.8388736384,25.749734973497,1283536.0876071,-1706.5719816961,2611948.3129553,30.949734973497,0,0
-159.30125754485,323.89031982971,25.754165416542,1283536.0876071,-1706.5719816961,2611948.3129553,30.954165416542,0,0
-159.3012573407,323.94176602103,25.758595859586,1283536.0876071,-1706.5719816961,2611948.3129553,30.958595859586,0,0
-159.30125713654,323.99321221234,25.76302630263,1283536.0876071,-1706.5719816961,2611948.3129553,30.96302630263,0,0
-159.30125693238,324.04465840366,25.767456745675,1283536.0876071,-1706.5719816961,2611948.3129553,30.967456745675,0,0
-159.30125672822,324.09610459497,25.771887188719,1283536.0876071,-1706.5719816961,2611948.3129553,30.971887188719,0,0
-159.30125652407,324.14755078629,25.776317631763,1283536.0876071,-1706.5719816961,2611948.3129553,30.976317631763,0,0
-159.30125631991,324.1989969776,25.780748074807,1283536.0876071,-1706.5719816961,2611948.3129553,30.980748074807,0,0
-159.30125611575,324.25044316892,25.785178517852,1283536.0876071,-1706.5719816961,2611948.3129553,30.985178517852,0,0
-159.30125591159,324.30188936024,25.789608960896,1283536.0876071,-1706.5719816961,2611948.3129553,30.989608960896,0,0
-159.30125570744,324.35333555155,25.79403940394,1283536.0876071,-1706.5719816961,2611948.3129553,30.99403940394,0,0
-159.30125550328,324.40478174287,25.798469846985,1283536.0876071,-1706.5719816961,2611948.3129553,30.998469846985,0,0
-159.30125529912,324.45622793418,25.802900290029,1283536.0876071,-1706.5719816961,2611948.3129553,31.002900290029,0,0
-159.30125509496,324.5076741255,25.807330733073,1283536.0876071,-1706.5719816961,2611948.3129553,31.007330733073,0,0
-159.30125489081,324.55912031681,25.811761176118,1283536.0876071,-1706.5719816961,2611948.3129553,31.011761176118,0,0
-159.30125468665,324.61056650813,25.816191619162,1283536.0876071,-1706.5719816961,2611948.3129553,31.016191619162,0,0
-159.30125448249,324.66201269944,25.820622062206,1283536.0876071,-1706.5719816961,2611948.3129553,31.020622062206,0,0
-159.30125427833,324.71345889076,25.825052505251,1283536.0876071,-1706.5719816961,2611948.3129553,31.025052505251,0,0
-159.30125407418,324.76490508207,25.829482948295,1283536.0876071,-1706.5719816961,2611948.3129553,31.029482948295,0,0
-159.30125387002,324.81635127339,25.833913391339,1283536.0876071,-1706.5719816961,2611948.3129553,31.033913391339,0,0
-159.30125366586,324.8677974647,25.838343834383,1283536.0876071,-1706.5719816961,2611948.3129553,31.038343834383,0,0
-159.3012534617,324.91924365602,25.842774277428,1283536.0876071,-1706.5719816961,2611948.3129553,31.042774277428,0,0
-159.30125325755,324.97068984733,25.847204720472,1283536.0876071,-1706.5719816961,2611948.3129553,31.047204720472,0,0
-159.30125305339,325.02213603865,25.851635163516,1283536.0876071,-1706.5719816961,2611948.3129553,31.051635163516,0,0
-159.30125284923,325.07358222996,25.856065606561,1283536.0876071,-1706.5719816961,2611948.3129553,31.056065606561,0,0
-159.30125264507,325.12502842128,25.860496049605,1283536.0876071,-1706.5719816961,2611948.3129553,31.060496049605,0,0
-159.30125244092,325.17647461259,25.864926492649,1283536.0876071,-1706.5719816961,2611948.3129553,31.064926492649,0,0
-159.30125223676,325.22792080391,25.869356935694,1283536.0876071,-1706.5719816961,2611948.3129553,31.069356935694,0,0
-159.3012520326,325.27936699522,25.873787378738,1283536.0876071,-1706.5719816961,2611948.3129553,31.073787378738,0,0
-159.30125182844,325.33081318654,25.878217821782,1283536.0876071,-1706.5719816961,2611948.3129553,31.078217821782,0,0
-159.30125162429,325.38225937785,25.882648264826,1283536.0876071,-1706.5719816961,2611948.3129553,31.082648264826,0,0
-159.30125142013,325.43370556917,25.887078707871,1283536.0876071,-1706.5719816961,2611948.3129553,31.087078707871,0,0
-159.30125121597,325.48515176049,25.891509150915,1283536.0876071,-1706.5719816961,2611948.3129553,31.091509150915,0,0
-159.30125101181,325.5365979518,25.895939593959,1283536.0876071,-1706.5719816961,2611948.3129553,31.095939593959,0,0
-159.30125080766,325.58804414312,25.900370037004,1283536.0876071,-1706.5719816961,2611948.3129553,31.100370037004,0,0
-159.3012506035,325.63949033443,25.904800480048,1283536.0876071,-1706.5719816961,2611948.3129553,31.104800480048,0,0
-159.30125039934,325.69093652575,25.909230923092,1283536.0876071,-1706.5719816961,2611948.3129553,31.109230923092,0,0
-159.30125019518,325.74238271706,25.913661366137,1283536.0876071,-1706.5719816961,2611948.3129553,31.113661366137,0,0
-159.30124999103,325.79382890838,25.918091809181,1283536.0876071,-1706.5719816961,2611948.3129553,31.118091809181,0,0
-159.30124978687,325.84527509969,25.922522252225,1283536.0876071,-1706.5719816961,2611948.3129553,31.122522252225,0,0
-159.30124958271,325.89672129101,25.92695269527,1283536.0876071,-1706.5719816961,2611948.3129553,31.12695269527,0,0
-159.30124937855,325.94816748232,25.931383138314,1283536.0876071,-1706.5719816961,2611948.3129553,31.131383138314,0,0
-159.3012491744,325.99961367364,25.935813581358,1283536.0876071,-1706.5719816961,2611948.3129553,31.135813581358,0,0
-159.30124897024,326.05105986495,25.940244024402,1283536.0876071,-1706.5719816961,2611948.3129553,31.140244024402,0,0
-159.30124876608,326.10250605627,25.944674467447,1283536.0876071,-1706.5719816961,2611948.3129553,31.144674467447,0,0
-159.30124856192,326.15395224758,25.949104910491,1283536.0876071,-1706.5719816961,2611948.3129553,31.149104910491,0,0
-159.30124835777,326.2053984389,25.953535353535,1283536.0876071,-1706.5719816961,2611948.3129553,31.153535353535,0,0
-159.30124815361,326.25684463021,25.95796579658,1283536.0876071,-1706.5719816961,2611948.3129553,31.15796579658,0,0
-159.30124794945,326.30829082153,25.962396239624,1283536.0876071,-1706.5719816961,2611948.3129553,31.162396239624,0,0
-159.30124774529,326.35973701284,25.966826682668,1283536.0876071,-1706.5719816961,2611948.3129553,31.166826682668,0,0
-159.30124754114,326.41118320416,25.971257125713,1283536.0876071,-1706.5719816961,2611948.3129553,31.171257125713,0,0
-159.30124733698,326.46262939547,25.975687568757,1283536.0876071,-1706.5719816961,2611948.3129553,31.175687568757,0,0
-159.30124713282,326.51407558679,25.980118011801,1283536.0876071,-1706.5719816961,2611948.3129553,31.180118011801,0,0
-159.30124692866,326.5655217781,25.984548454845,1283536.0876071,-1706.5719816961,2611948.3129553,31.184548454845,0,0
-159.30124672451,326.61696796942,25.98897889789,1283536.0876071,-1706.5719816961,2611948.3129553,31.18897889789,0,0
-159.30124652035,326.66841416074,25.993409340934,1283536.0876071,-1706.5719816961,2611948.3129553,31.193409340934,0,0
-159.30124631619,326.71986035205,25.997839783978,1283536.0876071,-1706.5719816961,2611948.3129553,31.197839783978,0,0
-159.30124611203,326.77130654337,26.002270227023,1283536.0876071,-1706.5719816961,2611948.3129553,31.202270227023,0,0
-159.30124590788,326.82275273468,26.006700670067,1283536.0876071,-1706.5719816961,2611948.3129553,31.206700670067,0,0
-159.30124570372,326.874198926,26.011131113111,1283536.0876071,-1706.5719816961,2611948.3129553,31.211131113111,0,0
-159.30124549956,326.92564511731,26.015561556156,1283536.0876071,-1706.5719816961,2611948.3129553,31.215561556156,0,0
-159.3012452954,326.97709130863,26.0199919992,1283536.0876071,-1706.5719816961,2611948.3129553,31.2199919992,0,0
-159.30124509125,327.02853749994,26.024422442244,1283536.0876071,-1706.5719816961,2611948.3129553,31.224422442244,0,0
-159.30124488712,327.0799836919,26.028852885289,1282187.6212469,496.75566506418,2608572.2809189,31.228852885289,0,0
-159.301244683,327.13142988412,26.033283328333,1282187.6212469,496.75566506418,2608572.2809189,31.233283328333,0,0
-159.30124447888,327.18287607634,26.037713771377,1282187.6212469,496.75566506418,2608572.2809189,31.237713771377,0,0
-159.30124427476,327.23432226856,26.042144214421,1282187.6212469,496.75566506418,2608572.2809189,31.242144214421,0,0
-159.30124407064,327.28576846078,26.046574657466,1282187.6212469,496.75566506418,2608572.2809189,31.246574657466,0,0
-159.30124386653,327.33721465301,26.05100510051,1282187.6212469,496.75566506418,2608572.2809189,31.25100510051,0,0
-159.30124366241,327.38866084523,26.055435543554,1282187.6212469,496.75566506418,2608572.2809189,31.255435543554,0,0
-159.30124345829,327.44010703745,26.059865986599,1282187.6212469,496.75566506418,2608572.2809189,31.259865986599,0,0
-159.30124325417,327.49155322967,26.064296429643,1282187.6212469,496.75566506418,2608572.2809189,31.264296429643,0,0
-159.30124305005,327.54299942189,26.068726872687,1282187.6212469,496.75566506418,2608572.2809189,31.268726872687,0,0
-159.30124284593,327.59444561411,26.073157315732,1282187.6212469,496.75566506418,2608572.2809189,31.273157315732,0,0
-159.30124264182,327.64589180633,26.077587758776,1282187.6212469,496.75566506418,2608572.2809189,31.277587758776,0,0
-159.3012424377,327.69733799856,26.08201820182,1282187.6212469,496.75566506418,2608572.2809189,31.28201820182,0,0
-159.30124223358,327.74878419078,26.086448644864,1282187.6212469,496.75566506418,2608572.2809189,31.286448644864,0,0
-159.30124202946,327.800230383,26.090879087909,1282187.6212469,496.75566506418,2608572.2809189,31.290879087909,0,0
-159.30124182534,327.85167657522,26.095309530953,1282187.6212469,496.75566506418,2608572.2809189,31.295309530953,0,0
-159.30124162122,327.90312276744,26.099739973997,1282187.6212469,496.75566506418,2608572.2809189,31.299739973997,0,0
-159.30124141711,327.95456895966,26.104170417042,1282187.6212469,496.75566506418,2608572.2809189,31.304170417042,0,0
-159.30124121299,328.00601515188,26.108600860086,1282187.6212469,496.75566506418,2608572.2809189,31.308600860086,0,0
-159.30124100887,328.05746134411,26.11303130313,1282187.6212469,496.75566506418,2608572.2809189,31.31303130313,0,0
-159.30124080475,328.10890753633,26.117461746175,1282187.6212469,496.75566506418,2608572.2809189,31.317461746175,0,0
-159.30124060063,328.16035372855,26.121892189219,1282187.6212469,496.75566506418,2608572.2809189,31.321892189219,0,0
-159.30124039651,328.21179992077,26.126322632263,1282187.6212469,496.75566506418,2608572.2809189,31.326322632263,0,0
-159.3012401924,328.26324611299,26.130753075308,1282187.6212469,496.75566506418,2608572.2809189,31.330753075308,0,0
-159.30123998828,328.31469230521,26.135183518352,1282187.6212469,496.75566506418,2608572.2809189,31.335183518352,0,0
-159.30123978416,328.36613849743,26.139613961396,1282187.6212469,496.75566506418,2608572.2809189,31.339613961396,0,0
-159.30123958004,328.41758468966,26.14404440444,1282187.6212469,496.75566506418,2608572.2809189,31.34404440444,0,0
-159.30123937592,328.46903088188,26.148474847485,1282187.6212469,496.75566506418,2608572.2809189,31.348474847485,0,0
-159.30123917181,328.5204770741,26.152905290529,1282187.6212469,496.75566506418,2608572.2809189,31.352905290529,0,0
-159.30123896769,328.57192326632,26.157335733573,1282187.6212469,496.75566506418,2608572.2809189,31.357335733573,0,0
-159.30123876357,328.62336945854,26.161766176618,1282187.6212469,496.75566506418,2608572.2809189,31.361766176618,0,0
-159.30123855945,328.67481565076,26.166196619662,1282187.6212469,496.75566506418,2608572.2809189,31.366196619662,0,0
-159.30123835533,328.72626184299,26.170627062706,1282187.6212469,496.75566506418,2608572.2809189,31.370627062706,0,0
-159.30123815121,328.77770803521,26.175057505751,1282187.6212469,496.75566506418,2608572.2809189,31.375057505751,0,0
-159.3012379471,328.82915422743,26.179487948795,1282187.6212469,496.75566506418,2608572.2809189,31.379487948795,0,0
-159.30123774298,328.88060041965,26.183918391839,1282187.6212469,496.75566506418,2608572.2809189,31.383918391839,0,0
-159.30123753886,328.93204661187,26.188348834883,1282187.6212469,496.75566506418,2608572.2809189,31.388348834883,0,0
-159.30123733474,328.98349280409,26.192779277928,1282187.6212469,496.75566506418,2608572.2809189,31.392779277928,0,0
-159.30123713062,329.03493899631,26.197209720972,1282187.6212469,496.75566506418,2608572.2809189,31.397209720972,0,0
-159.3012369265,329.08638518854,26.201640164016,1282187.6212469,496.75566506418,2608572.2809189,31.401640164016,0,0
-159.30123672239,329.13783138076,26.206070607061,1282187.6212469,496.75566506418,2608572.2809189,31.406070607061,0,0
-159.30123651827,329.18927757298,26.210501050105,1282187.6212469,496.75566506418,2608572.2809189,31.410501050105,0,0
-159.30123631415,329.2407237652,26.214931493149,1282187.6212469,496.75566506418,2608572.2809189,31.414931493149,0,0
-159.30123611003,329.29216995742,26.219361936194,1282187.6212469,496.75566506418,2608572.2809189,31.419361936194,0,0
-159.30123590591,329.34361614964,26.223792379238,1282187.6212469,496.75566506418,2608572.2809189,31.423792379238,0,0
-159.30123570179,329.39506234186,26.228222822282,1282187.6212469,496.75566506418,2608572.2809189,31.428222822282,0,0
-159.30123549768,329.44650853409,26.232653265327,1282187.6212469,496.75566506418,2608572.2809189,31.432653265327,0,0
-159.30123529356,329.49795472631,26.237083708371,1282187.6212469,496.75566506418,2608572.2809189,31.437083708371,0,0
-159.30123508944,329.54940091853,26.241514151415,1282187.6212469,496.75566506418,2608572.2809189,31.441514151415,0,0
-159.30123488532,329.60084711075,26.245944594459,1282187.6212469,496.75566506418,2608572.2809189,31.445944594459,0,0
-159.30123468108,329.65229330271,26.250375037504,1282828.2989993,-540.65540478624,2601881.1497208,31.450375037504,0,0
-159.30123447652,329.70373949398,26.254805480548,1282828.2989993,-540.65540478624,2601881.1497208,31.454805480548,0,0
-159.30123427195,329.75518568526,26.259235923592,1282828.2989993,-540.65540478624,2601881.1497208,31.459235923592,0,0
-159.30123406738,329.80663187653,26.263666366637,1282828.2989993,-540.65540478624,2601881.1497208,31.463666366637,0,0
-159.30123386282,329.8580780678,26.268096809681,1282828.2989993,-540.65540478624,2601881.1497208,31.468096809681,0,0
-159.30123365825,329.90952425907,26.272527252725,1282828.2989993,-540.65540478624,2601881.1497208,31.472527252725,0,0
-159.30123345369,329.96097045034,26.27695769577,1282828.2989993,-540.65540478624,2601881.1497208,31.47695769577,0,0
-159.30123324912,330.01241664161,26.281388138814,1282828.2989993,-540.65540478624,2601881.1497208,31.481388138814,0,0
-159.30123304455,330.06386283288,26.285818581858,1282828.2989993,-540.65540478624,2601881.1497208,31.485818581858,0,0
-159.30123283999,330.11530902415,26.290249024902,1282828.2989993,-540.65540478624,2601881.1497208,31.490249024902,0,0
-159.30123263542,330.16675521542,26.294679467947,1282828.2989993,-540.65540478624,2601881.1497208,31.494679467947,0,0
-159.30123243086,330.21820140669,26.299109910991,1282828.2989993,-540.65540478624,2601881.1497208,31.499109910991,0,0
-159.30123222629,330.26964759796,26.303540354035,1282828.2989993,-540.65540478624,2601881.1497208,31.503540354035,0,0
-159.30123202172,330.32109378923,26.30797079708,1282828.2989993,-540.65540478624,2601881.1497208,31.50797079708,0,0
-159.30123181716,330.3725399805,26.312401240124,1282828.2989993,-540.65540478624,2601881.1497208,31.512401240124,0,0
-159.30123161259,330.42398617177,26.316831683168,1282828.2989993,-540.65540478624,2601881.1497208,31.516831683168,0,0
-159.30123140803,330.47543236304,26.321262126213,1282828.2989993,-540.65540478624,2601881.1497208,31.521262126213,0,0
-159.30123120346,330.52687855431,26.325692569257,1282828.2989993,-540.65540478624,2601881.1497208,31.525692569257,0,0
-159.3012309989,330.57832474558,26.330123012301,1282828.2989993,-540.65540478624,2601881.1497208,31.530123012301,0,0
-159.30123079433,330.62977093685,26.334553455346,1282828.2989993,-540.65540478624,2601881.1497208,31.534553455346,0,0
-159.30123058976,330.68121712813,26.33898389839,1282828.2989993,-540.65540478624,2601881.1497208,31.53898389839,0,0
-159.3012303852,330.7326633194,26.343414341434,1282828.2989993,-540.65540478624,2601881.1497208,31.543414341434,0,0
-159.30123018063,330.78410951067,26.347844784478,1282828.2989993,-540.65540478624,2601881.1497208,31.547844784478,0,0
-159.30122997607,330.83555570194,26.352275227523,1282828.2989993,-540.65540478624,2601881.1497208,31.552275227523,0,0
-159.3012297715,330.88700189321,26.356705670567,1282828.2989993,-540.65540478624,2601881.1497208,31.556705670567,0,0
-159.30122956693,330.93844808448,26.361136113611,1282828.2989993,-540.65540478624,2601881.1497208,31.561136113611,0,0
-159.30122936237,330.98989427575,26.365566556656,1282828.2989993,-540.65540478624,2601881.1497208,31.565566556656,0,0
-159.3012291578,331.04134046702,26.3699969997,1282828.2989993,-540.65540478624,2601881.1497208,31.5699969997,0,0
-159.30122895324,331.09278665829,26.374427442744,1282828.2989993,-540.65540478624,2601881.1497208,31.574427442744,0,0
-159.30122874867,331.14423284956,26.378857885789,1282828.2989993,-540.65540478624,2601881.1497208,31.578857885789,0,0
-159.3012285441,331.19567904083,26.383288328833,1282828.2989993,-540.65540478624,2601881.1497208,31.583288328833,0,0
-159.30122833954,331.2471252321,26.387718771877,1282828.2989993,-540.65540478624,2601881.1497208,31.587718771877,0,0
-159.30122813497,331.29857142337,26.392149214921,1282828.2989993,-540.65540478624,2601881.1497208,31.592149214921,0,0
-159.30122793041,331.35001761464,26.396579657966,1282828.2989993,-540.65540478624,2601881.1497208,31.596579657966,0,0
-159.30122772584,331.40146380591,26.40101010101,1282828.2989993,-540.65540478624,2601881.1497208,31.60101010101,0,0
-159.30122752128,331.45290999718,26.405440544054,1282828.2989993,-540.65540478624,2601881.1497208,31.605440544054,0,0
-159.30122731671,331.50435618845,26.409870987099,1282828.2989993,-540.65540478624,2601881.1497208,31.609870987099,0,0
-159.30122711214,331.55580237972,26.414301430143,1282828.2989993,-540.65540478624,2601881.1497208,31.614301430143,0,0
-159.30122690758,331.60724857099,26.418731873187,1282828.2989993,-540.65540478624,2601881.1497208,31.618731873187,0,0
-159.30122670301,331.65869476227,26.423162316232,1282828.2989993,-540.65540478624,2601881.1497208,31.623162316232,0,0
-159.30122649845,331.71014095354,26.427592759276,1282828.2989993,-540.65540478624,2601881.1497208,31.627592759276,0,0
-159.30122629388,331.76158714481,26.43202320232,1282828.2989993,-540.65540478624,2601881.1497208,31.63202320232,0,0
-159.30122608931,331.81303333608,26.436453645365,1282828.2989993,-540.65540478624,2601881.1497208,31.636453645365,0,0
-159.30122588475,331.86447952735,26.440884088409,1282828.2989993,-540.65540478624,2601881.1497208,31.640884088409,0,0
-159.30122568018,331.91592571862,26.445314531453,1282828.2989993,-540.65540478624,2601881.1497208,31.645314531453,0,0
-159.30122547562,331.96737190989,26.449744974497,1282828.2989993,-540.65540478624,2601881.1497208,31.649744974497,0,0
-159.30122527105,332.01881810116,26.454175417542,1282828.2989993,-540.65540478624,2601881.1497208,31.654175417542,0,0
-159.30122506648,332.07026429243,26.458605860586,1282828.2989993,-540.65540478624,2601881.1497208,31.658605860586,0,0
-159.30122486192,332.1217104837,26.46303630363,1282828.2989993,-540.65540478624,2601881.1497208,31.66303630363,0,0
-159.30122465735,332.17315667497,26.467466746675,1282828.2989993,-540.65540478624,2601881.1497208,31.667466746675,0,0
-159.30122445279,332.22460286624,26.471897189719,1282828.2989993,-540.65540478624,2601881.1497208,31.671897189719,0,0
-159.30122424822,332.27604905751,26.476327632763,1282828.2989993,-540.65540478624,2601881.1497208,31.676327632763,0,0
-159.30122404366,332.32749524878,26.480758075808,1282828.2989993,-540.65540478624,2601881.1497208,31.680758075808,0,0
-159.30122383909,332.37894144005,26.485188518852,1282828.2989993,-540.65540478624,2601881.1497208,31.685188518852,0,0
-159.30122363452,332.43038763132,26.489618961896,1282828.2989993,-540.65540478624,2601881.1497208,31.689618961896,0,0
-159.30122342996,332.48183382259,26.49404940494,1282828.2989993,-540.65540478624,2601881.1497208,31.69404940494,0,0
-159.30122322539,332.53328001386,26.498479847985,1282828.2989993,-540.65540478624,2601881.1497208,31.698479847985,0,0
-159.30122302083,332.58472620514,26.502910291029,1282828.2989993,-540.65540478624,2601881.1497208,31.702910291029,0,0
-159.30122281626,332.63617239641,26.507340734073,1282828.2989993,-540.65540478624,2601881.1497208,31.707340734073,0,0
-159.30122261169,332.68761858768,26.511771177118,1282828.2989993,-540.65540478624,2601881.1497208,31.711771177118,0,0
-159.30122240713,332.73906477895,26.516201620162,1282828.2989993,-540.65540478624,2601881.1497208,31.716201620162,0,0
-159.30122220256,332.79051097022,26.520632063206,1282828.2989993,-540.65540478624,2601881.1497208,31.720632063206,0,0
-159.301221998,332.84195716149,26.525062506251,1282828.2989993,-540.65540478624,2601881.1497208,31.725062506251,0,0
-159.30122179343,332.89340335276,26.529492949295,1282828.2989993,-540.65540478624,2601881.1497208,31.729492949295,0,0
-159.30122158886,332.94484954403,26.533923392339,1282828.2989993,-540.65540478624,2601881.1497208,31.733923392339,0,0
-159.3012213843,332.9962957353,26.538353835384,1282828.2989993,-540.65540478624,2601881.1497208,31.738353835384,0,0
-159.30122117973,333.04774192657,26.542784278428,1282828.2989993,-540.65540478624,2601881.1497208,31.742784278428,0,0
-159.30122097517,333.09918811784,26.547214721472,1282828.2989993,-540.65540478624,2601881.1497208,31.747214721472,0,0
-159.3012207706,333.15063430911,26.551645164516,1282828.2989993,-540.65540478624,2601881.1497208,31.751645164516,0,0
-159.30122056604,333.20208050038,26.556075607561,1282828.2989993,-540.65540478624,2601881.1497208,31.756075607561,0,0
-159.30122036147,333.25352669165,26.560506050605,1282828.2989993,-540.65540478624,2601881.1497208,31.760506050605,0,0
-159.3012201569,333.30497288292,26.564936493649,1282828.2989993,-540.65540478624,2601881.1497208,31.764936493649,0,0
-159.30121995234,333.35641907419,26.569366936694,1282828.2989993,-540.65540478624,2601881.1497208,31.769366936694,0,0
-159.30121974777,333.40786526546,26.573797379738,1282828.2989993,-540.65540478624,2601881.1497208,31.773797379738,0,0
-159.30121954321,333.45931145673,26.578227822782,1282828.2989993,-540.65540478624,2601881.1497208,31.778227822782,0,0
-159.30121933864,333.510757648,26.582658265827,1282828.2989993,-540.65540478624,2601881.1497208,31.782658265827,0,0
-159.30121913407,333.56220383928,26.587088708871,1282828.2989993,-540.65540478624,2601881.1497208,31.787088708871,0,0
-159.30121892951,333.61365003055,26.591519151915,1282828.2989993,-540.65540478624,2601881.1497208,31.791519151915,0,0
-159.30121872494,333.66509622182,26.595949594959,1282828.2989993,-540.65540478624,2601881.1497208,31.795949594959,0,0
-159.30121852038,333.71654241309,26.600380038004,1282828.2989993,-540.65540478624,2601881.1497208,31.800380038004,0,0
-159.30121831581,333.76798860436,26.604810481048,1282828.2989993,-540.65540478624,2601881.1497208,31.804810481048,0,0
-159.30121811124,333.81943479563,26.609240924092,1282828.2989993,-540.65540478624,2601881.1497208,31.809240924092,0,0
-159.30121790668,333.8708809869,26.613671367137,1282828.2989993,-540.65540478624,2601881.1497208,31.813671367137,0,0
-159.30121770211,333.92232717817,26.618101810181,1282828.2989993,-540.65540478624,2601881.1497208,31.818101810181,0,0
-159.30121749755,333.97377336944,26.622532253225,1282828.2989993,-540.65540478624,2601881.1497208,31.822532253225,0,0
-159.30121729298,334.02521956071,26.62696269627,1282828.2989993,-540.65540478624,2601881.1497208,31.82696269627,0,0
-159.30121708842,334.07666575198,26.631393139314,1282828.2989993,-540.65540478624,2601881.1497208,31.831393139314,0,0
-159.30121688385,334.12811194325,26.635823582358,1282828.2989993,-540.65540478624,2601881.1497208,31.835823582358,0,0
-159.30121667928,334.17955813452,26.640254025403,1282828.2989993,-540.65540478624,2601881.1497208,31.840254025403,0,0
-159.30121647472,334.23100432579,26.644684468447,1282828.2989993,-540.65540478624,2601881.1497208,31.844684468447,0,0
-159.30121627015,334.28245051706,26.649114911491,1282828.2989993,-540.65540478624,2601881.1497208,31.849114911491,0,0
-159.30121606559,334.33389670833,26.653545354535,1282828.2989993,-540.65540478624,2601881.1497208,31.853545354535,0,0
-159.30121586102,334.3853428996,26.65797579758,1282828.2989993,-540.65540478624,2601881.1497208,31.85797579758,0,0
-159.30121565645,334.43678909087,26.662406240624,1282828.2989993,-540.65540478624,2601881.1497208,31.862406240624,0,0
-159.30121545189,334.48823528215,26.666836683668,1282828.2989993,-540.65540478624,2601881.1497208,31.866836683668,0,0
-159.30121524732,334.53968147342,26.671267126713,1282828.2989993,-540.65540478624,2601881.1497208,31.871267126713,0,0
-159.30121504276,334.59112766469,26.675697569757,1282828.2989993,-540.65540478624,2601881.1497208,31.875697569757,0,0
-159.30121483819,334.64257385596,26.680128012801,1282828.2989993,-540.65540478624,2601881.1497208,31.880128012801,0,0
-159.30121463362,334.69402004723,26.684558455846,1282828.2989993,-540.65540478624,2601881.1497208,31.884558455846,0,0
-159.30121442906,334.7454662385,26.68898889889,1282828.2989993,-540.65540478624,2601881.1497208,31.88898889889,0,0
-159.30121422449,334.79691242977,26.693419341934,1282828.2989993,-540.65540478624,2601881.1497208,31.893419341934,0,0
-159.30121401993,334.84835862104,26.697849784978,1282828.2989993,-540.65540478624,2601881.1497208,31.897849784978,0,0
-159.30121381536,334.89980481231,26.702280228023,1282828.2989993,-540.65540478624,2601881.1497208,31.902280228023,0,0
-159.3012136108,334.95125100358,26.706710671067,1282828.2989993,-540.65540478624,2601881.1497208,31.906710671067,0,0
-159.30121340623,335.00269719485,26.711141114111,1282828.2989993,-540.65540478624,2601881.1497208,31.911141114111,0,0
-159.30121320166,335.05414338612,26.715571557156,1282828.2989993,-540.65540478624,2601881.1497208,31.915571557156,0,0
-159.3012129971,335.10558957739,26.7200020002,1282828.2989993,-540.65540478624,2601881.1497208,31.9200020002,0,0
-159.30121279253,335.15703576866,26.724432443244,1282828.2989993,-540.65540478624,2601881.1497208,31.924432443244,0,0
-159.30121258797,335.20848195993,26.728862886289,1282828.2989993,-540.65540478624,2601881.1497208,31.928862886289,0,0
-159.3012123834,335.2599281512,26.733293329333,1282828.2989993,-540.65540478624,2601881.1497208,31.933293329333,0,0
-159.30121217883,335.31137434247,26.737723772377,1282828.2989993,-540.65540478624,2601881.1497208,31.937723772377,0,0
-159.30121197427,335.36282053374,26.742154215422,1282828.2989993,-540.65540478624,2601881.1497208,31.942154215422,0,0
-159.3012117697,335.41426672501,26.746584658466,1282828.2989993,-540.65540478624,2601881.1497208,31.946584658466,0,0
-159.30121156514,335.46571291629,26.75101510151,1282828.2989993,-540.65540478624,2601881.1497208,31.95101510151,0,0
-159.30121136057,335.51715910756,26.755445544554,1282828.2989993,-540.65540478624,2601881.1497208,31.955445544554,0,0
-159.301211156,335.56860529883,26.759875987599,1282828.2989993,-540.65540478624,2601881.1497208,31.959875987599,0,0
-159.30121095144,335.6200514901,26.764306430643,1282828.2989993,-540.65540478624,2601881.1497208,31.964306430643,0,0
-159.30121074687,335.67149768137,26.768736873687,1282828.2989993,-540.65540478624,2601881.1497208,31.968736873687,0,0
-159.30121054231,335.72294387264,26.773167316732,1282828.2989993,-540.65540478624,2601881.1497208,31.973167316732,0,0
-159.30121033774,335.77439006391,26.777597759776,1282828.2989993,-540.65540478624,2601881.1497208,31.977597759776,0,0
-159.30121013318,335.82583625518,26.78202820282,1282828.2989993,-540.65540478624,2601881.1497208,31.98202820282,0,0
-159.30120992861,335.87728244645,26.786458645865,1282828.2989993,-540.65540478624,2601881.1497208,31.986458645865,0,0
-159.30120972404,335.92872863772,26.790889088909,1282828.2989993,-540.65540478624,2601881.1497208,31.990889088909,0,0
-159.30120951948,335.98017482899,26.795319531953,1282828.2989993,-540.65540478624,2601881.1497208,31.995319531953,0,0
-159.30120931491,336.03162102026,26.799749974997,1282828.2989993,-540.65540478624,2601881.1497208,31.999749974997,0,0
-159.30120911035,336.08306721153,26.804180418042,1282828.2989993,-540.65540478624,2601881.1497208,32.004180418042,0,0
-159.30120890578,336.1345134028,26.808610861086,1282828.2989993,-540.65540478624,2601881.1497208,32.008610861086,0,0
-159.30120870121,336.18595959407,26.81304130413,1282828.2989993,-540.65540478624,2601881.1497208,32.01304130413,0,0
-159.30120849665,336.23740578534,26.817471747175,1282828.2989993,-540.65540478624,2601881.1497208,32.017471747175,0,0
-159.30120829208,336.28885197661,26.821902190219,1282828.2989993,-540.65540478624,2601881.1497208,32.021902190219,0,0
-159.30120808752,336.34029816788,26.826332633263,1282828.2989993,-540.65540478624,2601881.1497208,32.026332633263,0,0
-159.30120788295,336.39174435916,26.830763076308,1282828.2989993,-540.65540478624,2601881.1497208,32.030763076308,0,0
-159.30120767838,336.44319055043,26.835193519352,1282828.2989993,-540.65540478624,2601881.1497208,32.035193519352,0,0
-159.30120747382,336.4946367417,26.839623962396,1282828.2989993,-540.65540478624,2601881.1497208,32.039623962396,0,0
-159.30120726925,336.54608293297,26.844054405441,1282828.2989993,-540.65540478624,2601881.1497208,32.044054405441,0,0
-159.30120706469,336.59752912424,26.848484848485,1282828.2989993,-540.65540478624,2601881.1497208,32.048484848485,0,0
-159.30120686012,336.64897531551,26.852915291529,1282828.2989993,-540.65540478624,2601881.1497208,32.052915291529,0,0
-159.30120665556,336.70042150678,26.857345734573,1282828.2989993,-540.65540478624,2601881.1497208,32.057345734573,0,0
-159.30120645099,336.75186769805,26.861776177618,1282828.2989993,-540.65540478624,2601881.1497208,32.061776177618,0,0
-159.30120624642,336.80331388932,26.866206620662,1282828.2989993,-540.65540478624,2601881.1497208,32.066206620662,0,0
-159.30120604186,336.85476008059,26.870637063706,1282828.2989993,-540.65540478624,2601881.1497208,32.070637063706,0,0
-159.30120583729,336.90620627186,26.875067506751,1282828.2989993,-540.65540478624,2601881.1497208,32.075067506751,0,0
-159.30120563273,336.95765246313,26.879497949795,1282828.2989993,-540.65540478624,2601881.1497208,32.079497949795,0,0
-159.30120542816,337.0090986544,26.883928392839,1282828.2989993,-540.65540478624,2601881.1497208,32.083928392839,0,0
-159.30120522359,337.06054484567,26.888358835884,1282828.2989993,-540.65540478624,2601881.1497208,32.088358835884,0,0
-159.30120501903,337.11199103694,26.892789278928,1282828.2989993,-540.65540478624,2601881.1497208,32.092789278928,0,0
-159.30120481446,337.16343722821,26.897219721972,1282828.2989993,-540.65540478624,2601881.1497208,32.097219721972,0,0
-159.3012046099,337.21488341948,26.901650165017,1282828.2989993,-540.65540478624,2601881.1497208,32.101650165017,0,0
-159.30120440533,337.26632961075,26.906080608061,1282828.2989993,-540.65540478624,2601881.1497208,32.106080608061,0,0
-159.30120420076,337.31777580202,26.910511051105,1282828.2989993,-540.65540478624,2601881.1497208,32.110511051105,0,0
-159.3012039962,337.3692219933,26.914941494149,1282828.2989993,-540.65540478624,2601881.1497208,32.114941494149,0,0
-159.30120379163,337.42066818457,26.919371937194,1282828.2989993,-540.65540478624,2601881.1497208,32.119371937194,0,0
-159.30120358707,337.47211437584,26.923802380238,1282828.2989993,-540.65540478624,2601881.1497208,32.123802380238,0,0
-159.3012033825,337.52356056711,26.928232823282,1282828.2989993,-540.65540478624,2601881.1497208,32.128232823282,0,0
-159.30120317794,337.57500675838,26.932663266327,1282828.2989993,-540.65540478624,2601881.1497208,32.132663266327,0,0
-159.30120297337,337.62645294965,26.937093709371,1282828.2989993,-540.65540478624,2601881.1497208,32.137093709371,0,0
-159.3012027688,337.67789914092,26.941524152415,1282828.2989993,-540.65540478624,2601881.1497208,32.141524152415,0,0
-159.30120256424,337.72934533219,26.94595459546,1282828.2989993,-540.65540478624,2601881.1497208,32.14595459546,0,0
-159.30120235967,337.78079152346,26.950385038504,1282828.2989993,-540.65540478624,2601881.1497208,32.150385038504,0,0
-159.30120215511,337.83223771473,26.954815481548,1282828.2989993,-540.65540478624,2601881.1497208,32.154815481548,0,0
-159.30120195054,337.883683906,26.959245924592,1282828.2989993,-540.65540478624,2601881.1497208,32.159245924592,0,0
-159.30120174597,337.93513009727,26.963676367637,1282828.2989993,-540.65540478624,2601881.1497208,32.163676367637,0,0
-159.30120154141,337.98657628854,26.968106810681,1282828.2989993,-540.65540478624,2601881.1497208,32.168106810681,0,0
-159.30120133684,338.03802247981,26.972537253725,1282828.2989993,-540.65540478624,2601881.1497208,32.172537253725,0,0
-159.30120113228,338.08946867108,26.97696769677,1282828.2989993,-540.65540478624,2601881.1497208,32.17696769677,0,0
-159.30120092771,338.14091486235,26.981398139814,1282828.2989993,-540.65540478624,2601881.1497208,32.181398139814,0,0
-159.30120072314,338.19236105362,26.985828582858,1282828.2989993,-540.65540478624,2601881.1497208,32.185828582858,0,0
-159.30120051858,338.24380724489,26.990259025903,1282828.2989993,-540.65540478624,2601881.1497208,32.190259025903,0,0
-159.30120031401,338.29525343617,26.994689468947,1282828.2989993,-540.65540478624,2601881.1497208,32.194689468947,0,0
-159.30120010945,338.34669962744,26.999119911991,1282828.2989993,-540.65540478624,2601881.1497208,32.199119911991,0,0
-159.30119990488,338.39814581871,27.003550355036,1282828.2989993,-540.65540478624,2601881.1497208,32.203550355036,0,0
-159.30119970032,338.44959200998,27.00798079808,1282828.2989993,-540.65540478624,2601881.1497208,32.20798079808,0,0
-159.30119949575,338.50103820125,27.012411241124,1282828.2989993,-540.65540478624,2601881.1497208,32.212411241124,0,0
-159.30119929118,338.55248439252,27.016841684168,1282828.2989993,-540.65540478624,2601881.1497208,32.216841684168,0,0
-159.30119908662,338.60393058379,27.021272127213,1282828.2989993,-540.65540478624,2601881.1497208,32.221272127213,0,0
-159.30119888205,338.65537677506,27.025702570257,1282828.2989993,-540.65540478624,2601881.1497208,32.225702570257,0,0
-159.30119867749,338.70682296633,27.030133013301,1282828.2989993,-540.65540478624,2601881.1497208,32.230133013301,0,0
-159.30119847292,338.7582691576,27.034563456346,1282828.2989993,-540.65540478624,2601881.1497208,32.234563456346,0,0
-159.30119826835,338.80971534887,27.03899389939,1282828.2989993,-540.65540478624,2601881.1497208,32.23899389939,0,0
-159.30119806379,338.86116154014,27.043424342434,1282828.2989993,-540.65540478624,2601881.1497208,32.243424342434,0,0
-159.30119785922,338.91260773141,27.047854785479,1282828.2989993,-540.65540478624,2601881.1497208,32.247854785479,0,0
-159.30119765466,338.96405392268,27.052285228523,1282828.2989993,-540.65540478624,2601881.1497208,32.252285228523,0,0
-159.30119745009,339.01550011395,27.056715671567,1282828.2989993,-540.65540478624,2601881.1497208,32.256715671567,0,0
-159.30119724552,339.06694630522,27.061146114611,1282828.2989993,-540.65540478624,2601881.1497208,32.261146114611,0,0
-159.30119704096,339.11839249649,27.065576557656,1282828.2989993,-540.65540478624,2601881.1497208,32.265576557656,0,0
-159.30119683639,339.16983868776,27.0700070007,1282828.2989993,-540.65540478624,2601881.1497208,32.2700070007,0,0
-159.30119663183,339.22128487903,27.074437443744,1282828.2989993,-540.65540478624,2601881.1497208,32.274437443744,0,0
-159.30119642726,339.27273107031,27.078867886789,1282828.2989993,-540.65540478624,2601881.1497208,32.278867886789,0,0
-159.3011962227,339.32417726158,27.083298329833,1282828.2989993,-540.65540478624,2601881.1497208,32.283298329833,0,0
-159.30119601813,339.37562345285,27.087728772877,1282828.2989993,-540.65540478624,2601881.1497208,32.287728772877,0,0
-159.30119581356,339.42706964412,27.092159215922,1282828.2989993,-540.65540478624,2601881.1497208,32.292159215922,0,0
-159.301195609,339.47851583539,27.096589658966,1282828.2989993,-540.65540478624,2601881.1497208,32.296589658966,0,0
-159.30119540443,339.52996202666,27.10102010201,1282828.2989993,-540.65540478624,2601881.1497208,32.30102010201,0,0
-159.30119519987,339.58140821793,27.105450545055,1282828.2989993,-540.65540478624,2601881.1497208,32.305450545055,0,0
-159.3011949953,339.6328544092,27.109880988099,1282828.2989993,-540.65540478624,2601881.1497208,32.309880988099,0,0
-159.30119479073,339.68430060047,27.114311431143,1282828.2989993,-540.65540478624,2601881.1497208,32.314311431143,0,0
-159.30119458617,339.73574679174,27.118741874187,1282828.2989993,-540.65540478624,2601881.1497208,32.318741874187,0,0
-159.3011943816,339.78719298301,27.123172317232,1282828.2989993,-540.65540478624,2601881.1497208,32.323172317232,0,0
-159.30119417704,339.83863917428,27.127602760276,1282828.2989993,-540.65540478624,2601881.1497208,32.327602760276,0,0
-159.30119397247,339.89008536555,27.13203320332,1282828.2989993,-540.65540478624,2601881.1497208,32.33203320332,0,0
-159.3011937679,339.94153155682,27.136463646365,1282828.2989993,-540.65540478624,2601881.1497208,32.336463646365,0,0
-159.30119356334,339.99297774809,27.140894089409,1282828.2989993,-540.65540478624,2601881.1497208,32.340894089409,0,0
-159.30119335877,340.04442393936,27.145324532453,1282828.2989993,-540.65540478624,2601881.1497208,32.345324532453,0,0
-159.30119315421,340.09587013063,27.149754975498,1282828.2989993,-540.65540478624,2601881.1497208,32.349754975498,0,0
-159.30119294964,340.1473163219,27.154185418542,1282828.2989993,-540.65540478624,2601881.1497208,32.354185418542,0,0
-159.30119274508,340.19876251317,27.158615861586,1282828.2989993,-540.65540478624,2601881.1497208,32.358615861586,0,0
-159.30119254051,340.25020870445,27.16304630463,1282828.2989993,-540.65540478624,2601881.1497208,32.36304630463,0,0
-159.30119233594,340.30165489572,27.167476747675,1282828.2989993,-540.65540478624,2601881.1497208,32.367476747675,0,0
-159.30119213138,340.35310108699,27.171907190719,1282828.2989993,-540.65540478624,2601881.1497208,32.371907190719,0,0
-159.30119192681,340.40454727826,27.176337633763,1282828.2989993,-540.65540478624,2601881.1497208,32.376337633763,0,0
-159.30119172225,340.45599346953,27.180768076808,1282828.2989993,-540.65540478624,2601881.1497208,32.380768076808,0,0
-159.30119151768,340.5074396608,27.185198519852,1282828.2989993,-540.65540478624,2601881.1497208,32.385198519852,0,0
-159.30119131311,340.55888585207,27.189628962896,1282828.2989993,-540.65540478624,2601881.1497208,32.389628962896,0,0
-159.30119110855,340.61033204334,27.194059405941,1282828.2989993,-540.65540478624,2601881.1497208,32.394059405941,0,0
-159.30119090398,340.66177823461,27.198489848985,1282828.2989993,-540.65540478624,2601881.1497208,32.398489848985,0,0
-159.30119069942,340.71322442588,27.202920292029,1282828.2989993,-540.65540478624,2601881.1497208,32.402920292029,0,0
-159.30119049485,340.76467061715,27.207350735074,1282828.2989993,-540.65540478624,2601881.1497208,32.407350735074,0,0
-159.30119029028,340.81611680842,27.211781178118,1282828.2989993,-540.65540478624,2601881.1497208,32.411781178118,0,0
-159.30119008572,340.86756299969,27.216211621162,1282828.2989993,-540.65540478624,2601881.1497208,32.416211621162,0,0
-159.30118988115,340.91900919096,27.220642064206,1282828.2989993,-540.65540478624,2601881.1497208,32.420642064206,0,0
-159.30118967659,340.97045538223,27.225072507251,1282828.2989993,-540.65540478624,2601881.1497208,32.425072507251,0,0
-159.30118947202,341.0219015735,27.229502950295,1282828.2989993,-540.65540478624,2601881.1497208,32.429502950295,0,0
-159.30118926745,341.07334776477,27.233933393339,1282828.2989993,-540.65540478624,2601881.1497208,32.433933393339,0,0
-159.30118906289,341.12479395604,27.238363836384,1282828.2989993,-540.65540478624,2601881.1497208,32.438363836384,0,0
-159.30118885832,341.17624014732,27.242794279428,1282828.2989993,-540.65540478624,2601881.1497208,32.442794279428,0,0
-159.30118865376,341.22768633859,27.247224722472,1282828.2989993,-540.65540478624,2601881.1497208,32.447224722472,0,0
-159.30118844919,341.27913252986,27.251655165517,1282828.2989993,-540.65540478624,2601881.1497208,32.451655165517,0,0
-159.30118824463,341.33057872113,27.256085608561,1282828.2989993,-540.65540478624,2601881.1497208,32.456085608561,0,0
-159.30118804006,341.3820249124,27.260516051605,1282828.2989993,-540.65540478624,2601881.1497208,32.460516051605,0,0
-159.30118783549,341.43347110367,27.264946494649,1282828.2989993,-540.65540478624,2601881.1497208,32.464946494649,0,0
-159.30118763093,341.48491729494,27.269376937694,1282828.2989993,-540.65540478624,2601881.1497208,32.469376937694,0,0
-159.30118742636,341.53636348621,27.273807380738,1282828.2989993,-540.65540478624,2601881.1497208,32.473807380738,0,0
-159.3011872218,341.58780967748,27.278237823782,1282828.2989993,-540.65540478624,2601881.1497208,32.478237823782,0,0
-159.30118701723,341.63925586875,27.282668266827,1282828.2989993,-540.65540478624,2601881.1497208,32.482668266827,0,0
-159.30118681266,341.69070206002,27.287098709871,1282828.2989993,-540.65540478624,2601881.1497208,32.487098709871,0,0
-159.3011866081,341.74214825129,27.291529152915,1282828.2989993,-540.65540478624,2601881.1497208,32.491529152915,0,0
-159.30118640353,341.79359444256,27.29595959596,1282828.2989993,-540.65540478624,2601881.1497208,32.49595959596,0,0
-159.30118619897,341.84504063383,27.300390039004,1282828.2989993,-540.65540478624,2601881.1497208,32.500390039004,0,0
-159.3011859944,341.8964868251,27.304820482048,1282828.2989993,-540.65540478624,2601881.1497208,32.504820482048,0,0
-159.30118578983,341.94793301637,27.309250925093,1282828.2989993,-540.65540478624,2601881.1497208,32.509250925093,0,0
-159.30118558527,341.99937920764,27.313681368137,1282828.2989993,-540.65540478624,2601881.1497208,32.513681368137,0,0
-159.3011853807,342.05082539891,27.318111811181,1282828.2989993,-540.65540478624,2601881.1497208,32.518111811181,0,0
-159.30118517614,342.10227159019,27.322542254225,1282828.2989993,-540.65540478624,2601881.1497208,32.522542254225,0,0
-159.30118497157,342.15371778146,27.32697269727,1282828.2989993,-540.65540478624,2601881.1497208,32.52697269727,0,0
-159.30118476701,342.20516397273,27.331403140314,1282828.2989993,-540.65540478624,2601881.1497208,32.531403140314,0,0
-159.30118456244,342.256610164,27.335833583358,1282828.2989993,-540.65540478624,2601881.1497208,32.535833583358,0,0
-159.30118435787,342.30805635527,27.340264026403,1282828.2989993,-540.65540478624,2601881.1497208,32.540264026403,0,0
-159.30118415331,342.35950254654,27.344694469447,1282828.2989993,-540.65540478624,2601881.1497208,32.544694469447,0,0
-159.30118394874,342.41094873781,27.349124912491,1282828.2989993,-540.65540478624,2601881.1497208,32.549124912491,0,0
-159.30118374418,342.46239492908,27.353555355536,1282828.2989993,-540.65540478624,2601881.1497208,32.553555355536,0,0
-159.30118353961,342.51384112035,27.35798579858,1282828.2989993,-540.65540478624,2601881.1497208,32.55798579858,0,0
-159.30118333504,342.56528731162,27.362416241624,1282828.2989993,-540.65540478624,2601881.1497208,32.562416241624,0,0
-159.30118313048,342.61673350289,27.366846684668,1282828.2989993,-540.65540478624,2601881.1497208,32.566846684668,0,0
-159.30118292591,342.66817969416,27.371277127713,1282828.2989993,-540.65540478624,2601881.1497208,32.571277127713,0,0
-159.30118272135,342.71962588543,27.375707570757,1282828.2989993,-540.65540478624,2601881.1497208,32.575707570757,0,0
-159.30118251678,342.7710720767,27.380138013801,1282828.2989993,-540.65540478624,2601881.1497208,32.580138013801,0,0
-159.30118231221,342.82251826797,27.384568456846,1282828.2989993,-540.65540478624,2601881.1497208,32.584568456846,0,0
-159.30118210765,342.87396445924,27.38899889989,1282828.2989993,-540.65540478624,2601881.1497208,32.58899889989,0,0
-159.30118190308,342.92541065051,27.393429342934,1282828.2989993,-540.65540478624,2601881.1497208,32.593429342934,0,0
-159.30118169852,342.97685684178,27.397859785979,1282828.2989993,-540.65540478624,2601881.1497208,32.597859785979,0,0
-159.30118149395,343.02830303305,27.402290229023,1282828.2989993,-540.65540478624,2601881.1497208,32.602290229023,0,0
-159.30118128939,343.07974922433,27.406720672067,1282828.2989993,-540.65540478624,2601881.1497208,32.606720672067,0,0
-159.30118108482,343.1311954156,27.411151115112,1282828.2989993,-540.65540478624,2601881.1497208,32.611151115112,0,0
-159.30118088025,343.18264160687,27.415581558156,1282828.2989993,-540.65540478624,2601881.1497208,32.615581558156,0,0
-159.30118067569,343.23408779814,27.4200120012,1282828.2989993,-540.65540478624,2601881.1497208,32.6200120012,0,0
-159.30118047112,343.28553398941,27.424442444244,1282828.2989993,-540.65540478624,2601881.1497208,32.624442444244,0,0
-159.30118026656,343.33698018068,27.428872887289,1282828.2989993,-540.65540478624,2601881.1497208,32.628872887289,0,0
-159.30118006199,343.38842637195,27.433303330333,1282828.2989993,-540.65540478624,2601881.1497208,32.633303330333,0,0
-159.30117985742,343.43987256322,27.437733773377,1282828.2989993,-540.65540478624,2601881.1497208,32.637733773377,0,0
-159.30117965286,343.49131875449,27.442164216422,1282828.2989993,-540.65540478624,2601881.1497208,32.642164216422,0,0
-159.30117944829,343.54276494576,27.446594659466,1282828.2989993,-540.65540478624,2601881.1497208,32.646594659466,0,0
-159.30117924373,343.59421113703,27.45102510251,1282828.2989993,-540.65540478624,2601881.1497208,32.65102510251,0,0
-159.30117903916,343.6456573283,27.455455545555,1282828.2989993,-540.65540478624,2601881.1497208,32.655455545555,0,0
-159.30117883459,343.69710351957,27.459885988599,1282828.2989993,-540.65540478624,2601881.1497208,32.659885988599,0,0
-159.30117863003,343.74854971084,27.464316431643,1282828.2989993,-540.65540478624,2601881.1497208,32.664316431643,0,0
-159.30117842546,343.79999590211,27.468746874687,1282828.2989993,-540.65540478624,2601881.1497208,32.668746874687,0,0
-159.3011782209,343.85144209338,27.473177317732,1282828.2989993,-540.65540478624,2601881.1497208,32.673177317732,0,0
-159.30117801633,343.90288828465,27.477607760776,1282828.2989993,-540.65540478624,2601881.1497208,32.677607760776,0,0
-159.30117781177,343.95433447592,27.48203820382,1282828.2989993,-540.65540478624,2601881.1497208,32.68203820382,0,0
-159.3011776072,344.00578066719,27.486468646865,1282828.2989993,-540.65540478624,2601881.1497208,32.686468646865,0,0
-159.30117740263,344.05722685847,27.490899089909,1282828.2989993,-540.65540478624,2601881.1497208,32.690899089909,0,0
-159.30117719807,344.10867304974,27.495329532953,1282828.2989993,-540.65540478624,2601881.1497208,32.695329532953,0,0
-159.3011769935,344.16011924101,27.499759975998,1282828.2989993,-540.65540478624,2601881.1497208,32.699759975998,0,0
-159.30117678894,344.21156543228,27.504190419042,1282828.2989993,-540.65540478624,2601881.1497208,32.704190419042,0,0
-159.30117658437,344.26301162355,27.508620862086,1282828.2989993,-540.65540478624,2601881.1497208,32.708620862086,0,0
-159.3011763798,344.31445781482,27.513051305131,1282828.2989993,-540.65540478624,2601881.1497208,32.713051305131,0,0
-159.30117617524,344.36590400609,27.517481748175,1282828.2989993,-540.65540478624,2601881.1497208,32.717481748175,0,0
-159.30117597067,344.41735019736,27.521912191219,1282828.2989993,-540.65540478624,2601881.1497208,32.721912191219,0,0
-159.30117576611,344.46879638863,27.526342634263,1282828.2989993,-540.65540478624,2601881.1497208,32.726342634263,0,0
-159.30117556154,344.5202425799,27.530773077308,1282828.2989993,-540.65540478624,2601881.1497208,32.730773077308,0,0
-159.30117535697,344.57168877117,27.535203520352,1282828.2989993,-540.65540478624,2601881.1497208,32.735203520352,0,0
-159.30117515241,344.62313496244,27.539633963396,1282828.2989993,-540.65540478624,2601881.1497208,32.739633963396,0,0
-159.30117494784,344.67458115371,27.544064406441,1282828.2989993,-540.65540478624,2601881.1497208,32.744064406441,0,0
-159.30117474342,344.7260273453,27.548494849485,1280288.0047853,1179.6466704592,2599774.2672502,32.748494849485,0,0
-159.30117453915,344.7774735372,27.552925292529,1280288.0047853,1179.6466704592,2599774.2672502,32.752925292529,0,0
-159.30117433488,344.82891972909,27.557355735574,1280288.0047853,1179.6466704592,2599774.2672502,32.757355735574,0,0
-159.30117413061,344.88036592099,27.561786178618,1280288.0047853,1179.6466704592,2599774.2672502,32.761786178618,0,0
-159.30117392634,344.93181211289,27.566216621662,1280288.0047853,1179.6466704592,2599774.2672502,32.766216621662,0,0
-159.30117372206,344.98325830479,27.570647064706,1280288.0047853,1179.6466704592,2599774.2672502,32.770647064706,0,0
-159.30117351779,345.03470449669,27.575077507751,1280288.0047853,1179.6466704592,2599774.2672502,32.775077507751,0,0
-159.30117331352,345.08615068859,27.579507950795,1280288.0047853,1179.6466704592,2599774.2672502,32.779507950795,0,0
-159.30117310925,345.13759688049,27.583938393839,1280288.0047853,1179.6466704592,2599774.2672502,32.783938393839,0,0
-159.30117290497,345.18904307239,27.588368836884,1280288.0047853,1179.6466704592,2599774.2672502,32.788368836884,0,0
-159.3011727007,345.24048926429,27.592799279928,1280288.0047853,1179.6466704592,2599774.2672502,32.792799279928,0,0
-159.30117249643,345.29193545619,27.597229722972,1280288.0047853,1179.6466704592,2599774.2672502,32.797229722972,0,0
-159.30117229216,345.34338164809,27.601660166017,1280288.0047853,1179.6466704592,2599774.2672502,32.801660166017,0,0
-159.30117208789,345.39482783999,27.606090609061,1280288.0047853,1179.6466704592,2599774.2672502,32.806090609061,0,0
-159.30117188361,345.44627403189,27.610521052105,1280288.0047853,1179.6466704592,2599774.2672502,32.810521052105,0,0
-159.30117167934,345.49772022378,27.61495149515,1280288.0047853,1179.6466704592,2599774.2672502,32.81495149515,0,0
-159.30117147507,345.54916641568,27.619381938194,1280288.0047853,1179.6466704592,2599774.2672502,32.819381938194,0,0
-159.3011712708,345.60061260758,27.623812381238,1280288.0047853,1179.6466704592,2599774.2672502,32.823812381238,0,0
-159.30117106652,345.65205879948,27.628242824282,1280288.0047853,1179.6466704592,2599774.2672502,32.828242824282,0,0
-159.30117086225,345.70350499138,27.632673267327,1280288.0047853,1179.6466704592,2599774.2672502,32.832673267327,0,0
-159.30117065798,345.75495118328,27.637103710371,1280288.0047853,1179.6466704592,2599774.2672502,32.837103710371,0,0
-159.30117045371,345.80639737518,27.641534153415,1280288.0047853,1179.6466704592,2599774.2672502,32.841534153415,0,0
-159.30117024944,345.85784356708,27.64596459646,1280288.0047853,1179.6466704592,2599774.2672502,32.84596459646,0,0
-159.30117004516,345.90928975898,27.650395039504,1280288.0047853,1179.6466704592,2599774.2672502,32.850395039504,0,0
-159.30116984089,345.96073595088,27.654825482548,1280288.0047853,1179.6466704592,2599774.2672502,32.854825482548,0,0
-159.30116963662,346.01218214278,27.659255925593,1280288.0047853,1179.6466704592,2599774.2672502,32.859255925593,0,0
-159.30116943235,346.06362833468,27.663686368637,1280288.0047853,1179.6466704592,2599774.2672502,32.863686368637,0,0
-159.30116922807,346.11507452657,27.668116811681,1280288.0047853,1179.6466704592,2599774.2672502,32.868116811681,0,0
-159.3011690238,346.16652071847,27.672547254725,1280288.0047853,1179.6466704592,2599774.2672502,32.872547254725,0,0
-159.30116881953,346.21796691037,27.67697769777,1280288.0047853,1179.6466704592,2599774.2672502,32.87697769777,0,0
-159.30116861526,346.26941310227,27.681408140814,1280288.0047853,1179.6466704592,2599774.2672502,32.881408140814,0,0
-159.30116841099,346.32085929417,27.685838583858,1280288.0047853,1179.6466704592,2599774.2672502,32.885838583858,0,0
-159.30116820671,346.37230548607,27.690269026903,1280288.0047853,1179.6466704592,2599774.2672502,32.890269026903,0,0
-159.30116800244,346.42375167797,27.694699469947,1280288.0047853,1179.6466704592,2599774.2672502,32.894699469947,0,0
-159.30116779817,346.47519786987,27.699129912991,1280288.0047853,1179.6466704592,2599774.2672502,32.899129912991,0,0
-159.3011675939,346.52664406177,27.703560356036,1280288.0047853,1179.6466704592,2599774.2672502,32.903560356036,0,0
-159.30116738963,346.57809025367,27.70799079908,1280288.0047853,1179.6466704592,2599774.2672502,32.90799079908,0,0
-159.30116718535,346.62953644557,27.712421242124,1280288.0047853,1179.6466704592,2599774.2672502,32.912421242124,0,0
-159.30116698108,346.68098263747,27.716851685169,1280288.0047853,1179.6466704592,2599774.2672502,32.916851685169,0,0
-159.30116677681,346.73242882936,27.721282128213,1280288.0047853,1179.6466704592,2599774.2672502,32.921282128213,0,0
-159.30116657254,346.78387502126,27.725712571257,1280288.0047853,1179.6466704592,2599774.2672502,32.925712571257,0,0
-159.30116636826,346.83532121316,27.730143014301,1280288.0047853,1179.6466704592,2599774.2672502,32.930143014301,0,0
-159.30116616399,346.88676740506,27.734573457346,1280288.0047853,1179.6466704592,2599774.2672502,32.934573457346,0,0
-159.30116595972,346.93821359696,27.73900390039,1280288.0047853,1179.6466704592,2599774.2672502,32.93900390039,0,0
-159.30116575545,346.98965978886,27.743434343434,1280288.0047853,1179.6466704592,2599774.2672502,32.943434343434,0,0
-159.30116555118,347.04110598076,27.747864786479,1280288.0047853,1179.6466704592,2599774.2672502,32.947864786479,0,0
-159.3011653469,347.09255217266,27.752295229523,1280288.0047853,1179.6466704592,2599774.2672502,32.952295229523,0,0
-159.30116514263,347.14399836456,27.756725672567,1280288.0047853,1179.6466704592,2599774.2672502,32.956725672567,0,0
-159.30116493836,347.19544455646,27.761156115612,1280288.0047853,1179.6466704592,2599774.2672502,32.961156115612,0,0
-159.30116473409,347.24689074836,27.765586558656,1280288.0047853,1179.6466704592,2599774.2672502,32.965586558656,0,0
-159.30116452981,347.29833694026,27.7700170017,1280288.0047853,1179.6466704592,2599774.2672502,32.9700170017,0,0
-159.30116432554,347.34978313215,27.774447444744,1280288.0047853,1179.6466704592,2599774.2672502,32.974447444744,0,0
-159.30116412127,347.40122932405,27.778877887789,1280288.0047853,1179.6466704592,2599774.2672502,32.978877887789,0,0
-159.301163917,347.45267551595,27.783308330833,1280288.0047853,1179.6466704592,2599774.2672502,32.983308330833,0,0
-159.30116371273,347.50412170785,27.787738773877,1280288.0047853,1179.6466704592,2599774.2672502,32.987738773877,0,0
-159.30116350845,347.55556789975,27.792169216922,1280288.0047853,1179.6466704592,2599774.2672502,32.992169216922,0,0
-159.30116330418,347.60701409165,27.796599659966,1280288.0047853,1179.6466704592,2599774.2672502,32.996599659966,0,0
-159.30116309991,347.65846028355,27.80103010301,1280288.0047853,1179.6466704592,2599774.2672502,33.00103010301,0,0
-159.30116289564,347.70990647545,27.805460546055,1280288.0047853,1179.6466704592,2599774.2672502,33.005460546055,0,0
-159.30116269136,347.76135266735,27.809890989099,1280288.0047853,1179.6466704592,2599774.2672502,33.009890989099,0,0
-159.30116248709,347.81279885925,27.814321432143,1280288.0047853,1179.6466704592,2599774.2672502,33.014321432143,0,0
-159.30116228282,347.86424505115,27.818751875188,1280288.0047853,1179.6466704592,2599774.2672502,33.018751875188,0,0
-159.30116207855,347.91569124305,27.823182318232,1280288.0047853,1179.6466704592,2599774.2672502,33.023182318232,0,0
-159.30116187428,347.96713743494,27.827612761276,1280288.0047853,1179.6466704592,2599774.2672502,33.027612761276,0,0
-159.30116167,348.01858362684,27.83204320432,1280288.0047853,1179.6466704592,2599774.2672502,33.03204320432,0,0
-159.30116146573,348.07002981874,27.836473647365,1280288.0047853,1179.6466704592,2599774.2672502,33.036473647365,0,0
-159.30116126146,348.12147601064,27.840904090409,1280288.0047853,1179.6466704592,2599774.2672502,33.040904090409,0,0
-159.30116105719,348.17292220254,27.845334533453,1280288.0047853,1179.6466704592,2599774.2672502,33.045334533453,0,0
-159.30116085292,348.22436839444,27.849764976498,1280288.0047853,1179.6466704592,2599774.2672502,33.049764976498,0,0
-159.30116064864,348.27581458634,27.854195419542,1280288.0047853,1179.6466704592,2599774.2672502,33.054195419542,0,0
-159.30116044437,348.32726077824,27.858625862586,1280288.0047853,1179.6466704592,2599774.2672502,33.058625862586,0,0
-159.3011602401,348.37870697014,27.863056305631,1280288.0047853,1179.6466704592,2599774.2672502,33.063056305631,0,0
-159.30116003583,348.43015316204,27.867486748675,1280288.0047853,1179.6466704592,2599774.2672502,33.067486748675,0,0
-159.30115983155,348.48159935394,27.871917191719,1280288.0047853,1179.6466704592,2599774.2672502,33.071917191719,0,0
-159.30115962728,348.53304554584,27.876347634763,1280288.0047853,1179.6466704592,2599774.2672502,33.076347634763,0,0
-159.30115942301,348.58449173773,27.880778077808,1280288.0047853,1179.6466704592,2599774.2672502,33.080778077808,0,0
-159.30115921874,348.63593792963,27.885208520852,1280288.0047853,1179.6466704592,2599774.2672502,33.085208520852,0,0
-159.30115901447,348.68738412153,27.889638963896,1280288.0047853,1179.6466704592,2599774.2672502,33.089638963896,0,0
-159.30115881019,348.73883031343,27.894069406941,1280288.0047853,1179.6466704592,2599774.2672502,33.094069406941,0,0
-159.30115860592,348.79027650533,27.898499849985,1280288.0047853,1179.6466704592,2599774.2672502,33.098499849985,0,0
-159.30115840165,348.84172269723,27.902930293029,1280288.0047853,1179.6466704592,2599774.2672502,33.102930293029,0,0
-159.30115819738,348.89316888913,27.907360736074,1280288.0047853,1179.6466704592,2599774.2672502,33.107360736074,0,0
-159.3011579931,348.94461508103,27.911791179118,1280288.0047853,1179.6466704592,2599774.2672502,33.111791179118,0,0
-159.30115778883,348.99606127293,27.916221622162,1280288.0047853,1179.6466704592,2599774.2672502,33.116221622162,0,0
-159.30115758456,349.04750746483,27.920652065207,1280288.0047853,1179.6466704592,2599774.2672502,33.120652065207,0,0
-159.30115738029,349.09895365673,27.925082508251,1280288.0047853,1179.6466704592,2599774.2672502,33.125082508251,0,0
-159.30115717602,349.15039984863,27.929512951295,1280288.0047853,1179.6466704592,2599774.2672502,33.129512951295,0,0
-159.30115697174,349.20184604052,27.933943394339,1280288.0047853,1179.6466704592,2599774.2672502,33.133943394339,0,0
-159.30115676747,349.25329223242,27.938373837384,1280288.0047853,1179.6466704592,2599774.2672502,33.138373837384,0,0
-159.3011565632,349.30473842432,27.942804280428,1280288.0047853,1179.6466704592,2599774.2672502,33.142804280428,0,0
-159.30115635893,349.35618461622,27.947234723472,1280288.0047853,1179.6466704592,2599774.2672502,33.147234723472,0,0
-159.30115615465,349.40763080812,27.951665166517,1280288.0047853,1179.6466704592,2599774.2672502,33.151665166517,0,0
-159.30115595038,349.45907700002,27.956095609561,1280288.0047853,1179.6466704592,2599774.2672502,33.156095609561,0,0
-159.30115574611,349.51052319192,27.960526052605,1280288.0047853,1179.6466704592,2599774.2672502,33.160526052605,0,0
-159.30115554184,349.56196938382,27.96495649565,1280288.0047853,1179.6466704592,2599774.2672502,33.16495649565,0,0
-159.30115533757,349.61341557572,27.969386938694,1280288.0047853,1179.6466704592,2599774.2672502,33.169386938694,0,0
-159.30115513329,349.66486176762,27.973817381738,1280288.0047853,1179.6466704592,2599774.2672502,33.173817381738,0,0
-159.30115492902,349.71630795952,27.978247824782,1280288.0047853,1179.6466704592,2599774.2672502,33.178247824782,0,0
-159.30115472475,349.76775415142,27.982678267827,1280288.0047853,1179.6466704592,2599774.2672502,33.182678267827,0,0
-159.30115452048,349.81920034331,27.987108710871,1280288.0047853,1179.6466704592,2599774.2672502,33.187108710871,0,0
-159.30115431621,349.87064653521,27.991539153915,1280288.0047853,1179.6466704592,2599774.2672502,33.191539153915,0,0
-159.30115411193,349.92209272711,27.99596959696,1280288.0047853,1179.6466704592,2599774.2672502,33.19596959696,0,0
-159.30115390766,349.97353891901,28.000400040004,1280288.0047853,1179.6466704592,2599774.2672502,33.200400040004,0,0
-159.30115370339,350.02498511091,28.004830483048,1280288.0047853,1179.6466704592,2599774.2672502,33.204830483048,0,0
-159.30115349912,350.07643130281,28.009260926093,1280288.0047853,1179.6466704592,2599774.2672502,33.209260926093,0,0
-159.30115329484,350.12787749471,28.013691369137,1280288.0047853,1179.6466704592,2599774.2672502,33.213691369137,0,0
-159.30115309057,350.17932368661,28.018121812181,1280288.0047853,1179.6466704592,2599774.2672502,33.218121812181,0,0
-159.3011528863,350.23076987851,28.022552255226,1280288.0047853,1179.6466704592,2599774.2672502,33.222552255226,0,0
-159.30115268203,350.28221607041,28.02698269827,1280288.0047853,1179.6466704592,2599774.2672502,33.22698269827,0,0
-159.30115247776,350.33366226231,28.031413141314,1280288.0047853,1179.6466704592,2599774.2672502,33.231413141314,0,0
-159.30115227348,350.38510845421,28.035843584358,1280288.0047853,1179.6466704592,2599774.2672502,33.235843584358,0,0
-159.30115206921,350.4365546461,28.040274027403,1280288.0047853,1179.6466704592,2599774.2672502,33.240274027403,0,0
-159.30115186494,350.488000838,28.044704470447,1280288.0047853,1179.6466704592,2599774.2672502,33.244704470447,0,0
-159.30115166067,350.5394470299,28.049134913491,1280288.0047853,1179.6466704592,2599774.2672502,33.249134913491,0,0
-159.30115145639,350.5908932218,28.053565356536,1280288.0047853,1179.6466704592,2599774.2672502,33.253565356536,0,0
-159.30115125212,350.6423394137,28.05799579958,1280288.0047853,1179.6466704592,2599774.2672502,33.25799579958,0,0
-159.30115104785,350.6937856056,28.062426242624,1280288.0047853,1179.6466704592,2599774.2672502,33.262426242624,0,0
-159.30115084358,350.7452317975,28.066856685669,1280288.0047853,1179.6466704592,2599774.2672502,33.266856685669,0,0
-159.30115063931,350.7966779894,28.071287128713,1280288.0047853,1179.6466704592,2599774.2672502,33.271287128713,0,0
-159.30115043503,350.8481241813,28.075717571757,1280288.0047853,1179.6466704592,2599774.2672502,33.275717571757,0,0
-159.30115023076,350.8995703732,28.080148014801,1280288.0047853,1179.6466704592,2599774.2672502,33.280148014801,0,0
-159.30115002649,350.9510165651,28.084578457846,1280288.0047853,1179.6466704592,2599774.2672502,33.284578457846,0,0
-159.30114982222,351.002462757,28.08900890089,1280288.0047853,1179.6466704592,2599774.2672502,33.28900890089,0,0
-159.30114961794,351.05390894889,28.093439343934,1280288.0047853,1179.6466704592,2599774.2672502,33.293439343934,0,0
-159.30114941367,351.10535514079,28.097869786979,1280288.0047853,1179.6466704592,2599774.2672502,33.297869786979,0,0
-159.3011492094,351.15680133269,28.102300230023,1280288.0047853,1179.6466704592,2599774.2672502,33.302300230023,0,0
-159.30114900513,351.20824752459,28.106730673067,1280288.0047853,1179.6466704592,2599774.2672502,33.306730673067,0,0
-159.30114880086,351.25969371649,28.111161116112,1280288.0047853,1179.6466704592,2599774.2672502,33.311161116112,0,0
-159.30114859658,351.31113990839,28.115591559156,1280288.0047853,1179.6466704592,2599774.2672502,33.315591559156,0,0
-159.30114839231,351.36258610029,28.1200220022,1280288.0047853,1179.6466704592,2599774.2672502,33.3200220022,0,0
-159.30114818804,351.41403229219,28.124452445245,1280288.0047853,1179.6466704592,2599774.2672502,33.324452445245,0,0
-159.30114798377,351.46547848409,28.128882888289,1280288.0047853,1179.6466704592,2599774.2672502,33.328882888289,0,0
-159.30114777949,351.51692467599,28.133313331333,1280288.0047853,1179.6466704592,2599774.2672502,33.333313331333,0,0
-159.30114757522,351.56837086789,28.137743774377,1280288.0047853,1179.6466704592,2599774.2672502,33.337743774377,0,0
-159.30114737095,351.61981705979,28.142174217422,1280288.0047853,1179.6466704592,2599774.2672502,33.342174217422,0,0
-159.30114716668,351.67126325168,28.146604660466,1280288.0047853,1179.6466704592,2599774.2672502,33.346604660466,0,0
-159.30114696241,351.72270944358,28.15103510351,1280288.0047853,1179.6466704592,2599774.2672502,33.35103510351,0,0
-159.30114675813,351.77415563548,28.155465546555,1280288.0047853,1179.6466704592,2599774.2672502,33.355465546555,0,0
-159.30114655386,351.82560182738,28.159895989599,1280288.0047853,1179.6466704592,2599774.2672502,33.359895989599,0,0
-159.30114634959,351.87704801928,28.164326432643,1280288.0047853,1179.6466704592,2599774.2672502,33.364326432643,0,0
-159.30114614532,351.92849421118,28.168756875688,1280288.0047853,1179.6466704592,2599774.2672502,33.368756875688,0,0
-159.30114594105,351.97994040308,28.173187318732,1280288.0047853,1179.6466704592,2599774.2672502,33.373187318732,0,0
-159.30114573677,352.03138659498,28.177617761776,1280288.0047853,1179.6466704592,2599774.2672502,33.377617761776,0,0
-159.3011455325,352.08283278688,28.18204820482,1280288.0047853,1179.6466704592,2599774.2672502,33.38204820482,0,0
-159.30114532823,352.13427897878,28.186478647865,1280288.0047853,1179.6466704592,2599774.2672502,33.386478647865,0,0
-159.30114512396,352.18572517068,28.190909090909,1280288.0047853,1179.6466704592,2599774.2672502,33.390909090909,0,0
-159.30114491968,352.23717136258,28.195339533953,1280288.0047853,1179.6466704592,2599774.2672502,33.395339533953,0,0
-159.30114471541,352.28861755447,28.199769976998,1280288.0047853,1179.6466704592,2599774.2672502,33.399769976998,0,0
-159.30114451114,352.34006374637,28.204200420042,1280288.0047853,1179.6466704592,2599774.2672502,33.404200420042,0,0
-159.30114430687,352.39150993827,28.208630863086,1280288.0047853,1179.6466704592,2599774.2672502,33.408630863086,0,0
-159.3011441026,352.44295613017,28.213061306131,1280288.0047853,1179.6466704592,2599774.2672502,33.413061306131,0,0
-159.30114389832,352.49440232207,28.217491749175,1280288.0047853,1179.6466704592,2599774.2672502,33.417491749175,0,0
-159.30114369405,352.54584851397,28.221922192219,1280288.0047853,1179.6466704592,2599774.2672502,33.421922192219,0,0
-159.30114348978,352.59729470587,28.226352635264,1280288.0047853,1179.6466704592,2599774.2672502,33.426352635264,0,0
-159.30114328551,352.64874089777,28.230783078308,1280288.0047853,1179.6466704592,2599774.2672502,33.430783078308,0,0
-159.30114308123,352.70018708967,28.235213521352,1280288.0047853,1179.6466704592,2599774.2672502,33.435213521352,0,0
-159.30114287696,352.75163328157,28.239643964396,1280288.0047853,1179.6466704592,2599774.2672502,33.439643964396,0,0
-159.30114267269,352.80307947347,28.244074407441,1280288.0047853,1179.6466704592,2599774.2672502,33.444074407441,0,0
-159.30114246842,352.85452566537,28.248504850485,1280288.0047853,1179.6466704592,2599774.2672502,33.448504850485,0,0
-159.30114226415,352.90597185726,28.252935293529,1280288.0047853,1179.6466704592,2599774.2672502,33.452935293529,0,0
-159.30114205987,352.95741804916,28.257365736574,1280288.0047853,1179.6466704592,2599774.2672502,33.457365736574,0,0
-159.3011418556,353.00886424106,28.261796179618,1280288.0047853,1179.6466704592,2599774.2672502,33.461796179618,0,0
-159.30114165133,353.06031043296,28.266226622662,1280288.0047853,1179.6466704592,2599774.2672502,33.466226622662,0,0
-159.30114144706,353.11175662486,28.270657065707,1280288.0047853,1179.6466704592,2599774.2672502,33.470657065707,0,0
-159.30114124278,353.16320281676,28.275087508751,1280288.0047853,1179.6466704592,2599774.2672502,33.475087508751,0,0
-159.30114103851,353.21464900866,28.279517951795,1280288.0047853,1179.6466704592,2599774.2672502,33.479517951795,0,0
-159.30114083424,353.26609520056,28.283948394839,1280288.0047853,1179.6466704592,2599774.2672502,33.483948394839,0,0
-159.30114062997,353.31754139246,28.288378837884,1280288.0047853,1179.6466704592,2599774.2672502,33.488378837884,0,0
-159.3011404257,353.36898758436,28.292809280928,1280288.0047853,1179.6466704592,2599774.2672502,33.492809280928,0,0
-159.30114022142,353.42043377626,28.297239723972,1280288.0047853,1179.6466704592,2599774.2672502,33.497239723972,0,0
-159.30114001715,353.47187996816,28.301670167017,1280288.0047853,1179.6466704592,2599774.2672502,33.501670167017,0,0
-159.30113981288,353.52332616006,28.306100610061,1280288.0047853,1179.6466704592,2599774.2672502,33.506100610061,0,0
-159.30113960861,353.57477235195,28.310531053105,1280288.0047853,1179.6466704592,2599774.2672502,33.510531053105,0,0
-159.30113940434,353.62621854385,28.31496149615,1280288.0047853,1179.6466704592,2599774.2672502,33.51496149615,0,0
-159.30113920006,353.67766473575,28.319391939194,1280288.0047853,1179.6466704592,2599774.2672502,33.519391939194,0,0
-159.30113899579,353.72911092765,28.323822382238,1280288.0047853,1179.6466704592,2599774.2672502,33.523822382238,0,0
-159.30113879152,353.78055711955,28.328252825283,1280288.0047853,1179.6466704592,2599774.2672502,33.528252825283,0,0
-159.30113858725,353.83200331145,28.332683268327,1280288.0047853,1179.6466704592,2599774.2672502,33.532683268327,0,0
-159.30113838297,353.88344950335,28.337113711371,1280288.0047853,1179.6466704592,2599774.2672502,33.537113711371,0,0
-159.3011381787,353.93489569525,28.341544154415,1280288.0047853,1179.6466704592,2599774.2672502,33.541544154415,0,0
-159.30113797443,353.98634188715,28.34597459746,1280288.0047853,1179.6466704592,2599774.2672502,33.54597459746,0,0
-159.30113777016,354.03778807905,28.350405040504,1280288.0047853,1179.6466704592,2599774.2672502,33.550405040504,0,0
-159.30113756589,354.08923427095,28.354835483548,1280288.0047853,1179.6466704592,2599774.2672502,33.554835483548,0,0
-159.30113736161,354.14068046285,28.359265926593,1280288.0047853,1179.6466704592,2599774.2672502,33.559265926593,0,0
-159.30113715734,354.19212665474,28.363696369637,1280288.0047853,1179.6466704592,2599774.2672502,33.563696369637,0,0
-159.30113695307,354.24357284664,28.368126812681,1280288.0047853,1179.6466704592,2599774.2672502,33.568126812681,0,0
-159.3011367488,354.29501903854,28.372557255726,1280288.0047853,1179.6466704592,2599774.2672502,33.572557255726,0,0
-159.30113654452,354.34646523044,28.37698769877,1280288.0047853,1179.6466704592,2599774.2672502,33.57698769877,0,0
-159.30113634025,354.39791142234,28.381418141814,1280288.0047853,1179.6466704592,2599774.2672502,33.581418141814,0,0
-159.30113613598,354.44935761424,28.385848584858,1280288.0047853,1179.6466704592,2599774.2672502,33.585848584858,0,0
-159.30113593171,354.50080380614,28.390279027903,1280288.0047853,1179.6466704592,2599774.2672502,33.590279027903,0,0
-159.30113572744,354.55224999804,28.394709470947,1280288.0047853,1179.6466704592,2599774.2672502,33.594709470947,0,0
-159.30113552316,354.60369618994,28.399139913991,1280288.0047853,1179.6466704592,2599774.2672502,33.599139913991,0,0
-159.30113531889,354.65514238184,28.403570357036,1280288.0047853,1179.6466704592,2599774.2672502,33.603570357036,0,0
-159.30113511462,354.70658857374,28.40800080008,1280288.0047853,1179.6466704592,2599774.2672502,33.60800080008,0,0
-159.30113491035,354.75803476564,28.412431243124,1280288.0047853,1179.6466704592,2599774.2672502,33.612431243124,0,0
-159.30113470607,354.80948095753,28.416861686169,1280288.0047853,1179.6466704592,2599774.2672502,33.616861686169,0,0
-159.3011345018,354.86092714943,28.421292129213,1280288.0047853,1179.6466704592,2599774.2672502,33.621292129213,0,0
-159.30113429753,354.91237334133,28.425722572257,1280288.0047853,1179.6466704592,2599774.2672502,33.625722572257,0,0
-159.30113409326,354.96381953323,28.430153015302,1280288.0047853,1179.6466704592,2599774.2672502,33.630153015302,0,0
-159.30113388899,355.01526572513,28.434583458346,1280288.0047853,1179.6466704592,2599774.2672502,33.634583458346,0,0
-159.30113368471,355.06671191703,28.43901390139,1280288.0047853,1179.6466704592,2599774.2672502,33.63901390139,0,0
-159.30113348044,355.11815810893,28.443444344434,1280288.0047853,1179.6466704592,2599774.2672502,33.643444344434,0,0
-159.30113327617,355.16960430083,28.447874787479,1280288.0047853,1179.6466704592,2599774.2672502,33.647874787479,0,0
-159.3011330719,355.22105049273,28.452305230523,1280288.0047853,1179.6466704592,2599774.2672502,33.652305230523,0,0
-159.30113286763,355.27249668463,28.456735673567,1280288.0047853,1179.6466704592,2599774.2672502,33.656735673567,0,0
-159.30113266335,355.32394287653,28.461166116612,1280288.0047853,1179.6466704592,2599774.2672502,33.661166116612,0,0
-159.30113245908,355.37538906843,28.465596559656,1280288.0047853,1179.6466704592,2599774.2672502,33.665596559656,0,0
-159.30113225481,355.42683526032,28.4700270027,1280288.0047853,1179.6466704592,2599774.2672502,33.6700270027,0,0
-159.30113205054,355.47828145222,28.474457445745,1280288.0047853,1179.6466704592,2599774.2672502,33.674457445745,0,0
-159.30113184626,355.52972764412,28.478887888789,1280288.0047853,1179.6466704592,2599774.2672502,33.678887888789,0,0
-159.30113164199,355.58117383602,28.483318331833,1280288.0047853,1179.6466704592,2599774.2672502,33.683318331833,0,0
-159.30113143772,355.63262002792,28.487748774877,1280288.0047853,1179.6466704592,2599774.2672502,33.687748774877,0,0
-159.30113123345,355.68406621982,28.492179217922,1280288.0047853,1179.6466704592,2599774.2672502,33.692179217922,0,0
-159.30113102918,355.73551241172,28.496609660966,1280288.0047853,1179.6466704592,2599774.2672502,33.696609660966,0,0
-159.3011308249,355.78695860362,28.50104010401,1280288.0047853,1179.6466704592,2599774.2672502,33.70104010401,0,0
-159.30113062063,355.83840479552,28.505470547055,1280288.0047853,1179.6466704592,2599774.2672502,33.705470547055,0,0
-159.30113041636,355.88985098742,28.509900990099,1280288.0047853,1179.6466704592,2599774.2672502,33.709900990099,0,0
-159.30113021209,355.94129717932,28.514331433143,1280288.0047853,1179.6466704592,2599774.2672502,33.714331433143,0,0
-159.30113000781,355.99274337122,28.518761876188,1280288.0047853,1179.6466704592,2599774.2672502,33.718761876188,0,0
-159.30112980354,356.04418956311,28.523192319232,1280288.0047853,1179.6466704592,2599774.2672502,33.723192319232,0,0
-159.30112959927,356.09563575501,28.527622762276,1280288.0047853,1179.6466704592,2599774.2672502,33.727622762276,0,0
-159.301129395,356.14708194691,28.532053205321,1280288.0047853,1179.6466704592,2599774.2672502,33.732053205321,0,0
-159.30112919073,356.19852813881,28.536483648365,1280288.0047853,1179.6466704592,2599774.2672502,33.736483648365,0,0
-159.30112898645,356.24997433071,28.540914091409,1280288.0047853,1179.6466704592,2599774.2672502,33.740914091409,0,0
-159.30112878218,356.30142052261,28.545344534453,1280288.0047853,1179.6466704592,2599774.2672502,33.745344534453,0,0
-159.30112857791,356.35286671451,28.549774977498,1280288.0047853,1179.6466704592,2599774.2672502,33.749774977498,0,0
-159.30112837364,356.40431290641,28.554205420542,1280288.0047853,1179.6466704592,2599774.2672502,33.754205420542,0,0
-159.30112816936,356.45575909831,28.558635863586,1280288.0047853,1179.6466704592,2599774.2672502,33.758635863586,0,0
-159.30112796509,356.50720529021,28.563066306631,1280288.0047853,1179.6466704592,2599774.2672502,33.763066306631,0,0
-159.30112776082,356.55865148211,28.567496749675,1280288.0047853,1179.6466704592,2599774.2672502,33.767496749675,0,0
-159.30112755655,356.61009767401,28.571927192719,1280288.0047853,1179.6466704592,2599774.2672502,33.771927192719,0,0
-159.30112735228,356.6615438659,28.576357635764,1280288.0047853,1179.6466704592,2599774.2672502,33.776357635764,0,0
-159.301127148,356.7129900578,28.580788078808,1280288.0047853,1179.6466704592,2599774.2672502,33.780788078808,0,0
-159.30112694373,356.7644362497,28.585218521852,1280288.0047853,1179.6466704592,2599774.2672502,33.785218521852,0,0
-159.30112673946,356.8158824416,28.589648964896,1280288.0047853,1179.6466704592,2599774.2672502,33.789648964896,0,0
-159.30112653519,356.8673286335,28.594079407941,1280288.0047853,1179.6466704592,2599774.2672502,33.794079407941,0,0
-159.30112633092,356.9187748254,28.598509850985,1280288.0047853,1179.6466704592,2599774.2672502,33.798509850985,0,0
-159.30112612664,356.9702210173,28.602940294029,1280288.0047853,1179.6466704592,2599774.2672502,33.802940294029,0,0
-159.30112592237,357.0216672092,28.607370737074,1280288.0047853,1179.6466704592,2599774.2672502,33.807370737074,0,0
-159.3011257181,357.0731134011,28.611801180118,1280288.0047853,1179.6466704592,2599774.2672502,33.811801180118,0,0
-159.30112551383,357.124559593,28.616231623162,1280288.0047853,1179.6466704592,2599774.2672502,33.816231623162,0,0
-159.30112530955,357.1760057849,28.620662066207,1280288.0047853,1179.6466704592,2599774.2672502,33.820662066207,0,0
-159.30112510528,357.2274519768,28.625092509251,1280288.0047853,1179.6466704592,2599774.2672502,33.825092509251,0,0
-159.30112490101,357.27889816869,28.629522952295,1280288.0047853,1179.6466704592,2599774.2672502,33.829522952295,0,0
-159.30112469674,357.33034436059,28.63395339534,1280288.0047853,1179.6466704592,2599774.2672502,33.83395339534,0,0
-159.30112449247,357.38179055249,28.638383838384,1280288.0047853,1179.6466704592,2599774.2672502,33.838383838384,0,0
-159.30112428819,357.43323674439,28.642814281428,1280288.0047853,1179.6466704592,2599774.2672502,33.842814281428,0,0
-159.30112408392,357.48468293629,28.647244724472,1280288.0047853,1179.6466704592,2599774.2672502,33.847244724472,0,0
-159.30112387965,357.53612912819,28.651675167517,1280288.0047853,1179.6466704592,2599774.2672502,33.851675167517,0,0
-159.30112367538,357.58757532009,28.656105610561,1280288.0047853,1179.6466704592,2599774.2672502,33.856105610561,0,0
-159.3011234711,357.63902151199,28.660536053605,1280288.0047853,1179.6466704592,2599774.2672502,33.860536053605,0,0
-159.30112326683,357.69046770389,28.66496649665,1280288.0047853,1179.6466704592,2599774.2672502,33.86496649665,0,0
-159.30112306256,357.74191389579,28.669396939694,1280288.0047853,1179.6466704592,2599774.2672502,33.869396939694,0,0
-159.30112285829,357.79336008769,28.673827382738,1280288.0047853,1179.6466704592,2599774.2672502,33.873827382738,0,0
-159.30112265402,357.84480627959,28.678257825783,1280288.0047853,1179.6466704592,2599774.2672502,33.878257825783,0,0
-159.30112244974,357.89625247148,28.682688268827,1280288.0047853,1179.6466704592,2599774.2672502,33.882688268827,0,0
-159.30112224547,357.94769866338,28.687118711871,1280288.0047853,1179.6466704592,2599774.2672502,33.887118711871,0,0
-159.3011220412,357.99914485528,28.691549154915,1280288.0047853,1179.6466704592,2599774.2672502,33.891549154915,0,0
-159.30112183693,358.05059104718,28.69597959796,1280288.0047853,1179.6466704592,2599774.2672502,33.89597959796,0,0
-159.30112163265,358.10203723908,28.700410041004,1280288.0047853,1179.6466704592,2599774.2672502,33.900410041004,0,0
-159.30112142838,358.15348343098,28.704840484048,1280288.0047853,1179.6466704592,2599774.2672502,33.904840484048,0,0
-159.30112122411,358.20492962288,28.709270927093,1280288.0047853,1179.6466704592,2599774.2672502,33.909270927093,0,0
-159.30112101984,358.25637581478,28.713701370137,1280288.0047853,1179.6466704592,2599774.2672502,33.913701370137,0,0
-159.30112081557,358.30782200668,28.718131813181,1280288.0047853,1179.6466704592,2599774.2672502,33.918131813181,0,0
-159.30112061129,358.35926819858,28.722562256226,1280288.0047853,1179.6466704592,2599774.2672502,33.922562256226,0,0
-159.30112040702,358.41071439048,28.72699269927,1280288.0047853,1179.6466704592,2599774.2672502,33.92699269927,0,0
-159.30112020275,358.46216058238,28.731423142314,1280288.0047853,1179.6466704592,2599774.2672502,33.931423142314,0,0
-159.30111999848,358.51360677427,28.735853585359,1280288.0047853,1179.6466704592,2599774.2672502,33.935853585359,0,0
-159.3011197942,358.56505296617,28.740284028403,1280288.0047853,1179.6466704592,2599774.2672502,33.940284028403,0,0
-159.30111958993,358.61649915807,28.744714471447,1280288.0047853,1179.6466704592,2599774.2672502,33.944714471447,0,0
-159.30111938566,358.66794534997,28.749144914491,1280288.0047853,1179.6466704592,2599774.2672502,33.949144914491,0,0
-159.30111918139,358.71939154187,28.753575357536,1280288.0047853,1179.6466704592,2599774.2672502,33.953575357536,0,0
-159.30111897712,358.77083773377,28.75800580058,1280288.0047853,1179.6466704592,2599774.2672502,33.95800580058,0,0
-159.30111877284,358.82228392567,28.762436243624,1280288.0047853,1179.6466704592,2599774.2672502,33.962436243624,0,0
-159.30111856857,358.87373011757,28.766866686669,1280288.0047853,1179.6466704592,2599774.2672502,33.966866686669,0,0
-159.3011183643,358.92517630947,28.771297129713,1280288.0047853,1179.6466704592,2599774.2672502,33.971297129713,0,0
-159.30111816003,358.97662250137,28.775727572757,1280288.0047853,1179.6466704592,2599774.2672502,33.975727572757,0,0
-159.30111795576,359.02806869327,28.780158015802,1280288.0047853,1179.6466704592,2599774.2672502,33.980158015802,0,0
-159.30111775148,359.07951488517,28.784588458846,1280288.0047853,1179.6466704592,2599774.2672502,33.984588458846,0,0
-159.30111754721,359.13096107706,28.78901890189,1280288.0047853,1179.6466704592,2599774.2672502,33.98901890189,0,0
-159.30111734294,359.18240726896,28.793449344934,1280288.0047853,1179.6466704592,2599774.2672502,33.993449344934,0,0
-159.30111713867,359.23385346086,28.797879787979,1280288.0047853,1179.6466704592,2599774.2672502,33.997879787979,0,0
-159.30111693439,359.28529965276,28.802310231023,1280288.0047853,1179.6466704592,2599774.2672502,34.002310231023,0,0
-159.30111673012,359.33674584466,28.806740674067,1280288.0047853,1179.6466704592,2599774.2672502,34.006740674067,0,0
-159.30111652585,359.38819203656,28.811171117112,1280288.0047853,1179.6466704592,2599774.2672502,34.011171117112,0,0
-159.30111632158,359.43963822846,28.815601560156,1280288.0047853,1179.6466704592,2599774.2672502,34.015601560156,0,0
-159.30111611731,359.49108442036,28.8200320032,1280288.0047853,1179.6466704592,2599774.2672502,34.0200320032,0,0
-159.30111591303,359.54253061226,28.824462446245,1280288.0047853,1179.6466704592,2599774.2672502,34.024462446245,0,0
-159.30111570876,359.59397680416,28.828892889289,1280288.0047853,1179.6466704592,2599774.2672502,34.028892889289,0,0
-159.30111550449,359.64542299606,28.833323332333,1280288.0047853,1179.6466704592,2599774.2672502,34.033323332333,0,0
-159.30111530022,359.69686918796,28.837753775378,1280288.0047853,1179.6466704592,2599774.2672502,34.037753775378,0,0
-159.30111509594,359.74831537985,28.842184218422,1280288.0047853,1179.6466704592,2599774.2672502,34.042184218422,0,0
-159.30111489167,359.79976157175,28.846614661466,1280288.0047853,1179.6466704592,2599774.2672502,34.046614661466,0,0
-159.3011146874,359.85120776365,28.85104510451,1280288.0047853,1179.6466704592,2599774.2672502,34.05104510451,0,0
-159.30111448313,359.90265395555,28.855475547555,1280288.0047853,1179.6466704592,2599774.2672502,34.055475547555,0,0
-159.30111427886,359.95410014745,28.859905990599,1280288.0047853,1179.6466704592,2599774.2672502,34.059905990599,0,0
-159.30111407458,360.00554633935,28.864336433643,1280288.0047853,1179.6466704592,2599774.2672502,34.064336433643,0,0
-159.30111387031,360.05699253125,28.868766876688,1280288.0047853,1179.6466704592,2599774.2672502,34.068766876688,0,0
-159.30111366604,360.10843872315,28.873197319732,1280288.0047853,1179.6466704592,2599774.2672502,34.073197319732,0,0
-159.30111346177,360.15988491505,28.877627762776,1280288.0047853,1179.6466704592,2599774.2672502,34.077627762776,0,0
-159.30111325749,360.21133110695,28.882058205821,1280288.0047853,1179.6466704592,2599774.2672502,34.082058205821,0,0
-159.30111305322,360.26277729885,28.886488648865,1280288.0047853,1179.6466704592,2599774.2672502,34.086488648865,0,0
-159.30111284895,360.31422349075,28.890919091909,1280288.0047853,1179.6466704592,2599774.2672502,34.090919091909,0,0
-159.30111264468,360.36566968264,28.895349534953,1280288.0047853,1179.6466704592,2599774.2672502,34.095349534953,0,0
-159.30111244041,360.41711587454,28.899779977998,1280288.0047853,1179.6466704592,2599774.2672502,34.099779977998,0,0
-159.30111223613,360.46856206644,28.904210421042,1280288.0047853,1179.6466704592,2599774.2672502,34.104210421042,0,0
-159.30111203163,360.52000825745,28.908640864086,1280214.0316769,-966.86123338282,2593806.0127728,34.108640864086,0,0
-159.30111182706,360.57145444821,28.913071307131,1280214.0316769,-966.86123338282,2593806.0127728,34.113071307131,0,0
-159.30111162249,360.62290063896,28.917501750175,1280214.0316769,-966.86123338282,2593806.0127728,34.117501750175,0,0
-159.30111141792,360.67434682971,28.921932193219,1280214.0316769,-966.86123338282,2593806.0127728,34.121932193219,0,0
-159.30111121336,360.72579302046,28.926362636264,1280214.0316769,-966.86123338282,2593806.0127728,34.126362636264,0,0
-159.30111100879,360.77723921122,28.930793079308,1280214.0316769,-966.86123338282,2593806.0127728,34.130793079308,0,0
-159.30111080422,360.82868540197,28.935223522352,1280214.0316769,-966.86123338282,2593806.0127728,34.135223522352,0,0
-159.30111059965,360.88013159272,28.939653965397,1280214.0316769,-966.86123338282,2593806.0127728,34.139653965397,0,0
-159.30111039508,360.93157778348,28.944084408441,1280214.0316769,-966.86123338282,2593806.0127728,34.144084408441,0,0
-159.30111019051,360.98302397423,28.948514851485,1280214.0316769,-966.86123338282,2593806.0127728,34.148514851485,0,0
-159.30110998594,361.03447016498,28.952945294529,1280214.0316769,-966.86123338282,2593806.0127728,34.152945294529,0,0
-159.30110978137,361.08591635573,28.957375737574,1280214.0316769,-966.86123338282,2593806.0127728,34.157375737574,0,0
-159.3011095768,361.13736254649,28.961806180618,1280214.0316769,-966.86123338282,2593806.0127728,34.161806180618,0,0
-159.30110937223,361.18880873724,28.966236623662,1280214.0316769,-966.86123338282,2593806.0127728,34.166236623662,0,0
-159.30110916766,361.24025492799,28.970667066707,1280214.0316769,-966.86123338282,2593806.0127728,34.170667066707,0,0
-159.30110896309,361.29170111874,28.975097509751,1280214.0316769,-966.86123338282,2593806.0127728,34.175097509751,0,0
-159.30110875853,361.3431473095,28.979527952795,1280214.0316769,-966.86123338282,2593806.0127728,34.179527952795,0,0
-159.30110855396,361.39459350025,28.98395839584,1280214.0316769,-966.86123338282,2593806.0127728,34.18395839584,0,0
-159.30110834939,361.446039691,28.988388838884,1280214.0316769,-966.86123338282,2593806.0127728,34.188388838884,0,0
-159.30110814482,361.49748588175,28.992819281928,1280214.0316769,-966.86123338282,2593806.0127728,34.192819281928,0,0
-159.30110794025,361.54893207251,28.997249724972,1280214.0316769,-966.86123338282,2593806.0127728,34.197249724972,0,0
-159.30110773568,361.60037826326,29.001680168017,1280214.0316769,-966.86123338282,2593806.0127728,34.201680168017,0,0
-159.30110753111,361.65182445401,29.006110611061,1280214.0316769,-966.86123338282,2593806.0127728,34.206110611061,0,0
-159.30110732654,361.70327064477,29.010541054105,1280214.0316769,-966.86123338282,2593806.0127728,34.210541054105,0,0
-159.30110712197,361.75471683552,29.01497149715,1280214.0316769,-966.86123338282,2593806.0127728,34.21497149715,0,0
-159.3011069174,361.80616302627,29.019401940194,1280214.0316769,-966.86123338282,2593806.0127728,34.219401940194,0,0
-159.30110671283,361.85760921702,29.023832383238,1280214.0316769,-966.86123338282,2593806.0127728,34.223832383238,0,0
-159.30110650827,361.90905540778,29.028262826283,1280214.0316769,-966.86123338282,2593806.0127728,34.228262826283,0,0
-159.3011063037,361.96050159853,29.032693269327,1280214.0316769,-966.86123338282,2593806.0127728,34.232693269327,0,0
-159.30110609913,362.01194778928,29.037123712371,1280214.0316769,-966.86123338282,2593806.0127728,34.237123712371,0,0
-159.30110589456,362.06339398003,29.041554155416,1280214.0316769,-966.86123338282,2593806.0127728,34.241554155416,0,0
-159.30110568999,362.11484017079,29.04598459846,1280214.0316769,-966.86123338282,2593806.0127728,34.24598459846,0,0
-159.30110548542,362.16628636154,29.050415041504,1280214.0316769,-966.86123338282,2593806.0127728,34.250415041504,0,0
-159.30110528085,362.21773255229,29.054845484548,1280214.0316769,-966.86123338282,2593806.0127728,34.254845484548,0,0
-159.30110507628,362.26917874305,29.059275927593,1280214.0316769,-966.86123338282,2593806.0127728,34.259275927593,0,0
-159.30110487171,362.3206249338,29.063706370637,1280214.0316769,-966.86123338282,2593806.0127728,34.263706370637,0,0
-159.30110466714,362.37207112455,29.068136813681,1280214.0316769,-966.86123338282,2593806.0127728,34.268136813681,0,0
-159.30110446257,362.4235173153,29.072567256726,1280214.0316769,-966.86123338282,2593806.0127728,34.272567256726,0,0
-159.30110425801,362.47496350606,29.07699769977,1280214.0316769,-966.86123338282,2593806.0127728,34.27699769977,0,0
-159.30110405344,362.52640969681,29.081428142814,1280214.0316769,-966.86123338282,2593806.0127728,34.281428142814,0,0
-159.30110384887,362.57785588756,29.085858585859,1280214.0316769,-966.86123338282,2593806.0127728,34.285858585859,0,0
-159.3011036443,362.62930207831,29.090289028903,1280214.0316769,-966.86123338282,2593806.0127728,34.290289028903,0,0
-159.30110343973,362.68074826907,29.094719471947,1280214.0316769,-966.86123338282,2593806.0127728,34.294719471947,0,0
-159.30110323516,362.73219445982,29.099149914991,1280214.0316769,-966.86123338282,2593806.0127728,34.299149914991,0,0
-159.30110303059,362.78364065057,29.103580358036,1280214.0316769,-966.86123338282,2593806.0127728,34.303580358036,0,0
-159.30110282602,362.83508684132,29.10801080108,1280214.0316769,-966.86123338282,2593806.0127728,34.30801080108,0,0
-159.30110262145,362.88653303208,29.112441244124,1280214.0316769,-966.86123338282,2593806.0127728,34.312441244124,0,0
-159.30110241688,362.93797922283,29.116871687169,1280214.0316769,-966.86123338282,2593806.0127728,34.316871687169,0,0
-159.30110221231,362.98942541358,29.121302130213,1280214.0316769,-966.86123338282,2593806.0127728,34.321302130213,0,0
-159.30110200775,363.04087160434,29.125732573257,1280214.0316769,-966.86123338282,2593806.0127728,34.325732573257,0,0
-159.30110180318,363.09231779509,29.130163016302,1280214.0316769,-966.86123338282,2593806.0127728,34.330163016302,0,0
-159.30110159861,363.14376398584,29.134593459346,1280214.0316769,-966.86123338282,2593806.0127728,34.334593459346,0,0
-159.30110139404,363.19521017659,29.13902390239,1280214.0316769,-966.86123338282,2593806.0127728,34.33902390239,0,0
-159.30110118947,363.24665636735,29.143454345435,1280214.0316769,-966.86123338282,2593806.0127728,34.343454345435,0,0
-159.3011009849,363.2981025581,29.147884788479,1280214.0316769,-966.86123338282,2593806.0127728,34.347884788479,0,0
-159.30110078033,363.34954874885,29.152315231523,1280214.0316769,-966.86123338282,2593806.0127728,34.352315231523,0,0
-159.30110057576,363.4009949396,29.156745674567,1280214.0316769,-966.86123338282,2593806.0127728,34.356745674567,0,0
-159.30110037119,363.45244113036,29.161176117612,1280214.0316769,-966.86123338282,2593806.0127728,34.361176117612,0,0
-159.30110016662,363.50388732111,29.165606560656,1280214.0316769,-966.86123338282,2593806.0127728,34.365606560656,0,0
-159.30109996205,363.55533351186,29.1700370037,1280214.0316769,-966.86123338282,2593806.0127728,34.3700370037,0,0
-159.30109975749,363.60677970262,29.174467446745,1280214.0316769,-966.86123338282,2593806.0127728,34.374467446745,0,0
-159.30109955292,363.65822589337,29.178897889789,1280214.0316769,-966.86123338282,2593806.0127728,34.378897889789,0,0
-159.30109934835,363.70967208412,29.183328332833,1280214.0316769,-966.86123338282,2593806.0127728,34.383328332833,0,0
-159.30109914378,363.76111827487,29.187758775878,1280214.0316769,-966.86123338282,2593806.0127728,34.387758775878,0,0
-159.30109893921,363.81256446563,29.192189218922,1280214.0316769,-966.86123338282,2593806.0127728,34.392189218922,0,0
-159.30109873464,363.86401065638,29.196619661966,1280214.0316769,-966.86123338282,2593806.0127728,34.396619661966,0,0
-159.30109853007,363.91545684713,29.20105010501,1280214.0316769,-966.86123338282,2593806.0127728,34.40105010501,0,0
-159.3010983255,363.96690303788,29.205480548055,1280214.0316769,-966.86123338282,2593806.0127728,34.405480548055,0,0
-159.30109812093,364.01834922864,29.209910991099,1280214.0316769,-966.86123338282,2593806.0127728,34.409910991099,0,0
-159.30109791636,364.06979541939,29.214341434143,1280214.0316769,-966.86123338282,2593806.0127728,34.414341434143,0,0
-159.30109771179,364.12124161014,29.218771877188,1280214.0316769,-966.86123338282,2593806.0127728,34.418771877188,0,0
-159.30109750723,364.1726878009,29.223202320232,1280214.0316769,-966.86123338282,2593806.0127728,34.423202320232,0,0
-159.30109730266,364.22413399165,29.227632763276,1280214.0316769,-966.86123338282,2593806.0127728,34.427632763276,0,0
-159.30109709809,364.2755801824,29.232063206321,1280214.0316769,-966.86123338282,2593806.0127728,34.432063206321,0,0
-159.30109689352,364.32702637315,29.236493649365,1280214.0316769,-966.86123338282,2593806.0127728,34.436493649365,0,0
-159.30109668895,364.37847256391,29.240924092409,1280214.0316769,-966.86123338282,2593806.0127728,34.440924092409,0,0
-159.30109648438,364.42991875466,29.245354535454,1280214.0316769,-966.86123338282,2593806.0127728,34.445354535454,0,0
-159.30109627981,364.48136494541,29.249784978498,1280214.0316769,-966.86123338282,2593806.0127728,34.449784978498,0,0
-159.30109607524,364.53281113616,29.254215421542,1280214.0316769,-966.86123338282,2593806.0127728,34.454215421542,0,0
-159.30109587067,364.58425732692,29.258645864586,1280214.0316769,-966.86123338282,2593806.0127728,34.458645864586,0,0
-159.3010956661,364.63570351767,29.263076307631,1280214.0316769,-966.86123338282,2593806.0127728,34.463076307631,0,0
-159.30109546153,364.68714970842,29.267506750675,1280214.0316769,-966.86123338282,2593806.0127728,34.467506750675,0,0
-159.30109525696,364.73859589917,29.271937193719,1280214.0316769,-966.86123338282,2593806.0127728,34.471937193719,0,0
-159.3010950524,364.79004208993,29.276367636764,1280214.0316769,-966.86123338282,2593806.0127728,34.476367636764,0,0
-159.30109484783,364.84148828068,29.280798079808,1280214.0316769,-966.86123338282,2593806.0127728,34.480798079808,0,0
-159.30109464326,364.89293447143,29.285228522852,1280214.0316769,-966.86123338282,2593806.0127728,34.485228522852,0,0
-159.30109443869,364.94438066219,29.289658965897,1280214.0316769,-966.86123338282,2593806.0127728,34.489658965897,0,0
-159.30109423412,364.99582685294,29.294089408941,1280214.0316769,-966.86123338282,2593806.0127728,34.494089408941,0,0
-159.30109402955,365.04727304369,29.298519851985,1280214.0316769,-966.86123338282,2593806.0127728,34.498519851985,0,0
-159.30109382498,365.09871923444,29.30295029503,1280214.0316769,-966.86123338282,2593806.0127728,34.502950295029,0,0
-159.30109362041,365.1501654252,29.307380738074,1280214.0316769,-966.86123338282,2593806.0127728,34.507380738074,0,0
-159.30109341584,365.20161161595,29.311811181118,1280214.0316769,-966.86123338282,2593806.0127728,34.511811181118,0,0
-159.30109321127,365.2530578067,29.316241624162,1280214.0316769,-966.86123338282,2593806.0127728,34.516241624162,0,0
-159.3010930067,365.30450399745,29.320672067207,1280214.0316769,-966.86123338282,2593806.0127728,34.520672067207,0,0
-159.30109280214,365.35595018821,29.325102510251,1280214.0316769,-966.86123338282,2593806.0127728,34.525102510251,0,0
-159.30109259757,365.40739637896,29.329532953295,1280214.0316769,-966.86123338282,2593806.0127728,34.529532953295,0,0
-159.301092393,365.45884256971,29.33396339634,1280214.0316769,-966.86123338282,2593806.0127728,34.53396339634,0,0
-159.30109218843,365.51028876047,29.338393839384,1280214.0316769,-966.86123338282,2593806.0127728,34.538393839384,0,0
-159.30109198386,365.56173495122,29.342824282428,1280214.0316769,-966.86123338282,2593806.0127728,34.542824282428,0,0
-159.30109177929,365.61318114197,29.347254725473,1280214.0316769,-966.86123338282,2593806.0127728,34.547254725473,0,0
-159.30109157472,365.66462733272,29.351685168517,1280214.0316769,-966.86123338282,2593806.0127728,34.551685168517,0,0
-159.30109137015,365.71607352348,29.356115611561,1280214.0316769,-966.86123338282,2593806.0127728,34.556115611561,0,0
-159.30109116558,365.76751971423,29.360546054605,1280214.0316769,-966.86123338282,2593806.0127728,34.560546054605,0,0
-159.30109096101,365.81896590498,29.36497649765,1280214.0316769,-966.86123338282,2593806.0127728,34.56497649765,0,0
-159.30109075644,365.87041209573,29.369406940694,1280214.0316769,-966.86123338282,2593806.0127728,34.569406940694,0,0
-159.30109055188,365.92185828649,29.373837383738,1280214.0316769,-966.86123338282,2593806.0127728,34.573837383738,0,0
-159.30109034731,365.97330447724,29.378267826783,1280214.0316769,-966.86123338282,2593806.0127728,34.578267826783,0,0
-159.30109014274,366.02475066799,29.382698269827,1280214.0316769,-966.86123338282,2593806.0127728,34.582698269827,0,0
-159.30108993817,366.07619685874,29.387128712871,1280214.0316769,-966.86123338282,2593806.0127728,34.587128712871,0,0
-159.3010897336,366.1276430495,29.391559155916,1280214.0316769,-966.86123338282,2593806.0127728,34.591559155916,0,0
-159.30108952903,366.17908924025,29.39598959896,1280214.0316769,-966.86123338282,2593806.0127728,34.59598959896,0,0
-159.30108932446,366.230535431,29.400420042004,1280214.0316769,-966.86123338282,2593806.0127728,34.600420042004,0,0
-159.30108911989,366.28198162176,29.404850485049,1280214.0316769,-966.86123338282,2593806.0127728,34.604850485049,0,0
-159.30108891532,366.33342781251,29.409280928093,1280214.0316769,-966.86123338282,2593806.0127728,34.609280928093,0,0
-159.30108871075,366.38487400326,29.413711371137,1280214.0316769,-966.86123338282,2593806.0127728,34.613711371137,0,0
-159.30108850618,366.43632019401,29.418141814181,1280214.0316769,-966.86123338282,2593806.0127728,34.618141814181,0,0
-159.30108830162,366.48776638477,29.422572257226,1280214.0316769,-966.86123338282,2593806.0127728,34.622572257226,0,0
-159.30108809705,366.53921257552,29.42700270027,1280214.0316769,-966.86123338282,2593806.0127728,34.62700270027,0,0
-159.30108789248,366.59065876627,29.431433143314,1280214.0316769,-966.86123338282,2593806.0127728,34.631433143314,0,0
-159.30108768791,366.64210495702,29.435863586359,1280214.0316769,-966.86123338282,2593806.0127728,34.635863586359,0,0
-159.30108748334,366.69355114778,29.440294029403,1280214.0316769,-966.86123338282,2593806.0127728,34.640294029403,0,0
-159.30108727877,366.74499733853,29.444724472447,1280214.0316769,-966.86123338282,2593806.0127728,34.644724472447,0,0
-159.3010870742,366.79644352928,29.449154915492,1280214.0316769,-966.86123338282,2593806.0127728,34.649154915492,0,0
-159.30108686963,366.84788972004,29.453585358536,1280214.0316769,-966.86123338282,2593806.0127728,34.653585358536,0,0
-159.30108666506,366.89933591079,29.45801580158,1280214.0316769,-966.86123338282,2593806.0127728,34.65801580158,0,0
-159.30108646049,366.95078210154,29.462446244624,1280214.0316769,-966.86123338282,2593806.0127728,34.662446244624,0,0
-159.30108625592,367.00222829229,29.466876687669,1280214.0316769,-966.86123338282,2593806.0127728,34.666876687669,0,0
-159.30108605136,367.05367448305,29.471307130713,1280214.0316769,-966.86123338282,2593806.0127728,34.671307130713,0,0
-159.30108584679,367.1051206738,29.475737573757,1280214.0316769,-966.86123338282,2593806.0127728,34.675737573757,0,0
-159.30108564222,367.15656686455,29.480168016802,1280214.0316769,-966.86123338282,2593806.0127728,34.680168016802,0,0
-159.30108543765,367.2080130553,29.484598459846,1280214.0316769,-966.86123338282,2593806.0127728,34.684598459846,0,0
-159.30108523308,367.25945924606,29.48902890289,1280214.0316769,-966.86123338282,2593806.0127728,34.68902890289,0,0
-159.30108502851,367.31090543681,29.493459345935,1280214.0316769,-966.86123338282,2593806.0127728,34.693459345935,0,0
-159.30108482394,367.36235162756,29.497889788979,1280214.0316769,-966.86123338282,2593806.0127728,34.697889788979,0,0
-159.30108461937,367.41379781831,29.502320232023,1280214.0316769,-966.86123338282,2593806.0127728,34.702320232023,0,0
-159.3010844148,367.46524400907,29.506750675068,1280214.0316769,-966.86123338282,2593806.0127728,34.706750675068,0,0
-159.30108421023,367.51669019982,29.511181118112,1280214.0316769,-966.86123338282,2593806.0127728,34.711181118112,0,0
-159.30108400566,367.56813639057,29.515611561156,1280214.0316769,-966.86123338282,2593806.0127728,34.715611561156,0,0
-159.30108380109,367.61958258133,29.5200420042,1280214.0316769,-966.86123338282,2593806.0127728,34.7200420042,0,0
-159.30108359653,367.67102877208,29.524472447245,1280214.0316769,-966.86123338282,2593806.0127728,34.724472447245,0,0
-159.30108339196,367.72247496283,29.528902890289,1280214.0316769,-966.86123338282,2593806.0127728,34.728902890289,0,0
-159.30108318739,367.77392115358,29.533333333333,1280214.0316769,-966.86123338282,2593806.0127728,34.733333333333,0,0
-159.30108298282,367.82536734434,29.537763776378,1280214.0316769,-966.86123338282,2593806.0127728,34.737763776378,0,0
-159.30108277825,367.87681353509,29.542194219422,1280214.0316769,-966.86123338282,2593806.0127728,34.742194219422,0,0
-159.30108257368,367.92825972584,29.546624662466,1280214.0316769,-966.86123338282,2593806.0127728,34.746624662466,0,0
-159.30108236911,367.97970591659,29.551055105511,1280214.0316769,-966.86123338282,2593806.0127728,34.751055105511,0,0
-159.30108216454,368.03115210735,29.555485548555,1280214.0316769,-966.86123338282,2593806.0127728,34.755485548555,0,0
-159.30108195997,368.0825982981,29.559915991599,1280214.0316769,-966.86123338282,2593806.0127728,34.759915991599,0,0
-159.3010817554,368.13404448885,29.564346434643,1280214.0316769,-966.86123338282,2593806.0127728,34.764346434643,0,0
-159.30108155083,368.18549067961,29.568776877688,1280214.0316769,-966.86123338282,2593806.0127728,34.768776877688,0,0
-159.30108134627,368.23693687036,29.573207320732,1280214.0316769,-966.86123338282,2593806.0127728,34.773207320732,0,0
-159.3010811417,368.28838306111,29.577637763776,1280214.0316769,-966.86123338282,2593806.0127728,34.777637763776,0,0
-159.30108093713,368.33982925186,29.582068206821,1280214.0316769,-966.86123338282,2593806.0127728,34.782068206821,0,0
-159.30108073256,368.39127544262,29.586498649865,1280214.0316769,-966.86123338282,2593806.0127728,34.786498649865,0,0
-159.30108052799,368.44272163337,29.590929092909,1280214.0316769,-966.86123338282,2593806.0127728,34.790929092909,0,0
-159.30108032342,368.49416782412,29.595359535954,1280214.0316769,-966.86123338282,2593806.0127728,34.795359535954,0,0
-159.30108011885,368.54561401487,29.599789978998,1280214.0316769,-966.86123338282,2593806.0127728,34.799789978998,0,0
-159.30107991428,368.59706020563,29.604220422042,1280214.0316769,-966.86123338282,2593806.0127728,34.804220422042,0,0
-159.30107970971,368.64850639638,29.608650865087,1280214.0316769,-966.86123338282,2593806.0127728,34.808650865087,0,0
-159.30107950514,368.69995258713,29.613081308131,1280214.0316769,-966.86123338282,2593806.0127728,34.813081308131,0,0
-159.30107930057,368.75139877789,29.617511751175,1280214.0316769,-966.86123338282,2593806.0127728,34.817511751175,0,0
-159.30107909601,368.80284496864,29.621942194219,1280214.0316769,-966.86123338282,2593806.0127728,34.821942194219,0,0
-159.30107889144,368.85429115939,29.626372637264,1280214.0316769,-966.86123338282,2593806.0127728,34.826372637264,0,0
-159.30107868687,368.90573735014,29.630803080308,1280214.0316769,-966.86123338282,2593806.0127728,34.830803080308,0,0
-159.3010784823,368.9571835409,29.635233523352,1280214.0316769,-966.86123338282,2593806.0127728,34.835233523352,0,0
-159.30107827773,369.00862973165,29.639663966397,1280214.0316769,-966.86123338282,2593806.0127728,34.839663966397,0,0
-159.30107807316,369.0600759224,29.644094409441,1280214.0316769,-966.86123338282,2593806.0127728,34.844094409441,0,0
-159.30107786859,369.11152211315,29.648524852485,1280214.0316769,-966.86123338282,2593806.0127728,34.848524852485,0,0
-159.30107766402,369.16296830391,29.65295529553,1280214.0316769,-966.86123338282,2593806.0127728,34.85295529553,0,0
-159.30107745945,369.21441449466,29.657385738574,1280214.0316769,-966.86123338282,2593806.0127728,34.857385738574,0,0
-159.30107725488,369.26586068541,29.661816181618,1280214.0316769,-966.86123338282,2593806.0127728,34.861816181618,0,0
-159.30107705031,369.31730687616,29.666246624662,1280214.0316769,-966.86123338282,2593806.0127728,34.866246624662,0,0
-159.30107684574,369.36875306701,29.670677067707,1279027.773435,1550.3093376034,2589654.260428,34.870677067707,0,0
-159.30107664115,369.42019925884,29.675107510751,1279027.773435,1550.3093376034,2589654.260428,34.875107510751,0,0
-159.30107643655,369.47164545066,29.679537953795,1279027.773435,1550.3093376034,2589654.260428,34.879537953795,0,0
-159.30107623196,369.52309164249,29.68396839684,1279027.773435,1550.3093376034,2589654.260428,34.88396839684,0,0
-159.30107602736,369.57453783432,29.688398839884,1279027.773435,1550.3093376034,2589654.260428,34.888398839884,0,0
-159.30107582276,369.62598402614,29.692829282928,1279027.773435,1550.3093376034,2589654.260428,34.892829282928,0,0
-159.30107561817,369.67743021797,29.697259725973,1279027.773435,1550.3093376034,2589654.260428,34.897259725973,0,0
-159.30107541357,369.72887640979,29.701690169017,1279027.773435,1550.3093376034,2589654.260428,34.901690169017,0,0
-159.30107520898,369.78032260162,29.706120612061,1279027.773435,1550.3093376034,2589654.260428,34.906120612061,0,0
-159.30107500438,369.83176879344,29.710551055106,1279027.773435,1550.3093376034,2589654.260428,34.910551055106,0,0
-159.30107479979,369.88321498527,29.71498149815,1279027.773435,1550.3093376034,2589654.260428,34.91498149815,0,0
-159.30107459519,369.9346611771,29.719411941194,1279027.773435,1550.3093376034,2589654.260428,34.919411941194,0,0
-159.30107439059,369.98610736892,29.723842384238,1279027.773435,1550.3093376034,2589654.260428,34.923842384238,0,0
-159.301074186,370.03755356075,29.728272827283,1279027.773435,1550.3093376034,2589654.260428,34.928272827283,0,0
-159.3010739814,370.08899975257,29.732703270327,1279027.773435,1550.3093376034,2589654.260428,34.932703270327,0,0
-159.30107377681,370.1404459444,29.737133713371,1279027.773435,1550.3093376034,2589654.260428,34.937133713371,0,0
-159.30107357221,370.19189213623,29.741564156416,1279027.773435,1550.3093376034,2589654.260428,34.941564156416,0,0
-159.30107336761,370.24333832805,29.74599459946,1279027.773435,1550.3093376034,2589654.260428,34.94599459946,0,0
-159.30107316302,370.29478451988,29.750425042504,1279027.773435,1550.3093376034,2589654.260428,34.950425042504,0,0
-159.30107295842,370.3462307117,29.754855485549,1279027.773435,1550.3093376034,2589654.260428,34.954855485549,0,0
-159.30107275383,370.39767690353,29.759285928593,1279027.773435,1550.3093376034,2589654.260428,34.959285928593,0,0
-159.30107254923,370.44912309535,29.763716371637,1279027.773435,1550.3093376034,2589654.260428,34.963716371637,0,0
-159.30107234464,370.50056928718,29.768146814681,1279027.773435,1550.3093376034,2589654.260428,34.968146814681,0,0
-159.30107214004,370.55201547901,29.772577257726,1279027.773435,1550.3093376034,2589654.260428,34.972577257726,0,0
-159.30107193544,370.60346167083,29.77700770077,1279027.773435,1550.3093376034,2589654.260428,34.97700770077,0,0
-159.30107173085,370.65490786266,29.781438143814,1279027.773435,1550.3093376034,2589654.260428,34.981438143814,0,0
-159.30107152625,370.70635405448,29.785868586859,1279027.773435,1550.3093376034,2589654.260428,34.985868586859,0,0
-159.30107132166,370.75780024631,29.790299029903,1279027.773435,1550.3093376034,2589654.260428,34.990299029903,0,0
-159.30107111706,370.80924643814,29.794729472947,1279027.773435,1550.3093376034,2589654.260428,34.994729472947,0,0
-159.30107091247,370.86069262996,29.799159915992,1279027.773435,1550.3093376034,2589654.260428,34.999159915992,0,0
-159.30107070787,370.91213882179,29.803590359036,1279027.773435,1550.3093376034,2589654.260428,35.003590359036,0,0
-159.30107050327,370.96358501361,29.80802080208,1279027.773435,1550.3093376034,2589654.260428,35.00802080208,0,0
-159.30107029868,371.01503120544,29.812451245125,1279027.773435,1550.3093376034,2589654.260428,35.012451245125,0,0
-159.30107009408,371.06647739727,29.816881688169,1279027.773435,1550.3093376034,2589654.260428,35.016881688169,0,0
-159.30106988949,371.11792358909,29.821312131213,1279027.773435,1550.3093376034,2589654.260428,35.021312131213,0,0
-159.30106968489,371.16936978092,29.825742574257,1279027.773435,1550.3093376034,2589654.260428,35.025742574257,0,0
-159.30106948029,371.22081597274,29.830173017302,1279027.773435,1550.3093376034,2589654.260428,35.030173017302,0,0
-159.3010692757,371.27226216457,29.834603460346,1279027.773435,1550.3093376034,2589654.260428,35.034603460346,0,0
-159.3010690711,371.32370835639,29.83903390339,1279027.773435,1550.3093376034,2589654.260428,35.03903390339,0,0
-159.30106886651,371.37515454822,29.843464346435,1279027.773435,1550.3093376034,2589654.260428,35.043464346435,0,0
-159.30106866191,371.42660074005,29.847894789479,1279027.773435,1550.3093376034,2589654.260428,35.047894789479,0,0
-159.30106845732,371.47804693187,29.852325232523,1279027.773435,1550.3093376034,2589654.260428,35.052325232523,0,0
-159.30106825272,371.5294931237,29.856755675568,1279027.773435,1550.3093376034,2589654.260428,35.056755675568,0,0
-159.30106804812,371.58093931552,29.861186118612,1279027.773435,1550.3093376034,2589654.260428,35.061186118612,0,0
-159.30106784353,371.63238550735,29.865616561656,1279027.773435,1550.3093376034,2589654.260428,35.065616561656,0,0
-159.30106763893,371.68383169918,29.8700470047,1279027.773435,1550.3093376034,2589654.260428,35.0700470047,0,0
-159.30106743434,371.735277891,29.874477447745,1279027.773435,1550.3093376034,2589654.260428,35.074477447745,0,0
-159.30106722974,371.78672408283,29.878907890789,1279027.773435,1550.3093376034,2589654.260428,35.078907890789,0,0
-159.30106702515,371.83817027465,29.883338333833,1279027.773435,1550.3093376034,2589654.260428,35.083338333833,0,0
-159.30106682055,371.88961646648,29.887768776878,1279027.773435,1550.3093376034,2589654.260428,35.087768776878,0,0
-159.30106661595,371.9410626583,29.892199219922,1279027.773435,1550.3093376034,2589654.260428,35.092199219922,0,0
-159.30106641136,371.99250885013,29.896629662966,1279027.773435,1550.3093376034,2589654.260428,35.096629662966,0,0
-159.30106620676,372.04395504196,29.901060106011,1279027.773435,1550.3093376034,2589654.260428,35.101060106011,0,0
-159.30106600217,372.09540123378,29.905490549055,1279027.773435,1550.3093376034,2589654.260428,35.105490549055,0,0
-159.30106579757,372.14684742561,29.909920992099,1279027.773435,1550.3093376034,2589654.260428,35.109920992099,0,0
-159.30106559298,372.19829361743,29.914351435144,1279027.773435,1550.3093376034,2589654.260428,35.114351435144,0,0
-159.30106538838,372.24973980926,29.918781878188,1279027.773435,1550.3093376034,2589654.260428,35.118781878188,0,0
-159.30106518378,372.30118600109,29.923212321232,1279027.773435,1550.3093376034,2589654.260428,35.123212321232,0,0
-159.30106497919,372.35263219291,29.927642764276,1279027.773435,1550.3093376034,2589654.260428,35.127642764276,0,0
-159.30106477459,372.40407838474,29.932073207321,1279027.773435,1550.3093376034,2589654.260428,35.132073207321,0,0
-159.30106457,372.45552457656,29.936503650365,1279027.773435,1550.3093376034,2589654.260428,35.136503650365,0,0
-159.3010643654,372.50697076839,29.940934093409,1279027.773435,1550.3093376034,2589654.260428,35.140934093409,0,0
-159.3010641608,372.55841696021,29.945364536454,1279027.773435,1550.3093376034,2589654.260428,35.145364536454,0,0
-159.30106395621,372.60986315204,29.949794979498,1279027.773435,1550.3093376034,2589654.260428,35.149794979498,0,0
-159.30106375161,372.66130934387,29.954225422542,1279027.773435,1550.3093376034,2589654.260428,35.154225422542,0,0
-159.30106354702,372.71275553569,29.958655865587,1279027.773435,1550.3093376034,2589654.260428,35.158655865587,0,0
-159.30106334242,372.76420172752,29.963086308631,1279027.773435,1550.3093376034,2589654.260428,35.163086308631,0,0
-159.30106313783,372.81564791934,29.967516751675,1279027.773435,1550.3093376034,2589654.260428,35.167516751675,0,0
-159.30106293323,372.86709411117,29.971947194719,1279027.773435,1550.3093376034,2589654.260428,35.171947194719,0,0
-159.30106272863,372.918540303,29.976377637764,1279027.773435,1550.3093376034,2589654.260428,35.176377637764,0,0
-159.30106252404,372.96998649482,29.980808080808,1279027.773435,1550.3093376034,2589654.260428,35.180808080808,0,0
-159.30106231944,373.02143268665,29.985238523852,1279027.773435,1550.3093376034,2589654.260428,35.185238523852,0,0
-159.30106211485,373.07287887847,29.989668966897,1279027.773435,1550.3093376034,2589654.260428,35.189668966897,0,0
-159.30106191025,373.1243250703,29.994099409941,1279027.773435,1550.3093376034,2589654.260428,35.194099409941,0,0
-159.30106170566,373.17577126212,29.998529852985,1279027.773435,1550.3093376034,2589654.260428,35.198529852985,0,0
-159.30106150106,373.22721745395,30.00296029603,1279027.773435,1550.3093376034,2589654.260428,35.20296029603,0,0
-159.30106129646,373.27866364578,30.007390739074,1279027.773435,1550.3093376034,2589654.260428,35.207390739074,0,0
-159.30106109187,373.3301098376,30.011821182118,1279027.773435,1550.3093376034,2589654.260428,35.211821182118,0,0
-159.30106088727,373.38155602943,30.016251625163,1279027.773435,1550.3093376034,2589654.260428,35.216251625163,0,0
-159.30106068268,373.43300222125,30.020682068207,1279027.773435,1550.3093376034,2589654.260428,35.220682068207,0,0
-159.30106047808,373.48444841308,30.025112511251,1279027.773435,1550.3093376034,2589654.260428,35.225112511251,0,0
-159.30106027348,373.53589460491,30.029542954295,1279027.773435,1550.3093376034,2589654.260428,35.229542954295,0,0
-159.30106006889,373.58734079673,30.03397339734,1279027.773435,1550.3093376034,2589654.260428,35.23397339734,0,0
-159.30105986429,373.63878698856,30.038403840384,1279027.773435,1550.3093376034,2589654.260428,35.238403840384,0,0
-159.3010596597,373.69023318038,30.042834283428,1279027.773435,1550.3093376034,2589654.260428,35.242834283428,0,0
-159.3010594551,373.74167937221,30.047264726473,1279027.773435,1550.3093376034,2589654.260428,35.247264726473,0,0
-159.30105925051,373.79312556403,30.051695169517,1279027.773435,1550.3093376034,2589654.260428,35.251695169517,0,0
-159.30105904591,373.84457175586,30.056125612561,1279027.773435,1550.3093376034,2589654.260428,35.256125612561,0,0
-159.30105884131,373.89601794769,30.060556055606,1279027.773435,1550.3093376034,2589654.260428,35.260556055606,0,0
-159.30105863672,373.94746413951,30.06498649865,1279027.773435,1550.3093376034,2589654.260428,35.26498649865,0,0
-159.30105843212,373.99891033134,30.069416941694,1279027.773435,1550.3093376034,2589654.260428,35.269416941694,0,0
-159.30105822753,374.05035652316,30.073847384738,1279027.773435,1550.3093376034,2589654.260428,35.273847384738,0,0
-159.30105802293,374.10180271499,30.078277827783,1279027.773435,1550.3093376034,2589654.260428,35.278277827783,0,0
-159.30105781834,374.15324890682,30.082708270827,1279027.773435,1550.3093376034,2589654.260428,35.282708270827,0,0
-159.30105761374,374.20469509864,30.087138713871,1279027.773435,1550.3093376034,2589654.260428,35.287138713871,0,0
-159.30105740914,374.25614129047,30.091569156916,1279027.773435,1550.3093376034,2589654.260428,35.291569156916,0,0
-159.30105720455,374.30758748229,30.09599959996,1279027.773435,1550.3093376034,2589654.260428,35.29599959996,0,0
-159.30105699995,374.35903367412,30.100430043004,1279027.773435,1550.3093376034,2589654.260428,35.300430043004,0,0
-159.30105679536,374.41047986594,30.104860486049,1279027.773435,1550.3093376034,2589654.260428,35.304860486049,0,0
-159.30105659076,374.46192605777,30.109290929093,1279027.773435,1550.3093376034,2589654.260428,35.309290929093,0,0
-159.30105638617,374.5133722496,30.113721372137,1279027.773435,1550.3093376034,2589654.260428,35.313721372137,0,0
-159.30105618157,374.56481844142,30.118151815182,1279027.773435,1550.3093376034,2589654.260428,35.318151815182,0,0
-159.30105597697,374.61626463325,30.122582258226,1279027.773435,1550.3093376034,2589654.260428,35.322582258226,0,0
-159.30105577238,374.66771082507,30.12701270127,1279027.773435,1550.3093376034,2589654.260428,35.32701270127,0,0
-159.30105556778,374.7191570169,30.131443144314,1279027.773435,1550.3093376034,2589654.260428,35.331443144314,0,0
-159.30105536319,374.77060320873,30.135873587359,1279027.773435,1550.3093376034,2589654.260428,35.335873587359,0,0
-159.30105515859,374.82204940055,30.140304030403,1279027.773435,1550.3093376034,2589654.260428,35.340304030403,0,0
-159.30105495399,374.87349559238,30.144734473447,1279027.773435,1550.3093376034,2589654.260428,35.344734473447,0,0
-159.3010547494,374.9249417842,30.149164916492,1279027.773435,1550.3093376034,2589654.260428,35.349164916492,0,0
-159.3010545448,374.97638797603,30.153595359536,1279027.773435,1550.3093376034,2589654.260428,35.353595359536,0,0
-159.30105434021,375.02783416785,30.15802580258,1279027.773435,1550.3093376034,2589654.260428,35.35802580258,0,0
-159.30105413561,375.07928035968,30.162456245625,1279027.773435,1550.3093376034,2589654.260428,35.362456245625,0,0
-159.30105393102,375.13072655151,30.166886688669,1279027.773435,1550.3093376034,2589654.260428,35.366886688669,0,0
-159.30105372642,375.18217274333,30.171317131713,1279027.773435,1550.3093376034,2589654.260428,35.371317131713,0,0
-159.30105352182,375.23361893516,30.175747574757,1279027.773435,1550.3093376034,2589654.260428,35.375747574757,0,0
-159.30105331723,375.28506512698,30.180178017802,1279027.773435,1550.3093376034,2589654.260428,35.380178017802,0,0
-159.30105311263,375.33651131881,30.184608460846,1279027.773435,1550.3093376034,2589654.260428,35.384608460846,0,0
-159.30105290804,375.38795751064,30.18903890389,1279027.773435,1550.3093376034,2589654.260428,35.38903890389,0,0
-159.30105270344,375.43940370246,30.193469346935,1279027.773435,1550.3093376034,2589654.260428,35.393469346935,0,0
-159.30105249885,375.49084989429,30.197899789979,1279027.773435,1550.3093376034,2589654.260428,35.397899789979,0,0
-159.30105229425,375.54229608611,30.202330233023,1279027.773435,1550.3093376034,2589654.260428,35.402330233023,0,0
-159.30105208965,375.59374227794,30.206760676068,1279027.773435,1550.3093376034,2589654.260428,35.406760676068,0,0
-159.30105188506,375.64518846976,30.211191119112,1279027.773435,1550.3093376034,2589654.260428,35.411191119112,0,0
-159.30105168046,375.69663466159,30.215621562156,1279027.773435,1550.3093376034,2589654.260428,35.415621562156,0,0
-159.30105147587,375.74808085342,30.220052005201,1279027.773435,1550.3093376034,2589654.260428,35.420052005201,0,0
-159.30105127127,375.79952704524,30.224482448245,1279027.773435,1550.3093376034,2589654.260428,35.424482448245,0,0
-159.30105106667,375.85097323707,30.228912891289,1279027.773435,1550.3093376034,2589654.260428,35.428912891289,0,0
-159.30105086208,375.90241942889,30.233343334333,1279027.773435,1550.3093376034,2589654.260428,35.433343334333,0,0
-159.30105065748,375.95386562072,30.237773777378,1279027.773435,1550.3093376034,2589654.260428,35.437773777378,0,0
-159.30105045289,376.00531181255,30.242204220422,1279027.773435,1550.3093376034,2589654.260428,35.442204220422,0,0
-159.30105024829,376.05675800437,30.246634663466,1279027.773435,1550.3093376034,2589654.260428,35.446634663466,0,0
-159.3010500437,376.1082041962,30.251065106511,1279027.773435,1550.3093376034,2589654.260428,35.451065106511,0,0
-159.3010498391,376.15965038802,30.255495549555,1279027.773435,1550.3093376034,2589654.260428,35.455495549555,0,0
-159.3010496345,376.21109657985,30.259925992599,1279027.773435,1550.3093376034,2589654.260428,35.459925992599,0,0
-159.30104942991,376.26254277167,30.264356435644,1279027.773435,1550.3093376034,2589654.260428,35.464356435644,0,0
-159.30104922531,376.3139889635,30.268786878688,1279027.773435,1550.3093376034,2589654.260428,35.468786878688,0,0
-159.30104902072,376.36543515533,30.273217321732,1279027.773435,1550.3093376034,2589654.260428,35.473217321732,0,0
-159.30104881612,376.41688134715,30.277647764776,1279027.773435,1550.3093376034,2589654.260428,35.477647764776,0,0
-159.30104861153,376.46832753898,30.282078207821,1279027.773435,1550.3093376034,2589654.260428,35.482078207821,0,0
-159.30104840693,376.5197737308,30.286508650865,1279027.773435,1550.3093376034,2589654.260428,35.486508650865,0,0
-159.30104820233,376.57121992263,30.290939093909,1279027.773435,1550.3093376034,2589654.260428,35.490939093909,0,0
-159.30104799774,376.62266611446,30.295369536954,1279027.773435,1550.3093376034,2589654.260428,35.495369536954,0,0
-159.30104779314,376.67411230628,30.299799979998,1279027.773435,1550.3093376034,2589654.260428,35.499799979998,0,0
-159.30104758855,376.72555849811,30.304230423042,1279027.773435,1550.3093376034,2589654.260428,35.504230423042,0,0
-159.30104738395,376.77700468993,30.308660866087,1279027.773435,1550.3093376034,2589654.260428,35.508660866087,0,0
-159.30104717935,376.82845088176,30.313091309131,1279027.773435,1550.3093376034,2589654.260428,35.513091309131,0,0
-159.30104697476,376.87989707358,30.317521752175,1279027.773435,1550.3093376034,2589654.260428,35.517521752175,0,0
-159.30104677016,376.93134326541,30.32195219522,1279027.773435,1550.3093376034,2589654.260428,35.52195219522,0,0
-159.30104656557,376.98278945724,30.326382638264,1279027.773435,1550.3093376034,2589654.260428,35.526382638264,0,0
-159.30104636097,377.03423564906,30.330813081308,1279027.773435,1550.3093376034,2589654.260428,35.530813081308,0,0
-159.30104615638,377.08568184089,30.335243524352,1279027.773435,1550.3093376034,2589654.260428,35.535243524352,0,0
-159.30104595178,377.13712803271,30.339673967397,1279027.773435,1550.3093376034,2589654.260428,35.539673967397,0,0
-159.30104574718,377.18857422454,30.344104410441,1279027.773435,1550.3093376034,2589654.260428,35.544104410441,0,0
-159.30104554259,377.24002041637,30.348534853485,1279027.773435,1550.3093376034,2589654.260428,35.548534853485,0,0
-159.30104533799,377.29146660819,30.35296529653,1279027.773435,1550.3093376034,2589654.260428,35.55296529653,0,0
-159.3010451334,377.34291280002,30.357395739574,1279027.773435,1550.3093376034,2589654.260428,35.557395739574,0,0
-159.3010449288,377.39435899184,30.361826182618,1279027.773435,1550.3093376034,2589654.260428,35.561826182618,0,0
-159.30104472421,377.44580518367,30.366256625663,1279027.773435,1550.3093376034,2589654.260428,35.566256625663,0,0
-159.30104451961,377.4972513755,30.370687068707,1279027.773435,1550.3093376034,2589654.260428,35.570687068707,0,0
-159.30104431501,377.54869756732,30.375117511751,1279027.773435,1550.3093376034,2589654.260428,35.575117511751,0,0
-159.30104411042,377.60014375915,30.379547954795,1279027.773435,1550.3093376034,2589654.260428,35.579547954795,0,0
-159.30104390582,377.65158995097,30.38397839784,1279027.773435,1550.3093376034,2589654.260428,35.58397839784,0,0
-159.30104370123,377.7030361428,30.388408840884,1279027.773435,1550.3093376034,2589654.260428,35.588408840884,0,0
-159.30104349663,377.75448233462,30.392839283928,1279027.773435,1550.3093376034,2589654.260428,35.592839283928,0,0
-159.30104329204,377.80592852645,30.397269726973,1279027.773435,1550.3093376034,2589654.260428,35.597269726973,0,0
-159.30104308744,377.85737471828,30.401700170017,1279027.773435,1550.3093376034,2589654.260428,35.601700170017,0,0
-159.30104288284,377.9088209101,30.406130613061,1279027.773435,1550.3093376034,2589654.260428,35.606130613061,0,0
-159.30104267825,377.96026710193,30.410561056106,1279027.773435,1550.3093376034,2589654.260428,35.610561056106,0,0
-159.30104247365,378.01171329375,30.41499149915,1279027.773435,1550.3093376034,2589654.260428,35.61499149915,0,0
-159.30104226906,378.06315948558,30.419421942194,1279027.773435,1550.3093376034,2589654.260428,35.619421942194,0,0
-159.30104206446,378.11460567741,30.423852385239,1279027.773435,1550.3093376034,2589654.260428,35.623852385239,0,0
-159.30104185986,378.16605186923,30.428282828283,1279027.773435,1550.3093376034,2589654.260428,35.628282828283,0,0
-159.30104165527,378.21749806106,30.432713271327,1279027.773435,1550.3093376034,2589654.260428,35.632713271327,0,0
-159.30104145067,378.26894425288,30.437143714371,1279027.773435,1550.3093376034,2589654.260428,35.637143714371,0,0
-159.30104124608,378.32039044471,30.441574157416,1279027.773435,1550.3093376034,2589654.260428,35.641574157416,0,0
-159.30104104148,378.37183663653,30.44600460046,1279027.773435,1550.3093376034,2589654.260428,35.64600460046,0,0
-159.30104083689,378.42328282836,30.450435043504,1279027.773435,1550.3093376034,2589654.260428,35.650435043504,0,0
-159.30104063229,378.47472902019,30.454865486549,1279027.773435,1550.3093376034,2589654.260428,35.654865486549,0,0
-159.30104042769,378.52617521201,30.459295929593,1279027.773435,1550.3093376034,2589654.260428,35.659295929593,0,0
-159.3010402231,378.57762140384,30.463726372637,1279027.773435,1550.3093376034,2589654.260428,35.663726372637,0,0
-159.3010400185,378.62906759566,30.468156815682,1279027.773435,1550.3093376034,2589654.260428,35.668156815682,0,0
-159.30103981391,378.68051378749,30.472587258726,1279027.773435,1550.3093376034,2589654.260428,35.672587258726,0,0
-159.30103960931,378.73195997932,30.47701770177,1279027.773435,1550.3093376034,2589654.260428,35.67701770177,0,0
-159.30103940472,378.78340617114,30.481448144814,1279027.773435,1550.3093376034,2589654.260428,35.681448144814,0,0
-159.30103920012,378.83485236297,30.485878587859,1279027.773435,1550.3093376034,2589654.260428,35.685878587859,0,0
-159.30103899552,378.88629855479,30.490309030903,1279027.773435,1550.3093376034,2589654.260428,35.690309030903,0,0
-159.30103879093,378.93774474662,30.494739473947,1279027.773435,1550.3093376034,2589654.260428,35.694739473947,0,0
-159.30103858633,378.98919093844,30.499169916992,1279027.773435,1550.3093376034,2589654.260428,35.699169916992,0,0
-159.30103838174,379.04063713027,30.503600360036,1279027.773435,1550.3093376034,2589654.260428,35.703600360036,0,0
-159.30103817714,379.0920833221,30.50803080308,1279027.773435,1550.3093376034,2589654.260428,35.70803080308,0,0
-159.30103797254,379.14352951392,30.512461246125,1279027.773435,1550.3093376034,2589654.260428,35.712461246125,0,0
-159.30103776795,379.19497570575,30.516891689169,1279027.773435,1550.3093376034,2589654.260428,35.716891689169,0,0
-159.30103756335,379.24642189757,30.521322132213,1279027.773435,1550.3093376034,2589654.260428,35.721322132213,0,0
-159.30103735876,379.2978680894,30.525752575258,1279027.773435,1550.3093376034,2589654.260428,35.725752575258,0,0
-159.30103715416,379.34931428123,30.530183018302,1279027.773435,1550.3093376034,2589654.260428,35.730183018302,0,0
-159.30103694957,379.40076047305,30.534613461346,1279027.773435,1550.3093376034,2589654.260428,35.734613461346,0,0
-159.30103674497,379.45220666488,30.53904390439,1279027.773435,1550.3093376034,2589654.260428,35.73904390439,0,0
-159.30103654037,379.5036528567,30.543474347435,1279027.773435,1550.3093376034,2589654.260428,35.743474347435,0,0
-159.30103633578,379.55509904853,30.547904790479,1279027.773435,1550.3093376034,2589654.260428,35.747904790479,0,0
-159.30103613118,379.60654524035,30.552335233523,1279027.773435,1550.3093376034,2589654.260428,35.752335233523,0,0
-159.30103592659,379.65799143218,30.556765676568,1279027.773435,1550.3093376034,2589654.260428,35.756765676568,0,0
-159.30103572199,379.70943762401,30.561196119612,1279027.773435,1550.3093376034,2589654.260428,35.761196119612,0,0
-159.3010355174,379.76088381583,30.565626562656,1279027.773435,1550.3093376034,2589654.260428,35.765626562656,0,0
-159.3010353128,379.81233000766,30.570057005701,1279027.773435,1550.3093376034,2589654.260428,35.770057005701,0,0
-159.3010351082,379.86377619948,30.574487448745,1279027.773435,1550.3093376034,2589654.260428,35.774487448745,0,0
-159.30103490361,379.91522239131,30.578917891789,1279027.773435,1550.3093376034,2589654.260428,35.778917891789,0,0
-159.30103469901,379.96666858314,30.583348334833,1279027.773435,1550.3093376034,2589654.260428,35.783348334833,0,0
-159.30103449442,380.01811477496,30.587778777878,1279027.773435,1550.3093376034,2589654.260428,35.787778777878,0,0
-159.30103428982,380.06956096679,30.592209220922,1279027.773435,1550.3093376034,2589654.260428,35.792209220922,0,0
-159.30103408522,380.12100715861,30.596639663966,1279027.773435,1550.3093376034,2589654.260428,35.796639663966,0,0
-159.30103388063,380.17245335044,30.601070107011,1279027.773435,1550.3093376034,2589654.260428,35.801070107011,0,0
-159.30103367603,380.22389954226,30.605500550055,1279027.773435,1550.3093376034,2589654.260428,35.805500550055,0,0
-159.30103347144,380.27534573409,30.609930993099,1279027.773435,1550.3093376034,2589654.260428,35.809930993099,0,0
-159.30103326684,380.32679192592,30.614361436144,1279027.773435,1550.3093376034,2589654.260428,35.814361436144,0,0
-159.30103306225,380.37823811774,30.618791879188,1279027.773435,1550.3093376034,2589654.260428,35.818791879188,0,0
-159.30103285765,380.42968430957,30.623222322232,1279027.773435,1550.3093376034,2589654.260428,35.823222322232,0,0
-159.30103265305,380.48113050139,30.627652765277,1279027.773435,1550.3093376034,2589654.260428,35.827652765277,0,0
-159.30103244846,380.53257669322,30.632083208321,1279027.773435,1550.3093376034,2589654.260428,35.832083208321,0,0
-159.30103224386,380.58402288505,30.636513651365,1279027.773435,1550.3093376034,2589654.260428,35.836513651365,0,0
-159.30103203927,380.63546907687,30.640944094409,1279027.773435,1550.3093376034,2589654.260428,35.840944094409,0,0
-159.30103183467,380.6869152687,30.645374537454,1279027.773435,1550.3093376034,2589654.260428,35.845374537454,0,0
-159.30103163008,380.73836146052,30.649804980498,1279027.773435,1550.3093376034,2589654.260428,35.849804980498,0,0
-159.30103142548,380.78980765235,30.654235423542,1279027.773435,1550.3093376034,2589654.260428,35.854235423542,0,0
-159.30103122088,380.84125384417,30.658665866587,1279027.773435,1550.3093376034,2589654.260428,35.858665866587,0,0
-159.30103101629,380.892700036,30.663096309631,1279027.773435,1550.3093376034,2589654.260428,35.863096309631,0,0
-159.30103081169,380.94414622783,30.667526752675,1279027.773435,1550.3093376034,2589654.260428,35.867526752675,0,0
-159.3010306071,380.99559241965,30.67195719572,1279027.773435,1550.3093376034,2589654.260428,35.87195719572,0,0
-159.3010304025,381.04703861148,30.676387638764,1279027.773435,1550.3093376034,2589654.260428,35.876387638764,0,0
-159.30103019791,381.0984848033,30.680818081808,1279027.773435,1550.3093376034,2589654.260428,35.880818081808,0,0
-159.30102999331,381.14993099513,30.685248524852,1279027.773435,1550.3093376034,2589654.260428,35.885248524852,0,0
-159.30102978871,381.20137718696,30.689678967897,1279027.773435,1550.3093376034,2589654.260428,35.889678967897,0,0
-159.30102958412,381.25282337878,30.694109410941,1279027.773435,1550.3093376034,2589654.260428,35.894109410941,0,0
-159.30102937952,381.30426957061,30.698539853985,1279027.773435,1550.3093376034,2589654.260428,35.898539853985,0,0
-159.30102917493,381.35571576243,30.70297029703,1279027.773435,1550.3093376034,2589654.260428,35.90297029703,0,0
-159.30102897033,381.40716195426,30.707400740074,1279027.773435,1550.3093376034,2589654.260428,35.907400740074,0,0
-159.30102876573,381.45860814608,30.711831183118,1279027.773435,1550.3093376034,2589654.260428,35.911831183118,0,0
-159.30102856114,381.51005433791,30.716261626163,1279027.773435,1550.3093376034,2589654.260428,35.916261626163,0,0
-159.30102835654,381.56150052974,30.720692069207,1279027.773435,1550.3093376034,2589654.260428,35.920692069207,0,0
-159.30102815195,381.61294672156,30.725122512251,1279027.773435,1550.3093376034,2589654.260428,35.925122512251,0,0
-159.30102794735,381.66439291339,30.729552955296,1279027.773435,1550.3093376034,2589654.260428,35.929552955296,0,0
-159.30102774276,381.71583910521,30.73398339834,1279027.773435,1550.3093376034,2589654.260428,35.93398339834,0,0
-159.30102753816,381.76728529704,30.738413841384,1279027.773435,1550.3093376034,2589654.260428,35.938413841384,0,0
-159.30102733356,381.81873148887,30.742844284428,1279027.773435,1550.3093376034,2589654.260428,35.942844284428,0,0
-159.30102712897,381.87017768069,30.747274727473,1279027.773435,1550.3093376034,2589654.260428,35.947274727473,0,0
-159.30102692437,381.92162387252,30.751705170517,1279027.773435,1550.3093376034,2589654.260428,35.951705170517,0,0
-159.30102671978,381.97307006434,30.756135613561,1279027.773435,1550.3093376034,2589654.260428,35.956135613561,0,0
-159.30102651518,382.02451625617,30.760566056606,1279027.773435,1550.3093376034,2589654.260428,35.960566056606,0,0
-159.30102631059,382.07596244799,30.76499649965,1279027.773435,1550.3093376034,2589654.260428,35.96499649965,0,0
-159.30102610599,382.12740863982,30.769426942694,1279027.773435,1550.3093376034,2589654.260428,35.969426942694,0,0
-159.30102590139,382.17885483165,30.773857385739,1279027.773435,1550.3093376034,2589654.260428,35.973857385739,0,0
-159.3010256968,382.23030102347,30.778287828783,1279027.773435,1550.3093376034,2589654.260428,35.978287828783,0,0
-159.3010254922,382.2817472153,30.782718271827,1279027.773435,1550.3093376034,2589654.260428,35.982718271827,0,0
-159.30102528761,382.33319340712,30.787148714871,1279027.773435,1550.3093376034,2589654.260428,35.987148714871,0,0
-159.30102508301,382.38463959895,30.791579157916,1279027.773435,1550.3093376034,2589654.260428,35.991579157916,0,0
-159.30102487841,382.43608579078,30.79600960096,1279027.773435,1550.3093376034,2589654.260428,35.99600960096,0,0
-159.30102467382,382.4875319826,30.800440044004,1279027.773435,1550.3093376034,2589654.260428,36.000440044004,0,0
-159.30102446922,382.53897817443,30.804870487049,1279027.773435,1550.3093376034,2589654.260428,36.004870487049,0,0
-159.30102426463,382.59042436625,30.809300930093,1279027.773435,1550.3093376034,2589654.260428,36.009300930093,0,0
-159.30102406003,382.64187055808,30.813731373137,1279027.773435,1550.3093376034,2589654.260428,36.013731373137,0,0
-159.30102385544,382.69331674991,30.818161816182,1279027.773435,1550.3093376034,2589654.260428,36.018161816182,0,0
-159.30102365084,382.74476294173,30.822592259226,1279027.773435,1550.3093376034,2589654.260428,36.022592259226,0,0
-159.30102344624,382.79620913356,30.82702270227,1279027.773435,1550.3093376034,2589654.260428,36.02702270227,0,0
-159.30102324165,382.84765532538,30.831453145315,1279027.773435,1550.3093376034,2589654.260428,36.031453145315,0,0
-159.30102303705,382.89910151721,30.835883588359,1279027.773435,1550.3093376034,2589654.260428,36.035883588359,0,0
-159.30102283246,382.95054770903,30.840314031403,1279027.773435,1550.3093376034,2589654.260428,36.040314031403,0,0
-159.30102262786,383.00199390086,30.844744474447,1279027.773435,1550.3093376034,2589654.260428,36.044744474447,0,0
-159.30102242327,383.05344009269,30.849174917492,1279027.773435,1550.3093376034,2589654.260428,36.049174917492,0,0
-159.30102221867,383.10488628451,30.853605360536,1279027.773435,1550.3093376034,2589654.260428,36.053605360536,0,0
-159.30102201407,383.15633247634,30.85803580358,1279027.773435,1550.3093376034,2589654.260428,36.05803580358,0,0
-159.30102180948,383.20777866816,30.862466246625,1279027.773435,1550.3093376034,2589654.260428,36.062466246625,0,0
-159.30102160488,383.25922485999,30.866896689669,1279027.773435,1550.3093376034,2589654.260428,36.066896689669,0,0
-159.30102140029,383.31067105182,30.871327132713,1279027.773435,1550.3093376034,2589654.260428,36.071327132713,0,0
-159.30102119569,383.36211724364,30.875757575758,1279027.773435,1550.3093376034,2589654.260428,36.075757575758,0,0
-159.3010209911,383.41356343547,30.880188018802,1279027.773435,1550.3093376034,2589654.260428,36.080188018802,0,0
-159.3010207865,383.46500962729,30.884618461846,1279027.773435,1550.3093376034,2589654.260428,36.084618461846,0,0
-159.3010205819,383.51645581912,30.88904890489,1279027.773435,1550.3093376034,2589654.260428,36.08904890489,0,0
-159.30102037731,383.56790201094,30.893479347935,1279027.773435,1550.3093376034,2589654.260428,36.093479347935,0,0
-159.30102017271,383.61934820277,30.897909790979,1279027.773435,1550.3093376034,2589654.260428,36.097909790979,0,0
-159.30101996812,383.6707943946,30.902340234023,1279027.773435,1550.3093376034,2589654.260428,36.102340234023,0,0
-159.30101976352,383.72224058642,30.906770677068,1279027.773435,1550.3093376034,2589654.260428,36.106770677068,0,0
-159.30101955892,383.77368677825,30.911201120112,1279027.773435,1550.3093376034,2589654.260428,36.111201120112,0,0
-159.30101935433,383.82513297007,30.915631563156,1279027.773435,1550.3093376034,2589654.260428,36.115631563156,0,0
-159.30101914973,383.8765791619,30.920062006201,1279027.773435,1550.3093376034,2589654.260428,36.120062006201,0,0
-159.30101894514,383.92802535373,30.924492449245,1279027.773435,1550.3093376034,2589654.260428,36.124492449245,0,0
-159.30101874054,383.97947154555,30.928922892289,1279027.773435,1550.3093376034,2589654.260428,36.128922892289,0,0
-159.30101853595,384.03091773738,30.933353335334,1279027.773435,1550.3093376034,2589654.260428,36.133353335334,0,0
-159.30101833135,384.0823639292,30.937783778378,1279027.773435,1550.3093376034,2589654.260428,36.137783778378,0,0
-159.30101812675,384.13381012103,30.942214221422,1279027.773435,1550.3093376034,2589654.260428,36.142214221422,0,0
-159.30101792216,384.18525631285,30.946644664466,1279027.773435,1550.3093376034,2589654.260428,36.146644664466,0,0
-159.30101771756,384.23670250468,30.951075107511,1279027.773435,1550.3093376034,2589654.260428,36.151075107511,0,0
-159.30101751297,384.28814869651,30.955505550555,1279027.773435,1550.3093376034,2589654.260428,36.155505550555,0,0
-159.30101730837,384.33959488833,30.959935993599,1279027.773435,1550.3093376034,2589654.260428,36.159935993599,0,0
-159.30101710378,384.39104108016,30.964366436644,1279027.773435,1550.3093376034,2589654.260428,36.164366436644,0,0
-159.30101689918,384.44248727198,30.968796879688,1279027.773435,1550.3093376034,2589654.260428,36.168796879688,0,0
-159.30101669458,384.49393346381,30.973227322732,1279027.773435,1550.3093376034,2589654.260428,36.173227322732,0,0
-159.30101648999,384.54537965564,30.977657765777,1279027.773435,1550.3093376034,2589654.260428,36.177657765777,0,0
-159.30101628539,384.59682584746,30.982088208821,1279027.773435,1550.3093376034,2589654.260428,36.182088208821,0,0
-159.3010160808,384.64827203929,30.986518651865,1279027.773435,1550.3093376034,2589654.260428,36.186518651865,0,0
-159.3010158762,384.69971823111,30.990949094909,1279027.773435,1550.3093376034,2589654.260428,36.190949094909,0,0
-159.3010156716,384.75116442294,30.995379537954,1279027.773435,1550.3093376034,2589654.260428,36.195379537954,0,0
-159.30101546701,384.80261061476,30.999809980998,1279027.773435,1550.3093376034,2589654.260428,36.199809980998,0,0
-159.30101526241,384.85405680659,31.004240424042,1279027.773435,1550.3093376034,2589654.260428,36.204240424042,0,0
-159.30101505782,384.90550299842,31.008670867087,1279027.773435,1550.3093376034,2589654.260428,36.208670867087,0,0
-159.30101485322,384.95694919024,31.013101310131,1279027.773435,1550.3093376034,2589654.260428,36.213101310131,0,0
-159.30101464863,385.00839538207,31.017531753175,1279027.773435,1550.3093376034,2589654.260428,36.217531753175,0,0
-159.30101444403,385.05984157389,31.02196219622,1279027.773435,1550.3093376034,2589654.260428,36.22196219622,0,0
-159.30101423943,385.11128776572,31.026392639264,1279027.773435,1550.3093376034,2589654.260428,36.226392639264,0,0
-159.30101403484,385.16273395755,31.030823082308,1279027.773435,1550.3093376034,2589654.260428,36.230823082308,0,0
-159.30101383024,385.21418014937,31.035253525353,1279027.773435,1550.3093376034,2589654.260428,36.235253525353,0,0
-159.30101362565,385.2656263412,31.039683968397,1279027.773435,1550.3093376034,2589654.260428,36.239683968397,0,0
-159.30101342105,385.31707253302,31.044114411441,1279027.773435,1550.3093376034,2589654.260428,36.244114411441,0,0
-159.30101321646,385.36851872485,31.048544854485,1279027.773435,1550.3093376034,2589654.260428,36.248544854485,0,0
-159.30101301186,385.41996491667,31.05297529753,1279027.773435,1550.3093376034,2589654.260428,36.25297529753,0,0
-159.30101280726,385.4714111085,31.057405740574,1279027.773435,1550.3093376034,2589654.260428,36.257405740574,0,0
-159.30101260267,385.52285730033,31.061836183618,1279027.773435,1550.3093376034,2589654.260428,36.261836183618,0,0
-159.30101239807,385.57430349215,31.066266626663,1279027.773435,1550.3093376034,2589654.260428,36.266266626663,0,0
-159.30101219348,385.62574968398,31.070697069707,1279027.773435,1550.3093376034,2589654.260428,36.270697069707,0,0
-159.30101198888,385.6771958758,31.075127512751,1279027.773435,1550.3093376034,2589654.260428,36.275127512751,0,0
-159.30101178428,385.72864206763,31.079557955796,1279027.773435,1550.3093376034,2589654.260428,36.279557955796,0,0
-159.30101157969,385.78008825946,31.08398839884,1279027.773435,1550.3093376034,2589654.260428,36.28398839884,0,0
-159.30101137509,385.83153445128,31.088418841884,1279027.773435,1550.3093376034,2589654.260428,36.288418841884,0,0
-159.3010111705,385.88298064311,31.092849284928,1279027.773435,1550.3093376034,2589654.260428,36.292849284928,0,0
-159.3010109659,385.93442683493,31.097279727973,1279027.773435,1550.3093376034,2589654.260428,36.297279727973,0,0
-159.30101076131,385.98587302676,31.101710171017,1279027.773435,1550.3093376034,2589654.260428,36.301710171017,0,0
-159.30101055671,386.03731921858,31.106140614061,1279027.773435,1550.3093376034,2589654.260428,36.306140614061,0,0
-159.30101035211,386.08876541041,31.110571057106,1279027.773435,1550.3093376034,2589654.260428,36.310571057106,0,0
-159.30101014752,386.14021160224,31.11500150015,1279027.773435,1550.3093376034,2589654.260428,36.31500150015,0,0
-159.30100994292,386.19165779406,31.119431943194,1279027.773435,1550.3093376034,2589654.260428,36.319431943194,0,0
-159.30100973833,386.24310398589,31.123862386239,1279027.773435,1550.3093376034,2589654.260428,36.323862386239,0,0
-159.30100953373,386.29455017771,31.128292829283,1279027.773435,1550.3093376034,2589654.260428,36.328292829283,0,0
-159.30100932914,386.34599636954,31.132723272327,1279027.773435,1550.3093376034,2589654.260428,36.332723272327,0,0
-159.30100912454,386.39744256137,31.137153715372,1279027.773435,1550.3093376034,2589654.260428,36.337153715372,0,0
-159.30100891994,386.44888875319,31.141584158416,1279027.773435,1550.3093376034,2589654.260428,36.341584158416,0,0
-159.30100871535,386.50033494502,31.14601460146,1279027.773435,1550.3093376034,2589654.260428,36.34601460146,0,0
-159.30100851075,386.55178113684,31.150445044504,1279027.773435,1550.3093376034,2589654.260428,36.350445044504,0,0
-159.30100830616,386.60322732867,31.154875487549,1279027.773435,1550.3093376034,2589654.260428,36.354875487549,0,0
-159.30100810156,386.65467352049,31.159305930593,1279027.773435,1550.3093376034,2589654.260428,36.359305930593,0,0
-159.30100789697,386.70611971232,31.163736373637,1279027.773435,1550.3093376034,2589654.260428,36.363736373637,0,0
-159.30100769237,386.75756590415,31.168166816682,1279027.773435,1550.3093376034,2589654.260428,36.368166816682,0,0
-159.30100748777,386.80901209597,31.172597259726,1279027.773435,1550.3093376034,2589654.260428,36.372597259726,0,0
-159.30100728318,386.8604582878,31.17702770277,1279027.773435,1550.3093376034,2589654.260428,36.37702770277,0,0
-159.30100707858,386.91190447962,31.181458145815,1279027.773435,1550.3093376034,2589654.260428,36.381458145815,0,0
-159.30100687399,386.96335067145,31.185888588859,1279027.773435,1550.3093376034,2589654.260428,36.385888588859,0,0
-159.30100666939,387.01479686328,31.190319031903,1279027.773435,1550.3093376034,2589654.260428,36.390319031903,0,0
-159.30100646479,387.0662430551,31.194749474947,1279027.773435,1550.3093376034,2589654.260428,36.394749474947,0,0
-159.3010062602,387.11768924693,31.199179917992,1279027.773435,1550.3093376034,2589654.260428,36.399179917992,0,0
-159.3010060556,387.16913543875,31.203610361036,1279027.773435,1550.3093376034,2589654.260428,36.403610361036,0,0
-159.30100585101,387.22058163058,31.20804080408,1279027.773435,1550.3093376034,2589654.260428,36.40804080408,0,0
-159.30100564641,387.2720278224,31.212471247125,1279027.773435,1550.3093376034,2589654.260428,36.412471247125,0,0
-159.30100544182,387.32347401423,31.216901690169,1279027.773435,1550.3093376034,2589654.260428,36.416901690169,0,0
-159.30100523722,387.37492020606,31.221332133213,1279027.773435,1550.3093376034,2589654.260428,36.421332133213,0,0
-159.30100503262,387.42636639788,31.225762576258,1279027.773435,1550.3093376034,2589654.260428,36.425762576258,0,0
-159.30100482803,387.47781258971,31.230193019302,1279027.773435,1550.3093376034,2589654.260428,36.430193019302,0,0
-159.30100462343,387.52925878153,31.234623462346,1279027.773435,1550.3093376034,2589654.260428,36.434623462346,0,0
-159.30100441884,387.58070497336,31.239053905391,1279027.773435,1550.3093376034,2589654.260428,36.439053905391,0,0
-159.30100421424,387.63215116519,31.243484348435,1279027.773435,1550.3093376034,2589654.260428,36.443484348435,0,0
-159.30100400965,387.68359735701,31.247914791479,1279027.773435,1550.3093376034,2589654.260428,36.447914791479,0,0
-159.30100380505,387.73504354884,31.252345234523,1279027.773435,1550.3093376034,2589654.260428,36.452345234523,0,0
-159.30100360045,387.78648974066,31.256775677568,1279027.773435,1550.3093376034,2589654.260428,36.456775677568,0,0
-159.30100339586,387.83793593249,31.261206120612,1279027.773435,1550.3093376034,2589654.260428,36.461206120612,0,0
-159.30100319126,387.88938212431,31.265636563656,1279027.773435,1550.3093376034,2589654.260428,36.465636563656,0,0
-159.30100298667,387.94082831614,31.270067006701,1279027.773435,1550.3093376034,2589654.260428,36.470067006701,0,0
-159.30100278207,387.99227450797,31.274497449745,1279027.773435,1550.3093376034,2589654.260428,36.474497449745,0,0
-159.30100257747,388.04372069979,31.278927892789,1279027.773435,1550.3093376034,2589654.260428,36.478927892789,0,0
-159.30100237288,388.09516689162,31.283358335834,1279027.773435,1550.3093376034,2589654.260428,36.483358335834,0,0
-159.30100216828,388.14661308344,31.287788778878,1279027.773435,1550.3093376034,2589654.260428,36.487788778878,0,0
-159.30100196369,388.19805927527,31.292219221922,1279027.773435,1550.3093376034,2589654.260428,36.492219221922,0,0
-159.30100175905,388.24950546639,31.296649664966,1277971.8126918,-895.13653423693,2585090.3572285,36.496649664966,0,0
-159.30100155438,388.30095165714,31.301080108011,1277971.8126918,-895.13653423693,2585090.3572285,36.501080108011,0,0
-159.30100134972,388.3523978479,31.305510551055,1277971.8126918,-895.13653423693,2585090.3572285,36.505510551055,0,0
-159.30100114505,388.40384403865,31.309940994099,1277971.8126918,-895.13653423693,2585090.3572285,36.509940994099,0,0
-159.30100094039,388.45529022941,31.314371437144,1277971.8126918,-895.13653423693,2585090.3572285,36.514371437144,0,0
-159.30100073572,388.50673642016,31.318801880188,1277971.8126918,-895.13653423693,2585090.3572285,36.518801880188,0,0
-159.30100053106,388.55818261092,31.323232323232,1277971.8126918,-895.13653423693,2585090.3572285,36.523232323232,0,0
-159.3010003264,388.60962880167,31.327662766277,1277971.8126918,-895.13653423693,2585090.3572285,36.527662766277,0,0
-159.30100012173,388.66107499243,31.332093209321,1277971.8126918,-895.13653423693,2585090.3572285,36.532093209321,0,0
-159.30099991707,388.71252118318,31.336523652365,1277971.8126918,-895.13653423693,2585090.3572285,36.536523652365,0,0
-159.3009997124,388.76396737394,31.34095409541,1277971.8126918,-895.13653423693,2585090.3572285,36.54095409541,0,0
-159.30099950774,388.81541356469,31.345384538454,1277971.8126918,-895.13653423693,2585090.3572285,36.545384538454,0,0
-159.30099930307,388.86685975545,31.349814981498,1277971.8126918,-895.13653423693,2585090.3572285,36.549814981498,0,0
-159.30099909841,388.9183059462,31.354245424542,1277971.8126918,-895.13653423693,2585090.3572285,36.554245424542,0,0
-159.30099889374,388.96975213696,31.358675867587,1277971.8126918,-895.13653423693,2585090.3572285,36.558675867587,0,0
-159.30099868908,389.02119832771,31.363106310631,1277971.8126918,-895.13653423693,2585090.3572285,36.563106310631,0,0
-159.30099848442,389.07264451847,31.367536753675,1277971.8126918,-895.13653423693,2585090.3572285,36.567536753675,0,0
-159.30099827975,389.12409070922,31.37196719672,1277971.8126918,-895.13653423693,2585090.3572285,36.57196719672,0,0
-159.30099807509,389.17553689998,31.376397639764,1277971.8126918,-895.13653423693,2585090.3572285,36.576397639764,0,0
-159.30099787042,389.22698309073,31.380828082808,1277971.8126918,-895.13653423693,2585090.3572285,36.580828082808,0,0
-159.30099766576,389.27842928149,31.385258525853,1277971.8126918,-895.13653423693,2585090.3572285,36.585258525853,0,0
-159.30099746109,389.32987547224,31.389688968897,1277971.8126918,-895.13653423693,2585090.3572285,36.589688968897,0,0
-159.30099725643,389.381321663,31.394119411941,1277971.8126918,-895.13653423693,2585090.3572285,36.594119411941,0,0
-159.30099705176,389.43276785375,31.398549854986,1277971.8126918,-895.13653423693,2585090.3572285,36.598549854985,0,0
-159.3009968471,389.4842140445,31.40298029803,1277971.8126918,-895.13653423693,2585090.3572285,36.60298029803,0,0
-159.30099664244,389.53566023526,31.407410741074,1277971.8126918,-895.13653423693,2585090.3572285,36.607410741074,0,0
-159.30099643777,389.58710642601,31.411841184118,1277971.8126918,-895.13653423693,2585090.3572285,36.611841184118,0,0
-159.30099623311,389.63855261677,31.416271627163,1277971.8126918,-895.13653423693,2585090.3572285,36.616271627163,0,0
-159.30099602844,389.68999880752,31.420702070207,1277971.8126918,-895.13653423693,2585090.3572285,36.620702070207,0,0
-159.30099582378,389.74144499828,31.425132513251,1277971.8126918,-895.13653423693,2585090.3572285,36.625132513251,0,0
-159.30099561911,389.79289118903,31.429562956296,1277971.8126918,-895.13653423693,2585090.3572285,36.629562956296,0,0
-159.30099541445,389.84433737979,31.43399339934,1277971.8126918,-895.13653423693,2585090.3572285,36.63399339934,0,0
-159.30099520978,389.89578357054,31.438423842384,1277971.8126918,-895.13653423693,2585090.3572285,36.638423842384,0,0
-159.30099500512,389.9472297613,31.442854285429,1277971.8126918,-895.13653423693,2585090.3572285,36.642854285429,0,0
-159.30099480046,389.99867595205,31.447284728473,1277971.8126918,-895.13653423693,2585090.3572285,36.647284728473,0,0
-159.30099459579,390.05012214281,31.451715171517,1277971.8126918,-895.13653423693,2585090.3572285,36.651715171517,0,0
-159.30099439113,390.10156833356,31.456145614561,1277971.8126918,-895.13653423693,2585090.3572285,36.656145614561,0,0
-159.30099418646,390.15301452432,31.460576057606,1277971.8126918,-895.13653423693,2585090.3572285,36.660576057606,0,0
-159.3009939818,390.20446071507,31.46500650065,1277971.8126918,-895.13653423693,2585090.3572285,36.66500650065,0,0
-159.30099377713,390.25590690583,31.469436943694,1277971.8126918,-895.13653423693,2585090.3572285,36.669436943694,0,0
-159.30099357247,390.30735309658,31.473867386739,1277971.8126918,-895.13653423693,2585090.3572285,36.673867386739,0,0
-159.30099336781,390.35879928734,31.478297829783,1277971.8126918,-895.13653423693,2585090.3572285,36.678297829783,0,0
-159.30099316314,390.41024547809,31.482728272827,1277971.8126918,-895.13653423693,2585090.3572285,36.682728272827,0,0
-159.30099295848,390.46169166885,31.487158715872,1277971.8126918,-895.13653423693,2585090.3572285,36.687158715872,0,0
-159.30099275381,390.5131378596,31.491589158916,1277971.8126918,-895.13653423693,2585090.3572285,36.691589158916,0,0
-159.30099254915,390.56458405036,31.49601960196,1277971.8126918,-895.13653423693,2585090.3572285,36.69601960196,0,0
-159.30099234448,390.61603024111,31.500450045005,1277971.8126918,-895.13653423693,2585090.3572285,36.700450045005,0,0
-159.30099213982,390.66747643187,31.504880488049,1277971.8126918,-895.13653423693,2585090.3572285,36.704880488049,0,0
-159.30099193515,390.71892262262,31.509310931093,1277971.8126918,-895.13653423693,2585090.3572285,36.709310931093,0,0
-159.30099173049,390.77036881338,31.513741374137,1277971.8126918,-895.13653423693,2585090.3572285,36.713741374137,0,0
-159.30099152583,390.82181500413,31.518171817182,1277971.8126918,-895.13653423693,2585090.3572285,36.718171817182,0,0
-159.30099132116,390.87326119489,31.522602260226,1277971.8126918,-895.13653423693,2585090.3572285,36.722602260226,0,0
-159.3009911165,390.92470738564,31.52703270327,1277971.8126918,-895.13653423693,2585090.3572285,36.72703270327,0,0
-159.30099091183,390.97615357639,31.531463146315,1277971.8126918,-895.13653423693,2585090.3572285,36.731463146315,0,0
-159.30099070717,391.02759976715,31.535893589359,1277971.8126918,-895.13653423693,2585090.3572285,36.735893589359,0,0
-159.3009905025,391.0790459579,31.540324032403,1277971.8126918,-895.13653423693,2585090.3572285,36.740324032403,0,0
-159.30099029784,391.13049214866,31.544754475448,1277971.8126918,-895.13653423693,2585090.3572285,36.744754475448,0,0
-159.30099009317,391.18193833941,31.549184918492,1277971.8126918,-895.13653423693,2585090.3572285,36.749184918492,0,0
-159.30098988851,391.23338453017,31.553615361536,1277971.8126918,-895.13653423693,2585090.3572285,36.753615361536,0,0
-159.30098968385,391.28483072092,31.55804580458,1277971.8126918,-895.13653423693,2585090.3572285,36.75804580458,0,0
-159.30098947918,391.33627691168,31.562476247625,1277971.8126918,-895.13653423693,2585090.3572285,36.762476247625,0,0
-159.30098927452,391.38772310243,31.566906690669,1277971.8126918,-895.13653423693,2585090.3572285,36.766906690669,0,0
-159.30098906985,391.43916929319,31.571337133713,1277971.8126918,-895.13653423693,2585090.3572285,36.771337133713,0,0
-159.30098886519,391.49061548394,31.575767576758,1277971.8126918,-895.13653423693,2585090.3572285,36.775767576758,0,0
-159.30098866052,391.5420616747,31.580198019802,1277971.8126918,-895.13653423693,2585090.3572285,36.780198019802,0,0
-159.30098845586,391.59350786545,31.584628462846,1277971.8126918,-895.13653423693,2585090.3572285,36.784628462846,0,0
-159.30098825119,391.64495405621,31.589058905891,1277971.8126918,-895.13653423693,2585090.3572285,36.789058905891,0,0
-159.30098804653,391.69640024696,31.593489348935,1277971.8126918,-895.13653423693,2585090.3572285,36.793489348935,0,0
-159.30098784187,391.74784643772,31.597919791979,1277971.8126918,-895.13653423693,2585090.3572285,36.797919791979,0,0
-159.3009876372,391.79929262847,31.602350235024,1277971.8126918,-895.13653423693,2585090.3572285,36.802350235024,0,0
-159.30098743254,391.85073881923,31.606780678068,1277971.8126918,-895.13653423693,2585090.3572285,36.806780678068,0,0
-159.30098722787,391.90218500998,31.611211121112,1277971.8126918,-895.13653423693,2585090.3572285,36.811211121112,0,0
-159.30098702321,391.95363120074,31.615641564156,1277971.8126918,-895.13653423693,2585090.3572285,36.815641564156,0,0
-159.30098681854,392.00507739149,31.620072007201,1277971.8126918,-895.13653423693,2585090.3572285,36.820072007201,0,0
-159.30098661388,392.05652358225,31.624502450245,1277971.8126918,-895.13653423693,2585090.3572285,36.824502450245,0,0
-159.30098640921,392.107969773,31.628932893289,1277971.8126918,-895.13653423693,2585090.3572285,36.828932893289,0,0
-159.30098620455,392.15941596376,31.633363336334,1277971.8126918,-895.13653423693,2585090.3572285,36.833363336334,0,0
-159.30098599989,392.21086215451,31.637793779378,1277971.8126918,-895.13653423693,2585090.3572285,36.837793779378,0,0
-159.30098579522,392.26230834527,31.642224222422,1277971.8126918,-895.13653423693,2585090.3572285,36.842224222422,0,0
-159.30098559056,392.31375453602,31.646654665467,1277971.8126918,-895.13653423693,2585090.3572285,36.846654665467,0,0
-159.30098538589,392.36520072678,31.651085108511,1277971.8126918,-895.13653423693,2585090.3572285,36.851085108511,0,0
-159.30098518123,392.41664691753,31.655515551555,1277971.8126918,-895.13653423693,2585090.3572285,36.855515551555,0,0
-159.30098497656,392.46809310828,31.659945994599,1277971.8126918,-895.13653423693,2585090.3572285,36.859945994599,0,0
-159.3009847719,392.51953929904,31.664376437644,1277971.8126918,-895.13653423693,2585090.3572285,36.864376437644,0,0
-159.30098456723,392.57098548979,31.668806880688,1277971.8126918,-895.13653423693,2585090.3572285,36.868806880688,0,0
-159.30098436257,392.62243168055,31.673237323732,1277971.8126918,-895.13653423693,2585090.3572285,36.873237323732,0,0
-159.30098415791,392.6738778713,31.677667766777,1277971.8126918,-895.13653423693,2585090.3572285,36.877667766777,0,0
-159.30098395324,392.72532406206,31.682098209821,1277971.8126918,-895.13653423693,2585090.3572285,36.882098209821,0,0
-159.30098374858,392.77677025281,31.686528652865,1277971.8126918,-895.13653423693,2585090.3572285,36.886528652865,0,0
-159.30098354391,392.82821644357,31.69095909591,1277971.8126918,-895.13653423693,2585090.3572285,36.89095909591,0,0
-159.30098333925,392.87966263432,31.695389538954,1277971.8126918,-895.13653423693,2585090.3572285,36.895389538954,0,0
-159.30098313458,392.93110882508,31.699819981998,1277971.8126918,-895.13653423693,2585090.3572285,36.899819981998,0,0
-159.30098292992,392.98255501583,31.704250425043,1277971.8126918,-895.13653423693,2585090.3572285,36.904250425043,0,0
-159.30098272526,393.03400120659,31.708680868087,1277971.8126918,-895.13653423693,2585090.3572285,36.908680868087,0,0
-159.30098252059,393.08544739734,31.713111311131,1277971.8126918,-895.13653423693,2585090.3572285,36.913111311131,0,0
-159.30098231593,393.1368935881,31.717541754175,1277971.8126918,-895.13653423693,2585090.3572285,36.917541754175,0,0
-159.30098211126,393.18833977885,31.72197219722,1277971.8126918,-895.13653423693,2585090.3572285,36.92197219722,0,0
-159.3009819066,393.23978596961,31.726402640264,1277971.8126918,-895.13653423693,2585090.3572285,36.926402640264,0,0
-159.30098170193,393.29123216036,31.730833083308,1277971.8126918,-895.13653423693,2585090.3572285,36.930833083308,0,0
-159.30098149727,393.34267835112,31.735263526353,1277971.8126918,-895.13653423693,2585090.3572285,36.935263526353,0,0
-159.3009812926,393.39412454187,31.739693969397,1277971.8126918,-895.13653423693,2585090.3572285,36.939693969397,0,0
-159.30098108794,393.44557073263,31.744124412441,1277971.8126918,-895.13653423693,2585090.3572285,36.944124412441,0,0
-159.30098088328,393.49701692338,31.748554855486,1277971.8126918,-895.13653423693,2585090.3572285,36.948554855486,0,0
-159.30098067861,393.54846311414,31.75298529853,1277971.8126918,-895.13653423693,2585090.3572285,36.95298529853,0,0
-159.30098047395,393.59990930489,31.757415741574,1277971.8126918,-895.13653423693,2585090.3572285,36.957415741574,0,0
-159.30098026928,393.65135549565,31.761846184618,1277971.8126918,-895.13653423693,2585090.3572285,36.961846184618,0,0
-159.30098006462,393.7028016864,31.766276627663,1277971.8126918,-895.13653423693,2585090.3572285,36.966276627663,0,0
-159.30097985995,393.75424787716,31.770707070707,1277971.8126918,-895.13653423693,2585090.3572285,36.970707070707,0,0
-159.30097965529,393.80569406791,31.775137513751,1277971.8126918,-895.13653423693,2585090.3572285,36.975137513751,0,0
-159.30097945062,393.85714025866,31.779567956796,1277971.8126918,-895.13653423693,2585090.3572285,36.979567956796,0,0
-159.30097924596,393.90858644942,31.78399839984,1277971.8126918,-895.13653423693,2585090.3572285,36.98399839984,0,0
-159.3009790413,393.96003264017,31.788428842884,1277971.8126918,-895.13653423693,2585090.3572285,36.988428842884,0,0
-159.30097883663,394.01147883093,31.792859285929,1277971.8126918,-895.13653423693,2585090.3572285,36.992859285929,0,0
-159.30097863197,394.06292502168,31.797289728973,1277971.8126918,-895.13653423693,2585090.3572285,36.997289728973,0,0
-159.3009784273,394.11437121244,31.801720172017,1277971.8126918,-895.13653423693,2585090.3572285,37.001720172017,0,0
-159.30097822264,394.16581740319,31.806150615062,1277971.8126918,-895.13653423693,2585090.3572285,37.006150615062,0,0
-159.30097801797,394.21726359395,31.810581058106,1277971.8126918,-895.13653423693,2585090.3572285,37.010581058106,0,0
-159.30097781331,394.2687097847,31.81501150115,1277971.8126918,-895.13653423693,2585090.3572285,37.01501150115,0,0
-159.30097760864,394.32015597546,31.819441944194,1277971.8126918,-895.13653423693,2585090.3572285,37.019441944194,0,0
-159.30097740398,394.37160216621,31.823872387239,1277971.8126918,-895.13653423693,2585090.3572285,37.023872387239,0,0
-159.30097719932,394.42304835697,31.828302830283,1277971.8126918,-895.13653423693,2585090.3572285,37.028302830283,0,0
-159.30097699465,394.47449454772,31.832733273327,1277971.8126918,-895.13653423693,2585090.3572285,37.032733273327,0,0
-159.30097678999,394.52594073848,31.837163716372,1277971.8126918,-895.13653423693,2585090.3572285,37.037163716372,0,0
-159.30097658532,394.57738692923,31.841594159416,1277971.8126918,-895.13653423693,2585090.3572285,37.041594159416,0,0
-159.30097638066,394.62883311999,31.84602460246,1277971.8126918,-895.13653423693,2585090.3572285,37.04602460246,0,0
-159.30097617599,394.68027931074,31.850455045505,1277971.8126918,-895.13653423693,2585090.3572285,37.050455045505,0,0
-159.30097597133,394.7317255015,31.854885488549,1277971.8126918,-895.13653423693,2585090.3572285,37.054885488549,0,0
-159.30097576666,394.78317169225,31.859315931593,1277971.8126918,-895.13653423693,2585090.3572285,37.059315931593,0,0
-159.300975562,394.83461788301,31.863746374637,1277971.8126918,-895.13653423693,2585090.3572285,37.063746374637,0,0
-159.30097535734,394.88606407376,31.868176817682,1277971.8126918,-895.13653423693,2585090.3572285,37.068176817682,0,0
-159.30097515267,394.93751026452,31.872607260726,1277971.8126918,-895.13653423693,2585090.3572285,37.072607260726,0,0
-159.30097494801,394.98895645527,31.87703770377,1277971.8126918,-895.13653423693,2585090.3572285,37.07703770377,0,0
-159.30097474334,395.04040264603,31.881468146815,1277971.8126918,-895.13653423693,2585090.3572285,37.081468146815,0,0
-159.30097453868,395.09184883678,31.885898589859,1277971.8126918,-895.13653423693,2585090.3572285,37.085898589859,0,0
-159.30097433401,395.14329502754,31.890329032903,1277971.8126918,-895.13653423693,2585090.3572285,37.090329032903,0,0
-159.30097412935,395.19474121829,31.894759475948,1277971.8126918,-895.13653423693,2585090.3572285,37.094759475948,0,0
-159.30097392468,395.24618740905,31.899189918992,1277971.8126918,-895.13653423693,2585090.3572285,37.099189918992,0,0
-159.30097372002,395.2976335998,31.903620362036,1277971.8126918,-895.13653423693,2585090.3572285,37.103620362036,0,0
-159.30097351536,395.34907979055,31.908050805081,1277971.8126918,-895.13653423693,2585090.3572285,37.108050805081,0,0
-159.30097331069,395.40052598131,31.912481248125,1277971.8126918,-895.13653423693,2585090.3572285,37.112481248125,0,0
-159.30097310603,395.45197217206,31.916911691169,1277971.8126918,-895.13653423693,2585090.3572285,37.116911691169,0,0
-159.30097290136,395.50341836282,31.921342134213,1277971.8126918,-895.13653423693,2585090.3572285,37.121342134213,0,0
-159.3009726967,395.55486455357,31.925772577258,1277971.8126918,-895.13653423693,2585090.3572285,37.125772577258,0,0
-159.30097249203,395.60631074433,31.930203020302,1277971.8126918,-895.13653423693,2585090.3572285,37.130203020302,0,0
-159.30097228737,395.65775693508,31.934633463346,1277971.8126918,-895.13653423693,2585090.3572285,37.134633463346,0,0
-159.30097208271,395.70920312584,31.939063906391,1277971.8126918,-895.13653423693,2585090.3572285,37.139063906391,0,0
-159.30097187804,395.76064931659,31.943494349435,1277971.8126918,-895.13653423693,2585090.3572285,37.143494349435,0,0
-159.30097167334,395.81209550795,31.947924792479,1277069.9526823,1623.4186441344,2581214.4256878,37.147924792479,0,0
-159.30097146862,395.8635416998,31.952355235524,1277069.9526823,1623.4186441344,2581214.4256878,37.152355235524,0,0
-159.3009712639,395.91498789164,31.956785678568,1277069.9526823,1623.4186441344,2581214.4256878,37.156785678568,0,0
-159.30097105918,395.96643408349,31.961216121612,1277069.9526823,1623.4186441344,2581214.4256878,37.161216121612,0,0
-159.30097085446,396.01788027533,31.965646564656,1277069.9526823,1623.4186441344,2581214.4256878,37.165646564656,0,0
-159.30097064973,396.06932646717,31.970077007701,1277069.9526823,1623.4186441344,2581214.4256878,37.170077007701,0,0
-159.30097044501,396.12077265902,31.974507450745,1277069.9526823,1623.4186441344,2581214.4256878,37.174507450745,0,0
-159.30097024029,396.17221885086,31.978937893789,1277069.9526823,1623.4186441344,2581214.4256878,37.178937893789,0,0
-159.30097003557,396.2236650427,31.983368336834,1277069.9526823,1623.4186441344,2581214.4256878,37.183368336834,0,0
-159.30096983085,396.27511123455,31.987798779878,1277069.9526823,1623.4186441344,2581214.4256878,37.187798779878,0,0
-159.30096962613,396.32655742639,31.992229222922,1277069.9526823,1623.4186441344,2581214.4256878,37.192229222922,0,0
-159.3009694214,396.37800361824,31.996659665967,1277069.9526823,1623.4186441344,2581214.4256878,37.196659665967,0,0
-159.30096921668,396.42944981008,32.001090109011,1277069.9526823,1623.4186441344,2581214.4256878,37.201090109011,0,0
-159.30096901196,396.48089600192,32.005520552055,1277069.9526823,1623.4186441344,2581214.4256878,37.205520552055,0,0
-159.30096880724,396.53234219377,32.0099509951,1277069.9526823,1623.4186441344,2581214.4256878,37.2099509951,0,0
-159.30096860252,396.58378838561,32.014381438144,1277069.9526823,1623.4186441344,2581214.4256878,37.214381438144,0,0
-159.30096839779,396.63523457745,32.018811881188,1277069.9526823,1623.4186441344,2581214.4256878,37.218811881188,0,0
-159.30096819307,396.6866807693,32.023242324232,1277069.9526823,1623.4186441344,2581214.4256878,37.223242324232,0,0
-159.30096798835,396.73812696114,32.027672767277,1277069.9526823,1623.4186441344,2581214.4256878,37.227672767277,0,0
-159.30096778363,396.78957315298,32.032103210321,1277069.9526823,1623.4186441344,2581214.4256878,37.232103210321,0,0
-159.30096757891,396.84101934483,32.036533653365,1277069.9526823,1623.4186441344,2581214.4256878,37.236533653365,0,0
-159.30096737418,396.89246553667,32.04096409641,1277069.9526823,1623.4186441344,2581214.4256878,37.24096409641,0,0
-159.30096716946,396.94391172852,32.045394539454,1277069.9526823,1623.4186441344,2581214.4256878,37.245394539454,0,0
-159.30096696474,396.99535792036,32.049824982498,1277069.9526823,1623.4186441344,2581214.4256878,37.249824982498,0,0
-159.30096676002,397.0468041122,32.054255425543,1277069.9526823,1623.4186441344,2581214.4256878,37.254255425543,0,0
-159.3009665553,397.09825030405,32.058685868587,1277069.9526823,1623.4186441344,2581214.4256878,37.258685868587,0,0
-159.30096635057,397.14969649589,32.063116311631,1277069.9526823,1623.4186441344,2581214.4256878,37.263116311631,0,0
-159.30096614585,397.20114268773,32.067546754675,1277069.9526823,1623.4186441344,2581214.4256878,37.267546754675,0,0
-159.30096594113,397.25258887958,32.07197719772,1277069.9526823,1623.4186441344,2581214.4256878,37.27197719772,0,0
-159.30096573641,397.30403507142,32.076407640764,1277069.9526823,1623.4186441344,2581214.4256878,37.276407640764,0,0
-159.30096553169,397.35548126327,32.080838083808,1277069.9526823,1623.4186441344,2581214.4256878,37.280838083808,0,0
-159.30096532697,397.40692745511,32.085268526853,1277069.9526823,1623.4186441344,2581214.4256878,37.285268526853,0,0
-159.30096512224,397.45837364695,32.089698969897,1277069.9526823,1623.4186441344,2581214.4256878,37.289698969897,0,0
-159.30096491752,397.5098198388,32.094129412941,1277069.9526823,1623.4186441344,2581214.4256878,37.294129412941,0,0
-159.3009647128,397.56126603064,32.098559855986,1277069.9526823,1623.4186441344,2581214.4256878,37.298559855986,0,0
-159.30096450808,397.61271222248,32.10299029903,1277069.9526823,1623.4186441344,2581214.4256878,37.30299029903,0,0
-159.30096430336,397.66415841433,32.107420742074,1277069.9526823,1623.4186441344,2581214.4256878,37.307420742074,0,0
-159.30096409863,397.71560460617,32.111851185119,1277069.9526823,1623.4186441344,2581214.4256878,37.311851185119,0,0
-159.30096389391,397.76705079802,32.116281628163,1277069.9526823,1623.4186441344,2581214.4256878,37.316281628163,0,0
-159.30096368919,397.81849698986,32.120712071207,1277069.9526823,1623.4186441344,2581214.4256878,37.320712071207,0,0
-159.30096348447,397.8699431817,32.125142514251,1277069.9526823,1623.4186441344,2581214.4256878,37.325142514251,0,0
-159.30096327975,397.92138937355,32.129572957296,1277069.9526823,1623.4186441344,2581214.4256878,37.329572957296,0,0
-159.30096307502,397.97283556539,32.13400340034,1277069.9526823,1623.4186441344,2581214.4256878,37.33400340034,0,0
-159.3009628703,398.02428175723,32.138433843384,1277069.9526823,1623.4186441344,2581214.4256878,37.338433843384,0,0
-159.30096266558,398.07572794908,32.142864286429,1277069.9526823,1623.4186441344,2581214.4256878,37.342864286429,0,0
-159.30096246086,398.12717414092,32.147294729473,1277069.9526823,1623.4186441344,2581214.4256878,37.347294729473,0,0
-159.30096225614,398.17862033276,32.151725172517,1277069.9526823,1623.4186441344,2581214.4256878,37.351725172517,0,0
-159.30096205141,398.23006652461,32.156155615562,1277069.9526823,1623.4186441344,2581214.4256878,37.356155615562,0,0
-159.30096184669,398.28151271645,32.160586058606,1277069.9526823,1623.4186441344,2581214.4256878,37.360586058606,0,0
-159.30096164197,398.3329589083,32.16501650165,1277069.9526823,1623.4186441344,2581214.4256878,37.36501650165,0,0
-159.30096143725,398.38440510014,32.169446944694,1277069.9526823,1623.4186441344,2581214.4256878,37.369446944694,0,0
-159.30096123253,398.43585129198,32.173877387739,1277069.9526823,1623.4186441344,2581214.4256878,37.373877387739,0,0
-159.3009610278,398.48729748383,32.178307830783,1277069.9526823,1623.4186441344,2581214.4256878,37.378307830783,0,0
-159.30096082308,398.53874367567,32.182738273827,1277069.9526823,1623.4186441344,2581214.4256878,37.382738273827,0,0
-159.30096061836,398.59018986751,32.187168716872,1277069.9526823,1623.4186441344,2581214.4256878,37.387168716872,0,0
-159.30096041364,398.64163605936,32.191599159916,1277069.9526823,1623.4186441344,2581214.4256878,37.391599159916,0,0
-159.30096020892,398.6930822512,32.19602960296,1277069.9526823,1623.4186441344,2581214.4256878,37.39602960296,0,0
-159.3009600042,398.74452844305,32.200460046005,1277069.9526823,1623.4186441344,2581214.4256878,37.400460046005,0,0
-159.30095979947,398.79597463489,32.204890489049,1277069.9526823,1623.4186441344,2581214.4256878,37.404890489049,0,0
-159.30095959475,398.84742082673,32.209320932093,1277069.9526823,1623.4186441344,2581214.4256878,37.409320932093,0,0
-159.30095939003,398.89886701858,32.213751375138,1277069.9526823,1623.4186441344,2581214.4256878,37.413751375138,0,0
-159.30095918531,398.95031321042,32.218181818182,1277069.9526823,1623.4186441344,2581214.4256878,37.418181818182,0,0
-159.30095898059,399.00175940226,32.222612261226,1277069.9526823,1623.4186441344,2581214.4256878,37.422612261226,0,0
-159.30095877586,399.05320559411,32.22704270427,1277069.9526823,1623.4186441344,2581214.4256878,37.42704270427,0,0
-159.30095857114,399.10465178595,32.231473147315,1277069.9526823,1623.4186441344,2581214.4256878,37.431473147315,0,0
-159.30095836642,399.15609797779,32.235903590359,1277069.9526823,1623.4186441344,2581214.4256878,37.435903590359,0,0
-159.3009581617,399.20754416964,32.240334033403,1277069.9526823,1623.4186441344,2581214.4256878,37.440334033403,0,0
-159.30095795698,399.25899036148,32.244764476448,1277069.9526823,1623.4186441344,2581214.4256878,37.444764476448,0,0
-159.30095775225,399.31043655333,32.249194919492,1277069.9526823,1623.4186441344,2581214.4256878,37.449194919492,0,0
-159.30095754753,399.36188274517,32.253625362536,1277069.9526823,1623.4186441344,2581214.4256878,37.453625362536,0,0
-159.30095734281,399.41332893701,32.258055805581,1277069.9526823,1623.4186441344,2581214.4256878,37.458055805581,0,0
-159.30095713809,399.46477512886,32.262486248625,1277069.9526823,1623.4186441344,2581214.4256878,37.462486248625,0,0
-159.30095693337,399.5162213207,32.266916691669,1277069.9526823,1623.4186441344,2581214.4256878,37.466916691669,0,0
-159.30095672864,399.56766751254,32.271347134713,1277069.9526823,1623.4186441344,2581214.4256878,37.471347134713,0,0
-159.30095652392,399.61911370439,32.275777577758,1277069.9526823,1623.4186441344,2581214.4256878,37.475777577758,0,0
-159.3009563192,399.67055989623,32.280208020802,1277069.9526823,1623.4186441344,2581214.4256878,37.480208020802,0,0
-159.30095611448,399.72200608808,32.284638463846,1277069.9526823,1623.4186441344,2581214.4256878,37.484638463846,0,0
-159.30095590976,399.77345227992,32.289068906891,1277069.9526823,1623.4186441344,2581214.4256878,37.489068906891,0,0
-159.30095570504,399.82489847176,32.293499349935,1277069.9526823,1623.4186441344,2581214.4256878,37.493499349935,0,0
-159.30095550031,399.87634466361,32.297929792979,1277069.9526823,1623.4186441344,2581214.4256878,37.497929792979,0,0
-159.30095529559,399.92779085545,32.302360236024,1277069.9526823,1623.4186441344,2581214.4256878,37.502360236024,0,0
-159.30095509087,399.97923704729,32.306790679068,1277069.9526823,1623.4186441344,2581214.4256878,37.506790679068,0,0
-159.30095488615,400.03068323914,32.311221122112,1277069.9526823,1623.4186441344,2581214.4256878,37.511221122112,0,0
-159.30095468143,400.08212943098,32.315651565157,1277069.9526823,1623.4186441344,2581214.4256878,37.515651565157,0,0
-159.3009544767,400.13357562282,32.320082008201,1277069.9526823,1623.4186441344,2581214.4256878,37.520082008201,0,0
-159.30095427198,400.18502181467,32.324512451245,1277069.9526823,1623.4186441344,2581214.4256878,37.524512451245,0,0
-159.30095406726,400.23646800651,32.328942894289,1277069.9526823,1623.4186441344,2581214.4256878,37.528942894289,0,0
-159.30095386254,400.28791419836,32.333373337334,1277069.9526823,1623.4186441344,2581214.4256878,37.533373337334,0,0
-159.30095365782,400.3393603902,32.337803780378,1277069.9526823,1623.4186441344,2581214.4256878,37.537803780378,0,0
-159.30095345309,400.39080658204,32.342234223422,1277069.9526823,1623.4186441344,2581214.4256878,37.542234223422,0,0
-159.30095324837,400.44225277389,32.346664666467,1277069.9526823,1623.4186441344,2581214.4256878,37.546664666467,0,0
-159.30095304365,400.49369896573,32.351095109511,1277069.9526823,1623.4186441344,2581214.4256878,37.551095109511,0,0
-159.30095283893,400.54514515757,32.355525552555,1277069.9526823,1623.4186441344,2581214.4256878,37.555525552555,0,0
-159.30095263421,400.59659134942,32.3599559956,1277069.9526823,1623.4186441344,2581214.4256878,37.5599559956,0,0
-159.30095242948,400.64803754126,32.364386438644,1277069.9526823,1623.4186441344,2581214.4256878,37.564386438644,0,0
-159.30095222476,400.69948373311,32.368816881688,1277069.9526823,1623.4186441344,2581214.4256878,37.568816881688,0,0
-159.30095202004,400.75092992495,32.373247324732,1277069.9526823,1623.4186441344,2581214.4256878,37.573247324732,0,0
-159.30095181532,400.80237611679,32.377677767777,1277069.9526823,1623.4186441344,2581214.4256878,37.577677767777,0,0
-159.3009516106,400.85382230864,32.382108210821,1277069.9526823,1623.4186441344,2581214.4256878,37.582108210821,0,0
-159.30095140587,400.90526850048,32.386538653865,1277069.9526823,1623.4186441344,2581214.4256878,37.586538653865,0,0
-159.30095120115,400.95671469232,32.39096909691,1277069.9526823,1623.4186441344,2581214.4256878,37.59096909691,0,0
-159.30095099643,401.00816088417,32.395399539954,1277069.9526823,1623.4186441344,2581214.4256878,37.595399539954,0,0
-159.30095079171,401.05960707601,32.399829982998,1277069.9526823,1623.4186441344,2581214.4256878,37.599829982998,0,0
-159.30095058699,401.11105326785,32.404260426043,1277069.9526823,1623.4186441344,2581214.4256878,37.604260426043,0,0
-159.30095038227,401.1624994597,32.408690869087,1277069.9526823,1623.4186441344,2581214.4256878,37.608690869087,0,0
-159.30095017754,401.21394565154,32.413121312131,1277069.9526823,1623.4186441344,2581214.4256878,37.613121312131,0,0
-159.30094997282,401.26539184339,32.417551755176,1277069.9526823,1623.4186441344,2581214.4256878,37.617551755176,0,0
-159.3009497681,401.31683803523,32.42198219822,1277069.9526823,1623.4186441344,2581214.4256878,37.62198219822,0,0
-159.30094956338,401.36828422707,32.426412641264,1277069.9526823,1623.4186441344,2581214.4256878,37.626412641264,0,0
-159.30094935866,401.41973041892,32.430843084308,1277069.9526823,1623.4186441344,2581214.4256878,37.630843084308,0,0
-159.30094915393,401.47117661076,32.435273527353,1277069.9526823,1623.4186441344,2581214.4256878,37.635273527353,0,0
-159.30094894921,401.5226228026,32.439703970397,1277069.9526823,1623.4186441344,2581214.4256878,37.639703970397,0,0
-159.30094874449,401.57406899445,32.444134413441,1277069.9526823,1623.4186441344,2581214.4256878,37.644134413441,0,0
-159.30094853977,401.62551518629,32.448564856486,1277069.9526823,1623.4186441344,2581214.4256878,37.648564856486,0,0
-159.30094833505,401.67696137814,32.45299529953,1277069.9526823,1623.4186441344,2581214.4256878,37.65299529953,0,0
-159.30094813032,401.72840756998,32.457425742574,1277069.9526823,1623.4186441344,2581214.4256878,37.657425742574,0,0
-159.3009479256,401.77985376182,32.461856185619,1277069.9526823,1623.4186441344,2581214.4256878,37.661856185619,0,0
-159.30094772088,401.83129995367,32.466286628663,1277069.9526823,1623.4186441344,2581214.4256878,37.666286628663,0,0
-159.30094751616,401.88274614551,32.470717071707,1277069.9526823,1623.4186441344,2581214.4256878,37.670717071707,0,0
-159.30094731144,401.93419233735,32.475147514751,1277069.9526823,1623.4186441344,2581214.4256878,37.675147514751,0,0
-159.30094710671,401.9856385292,32.479577957796,1277069.9526823,1623.4186441344,2581214.4256878,37.679577957796,0,0
-159.30094690199,402.03708472104,32.48400840084,1277069.9526823,1623.4186441344,2581214.4256878,37.68400840084,0,0
-159.30094669727,402.08853091289,32.488438843884,1277069.9526823,1623.4186441344,2581214.4256878,37.688438843884,0,0
-159.30094649255,402.13997710473,32.492869286929,1277069.9526823,1623.4186441344,2581214.4256878,37.692869286929,0,0
-159.30094628783,402.19142329657,32.497299729973,1277069.9526823,1623.4186441344,2581214.4256878,37.697299729973,0,0
-159.30094608311,402.24286948842,32.501730173017,1277069.9526823,1623.4186441344,2581214.4256878,37.701730173017,0,0
-159.30094587838,402.29431568026,32.506160616062,1277069.9526823,1623.4186441344,2581214.4256878,37.706160616062,0,0
-159.30094567366,402.3457618721,32.510591059106,1277069.9526823,1623.4186441344,2581214.4256878,37.710591059106,0,0
-159.30094546894,402.39720806395,32.51502150215,1277069.9526823,1623.4186441344,2581214.4256878,37.71502150215,0,0
-159.30094526422,402.44865425579,32.519451945195,1277069.9526823,1623.4186441344,2581214.4256878,37.719451945195,0,0
-159.3009450595,402.50010044763,32.523882388239,1277069.9526823,1623.4186441344,2581214.4256878,37.723882388239,0,0
-159.30094485477,402.55154663948,32.528312831283,1277069.9526823,1623.4186441344,2581214.4256878,37.728312831283,0,0
-159.30094465005,402.60299283132,32.532743274327,1277069.9526823,1623.4186441344,2581214.4256878,37.732743274327,0,0
-159.30094444533,402.65443902317,32.537173717372,1277069.9526823,1623.4186441344,2581214.4256878,37.737173717372,0,0
-159.30094424061,402.70588521501,32.541604160416,1277069.9526823,1623.4186441344,2581214.4256878,37.741604160416,0,0
-159.30094403589,402.75733140685,32.54603460346,1277069.9526823,1623.4186441344,2581214.4256878,37.74603460346,0,0
-159.30094383116,402.8087775987,32.550465046505,1277069.9526823,1623.4186441344,2581214.4256878,37.750465046505,0,0
-159.30094362644,402.86022379054,32.554895489549,1277069.9526823,1623.4186441344,2581214.4256878,37.754895489549,0,0
-159.30094342172,402.91166998238,32.559325932593,1277069.9526823,1623.4186441344,2581214.4256878,37.759325932593,0,0
-159.300943217,402.96311617423,32.563756375638,1277069.9526823,1623.4186441344,2581214.4256878,37.763756375638,0,0
-159.30094301228,403.01456236607,32.568186818682,1277069.9526823,1623.4186441344,2581214.4256878,37.768186818682,0,0
-159.30094280755,403.06600855792,32.572617261726,1277069.9526823,1623.4186441344,2581214.4256878,37.772617261726,0,0
-159.30094260283,403.11745474976,32.57704770477,1277069.9526823,1623.4186441344,2581214.4256878,37.77704770477,0,0
-159.30094239811,403.1689009416,32.581478147815,1277069.9526823,1623.4186441344,2581214.4256878,37.781478147815,0,0
-159.30094219339,403.22034713345,32.585908590859,1277069.9526823,1623.4186441344,2581214.4256878,37.785908590859,0,0
-159.30094198867,403.27179332529,32.590339033903,1277069.9526823,1623.4186441344,2581214.4256878,37.790339033903,0,0
-159.30094178395,403.32323951713,32.594769476948,1277069.9526823,1623.4186441344,2581214.4256878,37.794769476948,0,0
-159.30094157922,403.37468570898,32.599199919992,1277069.9526823,1623.4186441344,2581214.4256878,37.799199919992,0,0
-159.3009413745,403.42613190082,32.603630363036,1277069.9526823,1623.4186441344,2581214.4256878,37.803630363036,0,0
-159.30094116978,403.47757809266,32.608060806081,1277069.9526823,1623.4186441344,2581214.4256878,37.808060806081,0,0
-159.30094096506,403.52902428451,32.612491249125,1277069.9526823,1623.4186441344,2581214.4256878,37.812491249125,0,0
-159.30094076034,403.58047047635,32.616921692169,1277069.9526823,1623.4186441344,2581214.4256878,37.816921692169,0,0
-159.30094055561,403.6319166682,32.621352135214,1277069.9526823,1623.4186441344,2581214.4256878,37.821352135214,0,0
-159.30094035089,403.68336286004,32.625782578258,1277069.9526823,1623.4186441344,2581214.4256878,37.825782578258,0,0
-159.30094014617,403.73480905188,32.630213021302,1277069.9526823,1623.4186441344,2581214.4256878,37.830213021302,0,0
-159.30093994145,403.78625524373,32.634643464346,1277069.9526823,1623.4186441344,2581214.4256878,37.834643464346,0,0
-159.30093973673,403.83770143557,32.639073907391,1277069.9526823,1623.4186441344,2581214.4256878,37.839073907391,0,0
-159.300939532,403.88914762741,32.643504350435,1277069.9526823,1623.4186441344,2581214.4256878,37.843504350435,0,0
-159.30093932728,403.94059381926,32.647934793479,1277069.9526823,1623.4186441344,2581214.4256878,37.847934793479,0,0
-159.30093912256,403.9920400111,32.652365236524,1277069.9526823,1623.4186441344,2581214.4256878,37.852365236524,0,0
-159.30093891784,404.04348620295,32.656795679568,1277069.9526823,1623.4186441344,2581214.4256878,37.856795679568,0,0
-159.30093871312,404.09493239479,32.661226122612,1277069.9526823,1623.4186441344,2581214.4256878,37.861226122612,0,0
-159.30093850839,404.14637858663,32.665656565657,1277069.9526823,1623.4186441344,2581214.4256878,37.865656565657,0,0
-159.30093830367,404.19782477848,32.670087008701,1277069.9526823,1623.4186441344,2581214.4256878,37.870087008701,0,0
-159.30093809895,404.24927097032,32.674517451745,1277069.9526823,1623.4186441344,2581214.4256878,37.874517451745,0,0
-159.30093789423,404.30071716216,32.678947894789,1277069.9526823,1623.4186441344,2581214.4256878,37.878947894789,0,0
-159.30093768951,404.35216335401,32.683378337834,1277069.9526823,1623.4186441344,2581214.4256878,37.883378337834,0,0
-159.30093748478,404.40360954585,32.687808780878,1277069.9526823,1623.4186441344,2581214.4256878,37.887808780878,0,0
-159.30093728006,404.45505573769,32.692239223922,1277069.9526823,1623.4186441344,2581214.4256878,37.892239223922,0,0
-159.30093707534,404.50650192954,32.696669666967,1277069.9526823,1623.4186441344,2581214.4256878,37.896669666967,0,0
-159.30093687062,404.55794812138,32.701100110011,1277069.9526823,1623.4186441344,2581214.4256878,37.901100110011,0,0
-159.3009366659,404.60939431323,32.705530553055,1277069.9526823,1623.4186441344,2581214.4256878,37.905530553055,0,0
-159.30093646118,404.66084050507,32.7099609961,1277069.9526823,1623.4186441344,2581214.4256878,37.9099609961,0,0
-159.30093625645,404.71228669691,32.714391439144,1277069.9526823,1623.4186441344,2581214.4256878,37.914391439144,0,0
-159.30093605173,404.76373288876,32.718821882188,1277069.9526823,1623.4186441344,2581214.4256878,37.918821882188,0,0
-159.30093584701,404.8151790806,32.723252325233,1277069.9526823,1623.4186441344,2581214.4256878,37.923252325233,0,0
-159.30093564229,404.86662527244,32.727682768277,1277069.9526823,1623.4186441344,2581214.4256878,37.927682768277,0,0
-159.30093543757,404.91807146429,32.732113211321,1277069.9526823,1623.4186441344,2581214.4256878,37.932113211321,0,0
-159.30093523284,404.96951765613,32.736543654365,1277069.9526823,1623.4186441344,2581214.4256878,37.936543654365,0,0
-159.30093502812,405.02096384798,32.74097409741,1277069.9526823,1623.4186441344,2581214.4256878,37.94097409741,0,0
-159.3009348234,405.07241003982,32.745404540454,1277069.9526823,1623.4186441344,2581214.4256878,37.945404540454,0,0
-159.30093461868,405.12385623166,32.749834983498,1277069.9526823,1623.4186441344,2581214.4256878,37.949834983498,0,0
-159.30093441396,405.17530242351,32.754265426543,1277069.9526823,1623.4186441344,2581214.4256878,37.954265426543,0,0
-159.30093420923,405.22674861535,32.758695869587,1277069.9526823,1623.4186441344,2581214.4256878,37.958695869587,0,0
-159.30093400451,405.27819480719,32.763126312631,1277069.9526823,1623.4186441344,2581214.4256878,37.963126312631,0,0
-159.30093379979,405.32964099904,32.767556755676,1277069.9526823,1623.4186441344,2581214.4256878,37.967556755676,0,0
-159.30093359507,405.38108719088,32.77198719872,1277069.9526823,1623.4186441344,2581214.4256878,37.97198719872,0,0
-159.30093339035,405.43253338272,32.776417641764,1277069.9526823,1623.4186441344,2581214.4256878,37.976417641764,0,0
-159.30093318562,405.48397957457,32.780848084808,1277069.9526823,1623.4186441344,2581214.4256878,37.980848084808,0,0
-159.3009329809,405.53542576641,32.785278527853,1277069.9526823,1623.4186441344,2581214.4256878,37.985278527853,0,0
-159.30093277618,405.58687195826,32.789708970897,1277069.9526823,1623.4186441344,2581214.4256878,37.989708970897,0,0
-159.30093257146,405.6383181501,32.794139413941,1277069.9526823,1623.4186441344,2581214.4256878,37.994139413941,0,0
-159.30093236674,405.68976434194,32.798569856986,1277069.9526823,1623.4186441344,2581214.4256878,37.998569856986,0,0
-159.30093216202,405.74121053379,32.80300030003,1277069.9526823,1623.4186441344,2581214.4256878,38.00300030003,0,0
-159.30093195729,405.79265672563,32.807430743074,1277069.9526823,1623.4186441344,2581214.4256878,38.007430743074,0,0
-159.30093175257,405.84410291747,32.811861186119,1277069.9526823,1623.4186441344,2581214.4256878,38.011861186119,0,0
-159.30093154785,405.89554910932,32.816291629163,1277069.9526823,1623.4186441344,2581214.4256878,38.016291629163,0,0
-159.30093134313,405.94699530116,32.820722072207,1277069.9526823,1623.4186441344,2581214.4256878,38.020722072207,0,0
-159.30093113841,405.99844149301,32.825152515252,1277069.9526823,1623.4186441344,2581214.4256878,38.025152515252,0,0
-159.30093093368,406.04988768485,32.829582958296,1277069.9526823,1623.4186441344,2581214.4256878,38.029582958296,0,0
-159.30093072896,406.10133387669,32.83401340134,1277069.9526823,1623.4186441344,2581214.4256878,38.03401340134,0,0
-159.30093052424,406.15278006854,32.838443844384,1277069.9526823,1623.4186441344,2581214.4256878,38.038443844384,0,0
-159.30093031952,406.20422626038,32.842874287429,1277069.9526823,1623.4186441344,2581214.4256878,38.042874287429,0,0
-159.3009301148,406.25567245222,32.847304730473,1277069.9526823,1623.4186441344,2581214.4256878,38.047304730473,0,0
-159.30092991007,406.30711864407,32.851735173517,1277069.9526823,1623.4186441344,2581214.4256878,38.051735173517,0,0
-159.30092970535,406.35856483591,32.856165616562,1277069.9526823,1623.4186441344,2581214.4256878,38.056165616562,0,0
-159.30092950063,406.41001102775,32.860596059606,1277069.9526823,1623.4186441344,2581214.4256878,38.060596059606,0,0
-159.30092929591,406.4614572196,32.86502650265,1277069.9526823,1623.4186441344,2581214.4256878,38.06502650265,0,0
-159.30092909119,406.51290341144,32.869456945695,1277069.9526823,1623.4186441344,2581214.4256878,38.069456945695,0,0
-159.30092888646,406.56434960329,32.873887388739,1277069.9526823,1623.4186441344,2581214.4256878,38.073887388739,0,0
-159.30092868174,406.61579579513,32.878317831783,1277069.9526823,1623.4186441344,2581214.4256878,38.078317831783,0,0
-159.30092847702,406.66724198697,32.882748274827,1277069.9526823,1623.4186441344,2581214.4256878,38.082748274827,0,0
-159.3009282723,406.71868817882,32.887178717872,1277069.9526823,1623.4186441344,2581214.4256878,38.087178717872,0,0
-159.30092806758,406.77013437066,32.891609160916,1277069.9526823,1623.4186441344,2581214.4256878,38.091609160916,0,0
-159.30092786286,406.8215805625,32.89603960396,1277069.9526823,1623.4186441344,2581214.4256878,38.09603960396,0,0
-159.30092765813,406.87302675435,32.900470047005,1277069.9526823,1623.4186441344,2581214.4256878,38.100470047005,0,0
-159.30092745341,406.92447294619,32.904900490049,1277069.9526823,1623.4186441344,2581214.4256878,38.104900490049,0,0
-159.30092724869,406.97591913804,32.909330933093,1277069.9526823,1623.4186441344,2581214.4256878,38.109330933093,0,0
-159.30092704397,407.02736532988,32.913761376138,1277069.9526823,1623.4186441344,2581214.4256878,38.113761376138,0,0
-159.30092683925,407.07881152172,32.918191819182,1277069.9526823,1623.4186441344,2581214.4256878,38.118191819182,0,0
-159.30092663452,407.13025771357,32.922622262226,1277069.9526823,1623.4186441344,2581214.4256878,38.122622262226,0,0
-159.3009264298,407.18170390541,32.927052705271,1277069.9526823,1623.4186441344,2581214.4256878,38.127052705271,0,0
-159.30092622508,407.23315009725,32.931483148315,1277069.9526823,1623.4186441344,2581214.4256878,38.131483148315,0,0
-159.30092602036,407.2845962891,32.935913591359,1277069.9526823,1623.4186441344,2581214.4256878,38.135913591359,0,0
-159.30092581564,407.33604248094,32.940344034403,1277069.9526823,1623.4186441344,2581214.4256878,38.140344034403,0,0
-159.30092561091,407.38748867279,32.944774477448,1277069.9526823,1623.4186441344,2581214.4256878,38.144774477448,0,0
-159.30092540619,407.43893486463,32.949204920492,1277069.9526823,1623.4186441344,2581214.4256878,38.149204920492,0,0
-159.30092520147,407.49038105647,32.953635363536,1277069.9526823,1623.4186441344,2581214.4256878,38.153635363536,0,0
-159.30092499675,407.54182724832,32.958065806581,1277069.9526823,1623.4186441344,2581214.4256878,38.158065806581,0,0
-159.30092479203,407.59327344016,32.962496249625,1277069.9526823,1623.4186441344,2581214.4256878,38.162496249625,0,0
-159.3009245873,407.644719632,32.966926692669,1277069.9526823,1623.4186441344,2581214.4256878,38.166926692669,0,0
-159.30092438258,407.69616582385,32.971357135714,1277069.9526823,1623.4186441344,2581214.4256878,38.171357135714,0,0
-159.30092417786,407.74761201569,32.975787578758,1277069.9526823,1623.4186441344,2581214.4256878,38.175787578758,0,0
-159.30092397314,407.79905820753,32.980218021802,1277069.9526823,1623.4186441344,2581214.4256878,38.180218021802,0,0
-159.30092376842,407.85050439938,32.984648464846,1277069.9526823,1623.4186441344,2581214.4256878,38.184648464846,0,0
-159.30092356369,407.90195059122,32.989078907891,1277069.9526823,1623.4186441344,2581214.4256878,38.189078907891,0,0
-159.30092335897,407.95339678307,32.993509350935,1277069.9526823,1623.4186441344,2581214.4256878,38.193509350935,0,0
-159.30092315425,408.00484297491,32.997939793979,1277069.9526823,1623.4186441344,2581214.4256878,38.197939793979,0,0
-159.30092294953,408.05628916675,33.002370237024,1277069.9526823,1623.4186441344,2581214.4256878,38.202370237024,0,0
-159.30092274481,408.1077353586,33.006800680068,1277069.9526823,1623.4186441344,2581214.4256878,38.206800680068,0,0
-159.30092254009,408.15918155044,33.011231123112,1277069.9526823,1623.4186441344,2581214.4256878,38.211231123112,0,0
-159.30092233536,408.21062774228,33.015661566157,1277069.9526823,1623.4186441344,2581214.4256878,38.215661566157,0,0
-159.30092213064,408.26207393413,33.020092009201,1277069.9526823,1623.4186441344,2581214.4256878,38.220092009201,0,0
-159.30092192592,408.31352012597,33.024522452245,1277069.9526823,1623.4186441344,2581214.4256878,38.224522452245,0,0
-159.3009217212,408.36496631782,33.02895289529,1277069.9526823,1623.4186441344,2581214.4256878,38.22895289529,0,0
-159.30092151648,408.41641250966,33.033383338334,1277069.9526823,1623.4186441344,2581214.4256878,38.233383338334,0,0
-159.30092131175,408.4678587015,33.037813781378,1277069.9526823,1623.4186441344,2581214.4256878,38.237813781378,0,0
-159.30092110703,408.51930489335,33.042244224422,1277069.9526823,1623.4186441344,2581214.4256878,38.242244224422,0,0
-159.30092090231,408.57075108519,33.046674667467,1277069.9526823,1623.4186441344,2581214.4256878,38.246674667467,0,0
-159.30092069759,408.62219727703,33.051105110511,1277069.9526823,1623.4186441344,2581214.4256878,38.251105110511,0,0
-159.30092049287,408.67364346888,33.055535553555,1277069.9526823,1623.4186441344,2581214.4256878,38.255535553555,0,0
-159.30092028814,408.72508966072,33.0599659966,1277069.9526823,1623.4186441344,2581214.4256878,38.2599659966,0,0
-159.30092008342,408.77653585256,33.064396439644,1277069.9526823,1623.4186441344,2581214.4256878,38.264396439644,0,0
-159.3009198787,408.82798204441,33.068826882688,1277069.9526823,1623.4186441344,2581214.4256878,38.268826882688,0,0
-159.30091967398,408.87942823625,33.073257325733,1277069.9526823,1623.4186441344,2581214.4256878,38.273257325733,0,0
-159.30091946926,408.9308744281,33.077687768777,1277069.9526823,1623.4186441344,2581214.4256878,38.277687768777,0,0
-159.30091926453,408.98232061994,33.082118211821,1277069.9526823,1623.4186441344,2581214.4256878,38.282118211821,0,0
-159.30091905981,409.03376681178,33.086548654865,1277069.9526823,1623.4186441344,2581214.4256878,38.286548654865,0,0
-159.30091885509,409.08521300363,33.09097909791,1277069.9526823,1623.4186441344,2581214.4256878,38.29097909791,0,0
-159.30091865037,409.13665919547,33.095409540954,1277069.9526823,1623.4186441344,2581214.4256878,38.295409540954,0,0
-159.30091844565,409.18810538731,33.099839983998,1277069.9526823,1623.4186441344,2581214.4256878,38.299839983998,0,0
-159.30091824093,409.23955157916,33.104270427043,1277069.9526823,1623.4186441344,2581214.4256878,38.304270427043,0,0
-159.3009180362,409.290997771,33.108700870087,1277069.9526823,1623.4186441344,2581214.4256878,38.308700870087,0,0
-159.30091783148,409.34244396285,33.113131313131,1277069.9526823,1623.4186441344,2581214.4256878,38.313131313131,0,0
-159.30091762676,409.39389015469,33.117561756176,1277069.9526823,1623.4186441344,2581214.4256878,38.317561756176,0,0
-159.30091742204,409.44533634653,33.12199219922,1277069.9526823,1623.4186441344,2581214.4256878,38.32199219922,0,0
-159.30091721732,409.49678253838,33.126422642264,1277069.9526823,1623.4186441344,2581214.4256878,38.326422642264,0,0
-159.30091701259,409.54822873022,33.130853085309,1277069.9526823,1623.4186441344,2581214.4256878,38.330853085309,0,0
-159.30091680787,409.59967492206,33.135283528353,1277069.9526823,1623.4186441344,2581214.4256878,38.335283528353,0,0
-159.30091660315,409.65112111391,33.139713971397,1277069.9526823,1623.4186441344,2581214.4256878,38.339713971397,0,0
-159.30091639843,409.70256730575,33.144144414441,1277069.9526823,1623.4186441344,2581214.4256878,38.344144414441,0,0
-159.30091619371,409.75401349759,33.148574857486,1277069.9526823,1623.4186441344,2581214.4256878,38.348574857486,0,0
-159.30091598898,409.80545968944,33.15300530053,1277069.9526823,1623.4186441344,2581214.4256878,38.35300530053,0,0
-159.30091578426,409.85690588128,33.157435743574,1277069.9526823,1623.4186441344,2581214.4256878,38.357435743574,0,0
-159.30091557954,409.90835207313,33.161866186619,1277069.9526823,1623.4186441344,2581214.4256878,38.361866186619,0,0
-159.30091537482,409.95979826497,33.166296629663,1277069.9526823,1623.4186441344,2581214.4256878,38.366296629663,0,0
-159.3009151701,410.01124445681,33.170727072707,1277069.9526823,1623.4186441344,2581214.4256878,38.370727072707,0,0
-159.30091496537,410.06269064866,33.175157515752,1277069.9526823,1623.4186441344,2581214.4256878,38.375157515752,0,0
-159.30091476065,410.1141368405,33.179587958796,1277069.9526823,1623.4186441344,2581214.4256878,38.379587958796,0,0
-159.30091455593,410.16558303234,33.18401840184,1277069.9526823,1623.4186441344,2581214.4256878,38.38401840184,0,0
-159.30091435121,410.21702922419,33.188448844884,1277069.9526823,1623.4186441344,2581214.4256878,38.388448844884,0,0
-159.30091414649,410.26847541603,33.192879287929,1277069.9526823,1623.4186441344,2581214.4256878,38.392879287929,0,0
-159.30091394177,410.31992160788,33.197309730973,1277069.9526823,1623.4186441344,2581214.4256878,38.397309730973,0,0
-159.30091373704,410.37136779972,33.201740174017,1277069.9526823,1623.4186441344,2581214.4256878,38.401740174017,0,0
-159.30091353232,410.42281399156,33.206170617062,1277069.9526823,1623.4186441344,2581214.4256878,38.406170617062,0,0
-159.3009133276,410.47426018341,33.210601060106,1277069.9526823,1623.4186441344,2581214.4256878,38.410601060106,0,0
-159.30091312288,410.52570637525,33.21503150315,1277069.9526823,1623.4186441344,2581214.4256878,38.41503150315,0,0
-159.30091291816,410.57715256709,33.219461946195,1277069.9526823,1623.4186441344,2581214.4256878,38.419461946195,0,0
-159.30091271343,410.62859875894,33.223892389239,1277069.9526823,1623.4186441344,2581214.4256878,38.423892389239,0,0
-159.30091250871,410.68004495078,33.228322832283,1277069.9526823,1623.4186441344,2581214.4256878,38.428322832283,0,0
-159.30091230399,410.73149114262,33.232753275328,1277069.9526823,1623.4186441344,2581214.4256878,38.432753275328,0,0
-159.30091209927,410.78293733447,33.237183718372,1277069.9526823,1623.4186441344,2581214.4256878,38.437183718372,0,0
-159.30091189455,410.83438352631,33.241614161416,1277069.9526823,1623.4186441344,2581214.4256878,38.441614161416,0,0
-159.30091168982,410.88582971816,33.24604460446,1277069.9526823,1623.4186441344,2581214.4256878,38.44604460446,0,0
-159.3009114851,410.93727591,33.250475047505,1277069.9526823,1623.4186441344,2581214.4256878,38.450475047505,0,0
-159.30091128038,410.98872210184,33.254905490549,1277069.9526823,1623.4186441344,2581214.4256878,38.454905490549,0,0
-159.30091107566,411.04016829369,33.259335933593,1277069.9526823,1623.4186441344,2581214.4256878,38.459335933593,0,0
-159.30091087094,411.09161448553,33.263766376638,1277069.9526823,1623.4186441344,2581214.4256878,38.463766376638,0,0
-159.30091066621,411.14306067737,33.268196819682,1277069.9526823,1623.4186441344,2581214.4256878,38.468196819682,0,0
-159.30091046149,411.19450686922,33.272627262726,1277069.9526823,1623.4186441344,2581214.4256878,38.472627262726,0,0
-159.30091025677,411.24595306106,33.277057705771,1277069.9526823,1623.4186441344,2581214.4256878,38.477057705771,0,0
-159.30091005205,411.29739925291,33.281488148815,1277069.9526823,1623.4186441344,2581214.4256878,38.481488148815,0,0
-159.30090984733,411.34884544475,33.285918591859,1277069.9526823,1623.4186441344,2581214.4256878,38.485918591859,0,0
-159.3009096426,411.40029163659,33.290349034903,1277069.9526823,1623.4186441344,2581214.4256878,38.490349034903,0,0
-159.30090943788,411.45173782844,33.294779477948,1277069.9526823,1623.4186441344,2581214.4256878,38.494779477948,0,0
-159.30090923316,411.50318402028,33.299209920992,1277069.9526823,1623.4186441344,2581214.4256878,38.499209920992,0,0
-159.30090902844,411.55463021212,33.303640364036,1277069.9526823,1623.4186441344,2581214.4256878,38.503640364036,0,0
-159.30090882372,411.60607640397,33.308070807081,1277069.9526823,1623.4186441344,2581214.4256878,38.508070807081,0,0
-159.300908619,411.65752259581,33.312501250125,1277069.9526823,1623.4186441344,2581214.4256878,38.512501250125,0,0
-159.30090841427,411.70896878765,33.316931693169,1277069.9526823,1623.4186441344,2581214.4256878,38.516931693169,0,0
-159.30090820955,411.7604149795,33.321362136214,1277069.9526823,1623.4186441344,2581214.4256878,38.521362136214,0,0
-159.30090800483,411.81186117134,33.325792579258,1277069.9526823,1623.4186441344,2581214.4256878,38.525792579258,0,0
-159.30090780011,411.86330736319,33.330223022302,1277069.9526823,1623.4186441344,2581214.4256878,38.530223022302,0,0
-159.30090759539,411.91475355503,33.334653465347,1277069.9526823,1623.4186441344,2581214.4256878,38.534653465347,0,0
-159.30090739066,411.96619974687,33.339083908391,1277069.9526823,1623.4186441344,2581214.4256878,38.539083908391,0,0
-159.30090718594,412.01764593872,33.343514351435,1277069.9526823,1623.4186441344,2581214.4256878,38.543514351435,0,0
-159.30090698122,412.06909213056,33.347944794479,1277069.9526823,1623.4186441344,2581214.4256878,38.547944794479,0,0
-159.3009067765,412.1205383224,33.352375237524,1277069.9526823,1623.4186441344,2581214.4256878,38.552375237524,0,0
-159.30090657178,412.17198451425,33.356805680568,1277069.9526823,1623.4186441344,2581214.4256878,38.556805680568,0,0
-159.30090636705,412.22343070609,33.361236123612,1277069.9526823,1623.4186441344,2581214.4256878,38.561236123612,0,0
-159.30090616233,412.27487689794,33.365666566657,1277069.9526823,1623.4186441344,2581214.4256878,38.565666566657,0,0
-159.30090595761,412.32632308978,33.370097009701,1277069.9526823,1623.4186441344,2581214.4256878,38.570097009701,0,0
-159.30090575289,412.37776928162,33.374527452745,1277069.9526823,1623.4186441344,2581214.4256878,38.574527452745,0,0
-159.30090554817,412.42921547347,33.37895789579,1277069.9526823,1623.4186441344,2581214.4256878,38.57895789579,0,0
-159.30090534344,412.48066166531,33.383388338834,1277069.9526823,1623.4186441344,2581214.4256878,38.583388338834,0,0
-159.30090513872,412.53210785715,33.387818781878,1277069.9526823,1623.4186441344,2581214.4256878,38.587818781878,0,0
-159.300904934,412.583554049,33.392249224922,1277069.9526823,1623.4186441344,2581214.4256878,38.592249224922,0,0
-159.30090472928,412.63500024084,33.396679667967,1277069.9526823,1623.4186441344,2581214.4256878,38.596679667967,0,0
-159.30090452456,412.68644643268,33.401110111011,1277069.9526823,1623.4186441344,2581214.4256878,38.601110111011,0,0
-159.30090431984,412.73789262453,33.405540554055,1277069.9526823,1623.4186441344,2581214.4256878,38.605540554055,0,0
-159.30090411511,412.78933881637,33.4099709971,1277069.9526823,1623.4186441344,2581214.4256878,38.6099709971,0,0
-159.30090391039,412.84078500822,33.414401440144,1277069.9526823,1623.4186441344,2581214.4256878,38.614401440144,0,0
-159.30090370567,412.89223120006,33.418831883188,1277069.9526823,1623.4186441344,2581214.4256878,38.618831883188,0,0
-159.30090350095,412.9436773919,33.423262326233,1277069.9526823,1623.4186441344,2581214.4256878,38.623262326233,0,0
-159.30090329623,412.99512358375,33.427692769277,1277069.9526823,1623.4186441344,2581214.4256878,38.627692769277,0,0
-159.3009030915,413.04656977559,33.432123212321,1277069.9526823,1623.4186441344,2581214.4256878,38.632123212321,0,0
-159.30090288678,413.09801596743,33.436553655366,1277069.9526823,1623.4186441344,2581214.4256878,38.636553655366,0,0
-159.30090268206,413.14946215928,33.44098409841,1277069.9526823,1623.4186441344,2581214.4256878,38.64098409841,0,0
-159.30090247734,413.20090835112,33.445414541454,1277069.9526823,1623.4186441344,2581214.4256878,38.645414541454,0,0
-159.30090227262,413.25235454297,33.449844984498,1277069.9526823,1623.4186441344,2581214.4256878,38.649844984498,0,0
-159.30090206789,413.30380073481,33.454275427543,1277069.9526823,1623.4186441344,2581214.4256878,38.654275427543,0,0
-159.30090186317,413.35524692665,33.458705870587,1277069.9526823,1623.4186441344,2581214.4256878,38.658705870587,0,0
-159.30090165845,413.4066931185,33.463136313631,1277069.9526823,1623.4186441344,2581214.4256878,38.663136313631,0,0
-159.30090145373,413.45813931034,33.467566756676,1277069.9526823,1623.4186441344,2581214.4256878,38.667566756676,0,0
-159.30090124901,413.50958550218,33.47199719972,1277069.9526823,1623.4186441344,2581214.4256878,38.67199719972,0,0
-159.30090104428,413.56103169403,33.476427642764,1277069.9526823,1623.4186441344,2581214.4256878,38.676427642764,0,0
-159.30090083956,413.61247788587,33.480858085809,1277069.9526823,1623.4186441344,2581214.4256878,38.680858085809,0,0
-159.30090063484,413.66392407772,33.485288528853,1277069.9526823,1623.4186441344,2581214.4256878,38.685288528853,0,0
-159.30090043012,413.71537026956,33.489718971897,1277069.9526823,1623.4186441344,2581214.4256878,38.689718971897,0,0
-159.3009002254,413.7668164614,33.494149414941,1277069.9526823,1623.4186441344,2581214.4256878,38.694149414941,0,0
-159.30090002068,413.81826265325,33.498579857986,1277069.9526823,1623.4186441344,2581214.4256878,38.698579857986,0,0
-159.30089981595,413.86970884509,33.50301030103,1277069.9526823,1623.4186441344,2581214.4256878,38.70301030103,0,0
-159.30089961123,413.92115503693,33.507440744074,1277069.9526823,1623.4186441344,2581214.4256878,38.707440744074,0,0
-159.30089940651,413.97260122878,33.511871187119,1277069.9526823,1623.4186441344,2581214.4256878,38.711871187119,0,0
-159.30089920179,414.02404742062,33.516301630163,1277069.9526823,1623.4186441344,2581214.4256878,38.716301630163,0,0
-159.30089899707,414.07549361246,33.520732073207,1277069.9526823,1623.4186441344,2581214.4256878,38.720732073207,0,0
-159.30089879234,414.12693980431,33.525162516252,1277069.9526823,1623.4186441344,2581214.4256878,38.725162516252,0,0
-159.30089858762,414.17838599615,33.529592959296,1277069.9526823,1623.4186441344,2581214.4256878,38.729592959296,0,0
-159.3008983829,414.229832188,33.53402340234,1277069.9526823,1623.4186441344,2581214.4256878,38.73402340234,0,0
-159.30089817818,414.28127837984,33.538453845385,1277069.9526823,1623.4186441344,2581214.4256878,38.738453845385,0,0
-159.30089797346,414.33272457168,33.542884288429,1277069.9526823,1623.4186441344,2581214.4256878,38.742884288429,0,0
-159.30089776873,414.38417076353,33.547314731473,1277069.9526823,1623.4186441344,2581214.4256878,38.747314731473,0,0
-159.30089756401,414.43561695537,33.551745174517,1277069.9526823,1623.4186441344,2581214.4256878,38.751745174517,0,0
-159.30089735929,414.48706314721,33.556175617562,1277069.9526823,1623.4186441344,2581214.4256878,38.756175617562,0,0
-159.30089715457,414.53850933906,33.560606060606,1277069.9526823,1623.4186441344,2581214.4256878,38.760606060606,0,0
-159.30089694985,414.5899555309,33.56503650365,1277069.9526823,1623.4186441344,2581214.4256878,38.76503650365,0,0
-159.30089674512,414.64140172275,33.569466946695,1277069.9526823,1623.4186441344,2581214.4256878,38.769466946695,0,0
-159.3008965404,414.69284791459,33.573897389739,1277069.9526823,1623.4186441344,2581214.4256878,38.773897389739,0,0
-159.30089633568,414.74429410643,33.578327832783,1277069.9526823,1623.4186441344,2581214.4256878,38.778327832783,0,0
-159.30089613096,414.79574029828,33.582758275828,1277069.9526823,1623.4186441344,2581214.4256878,38.782758275828,0,0
-159.30089592624,414.84718649012,33.587188718872,1277069.9526823,1623.4186441344,2581214.4256878,38.787188718872,0,0
-159.30089572151,414.89863268196,33.591619161916,1277069.9526823,1623.4186441344,2581214.4256878,38.791619161916,0,0
-159.30089551679,414.95007887381,33.59604960496,1277069.9526823,1623.4186441344,2581214.4256878,38.79604960496,0,0
-159.30089531207,415.00152506565,33.600480048005,1277069.9526823,1623.4186441344,2581214.4256878,38.800480048005,0,0
-159.30089510735,415.05297125749,33.604910491049,1277069.9526823,1623.4186441344,2581214.4256878,38.804910491049,0,0
-159.30089490263,415.10441744934,33.609340934093,1277069.9526823,1623.4186441344,2581214.4256878,38.809340934093,0,0
-159.30089469791,415.15586364118,33.613771377138,1277069.9526823,1623.4186441344,2581214.4256878,38.813771377138,0,0
-159.30089449318,415.20730983303,33.618201820182,1277069.9526823,1623.4186441344,2581214.4256878,38.818201820182,0,0
-159.30089428846,415.25875602487,33.622632263226,1277069.9526823,1623.4186441344,2581214.4256878,38.822632263226,0,0
-159.30089408374,415.31020221671,33.627062706271,1277069.9526823,1623.4186441344,2581214.4256878,38.827062706271,0,0
-159.30089387902,415.36164840856,33.631493149315,1277069.9526823,1623.4186441344,2581214.4256878,38.831493149315,0,0
-159.3008936743,415.4130946004,33.635923592359,1277069.9526823,1623.4186441344,2581214.4256878,38.835923592359,0,0
-159.30089346957,415.46454079224,33.640354035404,1277069.9526823,1623.4186441344,2581214.4256878,38.840354035404,0,0
-159.30089326485,415.51598698409,33.644784478448,1277069.9526823,1623.4186441344,2581214.4256878,38.844784478448,0,0
-159.30089306013,415.56743317593,33.649214921492,1277069.9526823,1623.4186441344,2581214.4256878,38.849214921492,0,0
-159.30089285541,415.61887936778,33.653645364536,1277069.9526823,1623.4186441344,2581214.4256878,38.853645364536,0,0
-159.30089265069,415.67032555962,33.658075807581,1277069.9526823,1623.4186441344,2581214.4256878,38.858075807581,0,0
-159.30089244596,415.72177175146,33.662506250625,1277069.9526823,1623.4186441344,2581214.4256878,38.862506250625,0,0
-159.30089224124,415.77321794331,33.666936693669,1277069.9526823,1623.4186441344,2581214.4256878,38.866936693669,0,0
-159.3008920365,415.82466413499,33.671367136714,1276483.2965548,-757.85990656154,2576469.3746948,38.871367136714,0,0
-159.30089183162,415.87611032574,33.675797579758,1276483.2965548,-757.85990656154,2576469.3746948,38.875797579758,0,0
-159.30089162675,415.92755651648,33.680228022802,1276483.2965548,-757.85990656154,2576469.3746948,38.880228022802,0,0
-159.30089142188,415.97900270722,33.684658465847,1276483.2965548,-757.85990656154,2576469.3746948,38.884658465847,0,0
-159.300891217,416.03044889796,33.689088908891,1276483.2965548,-757.85990656154,2576469.3746948,38.889088908891,0,0
-159.30089101213,416.08189508871,33.693519351935,1276483.2965548,-757.85990656154,2576469.3746948,38.893519351935,0,0
-159.30089080725,416.13334127945,33.697949794979,1276483.2965548,-757.85990656154,2576469.3746948,38.897949794979,0,0
-159.30089060238,416.18478747019,33.702380238024,1276483.2965548,-757.85990656154,2576469.3746948,38.902380238024,0,0
-159.3008903975,416.23623366093,33.706810681068,1276483.2965548,-757.85990656154,2576469.3746948,38.906810681068,0,0
-159.30089019263,416.28767985168,33.711241124112,1276483.2965548,-757.85990656154,2576469.3746948,38.911241124112,0,0
-159.30088998776,416.33912604242,33.715671567157,1276483.2965548,-757.85990656154,2576469.3746948,38.915671567157,0,0
-159.30088978288,416.39057223316,33.720102010201,1276483.2965548,-757.85990656154,2576469.3746948,38.920102010201,0,0
-159.30088957801,416.44201842391,33.724532453245,1276483.2965548,-757.85990656154,2576469.3746948,38.924532453245,0,0
-159.30088937313,416.49346461465,33.72896289629,1276483.2965548,-757.85990656154,2576469.3746948,38.92896289629,0,0
-159.30088916826,416.54491080539,33.733393339334,1276483.2965548,-757.85990656154,2576469.3746948,38.933393339334,0,0
-159.30088896338,416.59635699613,33.737823782378,1276483.2965548,-757.85990656154,2576469.3746948,38.937823782378,0,0
-159.30088875851,416.64780318688,33.742254225423,1276483.2965548,-757.85990656154,2576469.3746948,38.942254225423,0,0
-159.30088855364,416.69924937762,33.746684668467,1276483.2965548,-757.85990656154,2576469.3746948,38.946684668467,0,0
-159.30088834876,416.75069556836,33.751115111511,1276483.2965548,-757.85990656154,2576469.3746948,38.951115111511,0,0
-159.30088814389,416.8021417591,33.755545554555,1276483.2965548,-757.85990656154,2576469.3746948,38.955545554555,0,0
-159.30088793901,416.85358794985,33.7599759976,1276483.2965548,-757.85990656154,2576469.3746948,38.9599759976,0,0
-159.30088773414,416.90503414059,33.764406440644,1276483.2965548,-757.85990656154,2576469.3746948,38.964406440644,0,0
-159.30088752926,416.95648033133,33.768836883688,1276483.2965548,-757.85990656154,2576469.3746948,38.968836883688,0,0
-159.30088732439,417.00792652207,33.773267326733,1276483.2965548,-757.85990656154,2576469.3746948,38.973267326733,0,0
-159.30088711952,417.05937271282,33.777697769777,1276483.2965548,-757.85990656154,2576469.3746948,38.977697769777,0,0
-159.30088691464,417.11081890356,33.782128212821,1276483.2965548,-757.85990656154,2576469.3746948,38.982128212821,0,0
-159.30088670977,417.1622650943,33.786558655866,1276483.2965548,-757.85990656154,2576469.3746948,38.986558655866,0,0
-159.30088650489,417.21371128504,33.79098909891,1276483.2965548,-757.85990656154,2576469.3746948,38.99098909891,0,0
-159.30088630002,417.26515747579,33.795419541954,1276483.2965548,-757.85990656154,2576469.3746948,38.995419541954,0,0
-159.30088609514,417.31660366653,33.799849984998,1276483.2965548,-757.85990656154,2576469.3746948,38.999849984998,0,0
-159.30088589027,417.36804985727,33.804280428043,1276483.2965548,-757.85990656154,2576469.3746948,39.004280428043,0,0
-159.3008856854,417.41949604802,33.808710871087,1276483.2965548,-757.85990656154,2576469.3746948,39.008710871087,0,0
-159.30088548052,417.47094223876,33.813141314131,1276483.2965548,-757.85990656154,2576469.3746948,39.013141314131,0,0
-159.30088527565,417.5223884295,33.817571757176,1276483.2965548,-757.85990656154,2576469.3746948,39.017571757176,0,0
-159.30088507077,417.57383462024,33.82200220022,1276483.2965548,-757.85990656154,2576469.3746948,39.02200220022,0,0
-159.3008848659,417.62528081099,33.826432643264,1276483.2965548,-757.85990656154,2576469.3746948,39.026432643264,0,0
-159.30088466102,417.67672700173,33.830863086309,1276483.2965548,-757.85990656154,2576469.3746948,39.030863086309,0,0
-159.30088445615,417.72817319247,33.835293529353,1276483.2965548,-757.85990656154,2576469.3746948,39.035293529353,0,0
-159.30088425128,417.77961938321,33.839723972397,1276483.2965548,-757.85990656154,2576469.3746948,39.039723972397,0,0
-159.3008840464,417.83106557396,33.844154415442,1276483.2965548,-757.85990656154,2576469.3746948,39.044154415442,0,0
-159.30088384153,417.8825117647,33.848584858486,1276483.2965548,-757.85990656154,2576469.3746948,39.048584858486,0,0
-159.30088363665,417.93395795544,33.85301530153,1276483.2965548,-757.85990656154,2576469.3746948,39.05301530153,0,0
-159.30088343178,417.98540414618,33.857445744574,1276483.2965548,-757.85990656154,2576469.3746948,39.057445744574,0,0
-159.3008832269,418.03685033693,33.861876187619,1276483.2965548,-757.85990656154,2576469.3746948,39.061876187619,0,0
-159.30088302203,418.08829652767,33.866306630663,1276483.2965548,-757.85990656154,2576469.3746948,39.066306630663,0,0
-159.30088281716,418.13974271841,33.870737073707,1276483.2965548,-757.85990656154,2576469.3746948,39.070737073707,0,0
-159.30088261228,418.19118890915,33.875167516752,1276483.2965548,-757.85990656154,2576469.3746948,39.075167516752,0,0
-159.30088240741,418.2426350999,33.879597959796,1276483.2965548,-757.85990656154,2576469.3746948,39.079597959796,0,0
-159.30088220253,418.29408129064,33.88402840284,1276483.2965548,-757.85990656154,2576469.3746948,39.08402840284,0,0
-159.30088199766,418.34552748138,33.888458845885,1276483.2965548,-757.85990656154,2576469.3746948,39.088458845885,0,0
-159.30088179278,418.39697367212,33.892889288929,1276483.2965548,-757.85990656154,2576469.3746948,39.092889288929,0,0
-159.30088158791,418.44841986287,33.897319731973,1276483.2965548,-757.85990656154,2576469.3746948,39.097319731973,0,0
-159.30088138303,418.49986605361,33.901750175017,1276483.2965548,-757.85990656154,2576469.3746948,39.101750175018,0,0
-159.30088117816,418.55131224435,33.906180618062,1276483.2965548,-757.85990656154,2576469.3746948,39.106180618062,0,0
-159.30088097329,418.6027584351,33.910611061106,1276483.2965548,-757.85990656154,2576469.3746948,39.110611061106,0,0
-159.30088076841,418.65420462584,33.91504150415,1276483.2965548,-757.85990656154,2576469.3746948,39.11504150415,0,0
-159.30088056354,418.70565081658,33.919471947195,1276483.2965548,-757.85990656154,2576469.3746948,39.119471947195,0,0
-159.30088035866,418.75709700732,33.923902390239,1276483.2965548,-757.85990656154,2576469.3746948,39.123902390239,0,0
-159.30088015379,418.80854319807,33.928332833283,1276483.2965548,-757.85990656154,2576469.3746948,39.128332833283,0,0
-159.30087994891,418.85998938881,33.932763276328,1276483.2965548,-757.85990656154,2576469.3746948,39.132763276328,0,0
-159.30087974404,418.91143557955,33.937193719372,1276483.2965548,-757.85990656154,2576469.3746948,39.137193719372,0,0
-159.30087953917,418.96288177029,33.941624162416,1276483.2965548,-757.85990656154,2576469.3746948,39.141624162416,0,0
-159.30087933429,419.01432796104,33.946054605461,1276483.2965548,-757.85990656154,2576469.3746948,39.146054605461,0,0
-159.30087912942,419.06577415178,33.950485048505,1276483.2965548,-757.85990656154,2576469.3746948,39.150485048505,0,0
-159.30087892454,419.11722034252,33.954915491549,1276483.2965548,-757.85990656154,2576469.3746948,39.154915491549,0,0
-159.30087871967,419.16866653326,33.959345934593,1276483.2965548,-757.85990656154,2576469.3746948,39.159345934593,0,0
-159.30087851479,419.22011272401,33.963776377638,1276483.2965548,-757.85990656154,2576469.3746948,39.163776377638,0,0
-159.30087830992,419.27155891475,33.968206820682,1276483.2965548,-757.85990656154,2576469.3746948,39.168206820682,0,0
-159.30087810505,419.32300510549,33.972637263726,1276483.2965548,-757.85990656154,2576469.3746948,39.172637263726,0,0
-159.30087790017,419.37445129623,33.977067706771,1276483.2965548,-757.85990656154,2576469.3746948,39.177067706771,0,0
-159.3008776953,419.42589748698,33.981498149815,1276483.2965548,-757.85990656154,2576469.3746948,39.181498149815,0,0
-159.30087749042,419.47734367772,33.985928592859,1276483.2965548,-757.85990656154,2576469.3746948,39.185928592859,0,0
-159.30087728555,419.52878986846,33.990359035904,1276483.2965548,-757.85990656154,2576469.3746948,39.190359035904,0,0
-159.30087708067,419.5802360592,33.994789478948,1276483.2965548,-757.85990656154,2576469.3746948,39.194789478948,0,0
-159.3008768758,419.63168224995,33.999219921992,1276483.2965548,-757.85990656154,2576469.3746948,39.199219921992,0,0
-159.30087667093,419.68312844069,34.003650365036,1276483.2965548,-757.85990656154,2576469.3746948,39.203650365037,0,0
-159.30087646605,419.73457463143,34.008080808081,1276483.2965548,-757.85990656154,2576469.3746948,39.208080808081,0,0
-159.30087626118,419.78602082218,34.012511251125,1276483.2965548,-757.85990656154,2576469.3746948,39.212511251125,0,0
-159.3008760563,419.83746701292,34.016941694169,1276483.2965548,-757.85990656154,2576469.3746948,39.216941694169,0,0
-159.30087585143,419.88891320366,34.021372137214,1276483.2965548,-757.85990656154,2576469.3746948,39.221372137214,0,0
-159.30087564655,419.9403593944,34.025802580258,1276483.2965548,-757.85990656154,2576469.3746948,39.225802580258,0,0
-159.30087544168,419.99180558515,34.030233023302,1276483.2965548,-757.85990656153,2576469.3746948,39.230233023302,0,0
-159.30087523681,420.04325177589,34.034663466347,1276483.2965548,-757.85990656153,2576469.3746948,39.234663466347,0,0
-159.30087503193,420.09469796663,34.039093909391,1276483.2965548,-757.85990656153,2576469.3746948,39.239093909391,0,0
-159.30087482706,420.14614415737,34.043524352435,1276483.2965548,-757.85990656153,2576469.3746948,39.243524352435,0,0
-159.30087462218,420.19759034812,34.04795479548,1276483.2965548,-757.85990656153,2576469.3746948,39.24795479548,0,0
-159.30087441731,420.24903653886,34.052385238524,1276483.2965548,-757.85990656153,2576469.3746948,39.252385238524,0,0
-159.30087421243,420.3004827296,34.056815681568,1276483.2965548,-757.85990656153,2576469.3746948,39.256815681568,0,0
-159.30087400756,420.35192892034,34.061246124612,1276483.2965548,-757.85990656153,2576469.3746948,39.261246124612,0,0
-159.30087380269,420.40337511109,34.065676567657,1276483.2965548,-757.85990656153,2576469.3746948,39.265676567657,0,0
-159.30087359781,420.45482130183,34.070107010701,1276483.2965548,-757.85990656153,2576469.3746948,39.270107010701,0,0
-159.30087339294,420.50626749257,34.074537453745,1276483.2965548,-757.85990656153,2576469.3746948,39.274537453745,0,0
-159.30087318806,420.55771368331,34.07896789679,1276483.2965548,-757.85990656153,2576469.3746948,39.27896789679,0,0
-159.30087298319,420.60915987406,34.083398339834,1276483.2965548,-757.85990656153,2576469.3746948,39.283398339834,0,0
-159.30087277831,420.6606060648,34.087828782878,1276483.2965548,-757.85990656153,2576469.3746948,39.287828782878,0,0
-159.30087257344,420.71205225554,34.092259225923,1276483.2965548,-757.85990656153,2576469.3746948,39.292259225923,0,0
-159.30087236857,420.76349844628,34.096689668967,1276483.2965548,-757.85990656153,2576469.3746948,39.296689668967,0,0
-159.30087216369,420.81494463703,34.101120112011,1276483.2965548,-757.85990656153,2576469.3746948,39.301120112011,0,0
-159.30087195882,420.86639082777,34.105550555056,1276483.2965548,-757.85990656153,2576469.3746948,39.305550555056,0,0
-159.30087175394,420.91783701851,34.1099809981,1276483.2965548,-757.85990656153,2576469.3746948,39.3099809981,0,0
-159.30087154907,420.96928320926,34.114411441144,1276483.2965548,-757.85990656153,2576469.3746948,39.314411441144,0,0
-159.30087134419,421.0207294,34.118841884188,1276483.2965548,-757.85990656153,2576469.3746948,39.318841884188,0,0
-159.30087113932,421.07217559074,34.123272327233,1276483.2965548,-757.85990656153,2576469.3746948,39.323272327233,0,0
-159.30087093445,421.12362178148,34.127702770277,1276483.2965548,-757.85990656153,2576469.3746948,39.327702770277,0,0
-159.30087072957,421.17506797223,34.132133213321,1276483.2965548,-757.85990656153,2576469.3746948,39.332133213321,0,0
-159.3008705247,421.22651416297,34.136563656366,1276483.2965548,-757.85990656153,2576469.3746948,39.336563656366,0,0
-159.30087031982,421.27796035371,34.14099409941,1276483.2965548,-757.85990656153,2576469.3746948,39.34099409941,0,0
-159.30087011495,421.32940654445,34.145424542454,1276483.2965548,-757.85990656153,2576469.3746948,39.345424542454,0,0
-159.30086991007,421.3808527352,34.149854985499,1276483.2965548,-757.85990656153,2576469.3746948,39.349854985499,0,0
-159.3008697052,421.43229892594,34.154285428543,1276483.2965548,-757.85990656153,2576469.3746948,39.354285428543,0,0
-159.30086950033,421.48374511668,34.158715871587,1276483.2965548,-757.85990656153,2576469.3746948,39.358715871587,0,0
-159.30086929545,421.53519130742,34.163146314631,1276483.2965548,-757.85990656153,2576469.3746948,39.363146314631,0,0
-159.30086909058,421.58663749817,34.167576757676,1276483.2965548,-757.85990656153,2576469.3746948,39.367576757676,0,0
-159.3008688857,421.63808368891,34.17200720072,1276483.2965548,-757.85990656153,2576469.3746948,39.37200720072,0,0
-159.30086868083,421.68952987965,34.176437643764,1276483.2965548,-757.85990656153,2576469.3746948,39.376437643764,0,0
-159.30086847595,421.74097607039,34.180868086809,1276483.2965548,-757.85990656153,2576469.3746948,39.380868086809,0,0
-159.30086827108,421.79242226114,34.185298529853,1276483.2965548,-757.85990656153,2576469.3746948,39.385298529853,0,0
-159.3008680662,421.84386845188,34.189728972897,1276483.2965548,-757.85990656153,2576469.3746948,39.389728972897,0,0
-159.30086786133,421.89531464262,34.194159415942,1276483.2965548,-757.85990656153,2576469.3746948,39.394159415942,0,0
-159.30086765646,421.94676083337,34.198589858986,1276483.2965548,-757.85990656153,2576469.3746948,39.398589858986,0,0
-159.30086745158,421.99820702411,34.20302030203,1276483.2965548,-757.85990656153,2576469.3746948,39.40302030203,0,0
-159.30086724671,422.04965321485,34.207450745075,1276483.2965548,-757.85990656153,2576469.3746948,39.407450745075,0,0
-159.30086704183,422.10109940559,34.211881188119,1276483.2965548,-757.85990656153,2576469.3746948,39.411881188119,0,0
-159.30086683696,422.15254559634,34.216311631163,1276483.2965548,-757.85990656153,2576469.3746948,39.416311631163,0,0
-159.30086663208,422.20399178708,34.220742074207,1276483.2965548,-757.85990656153,2576469.3746948,39.420742074207,0,0
-159.30086642721,422.25543797782,34.225172517252,1276483.2965548,-757.85990656153,2576469.3746948,39.425172517252,0,0
-159.30086622234,422.30688416856,34.229602960296,1276483.2965548,-757.85990656153,2576469.3746948,39.429602960296,0,0
-159.30086601746,422.35833035931,34.23403340334,1276483.2965548,-757.85990656153,2576469.3746948,39.43403340334,0,0
-159.30086581259,422.40977655005,34.238463846385,1276483.2965548,-757.85990656153,2576469.3746948,39.438463846385,0,0
-159.30086560771,422.46122274079,34.242894289429,1276483.2965548,-757.85990656153,2576469.3746948,39.442894289429,0,0
-159.30086540284,422.51266893153,34.247324732473,1276483.2965548,-757.85990656153,2576469.3746948,39.447324732473,0,0
-159.30086519796,422.56411512228,34.251755175518,1276483.2965548,-757.85990656153,2576469.3746948,39.451755175518,0,0
-159.30086499308,422.6155613133,34.256185618562,1275551.8556043,1625.3907769962,2573003.1119889,39.456185618562,0,0
-159.30086478818,422.66700750506,34.260616061606,1275551.8556043,1625.3907769962,2573003.1119889,39.460616061606,0,0
-159.30086458327,422.71845369682,34.26504650465,1275551.8556043,1625.3907769962,2573003.1119889,39.46504650465,0,0
-159.30086437836,422.76989988858,34.269476947695,1275551.8556043,1625.3907769962,2573003.1119889,39.469476947695,0,0
-159.30086417346,422.82134608034,34.273907390739,1275551.8556043,1625.3907769962,2573003.1119889,39.473907390739,0,0
-159.30086396855,422.8727922721,34.278337833783,1275551.8556043,1625.3907769962,2573003.1119889,39.478337833783,0,0
-159.30086376365,422.92423846386,34.282768276828,1275551.8556043,1625.3907769962,2573003.1119889,39.482768276828,0,0
-159.30086355874,422.97568465562,34.287198719872,1275551.8556043,1625.3907769962,2573003.1119889,39.487198719872,0,0
-159.30086335383,423.02713084738,34.291629162916,1275551.8556043,1625.3907769962,2573003.1119889,39.491629162916,0,0
-159.30086314893,423.07857703914,34.296059605961,1275551.8556043,1625.3907769962,2573003.1119889,39.496059605961,0,0
-159.30086294402,423.1300232309,34.300490049005,1275551.8556043,1625.3907769962,2573003.1119889,39.500490049005,0,0
-159.30086273912,423.18146942266,34.304920492049,1275551.8556043,1625.3907769962,2573003.1119889,39.504920492049,0,0
-159.30086253421,423.23291561442,34.309350935094,1275551.8556043,1625.3907769962,2573003.1119889,39.509350935094,0,0
-159.3008623293,423.28436180618,34.313781378138,1275551.8556043,1625.3907769962,2573003.1119889,39.513781378138,0,0
-159.3008621244,423.33580799794,34.318211821182,1275551.8556043,1625.3907769962,2573003.1119889,39.518211821182,0,0
-159.30086191949,423.3872541897,34.322642264226,1275551.8556043,1625.3907769962,2573003.1119889,39.522642264226,0,0
-159.30086171459,423.43870038146,34.327072707271,1275551.8556043,1625.3907769962,2573003.1119889,39.527072707271,0,0
-159.30086150968,423.49014657322,34.331503150315,1275551.8556043,1625.3907769962,2573003.1119889,39.531503150315,0,0
-159.30086130477,423.54159276498,34.335933593359,1275551.8556043,1625.3907769962,2573003.1119889,39.535933593359,0,0
-159.30086109987,423.59303895674,34.340364036404,1275551.8556043,1625.3907769962,2573003.1119889,39.540364036404,0,0
-159.30086089496,423.6444851485,34.344794479448,1275551.8556043,1625.3907769962,2573003.1119889,39.544794479448,0,0
-159.30086069006,423.69593134026,34.349224922492,1275551.8556043,1625.3907769962,2573003.1119889,39.549224922492,0,0
-159.30086048515,423.74737753202,34.353655365537,1275551.8556043,1625.3907769962,2573003.1119889,39.553655365537,0,0
-159.30086028025,423.79882372378,34.358085808581,1275551.8556043,1625.3907769962,2573003.1119889,39.558085808581,0,0
-159.30086007534,423.85026991554,34.362516251625,1275551.8556043,1625.3907769962,2573003.1119889,39.562516251625,0,0
-159.30085987043,423.9017161073,34.366946694669,1275551.8556043,1625.3907769962,2573003.1119889,39.566946694669,0,0
-159.30085966553,423.95316229907,34.371377137714,1275551.8556043,1625.3907769962,2573003.1119889,39.571377137714,0,0
-159.30085946062,424.00460849083,34.375807580758,1275551.8556043,1625.3907769962,2573003.1119889,39.575807580758,0,0
-159.30085925572,424.05605468259,34.380238023802,1275551.8556043,1625.3907769962,2573003.1119889,39.580238023802,0,0
-159.30085905081,424.10750087435,34.384668466847,1275551.8556043,1625.3907769962,2573003.1119889,39.584668466847,0,0
-159.3008588459,424.15894706611,34.389098909891,1275551.8556043,1625.3907769962,2573003.1119889,39.589098909891,0,0
-159.300858641,424.21039325787,34.393529352935,1275551.8556043,1625.3907769962,2573003.1119889,39.593529352935,0,0
-159.30085843609,424.26183944963,34.39795979598,1275551.8556043,1625.3907769962,2573003.1119889,39.59795979598,0,0
-159.30085823119,424.31328564139,34.402390239024,1275551.8556043,1625.3907769962,2573003.1119889,39.602390239024,0,0
-159.30085802628,424.36473183315,34.406820682068,1275551.8556043,1625.3907769962,2573003.1119889,39.606820682068,0,0
-159.30085782137,424.41617802491,34.411251125113,1275551.8556043,1625.3907769962,2573003.1119889,39.611251125113,0,0
-159.30085761647,424.46762421667,34.415681568157,1275551.8556043,1625.3907769962,2573003.1119889,39.615681568157,0,0
-159.30085741156,424.51907040843,34.420112011201,1275551.8556043,1625.3907769962,2573003.1119889,39.620112011201,0,0
-159.30085720666,424.57051660019,34.424542454245,1275551.8556043,1625.3907769962,2573003.1119889,39.624542454245,0,0
-159.30085700175,424.62196279195,34.42897289729,1275551.8556043,1625.3907769962,2573003.1119889,39.62897289729,0,0
-159.30085679684,424.67340898371,34.433403340334,1275551.8556043,1625.3907769962,2573003.1119889,39.633403340334,0,0
-159.30085659194,424.72485517547,34.437833783378,1275551.8556043,1625.3907769962,2573003.1119889,39.637833783378,0,0
-159.30085638703,424.77630136723,34.442264226423,1275551.8556043,1625.3907769962,2573003.1119889,39.642264226423,0,0
-159.30085618213,424.82774755899,34.446694669467,1275551.8556043,1625.3907769962,2573003.1119889,39.646694669467,0,0
-159.30085597722,424.87919375075,34.451125112511,1275551.8556043,1625.3907769962,2573003.1119889,39.651125112511,0,0
-159.30085577231,424.93063994251,34.455555555556,1275551.8556043,1625.3907769962,2573003.1119889,39.655555555556,0,0
-159.30085556741,424.98208613427,34.4599859986,1275551.8556043,1625.3907769962,2573003.1119889,39.6599859986,0,0
-159.3008553625,425.03353232603,34.464416441644,1275551.8556043,1625.3907769962,2573003.1119889,39.664416441644,0,0
-159.3008551576,425.08497851779,34.468846884688,1275551.8556043,1625.3907769962,2573003.1119889,39.668846884688,0,0
-159.30085495269,425.13642470955,34.473277327733,1275551.8556043,1625.3907769962,2573003.1119889,39.673277327733,0,0
-159.30085474779,425.18787090131,34.477707770777,1275551.8556043,1625.3907769962,2573003.1119889,39.677707770777,0,0
-159.30085454288,425.23931709307,34.482138213821,1275551.8556043,1625.3907769962,2573003.1119889,39.682138213821,0,0
-159.30085433797,425.29076328483,34.486568656866,1275551.8556043,1625.3907769962,2573003.1119889,39.686568656866,0,0
-159.30085413307,425.34220947659,34.49099909991,1275551.8556043,1625.3907769962,2573003.1119889,39.69099909991,0,0
-159.30085392816,425.39365566835,34.495429542954,1275551.8556043,1625.3907769962,2573003.1119889,39.695429542954,0,0
-159.30085372326,425.44510186011,34.499859985999,1275551.8556043,1625.3907769962,2573003.1119889,39.699859985999,0,0
-159.30085351835,425.49654805187,34.504290429043,1275551.8556043,1625.3907769962,2573003.1119889,39.704290429043,0,0
-159.30085331344,425.54799424363,34.508720872087,1275551.8556043,1625.3907769962,2573003.1119889,39.708720872087,0,0
-159.30085310854,425.59944043539,34.513151315132,1275551.8556043,1625.3907769962,2573003.1119889,39.713151315132,0,0
-159.30085290363,425.65088662715,34.517581758176,1275551.8556043,1625.3907769962,2573003.1119889,39.717581758176,0,0
-159.30085269873,425.70233281891,34.52201220122,1275551.8556043,1625.3907769962,2573003.1119889,39.72201220122,0,0
-159.30085249382,425.75377901067,34.526442644264,1275551.8556043,1625.3907769962,2573003.1119889,39.726442644264,0,0
-159.30085228891,425.80522520243,34.530873087309,1275551.8556043,1625.3907769962,2573003.1119889,39.730873087309,0,0
-159.30085208401,425.85667139419,34.535303530353,1275551.8556043,1625.3907769962,2573003.1119889,39.735303530353,0,0
-159.3008518791,425.90811758595,34.539733973397,1275551.8556043,1625.3907769962,2573003.1119889,39.739733973397,0,0
-159.3008516742,425.95956377771,34.544164416442,1275551.8556043,1625.3907769962,2573003.1119889,39.744164416442,0,0
-159.30085146929,426.01100996947,34.548594859486,1275551.8556043,1625.3907769962,2573003.1119889,39.748594859486,0,0
-159.30085126438,426.06245616123,34.55302530253,1275551.8556043,1625.3907769962,2573003.1119889,39.75302530253,0,0
-159.30085105948,426.11390235299,34.557455745575,1275551.8556043,1625.3907769962,2573003.1119889,39.757455745575,0,0
-159.30085085457,426.16534854475,34.561886188619,1275551.8556043,1625.3907769962,2573003.1119889,39.761886188619,0,0
-159.30085064967,426.21679473651,34.566316631663,1275551.8556043,1625.3907769962,2573003.1119889,39.766316631663,0,0
-159.30085044476,426.26824092827,34.570747074707,1275551.8556043,1625.3907769962,2573003.1119889,39.770747074707,0,0
-159.30085023985,426.31968712003,34.575177517752,1275551.8556043,1625.3907769962,2573003.1119889,39.775177517752,0,0
-159.30085003495,426.37113331179,34.579607960796,1275551.8556043,1625.3907769962,2573003.1119889,39.779607960796,0,0
-159.30084983004,426.42257950355,34.58403840384,1275551.8556043,1625.3907769962,2573003.1119889,39.78403840384,0,0
-159.30084962514,426.47402569531,34.588468846885,1275551.8556043,1625.3907769962,2573003.1119889,39.788468846885,0,0
-159.30084942023,426.52547188707,34.592899289929,1275551.8556043,1625.3907769962,2573003.1119889,39.792899289929,0,0
-159.30084921533,426.57691807884,34.597329732973,1275551.8556043,1625.3907769962,2573003.1119889,39.797329732973,0,0
-159.30084901042,426.6283642706,34.601760176018,1275551.8556043,1625.3907769962,2573003.1119889,39.801760176018,0,0
-159.30084880551,426.67981046236,34.606190619062,1275551.8556043,1625.3907769962,2573003.1119889,39.806190619062,0,0
-159.30084860061,426.73125665412,34.610621062106,1275551.8556043,1625.3907769962,2573003.1119889,39.810621062106,0,0
-159.3008483957,426.78270284588,34.615051505151,1275551.8556043,1625.3907769962,2573003.1119889,39.815051505151,0,0
-159.3008481908,426.83414903764,34.619481948195,1275551.8556043,1625.3907769962,2573003.1119889,39.819481948195,0,0
-159.30084798589,426.8855952294,34.623912391239,1275551.8556043,1625.3907769962,2573003.1119889,39.823912391239,0,0
-159.30084778098,426.93704142116,34.628342834283,1275551.8556043,1625.3907769962,2573003.1119889,39.828342834283,0,0
-159.30084757608,426.98848761292,34.632773277328,1275551.8556043,1625.3907769962,2573003.1119889,39.832773277328,0,0
-159.30084737117,427.03993380468,34.637203720372,1275551.8556043,1625.3907769962,2573003.1119889,39.837203720372,0,0
-159.30084716627,427.09137999644,34.641634163416,1275551.8556043,1625.3907769962,2573003.1119889,39.841634163416,0,0
-159.30084696136,427.1428261882,34.646064606461,1275551.8556043,1625.3907769962,2573003.1119889,39.846064606461,0,0
-159.30084675645,427.19427237996,34.650495049505,1275551.8556043,1625.3907769962,2573003.1119889,39.850495049505,0,0
-159.30084655155,427.24571857172,34.654925492549,1275551.8556043,1625.3907769962,2573003.1119889,39.854925492549,0,0
-159.30084634664,427.29716476348,34.659355935594,1275551.8556043,1625.3907769962,2573003.1119889,39.859355935594,0,0
-159.30084614174,427.34861095524,34.663786378638,1275551.8556043,1625.3907769962,2573003.1119889,39.863786378638,0,0
-159.30084593683,427.400057147,34.668216821682,1275551.8556043,1625.3907769962,2573003.1119889,39.868216821682,0,0
-159.30084573192,427.45150333876,34.672647264726,1275551.8556043,1625.3907769962,2573003.1119889,39.872647264726,0,0
-159.30084552702,427.50294953052,34.677077707771,1275551.8556043,1625.3907769962,2573003.1119889,39.877077707771,0,0
-159.30084532211,427.55439572228,34.681508150815,1275551.8556043,1625.3907769962,2573003.1119889,39.881508150815,0,0
-159.30084511721,427.60584191404,34.685938593859,1275551.8556043,1625.3907769962,2573003.1119889,39.885938593859,0,0
-159.3008449123,427.6572881058,34.690369036904,1275551.8556043,1625.3907769962,2573003.1119889,39.890369036904,0,0
-159.3008447074,427.70873429756,34.694799479948,1275551.8556043,1625.3907769962,2573003.1119889,39.894799479948,0,0
-159.30084450249,427.76018048932,34.699229922992,1275551.8556043,1625.3907769962,2573003.1119889,39.899229922992,0,0
-159.30084429758,427.81162668108,34.703660366037,1275551.8556043,1625.3907769962,2573003.1119889,39.903660366037,0,0
-159.30084409268,427.86307287284,34.708090809081,1275551.8556043,1625.3907769962,2573003.1119889,39.908090809081,0,0
-159.30084388777,427.9145190646,34.712521252125,1275551.8556043,1625.3907769962,2573003.1119889,39.912521252125,0,0
-159.30084368287,427.96596525636,34.71695169517,1275551.8556043,1625.3907769962,2573003.1119889,39.91695169517,0,0
-159.30084347796,428.01741144812,34.721382138214,1275551.8556043,1625.3907769962,2573003.1119889,39.921382138214,0,0
-159.30084327305,428.06885763988,34.725812581258,1275551.8556043,1625.3907769962,2573003.1119889,39.925812581258,0,0
-159.30084306815,428.12030383164,34.730243024302,1275551.8556043,1625.3907769962,2573003.1119889,39.930243024302,0,0
-159.30084286324,428.1717500234,34.734673467347,1275551.8556043,1625.3907769962,2573003.1119889,39.934673467347,0,0
-159.30084265834,428.22319621516,34.739103910391,1275551.8556043,1625.3907769962,2573003.1119889,39.939103910391,0,0
-159.30084245343,428.27464240692,34.743534353435,1275551.8556043,1625.3907769962,2573003.1119889,39.943534353435,0,0
-159.30084224852,428.32608859868,34.74796479648,1275551.8556043,1625.3907769962,2573003.1119889,39.94796479648,0,0
-159.30084204362,428.37753479044,34.752395239524,1275551.8556043,1625.3907769962,2573003.1119889,39.952395239524,0,0
-159.30084183871,428.4289809822,34.756825682568,1275551.8556043,1625.3907769962,2573003.1119889,39.956825682568,0,0
-159.30084163381,428.48042717396,34.761256125613,1275551.8556043,1625.3907769962,2573003.1119889,39.961256125613,0,0
-159.3008414289,428.53187336572,34.765686568657,1275551.8556043,1625.3907769962,2573003.1119889,39.965686568657,0,0
-159.30084122399,428.58331955748,34.770117011701,1275551.8556043,1625.3907769962,2573003.1119889,39.970117011701,0,0
-159.30084101909,428.63476574924,34.774547454745,1275551.8556043,1625.3907769962,2573003.1119889,39.974547454745,0,0
-159.30084081418,428.686211941,34.77897789779,1275551.8556043,1625.3907769962,2573003.1119889,39.97897789779,0,0
-159.30084060928,428.73765813276,34.783408340834,1275551.8556043,1625.3907769962,2573003.1119889,39.983408340834,0,0
-159.30084040437,428.78910432452,34.787838783878,1275551.8556043,1625.3907769962,2573003.1119889,39.987838783878,0,0
-159.30084019946,428.84055051628,34.792269226923,1275551.8556043,1625.3907769962,2573003.1119889,39.992269226923,0,0
-159.30083999456,428.89199670804,34.796699669967,1275551.8556043,1625.3907769962,2573003.1119889,39.996699669967,0,0
-159.30083978965,428.9434428998,34.801130113011,1275551.8556043,1625.3907769962,2573003.1119889,40.001130113011,0,0
-159.30083958475,428.99488909156,34.805560556056,1275551.8556043,1625.3907769962,2573003.1119889,40.005560556056,0,0
-159.30083937984,429.04633528332,34.8099909991,1275551.8556043,1625.3907769962,2573003.1119889,40.0099909991,0,0
-159.30083917494,429.09778147508,34.814421442144,1275551.8556043,1625.3907769962,2573003.1119889,40.014421442144,0,0
-159.30083897003,429.14922766684,34.818851885189,1275551.8556043,1625.3907769962,2573003.1119889,40.018851885189,0,0
-159.30083876512,429.2006738586,34.823282328233,1275551.8556043,1625.3907769962,2573003.1119889,40.023282328233,0,0
-159.30083856022,429.25212005037,34.827712771277,1275551.8556043,1625.3907769962,2573003.1119889,40.027712771277,0,0
-159.30083835531,429.30356624213,34.832143214321,1275551.8556043,1625.3907769962,2573003.1119889,40.032143214321,0,0
-159.30083815041,429.35501243389,34.836573657366,1275551.8556043,1625.3907769962,2573003.1119889,40.036573657366,0,0
-159.3008379455,429.40645862565,34.84100410041,1275551.8556043,1625.3907769962,2573003.1119889,40.04100410041,0,0
-159.30083774059,429.45790481741,34.845434543454,1275551.8556043,1625.3907769962,2573003.1119889,40.045434543454,0,0
-159.30083753569,429.50935100917,34.849864986499,1275551.8556043,1625.3907769962,2573003.1119889,40.049864986499,0,0
-159.30083733078,429.56079720093,34.854295429543,1275551.8556043,1625.3907769962,2573003.1119889,40.054295429543,0,0
-159.30083712588,429.61224339269,34.858725872587,1275551.8556043,1625.3907769962,2573003.1119889,40.058725872587,0,0
-159.30083692097,429.66368958445,34.863156315632,1275551.8556043,1625.3907769962,2573003.1119889,40.063156315632,0,0
-159.30083671606,429.71513577621,34.867586758676,1275551.8556043,1625.3907769962,2573003.1119889,40.067586758676,0,0
-159.30083651116,429.76658196797,34.87201720172,1275551.8556043,1625.3907769962,2573003.1119889,40.07201720172,0,0
-159.30083630625,429.81802815973,34.876447644764,1275551.8556043,1625.3907769962,2573003.1119889,40.076447644764,0,0
-159.30083610135,429.86947435149,34.880878087809,1275551.8556043,1625.3907769962,2573003.1119889,40.080878087809,0,0
-159.30083589644,429.92092054325,34.885308530853,1275551.8556043,1625.3907769962,2573003.1119889,40.085308530853,0,0
-159.30083569153,429.97236673501,34.889738973897,1275551.8556043,1625.3907769962,2573003.1119889,40.089738973897,0,0
-159.30083548663,430.02381292677,34.894169416942,1275551.8556043,1625.3907769962,2573003.1119889,40.094169416942,0,0
-159.30083528172,430.07525911853,34.898599859986,1275551.8556043,1625.3907769962,2573003.1119889,40.098599859986,0,0
-159.30083507682,430.12670531029,34.90303030303,1275551.8556043,1625.3907769962,2573003.1119889,40.10303030303,0,0
-159.30083487191,430.17815150205,34.907460746075,1275551.8556043,1625.3907769962,2573003.1119889,40.107460746075,0,0
-159.300834667,430.22959769381,34.911891189119,1275551.8556043,1625.3907769962,2573003.1119889,40.111891189119,0,0
-159.3008344621,430.28104388557,34.916321632163,1275551.8556043,1625.3907769962,2573003.1119889,40.116321632163,0,0
-159.30083425719,430.33249007733,34.920752075208,1275551.8556043,1625.3907769962,2573003.1119889,40.120752075208,0,0
-159.30083405229,430.38393626909,34.925182518252,1275551.8556043,1625.3907769962,2573003.1119889,40.125182518252,0,0
-159.30083384738,430.43538246085,34.929612961296,1275551.8556043,1625.3907769962,2573003.1119889,40.129612961296,0,0
-159.30083364248,430.48682865261,34.93404340434,1275551.8556043,1625.3907769962,2573003.1119889,40.13404340434,0,0
-159.30083343757,430.53827484437,34.938473847385,1275551.8556043,1625.3907769962,2573003.1119889,40.138473847385,0,0
-159.30083323266,430.58972103613,34.942904290429,1275551.8556043,1625.3907769962,2573003.1119889,40.142904290429,0,0
-159.30083302776,430.64116722789,34.947334733473,1275551.8556043,1625.3907769962,2573003.1119889,40.147334733473,0,0
-159.30083282285,430.69261341965,34.951765176518,1275551.8556043,1625.3907769962,2573003.1119889,40.151765176518,0,0
-159.30083261795,430.74405961141,34.956195619562,1275551.8556043,1625.3907769962,2573003.1119889,40.156195619562,0,0
-159.30083241304,430.79550580317,34.960626062606,1275551.8556043,1625.3907769962,2573003.1119889,40.160626062606,0,0
-159.30083220813,430.84695199493,34.965056505651,1275551.8556043,1625.3907769962,2573003.1119889,40.165056505651,0,0
-159.30083200323,430.89839818669,34.969486948695,1275551.8556043,1625.3907769962,2573003.1119889,40.169486948695,0,0
-159.30083179832,430.94984437845,34.973917391739,1275551.8556043,1625.3907769962,2573003.1119889,40.173917391739,0,0
-159.30083159342,431.00129057021,34.978347834783,1275551.8556043,1625.3907769962,2573003.1119889,40.178347834783,0,0
-159.30083138851,431.05273676197,34.982778277828,1275551.8556043,1625.3907769962,2573003.1119889,40.182778277828,0,0
-159.3008311836,431.10418295373,34.987208720872,1275551.8556043,1625.3907769962,2573003.1119889,40.187208720872,0,0
-159.3008309787,431.15562914549,34.991639163916,1275551.8556043,1625.3907769962,2573003.1119889,40.191639163916,0,0
-159.30083077379,431.20707533725,34.996069606961,1275551.8556043,1625.3907769962,2573003.1119889,40.196069606961,0,0
-159.30083056889,431.25852152901,35.000500050005,1275551.8556043,1625.3907769962,2573003.1119889,40.200500050005,0,0
-159.30083036398,431.30996772077,35.004930493049,1275551.8556043,1625.3907769962,2573003.1119889,40.204930493049,0,0
-159.30083015907,431.36141391253,35.009360936094,1275551.8556043,1625.3907769962,2573003.1119889,40.209360936094,0,0
-159.30082995417,431.41286010429,35.013791379138,1275551.8556043,1625.3907769962,2573003.1119889,40.213791379138,0,0
-159.30082974926,431.46430629605,35.018221822182,1275551.8556043,1625.3907769962,2573003.1119889,40.218221822182,0,0
-159.30082954436,431.51575248781,35.022652265227,1275551.8556043,1625.3907769962,2573003.1119889,40.222652265227,0,0
-159.30082933945,431.56719867957,35.027082708271,1275551.8556043,1625.3907769962,2573003.1119889,40.227082708271,0,0
-159.30082913454,431.61864487133,35.031513151315,1275551.8556043,1625.3907769962,2573003.1119889,40.231513151315,0,0
-159.30082892964,431.67009106309,35.035943594359,1275551.8556043,1625.3907769962,2573003.1119889,40.235943594359,0,0
-159.30082872473,431.72153725485,35.040374037404,1275551.8556043,1625.3907769962,2573003.1119889,40.240374037404,0,0
-159.30082851983,431.77298344661,35.044804480448,1275551.8556043,1625.3907769962,2573003.1119889,40.244804480448,0,0
-159.30082831492,431.82442963837,35.049234923492,1275551.8556043,1625.3907769962,2573003.1119889,40.249234923492,0,0
-159.30082811002,431.87587583013,35.053665366537,1275551.8556043,1625.3907769962,2573003.1119889,40.253665366537,0,0
-159.30082790511,431.9273220219,35.058095809581,1275551.8556043,1625.3907769962,2573003.1119889,40.258095809581,0,0
-159.3008277002,431.97876821366,35.062526252625,1275551.8556043,1625.3907769962,2573003.1119889,40.262526252625,0,0
-159.3008274953,432.03021440542,35.06695669567,1275551.8556043,1625.3907769962,2573003.1119889,40.26695669567,0,0
-159.30082729039,432.08166059718,35.071387138714,1275551.8556043,1625.3907769962,2573003.1119889,40.271387138714,0,0
-159.30082708549,432.13310678894,35.075817581758,1275551.8556043,1625.3907769962,2573003.1119889,40.275817581758,0,0
-159.30082688058,432.1845529807,35.080248024802,1275551.8556043,1625.3907769962,2573003.1119889,40.280248024802,0,0
-159.30082667567,432.23599917246,35.084678467847,1275551.8556043,1625.3907769962,2573003.1119889,40.284678467847,0,0
-159.30082647077,432.28744536422,35.089108910891,1275551.8556043,1625.3907769962,2573003.1119889,40.289108910891,0,0
-159.30082626586,432.33889155598,35.093539353935,1275551.8556043,1625.3907769962,2573003.1119889,40.293539353935,0,0
-159.30082606096,432.39033774774,35.09796979698,1275551.8556043,1625.3907769962,2573003.1119889,40.29796979698,0,0
-159.30082585605,432.4417839395,35.102400240024,1275551.8556043,1625.3907769962,2573003.1119889,40.302400240024,0,0
-159.30082565114,432.49323013126,35.106830683068,1275551.8556043,1625.3907769962,2573003.1119889,40.306830683068,0,0
-159.30082544624,432.54467632302,35.111261126113,1275551.8556043,1625.3907769962,2573003.1119889,40.311261126113,0,0
-159.30082524133,432.59612251478,35.115691569157,1275551.8556043,1625.3907769962,2573003.1119889,40.315691569157,0,0
-159.30082503643,432.64756870654,35.120122012201,1275551.8556043,1625.3907769962,2573003.1119889,40.320122012201,0,0
-159.30082483152,432.6990148983,35.124552455246,1275551.8556043,1625.3907769962,2573003.1119889,40.324552455246,0,0
-159.30082462661,432.75046109006,35.12898289829,1275551.8556043,1625.3907769962,2573003.1119889,40.32898289829,0,0
-159.30082442171,432.80190728182,35.133413341334,1275551.8556043,1625.3907769962,2573003.1119889,40.333413341334,0,0
-159.3008242168,432.85335347358,35.137843784378,1275551.8556043,1625.3907769962,2573003.1119889,40.337843784378,0,0
-159.3008240119,432.90479966534,35.142274227423,1275551.8556043,1625.3907769962,2573003.1119889,40.342274227423,0,0
-159.30082380699,432.9562458571,35.146704670467,1275551.8556043,1625.3907769962,2573003.1119889,40.346704670467,0,0
-159.30082360208,433.00769204886,35.151135113511,1275551.8556043,1625.3907769962,2573003.1119889,40.351135113511,0,0
-159.30082339718,433.05913824062,35.155565556556,1275551.8556043,1625.3907769962,2573003.1119889,40.355565556556,0,0
-159.30082319227,433.11058443238,35.1599959996,1275551.8556043,1625.3907769962,2573003.1119889,40.3599959996,0,0
-159.30082298737,433.16203062414,35.164426442644,1275551.8556043,1625.3907769962,2573003.1119889,40.364426442644,0,0
-159.30082278246,433.2134768159,35.168856885689,1275551.8556043,1625.3907769962,2573003.1119889,40.368856885689,0,0
-159.30082257756,433.26492300766,35.173287328733,1275551.8556043,1625.3907769962,2573003.1119889,40.373287328733,0,0
-159.30082237265,433.31636919942,35.177717771777,1275551.8556043,1625.3907769962,2573003.1119889,40.377717771777,0,0
-159.30082216774,433.36781539118,35.182148214821,1275551.8556043,1625.3907769962,2573003.1119889,40.382148214821,0,0
-159.30082196284,433.41926158294,35.186578657866,1275551.8556043,1625.3907769962,2573003.1119889,40.386578657866,0,0
-159.30082175793,433.4707077747,35.19100910091,1275551.8556043,1625.3907769962,2573003.1119889,40.39100910091,0,0
-159.30082155303,433.52215396646,35.195439543954,1275551.8556043,1625.3907769962,2573003.1119889,40.395439543954,0,0
-159.30082134812,433.57360015822,35.199869986999,1275551.8556043,1625.3907769962,2573003.1119889,40.399869986999,0,0
-159.30082114321,433.62504634998,35.204300430043,1275551.8556043,1625.3907769962,2573003.1119889,40.404300430043,0,0
-159.30082093831,433.67649254174,35.208730873087,1275551.8556043,1625.3907769962,2573003.1119889,40.408730873087,0,0
-159.3008207334,433.7279387335,35.213161316132,1275551.8556043,1625.3907769962,2573003.1119889,40.413161316132,0,0
-159.3008205285,433.77938492526,35.217591759176,1275551.8556043,1625.3907769962,2573003.1119889,40.417591759176,0,0
-159.30082032359,433.83083111702,35.22202220222,1275551.8556043,1625.3907769962,2573003.1119889,40.42202220222,0,0
-159.30082011868,433.88227730878,35.226452645265,1275551.8556043,1625.3907769962,2573003.1119889,40.426452645265,0,0
-159.30081991378,433.93372350054,35.230883088309,1275551.8556043,1625.3907769962,2573003.1119889,40.430883088309,0,0
-159.30081970887,433.9851696923,35.235313531353,1275551.8556043,1625.3907769962,2573003.1119889,40.435313531353,0,0
-159.30081950397,434.03661588406,35.239743974397,1275551.8556043,1625.3907769962,2573003.1119889,40.439743974397,0,0
-159.30081929906,434.08806207582,35.244174417442,1275551.8556043,1625.3907769962,2573003.1119889,40.444174417442,0,0
-159.30081909415,434.13950826758,35.248604860486,1275551.8556043,1625.3907769962,2573003.1119889,40.448604860486,0,0
-159.30081888925,434.19095445934,35.25303530353,1275551.8556043,1625.3907769962,2573003.1119889,40.45303530353,0,0
-159.30081868434,434.2424006511,35.257465746575,1275551.8556043,1625.3907769962,2573003.1119889,40.457465746575,0,0
-159.30081847944,434.29384684286,35.261896189619,1275551.8556043,1625.3907769962,2573003.1119889,40.461896189619,0,0
-159.30081827453,434.34529303462,35.266326632663,1275551.8556043,1625.3907769962,2573003.1119889,40.466326632663,0,0
-159.30081806962,434.39673922638,35.270757075708,1275551.8556043,1625.3907769962,2573003.1119889,40.470757075708,0,0
-159.30081786472,434.44818541814,35.275187518752,1275551.8556043,1625.3907769962,2573003.1119889,40.475187518752,0,0
-159.30081765981,434.4996316099,35.279617961796,1275551.8556043,1625.3907769962,2573003.1119889,40.479617961796,0,0
-159.30081745491,434.55107780167,35.28404840484,1275551.8556043,1625.3907769962,2573003.1119889,40.48404840484,0,0
-159.30081725,434.60252399343,35.288478847885,1275551.8556043,1625.3907769962,2573003.1119889,40.488478847885,0,0
-159.3008170451,434.65397018519,35.292909290929,1275551.8556043,1625.3907769962,2573003.1119889,40.492909290929,0,0
-159.30081684019,434.70541637695,35.297339733973,1275551.8556043,1625.3907769962,2573003.1119889,40.497339733973,0,0
-159.30081663528,434.75686256871,35.301770177018,1275551.8556043,1625.3907769962,2573003.1119889,40.501770177018,0,0
-159.30081643038,434.80830876047,35.306200620062,1275551.8556043,1625.3907769962,2573003.1119889,40.506200620062,0,0
-159.30081622547,434.85975495223,35.310631063106,1275551.8556043,1625.3907769962,2573003.1119889,40.510631063106,0,0
-159.30081602057,434.91120114399,35.315061506151,1275551.8556043,1625.3907769962,2573003.1119889,40.515061506151,0,0
-159.30081581566,434.96264733575,35.319491949195,1275551.8556043,1625.3907769962,2573003.1119889,40.519491949195,0,0
-159.30081561075,435.01409352751,35.323922392239,1275551.8556043,1625.3907769962,2573003.1119889,40.523922392239,0,0
-159.30081540585,435.06553971927,35.328352835284,1275551.8556043,1625.3907769962,2573003.1119889,40.528352835284,0,0
-159.30081520094,435.11698591103,35.332783278328,1275551.8556043,1625.3907769962,2573003.1119889,40.532783278328,0,0
-159.30081499604,435.16843210279,35.337213721372,1275551.8556043,1625.3907769962,2573003.1119889,40.537213721372,0,0
-159.30081479113,435.21987829455,35.341644164416,1275551.8556043,1625.3907769962,2573003.1119889,40.541644164416,0,0
-159.30081458622,435.27132448631,35.346074607461,1275551.8556043,1625.3907769962,2573003.1119889,40.546074607461,0,0
-159.30081438132,435.32277067807,35.350505050505,1275551.8556043,1625.3907769962,2573003.1119889,40.550505050505,0,0
-159.30081417641,435.37421686983,35.354935493549,1275551.8556043,1625.3907769962,2573003.1119889,40.554935493549,0,0
-159.30081397151,435.42566306159,35.359365936594,1275551.8556043,1625.3907769962,2573003.1119889,40.559365936594,0,0
-159.3008137666,435.47710925335,35.363796379638,1275551.8556043,1625.3907769962,2573003.1119889,40.563796379638,0,0
-159.30081356169,435.52855544511,35.368226822682,1275551.8556043,1625.3907769962,2573003.1119889,40.568226822682,0,0
-159.30081335679,435.58000163687,35.372657265727,1275551.8556043,1625.3907769962,2573003.1119889,40.572657265727,0,0
-159.30081315188,435.63144782863,35.377087708771,1275551.8556043,1625.3907769962,2573003.1119889,40.577087708771,0,0
-159.30081294698,435.68289402039,35.381518151815,1275551.8556043,1625.3907769962,2573003.1119889,40.581518151815,0,0
-159.30081274207,435.73434021215,35.385948594859,1275551.8556043,1625.3907769962,2573003.1119889,40.585948594859,0,0
-159.30081253716,435.78578640391,35.390379037904,1275551.8556043,1625.3907769962,2573003.1119889,40.590379037904,0,0
-159.30081233226,435.83723259567,35.394809480948,1275551.8556043,1625.3907769962,2573003.1119889,40.594809480948,0,0
-159.30081212735,435.88867878743,35.399239923992,1275551.8556043,1625.3907769962,2573003.1119889,40.599239923992,0,0
-159.30081192245,435.94012497919,35.403670367037,1275551.8556043,1625.3907769962,2573003.1119889,40.603670367037,0,0
-159.30081171754,435.99157117095,35.408100810081,1275551.8556043,1625.3907769962,2573003.1119889,40.608100810081,0,0
-159.30081151264,436.04301736271,35.412531253125,1275551.8556043,1625.3907769962,2573003.1119889,40.612531253125,0,0
-159.30081130773,436.09446355447,35.41696169617,1275551.8556043,1625.3907769962,2573003.1119889,40.61696169617,0,0
-159.30081110282,436.14590974623,35.421392139214,1275551.8556043,1625.3907769962,2573003.1119889,40.621392139214,0,0
-159.30081089792,436.19735593799,35.425822582258,1275551.8556043,1625.3907769962,2573003.1119889,40.625822582258,0,0
-159.30081069301,436.24880212975,35.430253025303,1275551.8556043,1625.3907769962,2573003.1119889,40.630253025303,0,0
-159.30081048811,436.30024832151,35.434683468347,1275551.8556043,1625.3907769962,2573003.1119889,40.634683468347,0,0
-159.3008102832,436.35169451327,35.439113911391,1275551.8556043,1625.3907769962,2573003.1119889,40.639113911391,0,0
-159.30081007829,436.40314070503,35.443544354435,1275551.8556043,1625.3907769962,2573003.1119889,40.643544354435,0,0
-159.30080987339,436.45458689679,35.44797479748,1275551.8556043,1625.3907769962,2573003.1119889,40.64797479748,0,0
-159.30080966848,436.50603308855,35.452405240524,1275551.8556043,1625.3907769962,2573003.1119889,40.652405240524,0,0
-159.30080946358,436.55747928031,35.456835683568,1275551.8556043,1625.3907769962,2573003.1119889,40.656835683568,0,0
-159.30080925867,436.60892547207,35.461266126613,1275551.8556043,1625.3907769962,2573003.1119889,40.661266126613,0,0
-159.30080905376,436.66037166383,35.465696569657,1275551.8556043,1625.3907769962,2573003.1119889,40.665696569657,0,0
-159.30080884886,436.71181785559,35.470127012701,1275551.8556043,1625.3907769962,2573003.1119889,40.670127012701,0,0
-159.30080864395,436.76326404735,35.474557455746,1275551.8556043,1625.3907769962,2573003.1119889,40.674557455746,0,0
-159.30080843905,436.81471023911,35.47898789879,1275551.8556043,1625.3907769962,2573003.1119889,40.67898789879,0,0
-159.30080823414,436.86615643087,35.483418341834,1275551.8556043,1625.3907769962,2573003.1119889,40.683418341834,0,0
-159.30080802923,436.91760262263,35.487848784878,1275551.8556043,1625.3907769962,2573003.1119889,40.687848784878,0,0
-159.30080782433,436.96904881439,35.492279227923,1275551.8556043,1625.3907769962,2573003.1119889,40.692279227923,0,0
-159.30080761942,437.02049500615,35.496709670967,1275551.8556043,1625.3907769962,2573003.1119889,40.696709670967,0,0
-159.30080741452,437.07194119791,35.501140114011,1275551.8556043,1625.3907769962,2573003.1119889,40.701140114011,0,0
-159.30080720961,437.12338738967,35.505570557056,1275551.8556043,1625.3907769962,2573003.1119889,40.705570557056,0,0
-159.30080700471,437.17483358143,35.5100010001,1275551.8556043,1625.3907769962,2573003.1119889,40.7100010001,0,0
-159.3008067998,437.2262797732,35.514431443144,1275551.8556043,1625.3907769962,2573003.1119889,40.714431443144,0,0
-159.30080659489,437.27772596496,35.518861886189,1275551.8556043,1625.3907769962,2573003.1119889,40.718861886189,0,0
-159.30080638999,437.32917215672,35.523292329233,1275551.8556043,1625.3907769962,2573003.1119889,40.723292329233,0,0
-159.30080618508,437.38061834848,35.527722772277,1275551.8556043,1625.3907769962,2573003.1119889,40.727722772277,0,0
-159.30080598018,437.43206454024,35.532153215322,1275551.8556043,1625.3907769962,2573003.1119889,40.732153215322,0,0
-159.30080577527,437.483510732,35.536583658366,1275551.8556043,1625.3907769962,2573003.1119889,40.736583658366,0,0
-159.30080557036,437.53495692376,35.54101410141,1275551.8556043,1625.3907769962,2573003.1119889,40.74101410141,0,0
-159.30080536546,437.58640311552,35.545444544454,1275551.8556043,1625.3907769962,2573003.1119889,40.745444544454,0,0
-159.30080516055,437.63784930728,35.549874987499,1275551.8556043,1625.3907769962,2573003.1119889,40.749874987499,0,0
-159.30080495565,437.68929549904,35.554305430543,1275551.8556043,1625.3907769962,2573003.1119889,40.754305430543,0,0
-159.30080475074,437.7407416908,35.558735873587,1275551.8556043,1625.3907769962,2573003.1119889,40.758735873587,0,0
-159.30080454583,437.79218788256,35.563166316632,1275551.8556043,1625.3907769962,2573003.1119889,40.763166316632,0,0
-159.30080434093,437.84363407432,35.567596759676,1275551.8556043,1625.3907769962,2573003.1119889,40.767596759676,0,0
-159.30080413602,437.89508026608,35.57202720272,1275551.8556043,1625.3907769962,2573003.1119889,40.77202720272,0,0
-159.30080393112,437.94652645784,35.576457645765,1275551.8556043,1625.3907769962,2573003.1119889,40.776457645765,0,0
-159.30080372621,437.9979726496,35.580888088809,1275551.8556043,1625.3907769962,2573003.1119889,40.780888088809,0,0
-159.3008035213,438.04941884136,35.585318531853,1275551.8556043,1625.3907769962,2573003.1119889,40.785318531853,0,0
-159.3008033164,438.10086503312,35.589748974897,1275551.8556043,1625.3907769962,2573003.1119889,40.789748974897,0,0
-159.30080311149,438.15231122488,35.594179417942,1275551.8556043,1625.3907769962,2573003.1119889,40.794179417942,0,0
-159.30080290659,438.20375741664,35.598609860986,1275551.8556043,1625.3907769962,2573003.1119889,40.798609860986,0,0
-159.30080270168,438.2552036084,35.60304030403,1275551.8556043,1625.3907769962,2573003.1119889,40.80304030403,0,0
-159.30080249677,438.30664980016,35.607470747075,1275551.8556043,1625.3907769962,2573003.1119889,40.807470747075,0,0
-159.30080229187,438.35809599192,35.611901190119,1275551.8556043,1625.3907769962,2573003.1119889,40.811901190119,0,0
-159.30080208696,438.40954218368,35.616331633163,1275551.8556043,1625.3907769962,2573003.1119889,40.816331633163,0,0
-159.30080188206,438.46098837544,35.620762076208,1275551.8556043,1625.3907769962,2573003.1119889,40.820762076208,0,0
-159.30080167715,438.5124345672,35.625192519252,1275551.8556043,1625.3907769962,2573003.1119889,40.825192519252,0,0
-159.30080147225,438.56388075896,35.629622962296,1275551.8556043,1625.3907769962,2573003.1119889,40.829622962296,0,0
-159.30080126734,438.61532695072,35.634053405341,1275551.8556043,1625.3907769962,2573003.1119889,40.834053405341,0,0
-159.30080106243,438.66677314248,35.638483848385,1275551.8556043,1625.3907769962,2573003.1119889,40.838483848385,0,0
-159.30080085753,438.71821933424,35.642914291429,1275551.8556043,1625.3907769962,2573003.1119889,40.842914291429,0,0
-159.30080065262,438.769665526,35.647344734473,1275551.8556043,1625.3907769962,2573003.1119889,40.847344734473,0,0
-159.30080044772,438.82111171776,35.651775177518,1275551.8556043,1625.3907769962,2573003.1119889,40.851775177518,0,0
-159.30080024281,438.87255790952,35.656205620562,1275551.8556043,1625.3907769962,2573003.1119889,40.856205620562,0,0
-159.3008000379,438.92400410128,35.660636063606,1275551.8556043,1625.3907769962,2573003.1119889,40.860636063606,0,0
-159.300799833,438.97545029304,35.665066506651,1275551.8556043,1625.3907769962,2573003.1119889,40.865066506651,0,0
-159.30079962809,439.0268964848,35.669496949695,1275551.8556043,1625.3907769962,2573003.1119889,40.869496949695,0,0
-159.30079942319,439.07834267656,35.673927392739,1275551.8556043,1625.3907769962,2573003.1119889,40.873927392739,0,0
-159.30079921828,439.12978886832,35.678357835784,1275551.8556043,1625.3907769962,2573003.1119889,40.878357835784,0,0
-159.30079901337,439.18123506008,35.682788278828,1275551.8556043,1625.3907769962,2573003.1119889,40.882788278828,0,0
-159.30079880847,439.23268125184,35.687218721872,1275551.8556043,1625.3907769962,2573003.1119889,40.887218721872,0,0
-159.30079860356,439.2841274436,35.691649164916,1275551.8556043,1625.3907769962,2573003.1119889,40.891649164916,0,0
-159.30079839866,439.33557363536,35.696079607961,1275551.8556043,1625.3907769962,2573003.1119889,40.896079607961,0,0
-159.30079819375,439.38701982712,35.700510051005,1275551.8556043,1625.3907769962,2573003.1119889,40.900510051005,0,0
-159.30079798884,439.43846601888,35.704940494049,1275551.8556043,1625.3907769962,2573003.1119889,40.904940494049,0,0
-159.30079778394,439.48991221064,35.709370937094,1275551.8556043,1625.3907769962,2573003.1119889,40.909370937094,0,0
-159.30079757903,439.5413584024,35.713801380138,1275551.8556043,1625.3907769962,2573003.1119889,40.913801380138,0,0
-159.30079737413,439.59280459416,35.718231823182,1275551.8556043,1625.3907769962,2573003.1119889,40.918231823182,0,0
-159.30079716922,439.64425078592,35.722662266227,1275551.8556043,1625.3907769962,2573003.1119889,40.922662266227,0,0
-159.30079696431,439.69569697768,35.727092709271,1275551.8556043,1625.3907769962,2573003.1119889,40.927092709271,0,0
-159.30079675941,439.74714316944,35.731523152315,1275551.8556043,1625.3907769962,2573003.1119889,40.931523152315,0,0
-159.3007965545,439.7985893612,35.73595359536,1275551.8556043,1625.3907769962,2573003.1119889,40.93595359536,0,0
-159.3007963496,439.85003555296,35.740384038404,1275551.8556043,1625.3907769962,2573003.1119889,40.940384038404,0,0
-159.30079614469,439.90148174473,35.744814481448,1275551.8556043,1625.3907769962,2573003.1119889,40.944814481448,0,0
-159.30079593979,439.95292793649,35.749244924492,1275551.8556043,1625.3907769962,2573003.1119889,40.949244924492,0,0
-159.30079573488,440.00437412825,35.753675367537,1275551.8556043,1625.3907769962,2573003.1119889,40.953675367537,0,0
-159.30079552997,440.05582032001,35.758105810581,1275551.8556043,1625.3907769962,2573003.1119889,40.958105810581,0,0
-159.30079532507,440.10726651177,35.762536253625,1275551.8556043,1625.3907769962,2573003.1119889,40.962536253625,0,0
-159.30079512016,440.15871270353,35.76696669667,1275551.8556043,1625.3907769962,2573003.1119889,40.96696669667,0,0
-159.30079491526,440.21015889529,35.771397139714,1275551.8556043,1625.3907769962,2573003.1119889,40.971397139714,0,0
-159.30079471035,440.26160508705,35.775827582758,1275551.8556043,1625.3907769962,2573003.1119889,40.975827582758,0,0
-159.30079450544,440.31305127881,35.780258025803,1275551.8556043,1625.3907769962,2573003.1119889,40.980258025803,0,0
-159.30079430054,440.36449747057,35.784688468847,1275551.8556043,1625.3907769962,2573003.1119889,40.984688468847,0,0
-159.30079409563,440.41594366233,35.789118911891,1275551.8556043,1625.3907769962,2573003.1119889,40.989118911891,0,0
-159.30079389073,440.46738985409,35.793549354935,1275551.8556043,1625.3907769962,2573003.1119889,40.993549354935,0,0
-159.30079368582,440.51883604585,35.79797979798,1275551.8556043,1625.3907769962,2573003.1119889,40.99797979798,0,0
-159.30079348091,440.57028223761,35.802410241024,1275551.8556043,1625.3907769962,2573003.1119889,41.002410241024,0,0
-159.30079327601,440.62172842937,35.806840684068,1275551.8556043,1625.3907769962,2573003.1119889,41.006840684068,0,0
-159.3007930711,440.67317462113,35.811271127113,1275551.8556043,1625.3907769962,2573003.1119889,41.011271127113,0,0
-159.3007928662,440.72462081289,35.815701570157,1275551.8556043,1625.3907769962,2573003.1119889,41.015701570157,0,0
-159.30079266129,440.77606700465,35.820132013201,1275551.8556043,1625.3907769962,2573003.1119889,41.020132013201,0,0
-159.30079245638,440.82751319641,35.824562456246,1275551.8556043,1625.3907769962,2573003.1119889,41.024562456246,0,0
-159.30079225148,440.87895938817,35.82899289929,1275551.8556043,1625.3907769962,2573003.1119889,41.02899289929,0,0
-159.30079204657,440.93040557993,35.833423342334,1275551.8556043,1625.3907769962,2573003.1119889,41.033423342334,0,0
-159.30079184167,440.98185177169,35.837853785379,1275551.8556043,1625.3907769962,2573003.1119889,41.037853785379,0,0
-159.30079163676,441.03329796345,35.842284228423,1275551.8556043,1625.3907769962,2573003.1119889,41.042284228423,0,0
-159.30079143185,441.08474415521,35.846714671467,1275551.8556043,1625.3907769962,2573003.1119889,41.046714671467,0,0
-159.30079122695,441.13619034697,35.851145114511,1275551.8556043,1625.3907769962,2573003.1119889,41.051145114511,0,0
-159.30079102204,441.18763653873,35.855575557556,1275551.8556043,1625.3907769962,2573003.1119889,41.055575557556,0,0
-159.30079081714,441.23908273049,35.8600060006,1275551.8556043,1625.3907769962,2573003.1119889,41.0600060006,0,0
-159.30079061223,441.29052892225,35.864436443644,1275551.8556043,1625.3907769962,2573003.1119889,41.064436443644,0,0
-159.30079040733,441.34197511401,35.868866886689,1275551.8556043,1625.3907769962,2573003.1119889,41.068866886689,0,0
-159.30079020242,441.39342130577,35.873297329733,1275551.8556043,1625.3907769962,2573003.1119889,41.073297329733,0,0
-159.30078999751,441.44486749753,35.877727772777,1275551.8556043,1625.3907769962,2573003.1119889,41.077727772777,0,0
-159.30078979261,441.49631368929,35.882158215822,1275551.8556043,1625.3907769962,2573003.1119889,41.082158215822,0,0
-159.3007895877,441.54775988105,35.886588658866,1275551.8556043,1625.3907769962,2573003.1119889,41.086588658866,0,0
-159.3007893828,441.59920607281,35.89101910191,1275551.8556043,1625.3907769962,2573003.1119889,41.09101910191,0,0
-159.30078917789,441.65065226457,35.895449544954,1275551.8556043,1625.3907769962,2573003.1119889,41.095449544954,0,0
-159.30078897298,441.70209845633,35.899879987999,1275551.8556043,1625.3907769962,2573003.1119889,41.099879987999,0,0
-159.30078876808,441.75354464809,35.904310431043,1275551.8556043,1625.3907769962,2573003.1119889,41.104310431043,0,0
-159.30078856317,441.80499083985,35.908740874087,1275551.8556043,1625.3907769962,2573003.1119889,41.108740874087,0,0
-159.30078835827,441.85643703161,35.913171317132,1275551.8556043,1625.3907769962,2573003.1119889,41.113171317132,0,0
-159.30078815336,441.90788322337,35.917601760176,1275551.8556043,1625.3907769962,2573003.1119889,41.117601760176,0,0
-159.30078794845,441.95932941513,35.92203220322,1275551.8556043,1625.3907769962,2573003.1119889,41.12203220322,0,0
-159.30078774355,442.01077560689,35.926462646265,1275551.8556043,1625.3907769962,2573003.1119889,41.126462646265,0,0
-159.30078753864,442.06222179865,35.930893089309,1275551.8556043,1625.3907769962,2573003.1119889,41.130893089309,0,0
-159.30078733374,442.11366799041,35.935323532353,1275551.8556043,1625.3907769962,2573003.1119889,41.135323532353,0,0
-159.30078712883,442.16511418217,35.939753975398,1275551.8556043,1625.3907769962,2573003.1119889,41.139753975398,0,0
-159.30078692392,442.21656037393,35.944184418442,1275551.8556043,1625.3907769962,2573003.1119889,41.144184418442,0,0
-159.30078671902,442.26800656569,35.948614861486,1275551.8556043,1625.3907769962,2573003.1119889,41.148614861486,0,0
-159.30078651411,442.31945275745,35.95304530453,1275551.8556043,1625.3907769962,2573003.1119889,41.15304530453,0,0
-159.30078630921,442.37089894921,35.957475747575,1275551.8556043,1625.3907769962,2573003.1119889,41.157475747575,0,0
-159.3007861043,442.42234514097,35.961906190619,1275551.8556043,1625.3907769962,2573003.1119889,41.161906190619,0,0
-159.30078589939,442.47379133273,35.966336633663,1275551.8556043,1625.3907769962,2573003.1119889,41.166336633663,0,0
-159.30078569449,442.52523752449,35.970767076708,1275551.8556043,1625.3907769962,2573003.1119889,41.170767076708,0,0
-159.30078548958,442.57668371626,35.975197519752,1275551.8556043,1625.3907769962,2573003.1119889,41.175197519752,0,0
-159.30078528468,442.62812990802,35.979627962796,1275551.8556043,1625.3907769962,2573003.1119889,41.179627962796,0,0
-159.30078507977,442.67957609978,35.984058405841,1275551.8556043,1625.3907769962,2573003.1119889,41.184058405841,0,0
-159.30078487487,442.73102229154,35.988488848885,1275551.8556043,1625.3907769962,2573003.1119889,41.188488848885,0,0
-159.30078466996,442.7824684833,35.992919291929,1275551.8556043,1625.3907769962,2573003.1119889,41.192919291929,0,0
-159.30078446505,442.83391467506,35.997349734973,1275551.8556043,1625.3907769962,2573003.1119889,41.197349734973,0,0
-159.30078426015,442.88536086682,36.001780178018,1275551.8556043,1625.3907769962,2573003.1119889,41.201780178018,0,0
-159.30078405524,442.93680705858,36.006210621062,1275551.8556043,1625.3907769962,2573003.1119889,41.206210621062,0,0
-159.30078385034,442.98825325034,36.010641064106,1275551.8556043,1625.3907769962,2573003.1119889,41.210641064106,0,0
-159.30078364543,443.0396994421,36.015071507151,1275551.8556043,1625.3907769962,2573003.1119889,41.215071507151,0,0
-159.30078344052,443.09114563386,36.019501950195,1275551.8556043,1625.3907769962,2573003.1119889,41.219501950195,0,0
-159.30078323562,443.14259182562,36.023932393239,1275551.8556043,1625.3907769962,2573003.1119889,41.223932393239,0,0
-159.30078303071,443.19403801738,36.028362836284,1275551.8556043,1625.3907769962,2573003.1119889,41.228362836284,0,0
-159.30078282581,443.24548420914,36.032793279328,1275551.8556043,1625.3907769962,2573003.1119889,41.232793279328,0,0
-159.3007826209,443.2969304009,36.037223722372,1275551.8556043,1625.3907769962,2573003.1119889,41.237223722372,0,0
-159.30078241599,443.34837659266,36.041654165417,1275551.8556043,1625.3907769962,2573003.1119889,41.241654165417,0,0
-159.30078221109,443.39982278442,36.046084608461,1275551.8556043,1625.3907769962,2573003.1119889,41.246084608461,0,0
-159.30078200618,443.45126897618,36.050515051505,1275551.8556043,1625.3907769962,2573003.1119889,41.250515051505,0,0
-159.30078180128,443.50271516794,36.054945494549,1275551.8556043,1625.3907769962,2573003.1119889,41.254945494549,0,0
-159.30078159637,443.5541613597,36.059375937594,1275551.8556043,1625.3907769962,2573003.1119889,41.259375937594,0,0
-159.30078139146,443.60560755146,36.063806380638,1275551.8556043,1625.3907769962,2573003.1119889,41.263806380638,0,0
-159.30078118656,443.65705374322,36.068236823682,1275551.8556043,1625.3907769962,2573003.1119889,41.268236823682,0,0
-159.30078098165,443.70849993498,36.072667266727,1275551.8556043,1625.3907769962,2573003.1119889,41.272667266727,0,0
-159.30078077675,443.75994612674,36.077097709771,1275551.8556043,1625.3907769962,2573003.1119889,41.277097709771,0,0
-159.30078057184,443.8113923185,36.081528152815,1275551.8556043,1625.3907769962,2573003.1119889,41.281528152815,0,0
-159.30078036693,443.86283851026,36.08595859586,1275551.8556043,1625.3907769962,2573003.1119889,41.28595859586,0,0
-159.30078016203,443.91428470202,36.090389038904,1275551.8556043,1625.3907769962,2573003.1119889,41.290389038904,0,0
-159.30077995712,443.96573089378,36.094819481948,1275551.8556043,1625.3907769962,2573003.1119889,41.294819481948,0,0
-159.30077975222,444.01717708554,36.099249924992,1275551.8556043,1625.3907769962,2573003.1119889,41.299249924992,0,0
-159.30077954731,444.0686232773,36.103680368037,1275551.8556043,1625.3907769962,2573003.1119889,41.303680368037,0,0
-159.30077934241,444.12006946906,36.108110811081,1275551.8556043,1625.3907769962,2573003.1119889,41.308110811081,0,0
-159.3007791375,444.17151566082,36.112541254125,1275551.8556043,1625.3907769962,2573003.1119889,41.312541254125,0,0
-159.30077893259,444.22296185258,36.11697169717,1275551.8556043,1625.3907769962,2573003.1119889,41.31697169717,0,0
-159.30077872769,444.27440804434,36.121402140214,1275551.8556043,1625.3907769962,2573003.1119889,41.321402140214,0,0
-159.30077852278,444.3258542361,36.125832583258,1275551.8556043,1625.3907769962,2573003.1119889,41.325832583258,0,0
-159.30077831788,444.37730042786,36.130263026303,1275551.8556043,1625.3907769962,2573003.1119889,41.330263026303,0,0
-159.30077811297,444.42874661962,36.134693469347,1275551.8556043,1625.3907769962,2573003.1119889,41.334693469347,0,0
-159.30077790806,444.48019281138,36.139123912391,1275551.8556043,1625.3907769962,2573003.1119889,41.339123912391,0,0
-159.30077770316,444.53163900314,36.143554355436,1275551.8556043,1625.3907769962,2573003.1119889,41.343554355436,0,0
-159.30077749825,444.5830851949,36.14798479848,1275551.8556043,1625.3907769962,2573003.1119889,41.34798479848,0,0
-159.30077729331,444.63453138651,36.152415241524,1275376.3425685,-607.019221757,2568221.4719933,41.352415241524,0,0
-159.30077708819,444.68597757718,36.156845684568,1275376.3425685,-607.019221757,2568221.4719933,41.356845684568,0,0
-159.30077688306,444.73742376785,36.161276127613,1275376.3425685,-607.019221757,2568221.4719933,41.361276127613,0,0
-159.30077667794,444.78886995852,36.165706570657,1275376.3425685,-607.019221757,2568221.4719933,41.365706570657,0,0
-159.30077647281,444.84031614919,36.170137013701,1275376.3425685,-607.019221757,2568221.4719933,41.370137013701,0,0
-159.30077626769,444.89176233986,36.174567456746,1275376.3425685,-607.019221757,2568221.4719933,41.374567456746,0,0
-159.30077606256,444.94320853053,36.17899789979,1275376.3425685,-607.019221757,2568221.4719933,41.37899789979,0,0
-159.30077585744,444.9946547212,36.183428342834,1275376.3425685,-607.019221757,2568221.4719933,41.383428342834,0,0
-159.30077565231,445.04610091187,36.187858785879,1275376.3425685,-607.019221757,2568221.4719933,41.387858785879,0,0
-159.30077544719,445.09754710254,36.192289228923,1275376.3425685,-607.019221757,2568221.4719933,41.392289228923,0,0
-159.30077524206,445.14899329321,36.196719671967,1275376.3425685,-607.019221757,2568221.4719933,41.396719671967,0,0
-159.30077503694,445.20043948388,36.201150115011,1275376.3425685,-607.019221757,2568221.4719933,41.401150115011,0,0
-159.30077483181,445.25188567455,36.205580558056,1275376.3425685,-607.019221757,2568221.4719933,41.405580558056,0,0
-159.30077462668,445.30333186523,36.2100110011,1275376.3425685,-607.019221757,2568221.4719933,41.4100110011,0,0
-159.30077442156,445.3547780559,36.214441444144,1275376.3425685,-607.019221757,2568221.4719933,41.414441444144,0,0
-159.30077421643,445.40622424657,36.218871887189,1275376.3425685,-607.019221757,2568221.4719933,41.418871887189,0,0
-159.30077401131,445.45767043724,36.223302330233,1275376.3425685,-607.019221757,2568221.4719933,41.423302330233,0,0
-159.30077380618,445.50911662791,36.227732773277,1275376.3425685,-607.019221757,2568221.4719933,41.427732773277,0,0
-159.30077360106,445.56056281858,36.232163216322,1275376.3425685,-607.019221757,2568221.4719933,41.432163216322,0,0
-159.30077339593,445.61200900925,36.236593659366,1275376.3425685,-607.019221757,2568221.4719933,41.436593659366,0,0
-159.30077319081,445.66345519992,36.24102410241,1275376.3425685,-607.019221757,2568221.4719933,41.44102410241,0,0
-159.30077298568,445.71490139059,36.245454545455,1275376.3425685,-607.019221757,2568221.4719933,41.445454545455,0,0
-159.30077278056,445.76634758126,36.249884988499,1275376.3425685,-607.019221757,2568221.4719933,41.449884988499,0,0
-159.30077257543,445.81779377193,36.254315431543,1275376.3425685,-607.019221757,2568221.4719933,41.454315431543,0,0
-159.30077237031,445.8692399626,36.258745874587,1275376.3425685,-607.019221757,2568221.4719933,41.458745874587,0,0
-159.30077216518,445.92068615327,36.263176317632,1275376.3425685,-607.019221757,2568221.4719933,41.463176317632,0,0
-159.30077196005,445.97213234395,36.267606760676,1275376.3425685,-607.019221757,2568221.4719933,41.467606760676,0,0
-159.30077175493,446.02357853462,36.27203720372,1275376.3425685,-607.019221757,2568221.4719933,41.47203720372,0,0
-159.3007715498,446.07502472529,36.276467646765,1275376.3425685,-607.019221757,2568221.4719933,41.476467646765,0,0
-159.30077134468,446.12647091596,36.280898089809,1275376.3425685,-607.019221757,2568221.4719933,41.480898089809,0,0
-159.30077113955,446.17791710663,36.285328532853,1275376.3425685,-607.019221757,2568221.4719933,41.485328532853,0,0
-159.30077093443,446.2293632973,36.289758975898,1275376.3425685,-607.019221757,2568221.4719933,41.489758975898,0,0
-159.3007707293,446.28080948797,36.294189418942,1275376.3425685,-607.019221757,2568221.4719933,41.494189418942,0,0
-159.30077052418,446.33225567864,36.298619861986,1275376.3425685,-607.019221757,2568221.4719933,41.498619861986,0,0
-159.30077031905,446.38370186931,36.30305030503,1275376.3425685,-607.019221757,2568221.4719933,41.50305030503,0,0
-159.30077011393,446.43514805998,36.307480748075,1275376.3425685,-607.019221757,2568221.4719933,41.507480748075,0,0
-159.3007699088,446.48659425065,36.311911191119,1275376.3425685,-607.019221757,2568221.4719933,41.511911191119,0,0
-159.30076970368,446.53804044132,36.316341634163,1275376.3425685,-607.019221757,2568221.4719933,41.516341634163,0,0
-159.30076949855,446.58948663199,36.320772077208,1275376.3425685,-607.019221757,2568221.4719933,41.520772077208,0,0
-159.30076929342,446.64093282266,36.325202520252,1275376.3425685,-607.019221757,2568221.4719933,41.525202520252,0,0
-159.3007690883,446.69237901334,36.329632963296,1275376.3425685,-607.019221757,2568221.4719933,41.529632963296,0,0
-159.30076888317,446.74382520401,36.334063406341,1275376.3425685,-607.019221757,2568221.4719933,41.534063406341,0,0
-159.30076867805,446.79527139468,36.338493849385,1275376.3425685,-607.019221757,2568221.4719933,41.538493849385,0,0
-159.30076847292,446.84671758535,36.342924292429,1275376.3425685,-607.019221757,2568221.4719933,41.542924292429,0,0
-159.3007682678,446.89816377602,36.347354735474,1275376.3425685,-607.019221757,2568221.4719933,41.547354735474,0,0
-159.30076806267,446.94960996669,36.351785178518,1275376.3425685,-607.019221757,2568221.4719933,41.551785178518,0,0
-159.30076785755,447.00105615736,36.356215621562,1275376.3425685,-607.019221757,2568221.4719933,41.556215621562,0,0
-159.30076765242,447.05250234803,36.360646064606,1275376.3425685,-607.019221757,2568221.4719933,41.560646064606,0,0
-159.3007674473,447.1039485387,36.365076507651,1275376.3425685,-607.019221757,2568221.4719933,41.565076507651,0,0
-159.30076724217,447.15539472937,36.369506950695,1275376.3425685,-607.019221757,2568221.4719933,41.569506950695,0,0
-159.30076703705,447.20684092004,36.373937393739,1275376.3425685,-607.019221757,2568221.4719933,41.573937393739,0,0
-159.30076683192,447.25828711071,36.378367836784,1275376.3425685,-607.019221757,2568221.4719933,41.578367836784,0,0
-159.30076662679,447.30973330138,36.382798279828,1275376.3425685,-607.019221757,2568221.4719933,41.582798279828,0,0
-159.30076642167,447.36117949206,36.387228722872,1275376.3425685,-607.019221757,2568221.4719933,41.587228722872,0,0
-159.30076621654,447.41262568273,36.391659165917,1275376.3425685,-607.019221757,2568221.4719933,41.591659165917,0,0
-159.30076601142,447.4640718734,36.396089608961,1275376.3425685,-607.019221757,2568221.4719933,41.596089608961,0,0
-159.30076580629,447.51551806407,36.400520052005,1275376.3425685,-607.019221757,2568221.4719933,41.600520052005,0,0
-159.30076560117,447.56696425474,36.404950495049,1275376.3425685,-607.019221757,2568221.4719933,41.60495049505,0,0
-159.30076539604,447.61841044541,36.409380938094,1275376.3425685,-607.019221757,2568221.4719933,41.609380938094,0,0
-159.30076519092,447.66985663608,36.413811381138,1275376.3425685,-607.019221757,2568221.4719933,41.613811381138,0,0
-159.30076498579,447.72130282675,36.418241824182,1275376.3425685,-607.019221757,2568221.4719933,41.618241824182,0,0
-159.30076478067,447.77274901742,36.422672267227,1275376.3425685,-607.019221757,2568221.4719933,41.622672267227,0,0
-159.30076457554,447.82419520809,36.427102710271,1275376.3425685,-607.019221757,2568221.4719933,41.627102710271,0,0
-159.30076437042,447.87564139876,36.431533153315,1275376.3425685,-607.019221757,2568221.4719933,41.631533153315,0,0
-159.30076416529,447.92708758943,36.43596359636,1275376.3425685,-607.019221757,2568221.4719933,41.63596359636,0,0
-159.30076396016,447.9785337801,36.440394039404,1275376.3425685,-607.019221757,2568221.4719933,41.640394039404,0,0
-159.30076375504,448.02997997078,36.444824482448,1275376.3425685,-607.019221757,2568221.4719933,41.644824482448,0,0
-159.30076354991,448.08142616145,36.449254925493,1275376.3425685,-607.019221757,2568221.4719933,41.649254925493,0,0
-159.30076334479,448.13287235212,36.453685368537,1275376.3425685,-607.019221757,2568221.4719933,41.653685368537,0,0
-159.30076313966,448.18431854279,36.458115811581,1275376.3425685,-607.019221757,2568221.4719933,41.658115811581,0,0
-159.30076293454,448.23576473346,36.462546254625,1275376.3425685,-607.019221757,2568221.4719933,41.662546254625,0,0
-159.30076272941,448.28721092413,36.46697669767,1275376.3425685,-607.019221757,2568221.4719933,41.66697669767,0,0
-159.30076252429,448.3386571148,36.471407140714,1275376.3425685,-607.019221757,2568221.4719933,41.671407140714,0,0
-159.30076231916,448.39010330547,36.475837583758,1275376.3425685,-607.019221757,2568221.4719933,41.675837583758,0,0
-159.30076211404,448.44154949614,36.480268026803,1275376.3425685,-607.019221757,2568221.4719933,41.680268026803,0,0
-159.30076190891,448.49299568681,36.484698469847,1275376.3425685,-607.019221757,2568221.4719933,41.684698469847,0,0
-159.30076170379,448.54444187748,36.489128912891,1275376.3425685,-607.019221757,2568221.4719933,41.689128912891,0,0
-159.30076149866,448.59588806815,36.493559355936,1275376.3425685,-607.019221757,2568221.4719933,41.693559355936,0,0
-159.30076129353,448.64733425882,36.49798979898,1275376.3425685,-607.019221757,2568221.4719933,41.69798979898,0,0
-159.30076108841,448.6987804495,36.502420242024,1275376.3425685,-607.019221757,2568221.4719933,41.702420242024,0,0
-159.30076088328,448.75022664017,36.506850685068,1275376.3425685,-607.019221757,2568221.4719933,41.706850685069,0,0
-159.30076067816,448.80167283084,36.511281128113,1275376.3425685,-607.019221757,2568221.4719933,41.711281128113,0,0
-159.30076047303,448.85311902151,36.515711571157,1275376.3425685,-607.019221757,2568221.4719933,41.715711571157,0,0
-159.30076026791,448.90456521218,36.520142014201,1275376.3425685,-607.019221757,2568221.4719933,41.720142014201,0,0
-159.30076006278,448.95601140285,36.524572457246,1275376.3425685,-607.019221757,2568221.4719933,41.724572457246,0,0
-159.30075985766,449.00745759352,36.52900290029,1275376.3425685,-607.019221757,2568221.4719933,41.72900290029,0,0
-159.30075965253,449.05890378419,36.533433343334,1275376.3425685,-607.019221757,2568221.4719933,41.733433343334,0,0
-159.30075944741,449.11034997486,36.537863786379,1275376.3425685,-607.019221757,2568221.4719933,41.737863786379,0,0
-159.30075924228,449.16179616553,36.542294229423,1275376.3425685,-607.019221757,2568221.4719933,41.742294229423,0,0
-159.30075903716,449.2132423562,36.546724672467,1275376.3425685,-607.019221757,2568221.4719933,41.746724672467,0,0
-159.30075883205,449.26468854704,36.551155115512,1273695.2164681,1735.7128881217,2565286.3825201,41.751155115512,0,0
-159.30075862704,449.31613473865,36.555585558556,1273695.2164681,1735.7128881217,2565286.3825201,41.755585558556,0,0
-159.30075842203,449.36758093026,36.5600160016,1273695.2164681,1735.7128881217,2565286.3825201,41.7600160016,0,0
-159.30075821702,449.41902712187,36.564446444644,1273695.2164681,1735.7128881217,2565286.3825201,41.764446444644,0,0
-159.30075801201,449.47047331348,36.568876887689,1273695.2164681,1735.7128881217,2565286.3825201,41.768876887689,0,0
-159.300757807,449.52191950509,36.573307330733,1273695.2164681,1735.7128881217,2565286.3825201,41.773307330733,0,0
-159.30075760199,449.5733656967,36.577737773777,1273695.2164681,1735.7128881217,2565286.3825201,41.777737773777,0,0
-159.30075739698,449.62481188831,36.582168216822,1273695.2164681,1735.7128881217,2565286.3825201,41.782168216822,0,0
-159.30075719196,449.67625807992,36.586598659866,1273695.2164681,1735.7128881217,2565286.3825201,41.786598659866,0,0
-159.30075698695,449.72770427153,36.59102910291,1273695.2164681,1735.7128881217,2565286.3825201,41.79102910291,0,0
-159.30075678194,449.77915046314,36.595459545955,1273695.2164681,1735.7128881217,2565286.3825201,41.795459545955,0,0
-159.30075657693,449.83059665475,36.599889988999,1273695.2164681,1735.7128881217,2565286.3825201,41.799889988999,0,0
-159.30075637192,449.88204284635,36.604320432043,1273695.2164681,1735.7128881217,2565286.3825201,41.804320432043,0,0
-159.30075616691,449.93348903796,36.608750875088,1273695.2164681,1735.7128881217,2565286.3825201,41.808750875088,0,0
-159.3007559619,449.98493522957,36.613181318132,1273695.2164681,1735.7128881217,2565286.3825201,41.813181318132,0,0
-159.30075575689,450.03638142118,36.617611761176,1273695.2164681,1735.7128881217,2565286.3825201,41.817611761176,0,0
-159.30075555188,450.08782761279,36.62204220422,1273695.2164681,1735.7128881217,2565286.3825201,41.82204220422,0,0
-159.30075534687,450.1392738044,36.626472647265,1273695.2164681,1735.7128881217,2565286.3825201,41.826472647265,0,0
-159.30075514186,450.19071999601,36.630903090309,1273695.2164681,1735.7128881217,2565286.3825201,41.830903090309,0,0
-159.30075493685,450.24216618762,36.635333533353,1273695.2164681,1735.7128881217,2565286.3825201,41.835333533353,0,0
-159.30075473184,450.29361237923,36.639763976398,1273695.2164681,1735.7128881217,2565286.3825201,41.839763976398,0,0
-159.30075452683,450.34505857084,36.644194419442,1273695.2164681,1735.7128881217,2565286.3825201,41.844194419442,0,0
-159.30075432182,450.39650476245,36.648624862486,1273695.2164681,1735.7128881217,2565286.3825201,41.848624862486,0,0
-159.3007541168,450.44795095406,36.653055305531,1273695.2164681,1735.7128881217,2565286.3825201,41.853055305531,0,0
-159.30075391179,450.49939714567,36.657485748575,1273695.2164681,1735.7128881217,2565286.3825201,41.857485748575,0,0
-159.30075370678,450.55084333728,36.661916191619,1273695.2164681,1735.7128881217,2565286.3825201,41.861916191619,0,0
-159.30075350177,450.60228952889,36.666346634663,1273695.2164681,1735.7128881217,2565286.3825201,41.866346634663,0,0
-159.30075329676,450.6537357205,36.670777077708,1273695.2164681,1735.7128881217,2565286.3825201,41.870777077708,0,0
-159.30075309175,450.70518191211,36.675207520752,1273695.2164681,1735.7128881217,2565286.3825201,41.875207520752,0,0
-159.30075288674,450.75662810372,36.679637963796,1273695.2164681,1735.7128881217,2565286.3825201,41.879637963796,0,0
-159.30075268173,450.80807429533,36.684068406841,1273695.2164681,1735.7128881217,2565286.3825201,41.884068406841,0,0
-159.30075247672,450.85952048694,36.688498849885,1273695.2164681,1735.7128881217,2565286.3825201,41.888498849885,0,0
-159.30075227171,450.91096667855,36.692929292929,1273695.2164681,1735.7128881217,2565286.3825201,41.892929292929,0,0
-159.3007520667,450.96241287015,36.697359735974,1273695.2164681,1735.7128881217,2565286.3825201,41.897359735974,0,0
-159.30075186169,451.01385906176,36.701790179018,1273695.2164681,1735.7128881217,2565286.3825201,41.901790179018,0,0
-159.30075165668,451.06530525337,36.706220622062,1273695.2164681,1735.7128881217,2565286.3825201,41.906220622062,0,0
-159.30075145167,451.11675144498,36.710651065107,1273695.2164681,1735.7128881217,2565286.3825201,41.910651065107,0,0
-159.30075124665,451.16819763659,36.715081508151,1273695.2164681,1735.7128881217,2565286.3825201,41.915081508151,0,0
-159.30075104164,451.2196438282,36.719511951195,1273695.2164681,1735.7128881217,2565286.3825201,41.919511951195,0,0
-159.30075083663,451.27109001981,36.723942394239,1273695.2164681,1735.7128881217,2565286.3825201,41.923942394239,0,0
-159.30075063162,451.32253621142,36.728372837284,1273695.2164681,1735.7128881217,2565286.3825201,41.928372837284,0,0
-159.30075042661,451.37398240303,36.732803280328,1273695.2164681,1735.7128881217,2565286.3825201,41.932803280328,0,0
-159.3007502216,451.42542859464,36.737233723372,1273695.2164681,1735.7128881217,2565286.3825201,41.937233723372,0,0
-159.30075001659,451.47687478625,36.741664166417,1273695.2164681,1735.7128881217,2565286.3825201,41.941664166417,0,0
-159.30074981158,451.52832097786,36.746094609461,1273695.2164681,1735.7128881217,2565286.3825201,41.946094609461,0,0
-159.30074960657,451.57976716947,36.750525052505,1273695.2164681,1735.7128881217,2565286.3825201,41.950525052505,0,0
-159.30074940156,451.63121336108,36.75495549555,1273695.2164681,1735.7128881217,2565286.3825201,41.95495549555,0,0
-159.30074919655,451.68265955269,36.759385938594,1273695.2164681,1735.7128881217,2565286.3825201,41.959385938594,0,0
-159.30074899154,451.7341057443,36.763816381638,1273695.2164681,1735.7128881217,2565286.3825201,41.963816381638,0,0
-159.30074878653,451.78555193591,36.768246824682,1273695.2164681,1735.7128881217,2565286.3825201,41.968246824682,0,0
-159.30074858152,451.83699812752,36.772677267727,1273695.2164681,1735.7128881217,2565286.3825201,41.972677267727,0,0
-159.3007483765,451.88844431913,36.777107710771,1273695.2164681,1735.7128881217,2565286.3825201,41.977107710771,0,0
-159.30074817149,451.93989051074,36.781538153815,1273695.2164681,1735.7128881217,2565286.3825201,41.981538153815,0,0
-159.30074796648,451.99133670235,36.78596859686,1273695.2164681,1735.7128881217,2565286.3825201,41.98596859686,0,0
-159.30074776147,452.04278289395,36.790399039904,1273695.2164681,1735.7128881217,2565286.3825201,41.990399039904,0,0
-159.30074755646,452.09422908556,36.794829482948,1273695.2164681,1735.7128881217,2565286.3825201,41.994829482948,0,0
-159.30074735145,452.14567527717,36.799259925993,1273695.2164681,1735.7128881217,2565286.3825201,41.999259925993,0,0
-159.30074714644,452.19712146878,36.803690369037,1273695.2164681,1735.7128881217,2565286.3825201,42.003690369037,0,0
-159.30074694143,452.24856766039,36.808120812081,1273695.2164681,1735.7128881217,2565286.3825201,42.008120812081,0,0
-159.30074673642,452.300013852,36.812551255126,1273695.2164681,1735.7128881217,2565286.3825201,42.012551255126,0,0
-159.30074653141,452.35146004361,36.81698169817,1273695.2164681,1735.7128881217,2565286.3825201,42.01698169817,0,0
-159.3007463264,452.40290623522,36.821412141214,1273695.2164681,1735.7128881217,2565286.3825201,42.021412141214,0,0
-159.30074612139,452.45435242683,36.825842584258,1273695.2164681,1735.7128881217,2565286.3825201,42.025842584258,0,0
-159.30074591638,452.50579861844,36.830273027303,1273695.2164681,1735.7128881217,2565286.3825201,42.030273027303,0,0
-159.30074571137,452.55724481005,36.834703470347,1273695.2164681,1735.7128881217,2565286.3825201,42.034703470347,0,0
-159.30074550635,452.60869100166,36.839133913391,1273695.2164681,1735.7128881217,2565286.3825201,42.039133913391,0,0
-159.30074530134,452.66013719327,36.843564356436,1273695.2164681,1735.7128881217,2565286.3825201,42.043564356436,0,0
-159.30074509633,452.71158338488,36.84799479948,1273695.2164681,1735.7128881217,2565286.3825201,42.04799479948,0,0
-159.30074489132,452.76302957649,36.852425242524,1273695.2164681,1735.7128881217,2565286.3825201,42.052425242524,0,0
-159.30074468631,452.8144757681,36.856855685569,1273695.2164681,1735.7128881217,2565286.3825201,42.056855685569,0,0
-159.3007444813,452.86592195971,36.861286128613,1273695.2164681,1735.7128881217,2565286.3825201,42.061286128613,0,0
-159.30074427629,452.91736815132,36.865716571657,1273695.2164681,1735.7128881217,2565286.3825201,42.065716571657,0,0
-159.30074407128,452.96881434293,36.870147014701,1273695.2164681,1735.7128881217,2565286.3825201,42.070147014701,0,0
-159.30074386627,453.02026053454,36.874577457746,1273695.2164681,1735.7128881217,2565286.3825201,42.074577457746,0,0
-159.30074366126,453.07170672614,36.87900790079,1273695.2164681,1735.7128881217,2565286.3825201,42.07900790079,0,0
-159.30074345625,453.12315291775,36.883438343834,1273695.2164681,1735.7128881217,2565286.3825201,42.083438343834,0,0
-159.30074325124,453.17459910936,36.887868786879,1273695.2164681,1735.7128881217,2565286.3825201,42.087868786879,0,0
-159.30074304623,453.22604530097,36.892299229923,1273695.2164681,1735.7128881217,2565286.3825201,42.092299229923,0,0
-159.30074284122,453.27749149258,36.896729672967,1273695.2164681,1735.7128881217,2565286.3825201,42.096729672967,0,0
-159.30074263621,453.32893768419,36.901160116012,1273695.2164681,1735.7128881217,2565286.3825201,42.101160116012,0,0
-159.30074243119,453.3803838758,36.905590559056,1273695.2164681,1735.7128881217,2565286.3825201,42.105590559056,0,0
-159.30074222618,453.43183006741,36.9100210021,1273695.2164681,1735.7128881217,2565286.3825201,42.1100210021,0,0
-159.30074202117,453.48327625902,36.914451445145,1273695.2164681,1735.7128881217,2565286.3825201,42.114451445145,0,0
-159.30074181616,453.53472245063,36.918881888189,1273695.2164681,1735.7128881217,2565286.3825201,42.118881888189,0,0
-159.30074161115,453.58616864224,36.923312331233,1273695.2164681,1735.7128881217,2565286.3825201,42.123312331233,0,0
-159.30074140614,453.63761483385,36.927742774277,1273695.2164681,1735.7128881217,2565286.3825201,42.127742774277,0,0
-159.30074120113,453.68906102546,36.932173217322,1273695.2164681,1735.7128881217,2565286.3825201,42.132173217322,0,0
-159.30074099612,453.74050721707,36.936603660366,1273695.2164681,1735.7128881217,2565286.3825201,42.136603660366,0,0
-159.30074079111,453.79195340868,36.94103410341,1273695.2164681,1735.7128881217,2565286.3825201,42.14103410341,0,0
-159.3007405861,453.84339960029,36.945464546455,1273695.2164681,1735.7128881217,2565286.3825201,42.145464546455,0,0
-159.30074038109,453.8948457919,36.949894989499,1273695.2164681,1735.7128881217,2565286.3825201,42.149894989499,0,0
-159.30074017608,453.94629198351,36.954325432543,1273695.2164681,1735.7128881217,2565286.3825201,42.154325432543,0,0
-159.30073997107,453.99773817512,36.958755875588,1273695.2164681,1735.7128881217,2565286.3825201,42.158755875588,0,0
-159.30073976606,454.04918436673,36.963186318632,1273695.2164681,1735.7128881217,2565286.3825201,42.163186318632,0,0
-159.30073956104,454.10063055834,36.967616761676,1273695.2164681,1735.7128881217,2565286.3825201,42.167616761676,0,0
-159.30073935603,454.15207674994,36.97204720472,1273695.2164681,1735.7128881217,2565286.3825201,42.17204720472,0,0
-159.30073915102,454.20352294155,36.976477647765,1273695.2164681,1735.7128881217,2565286.3825201,42.176477647765,0,0
-159.30073894601,454.25496913316,36.980908090809,1273695.2164681,1735.7128881217,2565286.3825201,42.180908090809,0,0
-159.300738741,454.30641532477,36.985338533853,1273695.2164681,1735.7128881217,2565286.3825201,42.185338533853,0,0
-159.30073853599,454.35786151638,36.989768976898,1273695.2164681,1735.7128881217,2565286.3825201,42.189768976898,0,0
-159.30073833098,454.40930770799,36.994199419942,1273695.2164681,1735.7128881217,2565286.3825201,42.194199419942,0,0
-159.30073812597,454.4607538996,36.998629862986,1273695.2164681,1735.7128881217,2565286.3825201,42.198629862986,0,0
-159.30073792096,454.51220009121,37.003060306031,1273695.2164681,1735.7128881217,2565286.3825201,42.203060306031,0,0
-159.30073771595,454.56364628282,37.007490749075,1273695.2164681,1735.7128881217,2565286.3825201,42.207490749075,0,0
-159.30073751094,454.61509247443,37.011921192119,1273695.2164681,1735.7128881217,2565286.3825201,42.211921192119,0,0
-159.30073730593,454.66653866604,37.016351635164,1273695.2164681,1735.7128881217,2565286.3825201,42.216351635164,0,0
-159.30073710092,454.71798485765,37.020782078208,1273695.2164681,1735.7128881217,2565286.3825201,42.220782078208,0,0
-159.30073689591,454.76943104926,37.025212521252,1273695.2164681,1735.7128881217,2565286.3825201,42.225212521252,0,0
-159.30073669089,454.82087724087,37.029642964296,1273695.2164681,1735.7128881217,2565286.3825201,42.229642964296,0,0
-159.30073648588,454.87232343248,37.034073407341,1273695.2164681,1735.7128881217,2565286.3825201,42.234073407341,0,0
-159.30073628087,454.92376962409,37.038503850385,1273695.2164681,1735.7128881217,2565286.3825201,42.238503850385,0,0
-159.30073607586,454.9752158157,37.042934293429,1273695.2164681,1735.7128881217,2565286.3825201,42.242934293429,0,0
-159.30073587085,455.02666200731,37.047364736474,1273695.2164681,1735.7128881217,2565286.3825201,42.247364736474,0,0
-159.30073566584,455.07810819892,37.051795179518,1273695.2164681,1735.7128881217,2565286.3825201,42.251795179518,0,0
-159.30073546083,455.12955439053,37.056225622562,1273695.2164681,1735.7128881217,2565286.3825201,42.256225622562,0,0
-159.30073525582,455.18100058214,37.060656065607,1273695.2164681,1735.7128881217,2565286.3825201,42.260656065607,0,0
-159.30073505081,455.23244677374,37.065086508651,1273695.2164681,1735.7128881217,2565286.3825201,42.265086508651,0,0
-159.3007348458,455.28389296535,37.069516951695,1273695.2164681,1735.7128881217,2565286.3825201,42.269516951695,0,0
-159.30073464079,455.33533915696,37.073947394739,1273695.2164681,1735.7128881217,2565286.3825201,42.273947394739,0,0
-159.30073443578,455.38678534857,37.078377837784,1273695.2164681,1735.7128881217,2565286.3825201,42.278377837784,0,0
-159.30073423077,455.43823154018,37.082808280828,1273695.2164681,1735.7128881217,2565286.3825201,42.282808280828,0,0
-159.30073402576,455.48967773179,37.087238723872,1273695.2164681,1735.7128881217,2565286.3825201,42.287238723872,0,0
-159.30073382075,455.5411239234,37.091669166917,1273695.2164681,1735.7128881217,2565286.3825201,42.291669166917,0,0
-159.30073361573,455.59257011501,37.096099609961,1273695.2164681,1735.7128881217,2565286.3825201,42.296099609961,0,0
-159.30073341072,455.64401630662,37.100530053005,1273695.2164681,1735.7128881217,2565286.3825201,42.300530053005,0,0
-159.30073320571,455.69546249823,37.10496049605,1273695.2164681,1735.7128881217,2565286.3825201,42.30496049605,0,0
-159.3007330007,455.74690868984,37.109390939094,1273695.2164681,1735.7128881217,2565286.3825201,42.309390939094,0,0
-159.30073279569,455.79835488145,37.113821382138,1273695.2164681,1735.7128881217,2565286.3825201,42.313821382138,0,0
-159.30073259068,455.84980107306,37.118251825183,1273695.2164681,1735.7128881217,2565286.3825201,42.318251825183,0,0
-159.30073238567,455.90124726467,37.122682268227,1273695.2164681,1735.7128881217,2565286.3825201,42.322682268227,0,0
-159.30073218066,455.95269345628,37.127112711271,1273695.2164681,1735.7128881217,2565286.3825201,42.327112711271,0,0
-159.30073197565,456.00413964789,37.131543154315,1273695.2164681,1735.7128881217,2565286.3825201,42.331543154315,0,0
-159.30073177064,456.0555858395,37.13597359736,1273695.2164681,1735.7128881217,2565286.3825201,42.33597359736,0,0
-159.30073156563,456.10703203111,37.140404040404,1273695.2164681,1735.7128881217,2565286.3825201,42.340404040404,0,0
-159.30073136062,456.15847822272,37.144834483448,1273695.2164681,1735.7128881217,2565286.3825201,42.344834483448,0,0
-159.30073115561,456.20992441433,37.149264926493,1273695.2164681,1735.7128881217,2565286.3825201,42.349264926493,0,0
-159.3007309506,456.26137060593,37.153695369537,1273695.2164681,1735.7128881217,2565286.3825201,42.353695369537,0,0
-159.30073074558,456.31281679754,37.158125812581,1273695.2164681,1735.7128881217,2565286.3825201,42.358125812581,0,0
-159.30073054057,456.36426298915,37.162556255626,1273695.2164681,1735.7128881217,2565286.3825201,42.362556255626,0,0
-159.30073033556,456.41570918076,37.16698669867,1273695.2164681,1735.7128881217,2565286.3825201,42.36698669867,0,0
-159.30073013055,456.46715537237,37.171417141714,1273695.2164681,1735.7128881217,2565286.3825201,42.371417141714,0,0
-159.30072992554,456.51860156398,37.175847584758,1273695.2164681,1735.7128881217,2565286.3825201,42.375847584758,0,0
-159.30072972053,456.57004775559,37.180278027803,1273695.2164681,1735.7128881217,2565286.3825201,42.380278027803,0,0
-159.30072951552,456.6214939472,37.184708470847,1273695.2164681,1735.7128881217,2565286.3825201,42.384708470847,0,0
-159.30072931051,456.67294013881,37.189138913891,1273695.2164681,1735.7128881217,2565286.3825201,42.389138913891,0,0
-159.3007291055,456.72438633042,37.193569356936,1273695.2164681,1735.7128881217,2565286.3825201,42.393569356936,0,0
-159.30072890049,456.77583252203,37.19799979998,1273695.2164681,1735.7128881217,2565286.3825201,42.39799979998,0,0
-159.30072869548,456.82727871364,37.202430243024,1273695.2164681,1735.7128881217,2565286.3825201,42.402430243024,0,0
-159.30072849047,456.87872490525,37.206860686069,1273695.2164681,1735.7128881217,2565286.3825201,42.406860686069,0,0
-159.30072828546,456.93017109686,37.211291129113,1273695.2164681,1735.7128881217,2565286.3825201,42.411291129113,0,0
-159.30072808045,456.98161728847,37.215721572157,1273695.2164681,1735.7128881217,2565286.3825201,42.415721572157,0,0
-159.30072787543,457.03306348008,37.220152015202,1273695.2164681,1735.7128881217,2565286.3825201,42.420152015202,0,0
-159.30072767042,457.08450967169,37.224582458246,1273695.2164681,1735.7128881217,2565286.3825201,42.424582458246,0,0
-159.30072746541,457.1359558633,37.22901290129,1273695.2164681,1735.7128881217,2565286.3825201,42.42901290129,0,0
-159.3007272604,457.18740205491,37.233443344334,1273695.2164681,1735.7128881217,2565286.3825201,42.433443344334,0,0
-159.30072705539,457.23884824652,37.237873787379,1273695.2164681,1735.7128881217,2565286.3825201,42.437873787379,0,0
-159.30072685038,457.29029443813,37.242304230423,1273695.2164681,1735.7128881217,2565286.3825201,42.442304230423,0,0
-159.30072664537,457.34174062973,37.246734673467,1273695.2164681,1735.7128881217,2565286.3825201,42.446734673467,0,0
-159.30072644036,457.39318682134,37.251165116512,1273695.2164681,1735.7128881217,2565286.3825201,42.451165116512,0,0
-159.30072623535,457.44463301295,37.255595559556,1273695.2164681,1735.7128881217,2565286.3825201,42.455595559556,0,0
-159.30072603034,457.49607920456,37.2600260026,1273695.2164681,1735.7128881217,2565286.3825201,42.4600260026,0,0
-159.30072582533,457.54752539617,37.264456445645,1273695.2164681,1735.7128881217,2565286.3825201,42.464456445645,0,0
-159.30072562032,457.59897158778,37.268886888689,1273695.2164681,1735.7128881217,2565286.3825201,42.468886888689,0,0
-159.30072541531,457.65041777939,37.273317331733,1273695.2164681,1735.7128881217,2565286.3825201,42.473317331733,0,0
-159.3007252103,457.701863971,37.277747774777,1273695.2164681,1735.7128881217,2565286.3825201,42.477747774777,0,0
-159.30072500529,457.75331016261,37.282178217822,1273695.2164681,1735.7128881217,2565286.3825201,42.482178217822,0,0
-159.30072480027,457.80475635422,37.286608660866,1273695.2164681,1735.7128881217,2565286.3825201,42.486608660866,0,0
-159.30072459526,457.85620254583,37.29103910391,1273695.2164681,1735.7128881217,2565286.3825201,42.49103910391,0,0
-159.30072439025,457.90764873744,37.295469546955,1273695.2164681,1735.7128881217,2565286.3825201,42.495469546955,0,0
-159.30072418524,457.95909492905,37.299899989999,1273695.2164681,1735.7128881217,2565286.3825201,42.499899989999,0,0
-159.30072398023,458.01054112066,37.304330433043,1273695.2164681,1735.7128881217,2565286.3825201,42.504330433043,0,0
-159.30072377522,458.06198731227,37.308760876088,1273695.2164681,1735.7128881217,2565286.3825201,42.508760876088,0,0
-159.30072357021,458.11343350388,37.313191319132,1273695.2164681,1735.7128881217,2565286.3825201,42.513191319132,0,0
-159.3007233652,458.16487969549,37.317621762176,1273695.2164681,1735.7128881217,2565286.3825201,42.517621762176,0,0
-159.30072316019,458.2163258871,37.322052205221,1273695.2164681,1735.7128881217,2565286.3825201,42.522052205221,0,0
-159.30072295518,458.26777207871,37.326482648265,1273695.2164681,1735.7128881217,2565286.3825201,42.526482648265,0,0
-159.30072275017,458.31921827032,37.330913091309,1273695.2164681,1735.7128881217,2565286.3825201,42.530913091309,0,0
-159.30072254516,458.37066446193,37.335343534353,1273695.2164681,1735.7128881217,2565286.3825201,42.535343534353,0,0
-159.30072234015,458.42211065353,37.339773977398,1273695.2164681,1735.7128881217,2565286.3825201,42.539773977398,0,0
-159.30072213514,458.47355684514,37.344204420442,1273695.2164681,1735.7128881217,2565286.3825201,42.544204420442,0,0
-159.30072193012,458.52500303675,37.348634863486,1273695.2164681,1735.7128881217,2565286.3825201,42.548634863486,0,0
-159.30072172511,458.57644922836,37.353065306531,1273695.2164681,1735.7128881217,2565286.3825201,42.553065306531,0,0
-159.3007215201,458.62789541997,37.357495749575,1273695.2164681,1735.7128881217,2565286.3825201,42.557495749575,0,0
-159.30072131509,458.67934161158,37.361926192619,1273695.2164681,1735.7128881217,2565286.3825201,42.561926192619,0,0
-159.30072111008,458.73078780319,37.366356635664,1273695.2164681,1735.7128881217,2565286.3825201,42.566356635664,0,0
-159.30072090507,458.7822339948,37.370787078708,1273695.2164681,1735.7128881217,2565286.3825201,42.570787078708,0,0
-159.30072070006,458.83368018641,37.375217521752,1273695.2164681,1735.7128881217,2565286.3825201,42.575217521752,0,0
-159.30072049505,458.88512637802,37.379647964796,1273695.2164681,1735.7128881217,2565286.3825201,42.579647964796,0,0
-159.30072029004,458.93657256963,37.384078407841,1273695.2164681,1735.7128881217,2565286.3825201,42.584078407841,0,0
-159.30072008503,458.98801876124,37.388508850885,1273695.2164681,1735.7128881217,2565286.3825201,42.588508850885,0,0
-159.30071988002,459.03946495285,37.392939293929,1273695.2164681,1735.7128881217,2565286.3825201,42.592939293929,0,0
-159.30071967501,459.09091114446,37.397369736974,1273695.2164681,1735.7128881217,2565286.3825201,42.597369736974,0,0
-159.30071947,459.14235733607,37.401800180018,1273695.2164681,1735.7128881217,2565286.3825201,42.601800180018,0,0
-159.30071926499,459.19380352768,37.406230623062,1273695.2164681,1735.7128881217,2565286.3825201,42.606230623062,0,0
-159.30071905997,459.24524971929,37.410661066107,1273695.2164681,1735.7128881217,2565286.3825201,42.610661066107,0,0
-159.30071885496,459.2966959109,37.415091509151,1273695.2164681,1735.7128881217,2565286.3825201,42.615091509151,0,0
-159.30071864995,459.34814210251,37.419521952195,1273695.2164681,1735.7128881217,2565286.3825201,42.619521952195,0,0
-159.30071844494,459.39958829412,37.42395239524,1273695.2164681,1735.7128881217,2565286.3825201,42.62395239524,0,0
-159.30071823993,459.45103448573,37.428382838284,1273695.2164681,1735.7128881217,2565286.3825201,42.628382838284,0,0
-159.30071803492,459.50248067733,37.432813281328,1273695.2164681,1735.7128881217,2565286.3825201,42.632813281328,0,0
-159.30071782991,459.55392686894,37.437243724372,1273695.2164681,1735.7128881217,2565286.3825201,42.637243724372,0,0
-159.3007176249,459.60537306055,37.441674167417,1273695.2164681,1735.7128881217,2565286.3825201,42.641674167417,0,0
-159.30071741989,459.65681925216,37.446104610461,1273695.2164681,1735.7128881217,2565286.3825201,42.646104610461,0,0
-159.30071721488,459.70826544377,37.450535053505,1273695.2164681,1735.7128881217,2565286.3825201,42.650535053505,0,0
-159.30071700987,459.75971163538,37.45496549655,1273695.2164681,1735.7128881217,2565286.3825201,42.65496549655,0,0
-159.30071680486,459.81115782699,37.459395939594,1273695.2164681,1735.7128881217,2565286.3825201,42.659395939594,0,0
-159.30071659985,459.8626040186,37.463826382638,1273695.2164681,1735.7128881217,2565286.3825201,42.663826382638,0,0
-159.30071639484,459.91405021021,37.468256825683,1273695.2164681,1735.7128881217,2565286.3825201,42.668256825683,0,0
-159.30071618983,459.96549640182,37.472687268727,1273695.2164681,1735.7128881217,2565286.3825201,42.672687268727,0,0
-159.30071598481,460.01694259343,37.477117711771,1273695.2164681,1735.7128881217,2565286.3825201,42.677117711771,0,0
-159.3007157798,460.06838878504,37.481548154815,1273695.2164681,1735.7128881217,2565286.3825201,42.681548154815,0,0
-159.30071557479,460.11983497665,37.48597859786,1273695.2164681,1735.7128881217,2565286.3825201,42.68597859786,0,0
-159.30071536978,460.17128116826,37.490409040904,1273695.2164681,1735.7128881217,2565286.3825201,42.690409040904,0,0
-159.30071516477,460.22272735987,37.494839483948,1273695.2164681,1735.7128881217,2565286.3825201,42.694839483948,0,0
-159.30071495976,460.27417355148,37.499269926993,1273695.2164681,1735.7128881217,2565286.3825201,42.699269926993,0,0
-159.30071475475,460.32561974309,37.503700370037,1273695.2164681,1735.7128881217,2565286.3825201,42.703700370037,0,0
-159.30071454974,460.3770659347,37.508130813081,1273695.2164681,1735.7128881217,2565286.3825201,42.708130813081,0,0
-159.30071434473,460.42851212631,37.512561256126,1273695.2164681,1735.7128881217,2565286.3825201,42.712561256126,0,0
-159.30071413972,460.47995831792,37.51699169917,1273695.2164681,1735.7128881217,2565286.3825201,42.71699169917,0,0
-159.30071393471,460.53140450952,37.521422142214,1273695.2164681,1735.7128881217,2565286.3825201,42.721422142214,0,0
-159.3007137297,460.58285070113,37.525852585259,1273695.2164681,1735.7128881217,2565286.3825201,42.725852585259,0,0
-159.30071352469,460.63429689274,37.530283028303,1273695.2164681,1735.7128881217,2565286.3825201,42.730283028303,0,0
-159.30071331968,460.68574308435,37.534713471347,1273695.2164681,1735.7128881217,2565286.3825201,42.734713471347,0,0
-159.30071311466,460.73718927596,37.539143914391,1273695.2164681,1735.7128881217,2565286.3825201,42.739143914391,0,0
-159.30071290965,460.78863546757,37.543574357436,1273695.2164681,1735.7128881217,2565286.3825201,42.743574357436,0,0
-159.30071270464,460.84008165918,37.54800480048,1273695.2164681,1735.7128881217,2565286.3825201,42.74800480048,0,0
-159.30071249963,460.89152785079,37.552435243524,1273695.2164681,1735.7128881217,2565286.3825201,42.752435243524,0,0
-159.30071229462,460.9429740424,37.556865686569,1273695.2164681,1735.7128881217,2565286.3825201,42.756865686569,0,0
-159.30071208961,460.99442023401,37.561296129613,1273695.2164681,1735.7128881217,2565286.3825201,42.761296129613,0,0
-159.3007118846,461.04586642562,37.565726572657,1273695.2164681,1735.7128881217,2565286.3825201,42.765726572657,0,0
-159.30071167959,461.09731261723,37.570157015702,1273695.2164681,1735.7128881217,2565286.3825201,42.770157015702,0,0
-159.30071147458,461.14875880884,37.574587458746,1273695.2164681,1735.7128881217,2565286.3825201,42.774587458746,0,0
-159.30071126957,461.20020500045,37.57901790179,1273695.2164681,1735.7128881217,2565286.3825201,42.77901790179,0,0
-159.30071106456,461.25165119206,37.583448344834,1273695.2164681,1735.7128881217,2565286.3825201,42.783448344834,0,0
-159.30071085955,461.30309738367,37.587878787879,1273695.2164681,1735.7128881217,2565286.3825201,42.787878787879,0,0
-159.30071065454,461.35454357528,37.592309230923,1273695.2164681,1735.7128881217,2565286.3825201,42.792309230923,0,0
-159.30071044953,461.40598976689,37.596739673967,1273695.2164681,1735.7128881217,2565286.3825201,42.796739673967,0,0
-159.30071024451,461.4574359585,37.601170117012,1273695.2164681,1735.7128881217,2565286.3825201,42.801170117012,0,0
-159.3007100395,461.50888215011,37.605600560056,1273695.2164681,1735.7128881217,2565286.3825201,42.805600560056,0,0
-159.30070983449,461.56032834172,37.6100310031,1273695.2164681,1735.7128881217,2565286.3825201,42.8100310031,0,0
-159.30070962948,461.61177453332,37.614461446145,1273695.2164681,1735.7128881217,2565286.3825201,42.814461446145,0,0
-159.30070942447,461.66322072493,37.618891889189,1273695.2164681,1735.7128881217,2565286.3825201,42.818891889189,0,0
-159.30070921946,461.71466691654,37.623322332233,1273695.2164681,1735.7128881217,2565286.3825201,42.823322332233,0,0
-159.30070901445,461.76611310815,37.627752775278,1273695.2164681,1735.7128881217,2565286.3825201,42.827752775278,0,0
-159.30070880944,461.81755929976,37.632183218322,1273695.2164681,1735.7128881217,2565286.3825201,42.832183218322,0,0
-159.30070860443,461.86900549137,37.636613661366,1273695.2164681,1735.7128881217,2565286.3825201,42.836613661366,0,0
-159.30070839942,461.92045168298,37.64104410441,1273695.2164681,1735.7128881217,2565286.3825201,42.84104410441,0,0
-159.30070819441,461.97189787459,37.645474547455,1273695.2164681,1735.7128881217,2565286.3825201,42.845474547455,0,0
-159.3007079894,462.0233440662,37.649904990499,1273695.2164681,1735.7128881217,2565286.3825201,42.849904990499,0,0
-159.30070778439,462.07479025781,37.654335433543,1273695.2164681,1735.7128881217,2565286.3825201,42.854335433543,0,0
-159.30070757938,462.12623644942,37.658765876588,1273695.2164681,1735.7128881217,2565286.3825201,42.858765876588,0,0
-159.30070737437,462.17768264103,37.663196319632,1273695.2164681,1735.7128881217,2565286.3825201,42.863196319632,0,0
-159.30070716935,462.22912883264,37.667626762676,1273695.2164681,1735.7128881217,2565286.3825201,42.867626762676,0,0
-159.30070696434,462.28057502425,37.672057205721,1273695.2164681,1735.7128881217,2565286.3825201,42.872057205721,0,0
-159.30070675933,462.33202121586,37.676487648765,1273695.2164681,1735.7128881217,2565286.3825201,42.876487648765,0,0
-159.30070655432,462.38346740747,37.680918091809,1273695.2164681,1735.7128881217,2565286.3825201,42.880918091809,0,0
-159.30070634931,462.43491359908,37.685348534853,1273695.2164681,1735.7128881217,2565286.3825201,42.885348534853,0,0
-159.3007061443,462.48635979069,37.689778977898,1273695.2164681,1735.7128881217,2565286.3825201,42.889778977898,0,0
-159.30070593929,462.5378059823,37.694209420942,1273695.2164681,1735.7128881217,2565286.3825201,42.894209420942,0,0
-159.30070573428,462.58925217391,37.698639863986,1273695.2164681,1735.7128881217,2565286.3825201,42.898639863986,0,0
-159.30070552927,462.64069836552,37.703070307031,1273695.2164681,1735.7128881217,2565286.3825201,42.903070307031,0,0
-159.30070532426,462.69214455712,37.707500750075,1273695.2164681,1735.7128881217,2565286.3825201,42.907500750075,0,0
-159.30070511925,462.74359074873,37.711931193119,1273695.2164681,1735.7128881217,2565286.3825201,42.911931193119,0,0
-159.30070491424,462.79503694034,37.716361636164,1273695.2164681,1735.7128881217,2565286.3825201,42.916361636164,0,0
-159.30070470923,462.84648313195,37.720792079208,1273695.2164681,1735.7128881217,2565286.3825201,42.920792079208,0,0
-159.30070450422,462.89792932356,37.725222522252,1273695.2164681,1735.7128881217,2565286.3825201,42.925222522252,0,0
-159.3007042992,462.94937551517,37.729652965297,1273695.2164681,1735.7128881217,2565286.3825201,42.929652965297,0,0
-159.30070409419,463.00082170678,37.734083408341,1273695.2164681,1735.7128881217,2565286.3825201,42.934083408341,0,0
-159.30070388918,463.05226789839,37.738513851385,1273695.2164681,1735.7128881217,2565286.3825201,42.938513851385,0,0
-159.30070368417,463.10371409,37.742944294429,1273695.2164681,1735.7128881217,2565286.3825201,42.942944294429,0,0
-159.30070347916,463.15516028161,37.747374737474,1273695.2164681,1735.7128881217,2565286.3825201,42.947374737474,0,0
-159.30070327415,463.20660647322,37.751805180518,1273695.2164681,1735.7128881217,2565286.3825201,42.951805180518,0,0
-159.30070306914,463.25805266483,37.756235623562,1273695.2164681,1735.7128881217,2565286.3825201,42.956235623562,0,0
-159.30070286413,463.30949885644,37.760666066607,1273695.2164681,1735.7128881217,2565286.3825201,42.960666066607,0,0
-159.30070265912,463.36094504805,37.765096509651,1273695.2164681,1735.7128881217,2565286.3825201,42.965096509651,0,0
-159.30070245411,463.41239123966,37.769526952695,1273695.2164681,1735.7128881217,2565286.3825201,42.969526952695,0,0
-159.3007022491,463.46383743127,37.77395739574,1273695.2164681,1735.7128881217,2565286.3825201,42.97395739574,0,0
-159.30070204409,463.51528362288,37.778387838784,1273695.2164681,1735.7128881217,2565286.3825201,42.978387838784,0,0
-159.30070183908,463.56672981449,37.782818281828,1273695.2164681,1735.7128881217,2565286.3825201,42.982818281828,0,0
-159.30070163407,463.6181760061,37.787248724872,1273695.2164681,1735.7128881217,2565286.3825201,42.987248724872,0,0
-159.30070142905,463.66962219771,37.791679167917,1273695.2164681,1735.7128881217,2565286.3825201,42.991679167917,0,0
-159.30070122404,463.72106838931,37.796109610961,1273695.2164681,1735.7128881217,2565286.3825201,42.996109610961,0,0
-159.30070101903,463.77251458092,37.800540054005,1273695.2164681,1735.7128881217,2565286.3825201,43.000540054005,0,0
-159.30070081402,463.82396077253,37.80497049705,1273695.2164681,1735.7128881217,2565286.3825201,43.00497049705,0,0
-159.30070060901,463.87540696414,37.809400940094,1273695.2164681,1735.7128881217,2565286.3825201,43.009400940094,0,0
-159.300700404,463.92685315575,37.813831383138,1273695.2164681,1735.7128881217,2565286.3825201,43.013831383138,0,0
-159.30070019899,463.97829934736,37.818261826183,1273695.2164681,1735.7128881217,2565286.3825201,43.018261826183,0,0
-159.30069999398,464.02974553897,37.822692269227,1273695.2164681,1735.7128881217,2565286.3825201,43.022692269227,0,0
-159.30069978897,464.08119173058,37.827122712271,1273695.2164681,1735.7128881217,2565286.3825201,43.027122712271,0,0
-159.30069958396,464.13263792219,37.831553155316,1273695.2164681,1735.7128881217,2565286.3825201,43.031553155316,0,0
-159.30069937895,464.1840841138,37.83598359836,1273695.2164681,1735.7128881217,2565286.3825201,43.03598359836,0,0
-159.30069917394,464.23553030541,37.840414041404,1273695.2164681,1735.7128881217,2565286.3825201,43.040414041404,0,0
-159.30069896893,464.28697649702,37.844844484448,1273695.2164681,1735.7128881217,2565286.3825201,43.044844484448,0,0
-159.30069876392,464.33842268863,37.849274927493,1273695.2164681,1735.7128881217,2565286.3825201,43.049274927493,0,0
-159.3006985589,464.38986888024,37.853705370537,1273695.2164681,1735.7128881217,2565286.3825201,43.053705370537,0,0
-159.30069835389,464.44131507185,37.858135813581,1273695.2164681,1735.7128881217,2565286.3825201,43.058135813581,0,0
-159.30069814888,464.49276126346,37.862566256626,1273695.2164681,1735.7128881217,2565286.3825201,43.062566256626,0,0
-159.30069794387,464.54420745507,37.86699669967,1273695.2164681,1735.7128881217,2565286.3825201,43.06699669967,0,0
-159.30069773886,464.59565364668,37.871427142714,1273695.2164681,1735.7128881217,2565286.3825201,43.071427142714,0,0
-159.30069753385,464.64709983829,37.875857585759,1273695.2164681,1735.7128881217,2565286.3825201,43.075857585759,0,0
-159.30069732884,464.6985460299,37.880288028803,1273695.2164681,1735.7128881217,2565286.3825201,43.080288028803,0,0
-159.30069712383,464.74999222151,37.884718471847,1273695.2164681,1735.7128881217,2565286.3825201,43.084718471847,0,0
-159.30069691882,464.80143841311,37.889148914891,1273695.2164681,1735.7128881217,2565286.3825201,43.089148914891,0,0
-159.30069671381,464.85288460472,37.893579357936,1273695.2164681,1735.7128881217,2565286.3825201,43.093579357936,0,0
-159.3006965088,464.90433079633,37.89800980098,1273695.2164681,1735.7128881217,2565286.3825201,43.09800980098,0,0
-159.30069630379,464.95577698794,37.902440244024,1273695.2164681,1735.7128881217,2565286.3825201,43.102440244024,0,0
-159.30069609878,465.00722317955,37.906870687069,1273695.2164681,1735.7128881217,2565286.3825201,43.106870687069,0,0
-159.30069589377,465.05866937116,37.911301130113,1273695.2164681,1735.7128881217,2565286.3825201,43.111301130113,0,0
-159.30069568876,465.11011556277,37.915731573157,1273695.2164681,1735.7128881217,2565286.3825201,43.115731573157,0,0
-159.30069548374,465.16156175438,37.920162016202,1273695.2164681,1735.7128881217,2565286.3825201,43.120162016202,0,0
-159.30069527873,465.21300794599,37.924592459246,1273695.2164681,1735.7128881217,2565286.3825201,43.124592459246,0,0
-159.30069507372,465.2644541376,37.92902290229,1273695.2164681,1735.7128881217,2565286.3825201,43.12902290229,0,0
-159.30069486871,465.31590032921,37.933453345335,1273695.2164681,1735.7128881217,2565286.3825201,43.133453345335,0,0
-159.3006946637,465.36734652082,37.937883788379,1273695.2164681,1735.7128881217,2565286.3825201,43.137883788379,0,0
-159.30069445869,465.41879271243,37.942314231423,1273695.2164681,1735.7128881217,2565286.3825201,43.142314231423,0,0
-159.30069425368,465.47023890404,37.946744674467,1273695.2164681,1735.7128881217,2565286.3825201,43.146744674467,0,0
-159.30069404867,465.52168509565,37.951175117512,1273695.2164681,1735.7128881217,2565286.3825201,43.151175117512,0,0
-159.30069384366,465.57313128726,37.955605560556,1273695.2164681,1735.7128881217,2565286.3825201,43.155605560556,0,0
-159.30069363865,465.62457747887,37.9600360036,1273695.2164681,1735.7128881217,2565286.3825201,43.1600360036,0,0
-159.30069343364,465.67602367048,37.964466446645,1273695.2164681,1735.7128881217,2565286.3825201,43.164466446645,0,0
-159.30069322863,465.72746986209,37.968896889689,1273695.2164681,1735.7128881217,2565286.3825201,43.168896889689,0,0
-159.30069302362,465.7789160537,37.973327332733,1273695.2164681,1735.7128881217,2565286.3825201,43.173327332733,0,0
-159.30069281861,465.83036224531,37.977757775778,1273695.2164681,1735.7128881217,2565286.3825201,43.177757775778,0,0
-159.30069261359,465.88180843691,37.982188218822,1273695.2164681,1735.7128881217,2565286.3825201,43.182188218822,0,0
-159.30069240858,465.93325462852,37.986618661866,1273695.2164681,1735.7128881217,2565286.3825201,43.186618661866,0,0
-159.30069220357,465.98470082013,37.99104910491,1273695.2164681,1735.7128881217,2565286.3825201,43.19104910491,0,0
-159.30069199856,466.03614701174,37.995479547955,1273695.2164681,1735.7128881217,2565286.3825201,43.195479547955,0,0
-159.30069179355,466.08759320335,37.999909990999,1273695.2164681,1735.7128881217,2565286.3825201,43.199909990999,0,0
-159.30069158854,466.13903939496,38.004340434043,1273695.2164681,1735.7128881217,2565286.3825201,43.204340434043,0,0
-159.30069138353,466.19048558657,38.008770877088,1273695.2164681,1735.7128881217,2565286.3825201,43.208770877088,0,0
-159.30069117852,466.24193177818,38.013201320132,1273695.2164681,1735.7128881217,2565286.3825201,43.213201320132,0,0
-159.30069097351,466.29337796979,38.017631763176,1273695.2164681,1735.7128881217,2565286.3825201,43.217631763176,0,0
-159.3006907685,466.3448241614,38.022062206221,1273695.2164681,1735.7128881217,2565286.3825201,43.222062206221,0,0
-159.30069056349,466.39627035301,38.026492649265,1273695.2164681,1735.7128881217,2565286.3825201,43.226492649265,0,0
-159.30069035848,466.44771654462,38.030923092309,1273695.2164681,1735.7128881217,2565286.3825201,43.230923092309,0,0
-159.30069015347,466.49916273623,38.035353535354,1273695.2164681,1735.7128881217,2565286.3825201,43.235353535354,0,0
-159.30068994846,466.55060892784,38.039783978398,1273695.2164681,1735.7128881217,2565286.3825201,43.239783978398,0,0
-159.30068974344,466.60205511945,38.044214421442,1273695.2164681,1735.7128881217,2565286.3825201,43.244214421442,0,0
-159.30068953843,466.65350131106,38.048644864486,1273695.2164681,1735.7128881217,2565286.3825201,43.248644864486,0,0
-159.30068933342,466.70494750267,38.053075307531,1273695.2164681,1735.7128881217,2565286.3825201,43.253075307531,0,0
-159.30068912841,466.75639369428,38.057505750575,1273695.2164681,1735.7128881217,2565286.3825201,43.257505750575,0,0
-159.3006889234,466.80783988589,38.061936193619,1273695.2164681,1735.7128881217,2565286.3825201,43.261936193619,0,0
-159.30068871839,466.8592860775,38.066366636664,1273695.2164681,1735.7128881217,2565286.3825201,43.266366636664,0,0
-159.30068851338,466.9107322691,38.070797079708,1273695.2164681,1735.7128881217,2565286.3825201,43.270797079708,0,0
-159.30068830837,466.96217846071,38.075227522752,1273695.2164681,1735.7128881217,2565286.3825201,43.275227522752,0,0
-159.30068810336,467.01362465232,38.079657965797,1273695.2164681,1735.7128881217,2565286.3825201,43.279657965797,0,0
-159.30068789835,467.06507084393,38.084088408841,1273695.2164681,1735.7128881217,2565286.3825201,43.284088408841,0,0
-159.30068769334,467.11651703554,38.088518851885,1273695.2164681,1735.7128881217,2565286.3825201,43.288518851885,0,0
-159.30068748833,467.16796322715,38.092949294929,1273695.2164681,1735.7128881217,2565286.3825201,43.292949294929,0,0
-159.30068728332,467.21940941876,38.097379737974,1273695.2164681,1735.7128881217,2565286.3825201,43.297379737974,0,0
-159.30068707831,467.27085561037,38.101810181018,1273695.2164681,1735.7128881217,2565286.3825201,43.301810181018,0,0
-159.3006868733,467.32230180198,38.106240624062,1273695.2164681,1735.7128881217,2565286.3825201,43.306240624062,0,0
-159.30068666828,467.37374799359,38.110671067107,1273695.2164681,1735.7128881217,2565286.3825201,43.310671067107,0,0
-159.30068646327,467.4251941852,38.115101510151,1273695.2164681,1735.7128881217,2565286.3825201,43.315101510151,0,0
-159.30068625826,467.47664037681,38.119531953195,1273695.2164681,1735.7128881217,2565286.3825201,43.319531953195,0,0
-159.30068605325,467.52808656842,38.12396239624,1273695.2164681,1735.7128881217,2565286.3825201,43.32396239624,0,0
-159.30068584824,467.57953276003,38.128392839284,1273695.2164681,1735.7128881217,2565286.3825201,43.328392839284,0,0
-159.30068564323,467.63097895164,38.132823282328,1273695.2164681,1735.7128881217,2565286.3825201,43.332823282328,0,0
-159.30068543822,467.68242514325,38.137253725373,1273695.2164681,1735.7128881217,2565286.3825201,43.337253725373,0,0
-159.30068523321,467.73387133486,38.141684168417,1273695.2164681,1735.7128881217,2565286.3825201,43.341684168417,0,0
-159.3006850282,467.78531752647,38.146114611461,1273695.2164681,1735.7128881217,2565286.3825201,43.346114611461,0,0
-159.30068482319,467.83676371808,38.150545054505,1273695.2164681,1735.7128881217,2565286.3825201,43.350545054505,0,0
-159.30068461818,467.88820990969,38.15497549755,1273695.2164681,1735.7128881217,2565286.3825201,43.35497549755,0,0
-159.30068441317,467.9396561013,38.159405940594,1273695.2164681,1735.7128881217,2565286.3825201,43.359405940594,0,0
-159.30068420816,467.9911022929,38.163836383638,1273695.2164681,1735.7128881217,2565286.3825201,43.363836383638,0,0
-159.30068400315,468.04254848451,38.168266826683,1273695.2164681,1735.7128881217,2565286.3825201,43.368266826683,0,0
-159.30068379813,468.09399467612,38.172697269727,1273695.2164681,1735.7128881217,2565286.3825201,43.372697269727,0,0
-159.30068359312,468.14544086773,38.177127712771,1273695.2164681,1735.7128881217,2565286.3825201,43.377127712771,0,0
-159.30068338811,468.19688705934,38.181558155816,1273695.2164681,1735.7128881217,2565286.3825201,43.381558155816,0,0
-159.3006831831,468.24833325095,38.18598859886,1273695.2164681,1735.7128881217,2565286.3825201,43.38598859886,0,0
-159.30068297809,468.29977944256,38.190419041904,1273695.2164681,1735.7128881217,2565286.3825201,43.390419041904,0,0
-159.30068277308,468.35122563417,38.194849484948,1273695.2164681,1735.7128881217,2565286.3825201,43.394849484948,0,0
-159.30068256807,468.40267182578,38.199279927993,1273695.2164681,1735.7128881217,2565286.3825201,43.399279927993,0,0
-159.30068236306,468.45411801739,38.203710371037,1273695.2164681,1735.7128881217,2565286.3825201,43.403710371037,0,0
-159.30068215805,468.505564209,38.208140814081,1273695.2164681,1735.7128881217,2565286.3825201,43.408140814081,0,0
-159.30068195304,468.55701040061,38.212571257126,1273695.2164681,1735.7128881217,2565286.3825201,43.412571257126,0,0
-159.30068174803,468.60845659222,38.21700170017,1273695.2164681,1735.7128881217,2565286.3825201,43.41700170017,0,0
-159.30068154302,468.65990278383,38.221432143214,1273695.2164681,1735.7128881217,2565286.3825201,43.421432143214,0,0
-159.30068133801,468.71134897544,38.225862586259,1273695.2164681,1735.7128881217,2565286.3825201,43.425862586259,0,0
-159.300681133,468.76279516705,38.230293029303,1273695.2164681,1735.7128881217,2565286.3825201,43.430293029303,0,0
-159.30068092798,468.81424135866,38.234723472347,1273695.2164681,1735.7128881217,2565286.3825201,43.434723472347,0,0
-159.30068072297,468.86568755027,38.239153915392,1273695.2164681,1735.7128881217,2565286.3825201,43.439153915392,0,0
-159.30068051796,468.91713374188,38.243584358436,1273695.2164681,1735.7128881217,2565286.3825201,43.443584358436,0,0
-159.30068031295,468.96857993349,38.24801480148,1273695.2164681,1735.7128881217,2565286.3825201,43.44801480148,0,0
-159.30068010794,469.0200261251,38.252445244524,1273695.2164681,1735.7128881217,2565286.3825201,43.452445244524,0,0
-159.30067990293,469.0714723167,38.256875687569,1273695.2164681,1735.7128881217,2565286.3825201,43.456875687569,0,0
-159.30067969792,469.12291850831,38.261306130613,1273695.2164681,1735.7128881217,2565286.3825201,43.461306130613,0,0
-159.30067949291,469.17436469992,38.265736573657,1273695.2164681,1735.7128881217,2565286.3825201,43.465736573657,0,0
-159.3006792879,469.22581089153,38.270167016702,1273695.2164681,1735.7128881217,2565286.3825201,43.470167016702,0,0
-159.30067908289,469.27725708314,38.274597459746,1273695.2164681,1735.7128881217,2565286.3825201,43.474597459746,0,0
-159.30067887788,469.32870327475,38.27902790279,1273695.2164681,1735.7128881217,2565286.3825201,43.47902790279,0,0
-159.30067867287,469.38014946636,38.283458345835,1273695.2164681,1735.7128881217,2565286.3825201,43.483458345835,0,0
-159.30067846786,469.43159565797,38.287888788879,1273695.2164681,1735.7128881217,2565286.3825201,43.487888788879,0,0
-159.30067826285,469.48304184958,38.292319231923,1273695.2164681,1735.7128881217,2565286.3825201,43.492319231923,0,0
-159.30067805784,469.53448804119,38.296749674967,1273695.2164681,1735.7128881217,2565286.3825201,43.496749674967,0,0
-159.30067785282,469.5859342328,38.301180118012,1273695.2164681,1735.7128881217,2565286.3825201,43.501180118012,0,0
-159.30067764781,469.63738042441,38.305610561056,1273695.2164681,1735.7128881217,2565286.3825201,43.505610561056,0,0
-159.3006774428,469.68882661602,38.3100410041,1273695.2164681,1735.7128881217,2565286.3825201,43.5100410041,0,0
-159.30067723779,469.74027280763,38.314471447145,1273695.2164681,1735.7128881217,2565286.3825201,43.514471447145,0,0
-159.30067703278,469.79171899924,38.318901890189,1273695.2164681,1735.7128881217,2565286.3825201,43.518901890189,0,0
-159.30067682777,469.84316519085,38.323332333233,1273695.2164681,1735.7128881217,2565286.3825201,43.523332333233,0,0
-159.30067662276,469.89461138246,38.327762776278,1273695.2164681,1735.7128881217,2565286.3825201,43.527762776278,0,0
-159.30067641775,469.94605757407,38.332193219322,1273695.2164681,1735.7128881217,2565286.3825201,43.532193219322,0,0
-159.30067621274,469.99750376568,38.336623662366,1273695.2164681,1735.7128881217,2565286.3825201,43.536623662366,0,0
-159.30067600773,470.04894995729,38.341054105411,1273695.2164681,1735.7128881217,2565286.3825201,43.541054105411,0,0
-159.30067580272,470.1003961489,38.345484548455,1273695.2164681,1735.7128881217,2565286.3825201,43.545484548455,0,0
-159.30067559771,470.1518423405,38.349914991499,1273695.2164681,1735.7128881217,2565286.3825201,43.549914991499,0,0
-159.3006753927,470.20328853211,38.354345434543,1273695.2164681,1735.7128881217,2565286.3825201,43.554345434543,0,0
-159.30067518769,470.25473472372,38.358775877588,1273695.2164681,1735.7128881217,2565286.3825201,43.558775877588,0,0
-159.30067498267,470.30618091533,38.363206320632,1273695.2164681,1735.7128881217,2565286.3825201,43.563206320632,0,0
-159.30067477766,470.35762710694,38.367636763676,1273695.2164681,1735.7128881217,2565286.3825201,43.567636763676,0,0
-159.30067457265,470.40907329855,38.372067206721,1273695.2164681,1735.7128881217,2565286.3825201,43.572067206721,0,0
-159.30067436764,470.46051949016,38.376497649765,1273695.2164681,1735.7128881217,2565286.3825201,43.576497649765,0,0
-159.30067416263,470.51196568177,38.380928092809,1273695.2164681,1735.7128881217,2565286.3825201,43.580928092809,0,0
-159.30067395762,470.56341187338,38.385358535854,1273695.2164681,1735.7128881217,2565286.3825201,43.585358535854,0,0
-159.30067375261,470.61485806499,38.389788978898,1273695.2164681,1735.7128881217,2565286.3825201,43.589788978898,0,0
-159.3006735476,470.6663042566,38.394219421942,1273695.2164681,1735.7128881217,2565286.3825201,43.594219421942,0,0
-159.30067334259,470.71775044821,38.398649864986,1273695.2164681,1735.7128881217,2565286.3825201,43.598649864986,0,0
-159.30067313758,470.76919663982,38.403080308031,1273695.2164681,1735.7128881217,2565286.3825201,43.603080308031,0,0
-159.30067293257,470.82064283143,38.407510751075,1273695.2164681,1735.7128881217,2565286.3825201,43.607510751075,0,0
-159.30067272756,470.87208902304,38.411941194119,1273695.2164681,1735.7128881217,2565286.3825201,43.611941194119,0,0
-159.30067252255,470.92353521465,38.416371637164,1273695.2164681,1735.7128881217,2565286.3825201,43.616371637164,0,0
-159.30067231754,470.97498140626,38.420802080208,1273695.2164681,1735.7128881217,2565286.3825201,43.620802080208,0,0
-159.30067211252,471.02642759787,38.425232523252,1273695.2164681,1735.7128881217,2565286.3825201,43.625232523252,0,0
-159.30067190751,471.07787378948,38.429662966297,1273695.2164681,1735.7128881217,2565286.3825201,43.629662966297,0,0
-159.3006717025,471.12931998109,38.434093409341,1273695.2164681,1735.7128881217,2565286.3825201,43.634093409341,0,0
-159.30067149749,471.1807661727,38.438523852385,1273695.2164681,1735.7128881217,2565286.3825201,43.638523852385,0,0
-159.30067129248,471.2322123643,38.44295429543,1273695.2164681,1735.7128881217,2565286.3825201,43.64295429543,0,0
-159.30067108747,471.28365855591,38.447384738474,1273695.2164681,1735.7128881217,2565286.3825201,43.647384738474,0,0
-159.30067088246,471.33510474752,38.451815181518,1273695.2164681,1735.7128881217,2565286.3825201,43.651815181518,0,0
-159.30067067745,471.38655093913,38.456245624562,1273695.2164681,1735.7128881217,2565286.3825201,43.656245624562,0,0
-159.30067047244,471.43799713074,38.460676067607,1273695.2164681,1735.7128881217,2565286.3825201,43.660676067607,0,0
-159.30067026743,471.48944332235,38.465106510651,1273695.2164681,1735.7128881217,2565286.3825201,43.665106510651,0,0
-159.30067006242,471.54088951396,38.469536953695,1273695.2164681,1735.7128881217,2565286.3825201,43.669536953695,0,0
-159.30066985741,471.59233570557,38.47396739674,1273695.2164681,1735.7128881217,2565286.3825201,43.67396739674,0,0
-159.3006696524,471.64378189718,38.478397839784,1273695.2164681,1735.7128881217,2565286.3825201,43.678397839784,0,0
-159.30066944739,471.69522808879,38.482828282828,1273695.2164681,1735.7128881217,2565286.3825201,43.682828282828,0,0
-159.30066924238,471.7466742804,38.487258725873,1273695.2164681,1735.7128881217,2565286.3825201,43.687258725873,0,0
-159.30066903736,471.79812047201,38.491689168917,1273695.2164681,1735.7128881217,2565286.3825201,43.691689168917,0,0
-159.30066883235,471.84956666362,38.496119611961,1273695.2164681,1735.7128881217,2565286.3825201,43.696119611961,0,0
-159.30066862734,471.90101285523,38.500550055005,1273695.2164681,1735.7128881217,2565286.3825201,43.700550055006,0,0
-159.30066842233,471.95245904684,38.50498049805,1273695.2164681,1735.7128881217,2565286.3825201,43.70498049805,0,0
-159.30066821732,472.00390523845,38.509410941094,1273695.2164681,1735.7128881217,2565286.3825201,43.709410941094,0,0
-159.30066801231,472.05535143006,38.513841384138,1273695.2164681,1735.7128881217,2565286.3825201,43.713841384138,0,0
-159.3006678073,472.10679762167,38.518271827183,1273695.2164681,1735.7128881217,2565286.3825201,43.718271827183,0,0
-159.30066760229,472.15824381328,38.522702270227,1273695.2164681,1735.7128881217,2565286.3825201,43.722702270227,0,0
-159.30066739728,472.20969000489,38.527132713271,1273695.2164681,1735.7128881217,2565286.3825201,43.727132713271,0,0
-159.30066719227,472.26113619649,38.531563156316,1273695.2164681,1735.7128881217,2565286.3825201,43.731563156316,0,0
-159.30066698726,472.3125823881,38.53599359936,1273695.2164681,1735.7128881217,2565286.3825201,43.73599359936,0,0
-159.30066678225,472.36402857971,38.540424042404,1273695.2164681,1735.7128881217,2565286.3825201,43.740424042404,0,0
-159.30066657724,472.41547477132,38.544854485449,1273695.2164681,1735.7128881217,2565286.3825201,43.744854485449,0,0
-159.30066637223,472.46692096293,38.549284928493,1273695.2164681,1735.7128881217,2565286.3825201,43.749284928493,0,0
-159.30066616721,472.51836715454,38.553715371537,1273695.2164681,1735.7128881217,2565286.3825201,43.753715371537,0,0
-159.3006659622,472.56981334615,38.558145814581,1273695.2164681,1735.7128881217,2565286.3825201,43.758145814581,0,0
-159.30066575719,472.62125953776,38.562576257626,1273695.2164681,1735.7128881217,2565286.3825201,43.762576257626,0,0
-159.30066555218,472.67270572937,38.56700670067,1273695.2164681,1735.7128881217,2565286.3825201,43.76700670067,0,0
-159.30066534717,472.72415192098,38.571437143714,1273695.2164681,1735.7128881217,2565286.3825201,43.771437143714,0,0
-159.30066514216,472.77559811259,38.575867586759,1273695.2164681,1735.7128881217,2565286.3825201,43.775867586759,0,0
-159.30066493715,472.8270443042,38.580298029803,1273695.2164681,1735.7128881217,2565286.3825201,43.780298029803,0,0
-159.30066473214,472.87849049581,38.584728472847,1273695.2164681,1735.7128881217,2565286.3825201,43.784728472847,0,0
-159.30066452713,472.92993668742,38.589158915892,1273695.2164681,1735.7128881217,2565286.3825201,43.789158915892,0,0
-159.30066432212,472.98138287903,38.593589358936,1273695.2164681,1735.7128881217,2565286.3825201,43.793589358936,0,0
-159.30066411711,473.03282907064,38.59801980198,1273695.2164681,1735.7128881217,2565286.3825201,43.79801980198,0,0
-159.3006639121,473.08427526225,38.602450245024,1273695.2164681,1735.7128881217,2565286.3825201,43.802450245025,0,0
-159.30066370709,473.13572145386,38.606880688069,1273695.2164681,1735.7128881217,2565286.3825201,43.806880688069,0,0
-159.30066350208,473.18716764547,38.611311131113,1273695.2164681,1735.7128881217,2565286.3825201,43.811311131113,0,0
-159.30066329706,473.23861383708,38.615741574157,1273695.2164681,1735.7128881217,2565286.3825201,43.815741574157,0,0
-159.30066309205,473.29006002869,38.620172017202,1273695.2164681,1735.7128881217,2565286.3825201,43.820172017202,0,0
-159.30066288704,473.34150622029,38.624602460246,1273695.2164681,1735.7128881217,2565286.3825201,43.824602460246,0,0
-159.30066268203,473.3929524119,38.62903290329,1273695.2164681,1735.7128881217,2565286.3825201,43.82903290329,0,0
-159.30066247702,473.44439860351,38.633463346335,1273695.2164681,1735.7128881217,2565286.3825201,43.833463346335,0,0
-159.30066227201,473.49584479512,38.637893789379,1273695.2164681,1735.7128881217,2565286.3825201,43.837893789379,0,0
-159.300662067,473.54729098673,38.642324232423,1273695.2164681,1735.7128881217,2565286.3825201,43.842324232423,0,0
-159.30066186199,473.59873717834,38.646754675468,1273695.2164681,1735.7128881217,2565286.3825201,43.846754675468,0,0
-159.30066165698,473.65018336995,38.651185118512,1273695.2164681,1735.7128881217,2565286.3825201,43.851185118512,0,0
-159.30066145197,473.70162956156,38.655615561556,1273695.2164681,1735.7128881217,2565286.3825201,43.855615561556,0,0
-159.30066124696,473.75307575317,38.6600460046,1273695.2164681,1735.7128881217,2565286.3825201,43.8600460046,0,0
-159.30066104195,473.80452194478,38.664476447645,1273695.2164681,1735.7128881217,2565286.3825201,43.864476447645,0,0
-159.30066083694,473.85596813639,38.668906890689,1273695.2164681,1735.7128881217,2565286.3825201,43.868906890689,0,0
-159.30066063193,473.907414328,38.673337333733,1273695.2164681,1735.7128881217,2565286.3825201,43.873337333733,0,0
-159.30066042691,473.95886051961,38.677767776778,1273695.2164681,1735.7128881217,2565286.3825201,43.877767776778,0,0
-159.3006602219,474.01030671122,38.682198219822,1273695.2164681,1735.7128881217,2565286.3825201,43.882198219822,0,0
-159.30066001689,474.06175290283,38.686628662866,1273695.2164681,1735.7128881217,2565286.3825201,43.886628662866,0,0
-159.30065981188,474.11319909444,38.691059105911,1273695.2164681,1735.7128881217,2565286.3825201,43.891059105911,0,0
-159.30065960687,474.16464528605,38.695489548955,1273695.2164681,1735.7128881217,2565286.3825201,43.895489548955,0,0
-159.30065940186,474.21609147766,38.699919991999,1273695.2164681,1735.7128881217,2565286.3825201,43.899919991999,0,0
-159.30065919685,474.26753766927,38.704350435044,1273695.2164681,1735.7128881217,2565286.3825201,43.904350435044,0,0
-159.30065899184,474.31898386088,38.708780878088,1273695.2164681,1735.7128881217,2565286.3825201,43.908780878088,0,0
-159.30065878683,474.37043005249,38.713211321132,1273695.2164681,1735.7128881217,2565286.3825201,43.913211321132,0,0
-159.30065858174,474.4218762438,38.717641764176,1273970.1834568,-682.08710877319,2560212.0055726,43.917641764176,0,0
-159.30065837643,474.47332243419,38.722072207221,1273970.1834568,-682.08710877319,2560212.0055726,43.922072207221,0,0
-159.30065817111,474.52476862457,38.726502650265,1273970.1834568,-682.08710877319,2560212.0055726,43.926502650265,0,0
-159.30065796579,474.57621481496,38.730933093309,1273970.1834568,-682.08710877319,2560212.0055726,43.930933093309,0,0
-159.30065776048,474.62766100535,38.735363536354,1273970.1834568,-682.08710877319,2560212.0055726,43.935363536354,0,0
-159.30065755516,474.67910719574,38.739793979398,1273970.1834568,-682.08710877319,2560212.0055726,43.939793979398,0,0
-159.30065734979,474.73055338703,38.744224422442,1273218.2382639,1885.9178466624,2556715.7532306,43.944224422442,0,0
-159.30065714442,474.78199957853,38.748654865487,1273218.2382639,1885.9178466624,2556715.7532306,43.948654865487,0,0
-159.30065693904,474.83344577002,38.753085308531,1273218.2382639,1885.9178466624,2556715.7532306,43.953085308531,0,0
-159.30065673366,474.88489196152,38.757515751575,1273218.2382639,1885.9178466624,2556715.7532306,43.957515751575,0,0
-159.30065652828,474.93633815302,38.761946194619,1273218.2382639,1885.9178466624,2556715.7532306,43.961946194619,0,0
-159.3006563229,474.98778434451,38.766376637664,1273218.2382639,1885.9178466624,2556715.7532306,43.966376637664,0,0
-159.30065611752,475.03923053601,38.770807080708,1273218.2382639,1885.9178466624,2556715.7532306,43.970807080708,0,0
-159.30065591215,475.0906767275,38.775237523752,1273218.2382639,1885.9178466624,2556715.7532306,43.975237523752,0,0
-159.30065570677,475.142122919,38.779667966797,1273218.2382639,1885.9178466624,2556715.7532306,43.979667966797,0,0
-159.30065550139,475.1935691105,38.784098409841,1273218.2382639,1885.9178466624,2556715.7532306,43.984098409841,0,0
-159.30065529601,475.24501530199,38.788528852885,1273218.2382639,1885.9178466624,2556715.7532306,43.988528852885,0,0
-159.30065509063,475.29646149349,38.79295929593,1273218.2382639,1885.9178466624,2556715.7532306,43.99295929593,0,0
-159.30065488525,475.34790768499,38.797389738974,1273218.2382639,1885.9178466624,2556715.7532306,43.997389738974,0,0
-159.30065467988,475.39935387648,38.801820182018,1273218.2382639,1885.9178466624,2556715.7532306,44.001820182018,0,0
-159.3006544745,475.45080006798,38.806250625063,1273218.2382639,1885.9178466624,2556715.7532306,44.006250625063,0,0
-159.30065426912,475.50224625947,38.810681068107,1273218.2382639,1885.9178466624,2556715.7532306,44.010681068107,0,0
-159.30065406374,475.55369245097,38.815111511151,1273218.2382639,1885.9178466624,2556715.7532306,44.015111511151,0,0
-159.30065385836,475.60513864247,38.819541954195,1273218.2382639,1885.9178466624,2556715.7532306,44.019541954195,0,0
-159.30065365298,475.65658483396,38.82397239724,1273218.2382639,1885.9178466624,2556715.7532306,44.02397239724,0,0
-159.30065344761,475.70803102546,38.828402840284,1273218.2382639,1885.9178466624,2556715.7532306,44.028402840284,0,0
-159.30065324223,475.75947721696,38.832833283328,1273218.2382639,1885.9178466624,2556715.7532306,44.032833283328,0,0
-159.30065303685,475.81092340845,38.837263726373,1273218.2382639,1885.9178466624,2556715.7532306,44.037263726373,0,0
-159.30065283147,475.86236959995,38.841694169417,1273218.2382639,1885.9178466624,2556715.7532306,44.041694169417,0,0
-159.30065262609,475.91381579144,38.846124612461,1273218.2382639,1885.9178466624,2556715.7532306,44.046124612461,0,0
-159.30065242071,475.96526198294,38.850555055506,1273218.2382639,1885.9178466624,2556715.7532306,44.050555055506,0,0
-159.30065221534,476.01670817444,38.85498549855,1273218.2382639,1885.9178466624,2556715.7532306,44.05498549855,0,0
-159.30065200996,476.06815436593,38.859415941594,1273218.2382639,1885.9178466624,2556715.7532306,44.059415941594,0,0
-159.30065180458,476.11960055743,38.863846384638,1273218.2382639,1885.9178466624,2556715.7532306,44.063846384638,0,0
-159.3006515992,476.17104674893,38.868276827683,1273218.2382639,1885.9178466624,2556715.7532306,44.068276827683,0,0
-159.30065139382,476.22249294042,38.872707270727,1273218.2382639,1885.9178466624,2556715.7532306,44.072707270727,0,0
-159.30065118844,476.27393913192,38.877137713771,1273218.2382639,1885.9178466624,2556715.7532306,44.077137713771,0,0
-159.30065098307,476.32538532341,38.881568156816,1273218.2382639,1885.9178466624,2556715.7532306,44.081568156816,0,0
-159.30065077769,476.37683151491,38.88599859986,1273218.2382639,1885.9178466624,2556715.7532306,44.08599859986,0,0
-159.30065057231,476.42827770641,38.890429042904,1273218.2382639,1885.9178466624,2556715.7532306,44.090429042904,0,0
-159.30065036693,476.4797238979,38.894859485949,1273218.2382639,1885.9178466624,2556715.7532306,44.094859485949,0,0
-159.30065016155,476.5311700894,38.899289928993,1273218.2382639,1885.9178466624,2556715.7532306,44.099289928993,0,0
-159.30064995617,476.5826162809,38.903720372037,1273218.2382639,1885.9178466624,2556715.7532306,44.103720372037,0,0
-159.3006497508,476.63406247239,38.908150815082,1273218.2382639,1885.9178466624,2556715.7532306,44.108150815082,0,0
-159.30064954542,476.68550866389,38.912581258126,1273218.2382639,1885.9178466624,2556715.7532306,44.112581258126,0,0
-159.30064934004,476.73695485538,38.91701170117,1273218.2382639,1885.9178466624,2556715.7532306,44.11701170117,0,0
-159.30064913466,476.78840104688,38.921442144214,1273218.2382639,1885.9178466624,2556715.7532306,44.121442144214,0,0
-159.30064892928,476.83984723838,38.925872587259,1273218.2382639,1885.9178466624,2556715.7532306,44.125872587259,0,0
-159.3006487239,476.89129342987,38.930303030303,1273218.2382639,1885.9178466624,2556715.7532306,44.130303030303,0,0
-159.30064851853,476.94273962137,38.934733473347,1273218.2382639,1885.9178466624,2556715.7532306,44.134733473347,0,0
-159.30064831315,476.99418581287,38.939163916392,1273218.2382639,1885.9178466624,2556715.7532306,44.139163916392,0,0
-159.30064810777,477.04563200436,38.943594359436,1273218.2382639,1885.9178466624,2556715.7532306,44.143594359436,0,0
-159.30064790239,477.09707819586,38.94802480248,1273218.2382639,1885.9178466624,2556715.7532306,44.14802480248,0,0
-159.30064769701,477.14852438736,38.952455245525,1273218.2382639,1885.9178466624,2556715.7532306,44.152455245525,0,0
-159.30064749163,477.19997057885,38.956885688569,1273218.2382639,1885.9178466624,2556715.7532306,44.156885688569,0,0
-159.30064728626,477.25141677035,38.961316131613,1273218.2382639,1885.9178466624,2556715.7532306,44.161316131613,0,0
-159.30064708088,477.30286296184,38.965746574657,1273218.2382639,1885.9178466624,2556715.7532306,44.165746574657,0,0
-159.3006468755,477.35430915334,38.970177017702,1273218.2382639,1885.9178466624,2556715.7532306,44.170177017702,0,0
-159.30064667012,477.40575534484,38.974607460746,1273218.2382639,1885.9178466624,2556715.7532306,44.174607460746,0,0
-159.30064646474,477.45720153633,38.97903790379,1273218.2382639,1885.9178466624,2556715.7532306,44.17903790379,0,0
-159.30064625936,477.50864772783,38.983468346835,1273218.2382639,1885.9178466624,2556715.7532306,44.183468346835,0,0
-159.30064605399,477.56009391933,38.987898789879,1273218.2382639,1885.9178466624,2556715.7532306,44.187898789879,0,0
-159.30064584861,477.61154011082,38.992329232923,1273218.2382639,1885.9178466624,2556715.7532306,44.192329232923,0,0
-159.30064564323,477.66298630232,38.996759675968,1273218.2382639,1885.9178466624,2556715.7532306,44.196759675968,0,0
-159.30064543785,477.71443249381,39.001190119012,1273218.2382639,1885.9178466624,2556715.7532306,44.201190119012,0,0
-159.30064523247,477.76587868531,39.005620562056,1273218.2382639,1885.9178466624,2556715.7532306,44.205620562056,0,0
-159.3006450271,477.81732487681,39.010051005101,1273218.2382639,1885.9178466624,2556715.7532306,44.210051005101,0,0
-159.30064482172,477.8687710683,39.014481448145,1273218.2382639,1885.9178466624,2556715.7532306,44.214481448145,0,0
-159.30064461634,477.9202172598,39.018911891189,1273218.2382639,1885.9178466624,2556715.7532306,44.218911891189,0,0
-159.30064441096,477.9716634513,39.023342334233,1273218.2382639,1885.9178466624,2556715.7532306,44.223342334233,0,0
-159.30064420558,478.02310964279,39.027772777278,1273218.2382639,1885.9178466624,2556715.7532306,44.227772777278,0,0
-159.3006440002,478.07455583429,39.032203220322,1273218.2382639,1885.9178466624,2556715.7532306,44.232203220322,0,0
-159.30064379483,478.12600202578,39.036633663366,1273218.2382639,1885.9178466624,2556715.7532306,44.236633663366,0,0
-159.30064358945,478.17744821728,39.041064106411,1273218.2382639,1885.9178466624,2556715.7532306,44.241064106411,0,0
-159.30064338407,478.22889440878,39.045494549455,1273218.2382639,1885.9178466624,2556715.7532306,44.245494549455,0,0
-159.30064317869,478.28034060027,39.049924992499,1273218.2382639,1885.9178466624,2556715.7532306,44.249924992499,0,0
-159.30064297331,478.33178679177,39.054355435544,1273218.2382639,1885.9178466624,2556715.7532306,44.254355435544,0,0
-159.30064276793,478.38323298327,39.058785878588,1273218.2382639,1885.9178466624,2556715.7532306,44.258785878588,0,0
-159.30064256256,478.43467917476,39.063216321632,1273218.2382639,1885.9178466624,2556715.7532306,44.263216321632,0,0
-159.30064235718,478.48612536626,39.067646764676,1273218.2382639,1885.9178466624,2556715.7532306,44.267646764676,0,0
-159.3006421518,478.53757155775,39.072077207721,1273218.2382639,1885.9178466624,2556715.7532306,44.272077207721,0,0
-159.30064194642,478.58901774925,39.076507650765,1273218.2382639,1885.9178466624,2556715.7532306,44.276507650765,0,0
-159.30064174104,478.64046394075,39.080938093809,1273218.2382639,1885.9178466624,2556715.7532306,44.280938093809,0,0
-159.30064153566,478.69191013224,39.085368536854,1273218.2382639,1885.9178466624,2556715.7532306,44.285368536854,0,0
-159.30064133029,478.74335632374,39.089798979898,1273218.2382639,1885.9178466624,2556715.7532306,44.289798979898,0,0
-159.30064112491,478.79480251524,39.094229422942,1273218.2382639,1885.9178466624,2556715.7532306,44.294229422942,0,0
-159.30064091953,478.84624870673,39.098659865987,1273218.2382639,1885.9178466624,2556715.7532306,44.298659865987,0,0
-159.30064071415,478.89769489823,39.103090309031,1273218.2382639,1885.9178466624,2556715.7532306,44.303090309031,0,0
-159.30064050877,478.94914108973,39.107520752075,1273218.2382639,1885.9178466624,2556715.7532306,44.307520752075,0,0
-159.30064030339,479.00058728122,39.11195119512,1273218.2382639,1885.9178466624,2556715.7532306,44.31195119512,0,0
-159.30064009802,479.05203347272,39.116381638164,1273218.2382639,1885.9178466624,2556715.7532306,44.316381638164,0,0
-159.30063989264,479.10347966421,39.120812081208,1273218.2382639,1885.9178466624,2556715.7532306,44.320812081208,0,0
-159.30063968726,479.15492585571,39.125242524252,1273218.2382639,1885.9178466624,2556715.7532306,44.325242524252,0,0
-159.30063948188,479.20637204721,39.129672967297,1273218.2382639,1885.9178466624,2556715.7532306,44.329672967297,0,0
-159.3006392765,479.2578182387,39.134103410341,1273218.2382639,1885.9178466624,2556715.7532306,44.334103410341,0,0
-159.30063907112,479.3092644302,39.138533853385,1273218.2382639,1885.9178466624,2556715.7532306,44.338533853385,0,0
-159.30063886575,479.3607106217,39.14296429643,1273218.2382639,1885.9178466624,2556715.7532306,44.34296429643,0,0
-159.30063866037,479.41215681319,39.147394739474,1273218.2382639,1885.9178466624,2556715.7532306,44.347394739474,0,0
-159.30063845499,479.46360300469,39.151825182518,1273218.2382639,1885.9178466624,2556715.7532306,44.351825182518,0,0
-159.30063824961,479.51504919618,39.156255625563,1273218.2382639,1885.9178466624,2556715.7532306,44.356255625563,0,0
-159.30063804423,479.56649538768,39.160686068607,1273218.2382639,1885.9178466624,2556715.7532306,44.360686068607,0,0
-159.30063783885,479.61794157918,39.165116511651,1273218.2382639,1885.9178466624,2556715.7532306,44.365116511651,0,0
-159.30063763348,479.66938777067,39.169546954695,1273218.2382639,1885.9178466624,2556715.7532306,44.369546954695,0,0
-159.3006374281,479.72083396217,39.17397739774,1273218.2382639,1885.9178466624,2556715.7532306,44.37397739774,0,0
-159.30063722272,479.77228015367,39.178407840784,1273218.2382639,1885.9178466624,2556715.7532306,44.378407840784,0,0
-159.30063701734,479.82372634516,39.182838283828,1273218.2382639,1885.9178466624,2556715.7532306,44.382838283828,0,0
-159.30063681196,479.87517253666,39.187268726873,1273218.2382639,1885.9178466624,2556715.7532306,44.387268726873,0,0
-159.30063660658,479.92661872815,39.191699169917,1273218.2382639,1885.9178466624,2556715.7532306,44.391699169917,0,0
-159.30063640121,479.97806491965,39.196129612961,1273218.2382639,1885.9178466624,2556715.7532306,44.396129612961,0,0
-159.30063619583,480.02951111115,39.200560056006,1273218.2382639,1885.9178466624,2556715.7532306,44.400560056006,0,0
-159.30063599045,480.08095730264,39.20499049905,1273218.2382639,1885.9178466624,2556715.7532306,44.40499049905,0,0
-159.30063578507,480.13240349414,39.209420942094,1273218.2382639,1885.9178466624,2556715.7532306,44.409420942094,0,0
-159.30063557969,480.18384968564,39.213851385139,1273218.2382639,1885.9178466624,2556715.7532306,44.413851385139,0,0
-159.30063537431,480.23529587713,39.218281828183,1273218.2382639,1885.9178466624,2556715.7532306,44.418281828183,0,0
-159.30063516894,480.28674206863,39.222712271227,1273218.2382639,1885.9178466624,2556715.7532306,44.422712271227,0,0
-159.30063496356,480.33818826012,39.227142714271,1273218.2382639,1885.9178466624,2556715.7532306,44.427142714271,0,0
-159.30063475818,480.38963445162,39.231573157316,1273218.2382639,1885.9178466624,2556715.7532306,44.431573157316,0,0
-159.3006345528,480.44108064312,39.23600360036,1273218.2382639,1885.9178466624,2556715.7532306,44.43600360036,0,0
-159.30063434742,480.49252683461,39.240434043404,1273218.2382639,1885.9178466624,2556715.7532306,44.440434043404,0,0
-159.30063414204,480.54397302611,39.244864486449,1273218.2382639,1885.9178466624,2556715.7532306,44.444864486449,0,0
-159.30063393667,480.59541921761,39.249294929493,1273218.2382639,1885.9178466624,2556715.7532306,44.449294929493,0,0
-159.30063373129,480.6468654091,39.253725372537,1273218.2382639,1885.9178466624,2556715.7532306,44.453725372537,0,0
-159.30063352591,480.6983116006,39.258155815582,1273218.2382639,1885.9178466624,2556715.7532306,44.458155815582,0,0
-159.30063332053,480.74975779209,39.262586258626,1273218.2382639,1885.9178466624,2556715.7532306,44.462586258626,0,0
-159.30063311515,480.80120398359,39.26701670167,1273218.2382639,1885.9178466624,2556715.7532306,44.46701670167,0,0
-159.30063290977,480.85265017509,39.271447144714,1273218.2382639,1885.9178466624,2556715.7532306,44.471447144714,0,0
-159.3006327044,480.90409636658,39.275877587759,1273218.2382639,1885.9178466624,2556715.7532306,44.475877587759,0,0
-159.30063249902,480.95554255808,39.280308030803,1273218.2382639,1885.9178466624,2556715.7532306,44.480308030803,0,0
-159.30063229364,481.00698874958,39.284738473847,1273218.2382639,1885.9178466624,2556715.7532306,44.484738473847,0,0
-159.30063208826,481.05843494107,39.289168916892,1273218.2382639,1885.9178466624,2556715.7532306,44.489168916892,0,0
-159.30063188288,481.10988113257,39.293599359936,1273218.2382639,1885.9178466624,2556715.7532306,44.493599359936,0,0
-159.3006316775,481.16132732406,39.29802980298,1273218.2382639,1885.9178466624,2556715.7532306,44.49802980298,0,0
-159.30063147213,481.21277351556,39.302460246025,1273218.2382639,1885.9178466624,2556715.7532306,44.502460246025,0,0
-159.30063126675,481.26421970706,39.306890689069,1273218.2382639,1885.9178466624,2556715.7532306,44.506890689069,0,0
-159.30063106137,481.31566589855,39.311321132113,1273218.2382639,1885.9178466624,2556715.7532306,44.511321132113,0,0
-159.30063085599,481.36711209005,39.315751575158,1273218.2382639,1885.9178466624,2556715.7532306,44.515751575158,0,0
-159.30063065061,481.41855828155,39.320182018202,1273218.2382639,1885.9178466624,2556715.7532306,44.520182018202,0,0
-159.30063044523,481.47000447304,39.324612461246,1273218.2382639,1885.9178466624,2556715.7532306,44.524612461246,0,0
-159.30063023986,481.52145066454,39.32904290429,1273218.2382639,1885.9178466624,2556715.7532306,44.52904290429,0,0
-159.30063003443,481.57289685604,39.333473347335,1273300.2850442,-1770.7550640299,2555912.5174385,44.533473347335,0,0
-159.300629829,481.62434304754,39.337903790379,1273300.2850442,-1770.7550640299,2555912.5174385,44.537903790379,0,0
-159.30062962357,481.67578923904,39.342334233423,1273300.2850442,-1770.7550640299,2555912.5174385,44.542334233423,0,0
-159.30062941813,481.72723543054,39.346764676468,1273300.2850442,-1770.7550640299,2555912.5174385,44.546764676468,0,0
-159.3006292127,481.77868162204,39.351195119512,1273300.2850442,-1770.7550640299,2555912.5174385,44.551195119512,0,0
-159.30062900727,481.83012781354,39.355625562556,1273300.2850442,-1770.7550640299,2555912.5174385,44.555625562556,0,0
-159.30062880183,481.88157400504,39.360056005601,1273300.2850442,-1770.7550640299,2555912.5174385,44.560056005601,0,0
-159.3006285964,481.93302019655,39.364486448645,1273300.2850442,-1770.7550640299,2555912.5174385,44.564486448645,0,0
-159.30062839097,481.98446638805,39.368916891689,1273300.2850442,-1770.7550640299,2555912.5174385,44.568916891689,0,0
-159.30062818554,482.03591257955,39.373347334733,1273300.2850442,-1770.7550640299,2555912.5174385,44.573347334733,0,0
-159.3006279801,482.08735877105,39.377777777778,1273300.2850442,-1770.7550640299,2555912.5174385,44.577777777778,0,0
-159.30062777467,482.13880496255,39.382208220822,1273300.2850442,-1770.7550640299,2555912.5174385,44.582208220822,0,0
-159.30062756924,482.19025115405,39.386638663866,1273300.2850442,-1770.7550640299,2555912.5174385,44.586638663866,0,0
-159.3006273638,482.24169734555,39.391069106911,1273300.2850442,-1770.7550640299,2555912.5174385,44.591069106911,0,0
-159.30062715837,482.29314353705,39.395499549955,1273300.2850442,-1770.7550640299,2555912.5174385,44.595499549955,0,0
-159.30062695294,482.34458972855,39.399929992999,1273300.2850442,-1770.7550640299,2555912.5174385,44.599929992999,0,0
-159.30062674751,482.39603592005,39.404360436044,1273300.2850442,-1770.7550640299,2555912.5174385,44.604360436044,0,0
-159.30062654207,482.44748211155,39.408790879088,1273300.2850442,-1770.7550640299,2555912.5174385,44.608790879088,0,0
-159.30062633664,482.49892830306,39.413221322132,1273300.2850442,-1770.7550640299,2555912.5174385,44.613221322132,0,0
-159.30062613121,482.55037449456,39.417651765177,1273300.2850442,-1770.7550640299,2555912.5174385,44.617651765177,0,0
-159.30062592577,482.60182068606,39.422082208221,1273300.2850442,-1770.7550640299,2555912.5174385,44.622082208221,0,0
-159.30062572034,482.65326687756,39.426512651265,1273300.2850442,-1770.7550640299,2555912.5174385,44.626512651265,0,0
-159.30062551491,482.70471306906,39.430943094309,1273300.2850442,-1770.7550640299,2555912.5174385,44.630943094309,0,0
-159.30062530948,482.75615926056,39.435373537354,1273300.2850442,-1770.7550640299,2555912.5174385,44.635373537354,0,0
-159.30062510404,482.80760545206,39.439803980398,1273300.2850442,-1770.7550640299,2555912.5174385,44.639803980398,0,0
-159.30062489861,482.85905164356,39.444234423442,1273300.2850442,-1770.7550640299,2555912.5174385,44.644234423442,0,0
-159.30062469318,482.91049783506,39.448664866487,1273300.2850442,-1770.7550640299,2555912.5174385,44.648664866487,0,0
-159.30062448774,482.96194402656,39.453095309531,1273300.2850442,-1770.7550640299,2555912.5174385,44.653095309531,0,0
-159.30062428231,483.01339021807,39.457525752575,1273300.2850442,-1770.7550640299,2555912.5174385,44.657525752575,0,0
-159.30062407688,483.06483640957,39.46195619562,1273300.2850442,-1770.7550640299,2555912.5174385,44.66195619562,0,0
-159.30062387145,483.11628260107,39.466386638664,1273300.2850442,-1770.7550640299,2555912.5174385,44.666386638664,0,0
-159.30062366601,483.16772879257,39.470817081708,1273300.2850442,-1770.7550640299,2555912.5174385,44.670817081708,0,0
-159.30062346058,483.21917498407,39.475247524752,1273300.2850442,-1770.7550640299,2555912.5174385,44.675247524752,0,0
-159.30062325515,483.27062117557,39.479677967797,1273300.2850442,-1770.7550640299,2555912.5174385,44.679677967797,0,0
-159.30062304971,483.32206736707,39.484108410841,1273300.2850442,-1770.7550640299,2555912.5174385,44.684108410841,0,0
-159.30062284428,483.37351355857,39.488538853885,1273300.2850442,-1770.7550640299,2555912.5174385,44.688538853885,0,0
-159.30062263885,483.42495975007,39.49296929693,1273300.2850442,-1770.7550640299,2555912.5174385,44.69296929693,0,0
-159.30062243342,483.47640594157,39.497399739974,1273300.2850442,-1770.7550640299,2555912.5174385,44.697399739974,0,0
-159.30062222798,483.52785213307,39.501830183018,1273300.2850442,-1770.7550640299,2555912.5174385,44.701830183018,0,0
-159.30062202255,483.57929832458,39.506260626063,1273300.2850442,-1770.7550640299,2555912.5174385,44.706260626063,0,0
-159.30062181712,483.63074451608,39.510691069107,1273300.2850442,-1770.7550640299,2555912.5174385,44.710691069107,0,0
-159.30062161168,483.68219070758,39.515121512151,1273300.2850442,-1770.7550640299,2555912.5174385,44.715121512151,0,0
-159.30062140625,483.73363689908,39.519551955196,1273300.2850442,-1770.7550640299,2555912.5174385,44.719551955196,0,0
-159.30062120082,483.78508309058,39.52398239824,1273300.2850442,-1770.7550640299,2555912.5174385,44.72398239824,0,0
-159.30062099539,483.83652928208,39.528412841284,1273300.2850442,-1770.7550640299,2555912.5174385,44.728412841284,0,0
-159.30062078995,483.88797547358,39.532843284328,1273300.2850442,-1770.7550640299,2555912.5174385,44.732843284328,0,0
-159.30062058452,483.93942166508,39.537273727373,1273300.2850442,-1770.7550640299,2555912.5174385,44.737273727373,0,0
-159.30062037909,483.99086785658,39.541704170417,1273300.2850442,-1770.7550640299,2555912.5174385,44.741704170417,0,0
-159.30062017365,484.04231404808,39.546134613461,1273300.2850442,-1770.7550640299,2555912.5174385,44.746134613461,0,0
-159.30061996822,484.09376023958,39.550565056506,1273300.2850442,-1770.7550640299,2555912.5174385,44.750565056506,0,0
-159.30061976279,484.14520643109,39.55499549955,1273300.2850442,-1770.7550640299,2555912.5174385,44.75499549955,0,0
-159.30061955736,484.19665262259,39.559425942594,1273300.2850442,-1770.7550640299,2555912.5174385,44.759425942594,0,0
-159.30061935192,484.24809881409,39.563856385639,1273300.2850442,-1770.7550640299,2555912.5174385,44.763856385639,0,0
-159.30061914649,484.29954500559,39.568286828683,1273300.2850442,-1770.7550640299,2555912.5174385,44.768286828683,0,0
-159.30061894106,484.35099119709,39.572717271727,1273300.2850442,-1770.7550640299,2555912.5174385,44.772717271727,0,0
-159.30061873562,484.40243738859,39.577147714771,1273300.2850442,-1770.7550640299,2555912.5174385,44.777147714771,0,0
-159.30061853019,484.45388358009,39.581578157816,1273300.2850442,-1770.7550640299,2555912.5174385,44.781578157816,0,0
-159.30061832476,484.50532977159,39.58600860086,1273300.2850442,-1770.7550640299,2555912.5174385,44.78600860086,0,0
-159.30061811933,484.55677596309,39.590439043904,1273300.2850442,-1770.7550640299,2555912.5174385,44.790439043904,0,0
-159.30061791389,484.60822215459,39.594869486949,1273300.2850442,-1770.7550640299,2555912.5174385,44.794869486949,0,0
-159.30061770846,484.65966834609,39.599299929993,1273300.2850442,-1770.7550640299,2555912.5174385,44.799299929993,0,0
-159.30061750303,484.7111145376,39.603730373037,1273300.2850442,-1770.7550640299,2555912.5174385,44.803730373037,0,0
-159.30061729759,484.7625607291,39.608160816082,1273300.2850442,-1770.7550640299,2555912.5174385,44.808160816082,0,0
-159.30061709216,484.8140069206,39.612591259126,1273300.2850442,-1770.7550640299,2555912.5174385,44.812591259126,0,0
-159.30061688673,484.8654531121,39.61702170217,1273300.2850442,-1770.7550640299,2555912.5174385,44.81702170217,0,0
-159.3006166813,484.9168993036,39.621452145215,1273300.2850442,-1770.7550640299,2555912.5174385,44.821452145215,0,0
-159.30061647586,484.9683454951,39.625882588259,1273300.2850442,-1770.7550640299,2555912.5174385,44.825882588259,0,0
-159.30061627043,485.0197916866,39.630313031303,1273300.2850442,-1770.7550640299,2555912.5174385,44.830313031303,0,0
-159.300616065,485.0712378781,39.634743474347,1273300.2850442,-1770.7550640299,2555912.5174385,44.834743474347,0,0
-159.30061585956,485.1226840696,39.639173917392,1273300.2850442,-1770.7550640299,2555912.5174385,44.839173917392,0,0
-159.30061565413,485.1741302611,39.643604360436,1273300.2850442,-1770.7550640299,2555912.5174385,44.843604360436,0,0
-159.3006154487,485.22557645261,39.64803480348,1273300.2850442,-1770.7550640299,2555912.5174385,44.84803480348,0,0
-159.30061524327,485.27702264411,39.652465246525,1273300.2850442,-1770.7550640299,2555912.5174385,44.852465246525,0,0
-159.30061503783,485.32846883561,39.656895689569,1273300.2850442,-1770.7550640299,2555912.5174385,44.856895689569,0,0
-159.3006148324,485.37991502711,39.661326132613,1273300.2850442,-1770.7550640299,2555912.5174385,44.861326132613,0,0
-159.30061462697,485.43136121861,39.665756575658,1273300.2850442,-1770.7550640299,2555912.5174385,44.865756575658,0,0
-159.30061442153,485.48280741011,39.670187018702,1273300.2850442,-1770.7550640299,2555912.5174385,44.870187018702,0,0
-159.3006142161,485.53425360161,39.674617461746,1273300.2850442,-1770.7550640299,2555912.5174385,44.874617461746,0,0
-159.30061401067,485.58569979311,39.67904790479,1273300.2850442,-1770.7550640299,2555912.5174385,44.87904790479,0,0
-159.30061380524,485.63714598461,39.683478347835,1273300.2850442,-1770.7550640299,2555912.5174385,44.883478347835,0,0
-159.3006135998,485.68859217611,39.687908790879,1273300.2850442,-1770.7550640299,2555912.5174385,44.887908790879,0,0
-159.30061339437,485.74003836761,39.692339233923,1273300.2850442,-1770.7550640299,2555912.5174385,44.892339233923,0,0
-159.30061318894,485.79148455912,39.696769676968,1273300.2850442,-1770.7550640299,2555912.5174385,44.896769676968,0,0
-159.3006129835,485.84293075062,39.701200120012,1273300.2850442,-1770.7550640299,2555912.5174385,44.901200120012,0,0
-159.30061277807,485.89437694212,39.705630563056,1273300.2850442,-1770.7550640299,2555912.5174385,44.905630563056,0,0
-159.30061257264,485.94582313362,39.710061006101,1273300.2850442,-1770.7550640299,2555912.5174385,44.910061006101,0,0
-159.30061236721,485.99726932512,39.714491449145,1273300.2850442,-1770.7550640299,2555912.5174385,44.914491449145,0,0
-159.30061216177,486.04871551662,39.718921892189,1273300.2850442,-1770.7550640299,2555912.5174385,44.918921892189,0,0
-159.30061195634,486.10016170812,39.723352335234,1273300.2850442,-1770.7550640299,2555912.5174385,44.923352335234,0,0
-159.30061175091,486.15160789962,39.727782778278,1273300.2850442,-1770.7550640299,2555912.5174385,44.927782778278,0,0
-159.30061154547,486.20305409112,39.732213221322,1273300.2850442,-1770.7550640299,2555912.5174385,44.932213221322,0,0
-159.30061134004,486.25450028262,39.736643664366,1273300.2850442,-1770.7550640299,2555912.5174385,44.936643664366,0,0
-159.30061113461,486.30594647412,39.741074107411,1273300.2850442,-1770.7550640299,2555912.5174385,44.941074107411,0,0
-159.30061092918,486.35739266563,39.745504550455,1273300.2850442,-1770.7550640299,2555912.5174385,44.945504550455,0,0
-159.30061072374,486.40883885713,39.749934993499,1273300.2850442,-1770.7550640299,2555912.5174385,44.949934993499,0,0
-159.30061051831,486.46028504863,39.754365436544,1273300.2850442,-1770.7550640299,2555912.5174385,44.954365436544,0,0
-159.30061031288,486.51173124013,39.758795879588,1273300.2850442,-1770.7550640299,2555912.5174385,44.958795879588,0,0
-159.30061010744,486.56317743163,39.763226322632,1273300.2850442,-1770.7550640299,2555912.5174385,44.963226322632,0,0
-159.30060990201,486.61462362313,39.767656765677,1273300.2850442,-1770.7550640299,2555912.5174385,44.967656765677,0,0
-159.30060969658,486.66606981463,39.772087208721,1273300.2850442,-1770.7550640299,2555912.5174385,44.972087208721,0,0
-159.30060949115,486.71751600613,39.776517651765,1273300.2850442,-1770.7550640299,2555912.5174385,44.976517651765,0,0
-159.30060928571,486.76896219763,39.780948094809,1273300.2850442,-1770.7550640299,2555912.5174385,44.980948094809,0,0
-159.30060908028,486.82040838913,39.785378537854,1273300.2850442,-1770.7550640299,2555912.5174385,44.985378537854,0,0
-159.30060887485,486.87185458063,39.789808980898,1273300.2850442,-1770.7550640299,2555912.5174385,44.989808980898,0,0
-159.30060866941,486.92330077214,39.794239423942,1273300.2850442,-1770.7550640299,2555912.5174385,44.994239423942,0,0
-159.30060846398,486.97474696364,39.798669866987,1273300.2850442,-1770.7550640299,2555912.5174385,44.998669866987,0,0
-159.30060825855,487.02619315514,39.803100310031,1273300.2850442,-1770.7550640299,2555912.5174385,45.003100310031,0,0
-159.30060805312,487.07763934664,39.807530753075,1273300.2850442,-1770.7550640299,2555912.5174385,45.007530753075,0,0
-159.30060784768,487.12908553814,39.81196119612,1273300.2850442,-1770.7550640299,2555912.5174385,45.01196119612,0,0
-159.30060764225,487.18053172964,39.816391639164,1273300.2850442,-1770.7550640299,2555912.5174385,45.016391639164,0,0
-159.30060743682,487.23197792114,39.820822082208,1273300.2850442,-1770.7550640299,2555912.5174385,45.020822082208,0,0
-159.30060723138,487.28342411264,39.825252525253,1273300.2850442,-1770.7550640299,2555912.5174385,45.025252525253,0,0
-159.30060702595,487.33487030414,39.829682968297,1273300.2850442,-1770.7550640299,2555912.5174385,45.029682968297,0,0
-159.30060682052,487.38631649564,39.834113411341,1273300.2850442,-1770.7550640299,2555912.5174385,45.034113411341,0,0
-159.30060661509,487.43776268715,39.838543854385,1273300.2850442,-1770.7550640299,2555912.5174385,45.038543854385,0,0
-159.30060640965,487.48920887865,39.84297429743,1273300.2850442,-1770.7550640299,2555912.5174385,45.04297429743,0,0
-159.30060620422,487.54065507015,39.847404740474,1273300.2850442,-1770.7550640299,2555912.5174385,45.047404740474,0,0
-159.30060599879,487.59210126165,39.851835183518,1273300.2850442,-1770.7550640299,2555912.5174385,45.051835183518,0,0
-159.30060579335,487.64354745315,39.856265626563,1273300.2850442,-1770.7550640299,2555912.5174385,45.056265626563,0,0
-159.30060558792,487.69499364465,39.860696069607,1273300.2850442,-1770.7550640299,2555912.5174385,45.060696069607,0,0
-159.30060538249,487.74643983615,39.865126512651,1273300.2850442,-1770.7550640299,2555912.5174385,45.065126512651,0,0
-159.30060517706,487.79788602765,39.869556955696,1273300.2850442,-1770.7550640299,2555912.5174385,45.069556955696,0,0
-159.30060497162,487.84933221915,39.87398739874,1273300.2850442,-1770.7550640299,2555912.5174385,45.07398739874,0,0
-159.30060476619,487.90077841065,39.878417841784,1273300.2850442,-1770.7550640299,2555912.5174385,45.078417841784,0,0
-159.30060456076,487.95222460215,39.882848284828,1273300.2850442,-1770.7550640299,2555912.5174385,45.082848284828,0,0
-159.30060435532,488.00367079366,39.887278727873,1273300.2850442,-1770.7550640299,2555912.5174385,45.087278727873,0,0
-159.30060414989,488.05511698516,39.891709170917,1273300.2850442,-1770.7550640299,2555912.5174385,45.091709170917,0,0
-159.30060394446,488.10656317666,39.896139613961,1273300.2850442,-1770.7550640299,2555912.5174385,45.096139613961,0,0
-159.30060373903,488.15800936816,39.900570057006,1273300.2850442,-1770.7550640299,2555912.5174385,45.100570057006,0,0
-159.30060353359,488.20945555966,39.90500050005,1273300.2850442,-1770.7550640299,2555912.5174385,45.10500050005,0,0
-159.30060332816,488.26090175116,39.909430943094,1273300.2850442,-1770.7550640299,2555912.5174385,45.109430943094,0,0
-159.30060312273,488.31234794266,39.913861386139,1273300.2850442,-1770.7550640299,2555912.5174385,45.113861386139,0,0
-159.30060291729,488.36379413416,39.918291829183,1273300.2850442,-1770.7550640299,2555912.5174385,45.118291829183,0,0
-159.30060271186,488.41524032566,39.922722272227,1273300.2850442,-1770.7550640299,2555912.5174385,45.122722272227,0,0
-159.30060250643,488.46668651716,39.927152715272,1273300.2850442,-1770.7550640299,2555912.5174385,45.127152715272,0,0
-159.300602301,488.51813270866,39.931583158316,1273300.2850442,-1770.7550640299,2555912.5174385,45.131583158316,0,0
-159.30060209556,488.56957890017,39.93601360136,1273300.2850442,-1770.7550640299,2555912.5174385,45.13601360136,0,0
-159.30060189013,488.62102509167,39.940444044404,1273300.2850442,-1770.7550640299,2555912.5174385,45.140444044404,0,0
-159.3006016847,488.67247128317,39.944874487449,1273300.2850442,-1770.7550640299,2555912.5174385,45.144874487449,0,0
-159.30060147926,488.72391747467,39.949304930493,1273300.2850442,-1770.7550640299,2555912.5174385,45.149304930493,0,0
-159.30060127383,488.77536366617,39.953735373537,1273300.2850442,-1770.7550640299,2555912.5174385,45.153735373537,0,0
-159.3006010684,488.82680985767,39.958165816582,1273300.2850442,-1770.7550640299,2555912.5174385,45.158165816582,0,0
-159.30060086297,488.87825604917,39.962596259626,1273300.2850442,-1770.7550640299,2555912.5174385,45.162596259626,0,0
-159.30060065753,488.92970224067,39.96702670267,1273300.2850442,-1770.7550640299,2555912.5174385,45.16702670267,0,0
-159.3006004521,488.98114843217,39.971457145715,1273300.2850442,-1770.7550640299,2555912.5174385,45.171457145715,0,0
-159.30060024667,489.03259462367,39.975887588759,1273300.2850442,-1770.7550640299,2555912.5174385,45.175887588759,0,0
-159.30060004123,489.08404081518,39.980318031803,1273300.2850442,-1770.7550640299,2555912.5174385,45.180318031803,0,0
-159.3005998358,489.13548700668,39.984748474847,1273300.2850442,-1770.7550640299,2555912.5174385,45.184748474847,0,0
-159.30059963037,489.18693319818,39.989178917892,1273300.2850442,-1770.7550640299,2555912.5174385,45.189178917892,0,0
-159.30059942494,489.23837938968,39.993609360936,1273300.2850442,-1770.7550640299,2555912.5174385,45.193609360936,0,0
-159.3005992195,489.28982558118,39.99803980398,1273300.2850442,-1770.7550640299,2555912.5174385,45.19803980398,0,0
-159.30059901407,489.34127177268,40.002470247025,1273300.2850442,-1770.7550640299,2555912.5174385,45.202470247025,0,0
-159.30059880864,489.39271796418,40.006900690069,1273300.2850442,-1770.7550640299,2555912.5174385,45.206900690069,0,0
-159.3005986032,489.44416415568,40.011331133113,1273300.2850442,-1770.7550640299,2555912.5174385,45.211331133113,0,0
-159.30059839777,489.49561034718,40.015761576158,1273300.2850442,-1770.7550640299,2555912.5174385,45.215761576158,0,0
-159.30059819234,489.54705653868,40.020192019202,1273300.2850442,-1770.7550640299,2555912.5174385,45.220192019202,0,0
-159.30059798691,489.59850273018,40.024622462246,1273300.2850442,-1770.7550640299,2555912.5174385,45.224622462246,0,0
-159.30059778147,489.64994892169,40.029052905291,1273300.2850442,-1770.7550640299,2555912.5174385,45.229052905291,0,0
-159.30059757604,489.70139511319,40.033483348335,1273300.2850442,-1770.7550640299,2555912.5174385,45.233483348335,0,0
-159.30059737061,489.75284130469,40.037913791379,1273300.2850442,-1770.7550640299,2555912.5174385,45.237913791379,0,0
-159.30059716517,489.80428749619,40.042344234423,1273300.2850442,-1770.7550640299,2555912.5174385,45.242344234423,0,0
-159.30059695974,489.85573368769,40.046774677468,1273300.2850442,-1770.7550640299,2555912.5174385,45.246774677468,0,0
-159.30059675431,489.90717987919,40.051205120512,1273300.2850442,-1770.7550640299,2555912.5174385,45.251205120512,0,0
-159.30059654888,489.95862607069,40.055635563556,1273300.2850442,-1770.7550640299,2555912.5174385,45.255635563556,0,0
-159.30059634344,490.01007226219,40.060066006601,1273300.2850442,-1770.7550640299,2555912.5174385,45.260066006601,0,0
-159.30059613801,490.06151845369,40.064496449645,1273300.2850442,-1770.7550640299,2555912.5174385,45.264496449645,0,0
-159.30059593258,490.11296464519,40.068926892689,1273300.2850442,-1770.7550640299,2555912.5174385,45.268926892689,0,0
-159.30059572714,490.16441083669,40.073357335734,1273300.2850442,-1770.7550640299,2555912.5174385,45.273357335734,0,0
-159.30059552171,490.2158570282,40.077787778778,1273300.2850442,-1770.7550640299,2555912.5174385,45.277787778778,0,0
-159.30059531628,490.2673032197,40.082218221822,1273300.2850442,-1770.7550640299,2555912.5174385,45.282218221822,0,0
-159.30059511085,490.3187494112,40.086648664866,1273300.2850442,-1770.7550640299,2555912.5174385,45.286648664866,0,0
-159.30059490541,490.3701956027,40.091079107911,1273300.2850442,-1770.7550640299,2555912.5174385,45.291079107911,0,0
-159.30059469998,490.4216417942,40.095509550955,1273300.2850442,-1770.7550640299,2555912.5174385,45.295509550955,0,0
-159.30059449455,490.4730879857,40.099939993999,1273300.2850442,-1770.7550640299,2555912.5174385,45.299939993999,0,0
-159.30059428911,490.5245341772,40.104370437044,1273300.2850442,-1770.7550640299,2555912.5174385,45.304370437044,0,0
-159.30059408368,490.5759803687,40.108800880088,1273300.2850442,-1770.7550640299,2555912.5174385,45.308800880088,0,0
-159.30059387825,490.6274265602,40.113231323132,1273300.2850442,-1770.7550640299,2555912.5174385,45.313231323132,0,0
-159.30059367282,490.6788727517,40.117661766177,1273300.2850442,-1770.7550640299,2555912.5174385,45.317661766177,0,0
-159.30059346738,490.7303189432,40.122092209221,1273300.2850442,-1770.7550640299,2555912.5174385,45.322092209221,0,0
-159.30059326195,490.78176513471,40.126522652265,1273300.2850442,-1770.7550640299,2555912.5174385,45.326522652265,0,0
-159.30059305652,490.83321132621,40.13095309531,1273300.2850442,-1770.7550640299,2555912.5174385,45.33095309531,0,0
-159.30059285108,490.88465751771,40.135383538354,1273300.2850442,-1770.7550640299,2555912.5174385,45.335383538354,0,0
-159.30059264565,490.93610370921,40.139813981398,1273300.2850442,-1770.7550640299,2555912.5174385,45.339813981398,0,0
-159.30059244022,490.98754990071,40.144244424442,1273300.2850442,-1770.7550640299,2555912.5174385,45.344244424442,0,0
-159.30059223479,491.03899609221,40.148674867487,1273300.2850442,-1770.7550640299,2555912.5174385,45.348674867487,0,0
-159.30059202935,491.09044228371,40.153105310531,1273300.2850442,-1770.7550640299,2555912.5174385,45.353105310531,0,0
-159.30059182392,491.14188847521,40.157535753575,1273300.2850442,-1770.7550640299,2555912.5174385,45.357535753575,0,0
-159.30059161849,491.19333466671,40.16196619662,1273300.2850442,-1770.7550640299,2555912.5174385,45.36196619662,0,0
-159.30059141305,491.24478085821,40.166396639664,1273300.2850442,-1770.7550640299,2555912.5174385,45.366396639664,0,0
-159.30059120762,491.29622704972,40.170827082708,1273300.2850442,-1770.7550640299,2555912.5174385,45.370827082708,0,0
-159.30059100219,491.34767324122,40.175257525753,1273300.2850442,-1770.7550640299,2555912.5174385,45.375257525753,0,0
-159.30059079676,491.39911943272,40.179687968797,1273300.2850442,-1770.7550640299,2555912.5174385,45.379687968797,0,0
-159.30059059132,491.45056562422,40.184118411841,1273300.2850442,-1770.7550640299,2555912.5174385,45.384118411841,0,0
-159.30059038589,491.50201181572,40.188548854885,1273300.2850442,-1770.7550640299,2555912.5174385,45.388548854885,0,0
-159.30059018046,491.55345800722,40.19297929793,1273300.2850442,-1770.7550640299,2555912.5174385,45.39297929793,0,0
-159.30058997502,491.60490419872,40.197409740974,1273300.2850442,-1770.7550640299,2555912.5174385,45.397409740974,0,0
-159.30058976959,491.65635039022,40.201840184018,1273300.2850442,-1770.7550640299,2555912.5174385,45.401840184018,0,0
-159.30058956416,491.70779658172,40.206270627063,1273300.2850442,-1770.7550640299,2555912.5174385,45.406270627063,0,0
-159.30058935873,491.75924277322,40.210701070107,1273300.2850442,-1770.7550640299,2555912.5174385,45.410701070107,0,0
-159.30058915329,491.81068896472,40.215131513151,1273300.2850442,-1770.7550640299,2555912.5174385,45.415131513151,0,0
-159.30058894786,491.86213515623,40.219561956196,1273300.2850442,-1770.7550640299,2555912.5174385,45.419561956196,0,0
-159.30058874243,491.91358134773,40.22399239924,1273300.2850442,-1770.7550640299,2555912.5174385,45.42399239924,0,0
-159.30058853699,491.96502753923,40.228422842284,1273300.2850442,-1770.7550640299,2555912.5174385,45.428422842284,0,0
-159.30058833156,492.01647373073,40.232853285329,1273300.2850442,-1770.7550640299,2555912.5174385,45.432853285329,0,0
-159.30058812613,492.06791992223,40.237283728373,1273300.2850442,-1770.7550640299,2555912.5174385,45.437283728373,0,0
-159.3005879207,492.11936611373,40.241714171417,1273300.2850442,-1770.7550640299,2555912.5174385,45.441714171417,0,0
-159.30058771526,492.17081230523,40.246144614461,1273300.2850442,-1770.7550640299,2555912.5174385,45.446144614461,0,0
-159.30058750983,492.22225849673,40.250575057506,1273300.2850442,-1770.7550640299,2555912.5174385,45.450575057506,0,0
-159.3005873044,492.27370468823,40.25500550055,1273300.2850442,-1770.7550640299,2555912.5174385,45.45500550055,0,0
-159.30058709896,492.32515087973,40.259435943594,1273300.2850442,-1770.7550640299,2555912.5174385,45.459435943594,0,0
-159.30058689353,492.37659707123,40.263866386639,1273300.2850442,-1770.7550640299,2555912.5174385,45.463866386639,0,0
-159.3005866881,492.42804326274,40.268296829683,1273300.2850442,-1770.7550640299,2555912.5174385,45.468296829683,0,0
-159.30058648267,492.47948945424,40.272727272727,1273300.2850442,-1770.7550640299,2555912.5174385,45.472727272727,0,0
-159.30058627723,492.53093564574,40.277157715772,1273300.2850442,-1770.7550640299,2555912.5174385,45.477157715772,0,0
-159.3005860718,492.58238183724,40.281588158816,1273300.2850442,-1770.7550640299,2555912.5174385,45.481588158816,0,0
-159.30058586637,492.63382802874,40.28601860186,1273300.2850442,-1770.7550640299,2555912.5174385,45.48601860186,0,0
-159.30058566093,492.68527422024,40.290449044904,1273300.2850442,-1770.7550640299,2555912.5174385,45.490449044904,0,0
-159.3005854555,492.73672041174,40.294879487949,1273300.2850442,-1770.7550640299,2555912.5174385,45.494879487949,0,0
-159.30058525007,492.78816660324,40.299309930993,1273300.2850442,-1770.7550640299,2555912.5174385,45.499309930993,0,0
-159.30058504464,492.83961279474,40.303740374037,1273300.2850442,-1770.7550640299,2555912.5174385,45.503740374037,0,0
-159.3005848392,492.89105898624,40.308170817082,1273300.2850442,-1770.7550640299,2555912.5174385,45.508170817082,0,0
-159.30058463377,492.94250517774,40.312601260126,1273300.2850442,-1770.7550640299,2555912.5174385,45.512601260126,0,0
-159.30058442834,492.99395136925,40.31703170317,1273300.2850442,-1770.7550640299,2555912.5174385,45.51703170317,0,0
-159.3005842229,493.04539756075,40.321462146215,1273300.2850442,-1770.7550640299,2555912.5174385,45.521462146215,0,0
-159.30058401747,493.09684375225,40.325892589259,1273300.2850442,-1770.7550640299,2555912.5174385,45.525892589259,0,0
-159.30058381204,493.14828994375,40.330323032303,1273300.2850442,-1770.7550640299,2555912.5174385,45.530323032303,0,0
-159.30058360661,493.19973613525,40.334753475348,1273300.2850442,-1770.7550640299,2555912.5174385,45.534753475348,0,0
-159.30058340117,493.25118232675,40.339183918392,1273300.2850442,-1770.7550640299,2555912.5174385,45.539183918392,0,0
-159.30058319574,493.30262851825,40.343614361436,1273300.2850442,-1770.7550640299,2555912.5174385,45.543614361436,0,0
-159.30058299031,493.35407470975,40.34804480448,1273300.2850442,-1770.7550640299,2555912.5174385,45.54804480448,0,0
-159.30058278487,493.40552090125,40.352475247525,1273300.2850442,-1770.7550640299,2555912.5174385,45.552475247525,0,0
-159.30058257944,493.45696709275,40.356905690569,1273300.2850442,-1770.7550640299,2555912.5174385,45.556905690569,0,0
-159.30058237401,493.50841328425,40.361336133613,1273300.2850442,-1770.7550640299,2555912.5174385,45.561336133613,0,0
-159.30058216858,493.55985947576,40.365766576658,1273300.2850442,-1770.7550640299,2555912.5174385,45.565766576658,0,0
-159.30058196314,493.61130566726,40.370197019702,1273300.2850442,-1770.7550640299,2555912.5174385,45.570197019702,0,0
-159.30058175771,493.66275185876,40.374627462746,1273300.2850442,-1770.7550640299,2555912.5174385,45.574627462746,0,0
-159.30058155228,493.71419805026,40.379057905791,1273300.2850442,-1770.7550640299,2555912.5174385,45.579057905791,0,0
-159.30058134684,493.76564424176,40.383488348835,1273300.2850442,-1770.7550640299,2555912.5174385,45.583488348835,0,0
-159.30058114141,493.81709043326,40.387918791879,1273300.2850442,-1770.7550640299,2555912.5174385,45.587918791879,0,0
-159.30058093598,493.86853662476,40.392349234923,1273300.2850442,-1770.7550640299,2555912.5174385,45.592349234923,0,0
-159.30058073055,493.91998281626,40.396779677968,1273300.2850442,-1770.7550640299,2555912.5174385,45.596779677968,0,0
-159.30058052511,493.97142900776,40.401210121012,1273300.2850442,-1770.7550640299,2555912.5174385,45.601210121012,0,0
-159.30058031968,494.02287519926,40.405640564056,1273300.2850442,-1770.7550640299,2555912.5174385,45.605640564056,0,0
-159.30058011425,494.07432139077,40.410071007101,1273300.2850442,-1770.7550640299,2555912.5174385,45.610071007101,0,0
-159.30057990881,494.12576758227,40.414501450145,1273300.2850442,-1770.7550640299,2555912.5174385,45.614501450145,0,0
-159.30057970338,494.17721377377,40.418931893189,1273300.2850442,-1770.7550640299,2555912.5174385,45.618931893189,0,0
-159.30057949795,494.22865996527,40.423362336234,1273300.2850442,-1770.7550640299,2555912.5174385,45.623362336234,0,0
-159.30057929252,494.28010615677,40.427792779278,1273300.2850442,-1770.7550640299,2555912.5174385,45.627792779278,0,0
-159.30057908708,494.33155234827,40.432223222322,1273300.2850442,-1770.7550640299,2555912.5174385,45.632223222322,0,0
-159.30057888165,494.38299853977,40.436653665367,1273300.2850442,-1770.7550640299,2555912.5174385,45.636653665367,0,0
-159.30057867622,494.43444473127,40.441084108411,1273300.2850442,-1770.7550640299,2555912.5174385,45.641084108411,0,0
-159.30057847078,494.48589092277,40.445514551455,1273300.2850442,-1770.7550640299,2555912.5174385,45.645514551455,0,0
-159.30057826535,494.53733711427,40.449944994499,1273300.2850442,-1770.7550640299,2555912.5174385,45.649944994499,0,0
-159.30057805992,494.58878330577,40.454375437544,1273300.2850442,-1770.7550640299,2555912.5174385,45.654375437544,0,0
-159.30057785449,494.64022949728,40.458805880588,1273300.2850442,-1770.7550640299,2555912.5174385,45.658805880588,0,0
-159.30057764905,494.69167568878,40.463236323632,1273300.2850442,-1770.7550640299,2555912.5174385,45.663236323632,0,0
-159.30057744362,494.74312188028,40.467666766677,1273300.2850442,-1770.7550640299,2555912.5174385,45.667666766677,0,0
-159.30057723819,494.79456807178,40.472097209721,1273300.2850442,-1770.7550640299,2555912.5174385,45.672097209721,0,0
-159.30057703275,494.84601426328,40.476527652765,1273300.2850442,-1770.7550640299,2555912.5174385,45.676527652765,0,0
-159.30057682732,494.89746045478,40.48095809581,1273300.2850442,-1770.7550640299,2555912.5174385,45.68095809581,0,0
-159.30057662189,494.94890664628,40.485388538854,1273300.2850442,-1770.7550640299,2555912.5174385,45.685388538854,0,0
-159.30057641646,495.00035283778,40.489818981898,1273300.2850442,-1770.7550640299,2555912.5174385,45.689818981898,0,0
-159.30057621102,495.05179902928,40.494249424942,1273300.2850442,-1770.7550640299,2555912.5174385,45.694249424942,0,0
-159.30057600559,495.10324522078,40.498679867987,1273300.2850442,-1770.7550640299,2555912.5174385,45.698679867987,0,0
-159.30057580016,495.15469141228,40.503110311031,1273300.2850442,-1770.7550640299,2555912.5174385,45.703110311031,0,0
-159.30057559472,495.20613760379,40.507540754075,1273300.2850442,-1770.7550640299,2555912.5174385,45.707540754075,0,0
-159.30057538929,495.25758379529,40.51197119712,1273300.2850442,-1770.7550640299,2555912.5174385,45.71197119712,0,0
-159.30057518386,495.30902998679,40.516401640164,1273300.2850442,-1770.7550640299,2555912.5174385,45.716401640164,0,0
-159.30057497843,495.36047617829,40.520832083208,1273300.2850442,-1770.7550640299,2555912.5174385,45.720832083208,0,0
-159.30057477299,495.41192236979,40.525262526253,1273300.2850442,-1770.7550640299,2555912.5174385,45.725262526253,0,0
-159.30057456756,495.46336856129,40.529692969297,1273300.2850442,-1770.7550640299,2555912.5174385,45.729692969297,0,0
-159.30057436213,495.51481475279,40.534123412341,1273300.2850442,-1770.7550640299,2555912.5174385,45.734123412341,0,0
-159.30057415669,495.56626094429,40.538553855386,1273300.2850442,-1770.7550640299,2555912.5174385,45.738553855386,0,0
-159.30057395126,495.61770713579,40.54298429843,1273300.2850442,-1770.7550640299,2555912.5174385,45.74298429843,0,0
-159.30057374583,495.66915332729,40.547414741474,1273300.2850442,-1770.7550640299,2555912.5174385,45.747414741474,0,0
-159.3005735404,495.7205995188,40.551845184518,1273300.2850442,-1770.7550640299,2555912.5174385,45.751845184518,0,0
-159.30057333496,495.7720457103,40.556275627563,1273300.2850442,-1770.7550640299,2555912.5174385,45.756275627563,0,0
-159.30057312953,495.8234919018,40.560706070607,1273300.2850442,-1770.7550640299,2555912.5174385,45.760706070607,0,0
-159.3005729241,495.8749380933,40.565136513651,1273300.2850442,-1770.7550640299,2555912.5174385,45.765136513651,0,0
-159.30057271866,495.9263842848,40.569566956696,1273300.2850442,-1770.7550640299,2555912.5174385,45.769566956696,0,0
-159.30057251323,495.9778304763,40.57399739974,1273300.2850442,-1770.7550640299,2555912.5174385,45.77399739974,0,0
-159.3005723078,496.0292766678,40.578427842784,1273300.2850442,-1770.7550640299,2555912.5174385,45.778427842784,0,0
-159.30057210237,496.0807228593,40.582858285829,1273300.2850442,-1770.7550640299,2555912.5174385,45.782858285829,0,0
-159.30057189693,496.1321690508,40.587288728873,1273300.2850442,-1770.7550640299,2555912.5174385,45.787288728873,0,0
-159.3005716915,496.1836152423,40.591719171917,1273300.2850442,-1770.7550640299,2555912.5174385,45.791719171917,0,0
-159.30057148607,496.2350614338,40.596149614961,1273300.2850442,-1770.7550640299,2555912.5174385,45.796149614961,0,0
-159.30057128063,496.28650762531,40.600580058006,1273300.2850442,-1770.7550640299,2555912.5174385,45.800580058006,0,0
-159.3005710752,496.33795381681,40.60501050105,1273300.2850442,-1770.7550640299,2555912.5174385,45.80501050105,0,0
-159.30057086977,496.38940000831,40.609440944094,1273300.2850442,-1770.7550640299,2555912.5174385,45.809440944094,0,0
-159.30057066434,496.44084619981,40.613871387139,1273300.2850442,-1770.7550640299,2555912.5174385,45.813871387139,0,0
-159.3005704589,496.49229239131,40.618301830183,1273300.2850442,-1770.7550640299,2555912.5174385,45.818301830183,0,0
-159.30057025347,496.54373858281,40.622732273227,1273300.2850442,-1770.7550640299,2555912.5174385,45.822732273227,0,0
-159.30057004804,496.59518477431,40.627162716272,1273300.2850442,-1770.7550640299,2555912.5174385,45.827162716272,0,0
-159.3005698426,496.64663096581,40.631593159316,1273300.2850442,-1770.7550640299,2555912.5174385,45.831593159316,0,0
-159.30056963717,496.69807715731,40.63602360236,1273300.2850442,-1770.7550640299,2555912.5174385,45.83602360236,0,0
-159.30056943174,496.74952334881,40.640454045405,1273300.2850442,-1770.7550640299,2555912.5174385,45.840454045405,0,0
-159.30056922631,496.80096954031,40.644884488449,1273300.2850442,-1770.7550640299,2555912.5174385,45.844884488449,0,0
-159.30056902087,496.85241573182,40.649314931493,1273300.2850442,-1770.7550640299,2555912.5174385,45.849314931493,0,0
-159.30056881544,496.90386192332,40.653745374537,1273300.2850442,-1770.7550640299,2555912.5174385,45.853745374537,0,0
-159.30056861001,496.95530811482,40.658175817582,1273300.2850442,-1770.7550640299,2555912.5174385,45.858175817582,0,0
-159.30056840457,497.00675430632,40.662606260626,1273300.2850442,-1770.7550640299,2555912.5174385,45.862606260626,0,0
-159.30056819914,497.05820049782,40.66703670367,1273300.2850442,-1770.7550640299,2555912.5174385,45.86703670367,0,0
-159.30056799371,497.10964668932,40.671467146715,1273300.2850442,-1770.7550640299,2555912.5174385,45.871467146715,0,0
-159.30056778828,497.16109288082,40.675897589759,1273300.2850442,-1770.7550640299,2555912.5174385,45.875897589759,0,0
-159.30056758284,497.21253907232,40.680328032803,1273300.2850442,-1770.7550640299,2555912.5174385,45.880328032803,0,0
-159.30056737741,497.26398526382,40.684758475848,1273300.2850442,-1770.7550640299,2555912.5174385,45.884758475848,0,0
-159.30056717198,497.31543145532,40.689188918892,1273300.2850442,-1770.7550640299,2555912.5174385,45.889188918892,0,0
-159.30056696654,497.36687764682,40.693619361936,1273300.2850442,-1770.7550640299,2555912.5174385,45.893619361936,0,0
-159.30056676111,497.41832383833,40.69804980498,1273300.2850442,-1770.7550640299,2555912.5174385,45.89804980498,0,0
-159.30056655568,497.46977002983,40.702480248025,1273300.2850442,-1770.7550640299,2555912.5174385,45.902480248025,0,0
-159.30056635025,497.52121622133,40.706910691069,1273300.2850442,-1770.7550640299,2555912.5174385,45.906910691069,0,0
-159.30056614481,497.57266241283,40.711341134113,1273300.2850442,-1770.7550640299,2555912.5174385,45.911341134113,0,0
-159.30056593938,497.62410860433,40.715771577158,1273300.2850442,-1770.7550640299,2555912.5174385,45.915771577158,0,0
-159.30056573395,497.67555479583,40.720202020202,1273300.2850442,-1770.7550640299,2555912.5174385,45.920202020202,0,0
-159.30056552851,497.72700098733,40.724632463246,1273300.2850442,-1770.7550640299,2555912.5174385,45.924632463246,0,0
-159.30056532308,497.77844717883,40.729062906291,1273300.2850442,-1770.7550640299,2555912.5174385,45.929062906291,0,0
-159.30056511765,497.82989337033,40.733493349335,1273300.2850442,-1770.7550640299,2555912.5174385,45.933493349335,0,0
-159.30056491222,497.88133956183,40.737923792379,1273300.2850442,-1770.7550640299,2555912.5174385,45.937923792379,0,0
-159.30056470678,497.93278575334,40.742354235424,1273300.2850442,-1770.7550640299,2555912.5174385,45.942354235424,0,0
-159.30056450135,497.98423194484,40.746784678468,1273300.2850442,-1770.7550640299,2555912.5174385,45.946784678468,0,0
-159.30056429592,498.03567813634,40.751215121512,1273300.2850442,-1770.7550640299,2555912.5174385,45.951215121512,0,0
-159.30056409048,498.08712432784,40.755645564556,1273300.2850442,-1770.7550640299,2555912.5174385,45.955645564556,0,0
-159.30056388505,498.13857051934,40.760076007601,1273300.2850442,-1770.7550640299,2555912.5174385,45.960076007601,0,0
-159.30056367962,498.19001671084,40.764506450645,1273300.2850442,-1770.7550640299,2555912.5174385,45.964506450645,0,0
-159.30056347419,498.24146290234,40.768936893689,1273300.2850442,-1770.7550640299,2555912.5174385,45.968936893689,0,0
-159.30056326875,498.29290909384,40.773367336734,1273300.2850442,-1770.7550640299,2555912.5174385,45.973367336734,0,0
-159.30056306332,498.34435528534,40.777797779778,1273300.2850442,-1770.7550640299,2555912.5174385,45.977797779778,0,0
-159.30056285789,498.39580147684,40.782228222822,1273300.2850442,-1770.7550640299,2555912.5174385,45.982228222822,0,0
-159.30056265245,498.44724766834,40.786658665867,1273300.2850442,-1770.7550640299,2555912.5174385,45.986658665867,0,0
-159.30056244702,498.49869385985,40.791089108911,1273300.2850442,-1770.7550640299,2555912.5174385,45.991089108911,0,0
-159.30056224159,498.55014005135,40.795519551955,1273300.2850442,-1770.7550640299,2555912.5174385,45.995519551955,0,0
-159.30056203616,498.60158624285,40.799949994999,1273300.2850442,-1770.7550640299,2555912.5174385,45.999949994999,0,0
-159.30056183072,498.65303243435,40.804380438044,1273300.2850442,-1770.7550640299,2555912.5174385,46.004380438044,0,0
-159.30056162529,498.70447862585,40.808810881088,1273300.2850442,-1770.7550640299,2555912.5174385,46.008810881088,0,0
-159.30056141986,498.75592481735,40.813241324132,1273300.2850442,-1770.7550640299,2555912.5174385,46.013241324132,0,0
-159.30056121442,498.80737100885,40.817671767177,1273300.2850442,-1770.7550640299,2555912.5174385,46.017671767177,0,0
-159.30056100899,498.85881720035,40.822102210221,1273300.2850442,-1770.7550640299,2555912.5174385,46.022102210221,0,0
-159.30056080356,498.91026339185,40.826532653265,1273300.2850442,-1770.7550640299,2555912.5174385,46.026532653265,0,0
-159.30056059813,498.96170958335,40.83096309631,1273300.2850442,-1770.7550640299,2555912.5174385,46.03096309631,0,0
-159.30056039269,499.01315577485,40.835393539354,1273300.2850442,-1770.7550640299,2555912.5174385,46.035393539354,0,0
-159.30056018726,499.06460196636,40.839823982398,1273300.2850442,-1770.7550640299,2555912.5174385,46.039823982398,0,0
-159.30055998183,499.11604815786,40.844254425443,1273300.2850442,-1770.7550640299,2555912.5174385,46.044254425443,0,0
-159.30055977639,499.16749434936,40.848684868487,1273300.2850442,-1770.7550640299,2555912.5174385,46.048684868487,0,0
-159.30055957096,499.21894054086,40.853115311531,1273300.2850442,-1770.7550640299,2555912.5174385,46.053115311531,0,0
-159.30055936553,499.27038673236,40.857545754575,1273300.2850442,-1770.7550640299,2555912.5174385,46.057545754575,0,0
-159.3005591601,499.32183292386,40.86197619762,1273300.2850442,-1770.7550640299,2555912.5174385,46.06197619762,0,0
-159.30055895466,499.37327911536,40.866406640664,1273300.2850442,-1770.7550640299,2555912.5174385,46.066406640664,0,0
-159.30055874923,499.42472530686,40.870837083708,1273300.2850442,-1770.7550640299,2555912.5174385,46.070837083708,0,0
-159.3005585438,499.47617149836,40.875267526753,1273300.2850442,-1770.7550640299,2555912.5174385,46.075267526753,0,0
-159.30055833836,499.52761768986,40.879697969797,1273300.2850442,-1770.7550640299,2555912.5174385,46.079697969797,0,0
-159.30055813293,499.57906388136,40.884128412841,1273300.2850442,-1770.7550640299,2555912.5174385,46.084128412841,0,0
-159.3005579275,499.63051007287,40.888558855886,1273300.2850442,-1770.7550640299,2555912.5174385,46.088558855886,0,0
-159.30055772214,499.68195626481,40.89298929893,1271456.6895879,620.98872923545,2553319.3659377,46.09298929893,0,0
-159.30055751686,499.73340245726,40.897419741974,1271456.6895879,620.98872923545,2553319.3659377,46.097419741974,0,0
-159.30055731159,499.78484864971,40.901850185018,1271456.6895879,620.98872923545,2553319.3659377,46.101850185018,0,0
-159.30055710631,499.83629484217,40.906280628063,1271456.6895879,620.98872923545,2553319.3659377,46.106280628063,0,0
-159.30055690104,499.88774103462,40.910711071107,1271456.6895879,620.98872923545,2553319.3659377,46.110711071107,0,0
-159.30055669576,499.93918722708,40.915141514151,1271456.6895879,620.98872923545,2553319.3659377,46.115141514151,0,0
-159.30055649049,499.99063341953,40.919571957196,1271456.6895879,620.98872923545,2553319.3659377,46.119571957196,0,0
-159.30055628521,500.04207961198,40.92400240024,1271456.6895879,620.98872923545,2553319.3659377,46.12400240024,0,0
-159.30055607994,500.09352580444,40.928432843284,1271456.6895879,620.98872923545,2553319.3659377,46.128432843284,0,0
-159.30055587467,500.14497199689,40.932863286329,1271456.6895879,620.98872923545,2553319.3659377,46.132863286329,0,0
-159.30055566939,500.19641818935,40.937293729373,1271456.6895879,620.98872923545,2553319.3659377,46.137293729373,0,0
-159.30055546412,500.2478643818,40.941724172417,1271456.6895879,620.98872923545,2553319.3659377,46.141724172417,0,0
-159.30055525884,500.29931057426,40.946154615462,1271456.6895879,620.98872923545,2553319.3659377,46.146154615462,0,0
-159.30055505357,500.35075676671,40.950585058506,1271456.6895879,620.98872923545,2553319.3659377,46.150585058506,0,0
-159.30055484829,500.40220295916,40.95501550155,1271456.6895879,620.98872923545,2553319.3659377,46.15501550155,0,0
-159.30055464302,500.45364915162,40.959445944594,1271456.6895879,620.98872923545,2553319.3659377,46.159445944594,0,0
-159.30055443774,500.50509534407,40.963876387639,1271456.6895879,620.98872923545,2553319.3659377,46.163876387639,0,0
-159.30055423247,500.55654153653,40.968306830683,1271456.6895879,620.98872923545,2553319.3659377,46.168306830683,0,0
-159.30055402719,500.60798772898,40.972737273727,1271456.6895879,620.98872923545,2553319.3659377,46.172737273727,0,0
-159.3005538214,500.65943392075,40.977167716772,1273891.2643433,360.94299356461,2547633.2473751,46.177167716772,0,0
-159.30055361544,500.71088011232,40.981598159816,1273891.2643433,360.94299356461,2547633.2473751,46.181598159816,0,0
-159.30055340949,500.76232630388,40.98602860286,1273891.2643433,360.94299356461,2547633.2473751,46.18602860286,0,0
-159.30055320354,500.81377249544,40.990459045905,1273891.2643433,360.94299356461,2547633.2473751,46.190459045905,0,0
-159.30055299758,500.865218687,40.994889488949,1273891.2643433,360.94299356461,2547633.2473751,46.194889488949,0,0
-159.30055279163,500.91666487856,40.999319931993,1273891.2643433,360.94299356461,2547633.2473751,46.199319931993,0,0
-159.30055258567,500.96811107013,41.003750375037,1273891.2643433,360.94299356461,2547633.2473751,46.203750375038,0,0
-159.30055237972,501.01955726169,41.008180818082,1273891.2643433,360.94299356461,2547633.2473751,46.208180818082,0,0
-159.30055217376,501.07100345325,41.012611261126,1273891.2643433,360.94299356461,2547633.2473751,46.212611261126,0,0
-159.30055196781,501.12244964481,41.01704170417,1273891.2643433,360.94299356461,2547633.2473751,46.21704170417,0,0
-159.30055176185,501.17389583637,41.021472147215,1273891.2643433,360.94299356461,2547633.2473751,46.221472147215,0,0
-159.3005515559,501.22534202794,41.025902590259,1273891.2643433,360.94299356461,2547633.2473751,46.225902590259,0,0
-159.30055134994,501.2767882195,41.030333033303,1273891.2643433,360.94299356461,2547633.2473751,46.230333033303,0,0
-159.30055114399,501.32823441106,41.034763476348,1273891.2643433,360.94299356461,2547633.2473751,46.234763476348,0,0
-159.30055093803,501.37968060262,41.039193919392,1273891.2643433,360.94299356461,2547633.2473751,46.239193919392,0,0
-159.30055073208,501.43112679418,41.043624362436,1273891.2643433,360.94299356461,2547633.2473751,46.243624362436,0,0
-159.30055052612,501.48257298575,41.048054805481,1273891.2643433,360.94299356461,2547633.2473751,46.248054805481,0,0
-159.30055032017,501.53401917731,41.052485248525,1273891.2643433,360.94299356461,2547633.2473751,46.252485248525,0,0
-159.30055011422,501.58546536887,41.056915691569,1273891.2643433,360.94299356461,2547633.2473751,46.256915691569,0,0
-159.30054990826,501.63691156043,41.061346134613,1273891.2643433,360.94299356461,2547633.2473751,46.261346134613,0,0
-159.30054970231,501.68835775199,41.065776577658,1273891.2643433,360.94299356461,2547633.2473751,46.265776577658,0,0
-159.30054949635,501.73980394356,41.070207020702,1273891.2643433,360.94299356461,2547633.2473751,46.270207020702,0,0
-159.3005492904,501.79125013512,41.074637463746,1273891.2643433,360.94299356461,2547633.2473751,46.274637463746,0,0
-159.30054908444,501.84269632668,41.079067906791,1273891.2643433,360.94299356461,2547633.2473751,46.279067906791,0,0
-159.30054887849,501.89414251824,41.083498349835,1273891.2643433,360.94299356461,2547633.2473751,46.283498349835,0,0
-159.30054867253,501.9455887098,41.087928792879,1273891.2643433,360.94299356461,2547633.2473751,46.287928792879,0,0
-159.30054846658,501.99703490137,41.092359235924,1273891.2643433,360.94299356461,2547633.2473751,46.292359235924,0,0
-159.30054826062,502.04848109293,41.096789678968,1273891.2643433,360.94299356461,2547633.2473751,46.296789678968,0,0
-159.30054805467,502.09992728449,41.101220122012,1273891.2643433,360.94299356461,2547633.2473751,46.301220122012,0,0
-159.30054784871,502.15137347605,41.105650565057,1273891.2643433,360.94299356461,2547633.2473751,46.305650565057,0,0
-159.30054764276,502.20281966761,41.110081008101,1273891.2643433,360.94299356461,2547633.2473751,46.310081008101,0,0
-159.3005474368,502.25426585918,41.114511451145,1273891.2643433,360.94299356461,2547633.2473751,46.314511451145,0,0
-159.30054723085,502.30571205074,41.118941894189,1273891.2643433,360.94299356461,2547633.2473751,46.318941894189,0,0
-159.3005470249,502.3571582423,41.123372337234,1273891.2643433,360.94299356461,2547633.2473751,46.323372337234,0,0
-159.30054681894,502.40860443386,41.127802780278,1273891.2643433,360.94299356461,2547633.2473751,46.327802780278,0,0
-159.30054661299,502.46005062542,41.132233223322,1273891.2643433,360.94299356461,2547633.2473751,46.332233223322,0,0
-159.30054640703,502.51149681698,41.136663666367,1273891.2643433,360.94299356461,2547633.2473751,46.336663666367,0,0
-159.30054620108,502.56294300855,41.141094109411,1273891.2643433,360.94299356461,2547633.2473751,46.341094109411,0,0
-159.30054599512,502.61438920011,41.145524552455,1273891.2643433,360.94299356461,2547633.2473751,46.345524552455,0,0
-159.30054578917,502.66583539167,41.1499549955,1273891.2643433,360.94299356461,2547633.2473751,46.3499549955,0,0
-159.30054558321,502.71728158323,41.154385438544,1273891.2643433,360.94299356461,2547633.2473751,46.354385438544,0,0
-159.30054537726,502.76872777479,41.158815881588,1273891.2643433,360.94299356461,2547633.2473751,46.358815881588,0,0
-159.3005451713,502.82017396636,41.163246324632,1273891.2643433,360.94299356461,2547633.2473751,46.363246324632,0,0
-159.30054496535,502.87162015792,41.167676767677,1273891.2643433,360.94299356461,2547633.2473751,46.367676767677,0,0
-159.30054475939,502.92306634948,41.172107210721,1273891.2643433,360.94299356461,2547633.2473751,46.372107210721,0,0
-159.30054455344,502.97451254104,41.176537653765,1273891.2643433,360.94299356461,2547633.2473751,46.376537653765,0,0
-159.30054434748,503.0259587326,41.18096809681,1273891.2643433,360.94299356461,2547633.2473751,46.38096809681,0,0
-159.30054414153,503.07740492417,41.185398539854,1273891.2643433,360.94299356461,2547633.2473751,46.385398539854,0,0
-159.30054393557,503.12885111573,41.189828982898,1273891.2643433,360.94299356461,2547633.2473751,46.389828982898,0,0
-159.30054372962,503.18029730729,41.194259425943,1273891.2643433,360.94299356461,2547633.2473751,46.394259425943,0,0
-159.30054352367,503.23174349885,41.198689868987,1273891.2643433,360.94299356461,2547633.2473751,46.398689868987,0,0
-159.30054331771,503.28318969041,41.203120312031,1273891.2643433,360.94299356461,2547633.2473751,46.403120312031,0,0
-159.30054311176,503.33463588198,41.207550755076,1273891.2643433,360.94299356461,2547633.2473751,46.407550755076,0,0
-159.3005429058,503.38608207354,41.21198119812,1273891.2643433,360.94299356461,2547633.2473751,46.41198119812,0,0
-159.30054269985,503.4375282651,41.216411641164,1273891.2643433,360.94299356461,2547633.2473751,46.416411641164,0,0
-159.30054249389,503.48897445666,41.220842084208,1273891.2643433,360.94299356461,2547633.2473751,46.420842084208,0,0
-159.30054228794,503.54042064822,41.225272527253,1273891.2643433,360.94299356461,2547633.2473751,46.425272527253,0,0
-159.30054208198,503.59186683979,41.229702970297,1273891.2643433,360.94299356461,2547633.2473751,46.429702970297,0,0
-159.30054187603,503.64331303135,41.234133413341,1273891.2643433,360.94299356461,2547633.2473751,46.434133413341,0,0
-159.30054167007,503.69475922291,41.238563856386,1273891.2643433,360.94299356461,2547633.2473751,46.438563856386,0,0
-159.30054146412,503.74620541447,41.24299429943,1273891.2643433,360.94299356461,2547633.2473751,46.44299429943,0,0
-159.30054125816,503.79765160603,41.247424742474,1273891.2643433,360.94299356461,2547633.2473751,46.447424742474,0,0
-159.30054105221,503.8490977976,41.251855185519,1273891.2643433,360.94299356461,2547633.2473751,46.451855185519,0,0
-159.30054084625,503.90054398916,41.256285628563,1273891.2643433,360.94299356461,2547633.2473751,46.456285628563,0,0
-159.3005406403,503.95199018072,41.260716071607,1273891.2643433,360.94299356461,2547633.2473751,46.460716071607,0,0
-159.30054043435,504.00343637228,41.265146514651,1273891.2643433,360.94299356461,2547633.2473751,46.465146514651,0,0
-159.30054022839,504.05488256384,41.269576957696,1273891.2643433,360.94299356461,2547633.2473751,46.469576957696,0,0
-159.30054002244,504.10632875541,41.27400740074,1273891.2643433,360.94299356461,2547633.2473751,46.47400740074,0,0
-159.30053981648,504.15777494697,41.278437843784,1273891.2643433,360.94299356461,2547633.2473751,46.478437843784,0,0
-159.30053961053,504.20922113853,41.282868286829,1273891.2643433,360.94299356461,2547633.2473751,46.482868286829,0,0
-159.30053940457,504.26066733009,41.287298729873,1273891.2643433,360.94299356461,2547633.2473751,46.487298729873,0,0
-159.30053919862,504.31211352165,41.291729172917,1273891.2643433,360.94299356461,2547633.2473751,46.491729172917,0,0
-159.30053899266,504.36355971322,41.296159615962,1273891.2643433,360.94299356461,2547633.2473751,46.496159615962,0,0
-159.30053878671,504.41500590478,41.300590059006,1273891.2643433,360.94299356461,2547633.2473751,46.500590059006,0,0
-159.30053858075,504.46645209634,41.30502050205,1273891.2643433,360.94299356461,2547633.2473751,46.50502050205,0,0
-159.3005383748,504.5178982879,41.309450945095,1273891.2643433,360.94299356461,2547633.2473751,46.509450945095,0,0
-159.30053816884,504.56934447946,41.313881388139,1273891.2643433,360.94299356461,2547633.2473751,46.513881388139,0,0
-159.30053796289,504.62079067103,41.318311831183,1273891.2643433,360.94299356461,2547633.2473751,46.518311831183,0,0
-159.30053775693,504.67223686259,41.322742274227,1273891.2643433,360.94299356461,2547633.2473751,46.522742274227,0,0
-159.30053755098,504.72368305415,41.327172717272,1273891.2643433,360.94299356461,2547633.2473751,46.527172717272,0,0
-159.30053734502,504.77512924571,41.331603160316,1273891.2643433,360.94299356461,2547633.2473751,46.531603160316,0,0
-159.30053713907,504.82657543727,41.33603360336,1273891.2643433,360.94299356461,2547633.2473751,46.53603360336,0,0
-159.30053693312,504.87802162884,41.340464046405,1273891.2643433,360.94299356461,2547633.2473751,46.540464046405,0,0
-159.30053672716,504.9294678204,41.344894489449,1273891.2643433,360.94299356461,2547633.2473751,46.544894489449,0,0
-159.30053652121,504.98091401196,41.349324932493,1273891.2643433,360.94299356461,2547633.2473751,46.549324932493,0,0
-159.30053631525,505.03236020352,41.353755375538,1273891.2643433,360.94299356461,2547633.2473751,46.553755375538,0,0
-159.3005361093,505.08380639508,41.358185818582,1273891.2643433,360.94299356461,2547633.2473751,46.558185818582,0,0
-159.30053590334,505.13525258665,41.362616261626,1273891.2643433,360.94299356461,2547633.2473751,46.562616261626,0,0
-159.30053569739,505.18669877821,41.36704670467,1273891.2643433,360.94299356461,2547633.2473751,46.56704670467,0,0
-159.30053549143,505.23814496977,41.371477147715,1273891.2643433,360.94299356461,2547633.2473751,46.571477147715,0,0
-159.30053528548,505.28959116133,41.375907590759,1273891.2643433,360.94299356461,2547633.2473751,46.575907590759,0,0
-159.30053507952,505.34103735289,41.380338033803,1273891.2643433,360.94299356461,2547633.2473751,46.580338033803,0,0
-159.30053487357,505.39248354446,41.384768476848,1273891.2643433,360.94299356461,2547633.2473751,46.584768476848,0,0
-159.30053466761,505.44392973602,41.389198919892,1273891.2643433,360.94299356461,2547633.2473751,46.589198919892,0,0
-159.30053446166,505.49537592758,41.393629362936,1273891.2643433,360.94299356461,2547633.2473751,46.593629362936,0,0
-159.3005342557,505.54682211914,41.398059805981,1273891.2643433,360.94299356461,2547633.2473751,46.598059805981,0,0
-159.30053404975,505.5982683107,41.402490249025,1273891.2643433,360.94299356461,2547633.2473751,46.602490249025,0,0
-159.3005338438,505.64971450227,41.406920692069,1273891.2643433,360.94299356461,2547633.2473751,46.606920692069,0,0
-159.30053363784,505.70116069383,41.411351135114,1273891.2643433,360.94299356461,2547633.2473751,46.611351135114,0,0
-159.30053343189,505.75260688539,41.415781578158,1273891.2643433,360.94299356461,2547633.2473751,46.615781578158,0,0
-159.30053322593,505.80405307695,41.420212021202,1273891.2643433,360.94299356461,2547633.2473751,46.620212021202,0,0
-159.30053301998,505.85549926851,41.424642464246,1273891.2643433,360.94299356461,2547633.2473751,46.624642464246,0,0
-159.30053281402,505.90694546008,41.429072907291,1273891.2643433,360.94299356461,2547633.2473751,46.629072907291,0,0
-159.30053260807,505.95839165164,41.433503350335,1273891.2643433,360.94299356461,2547633.2473751,46.633503350335,0,0
-159.30053240211,506.0098378432,41.437933793379,1273891.2643433,360.94299356461,2547633.2473751,46.637933793379,0,0
-159.30053219616,506.06128403476,41.442364236424,1273891.2643433,360.94299356461,2547633.2473751,46.642364236424,0,0
-159.3005319902,506.11273022632,41.446794679468,1273891.2643433,360.94299356461,2547633.2473751,46.646794679468,0,0
-159.30053178425,506.16417641789,41.451225122512,1273891.2643433,360.94299356461,2547633.2473751,46.651225122512,0,0
-159.30053157829,506.21562260945,41.455655565557,1273891.2643433,360.94299356461,2547633.2473751,46.655655565557,0,0
-159.30053137234,506.26706880101,41.460086008601,1273891.2643433,360.94299356461,2547633.2473751,46.660086008601,0,0
-159.30053116638,506.31851499257,41.464516451645,1273891.2643433,360.94299356461,2547633.2473751,46.664516451645,0,0
-159.30053096043,506.36996118413,41.468946894689,1273891.2643433,360.94299356461,2547633.2473751,46.668946894689,0,0
-159.30053075448,506.4214073757,41.473377337734,1273891.2643433,360.94299356461,2547633.2473751,46.673377337734,0,0
-159.30053054852,506.47285356726,41.477807780778,1273891.2643433,360.94299356461,2547633.2473751,46.677807780778,0,0
-159.30053034257,506.52429975882,41.482238223822,1273891.2643433,360.94299356461,2547633.2473751,46.682238223822,0,0
-159.30053013661,506.57574595038,41.486668666867,1273891.2643433,360.94299356461,2547633.2473751,46.686668666867,0,0
-159.30052993066,506.62719214194,41.491099109911,1273891.2643433,360.94299356461,2547633.2473751,46.691099109911,0,0
-159.3005297247,506.6786383335,41.495529552955,1273891.2643433,360.94299356461,2547633.2473751,46.695529552955,0,0
-159.30052951875,506.73008452507,41.499959996,1273891.2643433,360.94299356461,2547633.2473751,46.699959996,0,0
-159.30052931279,506.78153071663,41.504390439044,1273891.2643433,360.94299356461,2547633.2473751,46.704390439044,0,0
-159.30052910684,506.83297690819,41.508820882088,1273891.2643433,360.94299356461,2547633.2473751,46.708820882088,0,0
-159.30052890088,506.88442309975,41.513251325133,1273891.2643433,360.94299356461,2547633.2473751,46.713251325133,0,0
-159.30052869493,506.93586929131,41.517681768177,1273891.2643433,360.94299356461,2547633.2473751,46.717681768177,0,0
-159.30052848897,506.98731548288,41.522112211221,1273891.2643433,360.94299356461,2547633.2473751,46.722112211221,0,0
-159.30052828302,507.03876167444,41.526542654265,1273891.2643433,360.94299356461,2547633.2473751,46.726542654265,0,0
-159.30052807706,507.090207866,41.53097309731,1273891.2643433,360.94299356461,2547633.2473751,46.73097309731,0,0
-159.30052787111,507.14165405756,41.535403540354,1273891.2643433,360.94299356461,2547633.2473751,46.735403540354,0,0
-159.30052766515,507.19310024912,41.539833983398,1273891.2643433,360.94299356461,2547633.2473751,46.739833983398,0,0
-159.3005274592,507.24454644069,41.544264426443,1273891.2643433,360.94299356461,2547633.2473751,46.744264426443,0,0
-159.30052725325,507.29599263225,41.548694869487,1273891.2643433,360.94299356461,2547633.2473751,46.748694869487,0,0
-159.30052704729,507.34743882381,41.553125312531,1273891.2643433,360.94299356461,2547633.2473751,46.753125312531,0,0
-159.30052684134,507.39888501537,41.557555755576,1273891.2643433,360.94299356461,2547633.2473751,46.757555755576,0,0
-159.30052663538,507.45033120693,41.56198619862,1273891.2643433,360.94299356461,2547633.2473751,46.76198619862,0,0
-159.30052642943,507.5017773985,41.566416641664,1273891.2643433,360.94299356461,2547633.2473751,46.766416641664,0,0
-159.30052622347,507.55322359006,41.570847084708,1273891.2643433,360.94299356461,2547633.2473751,46.770847084708,0,0
-159.30052601752,507.60466978162,41.575277527753,1273891.2643433,360.94299356461,2547633.2473751,46.775277527753,0,0
-159.30052581156,507.65611597318,41.579707970797,1273891.2643433,360.94299356461,2547633.2473751,46.779707970797,0,0
-159.30052560561,507.70756216474,41.584138413841,1273891.2643433,360.94299356461,2547633.2473751,46.784138413841,0,0
-159.30052539965,507.75900835631,41.588568856886,1273891.2643433,360.94299356461,2547633.2473751,46.788568856886,0,0
-159.3005251937,507.81045454787,41.59299929993,1273891.2643433,360.94299356461,2547633.2473751,46.79299929993,0,0
-159.30052498774,507.86190073943,41.597429742974,1273891.2643433,360.94299356461,2547633.2473751,46.797429742974,0,0
-159.30052478179,507.91334693099,41.601860186019,1273891.2643433,360.94299356461,2547633.2473751,46.801860186019,0,0
-159.30052457583,507.96479312255,41.606290629063,1273891.2643433,360.94299356461,2547633.2473751,46.806290629063,0,0
-159.30052436988,508.01623931412,41.610721072107,1273891.2643433,360.94299356461,2547633.2473751,46.810721072107,0,0
-159.30052416393,508.06768550568,41.615151515152,1273891.2643433,360.94299356461,2547633.2473751,46.815151515152,0,0
-159.30052395797,508.11913169724,41.619581958196,1273891.2643433,360.94299356461,2547633.2473751,46.819581958196,0,0
-159.30052375202,508.1705778888,41.62401240124,1273891.2643433,360.94299356461,2547633.2473751,46.82401240124,0,0
-159.30052354606,508.22202408036,41.628442844284,1273891.2643433,360.94299356461,2547633.2473751,46.828442844284,0,0
-159.30052334011,508.27347027193,41.632873287329,1273891.2643433,360.94299356461,2547633.2473751,46.832873287329,0,0
-159.30052313415,508.32491646349,41.637303730373,1273891.2643433,360.94299356461,2547633.2473751,46.837303730373,0,0
-159.3005229282,508.37636265505,41.641734173417,1273891.2643433,360.94299356461,2547633.2473751,46.841734173417,0,0
-159.30052272224,508.42780884661,41.646164616462,1273891.2643433,360.94299356461,2547633.2473751,46.846164616462,0,0
-159.30052251629,508.47925503817,41.650595059506,1273891.2643433,360.94299356461,2547633.2473751,46.850595059506,0,0
-159.30052231033,508.53070122974,41.65502550255,1273891.2643433,360.94299356461,2547633.2473751,46.85502550255,0,0
-159.30052210438,508.5821474213,41.659455945595,1273891.2643433,360.94299356461,2547633.2473751,46.859455945595,0,0
-159.30052189842,508.63359361286,41.663886388639,1273891.2643433,360.94299356461,2547633.2473751,46.863886388639,0,0
-159.30052169247,508.68503980442,41.668316831683,1273891.2643433,360.94299356461,2547633.2473751,46.868316831683,0,0
-159.30052148651,508.73648599598,41.672747274727,1273891.2643433,360.94299356461,2547633.2473751,46.872747274727,0,0
-159.30052128056,508.78793218755,41.677177717772,1273891.2643433,360.94299356461,2547633.2473751,46.877177717772,0,0
-159.30052107461,508.83937837911,41.681608160816,1273891.2643433,360.94299356461,2547633.2473751,46.881608160816,0,0
-159.30052086865,508.89082457067,41.68603860386,1273891.2643433,360.94299356461,2547633.2473751,46.88603860386,0,0
-159.3005206627,508.94227076223,41.690469046905,1273891.2643433,360.94299356461,2547633.2473751,46.890469046905,0,0
-159.30052045674,508.99371695379,41.694899489949,1273891.2643433,360.94299356461,2547633.2473751,46.894899489949,0,0
-159.30052025079,509.04516314536,41.699329932993,1273891.2643433,360.94299356461,2547633.2473751,46.899329932993,0,0
-159.30052004483,509.09660933692,41.703760376038,1273891.2643433,360.94299356461,2547633.2473751,46.903760376038,0,0
-159.30051983888,509.14805552848,41.708190819082,1273891.2643433,360.94299356461,2547633.2473751,46.908190819082,0,0
-159.30051963292,509.19950172004,41.712621262126,1273891.2643433,360.94299356461,2547633.2473751,46.912621262126,0,0
-159.30051942697,509.2509479116,41.717051705171,1273891.2643433,360.94299356461,2547633.2473751,46.917051705171,0,0
-159.30051922101,509.30239410317,41.721482148215,1273891.2643433,360.94299356461,2547633.2473751,46.921482148215,0,0
-159.30051901506,509.35384029473,41.725912591259,1273891.2643433,360.94299356461,2547633.2473751,46.925912591259,0,0
-159.3005188091,509.40528648629,41.730343034303,1273891.2643433,360.94299356461,2547633.2473751,46.930343034303,0,0
-159.30051860315,509.45673267785,41.734773477348,1273891.2643433,360.94299356461,2547633.2473751,46.934773477348,0,0
-159.30051839719,509.50817886941,41.739203920392,1273891.2643433,360.94299356461,2547633.2473751,46.939203920392,0,0
-159.30051819124,509.55962506098,41.743634363436,1273891.2643433,360.94299356461,2547633.2473751,46.943634363436,0,0
-159.30051798528,509.61107125254,41.748064806481,1273891.2643433,360.94299356461,2547633.2473751,46.948064806481,0,0
-159.30051777933,509.6625174441,41.752495249525,1273891.2643433,360.94299356461,2547633.2473751,46.952495249525,0,0
-159.30051757338,509.71396363566,41.756925692569,1273891.2643433,360.94299356461,2547633.2473751,46.956925692569,0,0
-159.30051736742,509.76540982722,41.761356135614,1273891.2643433,360.94299356461,2547633.2473751,46.961356135614,0,0
-159.30051716147,509.81685601879,41.765786578658,1273891.2643433,360.94299356461,2547633.2473751,46.965786578658,0,0
-159.30051695551,509.86830221035,41.770217021702,1273891.2643433,360.94299356461,2547633.2473751,46.970217021702,0,0
-159.30051674956,509.91974840191,41.774647464746,1273891.2643433,360.94299356461,2547633.2473751,46.974647464746,0,0
-159.3005165436,509.97119459347,41.779077907791,1273891.2643433,360.94299356461,2547633.2473751,46.979077907791,0,0
-159.30051633765,510.02264078503,41.783508350835,1273891.2643433,360.94299356461,2547633.2473751,46.983508350835,0,0
-159.30051613169,510.0740869766,41.787938793879,1273891.2643433,360.94299356461,2547633.2473751,46.987938793879,0,0
-159.30051592574,510.12553316816,41.792369236924,1273891.2643433,360.94299356461,2547633.2473751,46.992369236924,0,0
-159.30051571978,510.17697935972,41.796799679968,1273891.2643433,360.94299356461,2547633.2473751,46.996799679968,0,0
-159.30051551383,510.22842555128,41.801230123012,1273891.2643433,360.94299356461,2547633.2473751,47.001230123012,0,0
-159.30051530787,510.27987174284,41.805660566057,1273891.2643433,360.94299356461,2547633.2473751,47.005660566057,0,0
-159.30051510192,510.33131793441,41.810091009101,1273891.2643433,360.94299356461,2547633.2473751,47.010091009101,0,0
-159.30051489596,510.38276412597,41.814521452145,1273891.2643433,360.94299356461,2547633.2473751,47.014521452145,0,0
-159.30051469001,510.43421031753,41.81895189519,1273891.2643433,360.94299356461,2547633.2473751,47.01895189519,0,0
-159.30051448406,510.48565650909,41.823382338234,1273891.2643433,360.94299356461,2547633.2473751,47.023382338234,0,0
-159.3005142781,510.53710270065,41.827812781278,1273891.2643433,360.94299356461,2547633.2473751,47.027812781278,0,0
-159.30051407215,510.58854889221,41.832243224322,1273891.2643433,360.94299356461,2547633.2473751,47.032243224322,0,0
-159.30051386619,510.63999508378,41.836673667367,1273891.2643433,360.94299356461,2547633.2473751,47.036673667367,0,0
-159.30051366024,510.69144127534,41.841104110411,1273891.2643433,360.94299356461,2547633.2473751,47.041104110411,0,0
-159.30051345428,510.7428874669,41.845534553455,1273891.2643433,360.94299356461,2547633.2473751,47.045534553455,0,0
-159.30051324833,510.79433365846,41.8499649965,1273891.2643433,360.94299356461,2547633.2473751,47.0499649965,0,0
-159.30051304237,510.84577985002,41.854395439544,1273891.2643433,360.94299356461,2547633.2473751,47.054395439544,0,0
-159.30051283642,510.89722604159,41.858825882588,1273891.2643433,360.94299356461,2547633.2473751,47.058825882588,0,0
-159.30051263046,510.94867223315,41.863256325633,1273891.2643433,360.94299356461,2547633.2473751,47.063256325633,0,0
-159.30051242451,511.00011842471,41.867686768677,1273891.2643433,360.94299356461,2547633.2473751,47.067686768677,0,0
-159.30051221855,511.05156461627,41.872117211721,1273891.2643433,360.94299356461,2547633.2473751,47.072117211721,0,0
-159.3005120126,511.10301080783,41.876547654765,1273891.2643433,360.94299356461,2547633.2473751,47.076547654765,0,0
-159.30051180664,511.1544569994,41.88097809781,1273891.2643433,360.94299356461,2547633.2473751,47.08097809781,0,0
-159.30051160069,511.20590319096,41.885408540854,1273891.2643433,360.94299356461,2547633.2473751,47.085408540854,0,0
-159.30051139474,511.25734938252,41.889838983898,1273891.2643433,360.94299356461,2547633.2473751,47.089838983898,0,0
-159.30051118878,511.30879557408,41.894269426943,1273891.2643433,360.94299356461,2547633.2473751,47.094269426943,0,0
-159.30051098283,511.36024176564,41.898699869987,1273891.2643433,360.94299356461,2547633.2473751,47.098699869987,0,0
-159.30051077687,511.41168795721,41.903130313031,1273891.2643433,360.94299356461,2547633.2473751,47.103130313031,0,0
-159.30051057092,511.46313414877,41.907560756076,1273891.2643433,360.94299356461,2547633.2473751,47.107560756076,0,0
-159.30051036496,511.51458034033,41.91199119912,1273891.2643433,360.94299356461,2547633.2473751,47.11199119912,0,0
-159.30051015901,511.56602653189,41.916421642164,1273891.2643433,360.94299356461,2547633.2473751,47.116421642164,0,0
-159.30050995305,511.61747272345,41.920852085209,1273891.2643433,360.94299356461,2547633.2473751,47.120852085209,0,0
-159.3005097471,511.66891891502,41.925282528253,1273891.2643433,360.94299356461,2547633.2473751,47.125282528253,0,0
-159.30050954114,511.72036510658,41.929712971297,1273891.2643433,360.94299356461,2547633.2473751,47.129712971297,0,0
-159.30050933519,511.77181129814,41.934143414341,1273891.2643433,360.94299356461,2547633.2473751,47.134143414341,0,0
-159.30050912923,511.8232574897,41.938573857386,1273891.2643433,360.94299356461,2547633.2473751,47.138573857386,0,0
-159.30050892328,511.87470368126,41.94300430043,1273891.2643433,360.94299356461,2547633.2473751,47.14300430043,0,0
-159.30050871732,511.92614987283,41.947434743474,1273891.2643433,360.94299356461,2547633.2473751,47.147434743474,0,0
-159.30050851137,511.97759606439,41.951865186519,1273891.2643433,360.94299356461,2547633.2473751,47.151865186519,0,0
-159.30050830541,512.02904225595,41.956295629563,1273891.2643433,360.94299356461,2547633.2473751,47.156295629563,0,0
-159.30050809946,512.08048844751,41.960726072607,1273891.2643433,360.94299356461,2547633.2473751,47.160726072607,0,0
-159.30050789351,512.13193463907,41.965156515652,1273891.2643433,360.94299356461,2547633.2473751,47.165156515652,0,0
-159.30050768755,512.18338083064,41.969586958696,1273891.2643433,360.94299356461,2547633.2473751,47.169586958696,0,0
-159.3005074816,512.2348270222,41.97401740174,1273891.2643433,360.94299356461,2547633.2473751,47.17401740174,0,0
-159.30050727564,512.28627321376,41.978447844784,1273891.2643433,360.94299356461,2547633.2473751,47.178447844784,0,0
-159.30050706969,512.33771940532,41.982878287829,1273891.2643433,360.94299356461,2547633.2473751,47.182878287829,0,0
-159.30050686373,512.38916559688,41.987308730873,1273891.2643433,360.94299356461,2547633.2473751,47.187308730873,0,0
-159.30050665778,512.44061178845,41.991739173917,1273891.2643433,360.94299356461,2547633.2473751,47.191739173917,0,0
-159.30050645182,512.49205798001,41.996169616962,1273891.2643433,360.94299356461,2547633.2473751,47.196169616962,0,0
-159.30050624587,512.54350417157,42.000600060006,1273891.2643433,360.94299356461,2547633.2473751,47.200600060006,0,0
-159.30050603991,512.59495036313,42.00503050305,1273891.2643433,360.94299356461,2547633.2473751,47.20503050305,0,0
-159.30050583396,512.64639655469,42.009460946095,1273891.2643433,360.94299356461,2547633.2473751,47.209460946095,0,0
-159.300505628,512.69784274626,42.013891389139,1273891.2643433,360.94299356461,2547633.2473751,47.213891389139,0,0
-159.30050542205,512.74928893782,42.018321832183,1273891.2643433,360.94299356461,2547633.2473751,47.218321832183,0,0
-159.30050521609,512.80073512938,42.022752275228,1273891.2643433,360.94299356461,2547633.2473751,47.222752275228,0,0
-159.30050501014,512.85218132094,42.027182718272,1273891.2643433,360.94299356461,2547633.2473751,47.227182718272,0,0
-159.30050480419,512.9036275125,42.031613161316,1273891.2643433,360.94299356461,2547633.2473751,47.231613161316,0,0
-159.30050459823,512.95507370407,42.03604360436,1273891.2643433,360.94299356461,2547633.2473751,47.23604360436,0,0
-159.30050439228,513.00651989563,42.040474047405,1273891.2643433,360.94299356461,2547633.2473751,47.240474047405,0,0
-159.30050418632,513.05796608719,42.044904490449,1273891.2643433,360.94299356461,2547633.2473751,47.244904490449,0,0
-159.30050398037,513.10941227875,42.049334933493,1273891.2643433,360.94299356461,2547633.2473751,47.249334933493,0,0
-159.30050377441,513.16085847031,42.053765376538,1273891.2643433,360.94299356461,2547633.2473751,47.253765376538,0,0
-159.30050356846,513.21230466188,42.058195819582,1273891.2643433,360.94299356461,2547633.2473751,47.258195819582,0,0
-159.3005033625,513.26375085344,42.062626262626,1273891.2643433,360.94299356461,2547633.2473751,47.262626262626,0,0
-159.30050315655,513.315197045,42.067056705671,1273891.2643433,360.94299356461,2547633.2473751,47.267056705671,0,0
-159.30050295059,513.36664323656,42.071487148715,1273891.2643433,360.94299356461,2547633.2473751,47.271487148715,0,0
-159.30050274464,513.41808942812,42.075917591759,1273891.2643433,360.94299356461,2547633.2473751,47.275917591759,0,0
-159.30050253868,513.46953561969,42.080348034803,1273891.2643433,360.94299356461,2547633.2473751,47.280348034803,0,0
-159.30050233273,513.52098181125,42.084778477848,1273891.2643433,360.94299356461,2547633.2473751,47.284778477848,0,0
-159.30050212677,513.57242800281,42.089208920892,1273891.2643433,360.94299356461,2547633.2473751,47.289208920892,0,0
-159.30050192082,513.62387419437,42.093639363936,1273891.2643433,360.94299356461,2547633.2473751,47.293639363936,0,0
-159.30050171486,513.67532038593,42.098069806981,1273891.2643433,360.94299356461,2547633.2473751,47.298069806981,0,0
-159.30050150891,513.7267665775,42.102500250025,1273891.2643433,360.94299356461,2547633.2473751,47.302500250025,0,0
-159.30050130296,513.77821276906,42.106930693069,1273891.2643433,360.94299356461,2547633.2473751,47.306930693069,0,0
-159.300501097,513.82965896062,42.111361136114,1273891.2643433,360.94299356461,2547633.2473751,47.311361136114,0,0
-159.30050089105,513.88110515218,42.115791579158,1273891.2643433,360.94299356461,2547633.2473751,47.315791579158,0,0
-159.30050068509,513.93255134374,42.120222022202,1273891.2643433,360.94299356461,2547633.2473751,47.320222022202,0,0
-159.30050047914,513.98399753531,42.124652465247,1273891.2643433,360.94299356461,2547633.2473751,47.324652465247,0,0
-159.30050027318,514.03544372687,42.129082908291,1273891.2643433,360.94299356461,2547633.2473751,47.329082908291,0,0
-159.30050006723,514.08688991843,42.133513351335,1273891.2643433,360.94299356461,2547633.2473751,47.333513351335,0,0
-159.30049986127,514.13833610999,42.137943794379,1273891.2643433,360.94299356461,2547633.2473751,47.337943794379,0,0
-159.30049965532,514.18978230155,42.142374237424,1273891.2643433,360.94299356461,2547633.2473751,47.342374237424,0,0
-159.30049944936,514.24122849312,42.146804680468,1273891.2643433,360.94299356461,2547633.2473751,47.346804680468,0,0
-159.30049924341,514.29267468468,42.151235123512,1273891.2643433,360.94299356461,2547633.2473751,47.351235123512,0,0
-159.30049903745,514.34412087624,42.155665566557,1273891.2643433,360.94299356461,2547633.2473751,47.355665566557,0,0
-159.3004988315,514.3955670678,42.160096009601,1273891.2643433,360.94299356461,2547633.2473751,47.360096009601,0,0
-159.30049862554,514.44701325936,42.164526452645,1273891.2643433,360.94299356461,2547633.2473751,47.364526452645,0,0
-159.30049841959,514.49845945092,42.16895689569,1273891.2643433,360.94299356461,2547633.2473751,47.36895689569,0,0
-159.30049821364,514.54990564249,42.173387338734,1273891.2643433,360.94299356461,2547633.2473751,47.373387338734,0,0
-159.30049800768,514.60135183405,42.177817781778,1273891.2643433,360.94299356461,2547633.2473751,47.377817781778,0,0
-159.30049780173,514.65279802561,42.182248224822,1273891.2643433,360.94299356461,2547633.2473751,47.382248224822,0,0
-159.30049759577,514.70424421717,42.186678667867,1273891.2643433,360.94299356461,2547633.2473751,47.386678667867,0,0
-159.30049738982,514.75569040873,42.191109110911,1273891.2643433,360.94299356461,2547633.2473751,47.391109110911,0,0
-159.30049718386,514.8071366003,42.195539553955,1273891.2643433,360.94299356461,2547633.2473751,47.395539553955,0,0
-159.30049697791,514.85858279186,42.199969997,1273891.2643433,360.94299356461,2547633.2473751,47.399969997,0,0
-159.30049677195,514.91002898342,42.204400440044,1273891.2643433,360.94299356461,2547633.2473751,47.404400440044,0,0
-159.300496566,514.96147517498,42.208830883088,1273891.2643433,360.94299356461,2547633.2473751,47.408830883088,0,0
-159.30049636004,515.01292136654,42.213261326133,1273891.2643433,360.94299356461,2547633.2473751,47.413261326133,0,0
-159.30049615409,515.06436755811,42.217691769177,1273891.2643433,360.94299356461,2547633.2473751,47.417691769177,0,0
-159.30049594813,515.11581374967,42.222122212221,1273891.2643433,360.94299356461,2547633.2473751,47.422122212221,0,0
-159.30049574218,515.16725994123,42.226552655266,1273891.2643433,360.94299356461,2547633.2473751,47.426552655266,0,0
-159.30049553622,515.21870613279,42.23098309831,1273891.2643433,360.94299356461,2547633.2473751,47.43098309831,0,0
-159.30049533027,515.27015232435,42.235413541354,1273891.2643433,360.94299356461,2547633.2473751,47.435413541354,0,0
-159.30049512432,515.32159851592,42.239843984398,1273891.2643433,360.94299356461,2547633.2473751,47.439843984398,0,0
-159.30049491836,515.37304470748,42.244274427443,1273891.2643433,360.94299356461,2547633.2473751,47.444274427443,0,0
-159.30049471241,515.42449089904,42.248704870487,1273891.2643433,360.94299356461,2547633.2473751,47.448704870487,0,0
-159.30049450645,515.4759370906,42.253135313531,1273891.2643433,360.94299356461,2547633.2473751,47.453135313531,0,0
-159.3004943005,515.52738328216,42.257565756576,1273891.2643433,360.94299356461,2547633.2473751,47.457565756576,0,0
-159.30049409454,515.57882947373,42.26199619962,1273891.2643433,360.94299356461,2547633.2473751,47.46199619962,0,0
-159.30049388859,515.63027566529,42.266426642664,1273891.2643433,360.94299356461,2547633.2473751,47.466426642664,0,0
-159.30049368263,515.68172185685,42.270857085709,1273891.2643433,360.94299356461,2547633.2473751,47.470857085709,0,0
-159.30049347668,515.73316804841,42.275287528753,1273891.2643433,360.94299356461,2547633.2473751,47.475287528753,0,0
-159.30049327072,515.78461423997,42.279717971797,1273891.2643433,360.94299356461,2547633.2473751,47.479717971797,0,0
-159.30049306477,515.83606043154,42.284148414841,1273891.2643433,360.94299356461,2547633.2473751,47.484148414841,0,0
-159.30049285881,515.8875066231,42.288578857886,1273891.2643433,360.94299356461,2547633.2473751,47.488578857886,0,0
-159.30049265286,515.93895281466,42.29300930093,1273891.2643433,360.94299356461,2547633.2473751,47.49300930093,0,0
-159.3004924469,515.99039900622,42.297439743974,1273891.2643433,360.94299356461,2547633.2473751,47.497439743974,0,0
-159.30049224095,516.04184519778,42.301870187019,1273891.2643433,360.94299356461,2547633.2473751,47.501870187019,0,0
-159.30049203499,516.09329138935,42.306300630063,1273891.2643433,360.94299356461,2547633.2473751,47.506300630063,0,0
-159.30049182904,516.14473758091,42.310731073107,1273891.2643433,360.94299356461,2547633.2473751,47.510731073107,0,0
-159.30049162309,516.19618377247,42.315161516152,1273891.2643433,360.94299356461,2547633.2473751,47.515161516152,0,0
-159.30049141713,516.24762996403,42.319591959196,1273891.2643433,360.94299356461,2547633.2473751,47.519591959196,0,0
-159.30049121118,516.29907615559,42.32402240224,1273891.2643433,360.94299356461,2547633.2473751,47.52402240224,0,0
-159.30049100522,516.35052234716,42.328452845285,1273891.2643433,360.94299356461,2547633.2473751,47.528452845285,0,0
-159.30049079927,516.40196853872,42.332883288329,1273891.2643433,360.94299356461,2547633.2473751,47.532883288329,0,0
-159.30049059331,516.45341473028,42.337313731373,1273891.2643433,360.94299356461,2547633.2473751,47.537313731373,0,0
-159.30049038736,516.50486092184,42.341744174417,1273891.2643433,360.94299356461,2547633.2473751,47.541744174417,0,0
-159.3004901814,516.5563071134,42.346174617462,1273891.2643433,360.94299356461,2547633.2473751,47.546174617462,0,0
-159.30048997545,516.60775330497,42.350605060506,1273891.2643433,360.94299356461,2547633.2473751,47.550605060506,0,0
-159.30048976949,516.65919949653,42.35503550355,1273891.2643433,360.94299356461,2547633.2473751,47.55503550355,0,0
-159.30048956354,516.71064568809,42.359465946595,1273891.2643433,360.94299356461,2547633.2473751,47.559465946595,0,0
-159.30048935758,516.76209187965,42.363896389639,1273891.2643433,360.94299356461,2547633.2473751,47.563896389639,0,0
-159.30048915163,516.81353807121,42.368326832683,1273891.2643433,360.94299356461,2547633.2473751,47.568326832683,0,0
-159.30048894567,516.86498426278,42.372757275728,1273891.2643433,360.94299356461,2547633.2473751,47.572757275728,0,0
-159.30048873972,516.91643045434,42.377187718772,1273891.2643433,360.94299356461,2547633.2473751,47.577187718772,0,0
-159.30048853377,516.9678766459,42.381618161816,1273891.2643433,360.94299356461,2547633.2473751,47.581618161816,0,0
-159.30048832781,517.01932283746,42.38604860486,1273891.2643433,360.94299356461,2547633.2473751,47.58604860486,0,0
-159.30048812186,517.07076902902,42.390479047905,1273891.2643433,360.94299356461,2547633.2473751,47.590479047905,0,0
-159.3004879159,517.12221522059,42.394909490949,1273891.2643433,360.94299356461,2547633.2473751,47.594909490949,0,0
-159.30048770995,517.17366141215,42.399339933993,1273891.2643433,360.94299356461,2547633.2473751,47.599339933993,0,0
-159.30048750399,517.22510760371,42.403770377038,1273891.2643433,360.94299356461,2547633.2473751,47.603770377038,0,0
-159.30048729804,517.27655379527,42.408200820082,1273891.2643433,360.94299356461,2547633.2473751,47.608200820082,0,0
-159.30048709208,517.32799998683,42.412631263126,1273891.2643433,360.94299356461,2547633.2473751,47.612631263126,0,0
-159.30048688613,517.3794461784,42.417061706171,1273891.2643433,360.94299356461,2547633.2473751,47.617061706171,0,0
-159.30048668017,517.43089236996,42.421492149215,1273891.2643433,360.94299356461,2547633.2473751,47.621492149215,0,0
-159.30048647422,517.48233856152,42.425922592259,1273891.2643433,360.94299356461,2547633.2473751,47.625922592259,0,0
-159.30048626846,517.53378475303,42.430353035304,1271393.4085331,76.933735890591,2546784.154762,47.630353035304,0,0
-159.30048606286,517.58523094449,42.434783478348,1271393.4085331,76.933735890591,2546784.154762,47.634783478348,0,0
-159.30048585726,517.63667713595,42.439213921392,1271393.4085331,76.933735890591,2546784.154762,47.639213921392,0,0
-159.30048565165,517.68812332741,42.443644364436,1271393.4085331,76.933735890591,2546784.154762,47.643644364436,0,0
-159.30048544605,517.73956951887,42.448074807481,1271393.4085331,76.933735890591,2546784.154762,47.648074807481,0,0
-159.30048524045,517.79101571033,42.452505250525,1271393.4085331,76.933735890591,2546784.154762,47.652505250525,0,0
-159.30048503484,517.84246190179,42.456935693569,1271393.4085331,76.933735890591,2546784.154762,47.656935693569,0,0
-159.30048482924,517.89390809326,42.461366136614,1271393.4085331,76.933735890591,2546784.154762,47.661366136614,0,0
-159.30048462364,517.94535428472,42.465796579658,1271393.4085331,76.933735890591,2546784.154762,47.665796579658,0,0
-159.30048441804,517.99680047618,42.470227022702,1271393.4085331,76.933735890591,2546784.154762,47.670227022702,0,0
-159.30048421243,518.04824666764,42.474657465747,1271393.4085331,76.933735890591,2546784.154762,47.674657465747,0,0
-159.30048400683,518.0996928591,42.479087908791,1271393.4085331,76.933735890591,2546784.154762,47.679087908791,0,0
-159.30048380123,518.15113905056,42.483518351835,1271393.4085331,76.933735890591,2546784.154762,47.683518351835,0,0
-159.30048359563,518.20258524203,42.487948794879,1271393.4085331,76.933735890591,2546784.154762,47.687948794879,0,0
-159.30048339002,518.25403143349,42.492379237924,1271393.4085331,76.933735890591,2546784.154762,47.692379237924,0,0
-159.30048318442,518.30547762495,42.496809680968,1271393.4085331,76.933735890591,2546784.154762,47.696809680968,0,0
-159.30048297882,518.35692381641,42.501240124012,1271393.4085331,76.933735890591,2546784.154762,47.701240124012,0,0
-159.30048277322,518.40837000787,42.505670567057,1271393.4085331,76.933735890591,2546784.154762,47.705670567057,0,0
-159.30048256761,518.45981619933,42.510101010101,1271393.4085331,76.933735890591,2546784.154762,47.710101010101,0,0
-159.30048236201,518.51126239079,42.514531453145,1271393.4085331,76.933735890591,2546784.154762,47.714531453145,0,0
-159.30048215641,518.56270858226,42.51896189619,1271393.4085331,76.933735890591,2546784.154762,47.71896189619,0,0
-159.3004819508,518.61415477372,42.523392339234,1271393.4085331,76.933735890591,2546784.154762,47.723392339234,0,0
-159.3004817452,518.66560096518,42.527822782278,1271393.4085331,76.933735890591,2546784.154762,47.727822782278,0,0
-159.3004815396,518.71704715664,42.532253225323,1271393.4085331,76.933735890591,2546784.154762,47.732253225323,0,0
-159.300481334,518.7684933481,42.536683668367,1271393.4085331,76.933735890591,2546784.154762,47.736683668367,0,0
-159.30048112839,518.81993953956,42.541114111411,1271393.4085331,76.933735890591,2546784.154762,47.741114111411,0,0
-159.30048092279,518.87138573103,42.545544554455,1271393.4085331,76.933735890591,2546784.154762,47.745544554455,0,0
-159.30048071719,518.92283192249,42.5499749975,1271393.4085331,76.933735890591,2546784.154762,47.7499749975,0,0
-159.30048051159,518.97427811395,42.554405440544,1271393.4085331,76.933735890591,2546784.154762,47.754405440544,0,0
-159.30048030598,519.02572430541,42.558835883588,1271393.4085331,76.933735890591,2546784.154762,47.758835883588,0,0
-159.30048010038,519.07717049687,42.563266326633,1271393.4085331,76.933735890591,2546784.154762,47.763266326633,0,0
-159.30047989478,519.12861668833,42.567696769677,1271393.4085331,76.933735890591,2546784.154762,47.767696769677,0,0
-159.30047968918,519.18006287979,42.572127212721,1271393.4085331,76.933735890591,2546784.154762,47.772127212721,0,0
-159.30047948357,519.23150907126,42.576557655766,1271393.4085331,76.933735890591,2546784.154762,47.776557655766,0,0
-159.30047927797,519.28295526272,42.58098809881,1271393.4085331,76.933735890591,2546784.154762,47.78098809881,0,0
-159.30047907237,519.33440145418,42.585418541854,1271393.4085331,76.933735890591,2546784.154762,47.785418541854,0,0
-159.30047886676,519.38584764564,42.589848984898,1271393.4085331,76.933735890591,2546784.154762,47.789848984898,0,0
-159.30047866116,519.4372938371,42.594279427943,1271393.4085331,76.933735890591,2546784.154762,47.794279427943,0,0
-159.30047845556,519.48874002856,42.598709870987,1271393.4085331,76.933735890591,2546784.154762,47.798709870987,0,0
-159.30047824996,519.54018622003,42.603140314031,1271393.4085331,76.933735890591,2546784.154762,47.803140314031,0,0
-159.30047804435,519.59163241149,42.607570757076,1271393.4085331,76.933735890591,2546784.154762,47.807570757076,0,0
-159.30047783875,519.64307860295,42.61200120012,1271393.4085331,76.933735890591,2546784.154762,47.81200120012,0,0
-159.30047763315,519.69452479441,42.616431643164,1271393.4085331,76.933735890591,2546784.154762,47.816431643164,0,0
-159.30047742755,519.74597098587,42.620862086209,1271393.4085331,76.933735890591,2546784.154762,47.820862086209,0,0
-159.30047722194,519.79741717733,42.625292529253,1271393.4085331,76.933735890591,2546784.154762,47.825292529253,0,0
-159.30047701634,519.84886336879,42.629722972297,1271393.4085331,76.933735890591,2546784.154762,47.829722972297,0,0
-159.30047681074,519.90030956026,42.634153415342,1271393.4085331,76.933735890591,2546784.154762,47.834153415342,0,0
-159.30047660514,519.95175575172,42.638583858386,1271393.4085331,76.933735890591,2546784.154762,47.838583858386,0,0
-159.30047639953,520.00320194318,42.64301430143,1271393.4085331,76.933735890591,2546784.154762,47.84301430143,0,0
-159.30047619393,520.05464813464,42.647444744474,1271393.4085331,76.933735890591,2546784.154762,47.847444744474,0,0
-159.30047598833,520.1060943261,42.651875187519,1271393.4085331,76.933735890591,2546784.154762,47.851875187519,0,0
-159.30047578272,520.15754051756,42.656305630563,1271393.4085331,76.933735890591,2546784.154762,47.856305630563,0,0
-159.30047557712,520.20898670902,42.660736073607,1271393.4085331,76.933735890591,2546784.154762,47.860736073607,0,0
-159.30047537152,520.26043290049,42.665166516652,1271393.4085331,76.933735890591,2546784.154762,47.865166516652,0,0
-159.30047516592,520.31187909195,42.669596959696,1271393.4085331,76.933735890591,2546784.154762,47.869596959696,0,0
-159.30047496031,520.36332528341,42.67402740274,1271393.4085331,76.933735890591,2546784.154762,47.87402740274,0,0
-159.30047475471,520.41477147487,42.678457845785,1271393.4085331,76.933735890591,2546784.154762,47.878457845785,0,0
-159.30047454911,520.46621766633,42.682888288829,1271393.4085331,76.933735890591,2546784.154762,47.882888288829,0,0
-159.30047434351,520.51766385779,42.687318731873,1271393.4085331,76.933735890591,2546784.154762,47.887318731873,0,0
-159.3004741379,520.56911004926,42.691749174917,1271393.4085331,76.933735890591,2546784.154762,47.891749174917,0,0
-159.3004739323,520.62055624072,42.696179617962,1271393.4085331,76.933735890591,2546784.154762,47.896179617962,0,0
-159.3004737267,520.67200243218,42.700610061006,1271393.4085331,76.933735890591,2546784.154762,47.900610061006,0,0
-159.3004735211,520.72344862364,42.70504050405,1271393.4085331,76.933735890591,2546784.154762,47.90504050405,0,0
-159.30047331549,520.7748948151,42.709470947095,1271393.4085331,76.933735890591,2546784.154762,47.909470947095,0,0
-159.30047310989,520.82634100656,42.713901390139,1271393.4085331,76.933735890591,2546784.154762,47.913901390139,0,0
-159.30047290429,520.87778719802,42.718331833183,1271393.4085331,76.933735890591,2546784.154762,47.918331833183,0,0
-159.30047269868,520.92923338949,42.722762276228,1271393.4085331,76.933735890591,2546784.154762,47.922762276228,0,0
-159.30047249308,520.98067958095,42.727192719272,1271393.4085331,76.933735890591,2546784.154762,47.927192719272,0,0
-159.30047228748,521.03212577241,42.731623162316,1271393.4085331,76.933735890591,2546784.154762,47.931623162316,0,0
-159.30047208188,521.08357196387,42.736053605361,1271393.4085331,76.933735890591,2546784.154762,47.936053605361,0,0
-159.30047187627,521.13501815533,42.740484048405,1271393.4085331,76.933735890591,2546784.154762,47.940484048405,0,0
-159.30047167067,521.18646434679,42.744914491449,1271393.4085331,76.933735890591,2546784.154762,47.944914491449,0,0
-159.30047146507,521.23791053826,42.749344934493,1271393.4085331,76.933735890591,2546784.154762,47.949344934493,0,0
-159.30047125947,521.28935672972,42.753775377538,1271393.4085331,76.933735890591,2546784.154762,47.953775377538,0,0
-159.30047105386,521.34080292118,42.758205820582,1271393.4085331,76.933735890591,2546784.154762,47.958205820582,0,0
-159.30047084826,521.39224911264,42.762636263626,1271393.4085331,76.933735890591,2546784.154762,47.962636263626,0,0
-159.30047064266,521.4436953041,42.767066706671,1271393.4085331,76.933735890591,2546784.154762,47.967066706671,0,0
-159.30047043706,521.49514149556,42.771497149715,1271393.4085331,76.933735890591,2546784.154762,47.971497149715,0,0
-159.30047023145,521.54658768702,42.775927592759,1271393.4085331,76.933735890591,2546784.154762,47.975927592759,0,0
-159.30047002585,521.59803387849,42.780358035804,1271393.4085331,76.933735890591,2546784.154762,47.980358035804,0,0
-159.30046982025,521.64948006995,42.784788478848,1271393.4085331,76.933735890591,2546784.154762,47.984788478848,0,0
-159.30046961464,521.70092626141,42.789218921892,1271393.4085331,76.933735890591,2546784.154762,47.989218921892,0,0
-159.30046940904,521.75237245287,42.793649364936,1271393.4085331,76.933735890591,2546784.154762,47.993649364936,0,0
-159.30046920344,521.80381864433,42.798079807981,1271393.4085331,76.933735890591,2546784.154762,47.998079807981,0,0
-159.30046899784,521.85526483579,42.802510251025,1271393.4085331,76.933735890591,2546784.154762,48.002510251025,0,0
-159.30046879223,521.90671102726,42.806940694069,1271393.4085331,76.933735890591,2546784.154762,48.006940694069,0,0
-159.30046858663,521.95815721872,42.811371137114,1271393.4085331,76.933735890591,2546784.154762,48.011371137114,0,0
-159.30046838103,522.00960341018,42.815801580158,1271393.4085331,76.933735890591,2546784.154762,48.015801580158,0,0
-159.30046817543,522.06104960164,42.820232023202,1271393.4085331,76.933735890591,2546784.154762,48.020232023202,0,0
-159.30046796982,522.1124957931,42.824662466247,1271393.4085331,76.933735890591,2546784.154762,48.024662466247,0,0
-159.30046776422,522.16394198456,42.829092909291,1271393.4085331,76.933735890591,2546784.154762,48.029092909291,0,0
-159.30046755862,522.21538817602,42.833523352335,1271393.4085331,76.933735890591,2546784.154762,48.033523352335,0,0
-159.30046735302,522.26683436749,42.83795379538,1271393.4085331,76.933735890591,2546784.154762,48.03795379538,0,0
-159.30046714741,522.31828055895,42.842384238424,1271393.4085331,76.933735890591,2546784.154762,48.042384238424,0,0
-159.30046694181,522.36972675041,42.846814681468,1271393.4085331,76.933735890591,2546784.154762,48.046814681468,0,0
-159.30046673621,522.42117294187,42.851245124512,1271393.4085331,76.933735890591,2546784.154762,48.051245124512,0,0
-159.3004665306,522.47261913333,42.855675567557,1271393.4085331,76.933735890591,2546784.154762,48.055675567557,0,0
-159.300466325,522.52406532479,42.860106010601,1271393.4085331,76.933735890591,2546784.154762,48.060106010601,0,0
-159.3004661194,522.57551151626,42.864536453645,1271393.4085331,76.933735890591,2546784.154762,48.064536453645,0,0
-159.3004659138,522.62695770772,42.86896689669,1271393.4085331,76.933735890591,2546784.154762,48.06896689669,0,0
-159.30046570819,522.67840389918,42.873397339734,1271393.4085331,76.933735890591,2546784.154762,48.073397339734,0,0
-159.30046550259,522.72985009064,42.877827782778,1271393.4085331,76.933735890591,2546784.154762,48.077827782778,0,0
-159.30046529699,522.7812962821,42.882258225823,1271393.4085331,76.933735890591,2546784.154762,48.082258225823,0,0
-159.30046509139,522.83274247356,42.886688668867,1271393.4085331,76.933735890591,2546784.154762,48.086688668867,0,0
-159.30046488578,522.88418866502,42.891119111911,1271393.4085331,76.933735890591,2546784.154762,48.091119111911,0,0
-159.30046468018,522.93563485649,42.895549554955,1271393.4085331,76.933735890591,2546784.154762,48.095549554955,0,0
-159.30046447458,522.98708104795,42.899979998,1271393.4085331,76.933735890591,2546784.154762,48.099979998,0,0
-159.30046426898,523.03852723941,42.904410441044,1271393.4085331,76.933735890591,2546784.154762,48.104410441044,0,0
-159.30046406337,523.08997343087,42.908840884088,1271393.4085331,76.933735890591,2546784.154762,48.108840884088,0,0
-159.30046385777,523.14141962233,42.913271327133,1271393.4085331,76.933735890591,2546784.154762,48.113271327133,0,0
-159.30046365217,523.19286581379,42.917701770177,1271393.4085331,76.933735890591,2546784.154762,48.117701770177,0,0
-159.30046344656,523.24431200526,42.922132213221,1271393.4085331,76.933735890591,2546784.154762,48.122132213221,0,0
-159.30046324096,523.29575819672,42.926562656266,1271393.4085331,76.933735890591,2546784.154762,48.126562656266,0,0
-159.30046303536,523.34720438818,42.93099309931,1271393.4085331,76.933735890591,2546784.154762,48.13099309931,0,0
-159.30046282976,523.39865057964,42.935423542354,1271393.4085331,76.933735890591,2546784.154762,48.135423542354,0,0
-159.30046262415,523.4500967711,42.939853985399,1271393.4085331,76.933735890591,2546784.154762,48.139853985399,0,0
-159.30046241855,523.50154296256,42.944284428443,1271393.4085331,76.933735890591,2546784.154762,48.144284428443,0,0
-159.30046221295,523.55298915402,42.948714871487,1271393.4085331,76.933735890591,2546784.154762,48.148714871487,0,0
-159.30046200735,523.60443534549,42.953145314531,1271393.4085331,76.933735890591,2546784.154762,48.153145314531,0,0
-159.30046180174,523.65588153695,42.957575757576,1271393.4085331,76.933735890591,2546784.154762,48.157575757576,0,0
-159.30046159614,523.70732772841,42.96200620062,1271393.4085331,76.933735890591,2546784.154762,48.16200620062,0,0
-159.30046139054,523.75877391987,42.966436643664,1271393.4085331,76.933735890591,2546784.154762,48.166436643664,0,0
-159.30046118493,523.81022011133,42.970867086709,1271393.4085331,76.933735890591,2546784.154762,48.170867086709,0,0
-159.30046097933,523.86166630279,42.975297529753,1271393.4085331,76.933735890591,2546784.154762,48.175297529753,0,0
-159.30046077373,523.91311249426,42.979727972797,1271393.4085331,76.933735890591,2546784.154762,48.179727972797,0,0
-159.30046056813,523.96455868572,42.984158415842,1271393.4085331,76.933735890591,2546784.154762,48.184158415842,0,0
-159.30046036252,524.01600487718,42.988588858886,1271393.4085331,76.933735890591,2546784.154762,48.188588858886,0,0
-159.30046015692,524.06745106864,42.99301930193,1271393.4085331,76.933735890591,2546784.154762,48.19301930193,0,0
-159.30045995132,524.1188972601,42.997449744974,1271393.4085331,76.933735890591,2546784.154762,48.197449744974,0,0
-159.30045974572,524.17034345156,43.001880188019,1271393.4085331,76.933735890591,2546784.154762,48.201880188019,0,0
-159.30045954011,524.22178964302,43.006310631063,1271393.4085331,76.933735890591,2546784.154762,48.206310631063,0,0
-159.30045933451,524.27323583449,43.010741074107,1271393.4085331,76.933735890591,2546784.154762,48.210741074107,0,0
-159.30045912891,524.32468202595,43.015171517152,1271393.4085331,76.933735890591,2546784.154762,48.215171517152,0,0
-159.30045892331,524.37612821741,43.019601960196,1271393.4085331,76.933735890591,2546784.154762,48.219601960196,0,0
-159.3004587177,524.42757440887,43.02403240324,1271393.4085331,76.933735890591,2546784.154762,48.22403240324,0,0
-159.3004585121,524.47902060033,43.028462846285,1271393.4085331,76.933735890591,2546784.154762,48.228462846285,0,0
-159.3004583065,524.53046679179,43.032893289329,1271393.4085331,76.933735890591,2546784.154762,48.232893289329,0,0
-159.30045810089,524.58191298326,43.037323732373,1271393.4085331,76.933735890591,2546784.154762,48.237323732373,0,0
-159.30045789529,524.63335917472,43.041754175418,1271393.4085331,76.933735890591,2546784.154762,48.241754175418,0,0
-159.30045768969,524.68480536618,43.046184618462,1271393.4085331,76.933735890591,2546784.154762,48.246184618462,0,0
-159.30045748409,524.73625155764,43.050615061506,1271393.4085331,76.933735890591,2546784.154762,48.250615061506,0,0
-159.30045727848,524.7876977491,43.05504550455,1271393.4085331,76.933735890591,2546784.154762,48.25504550455,0,0
-159.30045707288,524.83914394056,43.059475947595,1271393.4085331,76.933735890591,2546784.154762,48.259475947595,0,0
-159.30045686728,524.89059013202,43.063906390639,1271393.4085331,76.933735890591,2546784.154762,48.263906390639,0,0
-159.30045666168,524.94203632349,43.068336833683,1271393.4085331,76.933735890591,2546784.154762,48.268336833683,0,0
-159.30045645607,524.99348251495,43.072767276728,1271393.4085331,76.933735890591,2546784.154762,48.272767276728,0,0
-159.30045625047,525.04492870641,43.077197719772,1271393.4085331,76.933735890591,2546784.154762,48.277197719772,0,0
-159.30045604487,525.09637489787,43.081628162816,1271393.4085331,76.933735890591,2546784.154762,48.281628162816,0,0
-159.30045583927,525.14782108933,43.086058605861,1271393.4085331,76.933735890591,2546784.154762,48.286058605861,0,0
-159.30045563366,525.19926728079,43.090489048905,1271393.4085331,76.933735890591,2546784.154762,48.290489048905,0,0
-159.30045542806,525.25071347226,43.094919491949,1271393.4085331,76.933735890591,2546784.154762,48.294919491949,0,0
-159.30045522246,525.30215966372,43.099349934993,1271393.4085331,76.933735890591,2546784.154762,48.299349934994,0,0
-159.30045501685,525.35360585518,43.103780378038,1271393.4085331,76.933735890591,2546784.154762,48.303780378038,0,0
-159.30045481125,525.40505204664,43.108210821082,1271393.4085331,76.933735890591,2546784.154762,48.308210821082,0,0
-159.30045460565,525.4564982381,43.112641264126,1271393.4085331,76.933735890591,2546784.154762,48.312641264126,0,0
-159.30045440005,525.50794442956,43.117071707171,1271393.4085331,76.933735890591,2546784.154762,48.317071707171,0,0
-159.30045419444,525.55939062102,43.121502150215,1271393.4085331,76.933735890591,2546784.154762,48.321502150215,0,0
-159.30045398884,525.61083681249,43.125932593259,1271393.4085331,76.933735890591,2546784.154762,48.325932593259,0,0
-159.30045378324,525.66228300395,43.130363036304,1271393.4085331,76.933735890591,2546784.154762,48.330363036304,0,0
-159.30045357764,525.71372919541,43.134793479348,1271393.4085331,76.933735890591,2546784.154762,48.334793479348,0,0
-159.30045337203,525.76517538687,43.139223922392,1271393.4085331,76.933735890591,2546784.154762,48.339223922392,0,0
-159.30045316643,525.81662157833,43.143654365437,1271393.4085331,76.933735890591,2546784.154762,48.343654365437,0,0
-159.30045296083,525.86806776979,43.148084808481,1271393.4085331,76.933735890591,2546784.154762,48.348084808481,0,0
-159.30045275523,525.91951396126,43.152515251525,1271393.4085331,76.933735890591,2546784.154762,48.352515251525,0,0
-159.30045254962,525.97096015272,43.156945694569,1271393.4085331,76.933735890591,2546784.154762,48.356945694569,0,0
-159.30045234402,526.02240634418,43.161376137614,1271393.4085331,76.933735890591,2546784.154762,48.361376137614,0,0
-159.30045213842,526.07385253564,43.165806580658,1271393.4085331,76.933735890591,2546784.154762,48.365806580658,0,0
-159.30045193281,526.1252987271,43.170237023702,1271393.4085331,76.933735890591,2546784.154762,48.370237023702,0,0
-159.30045172721,526.17674491856,43.174667466747,1271393.4085331,76.933735890591,2546784.154762,48.374667466747,0,0
-159.30045152161,526.22819111002,43.179097909791,1271393.4085331,76.933735890591,2546784.154762,48.379097909791,0,0
-159.30045131601,526.27963730149,43.183528352835,1271393.4085331,76.933735890591,2546784.154762,48.383528352835,0,0
-159.3004511104,526.33108349295,43.18795879588,1271393.4085331,76.933735890591,2546784.154762,48.38795879588,0,0
-159.3004509048,526.38252968441,43.192389238924,1271393.4085331,76.933735890591,2546784.154762,48.392389238924,0,0
-159.3004506992,526.43397587587,43.196819681968,1271393.4085331,76.933735890591,2546784.154762,48.396819681968,0,0
-159.3004504936,526.48542206733,43.201250125012,1271393.4085331,76.933735890591,2546784.154762,48.401250125013,0,0
-159.30045028799,526.53686825879,43.205680568057,1271393.4085331,76.933735890591,2546784.154762,48.405680568057,0,0
-159.30045008239,526.58831445026,43.210111011101,1271393.4085331,76.933735890591,2546784.154762,48.410111011101,0,0
-159.30044987679,526.63976064172,43.214541454145,1271393.4085331,76.933735890591,2546784.154762,48.414541454145,0,0
-159.30044967119,526.69120683318,43.21897189719,1271393.4085331,76.933735890591,2546784.154762,48.41897189719,0,0
-159.30044946558,526.74265302464,43.223402340234,1271393.4085331,76.933735890591,2546784.154762,48.423402340234,0,0
-159.30044925998,526.7940992161,43.227832783278,1271393.4085331,76.933735890591,2546784.154762,48.427832783278,0,0
-159.30044905438,526.84554540756,43.232263226323,1271393.4085331,76.933735890591,2546784.154762,48.432263226323,0,0
-159.30044884877,526.89699159902,43.236693669367,1271393.4085331,76.933735890591,2546784.154762,48.436693669367,0,0
-159.30044864317,526.94843779049,43.241124112411,1271393.4085331,76.933735890591,2546784.154762,48.441124112411,0,0
-159.30044843757,526.99988398195,43.245554555456,1271393.4085331,76.933735890591,2546784.154762,48.445554555456,0,0
-159.30044823197,527.05133017341,43.2499849985,1271393.4085331,76.933735890591,2546784.154762,48.4499849985,0,0
-159.30044802636,527.10277636487,43.254415441544,1271393.4085331,76.933735890591,2546784.154762,48.454415441544,0,0
-159.30044782076,527.15422255633,43.258845884588,1271393.4085331,76.933735890591,2546784.154762,48.458845884588,0,0
-159.30044761516,527.20566874779,43.263276327633,1271393.4085331,76.933735890591,2546784.154762,48.463276327633,0,0
-159.30044740956,527.25711493925,43.267706770677,1271393.4085331,76.933735890591,2546784.154762,48.467706770677,0,0
-159.30044720395,527.30856113072,43.272137213721,1271393.4085331,76.933735890591,2546784.154762,48.472137213721,0,0
-159.30044699835,527.36000732218,43.276567656766,1271393.4085331,76.933735890591,2546784.154762,48.476567656766,0,0
-159.30044679275,527.41145351364,43.28099809981,1271393.4085331,76.933735890591,2546784.154762,48.48099809981,0,0
-159.30044658715,527.4628997051,43.285428542854,1271393.4085331,76.933735890591,2546784.154762,48.485428542854,0,0
-159.30044638154,527.51434589656,43.289858985899,1271393.4085331,76.933735890591,2546784.154762,48.489858985899,0,0
-159.30044617594,527.56579208802,43.294289428943,1271393.4085331,76.933735890591,2546784.154762,48.494289428943,0,0
-159.30044597034,527.61723827949,43.298719871987,1271393.4085331,76.933735890591,2546784.154762,48.498719871987,0,0
-159.30044576473,527.66868447095,43.303150315032,1271393.4085331,76.933735890591,2546784.154762,48.503150315032,0,0
-159.30044555913,527.72013066241,43.307580758076,1271393.4085331,76.933735890591,2546784.154762,48.507580758076,0,0
-159.30044535353,527.77157685387,43.31201120112,1271393.4085331,76.933735890591,2546784.154762,48.51201120112,0,0
-159.30044514793,527.82302304533,43.316441644164,1271393.4085331,76.933735890591,2546784.154762,48.516441644164,0,0
-159.30044494232,527.87446923679,43.320872087209,1271393.4085331,76.933735890591,2546784.154762,48.520872087209,0,0
-159.30044473672,527.92591542826,43.325302530253,1271393.4085331,76.933735890591,2546784.154762,48.525302530253,0,0
-159.30044453112,527.97736161972,43.329732973297,1271393.4085331,76.933735890591,2546784.154762,48.529732973297,0,0
-159.30044432552,528.02880781118,43.334163416342,1271393.4085331,76.933735890591,2546784.154762,48.534163416342,0,0
-159.30044411991,528.08025400264,43.338593859386,1271393.4085331,76.933735890591,2546784.154762,48.538593859386,0,0
-159.30044391431,528.1317001941,43.34302430243,1271393.4085331,76.933735890591,2546784.154762,48.54302430243,0,0
-159.30044370871,528.18314638556,43.347454745475,1271393.4085331,76.933735890591,2546784.154762,48.547454745475,0,0
-159.30044350311,528.23459257702,43.351885188519,1271393.4085331,76.933735890591,2546784.154762,48.551885188519,0,0
-159.3004432975,528.28603876849,43.356315631563,1271393.4085331,76.933735890591,2546784.154762,48.556315631563,0,0
-159.3004430919,528.33748495995,43.360746074607,1271393.4085331,76.933735890591,2546784.154762,48.560746074607,0,0
-159.3004428863,528.38893115141,43.365176517652,1271393.4085331,76.933735890591,2546784.154762,48.565176517652,0,0
-159.30044268069,528.44037734287,43.369606960696,1271393.4085331,76.933735890591,2546784.154762,48.569606960696,0,0
-159.30044247509,528.49182353433,43.37403740374,1271393.4085331,76.933735890591,2546784.154762,48.57403740374,0,0
-159.30044226949,528.54326972579,43.378467846785,1271393.4085331,76.933735890591,2546784.154762,48.578467846785,0,0
-159.30044206389,528.59471591725,43.382898289829,1271393.4085331,76.933735890591,2546784.154762,48.582898289829,0,0
-159.30044185828,528.64616210872,43.387328732873,1271393.4085331,76.933735890591,2546784.154762,48.587328732873,0,0
-159.30044165268,528.69760830018,43.391759175918,1271393.4085331,76.933735890591,2546784.154762,48.591759175918,0,0
-159.30044144708,528.74905449164,43.396189618962,1271393.4085331,76.933735890591,2546784.154762,48.596189618962,0,0
-159.30044124148,528.8005006831,43.400620062006,1271393.4085331,76.933735890591,2546784.154762,48.600620062006,0,0
-159.30044103587,528.85194687456,43.405050505051,1271393.4085331,76.933735890591,2546784.154762,48.605050505051,0,0
-159.30044083027,528.90339306602,43.409480948095,1271393.4085331,76.933735890591,2546784.154762,48.609480948095,0,0
-159.30044062467,528.95483925749,43.413911391139,1271393.4085331,76.933735890591,2546784.154762,48.613911391139,0,0
-159.30044041907,529.00628544895,43.418341834183,1271393.4085331,76.933735890591,2546784.154762,48.618341834183,0,0
-159.30044021346,529.05773164041,43.422772277228,1271393.4085331,76.933735890591,2546784.154762,48.622772277228,0,0
-159.30044000786,529.10917783187,43.427202720272,1271393.4085331,76.933735890591,2546784.154762,48.627202720272,0,0
-159.30043980226,529.16062402333,43.431633163316,1271393.4085331,76.933735890591,2546784.154762,48.631633163316,0,0
-159.30043959665,529.21207021479,43.436063606361,1271393.4085331,76.933735890591,2546784.154762,48.636063606361,0,0
-159.30043939105,529.26351640625,43.440494049405,1271393.4085331,76.933735890591,2546784.154762,48.640494049405,0,0
-159.30043918545,529.31496259772,43.444924492449,1271393.4085331,76.933735890591,2546784.154762,48.644924492449,0,0
-159.30043897985,529.36640878918,43.449354935494,1271393.4085331,76.933735890591,2546784.154762,48.649354935494,0,0
-159.30043877424,529.41785498064,43.453785378538,1271393.4085331,76.933735890591,2546784.154762,48.653785378538,0,0
-159.30043856864,529.4693011721,43.458215821582,1271393.4085331,76.933735890591,2546784.154762,48.658215821582,0,0
-159.30043836304,529.52074736356,43.462646264626,1271393.4085331,76.933735890591,2546784.154762,48.662646264626,0,0
-159.30043815744,529.57219355502,43.467076707671,1271393.4085331,76.933735890591,2546784.154762,48.667076707671,0,0
-159.30043795183,529.62363974649,43.471507150715,1271393.4085331,76.933735890591,2546784.154762,48.671507150715,0,0
-159.30043774623,529.67508593795,43.475937593759,1271393.4085331,76.933735890591,2546784.154762,48.675937593759,0,0
-159.30043754063,529.72653212941,43.480368036804,1271393.4085331,76.933735890591,2546784.154762,48.680368036804,0,0
-159.30043733503,529.77797832087,43.484798479848,1271393.4085331,76.933735890591,2546784.154762,48.684798479848,0,0
-159.30043712942,529.82942451233,43.489228922892,1271393.4085331,76.933735890591,2546784.154762,48.689228922892,0,0
-159.30043692382,529.88087070379,43.493659365937,1271393.4085331,76.933735890591,2546784.154762,48.693659365937,0,0
-159.30043671822,529.93231689525,43.498089808981,1271393.4085331,76.933735890591,2546784.154762,48.698089808981,0,0
-159.30043651261,529.98376308672,43.502520252025,1271393.4085331,76.933735890591,2546784.154762,48.702520252025,0,0
-159.30043630701,530.03520927818,43.50695069507,1271393.4085331,76.933735890591,2546784.154762,48.70695069507,0,0
-159.30043610141,530.08665546964,43.511381138114,1271393.4085331,76.933735890591,2546784.154762,48.711381138114,0,0
-159.30043589581,530.1381016611,43.515811581158,1271393.4085331,76.933735890591,2546784.154762,48.715811581158,0,0
-159.3004356902,530.18954785256,43.520242024202,1271393.4085331,76.933735890591,2546784.154762,48.720242024202,0,0
-159.3004354846,530.24099404402,43.524672467247,1271393.4085331,76.933735890591,2546784.154762,48.724672467247,0,0
-159.300435279,530.29244023549,43.529102910291,1271393.4085331,76.933735890591,2546784.154762,48.729102910291,0,0
-159.3004350734,530.34388642695,43.533533353335,1271393.4085331,76.933735890591,2546784.154762,48.733533353335,0,0
-159.30043486779,530.39533261841,43.53796379638,1271393.4085331,76.933735890591,2546784.154762,48.73796379638,0,0
-159.30043466219,530.44677880987,43.542394239424,1271393.4085331,76.933735890591,2546784.154762,48.742394239424,0,0
-159.30043445659,530.49822500133,43.546824682468,1271393.4085331,76.933735890591,2546784.154762,48.746824682468,0,0
-159.30043425099,530.54967119279,43.551255125513,1271393.4085331,76.933735890591,2546784.154762,48.751255125513,0,0
-159.30043404538,530.60111738425,43.555685568557,1271393.4085331,76.933735890591,2546784.154762,48.755685568557,0,0
-159.30043383978,530.65256357572,43.560116011601,1271393.4085331,76.933735890591,2546784.154762,48.760116011601,0,0
-159.30043363418,530.70400976718,43.564546454645,1271393.4085331,76.933735890591,2546784.154762,48.764546454645,0,0
-159.30043342857,530.75545595864,43.56897689769,1271393.4085331,76.933735890591,2546784.154762,48.76897689769,0,0
-159.30043322297,530.8069021501,43.573407340734,1271393.4085331,76.933735890591,2546784.154762,48.773407340734,0,0
-159.30043301737,530.85834834156,43.577837783778,1271393.4085331,76.933735890591,2546784.154762,48.777837783778,0,0
-159.30043281177,530.90979453302,43.582268226823,1271393.4085331,76.933735890591,2546784.154762,48.782268226823,0,0
-159.30043260616,530.96124072449,43.586698669867,1271393.4085331,76.933735890591,2546784.154762,48.786698669867,0,0
-159.30043240056,531.01268691595,43.591129112911,1271393.4085331,76.933735890591,2546784.154762,48.791129112911,0,0
-159.30043219496,531.06413310741,43.595559555956,1271393.4085331,76.933735890591,2546784.154762,48.795559555956,0,0
-159.30043198936,531.11557929887,43.599989999,1271393.4085331,76.933735890591,2546784.154762,48.799989999,0,0
-159.30043178375,531.16702549033,43.604420442044,1271393.4085331,76.933735890591,2546784.154762,48.804420442044,0,0
-159.30043157815,531.21847168179,43.608850885089,1271393.4085331,76.933735890591,2546784.154762,48.808850885089,0,0
-159.30043137255,531.26991787325,43.613281328133,1271393.4085331,76.933735890591,2546784.154762,48.813281328133,0,0
-159.30043116695,531.32136406472,43.617711771177,1271393.4085331,76.933735890591,2546784.154762,48.817711771177,0,0
-159.30043096134,531.37281025618,43.622142214221,1271393.4085331,76.933735890591,2546784.154762,48.822142214221,0,0
-159.30043075574,531.42425644764,43.626572657266,1271393.4085331,76.933735890591,2546784.154762,48.826572657266,0,0
-159.30043055014,531.4757026391,43.63100310031,1271393.4085331,76.933735890591,2546784.154762,48.83100310031,0,0
-159.30043034453,531.52714883056,43.635433543354,1271393.4085331,76.933735890591,2546784.154762,48.835433543354,0,0
-159.30043013893,531.57859502202,43.639863986399,1271393.4085331,76.933735890591,2546784.154762,48.839863986399,0,0
-159.30042993333,531.63004121349,43.644294429443,1271393.4085331,76.933735890591,2546784.154762,48.844294429443,0,0
-159.30042972773,531.68148740495,43.648724872487,1271393.4085331,76.933735890591,2546784.154762,48.848724872487,0,0
-159.30042952212,531.73293359641,43.653155315532,1271393.4085331,76.933735890591,2546784.154762,48.853155315532,0,0
-159.30042931652,531.78437978787,43.657585758576,1271393.4085331,76.933735890591,2546784.154762,48.857585758576,0,0
-159.30042911092,531.83582597933,43.66201620162,1271393.4085331,76.933735890591,2546784.154762,48.86201620162,0,0
-159.30042890532,531.88727217079,43.666446644664,1271393.4085331,76.933735890591,2546784.154762,48.866446644664,0,0
-159.30042869971,531.93871836225,43.670877087709,1271393.4085331,76.933735890591,2546784.154762,48.870877087709,0,0
-159.30042849411,531.99016455372,43.675307530753,1271393.4085331,76.933735890591,2546784.154762,48.875307530753,0,0
-159.30042828851,532.04161074518,43.679737973797,1271393.4085331,76.933735890591,2546784.154762,48.879737973797,0,0
-159.30042808291,532.09305693664,43.684168416842,1271393.4085331,76.933735890591,2546784.154762,48.884168416842,0,0
-159.3004278773,532.1445031281,43.688598859886,1271393.4085331,76.933735890591,2546784.154762,48.888598859886,0,0
-159.3004276717,532.19594931956,43.69302930293,1271393.4085331,76.933735890591,2546784.154762,48.89302930293,0,0
-159.3004274661,532.24739551102,43.697459745975,1271393.4085331,76.933735890591,2546784.154762,48.897459745975,0,0
-159.30042726049,532.29884170249,43.701890189019,1271393.4085331,76.933735890591,2546784.154762,48.901890189019,0,0
-159.30042705489,532.35028789395,43.706320632063,1271393.4085331,76.933735890591,2546784.154762,48.906320632063,0,0
-159.30042684929,532.40173408541,43.710751075108,1271393.4085331,76.933735890591,2546784.154762,48.910751075108,0,0
-159.30042664369,532.45318027687,43.715181518152,1271393.4085331,76.933735890591,2546784.154762,48.915181518152,0,0
-159.30042643808,532.50462646833,43.719611961196,1271393.4085331,76.933735890591,2546784.154762,48.919611961196,0,0
-159.30042623248,532.55607265979,43.72404240424,1271393.4085331,76.933735890591,2546784.154762,48.92404240424,0,0
-159.30042602688,532.60751885125,43.728472847285,1271393.4085331,76.933735890591,2546784.154762,48.928472847285,0,0
-159.30042582128,532.65896504272,43.732903290329,1271393.4085331,76.933735890591,2546784.154762,48.932903290329,0,0
-159.30042561567,532.71041123418,43.737333733373,1271393.4085331,76.933735890591,2546784.154762,48.937333733373,0,0
-159.30042541007,532.76185742564,43.741764176418,1271393.4085331,76.933735890591,2546784.154762,48.941764176418,0,0
-159.30042520447,532.8133036171,43.746194619462,1271393.4085331,76.933735890591,2546784.154762,48.946194619462,0,0
-159.30042499886,532.86474980856,43.750625062506,1271393.4085331,76.933735890591,2546784.154762,48.950625062506,0,0
-159.30042479326,532.91619600002,43.755055505551,1271393.4085331,76.933735890591,2546784.154762,48.955055505551,0,0
-159.30042458766,532.96764219149,43.759485948595,1271393.4085331,76.933735890591,2546784.154762,48.959485948595,0,0
-159.30042438206,533.01908838295,43.763916391639,1271393.4085331,76.933735890591,2546784.154762,48.963916391639,0,0
-159.30042417645,533.07053457441,43.768346834683,1271393.4085331,76.933735890591,2546784.154762,48.968346834683,0,0
-159.30042397085,533.12198076587,43.772777277728,1271393.4085331,76.933735890591,2546784.154762,48.972777277728,0,0
-159.30042376525,533.17342695733,43.777207720772,1271393.4085331,76.933735890591,2546784.154762,48.977207720772,0,0
-159.30042355965,533.22487314879,43.781638163816,1271393.4085331,76.933735890591,2546784.154762,48.981638163816,0,0
-159.30042335404,533.27631934025,43.786068606861,1271393.4085331,76.933735890591,2546784.154762,48.986068606861,0,0
-159.30042314844,533.32776553172,43.790499049905,1271393.4085331,76.933735890591,2546784.154762,48.990499049905,0,0
-159.30042294284,533.37921172318,43.794929492949,1271393.4085331,76.933735890591,2546784.154762,48.994929492949,0,0
-159.30042273724,533.43065791464,43.799359935994,1271393.4085331,76.933735890591,2546784.154762,48.999359935994,0,0
-159.30042253163,533.4821041061,43.803790379038,1271393.4085331,76.933735890591,2546784.154762,49.003790379038,0,0
-159.30042232603,533.53355029756,43.808220822082,1271393.4085331,76.933735890591,2546784.154762,49.008220822082,0,0
-159.30042212043,533.58499648902,43.812651265127,1271393.4085331,76.933735890591,2546784.154762,49.012651265127,0,0
-159.30042191482,533.63644268048,43.817081708171,1271393.4085331,76.933735890591,2546784.154762,49.017081708171,0,0
-159.30042170922,533.68788887195,43.821512151215,1271393.4085331,76.933735890591,2546784.154762,49.021512151215,0,0
-159.30042150362,533.73933506341,43.825942594259,1271393.4085331,76.933735890591,2546784.154762,49.025942594259,0,0
-159.30042129802,533.79078125487,43.830373037304,1271393.4085331,76.933735890591,2546784.154762,49.030373037304,0,0
-159.30042109241,533.84222744633,43.834803480348,1271393.4085331,76.933735890591,2546784.154762,49.034803480348,0,0
-159.30042088681,533.89367363779,43.839233923392,1271393.4085331,76.933735890591,2546784.154762,49.039233923392,0,0
-159.30042068121,533.94511982925,43.843664366437,1271393.4085331,76.933735890591,2546784.154762,49.043664366437,0,0
-159.30042047561,533.99656602072,43.848094809481,1271393.4085331,76.933735890591,2546784.154762,49.048094809481,0,0
-159.30042027,534.04801221218,43.852525252525,1271393.4085331,76.933735890591,2546784.154762,49.052525252525,0,0
-159.3004200644,534.09945840364,43.85695569557,1271393.4085331,76.933735890591,2546784.154762,49.05695569557,0,0
-159.3004198588,534.1509045951,43.861386138614,1271393.4085331,76.933735890591,2546784.154762,49.061386138614,0,0
-159.3004196532,534.20235078656,43.865816581658,1271393.4085331,76.933735890591,2546784.154762,49.065816581658,0,0
-159.30041944759,534.25379697802,43.870247024702,1271393.4085331,76.933735890591,2546784.154762,49.070247024702,0,0
-159.30041924199,534.30524316948,43.874677467747,1271393.4085331,76.933735890591,2546784.154762,49.074677467747,0,0
-159.30041903639,534.35668936095,43.879107910791,1271393.4085331,76.933735890591,2546784.154762,49.079107910791,0,0
-159.30041883078,534.40813555241,43.883538353835,1271393.4085331,76.933735890591,2546784.154762,49.083538353835,0,0
-159.30041862518,534.45958174387,43.88796879688,1271393.4085331,76.933735890591,2546784.154762,49.08796879688,0,0
-159.30041841958,534.51102793533,43.892399239924,1271393.4085331,76.933735890591,2546784.154762,49.092399239924,0,0
-159.30041821398,534.56247412679,43.896829682968,1271393.4085331,76.933735890591,2546784.154762,49.096829682968,0,0
-159.30041800837,534.61392031825,43.901260126013,1271393.4085331,76.933735890591,2546784.154762,49.101260126013,0,0
-159.30041780277,534.66536650972,43.905690569057,1271393.4085331,76.933735890591,2546784.154762,49.105690569057,0,0
-159.30041759717,534.71681270118,43.910121012101,1271393.4085331,76.933735890591,2546784.154762,49.110121012101,0,0
-159.30041739157,534.76825889264,43.914551455146,1271393.4085331,76.933735890591,2546784.154762,49.114551455146,0,0
-159.30041718596,534.8197050841,43.91898189819,1271393.4085331,76.933735890591,2546784.154762,49.11898189819,0,0
-159.30041698036,534.87115127556,43.923412341234,1271393.4085331,76.933735890591,2546784.154762,49.123412341234,0,0
-159.30041677476,534.92259746702,43.927842784278,1271393.4085331,76.933735890591,2546784.154762,49.127842784278,0,0
-159.30041656916,534.97404365848,43.932273227323,1271393.4085331,76.933735890591,2546784.154762,49.132273227323,0,0
-159.30041636355,535.02548984995,43.936703670367,1271393.4085331,76.933735890591,2546784.154762,49.136703670367,0,0
-159.30041615795,535.07693604141,43.941134113411,1271393.4085331,76.933735890591,2546784.154762,49.141134113411,0,0
-159.30041595235,535.12838223287,43.945564556456,1271393.4085331,76.933735890591,2546784.154762,49.145564556456,0,0
-159.30041574674,535.17982842433,43.9499949995,1271393.4085331,76.933735890591,2546784.154762,49.1499949995,0,0
-159.30041554114,535.23127461579,43.954425442544,1271393.4085331,76.933735890591,2546784.154762,49.154425442544,0,0
-159.30041533554,535.28272080725,43.958855885589,1271393.4085331,76.933735890591,2546784.154762,49.158855885589,0,0
-159.30041512994,535.33416699872,43.963286328633,1271393.4085331,76.933735890591,2546784.154762,49.163286328633,0,0
-159.30041492433,535.38561319018,43.967716771677,1271393.4085331,76.933735890591,2546784.154762,49.167716771677,0,0
-159.30041471873,535.43705938164,43.972147214721,1271393.4085331,76.933735890591,2546784.154762,49.172147214721,0,0
-159.30041451313,535.4885055731,43.976577657766,1271393.4085331,76.933735890591,2546784.154762,49.176577657766,0,0
-159.30041430753,535.53995176456,43.98100810081,1271393.4085331,76.933735890591,2546784.154762,49.18100810081,0,0
-159.30041410192,535.59139795602,43.985438543854,1271393.4085331,76.933735890591,2546784.154762,49.185438543854,0,0
-159.30041389632,535.64284414748,43.989868986899,1271393.4085331,76.933735890591,2546784.154762,49.189868986899,0,0
-159.30041369072,535.69429033895,43.994299429943,1271393.4085331,76.933735890591,2546784.154762,49.194299429943,0,0
-159.30041348512,535.74573653041,43.998729872987,1271393.4085331,76.933735890591,2546784.154762,49.198729872987,0,0
-159.30041327951,535.79718272187,44.003160316032,1271393.4085331,76.933735890591,2546784.154762,49.203160316032,0,0
-159.30041307391,535.84862891333,44.007590759076,1271393.4085331,76.933735890591,2546784.154762,49.207590759076,0,0
-159.30041286831,535.90007510479,44.01202120212,1271393.4085331,76.933735890591,2546784.154762,49.21202120212,0,0
-159.3004126627,535.95152129625,44.016451645165,1271393.4085331,76.933735890591,2546784.154762,49.216451645165,0,0
-159.3004124571,536.00296748772,44.020882088209,1271393.4085331,76.933735890591,2546784.154762,49.220882088209,0,0
-159.3004122515,536.05441367918,44.025312531253,1271393.4085331,76.933735890591,2546784.154762,49.225312531253,0,0
-159.3004120459,536.10585987064,44.029742974297,1271393.4085331,76.933735890591,2546784.154762,49.229742974297,0,0
-159.30041184029,536.1573060621,44.034173417342,1271393.4085331,76.933735890591,2546784.154762,49.234173417342,0,0
-159.30041163469,536.20875225356,44.038603860386,1271393.4085331,76.933735890591,2546784.154762,49.238603860386,0,0
-159.30041142909,536.26019844502,44.04303430343,1271393.4085331,76.933735890591,2546784.154762,49.24303430343,0,0
-159.30041122349,536.31164463648,44.047464746475,1271393.4085331,76.933735890591,2546784.154762,49.247464746475,0,0
-159.30041101788,536.36309082795,44.051895189519,1271393.4085331,76.933735890591,2546784.154762,49.251895189519,0,0
-159.30041081228,536.41453701941,44.056325632563,1271393.4085331,76.933735890591,2546784.154762,49.256325632563,0,0
-159.30041060668,536.46598321087,44.060756075608,1271393.4085331,76.933735890591,2546784.154762,49.260756075608,0,0
-159.30041040108,536.51742940233,44.065186518652,1271393.4085331,76.933735890591,2546784.154762,49.265186518652,0,0
-159.30041019547,536.56887559379,44.069616961696,1271393.4085331,76.933735890591,2546784.154762,49.269616961696,0,0
-159.30040998987,536.62032178525,44.07404740474,1271393.4085331,76.933735890591,2546784.154762,49.27404740474,0,0
-159.30040978427,536.67176797672,44.078477847785,1271393.4085331,76.933735890591,2546784.154762,49.278477847785,0,0
-159.30040957866,536.72321416818,44.082908290829,1271393.4085331,76.933735890591,2546784.154762,49.282908290829,0,0
-159.30040937306,536.77466035964,44.087338733873,1271393.4085331,76.933735890591,2546784.154762,49.287338733873,0,0
-159.30040916746,536.8261065511,44.091769176918,1271393.4085331,76.933735890591,2546784.154762,49.291769176918,0,0
-159.30040896186,536.87755274256,44.096199619962,1271393.4085331,76.933735890591,2546784.154762,49.296199619962,0,0
-159.30040875625,536.92899893402,44.100630063006,1271393.4085331,76.933735890591,2546784.154762,49.300630063006,0,0
-159.30040855065,536.98044512548,44.105060506051,1271393.4085331,76.933735890591,2546784.154762,49.305060506051,0,0
-159.30040834505,537.03189131695,44.109490949095,1271393.4085331,76.933735890591,2546784.154762,49.309490949095,0,0
-159.30040813945,537.08333750841,44.113921392139,1271393.4085331,76.933735890591,2546784.154762,49.313921392139,0,0
-159.30040793384,537.13478369987,44.118351835184,1271393.4085331,76.933735890591,2546784.154762,49.318351835184,0,0
-159.30040772824,537.18622989133,44.122782278228,1271393.4085331,76.933735890591,2546784.154762,49.322782278228,0,0
-159.30040752264,537.23767608279,44.127212721272,1271393.4085331,76.933735890591,2546784.154762,49.327212721272,0,0
-159.30040731704,537.28912227425,44.131643164316,1271393.4085331,76.933735890591,2546784.154762,49.331643164316,0,0
-159.30040711143,537.34056846572,44.136073607361,1271393.4085331,76.933735890591,2546784.154762,49.336073607361,0,0
-159.30040690583,537.39201465718,44.140504050405,1271393.4085331,76.933735890591,2546784.154762,49.340504050405,0,0
-159.30040670023,537.44346084864,44.144934493449,1271393.4085331,76.933735890591,2546784.154762,49.344934493449,0,0
-159.30040649462,537.4949070401,44.149364936494,1271393.4085331,76.933735890591,2546784.154762,49.349364936494,0,0
-159.30040628902,537.54635323156,44.153795379538,1271393.4085331,76.933735890591,2546784.154762,49.353795379538,0,0
-159.30040608342,537.59779942302,44.158225822582,1271393.4085331,76.933735890591,2546784.154762,49.358225822582,0,0
-159.30040587782,537.64924561448,44.162656265627,1271393.4085331,76.933735890591,2546784.154762,49.362656265627,0,0
-159.30040567221,537.70069180595,44.167086708671,1271393.4085331,76.933735890591,2546784.154762,49.367086708671,0,0
-159.30040546661,537.75213799741,44.171517151715,1271393.4085331,76.933735890591,2546784.154762,49.371517151715,0,0
-159.30040526101,537.80358418887,44.175947594759,1271393.4085331,76.933735890591,2546784.154762,49.375947594759,0,0
-159.30040505541,537.85503038033,44.180378037804,1271393.4085331,76.933735890591,2546784.154762,49.380378037804,0,0
-159.3004048498,537.90647657179,44.184808480848,1271393.4085331,76.933735890591,2546784.154762,49.384808480848,0,0
-159.3004046442,537.95792276325,44.189238923892,1271393.4085331,76.933735890591,2546784.154762,49.389238923892,0,0
-159.3004044386,538.00936895472,44.193669366937,1271393.4085331,76.933735890591,2546784.154762,49.393669366937,0,0
-159.300404233,538.06081514618,44.198099809981,1271393.4085331,76.933735890591,2546784.154762,49.398099809981,0,0
-159.30040402739,538.11226133764,44.202530253025,1271393.4085331,76.933735890591,2546784.154762,49.402530253025,0,0
-159.30040382179,538.1637075291,44.20696069607,1271393.4085331,76.933735890591,2546784.154762,49.40696069607,0,0
-159.30040361619,538.21515372056,44.211391139114,1271393.4085331,76.933735890591,2546784.154762,49.411391139114,0,0
-159.30040341058,538.26659991202,44.215821582158,1271393.4085331,76.933735890591,2546784.154762,49.415821582158,0,0
-159.30040320498,538.31804610348,44.220252025203,1271393.4085331,76.933735890591,2546784.154762,49.420252025203,0,0
-159.30040299938,538.36949229495,44.224682468247,1271393.4085331,76.933735890591,2546784.154762,49.424682468247,0,0
-159.30040279378,538.42093848641,44.229112911291,1271393.4085331,76.933735890591,2546784.154762,49.429112911291,0,0
-159.30040258817,538.47238467787,44.233543354335,1271393.4085331,76.933735890591,2546784.154762,49.433543354335,0,0
-159.30040238257,538.52383086933,44.23797379738,1271393.4085331,76.933735890591,2546784.154762,49.43797379738,0,0
-159.30040217697,538.57527706079,44.242404240424,1271393.4085331,76.933735890591,2546784.154762,49.442404240424,0,0
-159.30040197137,538.62672325225,44.246834683468,1271393.4085331,76.933735890591,2546784.154762,49.446834683468,0,0
-159.30040176576,538.67816944372,44.251265126513,1271393.4085331,76.933735890591,2546784.154762,49.451265126513,0,0
-159.30040156016,538.72961563518,44.255695569557,1271393.4085331,76.933735890591,2546784.154762,49.455695569557,0,0
-159.30040135456,538.78106182664,44.260126012601,1271393.4085331,76.933735890591,2546784.154762,49.460126012601,0,0
-159.30040114896,538.8325080181,44.264556455646,1271393.4085331,76.933735890591,2546784.154762,49.464556455646,0,0
-159.30040094335,538.88395420956,44.26898689869,1271393.4085331,76.933735890591,2546784.154762,49.46898689869,0,0
-159.30040073775,538.93540040102,44.273417341734,1271393.4085331,76.933735890591,2546784.154762,49.473417341734,0,0
-159.30040053215,538.98684659248,44.277847784778,1271393.4085331,76.933735890591,2546784.154762,49.477847784778,0,0
-159.30040032654,539.03829278395,44.282278227823,1271393.4085331,76.933735890591,2546784.154762,49.482278227823,0,0
-159.30040012094,539.08973897541,44.286708670867,1271393.4085331,76.933735890591,2546784.154762,49.486708670867,0,0
-159.30039991534,539.14118516687,44.291139113911,1271393.4085331,76.933735890591,2546784.154762,49.491139113911,0,0
-159.30039970974,539.19263135833,44.295569556956,1271393.4085331,76.933735890591,2546784.154762,49.495569556956,0,0
-159.30039950413,539.24407754979,44.3,1271393.4085331,76.933735890591,2546784.154762,49.5,0,0
