disp_x,disp_y,id,stress_xx,stress_xy,stress_yy,x,y,z
-0.00035655336509035,-0.0093587260895077,0,52878.98159287,345340.54927237,1530165.7187121,5.2,0,0
-0.0003620567902485,-0.0093252969148673,0.44747474747475,52878.98159287,345340.54927237,1530165.7187121,5.6474747474747,0,0
-0.00036582580704533,-0.0092865888811483,0.8949494949495,453878.85858541,723667.0692537,1774631.8610777,6.0949494949495,0,0
-0.00036875159079264,-0.0092453143766153,1.3424242424242,453878.85858541,723667.0692537,1774631.8610777,6.5424242424242,0,0
-0.00037039474215968,-0.0092000011627827,1.789898989899,481703.52984935,853883.42747336,1455786.0021797,6.989898989899,0,0
-0.00037223862696807,-0.0091538627334106,2.2373737373737,481703.52984935,853883.42747336,1455786.0021797,7.4373737373737,0,0
-0.00037277281228754,-0.0091054898428061,2.6848484848485,609381.0208695,935091.35675975,1353612.1186879,7.8848484848485,0,0
-0.00037331190387555,-0.0090561776911084,3.1323232323232,609381.0208695,935091.35675975,1353612.1186879,8.3323232323232,0,0
-0.00037327535504145,-0.0090056461408412,3.579797979798,678710.71995745,957843.33244423,1269848.3963123,8.779797979798,0,0
-0.00037320338936686,-0.008954321757925,4.0272727272727,639030.42036122,905409.63523231,1215544.4783273,9.2272727272727,0,0
-0.00037323010767688,-0.0089025344097378,4.4747474747475,704448.71141647,915459.86666814,1211528.1328488,9.6747474747475,0,0
-0.00037262015979287,-0.0088498423751452,4.9222222222222,704448.71141647,915459.86666814,1211528.1328488,10.122222222222,0,0
-0.00037230304638153,-0.0087968841971272,5.369696969697,626203.34070251,930677.16138728,1213831.5295694,10.569696969697,0,0
-0.0003716087794694,-0.008743290004426,5.8171717171717,748252.53347272,913661.58614617,1209514.9593686,11.017171717172,0,0
-0.00037092798713989,-0.0086893990343476,6.2646464646465,656049.35325212,920876.45491208,1199619.5307193,11.464646464646,0,0
-0.00037047540565821,-0.0086351953732685,6.7121212121212,770642.23011908,898047.60652833,1213975.4826629,11.912121212121,0,0
-0.00036957998316095,-0.0085806501390726,7.159595959596,681702.12001153,907242.63862488,1205866.0119834,12.359595959596,0,0
-0.00036913831604395,-0.008525804636755,7.6070707070707,681702.12001153,907242.63862488,1205866.0119834,12.807070707071,0,0
-0.00036831974736491,-0.0084707719000787,8.0545454545455,696535.84559789,886555.09840611,1212941.3784993,13.254545454545,0,0
-0.00036777743658813,-0.0084154899927732,8.5020202020202,696535.84559789,886555.09840612,1212941.3784993,13.70202020202,0,0
-0.0003672195661488,-0.0083601255284429,8.949494949495,708580.8344137,846277.01132384,1255547.3470414,14.149494949495,0,0
-0.00036669465687459,-0.0083045046103644,9.3969696969697,708580.8344137,846277.01132384,1255547.3470414,14.59696969697,0,0
-0.00036628855338951,-0.0082488256219246,9.8444444444444,631988.13986214,849323.07818269,1243375.5531407,15.044444444444,0,0
-0.00036590109948934,-0.0081929963697258,10.291919191919,715037.96942052,823031.51401584,1281102.7572093,15.491919191919,0,0
-0.00036547927471626,-0.0081371627373742,10.739393939394,639214.44404794,820844.84562919,1263552.1046088,15.939393939394,0,0
-0.00036536619058816,-0.0080812047390307,11.186868686869,719119.91467504,797077.79344179,1295494.6706785,16.386868686869,0,0
-0.00036492001535207,-0.0080252645266669,11.634343434343,645151.21864891,795867.32713062,1279315.3164923,16.834343434343,0,0
-0.00036497073720777,-0.0079691609152742,12.081818181818,645151.21864891,795867.32713062,1279315.3164923,17.281818181818,0,0
-0.00036462415325769,-0.0079131410776823,12.529292929293,646860.98451295,765460.34789328,1295270.5071611,17.729292929293,0,0
-0.00036470398757596,-0.007857054482131,12.976767676768,646860.98451295,765460.34789328,1295270.5071611,18.176767676768,0,0
-0.00036464221558166,-0.0078009756773676,13.424242424242,726396.72027682,741334.61453727,1325111.3307793,18.624242424242,0,0
-0.00036470050215539,-0.0077448892494427,13.871717171717,648057.11240205,732833.08119783,1300515.2653167,19.071717171717,0,0
-0.00036481061382649,-0.0076887616973224,14.319191919192,660138.04754006,724147.18524866,1352358.5764935,19.519191919192,0,0
-0.00036500140572226,-0.007632565065795,14.766666666667,664686.9680568,696223.08042055,1357856.7565627,19.966666666667,0,0
-0.00036510573363243,-0.0075763653181545,15.214141414141,664686.9680568,696223.08042055,1357856.7565627,20.414141414141,0,0
-0.00036551272957351,-0.0075201445848659,15.661616161616,671069.30225196,666070.17301743,1360415.635228,20.861616161616,0,0
-0.00036557244951155,-0.0074639156784505,16.109090909091,671069.30225196,666070.17301743,1360415.635228,21.309090909091,0,0
-0.00036608219760047,-0.0074077016260006,16.556565656566,592394.85918409,655354.93633816,1333323.5603113,21.756565656566,0,0
-0.00036621858478203,-0.0073515038621917,17.00404040404,678147.63355535,631618.67101993,1363500.3019648,22.20404040404,0,0
-0.00036665300666727,-0.0072952916455103,17.451515151515,599774.11279146,622818.81173976,1338479.6145613,22.651515151515,0,0
-0.00036702521565437,-0.0072390687732016,17.89898989899,686079.82312382,599975.12920326,1365789.1227212,23.09898989899,0,0
-0.00036737222373819,-0.0071828643947583,18.346464646465,606675.42788648,588229.08675016,1337434.7527377,23.546464646465,0,0
-0.00036788963918959,-0.0071266722346455,18.793939393939,606675.42788648,588229.08675016,1337434.7527377,23.993939393939,0,0
-0.0003682351216052,-0.0070704162061534,19.241414141414,608736.03807508,553900.14536052,1324968.8334046,24.441414141414,0,0
-0.00036873625507905,-0.0070141168011516,19.688888888889,619333.7197461,542849.85131411,1375223.7472215,24.888888888889,0,0
-0.00036933729670712,-0.0069577394895272,20.136363636364,634879.46722379,511335.54202257,1366790.0473455,25.336363636364,0,0
-0.00036970611820961,-0.00690126652687,20.583838383838,634879.46722379,511335.54202257,1366790.0473455,25.783838383838,0,0
-0.00037042305691318,-0.0068448407137463,21.031313131313,541271.40871505,495559.73579133,1331390.2173239,26.231313131313,0,0
-0.00037076284721311,-0.0067883007531042,21.478787878788,646349.11065354,473684.09846575,1348048.5195951,26.678787878788,0,0
-0.00037129165984097,-0.0067317258372438,21.926262626263,556384.80475994,463172.90797738,1318975.2743263,27.126262626263,0,0
-0.00037185317445793,-0.0066750391245505,22.373737373737,668573.95826388,442829.63152576,1327160.6765057,27.573737373737,0,0
-0.00037212022360395,-0.0066181813432041,22.821212121212,573356.7278085,429283.88951685,1293747.4056078,28.021212121212,0,0
-0.00037278895423616,-0.0065613447906029,23.268686868687,573356.7278085,429283.88951685,1293747.4056078,28.468686868687,0,0
-0.00037292614522178,-0.0065042228780582,23.716161616162,588391.62130001,398747.63223571,1271966.4124709,28.916161616162,0,0
-0.00037341501016943,-0.0064470068278368,24.163636363636,588391.62130001,398747.63223571,1271966.4124709,29.363636363636,0,0
-0.00037374865339918,-0.0063896237779193,24.611111111111,614336.33414942,368959.0965907,1248967.218273,29.811111111111,0,0
-0.00037403029184996,-0.0063318800386597,25.058585858586,620489.12107086,351882.82847124,1292851.5109876,30.258585858586,0,0
-0.00037453816526373,-0.0062741037843679,25.506060606061,493874.39851244,341439.99469832,1256233.6030083,30.706060606061,0,0
-0.00037465169313477,-0.0062157651610442,25.953535353535,645167.44196361,319068.1159153,1252878.5100825,31.153535353535,0,0
-0.00037480541732032,-0.0061573357370194,26.40101010101,513677.77139443,310660.84426095,1217669.9490844,31.60101010101,0,0
-0.00037523566090637,-0.0060985410113657,26.848484848485,670207.16660133,286856.4456238,1216268.0734902,32.048484848485,0,0
-0.00037503149388773,-0.0060393946036993,27.29595959596,538659.74203753,284891.94753569,1187911.7960187,32.49595959596,0,0
-0.0003756955328863,-0.0059799569904964,27.743434343434,538659.74203753,284891.94753569,1187911.7960187,32.943434343434,0,0
-0.00037511041916032,-0.0059199197517984,28.190909090909,565697.59545406,259394.64497954,1152548.0189519,33.390909090909,0,0
-0.00037546123299601,-0.005859436702857,28.638383838384,565697.59545406,259394.64497954,1152548.0189519,33.838383838384,0,0
-0.000375123922798,-0.0057986309294688,29.085858585859,763295.40793504,232847.46337403,1140896.3240392,34.285858585859,0,0
-0.00037502749316705,-0.0057368462956513,29.533333333333,607847.63214874,237310.24954049,1114344.1934802,34.733333333333,0,0
-0.00037493552768644,-0.0056750596185827,29.980808080808,607847.63214874,237310.24954049,1114344.1934802,35.180808080808,0,0
-0.00037451392814357,-0.005611816622478,30.428282828283,646584.17125444,179447.02904249,1093009.4991016,35.628282828283,0,0
-0.0003740520852222,-0.0055484683692936,30.875757575758,646584.17125444,179447.02904249,1093009.4991016,36.075757575758,0,0
-0.0003740251263168,-0.0054839729505956,31.323232323232,701911.84623959,152588.10919608,1051852.4565261,36.523232323232,0,0
-0.00037300625244945,-0.0054188506491261,31.770707070707,701911.84623959,152588.10919608,1051852.4565261,36.970707070707,0,0
-0.00037330900022417,-0.0053526630261905,32.218181818182,756016.12752064,131923.84619165,1003862.1343806,37.418181818182,0,0
-0.00037172458936107,-0.0052852918054306,32.665656565657,756016.12752064,131923.84619165,1003862.1343806,37.865656565657,0,0
-0.00037179781944592,-0.0052168675532633,33.113131313131,478913.09830348,153300.62476312,984503.66815303,38.313131313131,0,0
-0.00037037512221112,-0.0051471217142949,33.560606060606,825803.39704045,108979.35296856,957484.54414927,38.760606060606,0,0
-0.00036970160820456,-0.00507584930176,34.008080808081,510253.50029294,141026.27652226,943150.90702663,39.208080808081,0,0
-0.00036913526182576,-0.0050035532519859,34.455555555556,931851.69237246,86641.703558895,909245.83222336,39.655555555556,0,0
-0.00036739878066888,-0.0049287437522126,34.90303030303,579334.60928191,138942.67482929,898178.30816169,40.10303030303,0,0
-0.00036695553993692,-0.0048529160073324,35.350505050505,579334.60928191,138942.67482929,898178.30816168,40.550505050505,0,0
-0.00036488748577593,-0.0047742393367667,35.79797979798,692100.98256084,153964.65890494,860769.56068352,40.99797979798,0,0
-0.0003634809313236,-0.0046934758842756,36.245454545455,643874.6111404,56318.10229133,844406.36173409,41.445454545455,0,0
-0.00036280868839929,-0.0046106169057204,36.692929292929,784918.31384249,34969.652280266,797754.35603921,41.892929292929,0,0
-0.00036043685553111,-0.0045235497867667,37.140404040404,784918.31384249,34969.652280266,797754.35603921,42.340404040404,0,0
-0.00036003269216272,-0.0044348766074358,37.587878787879,44033.935076748,155791.04658191,776740.51935269,42.787878787879,0,0
-0.00035776300466189,-0.0043404225655369,38.035353535354,1003254.1783953,17555.106674547,747905.46127369,43.235353535354,0,0
-0.00035548312156099,-0.004243335024447,38.482828282828,81615.874472562,192650.83695962,747939.69279519,43.682828282828,0,0
-0.00035607924474892,-0.0041402829842787,38.930303030303,1360610.1223221,11890.370009053,700132.76479077,44.130303030303,0,0
-0.00035073040210494,-0.0040318440272078,39.377777777778,192921.04874491,273518.1642224,742017.98744771,44.577777777778,0,0
-0.00035298459605561,-0.0039160490222049,39.825252525253,192921.04874491,273518.1642224,742017.98744771,45.025252525253,0,0
-0.00034615274592039,-0.003793261925634,40.272727272727,511010.45858902,478926.71401862,813779.68165441,45.472727272727,0,0
-0.00034603374642731,-0.0036566961201394,40.720202020202,511010.45858902,478926.71401862,813779.68165441,45.920202020202,0,0
-0.0003419638077143,-0.0035158588953061,41.167676767677,1432518.7492602,1067996.8999148,1152571.8232308,46.367676767677,0,0
-0.00033612971294854,-0.0033446328533701,41.615151515152,809361.53353831,156540.85717772,439796.8377376,46.815151515152,0,0
-0.00033259808368138,-0.0031739021572446,42.062626262626,809361.53353831,156540.85717772,439796.8377376,47.262626262626,0,0
-0.00033265288803184,-0.0029463977609145,42.510101010101,2211853.1035735,29462.36390968,-54349.487005648,47.710101010101,0,0
-0.00031647788926173,-0.00271095813087,42.957575757576,2211853.1035735,29462.36390968,-54349.487005648,48.157575757576,0,0
-0.00036524503155156,-0.002368905443116,43.405050505051,5377525.2515903,941409.19081669,-1938320.0043228,48.605050505051,0,0
-0.00031846483887188,-0.0019655432014751,43.852525252525,5377525.2515903,941409.19081669,-1938320.0043228,49.052525252525,0,0
-0.000318886517521,-0.0011039982561691,44.3,-509065.97737071,27859368.271876,2799895.2345737,49.5,0,0
