disp_x,disp_y,id,stress_xx,stress_xy,stress_yy,x,y,z
-0.0010999302920145,-0.0078110864443311,0,28072.790229887,-16027.414489759,-89154.111740675,5.2,0,0
-0.0011012792442185,-0.0077709386261812,0.44747474747475,28072.790229887,-16027.414489759,-89154.111740675,5.6474747474747,0,0
-0.0011030544306429,-0.0077317088968749,0.8949494949495,-216958.5621079,-151175.62847362,-77268.163081184,6.0949494949495,0,0
-0.0011064121249708,-0.0076958878165732,1.3424242424242,-216958.5621079,-151175.62847362,-77268.163081184,6.5424242424242,0,0
-0.0011097698192987,-0.0076600667362715,1.789898989899,-216958.5621079,-151175.62847362,-77268.163081184,6.989898989899,0,0
-0.0011160875219805,-0.0076287497022538,2.2373737373737,-565255.13183662,-189589.57325147,3985.1674274348,7.4373737373737,0,0
-0.0011224735851323,-0.0075975366877808,2.6848484848485,-565255.13183662,-189589.57325147,3985.1674274348,7.8848484848485,0,0
-0.0011313255849657,-0.0075684299845605,3.1323232323232,-972111.67790268,-172713.74610951,18152.748597214,8.3323232323232,0,0
-0.0011410320431021,-0.0075400531277924,3.579797979798,-972111.67790268,-172713.74610951,18152.748597214,8.779797979798,0,0
-0.0011523092723503,-0.0075122036010985,4.0272727272727,-1356429.135562,-143141.90179744,15256.152826431,9.2272727272727,0,0
-0.0011651084042757,-0.0074848649986542,4.4747474747475,-1356429.135562,-143141.90179744,15256.152826431,9.6747474747475,0,0
-0.0011785936668162,-0.007457588225565,4.9222222222222,-1667596.5320576,-114125.86805159,15889.608005051,10.122222222222,0,0
-0.0011939048306629,-0.0074304759900986,5.369696969697,-1667596.5320576,-114125.86805159,15889.608005051,10.569696969697,0,0
-0.0012092911731249,-0.0074033567699241,5.8171717171717,-1911871.1952668,-93974.850541016,11572.934063522,11.017171717172,0,0
-0.0012265614032403,-0.0073760625211853,6.2646464646465,-1911871.1952668,-93974.850541016,11572.934063522,11.464646464646,0,0
-0.0012438316333558,-0.0073487682724464,6.7121212121212,-1911871.1952668,-93974.850541016,11572.934063522,11.912121212121,0,0
-0.0012623220410442,-0.0073208211283485,7.159595959596,-2096875.5723316,-73636.686493512,21186.692347558,12.359595959596,0,0
-0.0012811106381956,-0.0072927144283622,7.6070707070707,-2096875.5723316,-73636.686493512,21186.692347558,12.807070707071,0,0
-0.0013005664845486,-0.0072640586161055,8.0545454545455,-2242636.274368,-57461.986517193,20094.921450407,13.254545454545,0,0
-0.0013205280634314,-0.0072349866116119,8.5020202020202,-2242636.274368,-57461.986517193,20094.921450407,13.70202020202,0,0
-0.0013407742759418,-0.0072054886287393,8.949494949495,-2350771.9601496,-38743.623515283,12508.169918502,14.149494949495,0,0
-0.0013615878325069,-0.0071751415673408,9.3969696969697,-2350771.9601496,-38743.623515283,12508.169918502,14.59696969697,0,0
-0.0013824645294149,-0.0071446648218263,9.8444444444444,-2429227.7621101,-27093.993796426,13538.207663755,15.044444444444,0,0
-0.0014039137944319,-0.0071130120771684,10.291919191919,-2429227.7621101,-27093.993796426,13538.207663755,15.491919191919,0,0
-0.0014253630594488,-0.0070813593325106,10.739393939394,-2429227.7621101,-27093.993796426,13538.207663755,15.939393939394,0,0
-0.001447060898676,-0.0070484576566519,11.186868686869,-2464186.0206475,-21007.570822746,15580.197292124,16.386868686869,0,0
-0.0014687976790327,-0.0070153603257748,11.634343434343,-2464186.0206475,-21007.570822746,15580.197292124,16.834343434343,0,0
-0.0014908125886237,-0.0069813365292848,12.081818181818,-2518176.845486,-6071.3569219085,17829.577762242,17.281818181818,0,0
-0.0015129909863668,-0.0069467681436892,12.529292929293,-2518176.845486,-6071.3569219085,17829.577762242,17.729292929293,0,0
-0.0015351382184912,-0.0069115955976415,12.976767676768,-2510150.7452723,4141.2243700634,12570.167862473,18.176767676768,0,0
-0.0015572377226969,-0.0068754978230159,13.424242424242,-2510150.7452723,4141.2243700634,12570.167862473,18.624242424242,0,0
-0.0015793060551403,-0.0068391591955446,13.871717171717,-2487131.4834307,5988.5707929357,9302.4401759979,19.071717171717,0,0
-0.0016012110651106,-0.0068015586348541,14.319191919192,-2487131.4834307,5988.5707929357,9302.4401759979,19.519191919192,0,0
-0.001623116075081,-0.0067639580741636,14.766666666667,-2487131.4834307,5988.5707929357,9302.4401759979,19.966666666667,0,0
-0.0016450023108009,-0.0067248747165192,15.214141414141,-2485320.1232264,11959.250904908,7193.1185295034,20.414141414141,0,0
-0.0016668870354226,-0.0066856720118029,15.661616161616,-2485320.1232264,11959.250904908,7193.1185295034,20.861616161616,0,0
-0.0016885524675479,-0.0066454269876813,16.109090909091,-2444870.1913149,18839.570914701,10486.153866366,21.309090909091,0,0
-0.0017101197196993,-0.0066047153042181,16.556565656566,-2444870.1913149,18839.570914701,10486.153866366,21.756565656566,0,0
-0.0017314622614561,-0.0065633361196317,17.00404040404,-2385270.9971669,22842.825181374,6026.8472874064,22.20404040404,0,0
-0.0017525367081379,-0.0065211605599429,17.451515151515,-2385270.9971669,22842.825181374,6026.8472874064,22.651515151515,0,0
-0.0017735025409175,-0.0064786474399753,17.89898989899,-2323362.639628,29536.896284794,9174.1668310527,23.09898989899,0,0
-0.001794086008429,-0.0064349459700466,18.346464646465,-2323362.639628,29536.896284794,9174.1668310527,23.546464646465,0,0
-0.0018146694759405,-0.0063912445001179,18.793939393939,-2323362.639628,29536.896284794,9174.1668310527,23.993939393939,0,0
-0.0018346192419594,-0.0063461539323668,19.241414141414,-2244394.7637974,31420.767625651,7191.1831480514,24.441414141414,0,0
-0.0018545603072713,-0.0063010442923345,19.688888888889,-2244394.7637974,31420.767625651,7191.1831480514,24.888888888889,0,0
-0.0018741402640787,-0.0062547461430566,20.136363636364,-2181067.2802289,38025.554234237,18532.280731537,25.336363636364,0,0
-0.0018936009357946,-0.006208055393127,20.583838383838,-2181067.280229,38025.554234237,18532.280731537,25.783838383838,0,0
-0.0019125622739878,-0.0061607426684655,21.031313131313,-2061246.2898196,42436.276559317,18789.106973052,26.231313131313,0,0
-0.0019310569860942,-0.0061128487097751,21.478787878788,-2061246.2898196,42436.276559317,18789.106973052,26.678787878788,0,0
-0.0019493179466812,-0.0060645875168219,21.926262626263,-1962051.8424357,46824.089172542,8314.1267146153,27.126262626263,0,0
-0.0019669842434028,-0.0060153920799044,22.373737373737,-1962051.8424357,46824.089172542,8314.1267146153,27.573737373737,0,0
-0.0019846067069075,-0.0059661368389979,22.821212121212,-1846533.2139725,47109.055285906,11017.211338048,28.021212121212,0,0
-0.0020013483314825,-0.0059156798226925,23.268686868687,-1846533.2139725,47109.055285906,11017.211338048,28.468686868687,0,0
-0.0020180899560576,-0.0058652228063871,23.716161616162,-1846533.2139725,47109.055285906,11017.211338048,28.916161616162,0,0
-0.0020339666289026,-0.0058138780683682,24.163636363636,-1713764.2023906,53655.135354053,13522.334414196,29.363636363636,0,0
-0.0020496438823209,-0.0057623286611765,24.611111111111,-1713764.2023906,53655.135354053,13522.334414196,29.811111111111,0,0
-0.0020646640986243,-0.0057101439660249,25.058585858586,-1576933.9674453,61924.150633032,1209.6557812934,30.258585858586,0,0
-0.0020792043698476,-0.0056574952128715,25.506060606061,-1576933.9674453,61924.150633032,1209.6557812934,30.706060606061,0,0
-0.0020933368980883,-0.0056045630216714,25.953535353535,-1428387.4320765,64171.328178136,4941.7093775161,31.153535353535,0,0
-0.0021066888131189,-0.00555108819579,26.40101010101,-1428387.4320765,64171.328178136,4941.7093775161,31.60101010101,0,0
-0.0021199054338483,-0.0054975237990078,26.848484848485,-1274116.8455511,68990.044601586,3423.4270733592,32.048484848485,0,0
-0.0021320086952237,-0.0054432223083538,27.29595959596,-1274116.8455511,68990.044601586,3423.4270733592,32.49595959596,0,0
-0.002144111956599,-0.0053889208176998,27.743434343434,-1274116.8455511,68990.044601586,3423.4270733592,32.943434343434,0,0
-0.0021550539203756,-0.0053340085941444,28.190909090909,-1109139.226069,73480.375468653,4021.6053303922,33.390909090909,0,0
-0.0021658278410888,-0.0052790079958023,28.638383838384,-1109139.226069,73480.375468653,4021.6053303922,33.838383838384,0,0
-0.0021756875072005,-0.0052237189798369,29.085858585859,-933522.65255277,74774.285033166,-1321.7696491795,34.285858585859,0,0
-0.0021850302802512,-0.0051682669009043,29.533333333333,-933522.65255278,74774.285033166,-1321.7696491795,34.733333333333,0,0
-0.0021938071083436,-0.0051126702304069,29.980808080808,-758474.37266698,76222.950447185,2976.6529415557,35.180808080808,0,0
-0.0022017492466651,-0.0050568603075456,30.428282828283,-758474.37266698,76222.950447185,2976.6529415557,35.628282828283,0,0
-0.0022094363453204,-0.0050010282998481,30.875757575758,-577639.62300972,76432.242436697,-14708.624125166,36.075757575758,0,0
-0.0022158720493468,-0.0049450879292213,31.323232323232,-577639.62300972,76432.242436696,-14708.624125166,36.523232323232,0,0
-0.0022223077533732,-0.0048891475585944,31.770707070707,-577639.62300972,76432.242436696,-14708.624125166,36.970707070707,0,0
-0.0022273851854684,-0.0048330577683885,32.218181818182,-396277.63944684,72462.550029619,-11096.791454742,37.418181818182,0,0
-0.0022323674729114,-0.0047769575115937,32.665656565657,-396277.63944684,72462.550029619,-11096.791454742,37.865656565657,0,0
-0.0022363253554772,-0.0047211647001564,33.113131313131,-205334.76030271,70416.261620216,17356.485194237,38.313131313131,0,0
-0.0022398437353054,-0.004665503792695,33.560606060606,-205334.76030271,70416.261620217,17356.485194237,38.760606060606,0,0
-0.0022427156543314,-0.0046101130785455,34.008080808081,-40680.491568692,71287.423825421,-5648.5082610772,39.208080808081,0,0
-0.0022448438296187,-0.0045550332178666,34.455555555556,-40680.491568692,71287.423825421,-5648.5082610772,39.655555555556,0,0
-0.0022466392527545,-0.0045000194843043,34.90303030303,139050.095763,72809.311829102,-3871.0446601952,40.10303030303,0,0
-0.0022473222397758,-0.0044452268227692,35.350505050505,139050.095763,72809.311829102,-3871.0446601952,40.550505050505,0,0
-0.0022480052267972,-0.004390434161234,35.79797979798,139050.095763,72809.311829102,-3871.0446601952,40.99797979798,0,0
-0.0022475502244526,-0.0043367085306436,36.245454545455,282702.05641737,62792.999417409,1987.7484604014,41.445454545455,0,0
-0.0022470900611585,-0.0042829877391958,36.692929292929,282702.05641737,62792.999417409,1987.7484604014,41.892929292929,0,0
-0.0022457045422444,-0.0042299754078869,37.140404040404,428849.13623287,55293.004508233,-11913.396165722,42.340404040404,0,0
-0.0022440279619186,-0.0041771859156723,37.587878787879,428849.13623287,55293.004508233,-11913.396165722,42.787878787879,0,0
-0.0022418584421847,-0.0041249933373762,38.035353535354,546619.35832524,44950.144688484,-7121.469494854,43.235353535354,0,0
-0.0022392446422976,-0.0040733387501656,38.482828282828,546619.35832524,44950.144688484,-7121.469494854,43.682828282828,0,0
-0.0022363930582369,-0.0040220238840389,38.930303030303,644780.43965976,33489.972566148,-16294.14502477,44.130303030303,0,0
-0.0022329626816917,-0.0039715359358992,39.377777777778,644780.43965976,33489.972566148,-16294.14502477,44.577777777778,0,0
-0.0022295069589674,-0.0039211209423081,39.825252525253,702666.16525472,19714.403029469,-9654.0939948254,45.025252525253,0,0
-0.0022256274481303,-0.0038719257487682,40.272727272727,702666.16525472,19714.403029469,-9654.0939948254,45.472727272727,0,0
-0.0022217479372932,-0.0038227305552283,40.720202020202,702666.16525472,19714.403029469,-9654.0939948254,45.920202020202,0,0
-0.0022176532465669,-0.0037744146109868,41.167676767677,734210.66023544,7116.4722890694,-12404.878883665,46.367676767677,0,0
-0.0022135118547109,-0.0037262894928293,41.615151515152,734210.66023544,7116.4722890694,-12404.878883665,46.815151515152,0,0
-0.0022093699940979,-0.0036786960649525,42.062626262626,735217.22147569,-5828.9356601127,-9682.1995743482,47.262626262626,0,0
-0.0022052278035521,-0.0036314768652347,42.510101010101,735217.22147568,-5828.9356601127,-9682.1995743482,47.710101010101,0,0
-0.0022011580441002,-0.0035844451078081,42.957575757576,712208.32147558,-12868.119827536,-2221.6643731737,48.157575757576,0,0
-0.0021972215392891,-0.0035377581961351,43.405050505051,712208.32147558,-12868.119827536,-2221.6643731737,48.605050505051,0,0
-0.0021933122114546,-0.0034910841579425,43.852525252525,685873.37900104,-9292.3283729736,4870.1699043137,49.052525252525,0,0
-0.0021896072335783,-0.0034445069184193,44.3,685873.37900104,-9292.3283729736,4870.1699043137,49.5,0,0
