disp_x,disp_y,id,stress_xx,stress_xy,stress_yy,x,y,z
0.015789069251436,0.015026651099297,0,-7268.4187072185,-754080.95559892,3307987.6739213,5.2,0,0
0.015765593518942,0.01505177957802,0.44747474747475,-7268.4187072185,-754080.95559892,3307987.6739213,5.6474747474747,0,0
0.015745857322002,0.01506644007197,0.8949494949495,818546.90423178,-1458095.2199666,3891423.9024174,6.0949494949495,0,0
0.015730501450931,0.0150711769745,1.3424242424242,1088243.3083594,-1682927.2734507,3357302.4444859,6.5424242424242,0,0
0.015714458721071,0.015071802885481,1.789898989899,1304847.9133785,-1957241.3688913,3129823.8276706,6.989898989899,0,0
0.015701912435093,0.015065864865008,2.2373737373737,1193089.8277963,-2036184.8795372,3217373.7318312,7.4373737373737,0,0
0.015688620379303,0.015057684858362,2.6848484848485,1389802.8903482,-2056798.0767456,3000201.5554426,7.8848484848485,0,0
0.015677594528122,0.015045581078551,3.1323232323232,1526680.6519663,-2241376.9029943,3124795.6488587,8.3323232323232,0,0
0.015666835327705,0.015031421431914,3.579797979798,1238575.710429,-2024433.6569602,2916852.2386427,8.779797979798,0,0
0.015655561343885,0.01501491589571,4.0272727272727,1560620.7601085,-2146128.1601257,2965991.6154356,9.2272727272727,0,0
0.015645654163332,0.014996498992018,4.4747474747475,1560620.7601085,-2146128.1601257,2965991.6154356,9.6747474747475,0,0
0.015635663031835,0.014976194002319,4.9222222222222,1564799.2742388,-2270039.9638062,3022933.0546086,10.122222222222,0,0
0.015626273672543,0.014954891824147,5.369696969697,1779913.6308579,-2196015.6491156,3011317.7407457,10.569696969697,0,0
0.015617565931016,0.014931698435213,5.8171717171717,1713749.4412773,-2284954.3874987,3030583.5235207,11.017171717172,0,0
0.015608035009786,0.014907908696074,6.2646464646465,1597255.3273145,-2170603.7076409,3050607.4391429,11.464646464646,0,0
0.015598350538561,0.014882505203694,6.7121212121212,1744926.9209513,-2181160.3179241,3124258.5160662,11.912121212121,0,0
0.015589504635755,0.014856706686227,7.159595959596,1744926.9209513,-2181160.3179241,3124258.5160662,12.359595959596,0,0
0.015580156082831,0.014829652771848,7.6070707070707,1674791.5556556,-2244264.1132497,3129975.1283739,12.807070707071,0,0
0.015571078059298,0.014802410909904,8.0545454545455,1858416.3948067,-2167858.4287112,3195881.5046869,13.254545454545,0,0
0.015562094064582,0.014774033545776,8.5020202020202,1704443.7622175,-2140693.6299872,3281611.5853913,13.70202020202,0,0
0.015552498419597,0.014745297573282,8.949494949495,1704443.7622175,-2140693.6299872,3281611.5853914,14.149494949495,0,0
0.015542581767475,0.014715617936714,9.3969696969697,1795711.0223899,-2111812.3773549,3354538.178237,14.59696969697,0,0
0.015533526306227,0.014686001628588,9.8444444444444,1795711.0223899,-2111812.3773549,3354538.178237,15.044444444444,0,0
0.015523768906486,0.014655565649958,10.291919191919,1703822.473313,-2144535.1627954,3341286.0943545,15.491919191919,0,0
0.015514191424556,0.014625120448561,10.739393939394,1775642.6812907,-2097161.4589167,3400440.0351607,15.939393939394,0,0
0.015504345474345,0.014593866134816,11.186868686869,1735098.306856,-2036625.2951539,3514955.3386738,16.386868686869,0,0
0.015494296865258,0.014562477210395,11.634343434343,1643025.8778825,-2055612.7073211,3495068.0246291,16.834343434343,0,0
0.015483823460165,0.014530640545461,12.081818181818,1808002.3306247,-1985894.5459223,3568170.2005616,17.281818181818,0,0
0.015474178993991,0.014498839208615,12.529292929293,1712513.5669932,-1999075.9009499,3544601.2115659,17.729292929293,0,0
0.015463941232929,0.014466701307869,12.976767676768,1712513.5669932,-1999075.9009499,3544601.2115659,18.176767676768,0,0
0.015453515170032,0.014434373838543,13.424242424242,1747681.1386043,-1880256.388231,3699873.0940925,18.624242424242,0,0
0.015443143572158,0.014401601423765,13.871717171717,1747681.1386043,-1880256.388231,3699873.0940925,19.071717171717,0,0
0.015432579096123,0.014368774563456,14.319191919192,1649811.5738023,-1884105.477139,3671394.5259993,19.519191919192,0,0
0.015421652127083,0.01433579612232,14.766666666667,1822512.8345915,-1815167.1086793,3723257.5211289,19.966666666667,0,0
0.015411573875478,0.014302739099419,15.214141414141,1720283.0846314,-1815792.547599,3691966.8113125,20.414141414141,0,0
0.01540100250627,0.014269591576728,15.661616161616,1720283.0846314,-1815792.547599,3691966.8113125,20.861616161616,0,0
0.015389943352043,0.014236100819606,16.109090909091,1763095.5553221,-1682398.737846,3816145.080483,21.309090909091,0,0
0.015379383436314,0.014202377922619,16.556565656566,1763095.5553221,-1682398.737846,3816145.080483,21.756565656566,0,0
0.015368424066174,0.014168618701687,17.00404040404,1633047.1669479,-1679464.1939031,3774467.706597,22.20404040404,0,0
0.015357497098438,0.014134724341072,17.451515151515,1843986.3049965,-1607252.5700203,3811094.0837445,22.651515151515,0,0
0.015347226824688,0.014100669910537,17.89898989899,1724566.5626708,-1600538.7705725,3771475.513667,23.09898989899,0,0
0.015336476201323,0.014066610715984,18.346464646465,1724566.5626708,-1600538.7705725,3771475.513667,23.546464646465,0,0
0.015325672599891,0.014032192459046,18.793939393939,1775712.0770754,-1451428.8147674,3839369.2251222,23.993939393939,0,0
0.015315152014128,0.013997417750833,19.241414141414,1775712.0770754,-1451428.8147674,3839369.2251222,24.441414141414,0,0
0.015304216069985,0.013962633733257,19.688888888889,1668257.0450094,-1446213.3100991,3803910.6403102,24.888888888889,0,0
0.01529362565326,0.013927618671553,20.136363636364,1885949.1206454,-1371071.7175414,3790321.9372178,25.336363636364,0,0
0.015283713444947,0.013892222407113,20.583838383838,1789062.511904,-1368403.0716338,3759218.5533471,25.783838383838,0,0
0.015273401392232,0.013856757620676,21.031313131313,1719896.1648998,-1288405.8651344,3833778.0941175,26.231313131313,0,0
0.015262623122499,0.013820726190876,21.478787878788,1843859.816081,-1202200.3482938,3762722.0552422,26.678787878788,0,0
0.015252858431266,0.013784187132023,21.926262626263,1843859.816081,-1202200.3482938,3762722.0552421,27.126262626263,0,0
0.015242520208667,0.01374751936766,22.373737373737,1730026.3395411,-1204539.8569806,3728536.2655109,27.573737373737,0,0
0.015232660042303,0.013710499582761,22.821212121212,1988364.9250017,-1120412.4754266,3679183.4437037,28.021212121212,0,0
0.01522373547858,0.013672624930664,23.268686868687,1887465.2157829,-1130728.2067321,3652519.833442,28.468686868687,0,0
0.015213994580182,0.013634500032228,23.716161616162,1788870.0729674,-1028396.6642377,3697804.3072249,28.916161616162,0,0
0.015203933285985,0.013595645813909,24.163636363636,1952341.9428782,-943948.79706293,3597424.1728315,29.363636363636,0,0
0.01519548828024,0.013555938764976,24.611111111111,1952341.9428782,-943948.79706293,3597424.1728315,29.811111111111,0,0
0.015186108392066,0.013515724733755,25.058585858586,1801970.5989583,-963355.73007981,3559765.8816867,30.258585858586,0,0
0.015177633991333,0.013474954061092,25.506060606061,2137229.985156,-862792.25096812,3492612.2523734,30.706060606061,0,0
0.01516998243231,0.013432586832077,25.953535353535,1987641.4139342,-898087.98489774,3463202.6447253,31.153535353535,0,0
0.015161370101699,0.01338995746837,26.40101010101,1871515.3706138,-766944.02699226,3487003.3443051,31.60101010101,0,0
0.01515274699505,0.013345631634515,26.848484848485,2062868.3883534,-684852.24479525,3352805.4440483,32.048484848485,0,0
0.015145851472981,0.013300368536312,27.29595959596,2062868.3883534,-684852.24479524,3352805.4440483,32.49595959596,0,0
0.015137768288191,0.013253745977955,27.743434343434,1896574.7202565,-742850.08152765,3326917.5636852,32.943434343434,0,0
0.015131156576672,0.013206310381654,28.190909090909,2308470.6377912,-615196.0575115,3211917.9508588,33.390909090909,0,0
0.015125281724197,0.013156039328855,28.638383838384,1976317.7692337,-513903.02304795,3185354.8797158,33.838383838384,0,0
0.015118087102006,0.013105555051195,29.085858585859,1740802.2866069,-606706.84849515,3154115.3767215,34.285858585859,0,0
0.015110900253567,0.013052068091677,29.533333333333,2258270.450583,-442947.90350325,3031811.6621935,34.733333333333,0,0
0.015106320533996,0.012997182921289,29.980808080808,2046224.7954526,-564133.3818615,3020458.6126495,35.180808080808,0,0
0.015100184471373,0.012939624621297,30.428282828283,2046224.7954526,-564133.3818615,3020458.6126495,35.628282828283,0,0
0.015095597858024,0.012880866892173,30.875757575758,2431406.8282849,-545547.91266135,2888823.902163,36.075757575758,0,0
0.015091415443051,0.012817437344034,31.323232323232,2144306.0754913,-284744.39889113,2829840.891276,36.523232323232,0,0
0.015086149708564,0.012753272037161,31.770707070707,1805031.5248652,-465300.42805275,2805996.6231094,36.970707070707,0,0
0.015080597183927,0.012684683731384,32.218181818182,2543657.8123975,-226893.53054491,2662189.4525123,37.418181818182,0,0
0.015078932080918,0.01261320561034,32.665656565657,2242718.2644261,-455786.97333986,2671789.2951341,37.865656565657,0,0
0.015075318844683,0.012537493787469,33.113131313131,2242718.2644261,-455786.97333986,2671789.2951341,38.313131313131,0,0
0.015072329753365,0.012459313585507,33.560606060606,2372840.4284316,-83106.270876343,2442846.1767306,38.760606060606,0,0
0.015070381934267,0.012373880882798,34.008080808081,2372840.4284316,-83106.270876343,2442846.1767306,39.208080808081,0,0
0.015067174381483,0.012286092398441,34.455555555556,1834750.0589841,-424028.43636829,2429031.1049341,39.655555555556,0,0
0.015063101299364,0.01219179887643,34.90303030303,2981489.2023755,-44134.414812159,2266600.034714,40.10303030303,0,0
0.015065254921809,0.0120913366241,35.350505050505,2526189.80713,-480958.36545106,2321093.2554903,40.550505050505,0,0
0.015064871653679,0.011984212027816,35.79797979798,2526189.80713,-480958.36545106,2321093.2554903,40.99797979798,0,0
0.015061151407556,0.011871310008385,36.245454545455,2722814.7620475,89057.896873678,2051432.0844305,41.445454545455,0,0
0.015063079561726,0.011746860511158,36.692929292929,2722814.7620475,89057.896873678,2051432.0844305,41.892929292929,0,0
0.015061763639824,0.011615655241764,37.140404040404,1774569.6767963,-595611.30738676,2064747.8433129,42.340404040404,0,0
0.015058362249679,0.011474386063543,37.587878787879,3788307.5815783,87597.202855833,1857745.2170455,42.787878787879,0,0
0.015066578764019,0.011318321722516,38.035353535354,3100995.3682546,-848091.16921405,2064191.001122,43.235353535354,0,0
0.015069461676098,0.011150806661032,38.482828282828,2021164.7831087,131251.5809738,1847179.6881433,43.682828282828,0,0
0.015060327784828,0.010968109918628,38.930303030303,3457820.6869045,199255.25803841,1647234.25613,44.130303030303,0,0
0.015069272514076,0.010763864310013,39.377777777778,3457820.6869045,199255.25803841,1647234.25613,44.577777777778,0,0
0.015069501093296,0.010538198837282,39.825252525253,1538136.448774,-1497823.6014124,1812964.366153,45.025252525253,0,0
0.015063805038739,0.010294351287881,40.272727272727,5819558.277753,-51813.754837002,1372340.9553008,45.472727272727,0,0
0.015086928757667,0.01000471575546,40.720202020202,4932731.7601444,-2654312.5188261,2261497.2290329,45.920202020202,0,0
0.015089858081391,0.0096908664990252,41.167676767677,2034939.4892151,17275.339012233,1516164.2089844,46.367676767677,0,0
0.01505801979287,0.0093170765025298,41.615151515152,5580367.2628427,-282440.65816429,1203911.1614943,46.815151515152,0,0
0.015085280230466,0.008889859045995,42.062626262626,5580367.2628427,-282440.65816429,1203911.1614943,47.262626262626,0,0
0.015093131585354,0.0083406935450204,42.510101010101,2756981.5489085,-7893462.0899168,2602431.717739,47.710101010101,0,0
0.015093853657199,0.0077467344729969,42.957575757576,2756981.5489085,-7893462.0899168,2602431.717739,48.157575757576,0,0
0.015090163305874,0.0067715458939651,43.405050505051,2625371.4180345,-1733441.865524,778611.2083184,48.605050505051,0,0
0.015094728148102,0.0057012006945593,43.852525252525,2625371.4180345,-1733441.865524,778611.2083184,49.052525252525,0,0
0.015096253870884,0.0031856321201889,44.3,2689770.4837145,-84501573.802713,2364235.3051805,49.5,0,0
