disp_x,disp_y,id,stress_xx,stress_xy,stress_yy,x,y,z
0.03144159851501,-0.030197084274305,0,215543.09007714,1537624.7016503,6716209.349173,5.2,0,0
0.031396233664735,-0.030248606336799,0.44747474747475,215543.09007714,1537624.7016503,6716209.349173,5.6474747474747,0,0
0.031358816087482,-0.030275881260291,0.8949494949495,2053436.4480464,3275222.4436513,7837770.7586951,6.0949494949495,0,0
0.031325262308061,-0.030291367732218,1.3424242424242,2053436.4480464,3275222.4436513,7837770.7586951,6.5424242424242,0,0
0.031296627607584,-0.030289077009079,1.789898989899,2181601.7975345,3926596.2748379,6735962.4462681,6.989898989899,0,0
0.03126707072521,-0.030282237955097,2.2373737373737,2181601.7975345,3926596.2748379,6735962.4462681,7.4373737373737,0,0
0.031243504417204,-0.030264778995595,2.6848484848485,2781030.8335811,4343482.837724,6317200.621954,7.8848484848485,0,0
0.031219909514464,-0.03024243751021,3.1323232323232,2781030.8335811,4343482.837724,6317200.621954,8.3323232323232,0,0
0.03119884685351,-0.030214211389402,3.579797979798,3148857.1664902,4509071.7270375,6120987.8352147,8.779797979798,0,0
0.031177828754922,-0.030181882223402,4.0272727272727,2951211.3234233,4233579.9585605,5870656.2075539,9.2272727272727,0,0
0.03115643879767,-0.030146662195673,4.4747474747475,3287834.8441613,4363194.1385432,5959083.4498147,9.6747474747475,0,0
0.031137895543856,-0.03010656179585,4.9222222222222,3287834.8441613,4363194.1385432,5959083.4498147,10.122222222222,0,0
0.031118000641647,-0.030064604969639,5.369696969697,2951790.4259463,4496973.9871957,6045063.4280151,10.569696969697,0,0
0.031099711767818,-0.03001933276395,5.8171717171717,3507969.6825727,4402429.5342726,6072832.4472685,11.017171717172,0,0
0.031081421456987,-0.029972232099407,6.2646464646465,3148027.2464019,4509680.0344738,6120324.4884123,11.464646464646,0,0
0.031062198674232,-0.029922878731752,6.7121212121212,3661709.8947141,4396075.8176132,6216402.2745362,11.912121212121,0,0
0.031044919181823,-0.029871910462588,7.159595959596,3289098.0350461,4481975.6974357,6232486.1648581,12.359595959596,0,0
0.031025650897523,-0.02981898632621,7.6070707070707,3289098.0350461,4481975.6974357,6232486.1648581,12.807070707071,0,0
0.031008105156682,-0.029765107246043,8.0545454545455,3393451.3393443,4427732.6128327,6367903.1099045,13.254545454545,0,0
0.030989314581169,-0.029709342429118,8.5020202020202,3393451.3393443,4427732.6128327,6367903.1099045,13.70202020202,0,0
0.030970589565011,-0.029652989484899,8.949494949495,3483831.8062041,4245645.4473638,6696565.3715979,14.149494949495,0,0
0.03095164430721,-0.029594797339564,9.3969696969697,3483831.8062041,4245645.4473638,6696565.3715979,14.59696969697,0,0
0.030932154384317,-0.029536172071924,9.8444444444444,3147090.7957982,4297821.8925729,6683958.2865643,15.044444444444,0,0
0.030912798758206,-0.02947616699116,10.291919191919,3565020.4531918,4168743.8636296,6864690.1284868,15.491919191919,0,0
0.030893639892133,-0.029415970490195,10.739393939394,3217555.8920682,4205492.3802795,6833549.5687472,15.939393939394,0,0
0.030873048474927,-0.02935437464398,11.186868686869,3635396.7796333,4074711.2237935,7018965.066811,16.386868686869,0,0
0.030854180659947,-0.02929293871734,11.634343434343,3280963.2525571,4098033.8163059,6972075.3991997,16.834343434343,0,0
0.030832857881445,-0.029230129293035,12.081818181818,3280963.2525571,4098033.8163059,6972075.3991997,17.281818181818,0,0
0.030813765292053,-0.029167606932227,12.529292929293,3347092.7651113,3977684.8885049,7095227.3499563,17.729292929293,0,0
0.030792644836104,-0.029103971658922,12.976767676768,3347092.7651113,3977684.8885049,7095227.3499563,18.176767676768,0,0
0.030772270876176,-0.029040413448813,13.424242424242,3772142.9761367,3843870.0117174,7269838.9477117,18.624242424242,0,0
0.030751518156972,-0.02897611203834,13.871717171717,3411308.969293,3843210.8360511,7197548.3110152,19.071717171717,0,0
0.030730428791322,-0.028911559710676,14.319191919192,3455644.4520799,3762822.0839446,7458518.1105422,19.519191919192,0,0
0.030709036485721,-0.028846295099634,14.766666666667,3527452.4867121,3623372.0555248,7545504.4509876,19.966666666667,0,0
0.030688160210244,-0.028781002197398,15.214141414141,3527452.4867121,3623372.0555248,7545504.4509876,20.414141414141,0,0
0.03066574576531,-0.028715174426271,15.661616161616,3606902.0215015,3475618.4805573,7605972.9587201,20.861616161616,0,0
0.030645347836295,-0.028649275793055,16.109090909091,3606902.0215015,3475618.4805573,7605972.9587201,21.309090909091,0,0
0.030622593306992,-0.028582991255239,16.556565656566,3205070.7307078,3446416.6244184,7494560.5414985,21.756565656566,0,0
0.030602094170978,-0.028516465890832,17.00404040404,3696823.2281622,3320225.688532,7640156.290833,22.20404040404,0,0
0.030580063651366,-0.028449644242726,17.451515151515,3281299.7307624,3283311.7428553,7517777.9714466,22.651515151515,0,0
0.030558531611312,-0.028382591830215,17.89898989899,3799974.5667264,3158868.9394429,7646239.8201115,23.09898989899,0,0
0.030537432713317,-0.028315078805487,18.346464646465,3374506.0949936,3115918.8541017,7515346.8778617,23.546464646465,0,0
0.030515403648227,-0.028247494981161,18.793939393939,3374506.0949936,3115918.8541017,7515346.8778617,23.993939393939,0,0
0.030494840650341,-0.028179182249859,19.241414141414,3485991.3382076,2946147.429673,7486127.8659003,24.441414141414,0,0
0.030473541152956,-0.028110460976153,19.688888888889,3532856.5384901,2859982.2053473,7762147.5444398,24.888888888889,0,0
0.03045175159231,-0.028041178584118,20.136363636364,3657381.1514707,2678918.4055072,7697328.6546259,25.336363636364,0,0
0.03043151523205,-0.027971152001513,20.583838383838,3657381.1514707,2678918.4055072,7697328.6546259,25.783838383838,0,0
0.03040938329542,-0.027901069827722,21.031313131313,3158090.3640346,2620539.9573817,7535846.9925991,26.231313131313,0,0
0.030389872772946,-0.027829692124545,21.478787878788,3805162.6579795,2497766.8683409,7605227.6527058,26.678787878788,0,0
0.030369327599459,-0.027758031827437,21.926262626263,3286723.6280769,2439484.0385425,7440119.3845678,27.126262626263,0,0
0.030348721952188,-0.027685637877028,22.373737373737,3978448.360655,2316193.8455326,7484547.1636712,27.573737373737,0,0
0.030330047725252,-0.027611940258987,22.821212121212,3436423.5227543,2261191.8240753,7317656.4673568,28.021212121212,0,0
0.030309049795514,-0.027538067856955,23.268686868687,3436423.5227543,2261191.8240753,7317656.4673568,28.468686868687,0,0
0.03029169836606,-0.027462119341354,23.716161616162,3612546.2450059,2088665.8238437,7173444.8387459,28.916161616162,0,0
0.030272509105037,-0.027385539543909,24.163636363636,3612546.2450059,2088665.8238437,7173444.8387459,29.363636363636,0,0
0.030254418130434,-0.02730776797621,24.611111111111,3818498.2655683,1923708.9474282,7007388.1836938,29.811111111111,0,0
0.030236859375158,-0.02722753735612,25.058585858586,3828230.7236644,1790279.8205067,7226517.3111626,30.258585858586,0,0
0.030218036804467,-0.027147056650697,25.506060606061,3130843.1967009,1746081.8083552,7038761.7523503,30.706060606061,0,0
0.030201983469914,-0.027062991774161,25.953535353535,4051014.0621355,1609530.9367805,7019723.486033,31.153535353535,0,0
0.030185747686247,-0.026978329376733,26.40101010101,3304111.6239579,1576521.6933751,6835325.889161,31.60101010101,0,0
0.030168340582343,-0.026891016782315,26.848484848485,4313593.9874526,1435170.604245,6791971.1151776,32.048484848485,0,0
0.030155123406062,-0.026801263313958,27.29595959596,3512668.5334483,1418284.353719,6614106.2219932,32.49595959596,0,0
0.030136632532328,-0.026709834919619,27.743434343434,3512668.5334483,1418284.353719,6614106.2219932,32.943434343434,0,0
0.030126177824442,-0.02661429745934,28.190909090909,3766310.0990686,1274976.9919475,6377877.9889576,33.390909090909,0,0
0.030110368445633,-0.026516000757914,28.638383838384,3766310.0990686,1274976.9919475,6377877.9889576,33.838383838384,0,0
0.030098872149587,-0.026415597339873,29.085858585859,4997271.8749224,1117796.2989114,6282170.3397876,34.285858585859,0,0
0.030086241292096,-0.026308974567839,29.533333333333,4074936.6590557,1150945.4928536,6131654.5803643,34.733333333333,0,0
0.030073583875629,-0.026202339103888,29.980808080808,4074936.6590557,1150945.4928536,6131654.5803643,35.180808080808,0,0
0.030063444112003,-0.026086233246232,30.428282828283,4369367.3027691,789777.26676529,5972227.4714342,35.628282828283,0,0
0.030053590724616,-0.025969441222284,30.875757575758,4369367.3027691,789777.26676529,5972227.4714342,36.075757575758,0,0
0.030041349214158,-0.025845049835096,31.323232323232,4767794.8009171,652819.81693506,5703458.0805233,36.523232323232,0,0
0.030035432883549,-0.025716479210211,31.770707070707,4767794.8009171,652819.81693506,5703458.0805233,36.970707070707,0,0
0.030021551526808,-0.025581321974367,32.218181818182,5163514.3671175,533008.60619436,5375547.8771551,37.418181818182,0,0
0.030019709445444,-0.025438430417236,32.665656565657,5163514.3671175,533008.60619436,5375547.8771552,37.865656565657,0,0
0.030007763478671,-0.02528900120217,33.113131313131,3477573.0156753,670597.94926844,5266839.03755,38.313131313131,0,0
0.030005433192227,-0.025131016437746,33.560606060606,5665471.2666762,404011.65546125,5059871.4254851,38.760606060606,0,0
0.029998784126281,-0.024963323120028,34.008080808081,3756972.4034561,615797.05336016,4994573.911545,39.208080808081,0,0
0.029991627598402,-0.024789149690924,34.455555555556,6381648.2757303,288303.89743638,4752026.5645819,39.655555555556,0,0
0.029992031705393,-0.024598963135258,34.90303030303,4245677.7526039,631949.69218756,4714060.7668286,40.10303030303,0,0
0.029984563858739,-0.024402328497841,35.350505050505,4245677.7526039,631949.69218756,4714060.7668286,40.550505050505,0,0
0.029987517118474,-0.024187716156371,35.79797979798,5007809.6693754,734977.18349769,4479923.7421984,40.99797979798,0,0
0.029986527991453,-0.023959989630193,36.245454545455,4694071.9754144,112187.05176695,4355665.173882,41.445454545455,0,0
0.029981098506409,-0.023719157726313,36.692929292929,5625702.8023052,-2539.4710983867,4048871.2722697,41.892929292929,0,0
0.029986552742584,-0.023451875125002,37.140404040404,5625702.8023052,-2539.4710983867,4048871.2722697,42.340404040404,0,0
0.02997986384479,-0.023174550447556,37.587878787879,1060349.6728865,761348.24874516,3939850.2415307,42.787878787879,0,0
0.029985116586751,-0.022860987048874,38.035353535354,7044956.9613809,-94911.579539358,3742493.1175622,43.235353535354,0,0
0.029990517865466,-0.02253097668679,38.482828282828,1331072.9899155,997528.36576363,3749989.5158055,43.682828282828,0,0
0.029978154332913,-0.022163779540972,38.930303030303,9291112.1972682,-117651.59020872,3424838.9278367,44.130303030303,0,0
0.030002950986975,-0.021762789254067,39.377777777778,2101262.9145015,1533874.3072622,3725594.5170439,44.577777777778,0,0
0.029980841308716,-0.021315774120401,39.825252525253,2101262.9145015,1533874.3072622,3725594.5170439,45.025252525253,0,0
0.030015377896594,-0.02082506498892,40.272727272727,4156723.8110353,2841111.5984653,4190143.4432463,45.472727272727,0,0
0.030008601311023,-0.020248332121596,40.720202020202,4156723.8110353,2841111.5984653,4190143.4432463,45.920202020202,0,0
0.030026419603773,-0.019644980122781,41.167676767677,9894744.3623121,6514283.048147,6283240.794285,46.367676767677,0,0
0.030055282345211,-0.018852408489346,41.615151515152,6010538.3127098,846632.00664133,1821062.7753474,46.815151515152,0,0
0.030069832137655,-0.018062943401966,42.062626262626,6010538.3127098,846632.00664133,1821062.7753473,47.262626262626,0,0
0.030062883836186,-0.016920174347611,42.510101010101,14840038.077349,93339.395410119,-1210487.9940096,47.710101010101,0,0
0.030156817504516,-0.015728043258295,42.957575757576,14840038.077349,93339.395410119,-1210487.9940096,48.157575757576,0,0
0.02984762724809,-0.013873281287458,43.405050505051,34530816.826513,5790994.9058235,-12884686.873557,48.605050505051,0,0
0.030131809041064,-0.011637661381131,43.852525252525,34530816.826513,5790994.9058235,-12884686.873557,49.052525252525,0,0
0.030122969819522,-0.0065559999478004,44.3,-2002670.1082187,172995201.30321,16557675.274155,49.5,0,0
