disp_x,disp_y,id,stress_xx,stress_xy,stress_yy,x,y,z
-0.00035762836264922,0.017960866257346,0,-2390.6977663431,-696864.12049668,3080417.0825304,5.2,0,0
-0.00036956171058102,0.017899244248191,0.44747474747475,-2390.6977663431,-696864.12049668,3080417.0825304,5.6474747474747,0,0
-0.00037803455414657,0.017828483716498,0.8949494949495,755751.31529861,-1313629.3223122,3602157.8261522,6.0949494949495,0,0
-0.00038239572009542,0.017748454734049,1.3424242424242,1004181.2113472,-1535211.275655,3078634.7164909,6.5424242424242,0,0
-0.00038727751933398,0.017665410901373,1.789898989899,1196427.9241164,-1753030.4984485,2795476.0936367,6.989898989899,0,0
-0.00038891577536628,0.017576372552377,2.2373737373737,1054850.4243047,-1784329.789083,2816948.1935961,7.4373737373737,0,0
-0.00039135200630714,0.01748596052823,2.6848484848485,1251796.4981714,-1807595.5494236,2590396.7624785,7.8848484848485,0,0
-0.00039158291081157,0.017391956337354,3.1323232323232,1355977.7579451,-1949624.0740767,2685915.9318955,8.3323232323232,0,0
-0.00039162235511555,0.017296382601837,3.579797979798,1101908.0942959,-1763370.1581069,2468841.134474,8.779797979798,0,0
-0.00039198804611015,0.017198987723625,4.0272727272727,1386820.7602082,-1852345.0723652,2447819.9594472,9.2272727272727,0,0
-0.00039101284610359,0.017099831857035,4.4747474747475,1386820.7602082,-1852345.0723652,2447819.9594472,9.6747474747475,0,0
-0.00039026038781147,0.016999523222035,4.9222222222222,1355356.6768274,-1926107.3075819,2471247.0565218,10.122222222222,0,0
-0.00038897884770503,0.016898468020409,5.369696969697,1555643.4331687,-1862015.7549663,2429645.4482575,10.569696969697,0,0
-0.00038705915531513,0.016796009001134,5.8171717171717,1480113.7708889,-1914677.9152309,2429832.0826226,11.017171717172,0,0
-0.00038578985290619,0.01669319540233,6.2646464646465,1389129.2433954,-1828288.8014747,2430156.4763082,11.464646464646,0,0
-0.00038472811739331,0.016589582118441,6.7121212121212,1490180.9316847,-1800411.7330357,2424195.9431841,11.912121212121,0,0
-0.00038285553547206,0.016485582362012,7.159595959596,1490180.9316847,-1800411.7330357,2424195.9431841,12.359595959596,0,0
-0.00038149925901122,0.016380943922985,7.6070707070707,1412483.9520593,-1830251.0385724,2413099.0520595,12.807070707071,0,0
-0.00037989454763214,0.016276168902326,8.0545454545455,1576044.5350103,-1765946.755195,2446544.9552447,13.254545454545,0,0
-0.00037823624473882,0.016170651283886,8.5020202020202,1427853.2621758,-1736144.4525943,2484434.2063499,13.70202020202,0,0
-0.00037702847817887,0.016064910253162,8.949494949495,1427853.2621758,-1736144.4525943,2484434.2063499,14.149494949495,0,0
-0.00037622388469299,0.015958794969904,9.3969696969697,1486106.4841283,-1688512.1553568,2504558.2932297,14.59696969697,0,0
-0.00037460027969162,0.01585262581337,9.8444444444444,1486106.4841283,-1688512.1553568,2504558.2932297,15.044444444444,0,0
-0.00037367287380132,0.015746109833117,10.291919191919,1391263.3193463,-1699184.3658981,2480296.7445956,15.491919191919,0,0
-0.00037259253484729,0.015639579591611,10.739393939394,1429370.7395671,-1645654.3407303,2494821.0175028,15.939393939394,0,0
-0.00037170816915534,0.015532630817883,11.186868686869,1410137.9546689,-1610831.9270159,2580971.6772806,16.386868686869,0,0
-0.0003709816752254,0.015425616451264,11.634343434343,1306717.9036971,-1608673.2322102,2548104.5804227,16.834343434343,0,0
-0.00037076440019684,0.0153185437088,12.081818181818,1440801.2094143,-1552747.564598,2602800.1006025,17.281818181818,0,0
-0.00036988239282032,0.015211530122197,12.529292929293,1343550.17206,-1546205.2564523,2569866.2612014,17.729292929293,0,0
-0.00036958447721622,0.015104537592819,12.976767676768,1343550.17206,-1546205.2564523,2569866.2612014,18.176767676768,0,0
-0.00036941150669842,0.014997457079981,13.424242424242,1364867.8979664,-1459382.4315918,2666892.0472236,18.624242424242,0,0
-0.00036920252833621,0.014890215782343,13.871717171717,1364867.8979664,-1459382.4315918,2666892.0472236,19.071717171717,0,0
-0.00036917022527051,0.014782998462065,14.319191919192,1273111.7945791,-1450219.0530675,2634481.4231616,19.519191919192,0,0
-0.00036949238234771,0.014675839274066,14.766666666667,1405467.9240564,-1397925.905938,2670797.0946923,19.966666666667,0,0
-0.00036919393571231,0.014568672293229,15.214141414141,1309634.4069257,-1387464.309717,2636547.7377386,20.414141414141,0,0
-0.00036934895053004,0.014461580186054,15.661616161616,1309634.4069257,-1387464.309717,2636547.7377386,20.861616161616,0,0
-0.00036986043067426,0.014354375936564,16.109090909091,1324802.2442532,-1288847.7274081,2731715.7503302,21.309090909091,0,0
-0.00037014900083976,0.014247261775092,16.556565656566,1324802.2442532,-1288847.7274081,2731715.7503302,21.756565656566,0,0
-0.00037075862145004,0.014140153485484,17.00404040404,1219674.1231062,-1282665.3744596,2696402.7455592,22.20404040404,0,0
-0.00037142438987793,0.014033022061706,17.451515151515,1362582.0154589,-1231659.8174492,2731916.6778603,22.651515151515,0,0
-0.00037173746273598,0.013925944563109,17.89898989899,1256172.7789921,-1213797.5004795,2690899.5823192,23.09898989899,0,0
-0.00037246993706877,0.01381900762924,18.346464646465,1256172.7789921,-1213797.5004795,2690899.5823192,23.546464646465,0,0
-0.00037326498973843,0.013711907663593,18.793939393939,1274004.9749018,-1112617.712534,2712078.6515854,23.993939393939,0,0
-0.00037391055738004,0.013604640348736,19.241414141414,1274004.9749018,-1112617.712534,2712078.6515854,24.441414141414,0,0
-0.00037491505356183,0.013497411047213,19.688888888889,1180481.1254091,-1104133.9930671,2679435.0142189,24.888888888889,0,0
-0.00037574360190868,0.013390078429252,20.136363636364,1333138.4577292,-1050212.6472478,2677827.0444244,25.336363636364,0,0
-0.00037618782528629,0.013282618876843,20.583838383838,1245323.4531576,-1038796.3477409,2645628.2472376,25.783838383838,0,0
-0.00037695145794138,0.013175183934896,21.031313131313,1212569.6374466,-995711.30231711,2708114.7701242,26.231313131313,0,0
-0.00037809818907085,0.013067504012115,21.478787878788,1267579.5347053,-926880.88393705,2666278.5988942,26.678787878788,0,0
-0.0003786724303884,0.012959624997936,21.926262626263,1267579.5347053,-926880.88393705,2666278.5988942,27.126262626263,0,0
-0.00037969573417136,0.012851729332555,22.373737373737,1177529.1592469,-923078.26792696,2636748.087055,27.573737373737,0,0
-0.00038045703514584,0.012743660317221,22.821212121212,1343519.6197459,-867340.4380783,2615916.3980593,28.021212121212,0,0
-0.00038081357979222,0.012635234936527,23.268686868687,1243949.1896853,-863080.69668524,2583243.3725785,28.468686868687,0,0
-0.00038172138857537,0.012526697038007,23.716161616162,1188157.024873,-803823.16000773,2615930.8028892,28.916161616162,0,0
-0.00038290436345506,0.012417766595368,24.163636363636,1280933.9064847,-742500.66060214,2556240.6660139,29.363636363636,0,0
-0.00038307496036968,0.012308351767423,24.611111111111,1280933.9064847,-742500.66060214,2556240.6660139,29.811111111111,0,0
-0.00038402041321846,0.012198780224274,25.058585858586,1153872.6240975,-744019.70641282,2517740.1598018,30.258585858586,0,0
-0.00038442655704772,0.012088909735672,25.506060606061,1369636.7917518,-677481.76437993,2485084.2455189,30.706060606061,0,0
-0.00038444588883216,0.011978198839989,25.953535353535,1251995.3167263,-691456.34078242,2455536.4146958,31.153535353535,0,0
-0.00038507071190704,0.011867338740299,26.40101010101,1183018.4299434,-612578.45440713,2473628.8197351,31.60101010101,0,0
-0.00038581564719292,0.01175550109101,26.848484848485,1291103.5439806,-553356.88924805,2406045.6788659,32.048484848485,0,0
-0.00038550030401224,0.011643156611561,27.29595959596,1291103.5439806,-553356.88924805,2406045.6788659,32.49595959596,0,0
-0.00038624220951681,0.011530089219315,27.743434343434,1139099.1979808,-580728.96413905,2371087.6673951,32.943434343434,0,0
-0.00038607483338484,0.011416538205,28.190909090909,1402479.7028063,-497680.11055845,2306663.3021271,33.390909090909,0,0
-0.00038549465039307,0.011301280949301,28.638383838384,1189381.9278987,-436071.66548412,2286664.6540681,33.838383838384,0,0
-0.00038571590945037,0.011185894093273,29.085858585859,1016948.9426268,-490624.44072383,2257810.8112005,34.285858585859,0,0
-0.00038609217117852,0.011068699527623,29.533333333333,1348870.9254555,-383292.82681958,2194024.4185729,34.733333333333,0,0
-0.0003848314447944,0.010950678600885,29.980808080808,1190070.0266653,-452560.21108292,2175929.9845853,35.180808080808,0,0
-0.00038471236892594,0.010831087953568,30.428282828283,1190070.0266653,-452560.21108292,2175929.9845853,35.628282828283,0,0
-0.00038363226304732,0.01071074805167,30.875757575758,1409637.2295618,-435967.98239148,2084214.8302438,36.075757575758,0,0
-0.00038239925261677,0.01058748832641,31.323232323232,1242155.8139798,-281350.08604553,2062834.2805971,36.523232323232,0,0
-0.00038185329152504,0.010463768301428,31.770707070707,1006857.8982218,-390045.58591944,2038899.5597113,36.970707070707,0,0
-0.00038160002310951,0.010337339206113,32.218181818182,1479675.9655707,-236264.07427646,1954324.0697166,37.418181818182,0,0
-0.0003789203970714,0.010209126536617,32.665656565657,1253226.0668888,-373773.33450482,1946004.5176219,37.865656565657,0,0
-0.00037767350846424,0.010078326809949,33.113131313131,1253226.0668888,-373773.33450482,1946004.5176219,38.313131313131,0,0
-0.00037605314558333,0.0099460085718221,33.560606060606,1330699.1788618,-139302.88612732,1814944.6018192,38.760606060606,0,0
-0.00037382880633689,0.0098092247393358,34.008080808081,1330699.1788618,-139302.88612732,1814944.6018192,39.208080808081,0,0
-0.00037244853160896,0.0096709717957309,34.455555555556,967278.83146256,-350367.7268724,1797043.6689675,39.655555555556,0,0
-0.00037172917463184,0.0095286695675758,34.90303030303,1696750.5825414,-106869.25046669,1705480.0411993,40.10303030303,0,0
-0.00036711778822824,0.0093825501945283,35.350505050505,1387607.7940107,-377291.16513734,1730793.8820957,40.550505050505,0,0
-0.00036420804737942,0.0092322846499176,35.79797979798,1387607.7940107,-377291.16513734,1730793.8820957,40.99797979798,0,0
-0.00036340804336806,0.0090784083965375,36.245454545455,1509101.5668286,-13569.46853712,1557998.1454645,41.445454545455,0,0
-0.00035905348332123,0.008917303200116,36.692929292929,1509101.5668286,-13569.46853712,1557998.1454645,41.892929292929,0,0
-0.00035681065775991,0.0087519630513376,37.140404040404,888865.21891551,-441335.43519299,1557740.1989089,42.340404040404,0,0
-0.00035597750367329,0.0085803203385943,37.587878787879,2158282.8876417,-9152.4022136848,1436961.0983574,42.787878787879,0,0
-0.00034790752823776,0.0083994195373661,38.035353535354,1705423.6381638,-596586.88115394,1559979.7514205,43.235353535354,0,0
-0.00034326893427236,0.0082113150326796,38.482828282828,1028012.4628403,18054.310744988,1425265.9958981,43.682828282828,0,0
-0.00034626865539775,0.008013687405053,38.930303030303,1919500.9329675,70890.26206451,1292466.4978245,44.130303030303,0,0
-0.00033788916286802,0.0078025242824791,39.377777777778,1919500.9329675,70890.26206451,1292466.4978245,44.577777777778,0,0
-0.00033511920230908,0.0075778709271259,39.825252525253,679869.52253834,-996236.28403493,1386638.6507364,45.025252525253,0,0
-0.00033617411340578,0.0073417643619483,40.272727272727,3395716.7553204,-79054.03736591,1106690.6153095,45.472727272727,0,0
-0.00031900541920532,0.0070767422511547,40.720202020202,2817476.1948753,-1718687.9982797,1660855.6230681,45.920202020202,0,0
-0.00031462773373449,0.0067964530903168,41.167676767677,990352.8046608,-34018.068962078,1191765.0565886,46.367676767677,0,0
-0.00033230985808519,0.006478314394363,41.615151515152,3225630.1721776,-214059.21001774,984953.96443175,46.815151515152,0,0
-0.0003125662811343,0.006126387375846,42.062626262626,3225630.1721776,-214059.21001774,984953.96443175,47.262626262626,0,0
-0.0003052180835578,0.0056973643653927,42.510101010101,1416863.114315,-5024875.7937738,1861166.1981849,47.710101010101,0,0
-0.00030242291763701,0.0052400226983489,42.957575757576,1416863.114315,-5024875.7937738,1861166.1981849,48.157575757576,0,0
-0.00030242674618427,0.0045413150439597,43.405050505051,1324550.7788385,-1116385.7030825,680946.20756355,48.605050505051,0,0
-0.00029720251580884,0.0037823585497181,43.852525252525,1324550.7788385,-1116385.7030825,680946.20756355,49.052525252525,0,0
-0.00029400333306287,0.0021081193949067,44.3,1348098.4886775,-53534702.812601,1679401.1070207,49.5,0,0
