disp_x,disp_y,id,stress_xx,stress_xy,stress_yy,x,y,z
86.695200085041,-8.0274631177284,0,257944.15057135,-32857.840660654,5454171.6908443,5.2,0,0
86.695200060271,-8.029516251816,0.0044304430443045,257944.15057135,-32857.840660654,5454171.6908443,5.2044304430443,0,0
86.6952000355,-8.0315693859037,0.008860886088609,257944.15057135,-32857.840660654,5454171.6908443,5.2088608860886,0,0
86.69520001073,-8.0336225199913,0.013291329132914,257944.15057135,-32857.840660654,5454171.6908443,5.2132913291329,0,0
86.695199985959,-8.035675654079,0.017721772177218,257944.15057135,-32857.840660654,5454171.6908443,5.2177217721772,0,0
86.695199963026,-8.0377287778138,0.022152215221523,233624.54713947,26349.944214417,5281616.1181011,5.2221522152215,0,0
86.695199940907,-8.0397818969589,0.026582658265826,233624.54713947,26349.944214417,5281616.1181011,5.2265826582658,0,0
86.695199918788,-8.0418350161041,0.031013101310131,233624.54713947,26349.944214417,5281616.1181011,5.2310131013101,0,0
86.69519989667,-8.0438881352492,0.035443544354435,233624.54713947,26349.944214417,5281616.1181011,5.2354435443544,0,0
86.695199874551,-8.0459412543944,0.03987398739874,233624.54713947,26349.944214417,5281616.1181011,5.2398739873987,0,0
86.695199852432,-8.0479943735396,0.044304430443044,233624.54713947,26349.944214417,5281616.1181011,5.244304430443,0,0
86.695199830313,-8.0500474926847,0.048734873487349,233624.54713947,26349.944214417,5281616.1181011,5.2487348734873,0,0
86.695199808195,-8.0521006118299,0.053165316531653,233624.54713947,26349.944214417,5281616.1181011,5.2531653165317,0,0
86.695199786076,-8.054153730975,0.057595759575958,233624.54713947,26349.944214417,5281616.1181011,5.257595759576,0,0
86.695199763957,-8.0562068501202,0.062026202620262,233624.54713947,26349.944214417,5281616.1181011,5.2620262026203,0,0
86.695199741839,-8.0582599692654,0.066456645664567,233624.54713947,26349.944214417,5281616.1181011,5.2664566456646,0,0
86.69519971972,-8.0603130884105,0.070887088708871,233624.54713947,26349.944214417,5281616.1181011,5.2708870887089,0,0
86.695199697601,-8.0623662075557,0.075317531753175,233624.54713947,26349.944214417,5281616.1181011,5.2753175317532,0,0
86.695199675482,-8.0644193267008,0.079747974797479,233624.54713947,26349.944214417,5281616.1181011,5.2797479747975,0,0
86.695199653364,-8.066472445846,0.084178417841784,233624.54713947,26349.944214417,5281616.1181011,5.2841784178418,0,0
86.695199631245,-8.0685255649911,0.088608860886088,233624.54713947,26349.944214417,5281616.1181011,5.2886088608861,0,0
86.695199610082,-8.0705786853918,0.093039303930393,358197.78161795,-19276.457903743,5249428.1993472,5.2930393039304,0,0
86.69519959877,-8.0726318187367,0.097469746974697,358197.78161795,-19276.457903743,5249428.1993472,5.2974697469747,0,0
86.695199587459,-8.0746849520816,0.101900190019,358197.78161795,-19276.457903743,5249428.1993472,5.301900190019,0,0
86.695199576148,-8.0767380854265,0.10633063306331,358197.78161795,-19276.457903743,5249428.1993472,5.3063306330633,0,0
86.695199564836,-8.0787912187714,0.11076107610761,358197.78161795,-19276.457903743,5249428.1993472,5.3107610761076,0,0
86.695199553525,-8.0808443521163,0.11519151915192,358197.78161795,-19276.457903743,5249428.1993472,5.3151915191519,0,0
86.695199542214,-8.0828974854612,0.11962196219622,358197.78161795,-19276.457903743,5249428.1993472,5.3196219621962,0,0
86.695199530902,-8.0849506188061,0.12405240524052,358197.78161795,-19276.457903743,5249428.1993472,5.3240524052405,0,0
86.695199519591,-8.087003752151,0.12848284828483,358197.78161795,-19276.457903743,5249428.1993472,5.3284828482848,0,0
86.69519950828,-8.0890568854959,0.13291329132913,358197.78161795,-19276.457903743,5249428.1993472,5.3329132913291,0,0
86.695199496968,-8.0911100188408,0.13734373437344,358197.78161795,-19276.457903743,5249428.1993472,5.3373437343734,0,0
86.695199485657,-8.0931631521857,0.14177417741774,358197.78161795,-19276.457903743,5249428.1993472,5.3417741774177,0,0
86.695199474346,-8.0952162855305,0.14620462046205,358197.78161795,-19276.457903743,5249428.1993472,5.346204620462,0,0
86.695199463034,-8.0972694188754,0.15063506350635,358197.78161795,-19276.457903743,5249428.1993472,5.3506350635064,0,0
86.695199451723,-8.0993225522203,0.15506550655066,358197.78161795,-19276.457903743,5249428.1993472,5.3550655065507,0,0
86.695199440412,-8.1013756855652,0.15949594959496,358197.78161795,-19276.457903743,5249428.1993472,5.359495949595,0,0
86.6951994291,-8.1034288189101,0.16392639263926,358197.78161795,-19276.457903743,5249428.1993472,5.3639263926393,0,0
86.695199417789,-8.105481952255,0.16835683568357,358197.78161795,-19276.457903743,5249428.1993472,5.3683568356836,0,0
86.695199406478,-8.1075350855999,0.17278727872787,358197.78161795,-19276.457903743,5249428.1993472,5.3727872787279,0,0
86.695199395166,-8.1095882189448,0.17721772177218,358197.78161795,-19276.457903743,5249428.1993472,5.3772177217722,0,0
86.695199383855,-8.1116413522897,0.18164816481648,358197.78161795,-19276.457903743,5249428.1993472,5.3816481648165,0,0
86.695199374098,-8.1136944794915,0.18607860786079,360411.97374288,46789.127331976,5092018.3420385,5.3860786078608,0,0
86.695199367154,-8.1157475955689,0.19050905090509,360411.97374288,46789.127331976,5092018.3420385,5.3905090509051,0,0
86.695199360211,-8.1178007116463,0.19493949394939,360411.97374288,46789.127331976,5092018.3420385,5.3949394939494,0,0
86.695199353267,-8.1198538277237,0.1993699369937,360411.97374288,46789.127331976,5092018.3420385,5.3993699369937,0,0
86.695199346324,-8.1219069438011,0.203800380038,360411.97374288,46789.127331976,5092018.3420385,5.403800380038,0,0
86.695199339381,-8.1239600598785,0.20823082308231,360411.97374288,46789.127331976,5092018.3420385,5.4082308230823,0,0
86.695199332437,-8.1260131759558,0.21266126612661,360411.97374288,46789.127331976,5092018.3420385,5.4126612661266,0,0
86.695199325494,-8.1280662920332,0.21709170917092,360411.97374288,46789.127331976,5092018.3420385,5.4170917091709,0,0
86.69519931855,-8.1301194081106,0.22152215221522,360411.97374288,46789.127331976,5092018.3420385,5.4215221522152,0,0
86.695199311607,-8.132172524188,0.22595259525953,360411.97374288,46789.127331976,5092018.3420385,5.4259525952595,0,0
86.695199304664,-8.1342256402654,0.23038303830383,360411.97374288,46789.127331976,5092018.3420385,5.4303830383038,0,0
86.695199300631,-8.1362787604104,0.23481348134813,478848.33603121,-1890.1444289555,5062153.666388,5.4348134813481,0,0
86.695199303943,-8.1383318908199,0.23924392439244,478848.33603121,-1890.1444289555,5062153.666388,5.4392439243924,0,0
86.695199307255,-8.1403850212294,0.24367436743674,478848.33603121,-1890.1444289555,5062153.666388,5.4436743674367,0,0
86.695199310567,-8.1424381516389,0.24810481048105,478848.33603121,-1890.1444289555,5062153.666388,5.448104810481,0,0
86.695199313879,-8.1444912820484,0.25253525352535,478848.33603121,-1890.1444289555,5062153.666388,5.4525352535254,0,0
86.69519931719,-8.1465444124579,0.25696569656966,478848.33603121,-1890.1444289555,5062153.666388,5.4569656965697,0,0
86.695199320502,-8.1485975428674,0.26139613961396,478848.33603121,-1890.1444289555,5062153.666388,5.461396139614,0,0
86.695199323814,-8.150650673277,0.26582658265827,478848.33603121,-1890.1444289555,5062153.666388,5.4658265826583,0,0
86.695199327126,-8.1527038036865,0.27025702570257,478848.33603121,-1890.1444289555,5062153.666388,5.4702570257026,0,0
86.695199330438,-8.154756934096,0.27468746874687,478848.33603121,-1890.1444289555,5062153.666388,5.4746874687469,0,0
86.69519933375,-8.1568100645055,0.27911791179118,478848.33603121,-1890.1444289555,5062153.666388,5.4791179117912,0,0
86.695199337062,-8.158863194915,0.28354835483548,478848.33603121,-1890.1444289555,5062153.666388,5.4835483548355,0,0
86.695199340374,-8.1609163253245,0.28797879787979,478848.33603121,-1890.1444289555,5062153.666388,5.4879787978798,0,0
86.695199343686,-8.162969455734,0.29240924092409,478848.33603121,-1890.1444289555,5062153.666388,5.4924092409241,0,0
86.695199346998,-8.1650225861435,0.2968396839684,478848.33603121,-1890.1444289555,5062153.666388,5.4968396839684,0,0
86.69519935031,-8.167075716553,0.3012701270127,478848.33603121,-1890.1444289555,5062153.666388,5.5012701270127,0,0
86.695199353622,-8.1691288469625,0.30570057005701,478848.33603121,-1890.1444289555,5062153.666388,5.505700570057,0,0
86.695199356934,-8.171181977372,0.31013101310131,478848.33603121,-1890.1444289555,5062153.666388,5.5101310131013,0,0
86.695199360246,-8.1732351077815,0.31456145614561,478848.33603121,-1890.1444289555,5062153.666388,5.5145614561456,0,0
86.695199363558,-8.175288238191,0.31899189918992,478848.33603121,-1890.1444289555,5062153.666388,5.5189918991899,0,0
86.69519936687,-8.1773413686005,0.32342234223422,478848.33603121,-1890.1444289555,5062153.666388,5.5234223422342,0,0
86.695199370182,-8.17939449901,0.32785278527853,478848.33603121,-1890.1444289555,5062153.666388,5.5278527852785,0,0
86.695199373494,-8.1814476294195,0.33228322832283,478848.33603121,-1890.1444289555,5062153.666388,5.5322832283228,0,0
86.695199376806,-8.183500759829,0.33671367136714,478848.33603121,-1890.1444289555,5062153.666388,5.5367136713671,0,0
86.695199380118,-8.1855538902385,0.34114411441144,478848.3360312,-1890.1444289555,5062153.666388,5.5411441144114,0,0
86.69519938343,-8.187607020648,0.34557455745575,478848.3360312,-1890.1444289555,5062153.666388,5.5455745574557,0,0
86.695199386741,-8.1896601510575,0.35000500050005,478848.3360312,-1890.1444289555,5062153.666388,5.5500050005001,0,0
86.69519939198,-8.1917132752356,0.35443544354435,491688.8531352,54531.208461412,4918806.7579689,5.5544354435444,0,0
86.695199400134,-8.1937663899818,0.35886588658866,491688.8531352,54531.208461412,4918806.7579689,5.5588658865887,0,0
86.695199408288,-8.195819504728,0.36329632963296,491688.8531352,54531.208461412,4918806.7579689,5.563296329633,0,0
86.695199416443,-8.1978726194742,0.36772677267727,491688.8531352,54531.208461412,4918806.7579689,5.5677267726773,0,0
86.695199424597,-8.1999257342204,0.37215721572157,491688.8531352,54531.208461412,4918806.7579689,5.5721572157216,0,0
86.695199432751,-8.2019788489666,0.37658765876588,491688.8531352,54531.208461412,4918806.7579689,5.5765876587659,0,0
86.695199440905,-8.2040319637128,0.38101810181018,491688.8531352,54531.208461412,4918806.7579689,5.5810181018102,0,0
86.695199450474,-8.206085080471,0.38544854485449,597435.21355358,9697.0128811335,4892017.2126554,5.5854485448545,0,0
86.695199467788,-8.2081382082498,0.38987898789879,597435.21355358,9697.0128811335,4892017.2126554,5.5898789878988,0,0
86.695199485102,-8.2101913360287,0.39430943094309,597435.21355358,9697.0128811335,4892017.2126554,5.5943094309431,0,0
86.695199502416,-8.2122444638075,0.3987398739874,597435.21355358,9697.0128811335,4892017.2126554,5.5987398739874,0,0
86.69519951973,-8.2142975915863,0.4031703170317,597435.21355358,9697.0128811335,4892017.2126554,5.6031703170317,0,0
86.695199537044,-8.2163507193651,0.40760076007601,597435.21355358,9697.0128811335,4892017.2126554,5.607600760076,0,0
86.695199554358,-8.2184038471439,0.41203120312031,597435.21355358,9697.0128811335,4892017.2126554,5.6120312031203,0,0
86.695199571672,-8.2204569749227,0.41646164616462,597435.21355358,9697.0128811335,4892017.2126554,5.6164616461646,0,0
86.695199588986,-8.2225101027015,0.42089208920892,597435.21355358,9697.0128811335,4892017.2126554,5.6208920892089,0,0
86.695199606301,-8.2245632304803,0.42532253225323,597435.21355358,9697.0128811335,4892017.2126554,5.6253225322532,0,0
86.695199623615,-8.2266163582592,0.42975297529753,597435.21355358,9697.0128811335,4892017.2126554,5.6297529752975,0,0
86.695199640929,-8.228669486038,0.43418341834183,597435.21355358,9697.0128811335,4892017.2126554,5.6341834183418,0,0
86.695199658243,-8.2307226138168,0.43861386138614,597435.21355358,9697.0128811335,4892017.2126554,5.6386138613861,0,0
86.695199675557,-8.2327757415956,0.44304430443044,597435.21355358,9697.0128811335,4892017.2126554,5.6430443044304,0,0
86.695199692871,-8.2348288693744,0.44747474747475,597435.21355358,9697.0128811335,4892017.2126554,5.6474747474747,0,0
86.695199710185,-8.2368819971532,0.45190519051905,597435.21355358,9697.0128811335,4892017.2126554,5.6519051905191,0,0
86.695199727499,-8.238935124932,0.45633563356336,597435.21355358,9697.0128811335,4892017.2126554,5.6563356335634,0,0
86.695199744813,-8.2409882527109,0.46076607660766,597435.21355358,9697.0128811335,4892017.2126554,5.6607660766077,0,0
86.695199762127,-8.2430413804897,0.46519651965196,597435.21355358,9697.0128811335,4892017.2126554,5.665196519652,0,0
86.695199779442,-8.2450945082685,0.46962696269627,597435.21355358,9697.0128811335,4892017.2126554,5.6696269626963,0,0
86.695199796756,-8.2471476360473,0.47405740574057,597435.21355358,9697.0128811335,4892017.2126554,5.6740574057406,0,0
86.69519981407,-8.2492007638261,0.47848784878488,597435.21355358,9697.0128811335,4892017.2126554,5.6784878487849,0,0
86.695199831384,-8.2512538916049,0.48291829182918,597435.21355358,9697.0128811335,4892017.2126554,5.6829182918292,0,0
86.695199848698,-8.2533070193837,0.48734873487349,597435.21355358,9697.0128811335,4892017.2126554,5.6873487348735,0,0
86.695199866012,-8.2553601471625,0.49177917791779,597435.21355358,9697.0128811335,4892017.2126554,5.6917791779178,0,0
86.695199883326,-8.2574132749414,0.4962096209621,597435.21355358,9697.0128811335,4892017.2126554,5.6962096209621,0,0
86.69519990064,-8.2594664027202,0.5006400640064,597435.21355358,9697.0128811335,4892017.2126554,5.7006400640064,0,0
86.695199917954,-8.261519530499,0.50507050705071,597435.21355358,9697.0128811335,4892017.2126554,5.7050705070507,0,0
86.695199935268,-8.2635726582778,0.50950095009501,597435.21355358,9697.0128811335,4892017.2126555,5.709500950095,0,0
86.695199952583,-8.2656257860566,0.51393139313931,597435.21355358,9697.0128811335,4892017.2126555,5.7139313931393,0,0
86.695199969897,-8.2676789138354,0.51836183618362,597435.21355358,9697.0128811335,4892017.2126555,5.7183618361836,0,0
86.695199987211,-8.2697320416142,0.52279227922792,597435.21355358,9697.0128811335,4892017.2126555,5.7227922792279,0,0
86.695200004525,-8.2717851693931,0.52722272227223,597435.21355358,9697.0128811335,4892017.2126555,5.7272227222722,0,0
86.695200021839,-8.2738382971719,0.53165316531653,597435.21355358,9697.0128811335,4892017.2126555,5.7316531653165,0,0
86.695200042258,-8.2758914152339,0.53608360836084,607480.29540719,59422.387410564,4750754.5807957,5.7360836083608,0,0
86.695200064135,-8.2779445287303,0.54051405140514,607480.29540719,59422.387410564,4750754.5807957,5.7405140514051,0,0
86.695200092728,-8.2799976519717,0.54494449444945,700276.56640377,19522.734912698,4716949.5636081,5.7449444944494,0,0
86.695200122918,-8.2820507775303,0.54937493749375,700276.56640377,19522.734912698,4716949.5636081,5.7493749374937,0,0
86.695200153108,-8.2841039030888,0.55380538053805,700276.56640377,19522.734912698,4716949.5636081,5.7538053805381,0,0
86.695200183298,-8.2861570286474,0.55823582358236,700276.56640377,19522.734912698,4716949.5636081,5.7582358235824,0,0
86.695200213488,-8.2882101542059,0.56266626662666,700276.56640377,19522.734912698,4716949.5636081,5.7626662666267,0,0
86.695200243678,-8.2902632797645,0.56709670967097,700276.56640377,19522.734912698,4716949.5636081,5.767096709671,0,0
86.695200273868,-8.292316405323,0.57152715271527,700276.56640377,19522.734912698,4716949.5636081,5.7715271527153,0,0
86.695200304057,-8.2943695308816,0.57595759575958,700276.56640377,19522.734912698,4716949.5636081,5.7759575957596,0,0
86.695200334247,-8.2964226564401,0.58038803880388,700276.56640377,19522.734912698,4716949.5636081,5.7803880388039,0,0
86.695200364437,-8.2984757819987,0.58481848184818,700276.56640377,19522.734912698,4716949.5636081,5.7848184818482,0,0
86.695200394627,-8.3005289075572,0.58924892489249,700276.56640377,19522.734912698,4716949.5636081,5.7892489248925,0,0
86.695200424817,-8.3025820331158,0.59367936793679,700276.56640377,19522.734912698,4716949.5636081,5.7936793679368,0,0
86.69520045458,-8.3046351591409,0.5981098109811,651925.53557381,-18211.187746147,4603179.8699755,5.7981098109811,0,0
86.695200483937,-8.3066882856112,0.6025402540254,651925.53557381,-18211.187746147,4603179.8699755,5.8025402540254,0,0
86.695200513294,-8.3087414120815,0.60697069706971,651925.53557381,-18211.187746147,4603179.8699755,5.8069706970697,0,0
86.695200542651,-8.3107945385518,0.61140114011401,651925.53557381,-18211.187746147,4603179.8699755,5.811401140114,0,0
86.695200572008,-8.3128476650222,0.61583158315832,651925.53557381,-18211.187746147,4603179.8699755,5.8158315831583,0,0
86.695200601365,-8.3149007914925,0.62026202620262,651925.53557381,-18211.187746147,4603179.8699755,5.8202620262026,0,0
86.695200630722,-8.3169539179628,0.62469246924692,651925.53557381,-18211.187746147,4603179.8699755,5.8246924692469,0,0
86.695200660079,-8.3190070444331,0.62912291229123,651925.53557381,-18211.187746147,4603179.8699755,5.8291229122912,0,0
86.695200689436,-8.3210601709034,0.63355335533553,651925.53557381,-18211.187746147,4603179.8699755,5.8335533553355,0,0
86.695200718793,-8.3231132973737,0.63798379837984,651925.53557381,-18211.187746147,4603179.8699755,5.8379837983798,0,0
86.69520074815,-8.325166423844,0.64241424142414,651925.53557381,-18211.187746147,4603179.8699755,5.8424142414241,0,0
86.695200777507,-8.3272195503144,0.64684468446845,651925.53557381,-18211.187746147,4603179.8699755,5.8468446844684,0,0
86.695200806864,-8.3292726767847,0.65127512751275,651925.53557381,-18211.187746147,4603179.8699755,5.8512751275128,0,0
86.69520083622,-8.331325803255,0.65570557055706,651925.53557381,-18211.187746147,4603179.8699755,5.8557055705571,0,0
86.695200865577,-8.3333789297253,0.66013601360136,651925.53557381,-18211.187746147,4603179.8699755,5.8601360136014,0,0
86.695200894934,-8.3354320561956,0.66456645664566,651925.53557381,-18211.187746147,4603179.8699755,5.8645664566457,0,0
86.695200924291,-8.3374851826659,0.66899689968997,651925.53557381,-18211.187746147,4603179.8699755,5.86899689969,0,0
86.695200953648,-8.3395383091362,0.67342734273427,651925.53557381,-18211.187746147,4603179.8699755,5.8734273427343,0,0
86.695200983005,-8.3415914356065,0.67785778577858,651925.53557381,-18211.187746147,4603179.8699755,5.8778577857786,0,0
86.695201012362,-8.3436445620769,0.68228822882288,651925.53557381,-18211.187746147,4603179.8699755,5.8822882288229,0,0
86.695201041719,-8.3456976885472,0.68671867186719,651925.53557381,-18211.187746147,4603179.8699755,5.8867186718672,0,0
86.695201071076,-8.3477508150175,0.69114911491149,651925.53557381,-18211.187746147,4603179.8699755,5.8911491149115,0,0
86.695201104986,-8.349803944431,0.6955795579558,813113.37787156,-42736.900480804,4636473.5800762,5.8955795579558,0,0
86.695201146332,-8.3518570786506,0.7000100010001,813113.37787156,-42736.900480804,4636473.5800762,5.9000100010001,0,0
86.695201187677,-8.3539102128702,0.7044404440444,813113.37787156,-42736.900480804,4636473.5800762,5.9044404440444,0,0
86.695201229022,-8.3559633470898,0.70887088708871,813113.37787156,-42736.900480804,4636473.5800762,5.9088708870887,0,0
86.695201270368,-8.3580164813094,0.71330133013301,813113.37787156,-42736.900480804,4636473.5800762,5.913301330133,0,0
86.695201311713,-8.360069615529,0.71773177317732,813113.37787156,-42736.900480804,4636473.5800762,5.9177317731773,0,0
86.695201352048,-8.3621227474679,0.72216221622162,743269.78422164,-3172.3839879306,4501266.8924198,5.9221622162216,0,0
86.695201391415,-8.3641758772222,0.72659265926593,743269.78422164,-3172.3839879306,4501266.8924198,5.9265926592659,0,0
86.695201430781,-8.3662290069765,0.73102310231023,743269.78422164,-3172.3839879306,4501266.8924198,5.9310231023102,0,0
86.695201470148,-8.3682821367308,0.73545354535454,743269.78422164,-3172.3839879306,4501266.8924198,5.9354535453545,0,0
86.695201509514,-8.3703352664851,0.73988398839884,743269.78422164,-3172.3839879306,4501266.8924198,5.9398839883988,0,0
86.695201548881,-8.3723883962394,0.74431443144314,743269.78422164,-3172.3839879306,4501266.8924198,5.9443144314431,0,0
86.695201588248,-8.3744415259937,0.74874487448745,743269.78422164,-3172.3839879306,4501266.8924198,5.9487448744874,0,0
86.695201627614,-8.376494655748,0.75317531753175,743269.78422164,-3172.3839879306,4501266.8924198,5.9531753175318,0,0
86.695201666981,-8.3785477855023,0.75760576057606,743269.78422164,-3172.3839879306,4501266.8924198,5.9576057605761,0,0
86.695201706347,-8.3806009152565,0.76203620362036,743269.78422164,-3172.3839879306,4501266.8924198,5.9620362036204,0,0
86.695201745714,-8.3826540450108,0.76646664666467,743269.78422164,-3172.3839879306,4501266.8924198,5.9664666466647,0,0
86.69520178508,-8.3847071747651,0.77089708970897,743269.78422164,-3172.3839879306,4501266.8924198,5.970897089709,0,0
86.695201824447,-8.3867603045194,0.77532753275328,743269.78422164,-3172.3839879306,4501266.8924198,5.9753275327533,0,0
86.695201863814,-8.3888134342737,0.77975797579758,743269.78422164,-3172.3839879306,4501266.8924198,5.9797579757976,0,0
86.69520190318,-8.390866564028,0.78418841884188,743269.78422164,-3172.3839879306,4501266.8924198,5.9841884188419,0,0
86.695201942547,-8.3929196937823,0.78861886188619,743269.78422164,-3172.3839879306,4501266.8924198,5.9886188618862,0,0
86.695201981913,-8.3949728235366,0.79304930493049,743269.78422164,-3172.3839879306,4501266.8924198,5.9930493049305,0,0
86.69520202128,-8.3970259532909,0.7974797479748,743269.78422164,-3172.3839879306,4501266.8924198,5.9974797479748,0,0
86.695202060646,-8.3990790830452,0.8019101910191,743269.78422164,-3172.3839879306,4501266.8924198,6.0019101910191,0,0
86.695202100013,-8.4011322127995,0.80634063406341,743269.78422164,-3172.3839879306,4501266.8924198,6.0063406340634,0,0
86.69520213938,-8.4031853425538,0.81077107710771,743269.78422164,-3172.3839879306,4501266.8924198,6.0107710771077,0,0
86.695202178746,-8.4052384723081,0.81520152015201,743269.78422164,-3172.3839879306,4501266.8924198,6.015201520152,0,0
86.695202218113,-8.4072916020624,0.81963196319632,743269.78422164,-3172.3839879306,4501266.8924198,6.0196319631963,0,0
86.695202257479,-8.4093447318167,0.82406240624062,743269.78422164,-3172.3839879306,4501266.8924198,6.0240624062406,0,0
86.695202296846,-8.411397861571,0.82849284928493,743269.78422164,-3172.3839879306,4501266.8924198,6.0284928492849,0,0
86.695202336213,-8.4134509913253,0.83292329232923,743269.78422164,-3172.3839879306,4501266.8924198,6.0329232923292,0,0
86.695202375579,-8.4155041210796,0.83735373537354,743269.78422164,-3172.3839879306,4501266.8924198,6.0373537353735,0,0
86.695202414946,-8.4175572508339,0.84178417841784,743269.78422164,-3172.3839879306,4501266.8924198,6.0417841784178,0,0
86.695202454312,-8.4196103805881,0.84621462146215,743269.78422164,-3172.3839879306,4501266.8924198,6.0462146214621,0,0
86.695202494757,-8.4216635087989,0.85064506450645,845279.39963095,39817.551275973,4466911.140845,6.0506450645065,0,0
86.695202543187,-8.4237166255814,0.85507550755076,845279.39963095,39817.551275973,4466911.140845,6.0550755075508,0,0
86.695202591616,-8.425769742364,0.85950595059506,845279.39963095,39817.551275973,4466911.140845,6.0595059505951,0,0
86.695202640045,-8.4278228591465,0.86393639363936,845279.39963095,39817.551275973,4466911.140845,6.0639363936394,0,0
86.695202688475,-8.429875975929,0.86836683668367,845279.39963095,39817.551275973,4466911.140845,6.0683668366837,0,0
86.695202736904,-8.4319290927115,0.87279727972797,845279.39963095,39817.551275973,4466911.140845,6.072797279728,0,0
86.695202785334,-8.433982209494,0.87722772277228,845279.39963095,39817.551275973,4466911.140845,6.0772277227723,0,0
86.695202833763,-8.4360353262766,0.88165816581658,845279.39963095,39817.551275973,4466911.140845,6.0816581658166,0,0
86.695202882192,-8.4380884430591,0.88608860886089,845279.39963095,39817.551275973,4466911.140845,6.0860886088609,0,0
86.695202930622,-8.4401415598416,0.89051905190519,845279.39963095,39817.551275973,4466911.140845,6.0905190519052,0,0
86.695202979051,-8.4421946766241,0.8949494949495,845279.39963095,39817.551275973,4466911.140845,6.0949494949495,0,0
86.695203027481,-8.4442477934067,0.8993799379938,845279.39963095,39817.551275973,4466911.140845,6.0993799379938,0,0
86.69520307591,-8.4463009101892,0.9038103810381,845279.39963095,39817.551275973,4466911.140845,6.1038103810381,0,0
86.695203124339,-8.4483540269717,0.90824082408241,845279.39963095,39817.551275973,4466911.140845,6.1082408240824,0,0
86.695203172769,-8.4504071437542,0.91267126712671,845279.39963095,39817.551275973,4466911.140845,6.1126712671267,0,0
86.695203221198,-8.4524602605367,0.91710171017102,845279.39963095,39817.551275973,4466911.140845,6.117101710171,0,0
86.695203269628,-8.4545133773193,0.92153215321532,845279.39963095,39817.551275973,4466911.140845,6.1215321532153,0,0
86.695203318057,-8.4565664941018,0.92596259625963,845279.39963095,39817.551275973,4466911.140845,6.1259625962596,0,0
86.695203366486,-8.4586196108843,0.93039303930393,845279.39963095,39817.551275973,4466911.140845,6.1303930393039,0,0
86.695203414916,-8.4606727276668,0.93482348234823,845279.39963095,39817.551275973,4466911.140845,6.1348234823482,0,0
86.695203464792,-8.4627258475534,0.93925392539254,897318.28787308,-8662.7524422057,4363662.2101599,6.1392539253925,0,0
86.695203520127,-8.464778979152,0.94368436843684,897318.28787308,-8662.7524422057,4363662.2101599,6.1436843684368,0,0
86.695203575462,-8.4668321107506,0.94811481148115,897318.28787308,-8662.7524422057,4363662.2101599,6.1481148114811,0,0
86.695203630797,-8.4688852423493,0.95254525452545,897318.28787308,-8662.7524422057,4363662.2101599,6.1525452545255,0,0
86.695203686132,-8.4709383739479,0.95697569756976,897318.28787308,-8662.7524422057,4363662.2101599,6.1569756975698,0,0
86.695203741467,-8.4729915055465,0.96140614061406,897318.28787308,-8662.7524422057,4363662.2101599,6.1614061406141,0,0
86.695203796803,-8.4750446371452,0.96583658365837,897318.28787308,-8662.7524422057,4363662.2101599,6.1658365836584,0,0
86.695203852138,-8.4770977687438,0.97026702670267,897318.28787308,-8662.7524422057,4363662.2101599,6.1702670267027,0,0
86.695203907473,-8.4791509003424,0.97469746974697,897318.28787308,-8662.7524422057,4363662.2101599,6.174697469747,0,0
86.695203962808,-8.481204031941,0.97912791279128,897318.28787308,-8662.7524422057,4363662.2101599,6.1791279127913,0,0
86.695204018143,-8.4832571635397,0.98355835583558,897318.28787308,-8662.7524422057,4363662.2101599,6.1835583558356,0,0
86.695204073478,-8.4853102951383,0.98798879887989,897318.28787308,-8662.7524422057,4363662.2101599,6.1879887988799,0,0
86.695204128813,-8.4873634267369,0.99241924192419,897318.28787308,-8662.7524422057,4363662.2101599,6.1924192419242,0,0
86.695204184148,-8.4894165583355,0.9968496849685,897318.28787308,-8662.7524422057,4363662.2101599,6.1968496849685,0,0
86.695204239483,-8.4914696899342,1.0012801280128,897318.28787308,-8662.7524422057,4363662.2101599,6.2012801280128,0,0
86.695204294818,-8.4935228215328,1.0057105710571,897318.28787308,-8662.7524422057,4363662.2101599,6.2057105710571,0,0
86.695204350153,-8.4955759531314,1.0101410141014,897318.28787308,-8662.7524422057,4363662.2101599,6.2101410141014,0,0
86.695204405488,-8.4976290847301,1.0145714571457,897318.28787308,-8662.7524422057,4363662.2101599,6.2145714571457,0,0
86.695204460823,-8.4996822163287,1.01900190019,897318.28787308,-8662.7524422057,4363662.2101599,6.21900190019,0,0
86.695204516159,-8.5017353479273,1.0234323432343,897318.28787308,-8662.7524422057,4363662.2101599,6.2234323432343,0,0
86.695204571494,-8.5037884795259,1.0278627862786,897318.28787308,-8662.7524422057,4363662.2101599,6.2278627862786,0,0
86.695204626829,-8.5058416111246,1.0322932293229,897318.28787308,-8662.7524422057,4363662.2101599,6.2322932293229,0,0
86.695204682164,-8.5078947427232,1.0367236723672,897318.28787308,-8662.7524422057,4363662.2101599,6.2367236723672,0,0
86.695204737499,-8.5099478743218,1.0411541154115,897318.28787308,-8662.7524422057,4363662.2101599,6.2411541154115,0,0
86.695204792834,-8.5120010059204,1.0455845584558,897318.28787308,-8662.7524422057,4363662.2101599,6.2455845584558,0,0
86.695204848169,-8.5140541375191,1.0500150015002,897318.28787308,-8662.7524422057,4363662.2101599,6.2500150015002,0,0
86.695204903504,-8.5161072691177,1.0544454445445,897318.28787308,-8662.7524422057,4363662.2101599,6.2544454445445,0,0
86.695204958839,-8.5181604007163,1.0588758875888,897318.28787308,-8662.7524422057,4363662.2101599,6.2588758875888,0,0
86.695205014174,-8.520213532315,1.0633063306331,897318.28787308,-8662.7524422057,4363662.2101599,6.2633063306331,0,0
86.695205069509,-8.5222666639136,1.0677367736774,897318.28787308,-8662.7524422057,4363662.2101599,6.2677367736774,0,0
86.695205124844,-8.5243197955122,1.0721672167217,897318.28787308,-8662.7524422057,4363662.2101599,6.2721672167217,0,0
86.69520518018,-8.5263729271108,1.076597659766,897318.28787308,-8662.7524422057,4363662.2101599,6.276597659766,0,0
86.695205235515,-8.5284260587095,1.0810281028103,897318.28787308,-8662.7524422057,4363662.2101599,6.2810281028103,0,0
86.69520529085,-8.5304791903081,1.0854585458546,897318.28787308,-8662.7524422057,4363662.2101599,6.2854585458546,0,0
86.695205346185,-8.5325323219067,1.0898889888989,897318.28787308,-8662.7524422057,4363662.2101599,6.2898889888989,0,0
86.69520540152,-8.5345854535053,1.0943194319432,897318.28787308,-8662.7524422057,4363662.2101599,6.2943194319432,0,0
86.695205456855,-8.536638585104,1.0987498749875,897318.28787308,-8662.7524422057,4363662.2101599,6.2987498749875,0,0
86.69520551219,-8.5386917167026,1.1031803180318,897318.28787308,-8662.7524422057,4363662.2101599,6.3031803180318,0,0
86.695205572708,-8.5407448359322,1.1076107610761,934603.35732061,36816.661436063,4264033.8850629,6.3076107610761,0,0
86.695205633674,-8.542797954093,1.1120412041204,934603.35732061,36816.661436063,4264033.8850629,6.3120412041204,0,0
86.69520569464,-8.5448510722539,1.1164716471647,934603.35732061,36816.661436063,4264033.8850629,6.3164716471647,0,0
86.695205755606,-8.5469041904147,1.120902090209,934603.35732061,36816.661436063,4264033.8850629,6.320902090209,0,0
86.695205816572,-8.5489573085756,1.1253325332533,934603.35732061,36816.661436063,4264033.8850629,6.3253325332533,0,0
86.695205877537,-8.5510104267365,1.1297629762976,934603.35732061,36816.661436063,4264033.8850629,6.3297629762976,0,0
86.695205938503,-8.5530635448973,1.1341934193419,934603.35732061,36816.661436063,4264033.8850629,6.3341934193419,0,0
86.695205999469,-8.5551166630582,1.1386238623862,934603.35732061,36816.661436063,4264033.8850629,6.3386238623862,0,0
86.695206060435,-8.557169781219,1.1430543054305,934603.35732061,36816.661436063,4264033.8850629,6.3430543054305,0,0
86.695206121401,-8.5592228993799,1.1474847484748,934603.35732061,36816.661436063,4264033.8850629,6.3474847484748,0,0
86.695206182367,-8.5612760175407,1.1519151915192,934603.35732061,36816.661436063,4264033.8850629,6.3519151915192,0,0
86.695206243333,-8.5633291357016,1.1563456345635,934603.35732061,36816.661436063,4264033.8850629,6.3563456345635,0,0
86.695206304299,-8.5653822538625,1.1607760776078,934603.35732061,36816.661436063,4264033.8850629,6.3607760776078,0,0
86.695206365265,-8.5674353720233,1.1652065206521,934603.35732061,36816.661436063,4264033.8850629,6.3652065206521,0,0
86.69520642623,-8.5694884901842,1.1696369636964,934603.35732061,36816.661436063,4264033.8850629,6.3696369636964,0,0
86.695206487196,-8.571541608345,1.1740674067407,934603.35732061,36816.661436063,4264033.8850629,6.3740674067407,0,0
86.695206548162,-8.5735947265059,1.178497849785,934603.35732061,36816.661436063,4264033.8850629,6.378497849785,0,0
86.695206609128,-8.5756478446667,1.1829282928293,934603.35732061,36816.661436063,4264033.8850629,6.3829282928293,0,0
86.695206670094,-8.5777009628276,1.1873587358736,934603.35732061,36816.661436063,4264033.8850629,6.3873587358736,0,0
86.695206732692,-8.5797540844629,1.1917891789179,992711.19997411,-12209.297979098,4196778.7284602,6.3917891789179,0,0
86.69520680009,-8.5818072163166,1.1962196219622,992711.19997411,-12209.297979098,4196778.7284602,6.3962196219622,0,0
86.695206867488,-8.5838603481703,1.2006500650065,992711.19997411,-12209.297979098,4196778.7284602,6.4006500650065,0,0
86.695206934886,-8.585913480024,1.2050805080508,992711.19997411,-12209.297979098,4196778.7284602,6.4050805080508,0,0
86.695207002284,-8.5879666118777,1.2095109510951,992711.19997411,-12209.297979098,4196778.7284602,6.4095109510951,0,0
86.695207069682,-8.5900197437315,1.2139413941394,992711.19997411,-12209.297979098,4196778.7284602,6.4139413941394,0,0
86.69520713708,-8.5920728755852,1.2183718371837,992711.19997411,-12209.297979098,4196778.7284602,6.4183718371837,0,0
86.695207204478,-8.5941260074389,1.222802280228,992711.19997411,-12209.297979098,4196778.7284602,6.422802280228,0,0
86.695207271876,-8.5961791392926,1.2272327232723,992711.19997411,-12209.297979098,4196778.7284602,6.4272327232723,0,0
86.695207339274,-8.5982322711463,1.2316631663166,992711.19997411,-12209.297979098,4196778.7284602,6.4316631663166,0,0
86.695207406672,-8.6002854030001,1.2360936093609,992711.19997411,-12209.297979098,4196778.7284602,6.4360936093609,0,0
86.69520747407,-8.6023385348538,1.2405240524052,992711.19997411,-12209.297979098,4196778.7284602,6.4405240524052,0,0
86.695207541468,-8.6043916667075,1.2449544954495,992711.19997411,-12209.297979098,4196778.7284602,6.4449544954495,0,0
86.695207608866,-8.6064447985612,1.2493849384938,992711.19997411,-12209.297979098,4196778.7284602,6.4493849384938,0,0
86.695207676264,-8.6084979304149,1.2538153815382,992711.19997411,-12209.297979098,4196778.7284602,6.4538153815382,0,0
86.695207743662,-8.6105510622686,1.2582458245825,992711.19997411,-12209.297979098,4196778.7284602,6.4582458245825,0,0
86.69520781106,-8.6126041941224,1.2626762676268,992711.19997411,-12209.297979098,4196778.7284602,6.4626762676268,0,0
86.695207878458,-8.6146573259761,1.2671067106711,992711.19997411,-12209.297979098,4196778.7284602,6.4671067106711,0,0
86.695207945856,-8.6167104578298,1.2715371537154,992711.19997411,-12209.297979098,4196778.7284602,6.4715371537154,0,0
86.695208013254,-8.6187635896835,1.2759675967597,992711.19997411,-12209.297979098,4196778.7284602,6.4759675967597,0,0
86.695208080651,-8.6208167215372,1.280398039804,992711.19997411,-12209.297979098,4196778.7284602,6.480398039804,0,0
86.695208148049,-8.6228698533909,1.2848284828483,992711.19997411,-12209.297979098,4196778.7284602,6.4848284828483,0,0
86.695208215447,-8.6249229852447,1.2892589258926,992711.19997411,-12209.297979098,4196778.7284602,6.4892589258926,0,0
86.695208282845,-8.6269761170984,1.2936893689369,992711.19997411,-12209.297979098,4196778.7284602,6.4936893689369,0,0
86.695208350243,-8.6290292489521,1.2981198119812,992711.19997411,-12209.297979098,4196778.7284602,6.4981198119812,0,0
86.695208417641,-8.6310823808058,1.3025502550255,992711.19997411,-12209.297979098,4196778.7284602,6.5025502550255,0,0
86.695208485039,-8.6331355126595,1.3069806980698,992711.19997411,-12209.297979098,4196778.7284602,6.5069806980698,0,0
86.695208552437,-8.6351886445132,1.3114111411141,992711.19997411,-12209.297979098,4196778.7284602,6.5114111411141,0,0
86.695208619835,-8.637241776367,1.3158415841584,992711.19997411,-12209.297979098,4196778.7284602,6.5158415841584,0,0
86.695208687233,-8.6392949082207,1.3202720272027,992711.19997411,-12209.297979098,4196778.7284602,6.5202720272027,0,0
86.695208754631,-8.6413480400744,1.324702470247,992711.19997411,-12209.297979098,4196778.7284602,6.524702470247,0,0
86.695208822029,-8.6434011719281,1.3291329132913,992711.19997411,-12209.297979098,4196778.7284602,6.5291329132913,0,0
86.695208889427,-8.6454543037818,1.3335633563356,992711.19997411,-12209.297979098,4196778.7284602,6.5335633563356,0,0
86.695208956825,-8.6475074356355,1.3379937993799,992711.19997411,-12209.297979098,4196778.7284602,6.5379937993799,0,0
86.695209024223,-8.6495605674893,1.3424242424242,992711.19997411,-12209.297979098,4196778.7284602,6.5424242424242,0,0
86.695209091714,-8.6516136991398,1.3468546854685,1044264.8220885,34572.232668779,4125100.6922278,6.5468546854685,0,0
86.695209165138,-8.6536668177895,1.3512851285129,1044264.8220885,34572.232668779,4125100.6922278,6.5512851285129,0,0
86.695209238562,-8.6557199364391,1.3557155715572,1044264.8220885,34572.232668779,4125100.6922278,6.5557155715572,0,0
86.695209311987,-8.6577730550888,1.3601460146015,1044264.8220885,34572.232668779,4125100.6922278,6.5601460146015,0,0
86.695209385411,-8.6598261737384,1.3645764576458,1044264.8220885,34572.232668779,4125100.6922278,6.5645764576458,0,0
86.695209458835,-8.6618792923881,1.3690069006901,1044264.8220885,34572.232668779,4125100.6922278,6.5690069006901,0,0
86.69520953226,-8.6639324110377,1.3734373437344,1044264.8220885,34572.232668779,4125100.6922278,6.5734373437344,0,0
86.695209605684,-8.6659855296874,1.3778677867787,1044264.8220885,34572.232668779,4125100.6922278,6.5778677867787,0,0
86.695209679108,-8.668038648337,1.382298229823,1044264.8220885,34572.232668779,4125100.6922278,6.582298229823,0,0
86.695209752533,-8.6700917669866,1.3867286728673,1044264.8220885,34572.232668779,4125100.6922278,6.5867286728673,0,0
86.695209825957,-8.6721448856363,1.3911591159116,1044264.8220885,34572.232668779,4125100.6922278,6.5911591159116,0,0
86.695209899381,-8.6741980042859,1.3955895589559,1044264.8220885,34572.232668779,4125100.6922278,6.5955895589559,0,0
86.695209972806,-8.6762511229356,1.4000200020002,1044264.8220885,34572.232668779,4125100.6922278,6.6000200020002,0,0
86.69521004623,-8.6783042415852,1.4044504450445,1044264.8220885,34572.232668779,4125100.6922278,6.6044504450445,0,0
86.695210119654,-8.6803573602349,1.4088808880888,1044264.8220885,34572.232668779,4125100.6922278,6.6088808880888,0,0
86.695210193079,-8.6824104788845,1.4133113311331,1044264.8220885,34572.232668779,4125100.6922278,6.6133113311331,0,0
86.695210266503,-8.6844635975342,1.4177417741774,1044264.8220885,34572.232668779,4125100.6922278,6.6177417741774,0,0
86.695210339927,-8.6865167161838,1.4221722172217,1044264.8220885,34572.232668779,4125100.6922278,6.6221722172217,0,0
86.695210413351,-8.6885698348335,1.426602660266,1044264.8220885,34572.232668779,4125100.6922278,6.626602660266,0,0
86.695210486776,-8.6906229534831,1.4310331033103,1044264.8220885,34572.232668779,4125100.6922278,6.6310331033103,0,0
86.6952105602,-8.6926760721327,1.4354635463546,1044264.8220885,34572.232668779,4125100.6922278,6.6354635463546,0,0
86.695210633624,-8.6947291907824,1.4398939893989,1044264.8220885,34572.232668779,4125100.6922278,6.6398939893989,0,0
86.695210707049,-8.696782309432,1.4443244324432,1044264.8220885,34572.232668779,4125100.6922278,6.6443244324432,0,0
86.695210781429,-8.6988354310813,1.4487548754875,1070251.6105948,-20472.74254096,4031483.9252869,6.6487548754875,0,0
86.695210859422,-8.7008885640602,1.4531853185319,1070251.6105948,-20472.74254096,4031483.9252869,6.6531853185319,0,0
86.695210937415,-8.7029416970391,1.4576157615762,1070251.6105948,-20472.74254096,4031483.9252869,6.6576157615762,0,0
86.695211015407,-8.704994830018,1.4620462046205,1070251.6105948,-20472.74254096,4031483.9252869,6.6620462046205,0,0
86.6952110934,-8.7070479629969,1.4664766476648,1070251.6105948,-20472.74254096,4031483.9252869,6.6664766476648,0,0
86.695211171392,-8.7091010959758,1.4709070907091,1070251.6105948,-20472.74254096,4031483.9252869,6.6709070907091,0,0
86.695211249385,-8.7111542289546,1.4753375337534,1070251.6105948,-20472.74254096,4031483.9252869,6.6753375337534,0,0
86.695211327377,-8.7132073619335,1.4797679767977,1070251.6105948,-20472.74254096,4031483.9252869,6.6797679767977,0,0
86.69521140537,-8.7152604949124,1.484198419842,1070251.6105948,-20472.74254096,4031483.9252869,6.684198419842,0,0
86.695211483363,-8.7173136278913,1.4886288628863,1070251.6105948,-20472.74254096,4031483.9252869,6.6886288628863,0,0
86.695211561355,-8.7193667608702,1.4930593059306,1070251.6105948,-20472.74254096,4031483.9252869,6.6930593059306,0,0
86.695211639348,-8.7214198938491,1.4974897489749,1070251.6105948,-20472.74254096,4031483.9252869,6.6974897489749,0,0
86.69521171734,-8.7234730268279,1.5019201920192,1070251.6105948,-20472.74254096,4031483.9252869,6.7019201920192,0,0
86.695211795333,-8.7255261598068,1.5063506350635,1070251.6105948,-20472.74254096,4031483.9252869,6.7063506350635,0,0
86.695211873326,-8.7275792927857,1.5107810781078,1070251.6105948,-20472.74254096,4031483.9252869,6.7107810781078,0,0
86.695211951318,-8.7296324257646,1.5152115211521,1070251.6105948,-20472.74254096,4031483.9252869,6.7152115211521,0,0
86.695212029311,-8.7316855587435,1.5196419641964,1070251.6105948,-20472.74254096,4031483.9252869,6.7196419641964,0,0
86.695212107303,-8.7337386917224,1.5240724072407,1070251.6105948,-20472.74254096,4031483.9252869,6.7240724072407,0,0
86.695212185296,-8.7357918247012,1.528502850285,1070251.6105948,-20472.74254096,4031483.9252869,6.728502850285,0,0
86.695212263289,-8.7378449576801,1.5329332933293,1070251.6105948,-20472.74254096,4031483.9252869,6.7329332933293,0,0
86.695212341281,-8.739898090659,1.5373637363736,1070251.6105948,-20472.74254096,4031483.9252869,6.7373637363736,0,0
86.695212419274,-8.7419512236379,1.5417941794179,1070251.6105948,-20472.74254096,4031483.9252869,6.7417941794179,0,0
86.695212497266,-8.7440043566168,1.5462246224622,1070251.6105948,-20472.74254096,4031483.9252869,6.7462246224622,0,0
86.695212575259,-8.7460574895957,1.5506550655066,1070251.6105948,-20472.74254096,4031483.9252869,6.7506550655066,0,0
86.695212653252,-8.7481106225745,1.5550855085509,1070251.6105948,-20472.74254096,4031483.9252869,6.7550855085509,0,0
86.695212731244,-8.7501637555534,1.5595159515952,1070251.6105948,-20472.74254096,4031483.9252869,6.7595159515952,0,0
86.695212809237,-8.7522168885323,1.5639463946395,1070251.6105948,-20472.74254096,4031483.9252869,6.7639463946395,0,0
86.695212887229,-8.7542700215112,1.5683768376838,1070251.6105948,-20472.74254096,4031483.9252869,6.7683768376838,0,0
86.695212965222,-8.7563231544901,1.5728072807281,1070251.6105948,-20472.74254096,4031483.9252869,6.7728072807281,0,0
86.695213043215,-8.758376287469,1.5772377237724,1070251.6105948,-20472.74254096,4031483.9252869,6.7772377237724,0,0
86.695213121207,-8.7604294204478,1.5816681668167,1070251.6105948,-20472.74254096,4031483.9252869,6.7816681668167,0,0
86.6952131992,-8.7624825534267,1.586098609861,1070251.6105948,-20472.74254096,4031483.9252869,6.786098609861,0,0
86.695213277192,-8.7645356864056,1.5905290529053,1070251.6105948,-20472.74254096,4031483.9252869,6.7905290529053,0,0
86.695213355185,-8.7665888193845,1.5949594959496,1070251.6105948,-20472.74254096,4031483.9252869,6.7949594959496,0,0
86.695213433178,-8.7686419523634,1.5993899389939,1070251.6105948,-20472.74254096,4031483.9252869,6.7993899389939,0,0
86.69521351117,-8.7706950853423,1.6038203820382,1070251.6105948,-20472.74254096,4031483.9252869,6.8038203820382,0,0
86.69521359506,-8.7727482080727,1.6082508250825,1141855.8426055,21107.979027874,3981105.510253,6.8082508250825,0,0
86.695213680114,-8.7748013287819,1.6126812681268,1141855.8426055,21107.979027874,3981105.510253,6.8126812681268,0,0
86.695213765167,-8.7768544494912,1.6171117111711,1141855.8426055,21107.979027874,3981105.510253,6.8171117111711,0,0
86.695213850221,-8.7789075702005,1.6215421542154,1141855.8426055,21107.979027874,3981105.510253,6.8215421542154,0,0
86.695213935274,-8.7809606909098,1.6259725972597,1141855.8426055,21107.979027874,3981105.510253,6.8259725972597,0,0
86.695214020327,-8.7830138116191,1.630403040304,1141855.8426055,21107.979027874,3981105.510253,6.830403040304,0,0
86.695214105381,-8.7850669323284,1.6348334833483,1141855.8426055,21107.979027874,3981105.510253,6.8348334833483,0,0
86.695214190434,-8.7871200530376,1.6392639263926,1141855.8426055,21107.979027874,3981105.510253,6.8392639263926,0,0
86.695214275487,-8.7891731737469,1.6436943694369,1141855.8426055,21107.979027874,3981105.510253,6.8436943694369,0,0
86.695214360541,-8.7912262944562,1.6481248124812,1141855.8426055,21107.979027874,3981105.510253,6.8481248124812,0,0
86.695214445594,-8.7932794151655,1.6525552555256,1141855.8426055,21107.979027874,3981105.510253,6.8525552555256,0,0
86.695214530648,-8.7953325358748,1.6569856985699,1141855.8426055,21107.979027874,3981105.510253,6.8569856985699,0,0
86.695214615701,-8.7973856565841,1.6614161416142,1141855.8426055,21107.979027874,3981105.510253,6.8614161416142,0,0
86.695214700754,-8.7994387772934,1.6658465846585,1141855.8426055,21107.979027874,3981105.510253,6.8658465846585,0,0
86.695214785808,-8.8014918980026,1.6702770277028,1141855.8426055,21107.979027874,3981105.510253,6.8702770277028,0,0
86.695214870861,-8.8035450187119,1.6747074707471,1141855.8426055,21107.979027874,3981105.510253,6.8747074707471,0,0
86.695214955914,-8.8055981394212,1.6791379137914,1141855.8426055,21107.979027874,3981105.510253,6.8791379137914,0,0
86.695215040968,-8.8076512601305,1.6835683568357,1141855.8426055,21107.979027874,3981105.510253,6.8835683568357,0,0
86.695215126021,-8.8097043808398,1.68799879988,1141855.8426055,21107.979027874,3981105.510253,6.88799879988,0,0
86.695215211075,-8.8117575015491,1.6924292429243,1141855.8426055,21107.979027874,3981105.510253,6.8924292429243,0,0
86.695215296128,-8.8138106222583,1.6968596859686,1141855.8426055,21107.979027874,3981105.510253,6.8968596859686,0,0
86.695215381181,-8.8158637429676,1.7012901290129,1141855.8426055,21107.979027874,3981105.510253,6.9012901290129,0,0
86.695215466235,-8.8179168636769,1.7057205720572,1141855.8426055,21107.979027874,3981105.510253,6.9057205720572,0,0
86.695215551288,-8.8199699843862,1.7101510151015,1141855.8426055,21107.979027874,3981105.510253,6.9101510151015,0,0
86.695215636342,-8.8220231050955,1.7145814581458,1141855.8426055,21107.979027874,3981105.510253,6.9145814581458,0,0
86.695215721395,-8.8240762258048,1.7190119011901,1141855.8426055,21107.979027874,3981105.510253,6.9190119011901,0,0
86.695215806448,-8.826129346514,1.7234423442344,1141855.8426055,21107.979027874,3981105.510253,6.9234423442344,0,0
86.695215891502,-8.8281824672233,1.7278727872787,1141855.8426055,21107.979027874,3981105.510253,6.9278727872787,0,0
86.695215976555,-8.8302355879326,1.732303230323,1141855.8426055,21107.979027874,3981105.510253,6.932303230323,0,0
86.695216061608,-8.8322887086419,1.7367336733673,1141855.8426055,21107.979027874,3981105.510253,6.9367336733673,0,0
86.695216146662,-8.8343418293512,1.7411641164116,1141855.8426055,21107.979027874,3981105.510253,6.9411641164116,0,0
86.695216231715,-8.8363949500605,1.7455945594559,1141855.8426055,21107.979027874,3981105.510253,6.9455945594559,0,0
86.695216316769,-8.8384480707697,1.7500250025002,1141855.8426055,21107.979027874,3981105.510253,6.9500250025002,0,0
86.695216401822,-8.840501191479,1.7544554455446,1141855.8426055,21107.979027874,3981105.510253,6.9544554455446,0,0
86.695216486875,-8.8425543121883,1.7588858885889,1141855.8426055,21107.979027874,3981105.510253,6.9588858885889,0,0
86.695216575402,-8.8446074432263,1.7633163316332,1168164.0211589,-31318.505672289,3882579.2433283,6.9633163316332,0,0
86.69521666518,-8.8466605779847,1.7677467746775,1168164.0211589,-31318.505672289,3882579.2433283,6.9677467746775,0,0
86.695216754958,-8.8487137127431,1.7721772177218,1168164.0211589,-31318.505672289,3882579.2433283,6.9721772177218,0,0
86.695216844736,-8.8507668475015,1.7766076607661,1168164.0211589,-31318.505672289,3882579.2433283,6.9766076607661,0,0
86.695216934514,-8.8528199822599,1.7810381038104,1168164.0211589,-31318.505672289,3882579.2433283,6.9810381038104,0,0
86.695217024292,-8.8548731170183,1.7854685468547,1168164.0211589,-31318.505672289,3882579.2433283,6.9854685468547,0,0
86.69521711407,-8.8569262517767,1.789898989899,1168164.0211589,-31318.505672289,3882579.2433283,6.989898989899,0,0
86.695217203849,-8.8589793865351,1.7943294329433,1168164.0211589,-31318.505672289,3882579.2433283,6.9943294329433,0,0
86.695217293627,-8.8610325212935,1.7987598759876,1168164.0211589,-31318.505672289,3882579.2433283,6.9987598759876,0,0
86.695217383405,-8.8630856560519,1.8031903190319,1168164.0211589,-31318.505672289,3882579.2433283,7.0031903190319,0,0
86.695217473183,-8.8651387908103,1.8076207620762,1168164.0211589,-31318.505672289,3882579.2433283,7.0076207620762,0,0
86.695217562961,-8.8671919255687,1.8120512051205,1168164.0211589,-31318.505672289,3882579.2433283,7.0120512051205,0,0
86.695217652739,-8.8692450603271,1.8164816481648,1168164.0211589,-31318.505672289,3882579.2433283,7.0164816481648,0,0
86.695217742517,-8.8712981950855,1.8209120912091,1168164.0211589,-31318.505672289,3882579.2433283,7.0209120912091,0,0
86.695217832295,-8.8733513298439,1.8253425342534,1168164.0211589,-31318.505672289,3882579.2433283,7.0253425342534,0,0
86.695217922073,-8.8754044646023,1.8297729772977,1168164.0211589,-31318.505672289,3882579.2433283,7.0297729772977,0,0
86.695218011851,-8.8774575993607,1.834203420342,1168164.0211589,-31318.505672289,3882579.2433283,7.034203420342,0,0
86.695218101629,-8.8795107341192,1.8386338633863,1168164.0211589,-31318.505672289,3882579.2433283,7.0386338633863,0,0
86.695218191407,-8.8815638688776,1.8430643064306,1168164.0211589,-31318.505672289,3882579.2433283,7.0430643064306,0,0
86.695218281185,-8.883617003636,1.8474947494749,1168164.0211589,-31318.505672289,3882579.2433283,7.0474947494749,0,0
86.695218370963,-8.8856701383944,1.8519251925193,1168164.0211589,-31318.505672289,3882579.2433283,7.0519251925193,0,0
86.695218460741,-8.8877232731528,1.8563556355636,1168164.0211589,-31318.505672289,3882579.2433283,7.0563556355636,0,0
86.695218550519,-8.8897764079112,1.8607860786079,1168164.0211589,-31318.505672289,3882579.2433283,7.0607860786079,0,0
86.695218640297,-8.8918295426696,1.8652165216522,1168164.0211589,-31318.505672289,3882579.2433283,7.0652165216522,0,0
86.695218730075,-8.893882677428,1.8696469646965,1168164.0211589,-31318.505672289,3882579.2433283,7.0696469646965,0,0
86.695218819853,-8.8959358121864,1.8740774077408,1168164.0211589,-31318.505672289,3882579.2433283,7.0740774077408,0,0
86.695218909631,-8.8979889469448,1.8785078507851,1168164.0211589,-31318.505672289,3882579.2433283,7.0785078507851,0,0
86.69521899941,-8.9000420817032,1.8829382938294,1168164.0211589,-31318.505672289,3882579.2433283,7.0829382938294,0,0
86.695219089188,-8.9020952164616,1.8873687368737,1168164.0211589,-31318.505672289,3882579.2433283,7.0873687368737,0,0
86.695219178966,-8.90414835122,1.891799179918,1168164.0211589,-31318.505672289,3882579.2433283,7.091799179918,0,0
86.695219274188,-8.9062014732462,1.8962296229623,1215545.4868531,16561.610162853,3815424.2127501,7.0962296229623,0,0
86.695219369539,-8.9082545949728,1.9006600660066,1215545.4868531,16561.610162853,3815424.2127501,7.1006600660066,0,0
86.69521946489,-8.9103077166995,1.9050905090509,1215545.4868531,16561.610162853,3815424.2127501,7.1050905090509,0,0
86.69521956024,-8.9123608384261,1.9095209520952,1215545.4868531,16561.610162853,3815424.2127501,7.1095209520952,0,0
86.695219655591,-8.9144139601527,1.9139513951395,1215545.4868531,16561.610162853,3815424.2127501,7.1139513951395,0,0
86.695219750942,-8.9164670818793,1.9183818381838,1215545.4868531,16561.610162853,3815424.2127501,7.1183818381838,0,0
86.695219846292,-8.9185202036059,1.9228122812281,1215545.4868531,16561.610162853,3815424.2127501,7.1228122812281,0,0
86.695219941643,-8.9205733253325,1.9272427242724,1215545.4868531,16561.610162853,3815424.2127501,7.1272427242724,0,0
86.695220036994,-8.9226264470591,1.9316731673167,1215545.4868531,16561.610162853,3815424.2127501,7.1316731673167,0,0
86.695220132345,-8.9246795687857,1.936103610361,1215545.4868531,16561.610162853,3815424.2127501,7.136103610361,0,0
86.695220227695,-8.9267326905123,1.9405340534053,1215545.4868531,16561.610162853,3815424.2127501,7.1405340534053,0,0
86.695220323046,-8.9287858122389,1.9449644964496,1215545.4868531,16561.610162853,3815424.2127501,7.1449644964496,0,0
86.695220418397,-8.9308389339655,1.9493949394939,1215545.4868531,16561.610162853,3815424.2127501,7.1493949394939,0,0
86.695220513747,-8.9328920556921,1.9538253825383,1215545.4868531,16561.610162853,3815424.2127501,7.1538253825383,0,0
86.695220609098,-8.9349451774187,1.9582558255826,1215545.4868531,16561.610162853,3815424.2127501,7.1582558255826,0,0
86.695220704449,-8.9369982991453,1.9626862686269,1215545.4868531,16561.610162853,3815424.2127501,7.1626862686269,0,0
86.695220799799,-8.9390514208719,1.9671167116712,1215545.4868531,16561.610162853,3815424.2127501,7.1671167116712,0,0
86.69522089515,-8.9411045425985,1.9715471547155,1215545.4868531,16561.610162853,3815424.2127501,7.1715471547155,0,0
86.695220990501,-8.9431576643251,1.9759775977598,1215545.4868531,16561.610162853,3815424.2127501,7.1759775977598,0,0
86.695221085852,-8.9452107860517,1.9804080408041,1215545.4868531,16561.610162853,3815424.2127501,7.1804080408041,0,0
86.695221181202,-8.9472639077783,1.9848384838484,1215545.4868531,16561.610162853,3815424.2127501,7.1848384838484,0,0
86.695221276553,-8.9493170295049,1.9892689268927,1215545.4868531,16561.610162853,3815424.2127501,7.1892689268927,0,0
86.695221371904,-8.9513701512316,1.993699369937,1215545.4868531,16561.610162853,3815424.2127501,7.193699369937,0,0
86.695221467254,-8.9534232729582,1.9981298129813,1215545.4868531,16561.610162853,3815424.2127501,7.1981298129813,0,0
86.695221562605,-8.9554763946848,2.0025602560256,1215545.4868531,16561.610162853,3815424.2127501,7.2025602560256,0,0
86.695221657956,-8.9575295164114,2.0069906990699,1215545.4868531,16561.610162853,3815424.2127501,7.2069906990699,0,0
86.695221753306,-8.959582638138,2.0114211421142,1215545.4868531,16561.610162853,3815424.2127501,7.2114211421142,0,0
86.695221848657,-8.9616357598646,2.0158515851585,1215545.4868531,16561.610162853,3815424.2127501,7.2158515851585,0,0
86.695221944008,-8.9636888815912,2.0202820282028,1215545.4868531,16561.610162853,3815424.2127501,7.2202820282028,0,0
86.695222039359,-8.9657420033178,2.0247124712471,1215545.4868531,16561.610162853,3815424.2127501,7.2247124712471,0,0
86.695222134709,-8.9677951250444,2.0291429142914,1215545.4868531,16561.610162853,3815424.2127501,7.2291429142914,0,0
86.69522223006,-8.969848246771,2.0335733573357,1215545.4868531,16561.610162853,3815424.2127501,7.2335733573357,0,0
86.695222325411,-8.9719013684976,2.03800380038,1215545.4868531,16561.610162853,3815424.2127501,7.23800380038,0,0
86.695222420761,-8.9739544902242,2.0424342434243,1215545.4868531,16561.610162853,3815424.2127501,7.2424342434243,0,0
86.695222516112,-8.9760076119508,2.0468646864686,1215545.4868531,16561.610162853,3815424.2127501,7.2468646864686,0,0
86.695222611463,-8.9780607336774,2.051295129513,1215545.4868531,16561.610162853,3815424.2127501,7.251295129513,0,0
86.695222706814,-8.980113855404,2.0557255725573,1215545.4868531,16561.610162853,3815424.2127501,7.2557255725573,0,0
86.695222802164,-8.9821669771306,2.0601560156016,1215545.4868531,16561.610162853,3815424.2127501,7.2601560156016,0,0
86.695222897515,-8.9842200988572,2.0645864586459,1215545.4868531,16561.610162853,3815424.2127501,7.2645864586459,0,0
86.695222992866,-8.9862732205838,2.0690169016902,1215545.4868531,16561.610162853,3815424.2127501,7.2690169016902,0,0
86.695223088216,-8.9883263423104,2.0734473447345,1215545.4868531,16561.610162853,3815424.2127501,7.2734473447345,0,0
86.695223183567,-8.990379464037,2.0778777877788,1215545.4868531,16561.610162853,3815424.2127501,7.2778777877788,0,0
86.695223278918,-8.9924325857636,2.0823082308231,1215545.4868531,16561.610162853,3815424.2127501,7.2823082308231,0,0
86.695223374268,-8.9944857074903,2.0867386738674,1215545.4868531,16561.610162853,3815424.2127501,7.2867386738674,0,0
86.695223469619,-8.9965388292169,2.0911691169117,1215545.4868531,16561.610162853,3815424.2127501,7.2911691169117,0,0
86.69522356497,-8.9985919509435,2.095599559956,1215545.4868531,16561.610162853,3815424.2127501,7.295599559956,0,0
86.695223660321,-9.0006450726701,2.1000300030003,1215545.4868531,16561.610162853,3815424.2127501,7.3000300030003,0,0
86.695223755671,-9.0026981943967,2.1044604460446,1215545.4868531,16561.610162853,3815424.2127501,7.3044604460446,0,0
86.695223854511,-9.0047513227484,2.1088908890889,1277308.8026148,-25367.149619342,3765036.5724102,7.3088908890889,0,0
86.695223956136,-9.0068044563913,2.1133213321332,1277308.8026148,-25367.149619342,3765036.5724102,7.3133213321332,0,0
86.695224057762,-9.0088575900342,2.1177517751775,1277308.8026148,-25367.149619342,3765036.5724102,7.3177517751775,0,0
86.695224159388,-9.010910723677,2.1221822182218,1277308.8026148,-25367.149619342,3765036.5724102,7.3221822182218,0,0
86.695224261013,-9.0129638573199,2.1266126612661,1277308.8026148,-25367.149619342,3765036.5724102,7.3266126612661,0,0
86.695224362639,-9.0150169909628,2.1310431043104,1277308.8026148,-25367.149619342,3765036.5724102,7.3310431043104,0,0
86.695224464265,-9.0170701246056,2.1354735473547,1277308.8026148,-25367.149619342,3765036.5724102,7.3354735473547,0,0
86.69522456589,-9.0191232582485,2.139903990399,1277308.8026148,-25367.149619342,3765036.5724102,7.339903990399,0,0
86.695224667516,-9.0211763918914,2.1443344334433,1277308.8026148,-25367.149619342,3765036.5724102,7.3443344334433,0,0
86.695224769142,-9.0232295255342,2.1487648764876,1277308.8026148,-25367.149619342,3765036.5724102,7.3487648764876,0,0
86.695224870767,-9.0252826591771,2.153195319532,1277308.8026148,-25367.149619342,3765036.5724102,7.353195319532,0,0
86.695224972393,-9.0273357928199,2.1576257625763,1277308.8026148,-25367.149619342,3765036.5724102,7.3576257625763,0,0
86.695225074019,-9.0293889264628,2.1620562056206,1277308.8026148,-25367.149619342,3765036.5724102,7.3620562056206,0,0
86.695225175644,-9.0314420601057,2.1664866486649,1277308.8026148,-25367.149619342,3765036.5724102,7.3664866486649,0,0
86.69522527727,-9.0334951937485,2.1709170917092,1277308.8026148,-25367.149619342,3765036.5724102,7.3709170917092,0,0
86.695225378896,-9.0355483273914,2.1753475347535,1277308.8026148,-25367.149619342,3765036.5724102,7.3753475347535,0,0
86.695225480522,-9.0376014610343,2.1797779777978,1277308.8026148,-25367.149619342,3765036.5724102,7.3797779777978,0,0
86.695225582147,-9.0396545946771,2.1842084208421,1277308.8026148,-25367.149619342,3765036.5724102,7.3842084208421,0,0
86.695225683773,-9.04170772832,2.1886388638864,1277308.8026148,-25367.149619342,3765036.5724102,7.3886388638864,0,0
86.695225785399,-9.0437608619629,2.1930693069307,1277308.8026148,-25367.149619342,3765036.5724102,7.3930693069307,0,0
86.695225887024,-9.0458139956057,2.197499749975,1277308.8026148,-25367.149619342,3765036.5724102,7.397499749975,0,0
86.69522598865,-9.0478671292486,2.2019301930193,1277308.8026148,-25367.149619342,3765036.5724102,7.4019301930193,0,0
86.695226090276,-9.0499202628915,2.2063606360636,1277308.8026148,-25367.149619342,3765036.5724102,7.4063606360636,0,0
86.695226191901,-9.0519733965343,2.2107910791079,1277308.8026148,-25367.149619342,3765036.5724102,7.4107910791079,0,0
86.695226293527,-9.0540265301772,2.2152215221522,1277308.8026148,-25367.149619342,3765036.5724102,7.4152215221522,0,0
86.695226395153,-9.0560796638201,2.2196519651965,1277308.8026148,-25367.149619342,3765036.5724102,7.4196519651965,0,0
86.695226496778,-9.0581327974629,2.2240824082408,1277308.8026148,-25367.149619342,3765036.5724102,7.4240824082408,0,0
86.695226598404,-9.0601859311058,2.2285128512851,1277308.8026148,-25367.149619342,3765036.5724102,7.4285128512851,0,0
86.69522670003,-9.0622390647487,2.2329432943294,1277308.8026148,-25367.149619342,3765036.5724102,7.4329432943294,0,0
86.695226801655,-9.0642921983915,2.2373737373737,1277308.8026148,-25367.149619342,3765036.5724102,7.4373737373737,0,0
86.695226903281,-9.0663453320344,2.241804180418,1277308.8026148,-25367.149619342,3765036.5724102,7.441804180418,0,0
86.695227004907,-9.0683984656773,2.2462346234623,1277308.8026148,-25367.149619342,3765036.5724102,7.4462346234623,0,0
86.695227106532,-9.0704515993201,2.2506650665067,1277308.8026148,-25367.149619342,3765036.5724102,7.4506650665067,0,0
86.695227208158,-9.072504732963,2.255095509551,1277308.8026148,-25367.149619342,3765036.5724102,7.455095509551,0,0
86.695227309784,-9.0745578666059,2.2595259525953,1277308.8026148,-25367.149619342,3765036.5724102,7.4595259525953,0,0
86.695227411409,-9.0766110002487,2.2639563956396,1277308.8026148,-25367.149619342,3765036.5724102,7.4639563956396,0,0
86.695227514919,-9.078664127607,2.2683868386839,1289267.6026763,17892.865122633,3670687.5261029,7.4683868386839,0,0
86.695227620012,-9.0807172496813,2.2728172817282,1289267.6026763,17892.865122633,3670687.5261029,7.4728172817282,0,0
86.695227725105,-9.0827703717555,2.2772477247725,1289267.6026763,17892.865122633,3670687.5261029,7.4772477247725,0,0
86.695227830198,-9.0848234938298,2.2816781678168,1289267.6026763,17892.865122633,3670687.5261029,7.4816781678168,0,0
86.695227935291,-9.086876615904,2.2861086108611,1289267.6026763,17892.865122633,3670687.5261029,7.4861086108611,0,0
86.695228040384,-9.0889297379783,2.2905390539054,1289267.6026763,17892.865122633,3670687.5261029,7.4905390539054,0,0
86.695228145477,-9.0909828600525,2.2949694969497,1289267.6026763,17892.865122633,3670687.5261029,7.4949694969497,0,0
86.695228250569,-9.0930359821268,2.299399939994,1289267.6026763,17892.865122633,3670687.5261029,7.499399939994,0,0
86.695228355662,-9.095089104201,2.3038303830383,1289267.6026763,17892.865122633,3670687.5261029,7.5038303830383,0,0
86.695228460755,-9.0971422262753,2.3082608260826,1289267.6026763,17892.865122633,3670687.5261029,7.5082608260826,0,0
86.695228565848,-9.0991953483495,2.3126912691269,1289267.6026763,17892.865122633,3670687.5261029,7.5126912691269,0,0
86.695228670941,-9.1012484704238,2.3171217121712,1289267.6026763,17892.865122633,3670687.5261029,7.5171217121712,0,0
86.695228776034,-9.103301592498,2.3215521552155,1289267.6026763,17892.865122633,3670687.5261029,7.5215521552155,0,0
86.695228881127,-9.1053547145723,2.3259825982598,1289267.6026763,17892.865122633,3670687.5261029,7.5259825982598,0,0
86.69522898622,-9.1074078366465,2.3304130413041,1289267.6026763,17892.865122633,3670687.5261029,7.5304130413041,0,0
86.695229091313,-9.1094609587208,2.3348434843484,1289267.6026763,17892.865122633,3670687.5261029,7.5348434843484,0,0
86.695229196406,-9.111514080795,2.3392739273927,1289267.6026763,17892.865122633,3670687.5261029,7.5392739273927,0,0
86.695229301499,-9.1135672028693,2.343704370437,1289267.6026763,17892.865122633,3670687.5261029,7.543704370437,0,0
86.695229406592,-9.1156203249435,2.3481348134813,1289267.6026763,17892.865122633,3670687.5261029,7.5481348134813,0,0
86.695229511685,-9.1176734470178,2.3525652565257,1289267.6026763,17892.865122633,3670687.5261029,7.5525652565257,0,0
86.695229616778,-9.119726569092,2.35699569957,1289267.6026763,17892.865122633,3670687.5261029,7.55699569957,0,0
86.695229721871,-9.1217796911663,2.3614261426143,1289267.6026763,17892.865122633,3670687.5261029,7.5614261426143,0,0
86.695229826964,-9.1238328132405,2.3658565856586,1289267.6026763,17892.865122633,3670687.5261029,7.5658565856586,0,0
86.695229932057,-9.1258859353148,2.3702870287029,1289267.6026763,17892.865122633,3670687.5261029,7.5702870287029,0,0
86.69523003715,-9.127939057389,2.3747174717472,1289267.6026763,17892.865122633,3670687.5261029,7.5747174717472,0,0
86.695230142243,-9.1299921794633,2.3791479147915,1289267.6026763,17892.865122633,3670687.5261029,7.5791479147915,0,0
86.695230247336,-9.1320453015375,2.3835783578358,1289267.6026763,17892.865122633,3670687.5261029,7.5835783578358,0,0
86.695230352429,-9.1340984236118,2.3880088008801,1289267.6026763,17892.865122633,3670687.5261029,7.5880088008801,0,0
86.695230457522,-9.136151545686,2.3924392439244,1289267.6026763,17892.865122633,3670687.5261029,7.5924392439244,0,0
86.695230562615,-9.1382046677603,2.3968696869687,1289267.6026763,17892.865122633,3670687.5261029,7.5968696869687,0,0
86.695230667708,-9.1402577898345,2.401300130013,1289267.6026763,17892.865122633,3670687.5261029,7.601300130013,0,0
86.695230772801,-9.1423109119088,2.4057305730573,1289267.6026763,17892.865122633,3670687.5261029,7.6057305730573,0,0
86.695230877894,-9.144364033983,2.4101610161016,1289267.6026763,17892.865122633,3670687.5261029,7.6101610161016,0,0
86.695230982987,-9.1464171560573,2.4145914591459,1289267.6026763,17892.865122633,3670687.5261029,7.6145914591459,0,0
86.69523108808,-9.1484702781315,2.4190219021902,1289267.6026763,17892.865122633,3670687.5261029,7.6190219021902,0,0
86.695231193172,-9.1505234002058,2.4234523452345,1289267.6026763,17892.865122633,3670687.5261029,7.6234523452345,0,0
86.695231298265,-9.15257652228,2.4278827882788,1289267.6026763,17892.865122633,3670687.5261029,7.6278827882788,0,0
86.695231403358,-9.1546296443543,2.4323132313231,1289267.6026763,17892.865122633,3670687.5261029,7.6323132313231,0,0
86.695231508451,-9.1566827664285,2.4367436743674,1289267.6026763,17892.865122633,3670687.5261029,7.6367436743674,0,0
86.695231613544,-9.1587358885028,2.4411741174117,1289267.6026763,17892.865122633,3670687.5261029,7.6411741174117,0,0
86.695231718637,-9.160789010577,2.445604560456,1289267.6026763,17892.865122633,3670687.5261029,7.645604560456,0,0
86.69523182373,-9.1628421326513,2.4500350035003,1289267.6026763,17892.865122633,3670687.5261029,7.6500350035004,0,0
86.695231928823,-9.1648952547255,2.4544654465447,1289267.6026763,17892.865122633,3670687.5261029,7.6544654465447,0,0
86.695232036754,-9.1669483841284,2.458895889589,1327410.7821712,-27566.77209959,3612364.9697925,7.658895889589,0,0
86.695232146446,-9.1690015180825,2.4633263326333,1327410.7821712,-27566.77209959,3612364.9697925,7.6633263326333,0,0
86.695232256139,-9.1710546520367,2.4677567756776,1327410.7821712,-27566.77209959,3612364.9697925,7.6677567756776,0,0
86.695232365831,-9.1731077859908,2.4721872187219,1327410.7821712,-27566.77209959,3612364.9697925,7.6721872187219,0,0
86.695232475524,-9.1751609199449,2.4766176617662,1327410.7821712,-27566.77209959,3612364.9697925,7.6766176617662,0,0
86.695232585216,-9.177214053899,2.4810481048105,1327410.7821712,-27566.77209959,3612364.9697925,7.6810481048105,0,0
86.695232694909,-9.1792671878531,2.4854785478548,1327410.7821712,-27566.77209959,3612364.9697925,7.6854785478548,0,0
86.695232804601,-9.1813203218073,2.4899089908991,1327410.7821712,-27566.77209959,3612364.9697925,7.6899089908991,0,0
86.695232914294,-9.1833734557614,2.4943394339434,1327410.7821712,-27566.77209959,3612364.9697925,7.6943394339434,0,0
86.695233023986,-9.1854265897155,2.4987698769877,1327410.7821712,-27566.77209959,3612364.9697925,7.6987698769877,0,0
86.695233133679,-9.1874797236696,2.503200320032,1327410.7821712,-27566.77209959,3612364.9697925,7.703200320032,0,0
86.695233243372,-9.1895328576237,2.5076307630763,1327410.7821712,-27566.77209959,3612364.9697925,7.7076307630763,0,0
86.695233353064,-9.1915859915779,2.5120612061206,1327410.7821712,-27566.77209959,3612364.9697925,7.7120612061206,0,0
86.695233462757,-9.193639125532,2.5164916491649,1327410.7821712,-27566.77209959,3612364.9697925,7.7164916491649,0,0
86.695233572449,-9.1956922594861,2.5209220922092,1327410.7821712,-27566.77209959,3612364.9697925,7.7209220922092,0,0
86.695233682142,-9.1977453934402,2.5253525352535,1327410.7821712,-27566.77209959,3612364.9697925,7.7253525352535,0,0
86.695233791834,-9.1997985273943,2.5297829782978,1327410.7821712,-27566.77209959,3612364.9697925,7.7297829782978,0,0
86.695233901527,-9.2018516613485,2.5342134213421,1327410.7821712,-27566.77209959,3612364.9697925,7.7342134213421,0,0
86.695234011219,-9.2039047953026,2.5386438643864,1327410.7821712,-27566.77209959,3612364.9697925,7.7386438643864,0,0
86.695234120912,-9.2059579292567,2.5430743074307,1327410.7821712,-27566.77209959,3612364.9697925,7.7430743074307,0,0
86.695234230604,-9.2080110632108,2.547504750475,1327410.7821712,-27566.77209959,3612364.9697925,7.747504750475,0,0
86.695234340297,-9.2100641971649,2.5519351935194,1327410.7821712,-27566.77209959,3612364.9697925,7.7519351935194,0,0
86.695234449989,-9.2121173311191,2.5563656365637,1327410.7821712,-27566.77209959,3612364.9697925,7.7563656365637,0,0
86.695234559682,-9.2141704650732,2.560796079608,1327410.7821712,-27566.77209959,3612364.9697925,7.760796079608,0,0
86.695234669374,-9.2162235990273,2.5652265226523,1327410.7821712,-27566.77209959,3612364.9697925,7.7652265226523,0,0
86.695234779067,-9.2182767329814,2.5696569656966,1327410.7821712,-27566.77209959,3612364.9697925,7.7696569656966,0,0
86.69523488876,-9.2203298669355,2.5740874087409,1327410.7821712,-27566.77209959,3612364.9697925,7.7740874087409,0,0
86.695234998452,-9.2223830008896,2.5785178517852,1327410.7821712,-27566.77209959,3612364.9697925,7.7785178517852,0,0
86.695235108145,-9.2244361348438,2.5829482948295,1327410.7821712,-27566.77209959,3612364.9697925,7.7829482948295,0,0
86.695235217837,-9.2264892687979,2.5873787378738,1327410.7821712,-27566.77209959,3612364.9697925,7.7873787378738,0,0
86.69523532753,-9.228542402752,2.5918091809181,1327410.7821712,-27566.77209959,3612364.9697925,7.7918091809181,0,0
86.695235437222,-9.2305955367061,2.5962396239624,1327410.7821712,-27566.77209959,3612364.9697925,7.7962396239624,0,0
86.695235546915,-9.2326486706602,2.6006700670067,1327410.7821712,-27566.77209959,3612364.9697925,7.8006700670067,0,0
86.695235656607,-9.2347018046144,2.605100510051,1327410.7821712,-27566.77209959,3612364.9697925,7.805100510051,0,0
86.6952357663,-9.2367549385685,2.6095309530953,1327410.7821712,-27566.77209959,3612364.9697925,7.8095309530953,0,0
86.695235875992,-9.2388080725226,2.6139613961396,1327410.7821712,-27566.77209959,3612364.9697925,7.8139613961396,0,0
86.695235985685,-9.2408612064767,2.6183918391839,1327410.7821712,-27566.77209959,3612364.9697925,7.8183918391839,0,0
86.695236095377,-9.2429143404308,2.6228222822282,1327410.7821712,-27566.77209959,3612364.9697925,7.8228222822282,0,0
86.695236206371,-9.2449674711585,2.6272527252725,1364978.1056562,16402.43265248,3543651.5280158,7.8272527252725,0,0
86.695236320893,-9.2470205931312,2.6316831683168,1364978.1056562,16402.43265248,3543651.5280158,7.8316831683168,0,0
86.695236435416,-9.2490737151039,2.6361136113611,1364978.1056562,16402.43265248,3543651.5280158,7.8361136113611,0,0
86.695236549939,-9.2511268370766,2.6405440544054,1364978.1056562,16402.43265248,3543651.5280158,7.8405440544054,0,0
86.695236664462,-9.2531799590493,2.6449744974497,1364978.1056562,16402.43265248,3543651.5280158,7.8449744974497,0,0
86.695236778985,-9.255233081022,2.649404940494,1364978.1056562,16402.43265248,3543651.5280158,7.849404940494,0,0
86.695236893507,-9.2572862029946,2.6538353835384,1364978.1056561,16402.43265248,3543651.5280158,7.8538353835384,0,0
86.69523700803,-9.2593393249673,2.6582658265827,1364978.1056561,16402.43265248,3543651.5280158,7.8582658265827,0,0
86.695237122553,-9.26139244694,2.662696269627,1364978.1056561,16402.43265248,3543651.5280158,7.862696269627,0,0
86.695237237076,-9.2634455689127,2.6671267126713,1364978.1056561,16402.43265248,3543651.5280158,7.8671267126713,0,0
86.695237351598,-9.2654986908854,2.6715571557156,1364978.1056561,16402.43265248,3543651.5280158,7.8715571557156,0,0
86.695237466121,-9.2675518128581,2.6759875987599,1364978.1056561,16402.43265248,3543651.5280158,7.8759875987599,0,0
86.695237580644,-9.2696049348307,2.6804180418042,1364978.1056561,16402.43265248,3543651.5280158,7.8804180418042,0,0
86.695237695167,-9.2716580568034,2.6848484848485,1364978.1056561,16402.43265248,3543651.5280158,7.8848484848485,0,0
86.695237809689,-9.2737111787761,2.6892789278928,1364978.1056561,16402.43265248,3543651.5280158,7.8892789278928,0,0
86.695237924212,-9.2757643007488,2.6937093709371,1364978.1056561,16402.43265248,3543651.5280158,7.8937093709371,0,0
86.695238038735,-9.2778174227215,2.6981398139814,1364978.1056561,16402.43265248,3543651.5280158,7.8981398139814,0,0
86.695238153258,-9.2798705446941,2.7025702570257,1364978.1056561,16402.43265248,3543651.5280158,7.9025702570257,0,0
86.69523826778,-9.2819236666668,2.70700070007,1364978.1056561,16402.43265248,3543651.5280158,7.90700070007,0,0
86.695238382303,-9.2839767886395,2.7114311431143,1364978.1056561,16402.43265248,3543651.5280158,7.9114311431143,0,0
86.695238496826,-9.2860299106122,2.7158615861586,1364978.1056561,16402.43265248,3543651.5280158,7.9158615861586,0,0
86.695238611349,-9.2880830325849,2.7202920292029,1364978.1056561,16402.43265248,3543651.5280158,7.9202920292029,0,0
86.695238725872,-9.2901361545576,2.7247224722472,1364978.1056561,16402.43265248,3543651.5280158,7.9247224722472,0,0
86.695238840394,-9.2921892765302,2.7291529152915,1364978.1056561,16402.43265248,3543651.5280158,7.9291529152915,0,0
86.695238954917,-9.2942423985029,2.7335833583358,1364978.1056561,16402.43265248,3543651.5280158,7.9335833583358,0,0
86.69523906944,-9.2962955204756,2.7380138013801,1364978.1056561,16402.43265248,3543651.5280158,7.9380138013801,0,0
86.695239183963,-9.2983486424483,2.7424442444244,1364978.1056561,16402.43265248,3543651.5280158,7.9424442444244,0,0
86.695239298485,-9.300401764421,2.7468746874687,1364978.1056561,16402.43265248,3543651.5280158,7.9468746874687,0,0
86.695239413008,-9.3024548863937,2.7513051305131,1364978.1056561,16402.43265248,3543651.5280158,7.9513051305131,0,0
86.695239527531,-9.3045080083663,2.7557355735574,1364978.1056561,16402.43265248,3543651.5280158,7.9557355735574,0,0
86.695239642054,-9.306561130339,2.7601660166017,1364978.1056561,16402.43265248,3543651.5280158,7.9601660166017,0,0
86.695239756576,-9.3086142523117,2.764596459646,1364978.1056561,16402.43265248,3543651.5280158,7.964596459646,0,0
86.695239871099,-9.3106673742844,2.7690269026903,1364978.1056561,16402.43265248,3543651.5280158,7.9690269026903,0,0
86.695239985622,-9.3127204962571,2.7734573457346,1364978.1056561,16402.43265248,3543651.5280158,7.9734573457346,0,0
86.695240100145,-9.3147736182298,2.7778877887789,1364978.1056561,16402.43265248,3543651.5280158,7.9778877887789,0,0
86.695240214668,-9.3168267402024,2.7823182318232,1364978.1056561,16402.43265248,3543651.5280158,7.9823182318232,0,0
86.69524032919,-9.3188798621751,2.7867486748675,1364978.1056561,16402.43265248,3543651.5280158,7.9867486748675,0,0
86.695240443713,-9.3209329841478,2.7911791179118,1364978.1056561,16402.43265248,3543651.5280158,7.9911791179118,0,0
86.695240558236,-9.3229861061205,2.7956095609561,1364978.1056561,16402.43265248,3543651.5280158,7.9956095609561,0,0
86.695240672759,-9.3250392280932,2.8000400040004,1364978.1056561,16402.43265248,3543651.5280158,8.0000400040004,0,0
86.695240787281,-9.3270923500658,2.8044704470447,1364978.1056561,16402.43265248,3543651.5280158,8.0044704470447,0,0
86.695240901804,-9.3291454720385,2.808900890089,1364978.1056561,16402.43265248,3543651.5280158,8.008900890089,0,0
86.695241016327,-9.3311985940112,2.8133313331333,1364978.1056561,16402.43265248,3543651.5280158,8.0133313331333,0,0
86.69524113085,-9.3332517159839,2.8177617761776,1364978.1056561,16402.43265248,3543651.5280158,8.0177617761776,0,0
86.695241245372,-9.3353048379566,2.8221922192219,1364978.1056561,16402.43265248,3543651.5280158,8.0221922192219,0,0
86.695241359895,-9.3373579599293,2.8266226622662,1364978.1056561,16402.43265248,3543651.5280158,8.0266226622662,0,0
86.695241474418,-9.3394110819019,2.8310531053105,1364978.1056561,16402.43265248,3543651.5280158,8.0310531053105,0,0
86.695241588941,-9.3414642038746,2.8354835483548,1364978.1056561,16402.43265248,3543651.5280158,8.0354835483548,0,0
86.695241703463,-9.3435173258473,2.8399139913991,1364978.1056561,16402.43265248,3543651.5280158,8.0399139913991,0,0
86.695241817986,-9.34557044782,2.8443444344434,1364978.1056561,16402.43265248,3543651.5280158,8.0443444344434,0,0
86.695241932509,-9.3476235697927,2.8487748774877,1364978.1056561,16402.43265248,3543651.5280158,8.0487748774877,0,0
86.695242047032,-9.3496766917654,2.8532053205321,1364978.1056561,16402.43265248,3543651.5280158,8.0532053205321,0,0
86.695242161555,-9.351729813738,2.8576357635764,1364978.1056561,16402.43265248,3543651.5280158,8.0576357635764,0,0
86.695242276077,-9.3537829357107,2.8620662066207,1364978.1056561,16402.43265248,3543651.5280158,8.0620662066207,0,0
86.6952423906,-9.3558360576834,2.866496649665,1364978.1056561,16402.43265248,3543651.5280158,8.066496649665,0,0
86.695242505123,-9.3578891796561,2.8709270927093,1364978.1056561,16402.43265248,3543651.5280158,8.0709270927093,0,0
86.695242622552,-9.3599423074776,2.8753575357536,1420506.4889137,-24421.913003607,3507319.4913235,8.0753575357536,0,0
86.695242742477,-9.3619954403227,2.8797879787979,1420506.4889137,-24421.913003607,3507319.4913235,8.0797879787979,0,0
86.695242862403,-9.3640485731678,2.8842184218422,1420506.4889137,-24421.913003607,3507319.4913235,8.0842184218422,0,0
86.695242982328,-9.3661017060129,2.8886488648865,1420506.4889137,-24421.913003607,3507319.4913235,8.0886488648865,0,0
86.695243102254,-9.368154838858,2.8930793079308,1420506.4889137,-24421.913003607,3507319.4913235,8.0930793079308,0,0
86.695243222179,-9.3702079717031,2.8975097509751,1420506.4889137,-24421.913003607,3507319.4913235,8.0975097509751,0,0
86.695243342105,-9.3722611045482,2.9019401940194,1420506.4889137,-24421.913003607,3507319.4913235,8.1019401940194,0,0
86.69524346203,-9.3743142373934,2.9063706370637,1420506.4889137,-24421.913003607,3507319.4913235,8.1063706370637,0,0
86.695243581956,-9.3763673702385,2.910801080108,1420506.4889137,-24421.913003607,3507319.4913235,8.110801080108,0,0
86.695243701881,-9.3784205030836,2.9152315231523,1420506.4889137,-24421.913003607,3507319.4913235,8.1152315231523,0,0
86.695243821807,-9.3804736359287,2.9196619661966,1420506.4889137,-24421.913003607,3507319.4913235,8.1196619661966,0,0
86.695243941732,-9.3825267687738,2.9240924092409,1420506.4889137,-24421.913003607,3507319.4913235,8.1240924092409,0,0
86.695244061658,-9.3845799016189,2.9285228522852,1420506.4889137,-24421.913003607,3507319.4913235,8.1285228522852,0,0
86.695244181583,-9.386633034464,2.9329532953295,1420506.4889137,-24421.913003607,3507319.4913235,8.1329532953295,0,0
86.695244301509,-9.3886861673091,2.9373837383738,1420506.4889137,-24421.913003607,3507319.4913235,8.1373837383738,0,0
86.695244421434,-9.3907393001543,2.9418141814181,1420506.4889137,-24421.913003607,3507319.4913235,8.1418141814181,0,0
86.69524454136,-9.3927924329994,2.9462446244624,1420506.4889137,-24421.913003607,3507319.4913235,8.1462446244624,0,0
86.695244661285,-9.3948455658445,2.9506750675067,1420506.4889137,-24421.913003607,3507319.4913235,8.1506750675068,0,0
86.695244781211,-9.3968986986896,2.9551055105511,1420506.4889137,-24421.913003607,3507319.4913235,8.1551055105511,0,0
86.695244901136,-9.3989518315347,2.9595359535954,1420506.4889137,-24421.913003607,3507319.4913235,8.1595359535954,0,0
86.695245021062,-9.4010049643798,2.9639663966397,1420506.4889137,-24421.913003607,3507319.4913235,8.1639663966397,0,0
86.695245140987,-9.4030580972249,2.968396839684,1420506.4889137,-24421.913003607,3507319.4913235,8.168396839684,0,0
86.695245260913,-9.40511123007,2.9728272827283,1420506.4889137,-24421.913003607,3507319.4913235,8.1728272827283,0,0
86.695245380838,-9.4071643629151,2.9772577257726,1420506.4889137,-24421.913003607,3507319.4913235,8.1772577257726,0,0
86.695245500764,-9.4092174957603,2.9816881688169,1420506.4889137,-24421.913003607,3507319.4913235,8.1816881688169,0,0
86.695245620689,-9.4112706286054,2.9861186118612,1420506.4889137,-24421.913003607,3507319.4913235,8.1861186118612,0,0
86.695245740615,-9.4133237614505,2.9905490549055,1420506.4889137,-24421.913003607,3507319.4913235,8.1905490549055,0,0
86.69524586054,-9.4153768942956,2.9949794979498,1420506.4889137,-24421.913003607,3507319.4913235,8.1949794979498,0,0
86.695245980466,-9.4174300271407,2.9994099409941,1420506.4889137,-24421.913003607,3507319.4913235,8.1994099409941,0,0
86.695246100391,-9.4194831599858,3.0038403840384,1420506.4889137,-24421.913003607,3507319.4913235,8.2038403840384,0,0
86.695246220317,-9.4215362928309,3.0082708270827,1420506.4889137,-24421.913003607,3507319.4913235,8.2082708270827,0,0
86.695246340242,-9.423589425676,3.012701270127,1420506.4889137,-24421.913003607,3507319.4913235,8.212701270127,0,0
86.695246460168,-9.4256425585212,3.0171317131713,1420506.4889137,-24421.913003607,3507319.4913235,8.2171317131713,0,0
86.695246580093,-9.4276956913663,3.0215621562156,1420506.4889137,-24421.913003607,3507319.4913235,8.2215621562156,0,0
86.695246700019,-9.4297488242114,3.0259925992599,1420506.4889137,-24421.913003607,3507319.4913235,8.2259925992599,0,0
86.695246819944,-9.4318019570565,3.0304230423042,1420506.4889137,-24421.913003607,3507319.4913235,8.2304230423042,0,0
86.69524693987,-9.4338550899016,3.0348534853485,1420506.4889137,-24421.913003607,3507319.4913235,8.2348534853485,0,0
86.695247059795,-9.4359082227467,3.0392839283928,1420506.4889137,-24421.913003607,3507319.4913235,8.2392839283928,0,0
86.695247179721,-9.4379613555918,3.0437143714371,1420506.4889137,-24421.913003607,3507319.4913235,8.2437143714371,0,0
86.695247299646,-9.4400144884369,3.0481448144814,1420506.4889137,-24421.913003607,3507319.4913235,8.2481448144814,0,0
86.695247419572,-9.4420676212821,3.0525752575258,1420506.4889137,-24421.913003607,3507319.4913235,8.2525752575258,0,0
86.695247539497,-9.4441207541272,3.0570057005701,1420506.4889137,-24421.913003607,3507319.4913235,8.2570057005701,0,0
86.695247659423,-9.4461738869723,3.0614361436144,1420506.4889137,-24421.913003607,3507319.4913235,8.2614361436144,0,0
86.695247779348,-9.4482270198174,3.0658665866587,1420506.4889137,-24421.913003607,3507319.4913235,8.2658665866587,0,0
86.695247899274,-9.4502801526625,3.070297029703,1420506.4889137,-24421.913003607,3507319.4913235,8.270297029703,0,0
86.695248019199,-9.4523332855076,3.0747274727473,1420506.4889137,-24421.913003607,3507319.4913235,8.2747274727473,0,0
86.695248139125,-9.4543864183527,3.0791579157916,1420506.4889137,-24421.913003607,3507319.4913235,8.2791579157916,0,0
86.69524825905,-9.4564395511978,3.0835883588359,1420506.4889137,-24421.913003607,3507319.4913235,8.2835883588359,0,0
86.695248380118,-9.4584926800944,3.0880188018802,1422486.6007862,10223.068294408,3407974.2040558,8.2880188018802,0,0
86.695248502847,-9.4605458032492,3.0924492449245,1422486.6007862,10223.068294408,3407974.2040558,8.2924492449245,0,0
86.695248625575,-9.4625989264041,3.0968796879688,1422486.6007862,10223.068294408,3407974.2040558,8.2968796879688,0,0
86.695248748304,-9.4646520495589,3.1013101310131,1422486.6007862,10223.068294408,3407974.2040558,8.3013101310131,0,0
86.695248871033,-9.4667051727137,3.1057405740574,1422486.6007862,10223.068294408,3407974.2040558,8.3057405740574,0,0
86.695248993762,-9.4687582958686,3.1101710171017,1422486.6007862,10223.068294408,3407974.2040558,8.3101710171017,0,0
86.69524911649,-9.4708114190234,3.114601460146,1422486.6007862,10223.068294408,3407974.2040558,8.314601460146,0,0
86.695249239219,-9.4728645421783,3.1190319031903,1422486.6007862,10223.068294408,3407974.2040558,8.3190319031903,0,0
86.695249361948,-9.4749176653331,3.1234623462346,1422486.6007862,10223.068294408,3407974.2040558,8.3234623462346,0,0
86.695249484676,-9.476970788488,3.1278927892789,1422486.6007862,10223.068294408,3407974.2040558,8.3278927892789,0,0
86.695249607405,-9.4790239116428,3.1323232323232,1422486.6007862,10223.068294408,3407974.2040558,8.3323232323232,0,0
86.695249730134,-9.4810770347977,3.1367536753675,1422486.6007862,10223.068294408,3407974.2040558,8.3367536753675,0,0
86.695249852863,-9.4831301579525,3.1411841184118,1422486.6007862,10223.068294408,3407974.2040558,8.3411841184118,0,0
86.695249975591,-9.4851832811073,3.1456145614561,1422486.6007862,10223.068294408,3407974.2040558,8.3456145614561,0,0
86.69525009832,-9.4872364042622,3.1500450045004,1422486.6007862,10223.068294408,3407974.2040558,8.3500450045004,0,0
86.695250221049,-9.489289527417,3.1544754475448,1422486.6007862,10223.068294408,3407974.2040558,8.3544754475448,0,0
86.695250343778,-9.4913426505719,3.1589058905891,1422486.6007862,10223.068294408,3407974.2040558,8.3589058905891,0,0
86.695250466506,-9.4933957737267,3.1633363336334,1422486.6007862,10223.068294408,3407974.2040558,8.3633363336334,0,0
86.695250589235,-9.4954488968816,3.1677667766777,1422486.6007862,10223.068294408,3407974.2040558,8.3677667766777,0,0
86.695250711964,-9.4975020200364,3.172197219722,1422486.6007862,10223.068294408,3407974.2040558,8.372197219722,0,0
86.695250834693,-9.4995551431912,3.1766276627663,1422486.6007862,10223.068294408,3407974.2040558,8.3766276627663,0,0
86.695250957421,-9.5016082663461,3.1810581058106,1422486.6007862,10223.068294408,3407974.2040558,8.3810581058106,0,0
86.69525108015,-9.5036613895009,3.1854885488549,1422486.6007862,10223.068294408,3407974.2040558,8.3854885488549,0,0
86.695251202879,-9.5057145126558,3.1899189918992,1422486.6007862,10223.068294408,3407974.2040558,8.3899189918992,0,0
86.695251325608,-9.5077676358106,3.1943494349435,1422486.6007862,10223.068294408,3407974.2040558,8.3943494349435,0,0
86.695251448336,-9.5098207589655,3.1987798779878,1422486.6007862,10223.068294408,3407974.2040558,8.3987798779878,0,0
86.695251571065,-9.5118738821203,3.2032103210321,1422486.6007862,10223.068294408,3407974.2040558,8.4032103210321,0,0
86.695251693794,-9.5139270052751,3.2076407640764,1422486.6007862,10223.068294408,3407974.2040558,8.4076407640764,0,0
86.695251816523,-9.51598012843,3.2120712071207,1422486.6007862,10223.068294408,3407974.2040558,8.4120712071207,0,0
86.695251939251,-9.5180332515848,3.216501650165,1422486.6007862,10223.068294408,3407974.2040558,8.416501650165,0,0
86.69525206198,-9.5200863747397,3.2209320932093,1422486.6007862,10223.068294408,3407974.2040558,8.4209320932093,0,0
86.695252184709,-9.5221394978945,3.2253625362536,1422486.6007862,10223.068294408,3407974.2040558,8.4253625362536,0,0
86.695252307438,-9.5241926210494,3.2297929792979,1422486.6007862,10223.068294408,3407974.2040558,8.4297929792979,0,0
86.695252430166,-9.5262457442042,3.2342234223422,1422486.6007862,10223.068294408,3407974.2040558,8.4342234223422,0,0
86.695252552895,-9.5282988673591,3.2386538653865,1422486.6007862,10223.068294408,3407974.2040558,8.4386538653865,0,0
86.695252675624,-9.5303519905139,3.2430843084308,1422486.6007862,10223.068294408,3407974.2040558,8.4430843084308,0,0
86.695252798353,-9.5324051136687,3.2475147514751,1422486.6007862,10223.068294408,3407974.2040558,8.4475147514751,0,0
86.695252921081,-9.5344582368236,3.2519451945195,1422486.6007862,10223.068294408,3407974.2040558,8.4519451945195,0,0
86.69525304381,-9.5365113599784,3.2563756375638,1422486.6007862,10223.068294408,3407974.2040558,8.4563756375638,0,0
86.695253166539,-9.5385644831333,3.2608060806081,1422486.6007862,10223.068294408,3407974.2040558,8.4608060806081,0,0
86.695253289268,-9.5406176062881,3.2652365236524,1422486.6007862,10223.068294408,3407974.2040558,8.4652365236524,0,0
86.695253411996,-9.542670729443,3.2696669666967,1422486.6007862,10223.068294408,3407974.2040558,8.4696669666967,0,0
86.695253534725,-9.5447238525978,3.274097409741,1422486.6007862,10223.068294408,3407974.2040558,8.474097409741,0,0
86.695253657454,-9.5467769757526,3.2785278527853,1422486.6007862,10223.068294408,3407974.2040558,8.4785278527853,0,0
86.695253782655,-9.5488300995996,3.2829582958296,1485664.6363317,5906.6638345939,3427822.2036183,8.4829582958296,0,0
86.695253909901,-9.5508832240194,3.2873887388739,1485664.6363317,5906.6638345939,3427822.2036183,8.4873887388739,0,0
86.695254037148,-9.5529363484393,3.2918191819182,1485664.6363317,5906.6638345939,3427822.2036183,8.4918191819182,0,0
86.695254164395,-9.5549894728591,3.2962496249625,1485664.6363317,5906.6638345939,3427822.2036183,8.4962496249625,0,0
86.695254291641,-9.5570425972789,3.3006800680068,1485664.6363317,5906.6638345939,3427822.2036183,8.5006800680068,0,0
86.695254418888,-9.5590957216987,3.3051105110511,1485664.6363317,5906.6638345939,3427822.2036183,8.5051105110511,0,0
86.695254546135,-9.5611488461185,3.3095409540954,1485664.6363317,5906.6638345939,3427822.2036183,8.5095409540954,0,0
86.695254673381,-9.5632019705384,3.3139713971397,1485664.6363317,5906.6638345939,3427822.2036183,8.5139713971397,0,0
86.695254800628,-9.5652550949582,3.318401840184,1485664.6363317,5906.6638345939,3427822.2036183,8.518401840184,0,0
86.695254927875,-9.567308219378,3.3228322832283,1485664.6363317,5906.6638345939,3427822.2036183,8.5228322832283,0,0
86.695255055121,-9.5693613437978,3.3272627262726,1485664.6363317,5906.6638345939,3427822.2036183,8.5272627262726,0,0
86.695255182368,-9.5714144682176,3.3316931693169,1485664.6363317,5906.6638345939,3427822.2036183,8.5316931693169,0,0
86.695255309615,-9.5734675926375,3.3361236123612,1485664.6363317,5906.6638345939,3427822.2036183,8.5361236123612,0,0
86.695255436861,-9.5755207170573,3.3405540554055,1485664.6363317,5906.6638345939,3427822.2036183,8.5405540554055,0,0
86.695255564108,-9.5775738414771,3.3449844984498,1485664.6363317,5906.6638345939,3427822.2036183,8.5449844984498,0,0
86.695255691355,-9.5796269658969,3.3494149414941,1485664.6363317,5906.6638345939,3427822.2036183,8.5494149414941,0,0
86.695255818602,-9.5816800903167,3.3538453845385,1485664.6363317,5906.6638345939,3427822.2036183,8.5538453845385,0,0
86.695255945848,-9.5837332147366,3.3582758275828,1485664.6363317,5906.6638345939,3427822.2036183,8.5582758275828,0,0
86.695256073095,-9.5857863391564,3.3627062706271,1485664.6363317,5906.6638345939,3427822.2036183,8.5627062706271,0,0
86.695256200342,-9.5878394635762,3.3671367136714,1485664.6363317,5906.6638345939,3427822.2036183,8.5671367136714,0,0
86.695256327588,-9.589892587996,3.3715671567157,1485664.6363317,5906.6638345939,3427822.2036183,8.5715671567157,0,0
86.695256454835,-9.5919457124159,3.37599759976,1485664.6363317,5906.6638345939,3427822.2036183,8.57599759976,0,0
86.695256582082,-9.5939988368357,3.3804280428043,1485664.6363317,5906.6638345939,3427822.2036183,8.5804280428043,0,0
86.695256709328,-9.5960519612555,3.3848584858486,1485664.6363317,5906.6638345939,3427822.2036183,8.5848584858486,0,0
86.695256836575,-9.5981050856753,3.3892889288929,1485664.6363317,5906.6638345939,3427822.2036183,8.5892889288929,0,0
86.695256963822,-9.6001582100951,3.3937193719372,1485664.6363317,5906.6638345939,3427822.2036183,8.5937193719372,0,0
86.695257091068,-9.602211334515,3.3981498149815,1485664.6363317,5906.6638345939,3427822.2036183,8.5981498149815,0,0
86.695257218315,-9.6042644589348,3.4025802580258,1485664.6363317,5906.6638345939,3427822.2036183,8.6025802580258,0,0
86.695257345562,-9.6063175833546,3.4070107010701,1485664.6363317,5906.6638345939,3427822.2036183,8.6070107010701,0,0
86.695257472808,-9.6083707077744,3.4114411441144,1485664.6363317,5906.6638345939,3427822.2036183,8.6114411441144,0,0
86.695257600055,-9.6104238321942,3.4158715871587,1485664.6363317,5906.6638345939,3427822.2036183,8.6158715871587,0,0
86.695257727302,-9.6124769566141,3.420302030203,1485664.6363317,5906.6638345939,3427822.2036183,8.620302030203,0,0
86.695257854548,-9.6145300810339,3.4247324732473,1485664.6363317,5906.6638345939,3427822.2036183,8.6247324732473,0,0
86.695257981795,-9.6165832054537,3.4291629162916,1485664.6363317,5906.6638345939,3427822.2036183,8.6291629162916,0,0
86.695258109042,-9.6186363298735,3.4335933593359,1485664.6363317,5906.6638345939,3427822.2036183,8.6335933593359,0,0
86.695258236289,-9.6206894542933,3.4380238023802,1485664.6363317,5906.6638345939,3427822.2036183,8.6380238023802,0,0
86.695258363535,-9.6227425787132,3.4424542454245,1485664.6363317,5906.6638345939,3427822.2036183,8.6424542454245,0,0
86.695258490782,-9.624795703133,3.4468846884688,1485664.6363317,5906.6638345939,3427822.2036183,8.6468846884688,0,0
86.695258618029,-9.6268488275528,3.4513151315132,1485664.6363317,5906.6638345939,3427822.2036183,8.6513151315132,0,0
86.695258745275,-9.6289019519726,3.4557455745575,1485664.6363317,5906.6638345939,3427822.2036183,8.6557455745575,0,0
86.695258872522,-9.6309550763924,3.4601760176018,1485664.6363317,5906.6638345939,3427822.2036183,8.6601760176018,0,0
86.695258999769,-9.6330082008123,3.4646064606461,1485664.6363317,5906.6638345939,3427822.2036183,8.6646064606461,0,0
86.695259127015,-9.6350613252321,3.4690369036904,1485664.6363317,5906.6638345939,3427822.2036183,8.6690369036904,0,0
86.695259254262,-9.6371144496519,3.4734673467347,1485664.6363317,5906.6638345939,3427822.2036183,8.6734673467347,0,0
86.695259381509,-9.6391675740717,3.477897789779,1485664.6363317,5906.6638345939,3427822.2036183,8.677897789779,0,0
86.695259508755,-9.6412206984915,3.4823282328233,1485664.6363317,5906.6638345939,3427822.2036183,8.6823282328233,0,0
86.695259636002,-9.6432738229114,3.4867586758676,1485664.6363317,5906.6638345939,3427822.2036183,8.6867586758676,0,0
86.695259763249,-9.6453269473312,3.4911891189119,1485664.6363317,5906.6638345939,3427822.2036183,8.6911891189119,0,0
86.695259890495,-9.647380071751,3.4956195619562,1485664.6363317,5906.6638345939,3427822.2036183,8.6956195619562,0,0
86.695260017991,-9.649433197722,3.5000500050005,1465344.6988814,-21665.10200226,3323951.0238855,8.7000500050005,0,0
86.69526014638,-9.6514863292596,3.5044804480448,1465344.6988814,-21665.10200226,3323951.0238855,8.7044804480448,0,0
86.695260274769,-9.6535394607972,3.5089108910891,1465344.6988814,-21665.10200226,3323951.0238855,8.7089108910891,0,0
86.695260403159,-9.6555925923348,3.5133413341334,1465344.6988814,-21665.10200226,3323951.0238855,8.7133413341334,0,0
86.695260531548,-9.6576457238724,3.5177717771777,1465344.6988814,-21665.10200226,3323951.0238855,8.7177717771777,0,0
86.695260659937,-9.65969885541,3.522202220222,1465344.6988814,-21665.10200226,3323951.0238855,8.722202220222,0,0
86.695260788326,-9.6617519869476,3.5266326632663,1465344.6988814,-21665.10200226,3323951.0238855,8.7266326632663,0,0
86.695260916716,-9.6638051184852,3.5310631063106,1465344.6988814,-21665.10200226,3323951.0238855,8.7310631063106,0,0
86.695261045105,-9.6658582500228,3.5354935493549,1465344.6988814,-21665.10200226,3323951.0238855,8.7354935493549,0,0
86.695261173494,-9.6679113815604,3.5399239923992,1465344.6988814,-21665.10200226,3323951.0238855,8.7399239923992,0,0
86.695261301883,-9.669964513098,3.5443544354435,1465344.6988814,-21665.10200226,3323951.0238855,8.7443544354435,0,0
86.695261430272,-9.6720176446356,3.5487848784878,1465344.6988814,-21665.10200226,3323951.0238855,8.7487848784878,0,0
86.695261558662,-9.6740707761732,3.5532153215322,1465344.6988814,-21665.10200226,3323951.0238855,8.7532153215322,0,0
86.695261687051,-9.6761239077108,3.5576457645765,1465344.6988814,-21665.10200226,3323951.0238855,8.7576457645765,0,0
86.69526181544,-9.6781770392484,3.5620762076208,1465344.6988814,-21665.10200226,3323951.0238855,8.7620762076208,0,0
86.695261943829,-9.680230170786,3.5665066506651,1465344.6988814,-21665.10200226,3323951.0238855,8.7665066506651,0,0
86.695262072218,-9.6822833023236,3.5709370937094,1465344.6988814,-21665.10200226,3323951.0238855,8.7709370937094,0,0
86.695262200608,-9.6843364338612,3.5753675367537,1465344.6988814,-21665.10200226,3323951.0238855,8.7753675367537,0,0
86.695262328997,-9.6863895653988,3.579797979798,1465344.6988814,-21665.10200226,3323951.0238855,8.779797979798,0,0
86.695262457386,-9.6884426969364,3.5842284228423,1465344.6988814,-21665.10200226,3323951.0238855,8.7842284228423,0,0
86.695262585775,-9.690495828474,3.5886588658866,1465344.6988814,-21665.10200226,3323951.0238855,8.7886588658866,0,0
86.695262714164,-9.6925489600116,3.5930893089309,1465344.6988814,-21665.10200226,3323951.0238855,8.7930893089309,0,0
86.695262842554,-9.6946020915492,3.5975197519752,1465344.6988814,-21665.10200226,3323951.0238855,8.7975197519752,0,0
86.695262970943,-9.6966552230868,3.6019501950195,1465344.6988814,-21665.10200226,3323951.0238855,8.8019501950195,0,0
86.695263099332,-9.6987083546244,3.6063806380638,1465344.6988814,-21665.10200226,3323951.0238855,8.8063806380638,0,0
86.695263227721,-9.700761486162,3.6108110811081,1465344.6988814,-21665.10200226,3323951.0238855,8.8108110811081,0,0
86.695263356111,-9.7028146176996,3.6152415241524,1465344.6988814,-21665.10200226,3323951.0238855,8.8152415241524,0,0
86.6952634845,-9.7048677492372,3.6196719671967,1465344.6988814,-21665.10200226,3323951.0238855,8.8196719671967,0,0
86.695263612889,-9.7069208807748,3.624102410241,1465344.6988814,-21665.10200226,3323951.0238855,8.824102410241,0,0
86.695263741278,-9.7089740123124,3.6285328532853,1465344.6988814,-21665.10200226,3323951.0238855,8.8285328532853,0,0
86.695263869667,-9.71102714385,3.6329632963296,1465344.6988814,-21665.10200226,3323951.0238855,8.8329632963296,0,0
86.695263998057,-9.7130802753876,3.6373937393739,1465344.6988814,-21665.10200226,3323951.0238855,8.8373937393739,0,0
86.695264126446,-9.7151334069252,3.6418241824182,1465344.6988814,-21665.10200226,3323951.0238855,8.8418241824182,0,0
86.695264254835,-9.7171865384628,3.6462546254625,1465344.6988814,-21665.10200226,3323951.0238855,8.8462546254625,0,0
86.695264383224,-9.7192396700004,3.6506850685069,1465344.6988814,-21665.10200226,3323951.0238855,8.8506850685069,0,0
86.695264511613,-9.721292801538,3.6551155115512,1465344.6988814,-21665.10200226,3323951.0238855,8.8551155115512,0,0
86.695264640003,-9.7233459330756,3.6595459545955,1465344.6988814,-21665.10200226,3323951.0238855,8.8595459545955,0,0
86.695264768392,-9.7253990646132,3.6639763976398,1465344.6988814,-21665.10200226,3323951.0238855,8.8639763976398,0,0
86.695264896781,-9.7274521961508,3.6684068406841,1465344.6988814,-21665.10200226,3323951.0238855,8.8684068406841,0,0
86.69526502517,-9.7295053276884,3.6728372837284,1465344.6988814,-21665.10200226,3323951.0238855,8.8728372837284,0,0
86.695265153559,-9.731558459226,3.6772677267727,1465344.6988814,-21665.10200226,3323951.0238855,8.8772677267727,0,0
86.695265281949,-9.7336115907636,3.681698169817,1465344.6988814,-21665.10200226,3323951.0238855,8.881698169817,0,0
86.695265410338,-9.7356647223012,3.6861286128613,1465344.6988814,-21665.10200226,3323951.0238855,8.8861286128613,0,0
86.695265538727,-9.7377178538388,3.6905590559056,1465344.6988814,-21665.10200226,3323951.0238855,8.8905590559056,0,0
86.6952656706,-9.7397709802836,3.6949894989499,1526545.777092,6529.9657865125,3322276.082049,8.8949894989499,0,0
86.695265803922,-9.7418241046095,3.6994199419942,1526545.777092,6529.9657865125,3322276.082049,8.8994199419942,0,0
86.695265937244,-9.7438772289353,3.7038503850385,1526545.777092,6529.9657865125,3322276.082049,8.9038503850385,0,0
86.695266070567,-9.7459303532612,3.7082808280828,1526545.777092,6529.9657865125,3322276.082049,8.9082808280828,0,0
86.695266203889,-9.747983477587,3.7127112711271,1526545.777092,6529.9657865125,3322276.082049,8.9127112711271,0,0
86.695266337211,-9.7500366019129,3.7171417141714,1526545.777092,6529.9657865125,3322276.082049,8.9171417141714,0,0
86.695266470534,-9.7520897262387,3.7215721572157,1526545.777092,6529.9657865125,3322276.082049,8.9215721572157,0,0
86.695266603856,-9.7541428505645,3.72600260026,1526545.777092,6529.9657865125,3322276.082049,8.92600260026,0,0
86.695266737178,-9.7561959748904,3.7304330433043,1526545.777092,6529.9657865125,3322276.082049,8.9304330433043,0,0
86.6952668705,-9.7582490992162,3.7348634863486,1526545.777092,6529.9657865125,3322276.082049,8.9348634863486,0,0
86.695267003823,-9.7603022235421,3.7392939293929,1526545.777092,6529.9657865125,3322276.082049,8.9392939293929,0,0
86.695267137145,-9.7623553478679,3.7437243724372,1526545.777092,6529.9657865125,3322276.082049,8.9437243724372,0,0
86.695267270467,-9.7644084721938,3.7481548154815,1526545.777092,6529.9657865125,3322276.082049,8.9481548154815,0,0
86.69526740379,-9.7664615965196,3.7525852585259,1526545.777092,6529.9657865125,3322276.082049,8.9525852585259,0,0
86.695267537112,-9.7685147208455,3.7570157015702,1526545.777092,6529.9657865125,3322276.082049,8.9570157015702,0,0
86.695267670434,-9.7705678451713,3.7614461446145,1526545.777092,6529.9657865125,3322276.082049,8.9614461446145,0,0
86.695267803756,-9.7726209694972,3.7658765876588,1526545.777092,6529.9657865125,3322276.082049,8.9658765876588,0,0
86.695267937079,-9.774674093823,3.7703070307031,1526545.777092,6529.9657865125,3322276.082049,8.9703070307031,0,0
86.695268070401,-9.7767272181489,3.7747374737474,1526545.777092,6529.9657865125,3322276.082049,8.9747374737474,0,0
86.695268203723,-9.7787803424747,3.7791679167917,1526545.777092,6529.9657865125,3322276.082049,8.9791679167917,0,0
86.695268337046,-9.7808334668006,3.783598359836,1526545.777092,6529.9657865125,3322276.082049,8.983598359836,0,0
86.695268470368,-9.7828865911264,3.7880288028803,1526545.777092,6529.9657865125,3322276.082049,8.9880288028803,0,0
86.69526860369,-9.7849397154522,3.7924592459246,1526545.777092,6529.9657865125,3322276.082049,8.9924592459246,0,0
86.695268737012,-9.7869928397781,3.7968896889689,1526545.777092,6529.9657865125,3322276.082049,8.9968896889689,0,0
86.695268870335,-9.7890459641039,3.8013201320132,1526545.777092,6529.9657865125,3322276.082049,9.0013201320132,0,0
86.695269003657,-9.7910990884298,3.8057505750575,1526545.777092,6529.9657865125,3322276.082049,9.0057505750575,0,0
86.695269136979,-9.7931522127556,3.8101810181018,1526545.777092,6529.9657865125,3322276.082049,9.0101810181018,0,0
86.695269270302,-9.7952053370815,3.8146114611461,1526545.777092,6529.9657865125,3322276.082049,9.0146114611461,0,0
86.695269403624,-9.7972584614073,3.8190419041904,1526545.777092,6529.9657865125,3322276.082049,9.0190419041904,0,0
86.695269536946,-9.7993115857332,3.8234723472347,1526545.777092,6529.9657865125,3322276.082049,9.0234723472347,0,0
86.695269670269,-9.801364710059,3.827902790279,1526545.777092,6529.9657865125,3322276.082049,9.027902790279,0,0
86.695269803591,-9.8034178343849,3.8323332333233,1526545.777092,6529.9657865125,3322276.082049,9.0323332333233,0,0
86.695269936913,-9.8054709587107,3.8367636763676,1526545.777092,6529.9657865125,3322276.082049,9.0367636763676,0,0
86.695270070235,-9.8075240830366,3.8411941194119,1526545.777092,6529.9657865125,3322276.082049,9.0411941194119,0,0
86.695270203558,-9.8095772073624,3.8456245624562,1526545.777092,6529.9657865125,3322276.082049,9.0456245624562,0,0
86.69527033688,-9.8116303316883,3.8500550055005,1526545.777092,6529.9657865125,3322276.082049,9.0500550055005,0,0
86.695270470202,-9.8136834560141,3.8544854485449,1526545.777092,6529.9657865125,3322276.082049,9.0544854485449,0,0
86.695270603525,-9.8157365803399,3.8589158915892,1526545.777092,6529.9657865125,3322276.082049,9.0589158915892,0,0
86.695270736847,-9.8177897046658,3.8633463346335,1526545.777092,6529.9657865125,3322276.082049,9.0633463346335,0,0
86.695270870169,-9.8198428289916,3.8677767776778,1526545.777092,6529.9657865125,3322276.082049,9.0677767776778,0,0
86.695271003491,-9.8218959533175,3.8722072207221,1526545.777092,6529.9657865125,3322276.082049,9.0722072207221,0,0
86.695271136814,-9.8239490776433,3.8766376637664,1526545.777092,6529.9657865125,3322276.082049,9.0766376637664,0,0
86.695271270136,-9.8260022019692,3.8810681068107,1526545.777092,6529.9657865125,3322276.082049,9.0810681068107,0,0
86.695271403458,-9.828055326295,3.885498549855,1526545.777092,6529.9657865125,3322276.082049,9.085498549855,0,0
86.695271536781,-9.8301084506209,3.8899289928993,1526545.777092,6529.9657865125,3322276.082049,9.0899289928993,0,0
86.695271670103,-9.8321615749467,3.8943594359436,1526545.777092,6529.9657865125,3322276.082049,9.0943594359436,0,0
86.695271803425,-9.8342146992726,3.8987898789879,1526545.777092,6529.9657865125,3322276.082049,9.0987898789879,0,0
86.695271936747,-9.8362678235984,3.9032203220322,1526545.777092,6529.9657865125,3322276.082049,9.1032203220322,0,0
86.69527207007,-9.8383209479243,3.9076507650765,1526545.777092,6529.9657865125,3322276.082049,9.1076507650765,0,0
86.695272203392,-9.8403740722501,3.9120812081208,1526545.777092,6529.9657865125,3322276.082049,9.1120812081208,0,0
86.695272336714,-9.842427196576,3.9165116511651,1526545.777092,6529.9657865125,3322276.082049,9.1165116511651,0,0
86.695272470037,-9.8444803209018,3.9209420942094,1526545.777092,6529.9657865125,3322276.082049,9.1209420942094,0,0
86.695272603359,-9.8465334452276,3.9253725372537,1526545.777092,6529.9657865125,3322276.082049,9.1253725372537,0,0
86.695272736681,-9.8485865695535,3.929802980298,1526545.777092,6529.9657865125,3322276.082049,9.129802980298,0,0
86.695272870003,-9.8506396938793,3.9342334233423,1526545.777092,6529.9657865125,3322276.082049,9.1342334233423,0,0
86.695273003326,-9.8526928182052,3.9386638663866,1526545.777092,6529.9657865125,3322276.082049,9.1386638663866,0,0
86.695273136648,-9.854745942531,3.9430943094309,1526545.777092,6529.9657865125,3322276.082049,9.1430943094309,0,0
86.69527326997,-9.8567990668569,3.9475247524752,1526545.777092,6529.9657865125,3322276.082049,9.1475247524752,0,0
86.695273403293,-9.8588521911827,3.9519551955196,1526545.777092,6529.9657865125,3322276.082049,9.1519551955196,0,0
86.695273536615,-9.8609053155086,3.9563856385639,1526545.777092,6529.9657865125,3322276.082049,9.1563856385639,0,0
86.695273669937,-9.8629584398344,3.9608160816082,1526545.777092,6529.9657865125,3322276.082049,9.1608160816082,0,0
86.695273803259,-9.8650115641603,3.9652465246525,1526545.777092,6529.9657865125,3322276.082049,9.1652465246525,0,0
86.695273936582,-9.8670646884861,3.9696769676968,1526545.777092,6529.9657865125,3322276.082049,9.1696769676968,0,0
86.695274069904,-9.869117812812,3.9741074107411,1526545.777092,6529.9657865125,3322276.082049,9.1741074107411,0,0
86.695274203226,-9.8711709371378,3.9785378537854,1526545.777092,6529.9657865125,3322276.082049,9.1785378537854,0,0
86.695274336549,-9.8732240614637,3.9829682968297,1526545.777092,6529.9657865125,3322276.082049,9.1829682968297,0,0
86.695274469871,-9.8752771857895,3.987398739874,1526545.777092,6529.9657865125,3322276.082049,9.187398739874,0,0
86.695274603193,-9.8773303101153,3.9918291829183,1526545.777092,6529.9657865125,3322276.082049,9.1918291829183,0,0
86.695274736515,-9.8793834344412,3.9962596259626,1526545.777092,6529.9657865125,3322276.082049,9.1962596259626,0,0
86.695274869838,-9.881436558767,4.0006900690069,1526545.777092,6529.9657865125,3322276.082049,9.2006900690069,0,0
86.69527500316,-9.8834896830929,4.0051205120512,1526545.777092,6529.9657865125,3322276.082049,9.2051205120512,0,0
86.695275137245,-9.8855428105533,4.0095509550955,1525059.4843064,-23935.173824157,3244908.8338535,9.2095509550955,0,0
86.695275272508,-9.8875959428615,4.0139813981398,1525059.4843064,-23935.173824157,3244908.8338535,9.2139813981398,0,0
86.695275407772,-9.8896490751697,4.0184118411841,1525059.4843064,-23935.173824157,3244908.8338535,9.2184118411841,0,0
86.695275543035,-9.8917022074779,4.0228422842284,1525059.4843064,-23935.173824157,3244908.8338535,9.2228422842284,0,0
86.695275678299,-9.8937553397861,4.0272727272727,1525059.4843064,-23935.173824157,3244908.8338535,9.2272727272727,0,0
86.695275813562,-9.8958084720943,4.031703170317,1525059.4843064,-23935.173824157,3244908.8338535,9.231703170317,0,0
86.695275948826,-9.8978616044025,4.0361336133613,1525059.4843064,-23935.173824157,3244908.8338535,9.2361336133613,0,0
86.695276084089,-9.8999147367107,4.0405640564056,1525059.4843064,-23935.173824157,3244908.8338535,9.2405640564056,0,0
86.695276219353,-9.9019678690189,4.0449944994499,1525059.4843064,-23935.173824157,3244908.8338535,9.2449944994499,0,0
86.695276354616,-9.9040210013271,4.0494249424942,1525059.4843064,-23935.173824157,3244908.8338535,9.2494249424942,0,0
86.69527648988,-9.9060741336353,4.0538553855386,1525059.4843064,-23935.173824157,3244908.8338535,9.2538553855386,0,0
86.695276625143,-9.9081272659435,4.0582858285829,1525059.4843064,-23935.173824157,3244908.8338535,9.2582858285829,0,0
86.695276760407,-9.9101803982517,4.0627162716272,1525059.4843064,-23935.173824157,3244908.8338535,9.2627162716272,0,0
86.69527689567,-9.9122335305599,4.0671467146715,1525059.4843064,-23935.173824157,3244908.8338535,9.2671467146715,0,0
86.695277030934,-9.9142866628681,4.0715771577158,1525059.4843064,-23935.173824157,3244908.8338535,9.2715771577158,0,0
86.695277166197,-9.9163397951763,4.0760076007601,1525059.4843064,-23935.173824157,3244908.8338535,9.2760076007601,0,0
86.695277301461,-9.9183929274845,4.0804380438044,1525059.4843064,-23935.173824157,3244908.8338535,9.2804380438044,0,0
86.695277436724,-9.9204460597927,4.0848684868487,1525059.4843064,-23935.173824157,3244908.8338535,9.2848684868487,0,0
86.695277571988,-9.9224991921009,4.089298929893,1525059.4843064,-23935.173824157,3244908.8338535,9.289298929893,0,0
86.695277707251,-9.9245523244091,4.0937293729373,1525059.4843064,-23935.173824157,3244908.8338535,9.2937293729373,0,0
86.695277842514,-9.9266054567173,4.0981598159816,1525059.4843064,-23935.173824157,3244908.8338535,9.2981598159816,0,0
86.695277977778,-9.9286585890255,4.1025902590259,1525059.4843064,-23935.173824157,3244908.8338535,9.3025902590259,0,0
86.695278113041,-9.9307117213337,4.1070207020702,1525059.4843064,-23935.173824157,3244908.8338535,9.3070207020702,0,0
86.695278248305,-9.9327648536419,4.1114511451145,1525059.4843064,-23935.173824157,3244908.8338535,9.3114511451145,0,0
86.695278383568,-9.9348179859501,4.1158815881588,1525059.4843064,-23935.173824157,3244908.8338535,9.3158815881588,0,0
86.695278518832,-9.9368711182583,4.1203120312031,1525059.4843064,-23935.173824157,3244908.8338535,9.3203120312031,0,0
86.695278654095,-9.9389242505665,4.1247424742474,1525059.4843064,-23935.173824157,3244908.8338535,9.3247424742474,0,0
86.695278789359,-9.9409773828747,4.1291729172917,1525059.4843064,-23935.173824157,3244908.8338535,9.3291729172917,0,0
86.695278924622,-9.9430305151829,4.133603360336,1525059.4843064,-23935.173824157,3244908.8338535,9.333603360336,0,0
86.695279059886,-9.9450836474911,4.1380338033803,1525059.4843064,-23935.173824157,3244908.8338535,9.3380338033803,0,0
86.695279195149,-9.9471367797993,4.1424642464246,1525059.4843064,-23935.173824157,3244908.8338535,9.3424642464246,0,0
86.695279332799,-9.9491899076349,4.1468946894689,1566633.3267444,3197.2983040873,3225200.2058027,9.3468946894689,0,0
86.695279471908,-9.9512430327337,4.1513251325133,1566633.3267444,3197.2983040873,3225200.2058027,9.3513251325133,0,0
86.695279611017,-9.9532961578325,4.1557555755576,1566633.3267444,3197.2983040873,3225200.2058027,9.3557555755576,0,0
86.695279750126,-9.9553492829313,4.1601860186019,1566633.3267444,3197.2983040873,3225200.2058027,9.3601860186019,0,0
86.695279889234,-9.9574024080301,4.1646164616462,1566633.3267444,3197.2983040873,3225200.2058027,9.3646164616462,0,0
86.695280028343,-9.9594555331289,4.1690469046905,1566633.3267444,3197.2983040873,3225200.2058027,9.3690469046905,0,0
86.695280167452,-9.9615086582277,4.1734773477348,1566633.3267444,3197.2983040873,3225200.2058027,9.3734773477348,0,0
86.695280306561,-9.9635617833265,4.1779077907791,1566633.3267444,3197.2983040873,3225200.2058027,9.3779077907791,0,0
86.69528044567,-9.9656149084253,4.1823382338234,1566633.3267444,3197.2983040873,3225200.2058027,9.3823382338234,0,0
86.695280584779,-9.9676680335241,4.1867686768677,1566633.3267444,3197.2983040873,3225200.2058027,9.3867686768677,0,0
86.695280723888,-9.9697211586229,4.191199119912,1566633.3267444,3197.2983040873,3225200.2058027,9.391199119912,0,0
86.695280862997,-9.9717742837217,4.1956295629563,1566633.3267444,3197.2983040873,3225200.2058027,9.3956295629563,0,0
86.695281002106,-9.9738274088205,4.2000600060006,1566633.3267444,3197.2983040873,3225200.2058027,9.4000600060006,0,0
86.695281141215,-9.9758805339193,4.2044904490449,1566633.3267444,3197.2983040873,3225200.2058027,9.4044904490449,0,0
86.695281280324,-9.9779336590181,4.2089208920892,1566633.3267444,3197.2983040873,3225200.2058027,9.4089208920892,0,0
86.695281419433,-9.9799867841169,4.2133513351335,1566633.3267444,3197.2983040873,3225200.2058027,9.4133513351335,0,0
86.695281558542,-9.9820399092157,4.2177817781778,1566633.3267444,3197.2983040873,3225200.2058027,9.4177817781778,0,0
86.695281697651,-9.9840930343145,4.2222122212221,1566633.3267444,3197.2983040873,3225200.2058027,9.4222122212221,0,0
86.69528183676,-9.9861461594133,4.2266426642664,1566633.3267444,3197.2983040873,3225200.2058027,9.4266426642664,0,0
86.695281975869,-9.9881992845121,4.2310731073107,1566633.3267444,3197.2983040873,3225200.2058027,9.4310731073107,0,0
86.695282114978,-9.9902524096109,4.235503550355,1566633.3267444,3197.2983040873,3225200.2058027,9.435503550355,0,0
86.695282254087,-9.9923055347097,4.2399339933993,1566633.3267444,3197.2983040873,3225200.2058027,9.4399339933993,0,0
86.695282393196,-9.9943586598085,4.2443644364436,1566633.3267444,3197.2983040873,3225200.2058027,9.4443644364436,0,0
86.695282532305,-9.9964117849073,4.2487948794879,1566633.3267444,3197.2983040873,3225200.2058027,9.4487948794879,0,0
86.695282671414,-9.9984649100061,4.2532253225323,1566633.3267444,3197.2983040873,3225200.2058027,9.4532253225323,0,0
86.695282810523,-10.000518035105,4.2576557655766,1566633.3267444,3197.2983040873,3225200.2058027,9.4576557655766,0,0
86.695282949632,-10.002571160204,4.2620862086209,1566633.3267444,3197.2983040873,3225200.2058027,9.4620862086209,0,0
86.695283088741,-10.004624285303,4.2665166516652,1566633.3267444,3197.2983040873,3225200.2058027,9.4665166516652,0,0
86.69528322785,-10.006677410401,4.2709470947095,1566633.3267444,3197.2983040873,3225200.2058027,9.4709470947095,0,0
86.695283366959,-10.0087305355,4.2753775377538,1566633.3267444,3197.2983040873,3225200.2058027,9.4753775377538,0,0
86.695283506068,-10.010783660599,4.2798079807981,1566633.3267444,3197.2983040873,3225200.2058027,9.4798079807981,0,0
86.695283645177,-10.012836785698,4.2842384238424,1566633.3267444,3197.2983040873,3225200.2058027,9.4842384238424,0,0
86.695283784286,-10.014889910797,4.2886688668867,1566633.3267444,3197.2983040873,3225200.2058027,9.4886688668867,0,0
86.695283923395,-10.016943035895,4.293099309931,1566633.3267444,3197.2983040873,3225200.2058027,9.493099309931,0,0
86.695284062504,-10.018996160994,4.2975297529753,1566633.3267444,3197.2983040873,3225200.2058027,9.4975297529753,0,0
86.695284201613,-10.021049286093,4.3019601960196,1566633.3267444,3197.2983040873,3225200.2058027,9.5019601960196,0,0
86.695284340722,-10.023102411192,4.3063906390639,1566633.3267444,3197.2983040873,3225200.2058027,9.5063906390639,0,0
86.695284479831,-10.025155536291,4.3108210821082,1566633.3267444,3197.2983040873,3225200.2058027,9.5108210821082,0,0
86.69528461894,-10.027208661389,4.3152515251525,1566633.3267444,3197.2983040873,3225200.2058027,9.5152515251525,0,0
86.695284758049,-10.029261786488,4.3196819681968,1566633.3267444,3197.2983040873,3225200.2058027,9.5196819681968,0,0
86.695284897158,-10.031314911587,4.3241124112411,1566633.3267444,3197.2983040873,3225200.2058027,9.5241124112411,0,0
86.695285036267,-10.033368036686,4.3285428542854,1566633.3267444,3197.2983040873,3225200.2058027,9.5285428542854,0,0
86.695285175376,-10.035421161785,4.3329732973297,1566633.3267444,3197.2983040873,3225200.2058027,9.5329732973297,0,0
86.695285314485,-10.037474286883,4.337403740374,1566633.3267444,3197.2983040873,3225200.2058027,9.537403740374,0,0
86.695285453594,-10.039527411982,4.3418341834183,1566633.3267444,3197.2983040873,3225200.2058027,9.5418341834183,0,0
86.695285592703,-10.041580537081,4.3462646264626,1566633.3267444,3197.2983040873,3225200.2058027,9.5462646264626,0,0
86.695285731812,-10.04363366218,4.350695069507,1566633.3267444,3197.2983040873,3225200.2058027,9.550695069507,0,0
86.695285870921,-10.045686787279,4.3551255125513,1566633.3267444,3197.2983040873,3225200.2058027,9.5551255125513,0,0
86.69528601003,-10.047739912377,4.3595559555956,1566633.3267444,3197.2983040873,3225200.2058027,9.5595559555956,0,0
86.695286149139,-10.049793037476,4.3639863986399,1566633.3267444,3197.2983040873,3225200.2058027,9.5639863986399,0,0
86.695286288248,-10.051846162575,4.3684168416842,1566633.3267444,3197.2983040873,3225200.2058027,9.5684168416842,0,0
86.695286427357,-10.053899287674,4.3728472847285,1566633.3267444,3197.2983040873,3225200.2058027,9.5728472847285,0,0
86.695286566466,-10.055952412773,4.3772777277728,1566633.3267444,3197.2983040873,3225200.2058027,9.5772777277728,0,0
86.695286705575,-10.058005537871,4.3817081708171,1566633.3267444,3197.2983040873,3225200.2058027,9.5817081708171,0,0
86.695286844684,-10.06005866297,4.3861386138614,1566633.3267444,3197.2983040873,3225200.2058027,9.5861386138614,0,0
86.695286983793,-10.062111788069,4.3905690569057,1566633.3267444,3197.2983040873,3225200.2058027,9.5905690569057,0,0
86.695287122902,-10.064164913168,4.39499949995,1566633.3267444,3197.2983040873,3225200.2058027,9.59499949995,0,0
86.695287262011,-10.066218038267,4.3994299429943,1566633.3267444,3197.2983040873,3225200.2058027,9.5994299429943,0,0
86.69528740112,-10.068271163365,4.4038603860386,1566633.3267444,3197.2983040873,3225200.2058027,9.6038603860386,0,0
86.695287540229,-10.070324288464,4.4082908290829,1566633.3267444,3197.2983040873,3225200.2058027,9.6082908290829,0,0
86.695287679338,-10.072377413563,4.4127212721272,1566633.3267444,3197.2983040873,3225200.2058027,9.6127212721272,0,0
86.695287818447,-10.074430538662,4.4171517151715,1566633.3267444,3197.2983040873,3225200.2058027,9.6171517151715,0,0
86.695287957556,-10.076483663761,4.4215821582158,1566633.3267444,3197.2983040873,3225200.2058027,9.6215821582158,0,0
86.695288096664,-10.078536788859,4.4260126012601,1566633.3267444,3197.2983040873,3225200.2058027,9.6260126012601,0,0
86.695288235773,-10.080589913958,4.4304430443044,1566633.3267444,3197.2983040873,3225200.2058027,9.6304430443044,0,0
86.695288374882,-10.082643039057,4.4348734873487,1566633.3267444,3197.2983040873,3225200.2058027,9.6348734873487,0,0
86.695288513991,-10.084696164156,4.439303930393,1566633.3267444,3197.2983040873,3225200.2058027,9.639303930393,0,0
86.6952886531,-10.086749289254,4.4437343734373,1566633.3267444,3197.2983040873,3225200.2058027,9.6437343734373,0,0
86.695288792209,-10.088802414353,4.4481648164816,1566633.3267444,3197.2983040873,3225200.2058027,9.6481648164816,0,0
86.695288931318,-10.090855539452,4.452595259526,1566633.3267444,3197.2983040873,3225200.2058027,9.652595259526,0,0
86.695289070427,-10.092908664551,4.4570257025703,1566633.3267444,3197.2983040873,3225200.2058027,9.6570257025703,0,0
86.695289209536,-10.09496178965,4.4614561456146,1566633.3267444,3197.2983040873,3225200.2058027,9.6614561456146,0,0
86.695289348645,-10.097014914748,4.4658865886589,1566633.3267444,3197.2983040873,3225200.2058027,9.6658865886589,0,0
86.695289487754,-10.099068039847,4.4703170317032,1566633.3267444,3197.2983040873,3225200.2058027,9.6703170317032,0,0
86.695289626863,-10.101121164946,4.4747474747475,1566633.3267444,3197.2983040873,3225200.2058027,9.6747474747475,0,0
86.695289765972,-10.103174290045,4.4791779177918,1566633.3267444,3197.2983040873,3225200.2058027,9.6791779177918,0,0
86.695289905081,-10.105227415144,4.4836083608361,1566633.3267444,3197.2983040873,3225200.2058027,9.6836083608361,0,0
86.69529004419,-10.107280540242,4.4880388038804,1566633.3267444,3197.2983040873,3225200.2058027,9.6880388038804,0,0
86.695290183299,-10.109333665341,4.4924692469247,1566633.3267444,3197.2983040873,3225200.2058027,9.6924692469247,0,0
86.695290322408,-10.11138679044,4.496899689969,1566633.3267444,3197.2983040873,3225200.2058027,9.696899689969,0,0
86.695290461517,-10.113439915539,4.5013301330133,1566633.3267444,3197.2983040873,3225200.2058027,9.7013301330133,0,0
86.695290600626,-10.115493040638,4.5057605760576,1566633.3267444,3197.2983040873,3225200.2058027,9.7057605760576,0,0
86.695290739735,-10.117546165736,4.5101910191019,1566633.3267444,3197.2983040873,3225200.2058027,9.7101910191019,0,0
86.695290878844,-10.119599290835,4.5146214621462,1566633.3267444,3197.2983040873,3225200.2058027,9.7146214621462,0,0
86.695291017953,-10.121652415934,4.5190519051905,1566633.3267444,3197.2983040873,3225200.2058027,9.7190519051905,0,0
86.695291157062,-10.123705541033,4.5234823482348,1566633.3267444,3197.2983040873,3225200.2058027,9.7234823482348,0,0
86.695291296171,-10.125758666132,4.5279127912791,1566633.3267444,3197.2983040873,3225200.2058027,9.7279127912791,0,0
86.69529143528,-10.12781179123,4.5323432343234,1566633.3267444,3197.2983040873,3225200.2058027,9.7323432343234,0,0
86.695291574389,-10.129864916329,4.5367736773677,1566633.3267444,3197.2983040873,3225200.2058027,9.7367736773677,0,0
86.695291713498,-10.131918041428,4.541204120412,1566633.3267444,3197.2983040873,3225200.2058027,9.741204120412,0,0
86.695291852607,-10.133971166527,4.5456345634563,1566633.3267444,3197.2983040873,3225200.2058027,9.7456345634563,0,0
86.695291991716,-10.136024291626,4.5500650065006,1566633.3267444,3197.2983040873,3225200.2058027,9.7500650065007,0,0
86.695292130825,-10.138077416724,4.554495449545,1566633.3267444,3197.2983040873,3225200.2058027,9.754495449545,0,0
86.695292271789,-10.140130547122,4.5589258925893,1575895.0159847,-19705.767796268,3165851.52036,9.7589258925893,0,0
86.695292413218,-10.142183678845,4.5633563356336,1575895.0159847,-19705.767796268,3165851.52036,9.7633563356336,0,0
86.695292554647,-10.144236810569,4.5677867786779,1575895.0159847,-19705.767796268,3165851.52036,9.7677867786779,0,0
86.695292696076,-10.146289942293,4.5722172217222,1575895.0159847,-19705.767796268,3165851.52036,9.7722172217222,0,0
86.695292837505,-10.148343074016,4.5766476647665,1575895.0159847,-19705.767796268,3165851.52036,9.7766476647665,0,0
86.695292978934,-10.15039620574,4.5810781078108,1575895.0159847,-19705.767796268,3165851.52036,9.7810781078108,0,0
86.695293120363,-10.152449337464,4.5855085508551,1575895.0159847,-19705.767796268,3165851.52036,9.7855085508551,0,0
86.695293261792,-10.154502469187,4.5899389938994,1575895.0159847,-19705.767796268,3165851.52036,9.7899389938994,0,0
86.695293403221,-10.156555600911,4.5943694369437,1575895.0159847,-19705.767796268,3165851.52036,9.7943694369437,0,0
86.69529354465,-10.158608732635,4.598799879988,1575895.0159847,-19705.767796268,3165851.52036,9.798799879988,0,0
86.695293686079,-10.160661864358,4.6032303230323,1575895.0159847,-19705.767796268,3165851.52036,9.8032303230323,0,0
86.695293827508,-10.162714996082,4.6076607660766,1575895.0159847,-19705.767796268,3165851.52036,9.8076607660766,0,0
86.695293968937,-10.164768127806,4.6120912091209,1575895.0159847,-19705.767796268,3165851.52036,9.8120912091209,0,0
86.695294110366,-10.166821259529,4.6165216521652,1575895.0159847,-19705.767796268,3165851.52036,9.8165216521652,0,0
86.695294251795,-10.168874391253,4.6209520952095,1575895.0159847,-19705.767796268,3165851.52036,9.8209520952095,0,0
86.695294393224,-10.170927522976,4.6253825382538,1575895.0159847,-19705.767796268,3165851.52036,9.8253825382538,0,0
86.695294534653,-10.1729806547,4.6298129812981,1575895.0159847,-19705.767796268,3165851.52036,9.8298129812981,0,0
86.695294676082,-10.175033786424,4.6342434243424,1575895.0159847,-19705.767796268,3165851.52036,9.8342434243424,0,0
86.69529481751,-10.177086918147,4.6386738673867,1575895.0159847,-19705.767796268,3165851.52036,9.8386738673867,0,0
86.695294958939,-10.179140049871,4.643104310431,1575895.0159847,-19705.767796268,3165851.52036,9.843104310431,0,0
86.695295100368,-10.181193181595,4.6475347534753,1575895.0159847,-19705.767796268,3165851.52036,9.8475347534753,0,0
86.695295241797,-10.183246313318,4.6519651965197,1575895.0159847,-19705.767796268,3165851.52036,9.8519651965197,0,0
86.695295383226,-10.185299445042,4.656395639564,1575895.0159847,-19705.767796268,3165851.52036,9.856395639564,0,0
86.695295526009,-10.187352573071,4.6608260826083,1595128.4368396,6140.3555764627,3131300.1236992,9.8608260826083,0,0
86.695295669894,-10.18940569809,4.6652565256526,1595128.4368396,6140.3555764627,3131300.1236992,9.8652565256526,0,0
86.695295813779,-10.19145882311,4.6696869686969,1595128.4368396,6140.3555764627,3131300.1236992,9.8696869686969,0,0
86.695295957664,-10.193511948129,4.6741174117412,1595128.4368396,6140.3555764627,3131300.1236992,9.8741174117412,0,0
86.69529610155,-10.195565073149,4.6785478547855,1595128.4368396,6140.3555764627,3131300.1236992,9.8785478547855,0,0
86.695296245435,-10.197618198169,4.6829782978298,1595128.4368396,6140.3555764627,3131300.1236992,9.8829782978298,0,0
86.69529638932,-10.199671323188,4.6874087408741,1595128.4368396,6140.3555764627,3131300.1236992,9.8874087408741,0,0
86.695296533205,-10.201724448208,4.6918391839184,1595128.4368396,6140.3555764627,3131300.1236992,9.8918391839184,0,0
86.69529667709,-10.203777573227,4.6962696269627,1595128.4368396,6140.3555764627,3131300.1236992,9.8962696269627,0,0
86.695296820975,-10.205830698247,4.700700070007,1595128.4368396,6140.3555764627,3131300.1236992,9.900700070007,0,0
86.695296964861,-10.207883823267,4.7051305130513,1595128.4368396,6140.3555764627,3131300.1236992,9.9051305130513,0,0
86.695297108746,-10.209936948286,4.7095609560956,1595128.4368396,6140.3555764627,3131300.1236992,9.9095609560956,0,0
86.695297252631,-10.211990073306,4.7139913991399,1595128.4368396,6140.3555764627,3131300.1236992,9.9139913991399,0,0
86.695297396516,-10.214043198325,4.7184218421842,1595128.4368396,6140.3555764627,3131300.1236992,9.9184218421842,0,0
86.695297540401,-10.216096323345,4.7228522852285,1595128.4368396,6140.3555764627,3131300.1236992,9.9228522852285,0,0
86.695297684286,-10.218149448365,4.7272827282728,1595128.4368396,6140.3555764627,3131300.1236992,9.9272827282728,0,0
86.695297828172,-10.220202573384,4.7317131713171,1595128.4368396,6140.3555764627,3131300.1236992,9.9317131713171,0,0
86.695297972057,-10.222255698404,4.7361436143614,1595128.4368396,6140.3555764627,3131300.1236992,9.9361436143614,0,0
86.695298115942,-10.224308823423,4.7405740574057,1595128.4368396,6140.3555764627,3131300.1236992,9.9405740574057,0,0
86.695298259827,-10.226361948443,4.74500450045,1595128.4368396,6140.3555764627,3131300.1236992,9.94500450045,0,0
86.695298403712,-10.228415073463,4.7494349434943,1595128.4368396,6140.3555764627,3131300.1236992,9.9494349434943,0,0
86.695298547597,-10.230468198482,4.7538653865387,1595128.4368396,6140.3555764627,3131300.1236992,9.9538653865387,0,0
86.695298691483,-10.232521323502,4.758295829583,1595128.4368396,6140.3555764627,3131300.1236992,9.958295829583,0,0
86.695298835368,-10.234574448521,4.7627262726273,1595128.4368396,6140.3555764627,3131300.1236992,9.9627262726273,0,0
86.695298979253,-10.236627573541,4.7671567156716,1595128.4368396,6140.3555764627,3131300.1236992,9.9671567156716,0,0
86.695299123138,-10.238680698561,4.7715871587159,1595128.4368396,6140.3555764627,3131300.1236992,9.9715871587159,0,0
86.695299267023,-10.24073382358,4.7760176017602,1595128.4368396,6140.3555764627,3131300.1236992,9.9760176017602,0,0
86.695299410908,-10.2427869486,4.7804480448045,1595128.4368396,6140.3555764627,3131300.1236992,9.9804480448045,0,0
86.695299554794,-10.244840073619,4.7848784878488,1595128.4368396,6140.3555764627,3131300.1236992,9.9848784878488,0,0
86.695299698679,-10.246893198639,4.7893089308931,1595128.4368396,6140.3555764627,3131300.1236992,9.9893089308931,0,0
86.695299842564,-10.248946323659,4.7937393739374,1595128.4368396,6140.3555764627,3131300.1236992,9.9937393739374,0,0
86.695299986449,-10.250999448678,4.7981698169817,1595128.4368396,6140.3555764627,3131300.1236992,9.9981698169817,0,0
86.695300130334,-10.253052573698,4.802600260026,1595128.4368396,6140.3555764627,3131300.1236992,10.002600260026,0,0
86.695300274219,-10.255105698717,4.8070307030703,1595128.4368396,6140.3555764627,3131300.1236992,10.00703070307,0,0
86.695300418105,-10.257158823737,4.8114611461146,1595128.4368396,6140.3555764627,3131300.1236992,10.011461146115,0,0
86.69530056199,-10.259211948757,4.8158915891589,1595128.4368396,6140.3555764627,3131300.1236992,10.015891589159,0,0
86.695300705875,-10.261265073776,4.8203220322032,1595128.4368396,6140.3555764627,3131300.1236992,10.020322032203,0,0
86.69530084976,-10.263318198796,4.8247524752475,1595128.4368396,6140.3555764627,3131300.1236992,10.024752475248,0,0
86.695300993645,-10.265371323815,4.8291829182918,1595128.4368396,6140.3555764627,3131300.1236992,10.029182918292,0,0
86.69530113753,-10.267424448835,4.8336133613361,1595128.4368396,6140.3555764627,3131300.1236992,10.033613361336,0,0
86.695301281416,-10.269477573855,4.8380438043804,1595128.4368396,6140.3555764627,3131300.1236992,10.03804380438,0,0
86.695301425301,-10.271530698874,4.8424742474247,1595128.4368396,6140.3555764627,3131300.1236992,10.042474247425,0,0
86.695301569186,-10.273583823894,4.846904690469,1595128.4368396,6140.3555764627,3131300.1236992,10.046904690469,0,0
86.695301713071,-10.275636948913,4.8513351335134,1595128.4368396,6140.3555764627,3131300.1236992,10.051335133513,0,0
86.695301856956,-10.277690073933,4.8557655765577,1595128.4368396,6140.3555764627,3131300.1236992,10.055765576558,0,0
86.695302000841,-10.279743198953,4.860196019602,1595128.4368396,6140.3555764627,3131300.1236992,10.060196019602,0,0
86.695302144727,-10.281796323972,4.8646264626463,1595128.4368396,6140.3555764627,3131300.1236992,10.064626462646,0,0
86.695302288612,-10.283849448992,4.8690569056906,1595128.4368396,6140.3555764627,3131300.1236992,10.069056905691,0,0
86.695302432497,-10.285902574011,4.8734873487349,1595128.4368396,6140.3555764627,3131300.1236992,10.073487348735,0,0
86.695302576382,-10.287955699031,4.8779177917792,1595128.4368396,6140.3555764627,3131300.1236992,10.077917791779,0,0
86.695302720267,-10.290008824051,4.8823482348235,1595128.4368396,6140.3555764627,3131300.1236992,10.082348234823,0,0
86.695302864152,-10.29206194907,4.8867786778678,1595128.4368396,6140.3555764627,3131300.1236992,10.086778677868,0,0
86.695303008038,-10.29411507409,4.8912091209121,1595128.4368396,6140.3555764627,3131300.1236992,10.091209120912,0,0
86.695303151923,-10.296168199109,4.8956395639564,1595128.4368396,6140.3555764627,3131300.1236992,10.095639563956,0,0
86.695303295808,-10.298221324129,4.9000700070007,1595128.4368396,6140.3555764627,3131300.1236992,10.100070007001,0,0
86.695303439693,-10.300274449149,4.904500450045,1595128.4368396,6140.3555764627,3131300.1236992,10.104500450045,0,0
86.695303583578,-10.302327574168,4.9089308930893,1595128.4368396,6140.3555764627,3131300.1236992,10.108930893089,0,0
86.695303727463,-10.304380699188,4.9133613361336,1595128.4368396,6140.3555764627,3131300.1236992,10.113361336134,0,0
86.695303871349,-10.306433824207,4.9177917791779,1595128.4368396,6140.3555764627,3131300.1236992,10.117791779178,0,0
86.695304015234,-10.308486949227,4.9222222222222,1595128.4368396,6140.3555764627,3131300.1236992,10.122222222222,0,0
86.695304159119,-10.310540074247,4.9266526652665,1595128.4368396,6140.3555764627,3131300.1236992,10.126652665267,0,0
86.695304303004,-10.312593199266,4.9310831083108,1595128.4368396,6140.3555764627,3131300.1236992,10.131083108311,0,0
86.695304446889,-10.314646324286,4.9355135513551,1595128.4368396,6140.3555764627,3131300.1236992,10.135513551355,0,0
86.695304590774,-10.316699449305,4.9399439943994,1595128.4368396,6140.3555764627,3131300.1236992,10.139943994399,0,0
86.69530473466,-10.318752574325,4.9443744374437,1595128.4368396,6140.3555764627,3131300.1236992,10.144374437444,0,0
86.695304878545,-10.320805699345,4.948804880488,1595128.4368396,6140.3555764627,3131300.1236992,10.148804880488,0,0
86.69530502243,-10.322858824364,4.9532353235324,1595128.4368396,6140.3555764627,3131300.1236992,10.153235323532,0,0
86.695305166315,-10.324911949384,4.9576657665767,1595128.4368396,6140.3555764627,3131300.1236992,10.157665766577,0,0
86.6953053102,-10.326965074403,4.962096209621,1595128.4368396,6140.3555764627,3131300.1236992,10.162096209621,0,0
86.695305454085,-10.329018199423,4.9665266526653,1595128.4368396,6140.3555764627,3131300.1236992,10.166526652665,0,0
86.695305597971,-10.331071324443,4.9709570957096,1595128.4368396,6140.3555764627,3131300.1236992,10.17095709571,0,0
86.695305741856,-10.333124449462,4.9753875387539,1595128.4368396,6140.3555764627,3131300.1236992,10.175387538754,0,0
86.695305885741,-10.335177574482,4.9798179817982,1595128.4368396,6140.3555764627,3131300.1236992,10.179817981798,0,0
86.695306029626,-10.337230699502,4.9842484248425,1595128.4368396,6140.3555764627,3131300.1236992,10.184248424842,0,0
86.695306173511,-10.339283824521,4.9886788678868,1595128.4368396,6140.3555764627,3131300.1236992,10.188678867887,0,0
86.695306317396,-10.341336949541,4.9931093109311,1595128.4368396,6140.3555764627,3131300.1236992,10.193109310931,0,0
86.695306464271,-10.34339007881,4.9975397539754,1630038.6284126,-8195.8821692752,3117306.9042336,10.197539753975,0,0
86.695306611317,-10.345443208323,5.0019701970197,1630038.6284126,-8195.8821692752,3117306.9042336,10.20197019702,0,0
86.695306758363,-10.347496337836,5.006400640064,1630038.6284126,-8195.8821692752,3117306.9042336,10.206400640064,0,0
86.695306905409,-10.34954946735,5.0108310831083,1630038.6284126,-8195.8821692752,3117306.9042336,10.210831083108,0,0
86.695307052456,-10.351602596863,5.0152615261526,1630038.6284126,-8195.8821692752,3117306.9042336,10.215261526153,0,0
86.695307199502,-10.353655726376,5.0196919691969,1630038.6284126,-8195.8821692752,3117306.9042336,10.219691969197,0,0
86.695307346548,-10.35570885589,5.0241224122412,1630038.6284126,-8195.8821692752,3117306.9042336,10.224122412241,0,0
86.695307493594,-10.357761985403,5.0285528552855,1630038.6284126,-8195.8821692752,3117306.9042336,10.228552855286,0,0
86.695307640641,-10.359815114916,5.0329832983298,1630038.6284126,-8195.8821692752,3117306.9042336,10.23298329833,0,0
86.695307787687,-10.36186824443,5.0374137413741,1630038.6284126,-8195.8821692752,3117306.9042336,10.237413741374,0,0
86.695307934733,-10.363921373943,5.0418441844184,1630038.6284126,-8195.8821692752,3117306.9042336,10.241844184418,0,0
86.695308081779,-10.365974503456,5.0462746274627,1630038.6284126,-8195.8821692752,3117306.9042336,10.246274627463,0,0
86.695308228825,-10.36802763297,5.050705070507,1630038.6284126,-8195.8821692752,3117306.9042336,10.250705070507,0,0
86.695308375872,-10.370080762483,5.0551355135514,1630038.6284126,-8195.8821692752,3117306.9042336,10.255135513551,0,0
86.695308522918,-10.372133891996,5.0595659565957,1630038.6284126,-8195.8821692752,3117306.9042336,10.259565956596,0,0
86.695308669964,-10.37418702151,5.06399639964,1630038.6284126,-8195.8821692752,3117306.9042336,10.26399639964,0,0
86.69530881701,-10.376240151023,5.0684268426843,1630038.6284126,-8195.8821692752,3117306.9042336,10.268426842684,0,0
86.695308964056,-10.378293280536,5.0728572857286,1630038.6284126,-8195.8821692752,3117306.9042336,10.272857285729,0,0
86.695309111103,-10.38034641005,5.0772877287729,1630038.6284126,-8195.8821692752,3117306.9042336,10.277287728773,0,0
86.695309258149,-10.382399539563,5.0817181718172,1630038.6284126,-8195.8821692752,3117306.9042336,10.281718171817,0,0
86.695309405195,-10.384452669076,5.0861486148615,1630038.6284126,-8195.8821692752,3117306.9042336,10.286148614861,0,0
86.695309552241,-10.38650579859,5.0905790579058,1630038.6284126,-8195.8821692752,3117306.9042336,10.290579057906,0,0
86.695309699288,-10.388558928103,5.0950095009501,1630038.6284126,-8195.8821692752,3117306.9042336,10.29500950095,0,0
86.695309846334,-10.390612057616,5.0994399439944,1630038.6284126,-8195.8821692752,3117306.9042336,10.299439943994,0,0
86.69530999338,-10.39266518713,5.1038703870387,1630038.6284126,-8195.8821692752,3117306.9042336,10.303870387039,0,0
86.695310140426,-10.394718316643,5.108300830083,1630038.6284126,-8195.8821692752,3117306.9042336,10.308300830083,0,0
86.695310287472,-10.396771446156,5.1127312731273,1630038.6284126,-8195.8821692752,3117306.9042336,10.312731273127,0,0
86.695310434519,-10.39882457567,5.1171617161716,1630038.6284126,-8195.8821692752,3117306.9042336,10.317161716172,0,0
86.695310581565,-10.400877705183,5.1215921592159,1630038.6284126,-8195.8821692752,3117306.9042336,10.321592159216,0,0
86.695310728611,-10.402930834696,5.1260226022602,1630038.6284126,-8195.8821692752,3117306.9042336,10.32602260226,0,0
86.695310875657,-10.40498396421,5.1304530453045,1630038.6284126,-8195.8821692752,3117306.9042336,10.330453045305,0,0
86.695311022704,-10.407037093723,5.1348834883488,1630038.6284126,-8195.8821692752,3117306.9042336,10.334883488349,0,0
86.69531116975,-10.409090223236,5.1393139313931,1630038.6284126,-8195.8821692752,3117306.9042336,10.339313931393,0,0
86.695311316796,-10.41114335275,5.1437443744374,1630038.6284126,-8195.8821692752,3117306.9042336,10.343744374437,0,0
86.695311463842,-10.413196482263,5.1481748174817,1630038.6284126,-8195.8821692752,3117306.9042336,10.348174817482,0,0
86.695311610888,-10.415249611776,5.1526052605261,1630038.6284126,-8195.8821692752,3117306.9042336,10.352605260526,0,0
86.695311757935,-10.41730274129,5.1570357035704,1630038.6284126,-8195.8821692752,3117306.9042336,10.35703570357,0,0
86.695311904981,-10.419355870803,5.1614661466147,1630038.6284126,-8195.8821692752,3117306.9042336,10.361466146615,0,0
86.695312052027,-10.421409000316,5.165896589659,1630038.6284126,-8195.8821692752,3117306.9042336,10.365896589659,0,0
86.695312199073,-10.42346212983,5.1703270327033,1630038.6284126,-8195.8821692752,3117306.9042336,10.370327032703,0,0
86.695312346119,-10.425515259343,5.1747574757476,1630038.6284126,-8195.8821692752,3117306.9042336,10.374757475748,0,0
86.695312493166,-10.427568388856,5.1791879187919,1630038.6284126,-8195.8821692752,3117306.9042336,10.379187918792,0,0
86.695312640212,-10.42962151837,5.1836183618362,1630038.6284126,-8195.8821692752,3117306.9042336,10.383618361836,0,0
86.695312787258,-10.431674647883,5.1880488048805,1630038.6284126,-8195.8821692752,3117306.9042336,10.38804880488,0,0
86.695312934304,-10.433727777396,5.1924792479248,1630038.6284126,-8195.8821692752,3117306.9042336,10.392479247925,0,0
86.695313081351,-10.43578090691,5.1969096909691,1630038.6284126,-8195.8821692752,3117306.9042336,10.396909690969,0,0
86.695313228397,-10.437834036423,5.2013401340134,1630038.6284126,-8195.8821692752,3117306.9042336,10.401340134013,0,0
86.695313375443,-10.439887165936,5.2057705770577,1630038.6284126,-8195.8821692752,3117306.9042336,10.405770577058,0,0
86.695313522489,-10.44194029545,5.210201020102,1630038.6284126,-8195.8821692752,3117306.9042336,10.410201020102,0,0
86.695313669535,-10.443993424963,5.2146314631463,1630038.6284126,-8195.8821692752,3117306.9042336,10.414631463146,0,0
86.695313816582,-10.446046554476,5.2190619061906,1630038.6284126,-8195.8821692752,3117306.9042336,10.419061906191,0,0
86.695313963628,-10.44809968399,5.2234923492349,1630038.6284126,-8195.8821692752,3117306.9042336,10.423492349235,0,0
86.695314110674,-10.450152813503,5.2279227922792,1630038.6284126,-8195.8821692752,3117306.9042336,10.427922792279,0,0
86.69531425772,-10.452205943016,5.2323532353235,1630038.6284126,-8195.8821692752,3117306.9042336,10.432353235324,0,0
86.695314404767,-10.45425907253,5.2367836783678,1630038.6284126,-8195.8821692752,3117306.9042336,10.436783678368,0,0
86.695314552111,-10.456312200122,5.2412141214121,1615576.3696656,4302.1464921366,3054207.4320533,10.441214121412,0,0
86.695314699682,-10.458365326252,5.2456445644564,1615576.3696656,4302.1464921366,3054207.4320533,10.445644564456,0,0
86.695314847253,-10.460418452381,5.2500750075008,1615576.3696656,4302.1464921366,3054207.4320533,10.450075007501,0,0
86.695314994824,-10.46247157851,5.2545054505451,1615576.3696656,4302.1464921366,3054207.4320533,10.454505450545,0,0
86.695315142395,-10.464524704639,5.2589358935894,1615576.3696656,4302.1464921366,3054207.4320533,10.458935893589,0,0
86.695315289966,-10.466577830769,5.2633663366337,1615576.3696656,4302.1464921366,3054207.4320533,10.463366336634,0,0
86.695315437537,-10.468630956898,5.267796779678,1615576.3696656,4302.1464921366,3054207.4320533,10.467796779678,0,0
86.695315585108,-10.470684083027,5.2722272227223,1615576.3696656,4302.1464921366,3054207.4320533,10.472227222722,0,0
86.695315732679,-10.472737209156,5.2766576657666,1615576.3696656,4302.1464921366,3054207.4320533,10.476657665767,0,0
86.69531588025,-10.474790335286,5.2810881088109,1615576.3696656,4302.1464921366,3054207.4320533,10.481088108811,0,0
86.695316027821,-10.476843461415,5.2855185518552,1615576.3696656,4302.1464921366,3054207.4320533,10.485518551855,0,0
86.695316175392,-10.478896587544,5.2899489948995,1615576.3696656,4302.1464921366,3054207.4320533,10.489948994899,0,0
86.695316322963,-10.480949713673,5.2943794379438,1615576.3696656,4302.1464921366,3054207.4320533,10.494379437944,0,0
86.695316470535,-10.483002839803,5.2988098809881,1615576.3696656,4302.1464921366,3054207.4320533,10.498809880988,0,0
86.695316618106,-10.485055965932,5.3032403240324,1615576.3696656,4302.1464921366,3054207.4320533,10.503240324032,0,0
86.695316765677,-10.487109092061,5.3076707670767,1615576.3696656,4302.1464921366,3054207.4320533,10.507670767077,0,0
86.695316913248,-10.48916221819,5.312101210121,1615576.3696656,4302.1464921366,3054207.4320533,10.512101210121,0,0
86.695317060819,-10.49121534432,5.3165316531653,1615576.3696656,4302.1464921366,3054207.4320533,10.516531653165,0,0
86.69531720839,-10.493268470449,5.3209620962096,1615576.3696656,4302.1464921366,3054207.4320533,10.52096209621,0,0
86.695317355961,-10.495321596578,5.3253925392539,1615576.3696656,4302.1464921366,3054207.4320533,10.525392539254,0,0
86.695317503532,-10.497374722707,5.3298229822982,1615576.3696656,4302.1464921366,3054207.4320533,10.529822982298,0,0
86.695317651103,-10.499427848837,5.3342534253425,1615576.3696656,4302.1464921366,3054207.4320533,10.534253425343,0,0
86.695317798674,-10.501480974966,5.3386838683868,1615576.3696656,4302.1464921366,3054207.4320533,10.538683868387,0,0
86.695317946245,-10.503534101095,5.3431143114311,1615576.3696656,4302.1464921366,3054207.4320533,10.543114311431,0,0
86.695318093816,-10.505587227224,5.3475447544754,1615576.3696656,4302.1464921366,3054207.4320533,10.547544754475,0,0
86.695318241387,-10.507640353354,5.3519751975198,1615576.3696656,4302.1464921366,3054207.4320533,10.55197519752,0,0
86.695318388959,-10.509693479483,5.3564056405641,1615576.3696656,4302.1464921366,3054207.4320533,10.556405640564,0,0
86.69531853653,-10.511746605612,5.3608360836084,1615576.3696656,4302.1464921366,3054207.4320533,10.560836083608,0,0
86.695318684101,-10.513799731741,5.3652665266527,1615576.3696656,4302.1464921366,3054207.4320533,10.565266526653,0,0
86.695318831672,-10.515852857871,5.369696969697,1615576.3696656,4302.1464921366,3054207.4320533,10.569696969697,0,0
86.695318979243,-10.517905984,5.3741274127413,1615576.3696656,4302.1464921366,3054207.4320533,10.574127412741,0,0
86.695319126814,-10.519959110129,5.3785578557856,1615576.3696656,4302.1464921366,3054207.4320533,10.578557855786,0,0
86.695319274385,-10.522012236258,5.3829882988299,1615576.3696656,4302.1464921366,3054207.4320533,10.58298829883,0,0
86.695319421956,-10.524065362388,5.3874187418742,1615576.3696656,4302.1464921366,3054207.4320533,10.587418741874,0,0
86.695319569527,-10.526118488517,5.3918491849185,1615576.3696656,4302.1464921366,3054207.4320533,10.591849184918,0,0
86.695319717098,-10.528171614646,5.3962796279628,1615576.3696656,4302.1464921366,3054207.4320533,10.596279627963,0,0
86.695319864669,-10.530224740775,5.4007100710071,1615576.3696656,4302.1464921366,3054207.4320533,10.600710071007,0,0
86.69532001224,-10.532277866905,5.4051405140514,1615576.3696656,4302.1464921366,3054207.4320533,10.605140514051,0,0
86.695320159811,-10.534330993034,5.4095709570957,1615576.3696656,4302.1464921366,3054207.4320533,10.609570957096,0,0
86.695320307383,-10.536384119163,5.41400140014,1615576.3696656,4302.1464921366,3054207.4320533,10.61400140014,0,0
86.695320454954,-10.538437245292,5.4184318431843,1615576.3696656,4302.1464921366,3054207.4320533,10.618431843184,0,0
86.695320602525,-10.540490371422,5.4228622862286,1615576.3696656,4302.1464921366,3054207.4320533,10.622862286229,0,0
86.695320750096,-10.542543497551,5.4272927292729,1615576.3696656,4302.1464921366,3054207.4320533,10.627292729273,0,0
86.695320897667,-10.54459662368,5.4317231723172,1615576.3696656,4302.1464921366,3054207.4320533,10.631723172317,0,0
86.695321045238,-10.546649749809,5.4361536153615,1615576.3696656,4302.1464921366,3054207.4320533,10.636153615362,0,0
86.695321192809,-10.548702875939,5.4405840584058,1615576.3696656,4302.1464921366,3054207.4320533,10.640584058406,0,0
86.69532134038,-10.550756002068,5.4450145014501,1615576.3696656,4302.1464921366,3054207.4320533,10.64501450145,0,0
86.695321487951,-10.552809128197,5.4494449444944,1615576.3696656,4302.1464921366,3054207.4320533,10.649444944494,0,0
86.695321635522,-10.554862254326,5.4538753875388,1615576.3696656,4302.1464921366,3054207.4320533,10.653875387539,0,0
86.695321783093,-10.556915380456,5.4583058305831,1615576.3696656,4302.1464921366,3054207.4320533,10.658305830583,0,0
86.695321930664,-10.558968506585,5.4627362736274,1615576.3696656,4302.1464921366,3054207.4320533,10.662736273627,0,0
86.695322078235,-10.561021632714,5.4671667166717,1615576.3696656,4302.1464921366,3054207.4320533,10.667166716672,0,0
86.695322227793,-10.563074757017,5.471597159716,1655787.8052294,15370.301157986,3063329.511586,10.671597159716,0,0
86.695322378334,-10.565127880416,5.4760276027603,1655787.8052294,15370.301157986,3063329.511586,10.67602760276,0,0
86.695322528874,-10.567181003816,5.4804580458046,1655787.8052294,15370.301157986,3063329.511586,10.680458045805,0,0
86.695322679414,-10.569234127216,5.4848884888489,1655787.8052294,15370.301157986,3063329.511586,10.684888488849,0,0
86.695322829954,-10.571287250615,5.4893189318932,1655787.8052294,15370.301157986,3063329.511586,10.689318931893,0,0
86.695322980494,-10.573340374015,5.4937493749375,1655787.8052294,15370.301157986,3063329.511586,10.693749374937,0,0
86.695323131034,-10.575393497415,5.4981798179818,1655787.8052294,15370.301157986,3063329.511586,10.698179817982,0,0
86.695323281574,-10.577446620815,5.5026102610261,1655787.8052294,15370.301157986,3063329.511586,10.702610261026,0,0
86.695323432114,-10.579499744214,5.5070407040704,1655787.8052294,15370.301157986,3063329.511586,10.70704070407,0,0
86.695323582654,-10.581552867614,5.5114711471147,1655787.8052294,15370.301157986,3063329.511586,10.711471147115,0,0
86.695323733195,-10.583605991014,5.515901590159,1655787.8052294,15370.301157986,3063329.5115859,10.715901590159,0,0
86.695323883735,-10.585659114413,5.5203320332033,1655787.8052294,15370.301157986,3063329.5115859,10.720332033203,0,0
86.695324034275,-10.587712237813,5.5247624762476,1655787.8052294,15370.301157986,3063329.5115859,10.724762476248,0,0
86.695324184815,-10.589765361213,5.5291929192919,1655787.8052294,15370.301157986,3063329.5115859,10.729192919292,0,0
86.695324335355,-10.591818484612,5.5336233623362,1655787.8052294,15370.301157986,3063329.5115859,10.733623362336,0,0
86.695324485895,-10.593871608012,5.5380538053805,1655787.8052294,15370.301157986,3063329.5115859,10.738053805381,0,0
86.695324636435,-10.595924731412,5.5424842484248,1655787.8052294,15370.301157986,3063329.5115859,10.742484248425,0,0
86.695324786975,-10.597977854812,5.5469146914691,1655787.8052294,15370.301157986,3063329.5115859,10.746914691469,0,0
86.695324937516,-10.600030978211,5.5513451345134,1655787.8052294,15370.301157986,3063329.5115859,10.751345134513,0,0
86.695325088056,-10.602084101611,5.5557755775578,1655787.8052294,15370.301157986,3063329.5115859,10.755775577558,0,0
86.695325238596,-10.604137225011,5.5602060206021,1655787.8052294,15370.301157986,3063329.5115859,10.760206020602,0,0
86.695325389136,-10.60619034841,5.5646364636464,1655787.8052294,15370.301157986,3063329.5115859,10.764636463646,0,0
86.695325539676,-10.60824347181,5.5690669066907,1655787.8052294,15370.301157986,3063329.5115859,10.769066906691,0,0
86.695325690216,-10.61029659521,5.573497349735,1655787.8052294,15370.301157986,3063329.5115859,10.773497349735,0,0
86.695325840756,-10.612349718609,5.5779277927793,1655787.8052294,15370.301157986,3063329.5115859,10.777927792779,0,0
86.695325991296,-10.614402842009,5.5823582358236,1655787.8052294,15370.301157986,3063329.5115859,10.782358235824,0,0
86.695326141836,-10.616455965409,5.5867886788679,1655787.8052294,15370.301157986,3063329.5115859,10.786788678868,0,0
86.695326292377,-10.618509088808,5.5912191219122,1655787.8052294,15370.301157986,3063329.5115859,10.791219121912,0,0
86.695326442917,-10.620562212208,5.5956495649565,1655787.8052294,15370.301157986,3063329.5115859,10.795649564956,0,0
86.695326593457,-10.622615335608,5.6000800080008,1655787.8052294,15370.301157986,3063329.5115859,10.800080008001,0,0
86.695326743997,-10.624668459008,5.6045104510451,1655787.8052294,15370.301157986,3063329.5115859,10.804510451045,0,0
86.695326894537,-10.626721582407,5.6089408940894,1655787.8052294,15370.301157986,3063329.5115859,10.808940894089,0,0
86.695327045077,-10.628774705807,5.6133713371337,1655787.8052294,15370.301157986,3063329.5115859,10.813371337134,0,0
86.695327195617,-10.630827829207,5.617801780178,1655787.8052294,15370.301157986,3063329.5115859,10.817801780178,0,0
86.695327346157,-10.632880952606,5.6222322232223,1655787.8052294,15370.301157986,3063329.5115859,10.822232223222,0,0
86.695327496697,-10.634934076006,5.6266626662666,1655787.8052294,15370.301157986,3063329.5115859,10.826662666267,0,0
86.695327647238,-10.636987199406,5.6310931093109,1655787.8052294,15370.301157986,3063329.5115859,10.831093109311,0,0
86.695327797778,-10.639040322805,5.6355235523552,1655787.8052294,15370.301157986,3063329.5115859,10.835523552355,0,0
86.695327948318,-10.641093446205,5.6399539953995,1655787.8052294,15370.301157986,3063329.5115859,10.8399539954,0,0
86.695328099189,-10.64314657174,5.6443844384438,1646766.3804318,-6769.07676052,3004791.8145155,10.844384438444,0,0
86.695328250567,-10.645199700543,5.6488148814881,1646766.3804318,-6769.07676052,3004791.8145155,10.848814881488,0,0
86.695328401945,-10.647252829347,5.6532453245325,1646766.3804318,-6769.07676052,3004791.8145155,10.853245324532,0,0
86.695328553323,-10.64930595815,5.6576757675768,1646766.3804318,-6769.07676052,3004791.8145155,10.857675767577,0,0
86.695328704701,-10.651359086953,5.6621062106211,1646766.3804318,-6769.07676052,3004791.8145155,10.862106210621,0,0
86.69532885608,-10.653412215756,5.6665366536654,1646766.3804318,-6769.07676052,3004791.8145155,10.866536653665,0,0
86.695329007458,-10.65546534456,5.6709670967097,1646766.3804318,-6769.07676052,3004791.8145155,10.87096709671,0,0
86.695329158836,-10.657518473363,5.675397539754,1646766.3804318,-6769.07676052,3004791.8145155,10.875397539754,0,0
86.695329310214,-10.659571602166,5.6798279827983,1646766.3804318,-6769.07676052,3004791.8145155,10.879827982798,0,0
86.695329461592,-10.66162473097,5.6842584258426,1646766.3804318,-6769.07676052,3004791.8145155,10.884258425843,0,0
86.69532961297,-10.663677859773,5.6886888688869,1646766.3804318,-6769.07676052,3004791.8145155,10.888688868887,0,0
86.695329764348,-10.665730988576,5.6931193119312,1646766.3804318,-6769.07676052,3004791.8145155,10.893119311931,0,0
86.695329915726,-10.667784117379,5.6975497549755,1646766.3804318,-6769.07676052,3004791.8145155,10.897549754975,0,0
86.695330067104,-10.669837246183,5.7019801980198,1646766.3804318,-6769.07676052,3004791.8145155,10.90198019802,0,0
86.695330218482,-10.671890374986,5.7064106410641,1646766.3804318,-6769.07676052,3004791.8145155,10.906410641064,0,0
86.695330369861,-10.673943503789,5.7108410841084,1646766.3804318,-6769.07676052,3004791.8145155,10.910841084108,0,0
86.695330521239,-10.675996632593,5.7152715271527,1646766.3804318,-6769.07676052,3004791.8145155,10.915271527153,0,0
86.695330672617,-10.678049761396,5.719701970197,1646766.3804318,-6769.07676052,3004791.8145155,10.919701970197,0,0
86.695330823995,-10.680102890199,5.7241324132413,1646766.3804318,-6769.07676052,3004791.8145155,10.924132413241,0,0
86.695330975373,-10.682156019002,5.7285628562856,1646766.3804318,-6769.07676052,3004791.8145155,10.928562856286,0,0
86.695331126751,-10.684209147806,5.7329932993299,1646766.3804318,-6769.07676052,3004791.8145155,10.93299329933,0,0
86.695331278129,-10.686262276609,5.7374237423742,1646766.3804318,-6769.07676052,3004791.8145155,10.937423742374,0,0
86.695331429507,-10.688315405412,5.7418541854185,1646766.3804318,-6769.07676052,3004791.8145155,10.941854185419,0,0
86.695331580885,-10.690368534216,5.7462846284628,1646766.3804318,-6769.07676052,3004791.8145155,10.946284628463,0,0
86.695331732264,-10.692421663019,5.7507150715072,1646766.3804318,-6769.07676052,3004791.8145155,10.950715071507,0,0
86.695331883642,-10.694474791822,5.7551455145515,1646766.3804318,-6769.07676052,3004791.8145155,10.955145514551,0,0
86.69533203502,-10.696527920626,5.7595759575958,1646766.3804318,-6769.07676052,3004791.8145155,10.959575957596,0,0
86.695332186398,-10.698581049429,5.7640064006401,1646766.3804318,-6769.07676052,3004791.8145155,10.96400640064,0,0
86.695332337776,-10.700634178232,5.7684368436844,1646766.3804318,-6769.07676052,3004791.8145155,10.968436843684,0,0
86.695332489154,-10.702687307035,5.7728672867287,1646766.3804318,-6769.07676052,3004791.8145155,10.972867286729,0,0
86.695332640532,-10.704740435839,5.777297729773,1646766.3804318,-6769.07676052,3004791.8145155,10.977297729773,0,0
86.69533279191,-10.706793564642,5.7817281728173,1646766.3804318,-6769.07676052,3004791.8145155,10.981728172817,0,0
86.695332943288,-10.708846693445,5.7861586158616,1646766.3804318,-6769.07676052,3004791.8145155,10.986158615862,0,0
86.695333094666,-10.710899822249,5.7905890589059,1646766.3804318,-6769.07676052,3004791.8145155,10.990589058906,0,0
86.695333246045,-10.712952951052,5.7950195019502,1646766.3804318,-6769.07676052,3004791.8145155,10.99501950195,0,0
86.695333397423,-10.715006079855,5.7994499449945,1646766.3804318,-6769.07676052,3004791.8145155,10.999449944994,0,0
86.695333548801,-10.717059208658,5.8038803880388,1646766.3804318,-6769.07676052,3004791.8145155,11.003880388039,0,0
86.695333700179,-10.719112337462,5.8083108310831,1646766.3804318,-6769.07676052,3004791.8145155,11.008310831083,0,0
86.695333851557,-10.721165466265,5.8127412741274,1646766.3804318,-6769.07676052,3004791.8145155,11.012741274127,0,0
86.695334002935,-10.723218595068,5.8171717171717,1646766.3804318,-6769.07676052,3004791.8145155,11.017171717172,0,0
86.695334154313,-10.725271723872,5.821602160216,1646766.3804318,-6769.07676052,3004791.8145155,11.021602160216,0,0
86.695334305691,-10.727324852675,5.8260326032603,1646766.3804318,-6769.07676052,3004791.8145155,11.02603260326,0,0
86.695334457069,-10.729377981478,5.8304630463046,1646766.3804318,-6769.07676052,3004791.8145155,11.030463046305,0,0
86.695334608447,-10.731431110281,5.8348934893489,1646766.3804318,-6769.07676052,3004791.8145155,11.034893489349,0,0
86.695334759826,-10.733484239085,5.8393239323932,1646766.3804318,-6769.07676052,3004791.8145155,11.039323932393,0,0
86.695334911204,-10.735537367888,5.8437543754375,1646766.3804318,-6769.07676052,3004791.8145155,11.043754375438,0,0
86.695335062582,-10.737590496691,5.8481848184818,1646766.3804318,-6769.07676052,3004791.8145155,11.048184818482,0,0
86.69533521396,-10.739643625495,5.8526152615262,1646766.3804318,-6769.07676052,3004791.8145155,11.052615261526,0,0
86.695335365338,-10.741696754298,5.8570457045705,1646766.3804318,-6769.07676052,3004791.8145155,11.05704570457,0,0
86.695335516716,-10.743749883101,5.8614761476148,1646766.3804318,-6769.07676052,3004791.8145155,11.061476147615,0,0
86.695335668094,-10.745803011904,5.8659065906591,1646766.3804318,-6769.07676052,3004791.8145155,11.065906590659,0,0
86.695335819472,-10.747856140708,5.8703370337034,1646766.3804318,-6769.07676052,3004791.8145155,11.070337033703,0,0
86.69533597085,-10.749909269511,5.8747674767477,1646766.3804318,-6769.07676052,3004791.8145155,11.074767476748,0,0
86.695336122229,-10.751962398314,5.879197919792,1646766.3804318,-6769.07676052,3004791.8145155,11.079197919792,0,0
86.695336273607,-10.754015527118,5.8836283628363,1646766.3804318,-6769.07676052,3004791.8145155,11.083628362836,0,0
86.695336424985,-10.756068655921,5.8880588058806,1646766.3804318,-6769.07676052,3004791.8145155,11.088058805881,0,0
86.695336576363,-10.758121784724,5.8924892489249,1646766.3804318,-6769.07676052,3004791.8145155,11.092489248925,0,0
86.695336727741,-10.760174913528,5.8969196919692,1646766.3804318,-6769.07676052,3004791.8145155,11.096919691969,0,0
86.695336879119,-10.762228042331,5.9013501350135,1646766.3804318,-6769.07676052,3004791.8145155,11.101350135014,0,0
86.695337030497,-10.764281171134,5.9057805780578,1646766.3804318,-6769.07676052,3004791.8145155,11.105780578058,0,0
86.695337181875,-10.766334299937,5.9102110211021,1646766.3804318,-6769.07676052,3004791.8145155,11.110211021102,0,0
86.695337333253,-10.768387428741,5.9146414641464,1646766.3804318,-6769.07676052,3004791.8145155,11.114641464146,0,0
86.695337484631,-10.770440557544,5.9190719071907,1646766.3804318,-6769.07676052,3004791.8145155,11.119071907191,0,0
86.69533763601,-10.772493686347,5.923502350235,1646766.3804318,-6769.07676052,3004791.8145155,11.123502350235,0,0
86.695337787388,-10.774546815151,5.9279327932793,1646766.3804318,-6769.07676052,3004791.8145155,11.127932793279,0,0
86.695337938766,-10.776599943954,5.9323632363236,1646766.3804318,-6769.07676052,3004791.8145155,11.132363236324,0,0
86.695338090144,-10.778653072757,5.9367936793679,1646766.3804318,-6769.07676052,3004791.8145155,11.136793679368,0,0
86.695338241522,-10.78070620156,5.9412241224122,1646766.3804318,-6769.07676052,3004791.8145155,11.141224122412,0,0
86.6953383929,-10.782759330364,5.9456545654565,1646766.3804318,-6769.07676052,3004791.8145155,11.145654565457,0,0
86.695338544278,-10.784812459167,5.9500850085008,1646766.3804318,-6769.07676052,3004791.8145155,11.150085008501,0,0
86.695338695656,-10.78686558797,5.9545154515452,1646766.3804318,-6769.07676052,3004791.8145155,11.154515451545,0,0
86.695338847034,-10.788918716774,5.9589458945895,1646766.3804318,-6769.07676052,3004791.8145155,11.158945894589,0,0
86.695338998412,-10.790971845577,5.9633763376338,1646766.3804318,-6769.07676052,3004791.8145155,11.163376337634,0,0
86.695339149791,-10.79302497438,5.9678067806781,1646766.3804318,-6769.07676052,3004791.8145155,11.167806780678,0,0
86.695339301169,-10.795078103183,5.9722372237224,1646766.3804318,-6769.07676052,3004791.8145155,11.172237223722,0,0
86.695339452547,-10.797131231987,5.9766676667667,1646766.3804318,-6769.07676052,3004791.8145155,11.176667666767,0,0
86.695339603925,-10.79918436079,5.981098109811,1646766.3804318,-6769.07676052,3004791.8145155,11.181098109811,0,0
86.695339755303,-10.801237489593,5.9855285528553,1646766.3804318,-6769.07676052,3004791.8145155,11.185528552855,0,0
86.695339906681,-10.803290618397,5.9899589958996,1646766.3804318,-6769.07676052,3004791.8145155,11.1899589959,0,0
86.695340058059,-10.8053437472,5.9943894389439,1646766.3804318,-6769.07676052,3004791.8145155,11.194389438944,0,0
86.695340209437,-10.807396876003,5.9988198819882,1646766.3804318,-6769.07676052,3004791.8145155,11.198819881988,0,0
86.695340360815,-10.809450004807,6.0032503250325,1646766.3804318,-6769.07676052,3004791.8145155,11.203250325033,0,0
86.695340512194,-10.81150313361,6.0076807680768,1646766.3804318,-6769.07676052,3004791.8145155,11.207680768077,0,0
86.695340663572,-10.813556262413,6.0121112111211,1646766.3804318,-6769.07676052,3004791.8145155,11.212111211121,0,0
86.69534081495,-10.815609391216,6.0165416541654,1646766.3804318,-6769.07676052,3004791.8145155,11.216541654165,0,0
86.695340966328,-10.81766252002,6.0209720972097,1646766.3804318,-6769.07676052,3004791.8145155,11.22097209721,0,0
86.695341117706,-10.819715648823,6.025402540254,1646766.3804318,-6769.07676052,3004791.8145155,11.225402540254,0,0
86.695341269084,-10.821768777626,6.0298329832983,1646766.3804318,-6769.07676052,3004791.8145155,11.229832983298,0,0
86.695341420462,-10.82382190643,6.0342634263426,1646766.3804318,-6769.07676052,3004791.8145155,11.234263426343,0,0
86.69534157184,-10.825875035233,6.0386938693869,1646766.3804318,-6769.07676052,3004791.8145155,11.238693869387,0,0
86.695341723218,-10.827928164036,6.0431243124312,1646766.3804318,-6769.07676052,3004791.8145155,11.243124312431,0,0
86.695341874596,-10.829981292839,6.0475547554755,1646766.3804318,-6769.07676052,3004791.8145155,11.247554755476,0,0
86.695342025975,-10.832034421643,6.0519851985199,1646766.3804318,-6769.07676052,3004791.8145155,11.25198519852,0,0
86.695342177353,-10.834087550446,6.0564156415642,1646766.3804318,-6769.07676052,3004791.8145155,11.256415641564,0,0
86.695342328731,-10.836140679249,6.0608460846085,1646766.3804318,-6769.07676052,3004791.8145155,11.260846084608,0,0
86.695342481034,-10.838193806851,6.0652765276528,1684267.6766953,7538.2019754499,3001964.7183519,11.265276527653,0,0
86.695342635483,-10.840246931664,6.0697069706971,1684267.6766953,7538.2019754499,3001964.7183519,11.269706970697,0,0
86.695342789931,-10.842300056478,6.0741374137414,1684267.6766953,7538.2019754499,3001964.7183519,11.274137413741,0,0
86.69534294438,-10.844353181292,6.0785678567857,1684267.6766953,7538.2019754499,3001964.7183519,11.278567856786,0,0
86.695343098829,-10.846406306105,6.08299829983,1684267.6766953,7538.2019754499,3001964.7183519,11.28299829983,0,0
86.695343253278,-10.848459430919,6.0874287428743,1684267.6766953,7538.2019754499,3001964.7183519,11.287428742874,0,0
86.695343407727,-10.850512555732,6.0918591859186,1684267.6766953,7538.2019754499,3001964.7183519,11.291859185919,0,0
86.695343562175,-10.852565680546,6.0962896289629,1684267.6766953,7538.2019754499,3001964.7183519,11.296289628963,0,0
86.695343716624,-10.854618805359,6.1007200720072,1684267.6766953,7538.2019754499,3001964.7183519,11.300720072007,0,0
86.695343871073,-10.856671930173,6.1051505150515,1684267.6766953,7538.2019754499,3001964.7183519,11.305150515052,0,0
86.695344025522,-10.858725054986,6.1095809580958,1684267.6766953,7538.2019754499,3001964.7183519,11.309580958096,0,0
86.695344179971,-10.8607781798,6.1140114011401,1684267.6766953,7538.2019754499,3001964.7183519,11.31401140114,0,0
86.69534433442,-10.862831304613,6.1184418441844,1684267.6766953,7538.2019754499,3001964.7183519,11.318441844184,0,0
86.695344488868,-10.864884429427,6.1228722872287,1684267.6766953,7538.2019754499,3001964.7183519,11.322872287229,0,0
86.695344643317,-10.86693755424,6.127302730273,1684267.6766953,7538.2019754499,3001964.7183519,11.327302730273,0,0
86.695344797766,-10.868990679054,6.1317331733173,1684267.6766953,7538.2019754499,3001964.7183519,11.331733173317,0,0
86.695344952215,-10.871043803867,6.1361636163616,1684267.6766953,7538.2019754499,3001964.7183519,11.336163616362,0,0
86.695345106664,-10.873096928681,6.1405940594059,1684267.6766953,7538.2019754499,3001964.7183519,11.340594059406,0,0
86.695345261113,-10.875150053494,6.1450245024502,1684267.6766953,7538.2019754499,3001964.7183519,11.34502450245,0,0
86.695345415561,-10.877203178308,6.1494549454945,1684267.6766953,7538.2019754499,3001964.7183519,11.349454945495,0,0
86.69534557001,-10.879256303122,6.1538853885389,1684267.6766953,7538.2019754499,3001964.7183519,11.353885388539,0,0
86.695345724459,-10.881309427935,6.1583158315832,1684267.6766953,7538.2019754499,3001964.7183519,11.358315831583,0,0
86.695345878908,-10.883362552749,6.1627462746275,1684267.6766953,7538.2019754499,3001964.7183519,11.362746274627,0,0
86.695346033357,-10.885415677562,6.1671767176718,1684267.6766953,7538.2019754499,3001964.7183519,11.367176717672,0,0
86.695346187805,-10.887468802376,6.1716071607161,1684267.6766953,7538.2019754499,3001964.7183519,11.371607160716,0,0
86.695346342254,-10.889521927189,6.1760376037604,1684267.6766953,7538.2019754499,3001964.7183519,11.37603760376,0,0
86.695346496703,-10.891575052003,6.1804680468047,1684267.6766953,7538.2019754499,3001964.7183519,11.380468046805,0,0
86.695346651152,-10.893628176816,6.184898489849,1684267.6766953,7538.2019754499,3001964.7183519,11.384898489849,0,0
86.695346805601,-10.89568130163,6.1893289328933,1684267.6766953,7538.2019754499,3001964.7183519,11.389328932893,0,0
86.69534696005,-10.897734426443,6.1937593759376,1684267.6766953,7538.2019754499,3001964.7183519,11.393759375938,0,0
86.695347114498,-10.899787551257,6.1981898189819,1684267.6766953,7538.2019754499,3001964.7183519,11.398189818982,0,0
86.695347268947,-10.90184067607,6.2026202620262,1684267.6766953,7538.2019754499,3001964.7183519,11.402620262026,0,0
86.695347423396,-10.903893800884,6.2070507050705,1684267.6766953,7538.2019754499,3001964.7183519,11.407050705071,0,0
86.695347577845,-10.905946925697,6.2114811481148,1684267.6766953,7538.2019754499,3001964.7183519,11.411481148115,0,0
86.695347732294,-10.908000050511,6.2159115911591,1684267.6766953,7538.2019754499,3001964.7183519,11.415911591159,0,0
86.695347886742,-10.910053175325,6.2203420342034,1684267.6766953,7538.2019754499,3001964.7183519,11.420342034203,0,0
86.695348041191,-10.912106300138,6.2247724772477,1684267.6766953,7538.2019754499,3001964.7183519,11.424772477248,0,0
86.69534819564,-10.914159424952,6.229202920292,1684267.6766953,7538.2019754499,3001964.7183519,11.429202920292,0,0
86.695348350089,-10.916212549765,6.2336333633363,1684267.6766953,7538.2019754499,3001964.7183519,11.433633363336,0,0
86.695348504538,-10.918265674579,6.2380638063806,1684267.6766953,7538.2019754499,3001964.7183519,11.438063806381,0,0
86.695348658987,-10.920318799392,6.2424942494249,1684267.6766953,7538.2019754499,3001964.7183519,11.442494249425,0,0
86.695348813435,-10.922371924206,6.2469246924692,1684267.6766953,7538.2019754499,3001964.7183519,11.446924692469,0,0
86.695348967884,-10.924425049019,6.2513551355136,1684267.6766953,7538.2019754499,3001964.7183519,11.451355135514,0,0
86.695349122333,-10.926478173833,6.2557855785579,1684267.6766953,7538.2019754499,3001964.7183519,11.455785578558,0,0
86.695349276782,-10.928531298646,6.2602160216022,1684267.6766953,7538.2019754499,3001964.7183519,11.460216021602,0,0
86.695349431231,-10.93058442346,6.2646464646465,1684267.6766953,7538.2019754499,3001964.7183519,11.464646464646,0,0
86.695349585679,-10.932637548273,6.2690769076908,1684267.6766953,7538.2019754499,3001964.7183519,11.469076907691,0,0
86.695349740128,-10.934690673087,6.2735073507351,1684267.6766953,7538.2019754499,3001964.7183519,11.473507350735,0,0
86.695349894577,-10.9367437979,6.2779377937794,1684267.6766953,7538.2019754499,3001964.7183519,11.477937793779,0,0
86.695350049026,-10.938796922714,6.2823682368237,1684267.6766953,7538.2019754499,3001964.7183519,11.482368236824,0,0
86.695350203475,-10.940850047527,6.286798679868,1684267.6766953,7538.2019754499,3001964.7183519,11.486798679868,0,0
86.695350357924,-10.942903172341,6.2912291229123,1684267.6766953,7538.2019754499,3001964.7183519,11.491229122912,0,0
86.695350512372,-10.944956297155,6.2956595659566,1684267.6766953,7538.2019754499,3001964.7183519,11.495659565957,0,0
86.695350666821,-10.947009421968,6.3000900090009,1684267.6766953,7538.2019754499,3001964.7183519,11.500090009001,0,0
86.69535082127,-10.949062546782,6.3045204520452,1684267.6766953,7538.2019754499,3001964.7183519,11.504520452045,0,0
86.695350975719,-10.951115671595,6.3089508950895,1684267.6766953,7538.2019754499,3001964.7183519,11.50895089509,0,0
86.695351130168,-10.953168796409,6.3133813381338,1684267.6766953,7538.2019754499,3001964.7183519,11.513381338134,0,0
86.695351284617,-10.955221921222,6.3178117811781,1684267.6766953,7538.2019754499,3001964.7183519,11.517811781178,0,0
86.695351439065,-10.957275046036,6.3222422242224,1684267.6766953,7538.2019754499,3001964.7183519,11.522242224222,0,0
86.695351593514,-10.959328170849,6.3266726672667,1684267.6766953,7538.2019754499,3001964.7183519,11.526672667267,0,0
86.695351747963,-10.961381295663,6.331103110311,1684267.6766953,7538.2019754499,3001964.7183519,11.531103110311,0,0
86.695351902412,-10.963434420476,6.3355335533553,1684267.6766953,7538.2019754499,3001964.7183519,11.535533553355,0,0
86.695352056861,-10.96548754529,6.3399639963996,1684267.6766953,7538.2019754499,3001964.7183519,11.5399639964,0,0
86.695352211309,-10.967540670103,6.3443944394439,1684267.6766953,7538.2019754499,3001964.7183519,11.544394439444,0,0
86.695352365758,-10.969593794917,6.3488248824882,1684267.6766953,7538.2019754499,3001964.7183519,11.548824882488,0,0
86.695352520207,-10.97164691973,6.3532553255326,1684267.6766953,7538.2019754499,3001964.7183519,11.553255325533,0,0
86.695352674656,-10.973700044544,6.3576857685769,1684267.6766953,7538.2019754499,3001964.7183519,11.557685768577,0,0
86.695352829105,-10.975753169357,6.3621162116212,1684267.6766953,7538.2019754499,3001964.7183519,11.562116211621,0,0
86.695352983554,-10.977806294171,6.3665466546655,1684267.6766953,7538.2019754499,3001964.7183519,11.566546654665,0,0
86.695353138002,-10.979859418985,6.3709770977098,1684267.6766953,7538.2019754499,3001964.7183519,11.57097709771,0,0
86.695353292451,-10.981912543798,6.3754075407541,1684267.6766953,7538.2019754499,3001964.7183519,11.575407540754,0,0
86.6953534469,-10.983965668612,6.3798379837984,1684267.6766953,7538.2019754499,3001964.7183519,11.579837983798,0,0
86.695353601349,-10.986018793425,6.3842684268427,1684267.6766953,7538.2019754499,3001964.7183519,11.584268426843,0,0
86.695353755798,-10.988071918239,6.388698869887,1684267.6766953,7538.2019754499,3001964.7183519,11.588698869887,0,0
86.695353910246,-10.990125043052,6.3931293129313,1684267.6766953,7538.2019754499,3001964.7183519,11.593129312931,0,0
86.695354064695,-10.992178167866,6.3975597559756,1684267.6766953,7538.2019754499,3001964.7183519,11.597559755976,0,0
86.695354219144,-10.994231292679,6.4019901990199,1684267.6766953,7538.2019754499,3001964.7183519,11.60199019902,0,0
86.695354373593,-10.996284417493,6.4064206420642,1684267.6766953,7538.2019754499,3001964.7183519,11.606420642064,0,0
86.695354528042,-10.998337542306,6.4108510851085,1684267.6766953,7538.2019754499,3001964.7183519,11.610851085109,0,0
86.695354682491,-11.00039066712,6.4152815281528,1684267.6766953,7538.2019754499,3001964.7183519,11.615281528153,0,0
86.695354836939,-11.002443791933,6.4197119711971,1684267.6766953,7538.2019754499,3001964.7183519,11.619711971197,0,0
86.695354991388,-11.004496916747,6.4241424142414,1684267.6766953,7538.2019754499,3001964.7183519,11.624142414241,0,0
86.695355145837,-11.00655004156,6.4285728572857,1684267.6766953,7538.2019754499,3001964.7183519,11.628572857286,0,0
86.695355300286,-11.008603166374,6.43300330033,1684267.6766953,7538.2019754499,3001964.7183519,11.63300330033,0,0
86.695355454735,-11.010656291188,6.4374337433743,1684267.6766953,7538.2019754499,3001964.7183519,11.637433743374,0,0
86.695355609183,-11.012709416001,6.4418641864186,1684267.6766953,7538.2019754499,3001964.7183519,11.641864186419,0,0
86.695355763632,-11.014762540815,6.4462946294629,1684267.6766953,7538.2019754499,3001964.7183519,11.646294629463,0,0
86.695355918081,-11.016815665628,6.4507250725072,1684267.6766953,7538.2019754499,3001964.7183519,11.650725072507,0,0
86.69535607253,-11.018868790442,6.4551555155516,1684267.6766953,7538.2019754499,3001964.7183519,11.655155515552,0,0
86.695356226979,-11.020921915255,6.4595859585959,1684267.6766953,7538.2019754499,3001964.7183519,11.659585958596,0,0
86.695356382003,-11.022975042616,6.4640164016402,1680014.6709696,-11867.931543179,2945698.9365426,11.66401640164,0,0
86.695356537611,-11.025028172553,6.4684468446845,1680014.6709696,-11867.931543179,2945698.9365426,11.668446844684,0,0
86.695356693218,-11.027081302491,6.4728772877288,1680014.6709696,-11867.931543179,2945698.9365426,11.672877287729,0,0
86.695356848825,-11.029134432428,6.4773077307731,1680014.6709696,-11867.931543179,2945698.9365426,11.677307730773,0,0
86.695357004432,-11.031187562366,6.4817381738174,1680014.6709696,-11867.931543179,2945698.9365426,11.681738173817,0,0
86.695357160039,-11.033240692303,6.4861686168617,1680014.6709696,-11867.931543179,2945698.9365426,11.686168616862,0,0
86.695357315647,-11.035293822241,6.490599059906,1680014.6709696,-11867.931543179,2945698.9365426,11.690599059906,0,0
86.695357471254,-11.037346952178,6.4950295029503,1680014.6709696,-11867.931543179,2945698.9365426,11.69502950295,0,0
86.695357626861,-11.039400082116,6.4994599459946,1680014.6709696,-11867.931543179,2945698.9365426,11.699459945995,0,0
86.695357782468,-11.041453212053,6.5038903890389,1680014.6709696,-11867.931543179,2945698.9365426,11.703890389039,0,0
86.695357938075,-11.043506341991,6.5083208320832,1680014.6709696,-11867.931543179,2945698.9365426,11.708320832083,0,0
86.695358093683,-11.045559471928,6.5127512751275,1680014.6709696,-11867.931543179,2945698.9365426,11.712751275128,0,0
86.69535824929,-11.047612601866,6.5171817181718,1680014.6709696,-11867.931543179,2945698.9365426,11.717181718172,0,0
86.695358404897,-11.049665731803,6.5216121612161,1680014.6709696,-11867.931543179,2945698.9365426,11.721612161216,0,0
86.695358560504,-11.051718861741,6.5260426042604,1680014.6709696,-11867.931543179,2945698.9365426,11.72604260426,0,0
86.695358716111,-11.053771991678,6.5304730473047,1680014.6709696,-11867.931543179,2945698.9365426,11.730473047305,0,0
86.695358871719,-11.055825121616,6.534903490349,1680014.6709696,-11867.931543179,2945698.9365426,11.734903490349,0,0
86.695359027326,-11.057878251553,6.5393339333933,1680014.6709696,-11867.931543179,2945698.9365426,11.739333933393,0,0
86.695359182933,-11.059931381491,6.5437643764376,1680014.6709696,-11867.931543179,2945698.9365426,11.743764376438,0,0
86.69535933854,-11.061984511428,6.5481948194819,1680014.6709696,-11867.931543179,2945698.9365426,11.748194819482,0,0
86.695359494147,-11.064037641366,6.5526252625263,1680014.6709696,-11867.931543179,2945698.9365426,11.752625262526,0,0
86.695359649755,-11.066090771303,6.5570557055706,1680014.6709696,-11867.931543179,2945698.9365426,11.757055705571,0,0
86.695359805362,-11.068143901241,6.5614861486149,1680014.6709696,-11867.931543179,2945698.9365426,11.761486148615,0,0
86.695359960969,-11.070197031178,6.5659165916592,1680014.6709696,-11867.931543179,2945698.9365426,11.765916591659,0,0
86.695360116576,-11.072250161116,6.5703470347035,1680014.6709696,-11867.931543179,2945698.9365425,11.770347034703,0,0
86.695360272183,-11.074303291053,6.5747774777478,1680014.6709696,-11867.931543179,2945698.9365425,11.774777477748,0,0
86.695360427791,-11.076356420991,6.5792079207921,1680014.6709696,-11867.931543179,2945698.9365426,11.779207920792,0,0
86.695360583398,-11.078409550928,6.5836383638364,1680014.6709696,-11867.931543179,2945698.9365426,11.783638363836,0,0
86.695360739005,-11.080462680866,6.5880688068807,1680014.6709696,-11867.931543179,2945698.9365426,11.788068806881,0,0
86.695360894612,-11.082515810803,6.592499249925,1680014.6709696,-11867.931543179,2945698.9365425,11.792499249925,0,0
86.695361050219,-11.084568940741,6.5969296929693,1680014.6709696,-11867.931543179,2945698.9365425,11.796929692969,0,0
86.695361205827,-11.086622070678,6.6013601360136,1680014.6709696,-11867.931543179,2945698.9365425,11.801360136014,0,0
86.695361361434,-11.088675200616,6.6057905790579,1680014.6709696,-11867.931543179,2945698.9365425,11.805790579058,0,0
86.695361517041,-11.090728330553,6.6102210221022,1680014.6709696,-11867.931543179,2945698.9365426,11.810221022102,0,0
86.695361672648,-11.092781460491,6.6146514651465,1680014.6709696,-11867.931543179,2945698.9365425,11.814651465147,0,0
86.695361828255,-11.094834590428,6.6190819081908,1680014.6709696,-11867.931543179,2945698.9365425,11.819081908191,0,0
86.695361983863,-11.096887720366,6.6235123512351,1680014.6709696,-11867.931543179,2945698.9365425,11.823512351235,0,0
86.69536213947,-11.098940850303,6.6279427942794,1680014.6709696,-11867.931543179,2945698.9365425,11.827942794279,0,0
86.695362295077,-11.100993980241,6.6323732373237,1680014.6709696,-11867.931543179,2945698.9365425,11.832373237324,0,0
86.695362450684,-11.103047110178,6.636803680368,1680014.6709696,-11867.931543179,2945698.9365425,11.836803680368,0,0
86.695362606291,-11.105100240116,6.6412341234123,1680014.6709696,-11867.931543179,2945698.9365425,11.841234123412,0,0
86.695362761899,-11.107153370053,6.6456645664566,1680014.6709696,-11867.931543179,2945698.9365425,11.845664566457,0,0
86.695362917506,-11.109206499991,6.650095009501,1680014.6709696,-11867.931543179,2945698.9365425,11.850095009501,0,0
86.695363073113,-11.111259629928,6.6545254525453,1680014.6709696,-11867.931543179,2945698.9365425,11.854525452545,0,0
86.69536322872,-11.113312759866,6.6589558955896,1680014.6709696,-11867.931543179,2945698.9365425,11.85895589559,0,0
86.695363384327,-11.115365889803,6.6633863386339,1680014.6709696,-11867.931543179,2945698.9365425,11.863386338634,0,0
86.695363539935,-11.117419019741,6.6678167816782,1680014.6709696,-11867.931543179,2945698.9365425,11.867816781678,0,0
86.695363695542,-11.119472149678,6.6722472247225,1680014.6709696,-11867.931543179,2945698.9365425,11.872247224722,0,0
86.695363851149,-11.121525279616,6.6766776677668,1680014.6709696,-11867.931543179,2945698.9365425,11.876677667767,0,0
86.695364006756,-11.123578409553,6.6811081108111,1680014.6709696,-11867.931543179,2945698.9365425,11.881108110811,0,0
86.695364162363,-11.125631539491,6.6855385538554,1680014.6709696,-11867.931543179,2945698.9365425,11.885538553855,0,0
86.695364317971,-11.127684669428,6.6899689968997,1680014.6709696,-11867.931543179,2945698.9365425,11.8899689969,0,0
86.695364473578,-11.129737799366,6.694399439944,1680014.6709696,-11867.931543179,2945698.9365425,11.894399439944,0,0
86.695364629185,-11.131790929303,6.6988298829883,1680014.6709696,-11867.931543179,2945698.9365425,11.898829882988,0,0
86.695364784792,-11.133844059241,6.7032603260326,1680014.6709696,-11867.931543179,2945698.9365425,11.903260326033,0,0
86.695364940399,-11.135897189178,6.7076907690769,1680014.6709696,-11867.931543179,2945698.9365425,11.907690769077,0,0
86.695365096007,-11.137950319116,6.7121212121212,1680014.6709696,-11867.931543179,2945698.9365425,11.912121212121,0,0
86.695365251614,-11.140003449053,6.7165516551655,1680014.6709696,-11867.931543179,2945698.9365425,11.916551655166,0,0
86.695365407221,-11.142056578991,6.7209820982098,1680014.6709696,-11867.931543179,2945698.9365425,11.92098209821,0,0
86.695365562828,-11.144109708928,6.7254125412541,1680014.6709696,-11867.931543179,2945698.9365425,11.925412541254,0,0
86.695365718435,-11.146162838866,6.7298429842984,1680014.6709696,-11867.931543179,2945698.9365425,11.929842984298,0,0
86.6953658752,-11.148215967162,6.7342734273427,1710875.993177,1105.1444022313,2937424.3961709,11.934273427343,0,0
86.695366033492,-11.150269093291,6.738703870387,1710875.993177,1105.1444022313,2937424.3961709,11.938703870387,0,0
86.695366191785,-11.15232221942,6.7431343134313,1710875.993177,1105.1444022313,2937424.3961709,11.943134313431,0,0
86.695366350077,-11.154375345549,6.7475647564756,1710875.993177,1105.1444022313,2937424.3961709,11.947564756476,0,0
86.69536650837,-11.156428471678,6.75199519952,1710875.993177,1105.1444022313,2937424.3961709,11.95199519952,0,0
86.695366666662,-11.158481597806,6.7564256425643,1710875.993177,1105.1444022313,2937424.3961709,11.956425642564,0,0
86.695366824955,-11.160534723935,6.7608560856086,1710875.993177,1105.1444022313,2937424.3961709,11.960856085609,0,0
86.695366983248,-11.162587850064,6.7652865286529,1710875.993177,1105.1444022313,2937424.3961709,11.965286528653,0,0
86.69536714154,-11.164640976193,6.7697169716972,1710875.993177,1105.1444022313,2937424.3961709,11.969716971697,0,0
86.695367299833,-11.166694102322,6.7741474147415,1710875.993177,1105.1444022313,2937424.3961709,11.974147414741,0,0
86.695367458125,-11.168747228451,6.7785778577858,1710875.993177,1105.1444022313,2937424.3961709,11.978577857786,0,0
86.695367616418,-11.17080035458,6.7830083008301,1710875.993177,1105.1444022313,2937424.3961709,11.98300830083,0,0
86.695367774711,-11.172853480708,6.7874387438744,1710875.993177,1105.1444022313,2937424.3961709,11.987438743874,0,0
86.695367933003,-11.174906606837,6.7918691869187,1710875.993177,1105.1444022313,2937424.3961709,11.991869186919,0,0
86.695368091296,-11.176959732966,6.796299629963,1710875.993177,1105.1444022313,2937424.3961709,11.996299629963,0,0
86.695368249588,-11.179012859095,6.8007300730073,1710875.993177,1105.1444022313,2937424.3961709,12.000730073007,0,0
86.695368407881,-11.181065985224,6.8051605160516,1710875.993177,1105.1444022313,2937424.3961709,12.005160516052,0,0
86.695368566173,-11.183119111353,6.8095909590959,1710875.993177,1105.1444022313,2937424.3961709,12.009590959096,0,0
86.695368724466,-11.185172237481,6.8140214021402,1710875.993177,1105.1444022313,2937424.3961709,12.01402140214,0,0
86.695368882759,-11.18722536361,6.8184518451845,1710875.993177,1105.1444022313,2937424.3961709,12.018451845185,0,0
86.695369041051,-11.189278489739,6.8228822882288,1710875.993177,1105.1444022313,2937424.3961709,12.022882288229,0,0
86.695369199344,-11.191331615868,6.8273127312731,1710875.993177,1105.1444022313,2937424.3961709,12.027312731273,0,0
86.695369357636,-11.193384741997,6.8317431743174,1710875.993177,1105.1444022313,2937424.3961709,12.031743174317,0,0
86.695369515929,-11.195437868126,6.8361736173617,1710875.993177,1105.1444022313,2937424.3961709,12.036173617362,0,0
86.695369674222,-11.197490994255,6.840604060406,1710875.993177,1105.1444022313,2937424.3961709,12.040604060406,0,0
86.695369832514,-11.199544120383,6.8450345034503,1710875.993177,1105.1444022313,2937424.3961709,12.04503450345,0,0
86.695369990807,-11.201597246512,6.8494649464946,1710875.993177,1105.1444022313,2937424.3961709,12.049464946495,0,0
86.695370149099,-11.203650372641,6.853895389539,1710875.993177,1105.1444022313,2937424.3961709,12.053895389539,0,0
86.695370307392,-11.20570349877,6.8583258325833,1710875.993177,1105.1444022313,2937424.3961709,12.058325832583,0,0
86.695370465684,-11.207756624899,6.8627562756276,1710875.993177,1105.1444022313,2937424.3961709,12.062756275628,0,0
86.695370623977,-11.209809751028,6.8671867186719,1710875.993177,1105.1444022313,2937424.3961709,12.067186718672,0,0
86.69537078227,-11.211862877156,6.8716171617162,1710875.993177,1105.1444022313,2937424.3961709,12.071617161716,0,0
86.695370940562,-11.213916003285,6.8760476047605,1710875.993177,1105.1444022313,2937424.3961709,12.07604760476,0,0
86.695371098855,-11.215969129414,6.8804780478048,1710875.993177,1105.1444022313,2937424.3961709,12.080478047805,0,0
86.695371257147,-11.218022255543,6.8849084908491,1710875.993177,1105.1444022313,2937424.3961709,12.084908490849,0,0
86.69537141544,-11.220075381672,6.8893389338934,1710875.993177,1105.1444022313,2937424.3961709,12.089338933893,0,0
86.695371573733,-11.222128507801,6.8937693769377,1710875.993177,1105.1444022313,2937424.3961709,12.093769376938,0,0
86.695371732025,-11.22418163393,6.898199819982,1710875.993177,1105.1444022313,2937424.3961709,12.098199819982,0,0
86.695371890318,-11.226234760058,6.9026302630263,1710875.993177,1105.1444022313,2937424.3961709,12.102630263026,0,0
86.69537204861,-11.228287886187,6.9070607060706,1710875.993177,1105.1444022313,2937424.3961709,12.107060706071,0,0
86.695372206903,-11.230341012316,6.9114911491149,1710875.993177,1105.1444022313,2937424.3961709,12.111491149115,0,0
86.695372365195,-11.232394138445,6.9159215921592,1710875.993177,1105.1444022313,2937424.3961709,12.115921592159,0,0
86.695372523488,-11.234447264574,6.9203520352035,1710875.993177,1105.1444022313,2937424.3961709,12.120352035204,0,0
86.695372681781,-11.236500390703,6.9247824782478,1710875.993177,1105.1444022313,2937424.3961709,12.124782478248,0,0
86.695372840073,-11.238553516831,6.9292129212921,1710875.993177,1105.1444022313,2937424.3961709,12.129212921292,0,0
86.695372998366,-11.24060664296,6.9336433643364,1710875.993177,1105.1444022313,2937424.3961709,12.133643364336,0,0
86.695373156658,-11.242659769089,6.9380738073807,1710875.993177,1105.1444022313,2937424.3961709,12.138073807381,0,0
86.695373314951,-11.244712895218,6.942504250425,1710875.993177,1105.1444022313,2937424.3961709,12.142504250425,0,0
86.695373473244,-11.246766021347,6.9469346934693,1710875.993177,1105.1444022313,2937424.3961709,12.146934693469,0,0
86.695373631536,-11.248819147476,6.9513651365137,1710875.993177,1105.1444022313,2937424.3961709,12.151365136514,0,0
86.695373789829,-11.250872273605,6.955795579558,1710875.993177,1105.1444022313,2937424.3961709,12.155795579558,0,0
86.695373948121,-11.252925399733,6.9602260226023,1710875.993177,1105.1444022313,2937424.3961709,12.160226022602,0,0
86.695374106414,-11.254978525862,6.9646564656466,1710875.993177,1105.1444022313,2937424.3961709,12.164656465647,0,0
86.695374264706,-11.257031651991,6.9690869086909,1710875.993177,1105.1444022313,2937424.3961709,12.169086908691,0,0
86.695374422999,-11.25908477812,6.9735173517352,1710875.993177,1105.1444022313,2937424.3961709,12.173517351735,0,0
86.695374581292,-11.261137904249,6.9779477947795,1710875.993177,1105.1444022313,2937424.3961709,12.177947794779,0,0
86.695374739584,-11.263191030378,6.9823782378238,1710875.993177,1105.1444022313,2937424.3961709,12.182378237824,0,0
86.695374897877,-11.265244156507,6.9868086808681,1710875.993177,1105.1444022313,2937424.3961709,12.186808680868,0,0
86.695375056169,-11.267297282635,6.9912391239124,1710875.993177,1105.1444022313,2937424.3961709,12.191239123912,0,0
86.695375214462,-11.269350408764,6.9956695669567,1710875.993177,1105.1444022313,2937424.3961709,12.195669566957,0,0
86.695375372755,-11.271403534893,7.000100010001,1710875.993177,1105.1444022313,2937424.3961709,12.200100010001,0,0
86.695375531047,-11.273456661022,7.0045304530453,1710875.993177,1105.1444022313,2937424.3961709,12.204530453045,0,0
86.69537568934,-11.275509787151,7.0089608960896,1710875.993177,1105.1444022313,2937424.3961709,12.20896089609,0,0
86.695375847632,-11.27756291328,7.0133913391339,1710875.993177,1105.1444022313,2937424.3961709,12.213391339134,0,0
86.695376005925,-11.279616039408,7.0178217821782,1710875.993177,1105.1444022313,2937424.3961709,12.217821782178,0,0
86.695376164217,-11.281669165537,7.0222522252225,1710875.993177,1105.1444022313,2937424.3961709,12.222252225223,0,0
86.69537632251,-11.283722291666,7.0266826682668,1710875.993177,1105.1444022313,2937424.3961709,12.226682668267,0,0
86.695376480803,-11.285775417795,7.0311131113111,1710875.993177,1105.1444022313,2937424.3961709,12.231113111311,0,0
86.695376639095,-11.287828543924,7.0355435543554,1710875.993177,1105.1444022313,2937424.3961709,12.235543554355,0,0
86.695376797388,-11.289881670053,7.0399739973997,1710875.993177,1105.1444022313,2937424.3961709,12.2399739974,0,0
86.69537695568,-11.291934796182,7.044404440444,1710875.993177,1105.1444022313,2937424.3961709,12.244404440444,0,0
86.695377113973,-11.29398792231,7.0488348834883,1710875.993177,1105.1444022313,2937424.3961709,12.248834883488,0,0
86.695377272266,-11.296041048439,7.0532653265327,1710875.993177,1105.1444022313,2937424.3961709,12.253265326533,0,0
86.695377430558,-11.298094174568,7.057695769577,1710875.993177,1105.1444022313,2937424.3961709,12.257695769577,0,0
86.695377588851,-11.300147300697,7.0621262126213,1710875.993177,1105.1444022313,2937424.3961709,12.262126212621,0,0
86.695377747143,-11.302200426826,7.0665566556656,1710875.993177,1105.1444022313,2937424.3961709,12.266556655666,0,0
86.695377905436,-11.304253552955,7.0709870987099,1710875.993177,1105.1444022313,2937424.3961709,12.27098709871,0,0
86.695378063728,-11.306306679083,7.0754175417542,1710875.993177,1105.1444022313,2937424.3961709,12.275417541754,0,0
86.695378222021,-11.308359805212,7.0798479847985,1710875.993177,1105.1444022313,2937424.3961709,12.279847984798,0,0
86.695378380314,-11.310412931341,7.0842784278428,1710875.993177,1105.1444022313,2937424.3961709,12.284278427843,0,0
86.695378538606,-11.31246605747,7.0887088708871,1710875.993177,1105.1444022313,2937424.3961709,12.288708870887,0,0
86.695378696899,-11.314519183599,7.0931393139314,1710875.993177,1105.1444022313,2937424.3961709,12.293139313931,0,0
86.695378855191,-11.316572309728,7.0975697569757,1710875.993177,1105.1444022313,2937424.3961709,12.297569756976,0,0
86.695379013484,-11.318625435857,7.10200020002,1710875.993177,1105.1444022313,2937424.3961709,12.30200020002,0,0
86.695379171777,-11.320678561985,7.1064306430643,1710875.993177,1105.1444022313,2937424.3961709,12.306430643064,0,0
86.695379330069,-11.322731688114,7.1108610861086,1710875.993177,1105.1444022313,2937424.3961709,12.310861086109,0,0
86.695379488362,-11.324784814243,7.1152915291529,1710875.993177,1105.1444022313,2937424.3961709,12.315291529153,0,0
86.695379646654,-11.326837940372,7.1197219721972,1710875.993177,1105.1444022313,2937424.3961709,12.319721972197,0,0
86.695379804947,-11.328891066501,7.1241524152415,1710875.993177,1105.1444022313,2937424.3961709,12.324152415242,0,0
86.695379963239,-11.33094419263,7.1285828582858,1710875.993177,1105.1444022313,2937424.3961709,12.328582858286,0,0
86.695380121532,-11.332997318758,7.1330133013301,1710875.993177,1105.1444022313,2937424.3961709,12.33301330133,0,0
86.695380279825,-11.335050444887,7.1374437443744,1710875.993177,1105.1444022313,2937424.3961709,12.337443744374,0,0
86.695380438117,-11.337103571016,7.1418741874187,1710875.993177,1105.1444022313,2937424.3961709,12.341874187419,0,0
86.69538059641,-11.339156697145,7.146304630463,1710875.993177,1105.1444022313,2937424.3961709,12.346304630463,0,0
86.695380754702,-11.341209823274,7.1507350735073,1710875.993177,1105.1444022313,2937424.3961709,12.350735073507,0,0
86.695380912995,-11.343262949403,7.1551655165517,1710875.993177,1105.1444022313,2937424.3961709,12.355165516552,0,0
86.695381071288,-11.345316075532,7.159595959596,1710875.993177,1105.1444022313,2937424.3961709,12.359595959596,0,0
86.69538122958,-11.34736920166,7.1640264026403,1710875.993177,1105.1444022313,2937424.3961709,12.36402640264,0,0
86.695381387873,-11.349422327789,7.1684568456846,1710875.993177,1105.1444022313,2937424.3961709,12.368456845685,0,0
86.695381546165,-11.351475453918,7.1728872887289,1710875.993177,1105.1444022313,2937424.3961709,12.372887288729,0,0
86.695381704458,-11.353528580047,7.1773177317732,1710875.993177,1105.1444022313,2937424.3961709,12.377317731773,0,0
86.69538186275,-11.355581706176,7.1817481748175,1710875.993177,1105.1444022313,2937424.3961709,12.381748174817,0,0
86.695382021043,-11.357634832305,7.1861786178618,1710875.993177,1105.1444022313,2937424.3961709,12.386178617862,0,0
86.695382179336,-11.359687958433,7.1906090609061,1710875.993177,1105.1444022313,2937424.3961709,12.390609060906,0,0
86.695382337628,-11.361741084562,7.1950395039504,1710875.993177,1105.1444022313,2937424.3961709,12.39503950395,0,0
86.695382495921,-11.363794210691,7.1994699469947,1710875.993177,1105.1444022313,2937424.3961709,12.399469946995,0,0
86.695382654213,-11.36584733682,7.203900390039,1710875.993177,1105.1444022313,2937424.3961709,12.403900390039,0,0
86.695382812506,-11.367900462949,7.2083308330833,1710875.993177,1105.1444022313,2937424.3961709,12.408330833083,0,0
86.695382970799,-11.369953589078,7.2127612761276,1710875.993177,1105.1444022313,2937424.3961709,12.412761276128,0,0
86.695383129091,-11.372006715207,7.2171917191719,1710875.993177,1105.1444022313,2937424.3961709,12.417191719172,0,0
86.695383287384,-11.374059841335,7.2216221622162,1710875.993177,1105.1444022313,2937424.3961709,12.421622162216,0,0
86.695383445676,-11.376112967464,7.2260526052605,1710875.993177,1105.1444022313,2937424.3961709,12.426052605261,0,0
86.695383603969,-11.378166093593,7.2304830483048,1710875.993177,1105.1444022313,2937424.3961709,12.430483048305,0,0
86.695383762261,-11.380219219722,7.2349134913491,1710875.993177,1105.1444022313,2937424.3961709,12.434913491349,0,0
86.695383920554,-11.382272345851,7.2393439343934,1710875.993177,1105.1444022313,2937424.3961709,12.439343934393,0,0
86.695384078847,-11.38432547198,7.2437743774377,1710875.993177,1105.1444022313,2937424.3961709,12.443774377438,0,0
86.695384237139,-11.386378598108,7.248204820482,1710875.993177,1105.1444022313,2937424.3961709,12.448204820482,0,0
86.695384395432,-11.388431724237,7.2526352635264,1710875.993177,1105.1444022313,2937424.3961709,12.452635263526,0,0
86.695384553724,-11.390484850366,7.2570657065707,1710875.993177,1105.1444022313,2937424.3961709,12.457065706571,0,0
86.695384712017,-11.392537976495,7.261496149615,1710875.993177,1105.1444022313,2937424.3961709,12.461496149615,0,0
86.69538487031,-11.394591102624,7.2659265926593,1710875.993177,1105.1444022313,2937424.3961709,12.465926592659,0,0
86.695385028602,-11.396644228753,7.2703570357036,1710875.993177,1105.1444022313,2937424.3961709,12.470357035704,0,0
86.695385186895,-11.398697354882,7.2747874787479,1710875.993177,1105.1444022313,2937424.3961709,12.474787478748,0,0
86.695385345187,-11.40075048101,7.2792179217922,1710875.993177,1105.1444022313,2937424.3961709,12.479217921792,0,0
86.69538550348,-11.402803607139,7.2836483648365,1710875.993177,1105.1444022313,2937424.3961709,12.483648364836,0,0
86.695385661772,-11.404856733268,7.2880788078808,1710875.993177,1105.1444022313,2937424.3961709,12.488078807881,0,0
86.695385820065,-11.406909859397,7.2925092509251,1710875.993177,1105.1444022313,2937424.3961709,12.492509250925,0,0
86.695385978358,-11.408962985526,7.2969396939694,1710875.993177,1105.1444022313,2937424.3961709,12.496939693969,0,0
86.69538613665,-11.411016111655,7.3013701370137,1710875.993177,1105.1444022313,2937424.3961709,12.501370137014,0,0
86.695386294943,-11.413069237784,7.305800580058,1710875.993177,1105.1444022313,2937424.3961709,12.505800580058,0,0
86.695386453235,-11.415122363912,7.3102310231023,1710875.993177,1105.1444022313,2937424.3961709,12.510231023102,0,0
86.695386611528,-11.417175490041,7.3146614661466,1710875.993177,1105.1444022313,2937424.3961709,12.514661466147,0,0
86.695386769821,-11.41922861617,7.3190919091909,1710875.993177,1105.1444022313,2937424.3961709,12.519091909191,0,0
86.695386928113,-11.421281742299,7.3235223522352,1710875.993177,1105.1444022313,2937424.3961709,12.523522352235,0,0
86.695387086406,-11.423334868428,7.3279527952795,1710875.993177,1105.1444022313,2937424.3961709,12.52795279528,0,0
86.695387244698,-11.425387994557,7.3323832383238,1710875.993177,1105.1444022313,2937424.3961709,12.532383238324,0,0
86.695387402991,-11.427441120685,7.3368136813681,1710875.993177,1105.1444022313,2937424.3961709,12.536813681368,0,0
86.695387561283,-11.429494246814,7.3412441244124,1710875.993177,1105.1444022313,2937424.3961709,12.541244124412,0,0
86.695387719576,-11.431547372943,7.3456745674567,1710875.993177,1105.1444022313,2937424.3961709,12.545674567457,0,0
86.695387877869,-11.433600499072,7.350105010501,1710875.993177,1105.1444022313,2937424.3961709,12.550105010501,0,0
86.695388036161,-11.435653625201,7.3545354535454,1710875.993177,1105.1444022313,2937424.3961709,12.554535453545,0,0
86.695388194454,-11.43770675133,7.3589658965897,1710875.993177,1105.1444022313,2937424.3961709,12.55896589659,0,0
86.695388352746,-11.439759877459,7.363396339634,1710875.993177,1105.1444022313,2937424.3961709,12.563396339634,0,0
86.695388511039,-11.441813003587,7.3678267826783,1710875.993177,1105.1444022313,2937424.3961709,12.567826782678,0,0
86.695388669332,-11.443866129716,7.3722572257226,1710875.993177,1105.1444022313,2937424.3961709,12.572257225723,0,0
86.695388827624,-11.445919255845,7.3766876687669,1710875.993177,1105.1444022313,2937424.3961709,12.576687668767,0,0
86.695388985917,-11.447972381974,7.3811181118112,1710875.993177,1105.1444022313,2937424.3961709,12.581118111811,0,0
86.695389144209,-11.450025508103,7.3855485548555,1710875.993177,1105.1444022313,2937424.3961709,12.585548554855,0,0
86.695389302502,-11.452078634232,7.3899789978998,1710875.993177,1105.1444022313,2937424.3961709,12.5899789979,0,0
86.695389460794,-11.45413176036,7.3944094409441,1710875.993177,1105.1444022313,2937424.3961709,12.594409440944,0,0
86.695389619972,-11.456184889824,7.3988398839884,1709838.960532,-14562.350658736,2891380.0113952,12.598839883988,0,0
86.695389779408,-11.458238020259,7.4032703270327,1709838.960532,-14562.350658736,2891380.0113952,12.603270327033,0,0
86.695389938844,-11.460291150694,7.407700770077,1709838.960532,-14562.350658736,2891380.0113952,12.607700770077,0,0
86.695390098279,-11.462344281129,7.4121312131213,1709838.960532,-14562.350658736,2891380.0113952,12.612131213121,0,0
86.695390257715,-11.464397411564,7.4165616561656,1709838.960532,-14562.350658736,2891380.0113952,12.616561656166,0,0
86.695390417151,-11.466450541999,7.4209920992099,1709838.960532,-14562.350658736,2891380.0113952,12.62099209921,0,0
86.695390576586,-11.468503672434,7.4254225422542,1709838.960532,-14562.350658736,2891380.0113952,12.625422542254,0,0
86.695390736022,-11.470556802869,7.4298529852985,1709838.960532,-14562.350658736,2891380.0113952,12.629852985299,0,0
86.695390895458,-11.472609933304,7.4342834283428,1709838.960532,-14562.350658736,2891380.0113952,12.634283428343,0,0
86.695391054894,-11.474663063739,7.4387138713871,1709838.960532,-14562.350658736,2891380.0113952,12.638713871387,0,0
86.695391214329,-11.476716194174,7.4431443144314,1709838.960532,-14562.350658736,2891380.0113952,12.643144314431,0,0
86.695391373765,-11.478769324609,7.4475747574757,1709838.960532,-14562.350658736,2891380.0113952,12.647574757476,0,0
86.695391533201,-11.480822455045,7.4520052005201,1709838.960532,-14562.350658736,2891380.0113952,12.65200520052,0,0
86.695391692636,-11.48287558548,7.4564356435644,1709838.960532,-14562.350658736,2891380.0113952,12.656435643564,0,0
86.695391852072,-11.484928715915,7.4608660866087,1709838.960532,-14562.350658736,2891380.0113952,12.660866086609,0,0
86.695392011508,-11.48698184635,7.465296529653,1709838.960532,-14562.350658736,2891380.0113952,12.665296529653,0,0
86.695392170943,-11.489034976785,7.4697269726973,1709838.960532,-14562.350658736,2891380.0113952,12.669726972697,0,0
86.695392330379,-11.49108810722,7.4741574157416,1709838.960532,-14562.350658736,2891380.0113952,12.674157415742,0,0
86.695392489815,-11.493141237655,7.4785878587859,1709838.960532,-14562.350658736,2891380.0113952,12.678587858786,0,0
86.69539264925,-11.49519436809,7.4830183018302,1709838.960532,-14562.350658736,2891380.0113952,12.68301830183,0,0
86.695392808686,-11.497247498525,7.4874487448745,1709838.960532,-14562.350658736,2891380.0113952,12.687448744874,0,0
86.695392968122,-11.49930062896,7.4918791879188,1709838.960532,-14562.350658736,2891380.0113952,12.691879187919,0,0
86.695393127558,-11.501353759395,7.4963096309631,1709838.960532,-14562.350658736,2891380.0113952,12.696309630963,0,0
86.695393286993,-11.50340688983,7.5007400740074,1709838.960532,-14562.350658736,2891380.0113952,12.700740074007,0,0
86.695393447134,-11.505460019096,7.5051705170517,1733561.2233848,-1907.1626877577,2875490.0690541,12.705170517052,0,0
86.695393608888,-11.507513145689,7.509600960096,1733561.2233848,-1907.1626877577,2875490.0690541,12.709600960096,0,0
86.695393770641,-11.509566272282,7.5140314031403,1733561.2233848,-1907.1626877577,2875490.0690541,12.71403140314,0,0
86.695393932395,-11.511619398874,7.5184618461846,1733561.2233848,-1907.1626877577,2875490.0690541,12.718461846185,0,0
86.695394094148,-11.513672525467,7.5228922892289,1733561.2233848,-1907.1626877577,2875490.0690541,12.722892289229,0,0
86.695394255902,-11.51572565206,7.5273227322732,1733561.2233848,-1907.1626877577,2875490.0690541,12.727322732273,0,0
86.695394417656,-11.517778778653,7.5317531753175,1733561.2233848,-1907.1626877577,2875490.0690541,12.731753175318,0,0
86.695394579409,-11.519831905245,7.5361836183618,1733561.2233848,-1907.1626877577,2875490.0690541,12.736183618362,0,0
86.695394741163,-11.521885031838,7.5406140614061,1733561.2233848,-1907.1626877577,2875490.0690541,12.740614061406,0,0
86.695394902916,-11.523938158431,7.5450445044504,1733561.2233848,-1907.1626877577,2875490.0690541,12.74504450445,0,0
86.69539506467,-11.525991285024,7.5494749474947,1733561.2233848,-1907.1626877577,2875490.0690541,12.749474947495,0,0
86.695395226424,-11.528044411616,7.5539053905391,1733561.2233848,-1907.1626877577,2875490.0690541,12.753905390539,0,0
86.695395388177,-11.530097538209,7.5583358335834,1733561.2233848,-1907.1626877577,2875490.0690541,12.758335833583,0,0
86.695395549931,-11.532150664802,7.5627662766277,1733561.2233848,-1907.1626877577,2875490.0690541,12.762766276628,0,0
86.695395711684,-11.534203791395,7.567196719672,1733561.2233848,-1907.1626877577,2875490.0690541,12.767196719672,0,0
86.695395873438,-11.536256917987,7.5716271627163,1733561.2233848,-1907.1626877577,2875490.0690541,12.771627162716,0,0
86.695396035192,-11.53831004458,7.5760576057606,1733561.2233848,-1907.1626877577,2875490.0690541,12.776057605761,0,0
86.695396196945,-11.540363171173,7.5804880488049,1733561.2233848,-1907.1626877577,2875490.0690541,12.780488048805,0,0
86.695396358699,-11.542416297766,7.5849184918492,1733561.2233848,-1907.1626877577,2875490.0690541,12.784918491849,0,0
86.695396520452,-11.544469424358,7.5893489348935,1733561.2233848,-1907.1626877577,2875490.0690541,12.789348934893,0,0
86.695396682206,-11.546522550951,7.5937793779378,1733561.2233848,-1907.1626877577,2875490.0690541,12.793779377938,0,0
86.69539684396,-11.548575677544,7.5982098209821,1733561.2233848,-1907.1626877577,2875490.0690541,12.798209820982,0,0
86.695397005713,-11.550628804137,7.6026402640264,1733561.2233848,-1907.1626877577,2875490.0690541,12.802640264026,0,0
86.695397167467,-11.552681930729,7.6070707070707,1733561.2233848,-1907.1626877577,2875490.0690541,12.807070707071,0,0
86.69539732922,-11.554735057322,7.611501150115,1733561.2233848,-1907.1626877577,2875490.0690541,12.811501150115,0,0
86.695397490974,-11.556788183915,7.6159315931593,1733561.2233848,-1907.1626877577,2875490.0690541,12.815931593159,0,0
86.695397652728,-11.558841310508,7.6203620362036,1733561.2233848,-1907.1626877577,2875490.0690541,12.820362036204,0,0
86.695397814481,-11.5608944371,7.6247924792479,1733561.2233848,-1907.1626877577,2875490.0690541,12.824792479248,0,0
86.695397976235,-11.562947563693,7.6292229222922,1733561.2233848,-1907.1626877577,2875490.0690541,12.829222922292,0,0
86.695398137989,-11.565000690286,7.6336533653365,1733561.2233848,-1907.1626877577,2875490.0690541,12.833653365337,0,0
86.695398299742,-11.567053816879,7.6380838083808,1733561.2233848,-1907.1626877577,2875490.0690541,12.838083808381,0,0
86.695398461496,-11.569106943471,7.6425142514251,1733561.2233848,-1907.1626877577,2875490.0690541,12.842514251425,0,0
86.695398623249,-11.571160070064,7.6469446944694,1733561.2233848,-1907.1626877577,2875490.0690541,12.846944694469,0,0
86.695398785003,-11.573213196657,7.6513751375138,1733561.2233848,-1907.1626877577,2875490.0690541,12.851375137514,0,0
86.695398946757,-11.57526632325,7.6558055805581,1733561.2233848,-1907.1626877577,2875490.0690541,12.855805580558,0,0
86.69539910851,-11.577319449842,7.6602360236024,1733561.2233848,-1907.1626877577,2875490.0690541,12.860236023602,0,0
86.695399270264,-11.579372576435,7.6646664666467,1733561.2233848,-1907.1626877577,2875490.0690541,12.864666466647,0,0
86.695399432017,-11.581425703028,7.669096909691,1733561.2233848,-1907.1626877577,2875490.0690541,12.869096909691,0,0
86.695399593771,-11.583478829621,7.6735273527353,1733561.2233848,-1907.1626877577,2875490.0690541,12.873527352735,0,0
86.695399755525,-11.585531956213,7.6779577957796,1733561.2233848,-1907.1626877577,2875490.0690541,12.87795779578,0,0
86.695399917278,-11.587585082806,7.6823882388239,1733561.2233848,-1907.1626877577,2875490.0690541,12.882388238824,0,0
86.695400079032,-11.589638209399,7.6868186818682,1733561.2233848,-1907.1626877577,2875490.0690541,12.886818681868,0,0
86.695400240785,-11.591691335992,7.6912491249125,1733561.2233848,-1907.1626877577,2875490.0690541,12.891249124912,0,0
86.695400402539,-11.593744462584,7.6956795679568,1733561.2233848,-1907.1626877577,2875490.0690541,12.895679567957,0,0
86.695400564293,-11.595797589177,7.7001100110011,1733561.2233848,-1907.1626877577,2875490.0690541,12.900110011001,0,0
86.695400726046,-11.59785071577,7.7045404540454,1733561.2233848,-1907.1626877577,2875490.0690541,12.904540454045,0,0
86.6954008878,-11.599903842363,7.7089708970897,1733561.2233848,-1907.1626877577,2875490.0690541,12.90897089709,0,0
86.695401049553,-11.601956968955,7.713401340134,1733561.2233848,-1907.1626877577,2875490.0690541,12.913401340134,0,0
86.695401211307,-11.604010095548,7.7178317831783,1733561.2233848,-1907.1626877577,2875490.0690541,12.917831783178,0,0
86.695401373061,-11.606063222141,7.7222622262226,1733561.2233848,-1907.1626877577,2875490.0690541,12.922262226223,0,0
86.695401534814,-11.608116348734,7.7266926692669,1733561.2233848,-1907.1626877577,2875490.0690541,12.926692669267,0,0
86.695401696568,-11.610169475326,7.7311231123112,1733561.2233848,-1907.1626877577,2875490.0690541,12.931123112311,0,0
86.695401858321,-11.612222601919,7.7355535553555,1733561.2233848,-1907.1626877577,2875490.0690541,12.935553555356,0,0
86.695402020075,-11.614275728512,7.7399839983998,1733561.2233848,-1907.1626877577,2875490.0690541,12.9399839984,0,0
86.695402181829,-11.616328855105,7.7444144414441,1733561.2233848,-1907.1626877577,2875490.0690541,12.944414441444,0,0
86.695402343582,-11.618381981697,7.7488448844884,1733561.2233848,-1907.1626877577,2875490.0690541,12.948844884488,0,0
86.695402505336,-11.62043510829,7.7532753275328,1733561.2233848,-1907.1626877577,2875490.0690541,12.953275327533,0,0
86.695402667089,-11.622488234883,7.7577057705771,1733561.2233848,-1907.1626877577,2875490.0690541,12.957705770577,0,0
86.695402828843,-11.624541361476,7.7621362136214,1733561.2233848,-1907.1626877577,2875490.0690541,12.962136213621,0,0
86.695402990597,-11.626594488068,7.7665666566657,1733561.2233848,-1907.1626877577,2875490.0690541,12.966566656666,0,0
86.69540315235,-11.628647614661,7.77099709971,1733561.2233848,-1907.1626877577,2875490.0690541,12.97099709971,0,0
86.695403314104,-11.630700741254,7.7754275427543,1733561.2233848,-1907.1626877577,2875490.0690541,12.975427542754,0,0
86.695403475857,-11.632753867847,7.7798579857986,1733561.2233848,-1907.1626877577,2875490.0690541,12.979857985799,0,0
86.695403637611,-11.634806994439,7.7842884288429,1733561.2233848,-1907.1626877577,2875490.0690541,12.984288428843,0,0
86.695403799365,-11.636860121032,7.7887188718872,1733561.2233848,-1907.1626877577,2875490.0690541,12.988718871887,0,0
86.695403961118,-11.638913247625,7.7931493149315,1733561.2233848,-1907.1626877577,2875490.0690541,12.993149314931,0,0
86.695404122872,-11.640966374218,7.7975797579758,1733561.2233848,-1907.1626877577,2875490.0690541,12.997579757976,0,0
86.695404284625,-11.64301950081,7.8020102010201,1733561.2233848,-1907.1626877577,2875490.0690541,13.00201020102,0,0
86.695404446379,-11.645072627403,7.8064406440644,1733561.2233848,-1907.1626877577,2875490.0690541,13.006440644064,0,0
86.695404608133,-11.647125753996,7.8108710871087,1733561.2233848,-1907.1626877577,2875490.0690541,13.010871087109,0,0
86.695404769886,-11.649178880589,7.815301530153,1733561.2233848,-1907.1626877577,2875490.0690541,13.015301530153,0,0
86.69540493164,-11.651232007181,7.8197319731973,1733561.2233848,-1907.1626877577,2875490.0690541,13.019731973197,0,0
86.695405093393,-11.653285133774,7.8241624162416,1733561.2233848,-1907.1626877577,2875490.0690541,13.024162416242,0,0
86.695405255147,-11.655338260367,7.8285928592859,1733561.2233848,-1907.1626877577,2875490.0690541,13.028592859286,0,0
86.695405416901,-11.65739138696,7.8330233023302,1733561.2233848,-1907.1626877577,2875490.0690541,13.03302330233,0,0
86.695405578654,-11.659444513552,7.8374537453745,1733561.2233848,-1907.1626877577,2875490.0690541,13.037453745375,0,0
86.695405740408,-11.661497640145,7.8418841884188,1733561.2233848,-1907.1626877577,2875490.0690541,13.041884188419,0,0
86.695405902161,-11.663550766738,7.8463146314631,1733561.2233848,-1907.1626877577,2875490.0690541,13.046314631463,0,0
86.695406063915,-11.665603893331,7.8507450745074,1733561.2233848,-1907.1626877577,2875490.0690541,13.050745074507,0,0
86.695406225669,-11.667657019923,7.8551755175518,1733561.2233848,-1907.1626877577,2875490.0690541,13.055175517552,0,0
86.695406387422,-11.669710146516,7.8596059605961,1733561.2233848,-1907.1626877577,2875490.0690541,13.059605960596,0,0
86.695406549176,-11.671763273109,7.8640364036404,1733561.2233848,-1907.1626877577,2875490.0690541,13.06403640364,0,0
86.695406710929,-11.673816399702,7.8684668466847,1733561.2233848,-1907.1626877577,2875490.0690541,13.068466846685,0,0
86.695406872683,-11.675869526294,7.872897289729,1733561.2233848,-1907.1626877577,2875490.0690541,13.072897289729,0,0
86.695407034437,-11.677922652887,7.8773277327733,1733561.2233848,-1907.1626877577,2875490.0690541,13.077327732773,0,0
86.69540719619,-11.67997577948,7.8817581758176,1733561.2233848,-1907.1626877577,2875490.0690541,13.081758175818,0,0
86.695407357944,-11.682028906073,7.8861886188619,1733561.2233848,-1907.1626877577,2875490.0690541,13.086188618862,0,0
86.695407519697,-11.684082032665,7.8906190619062,1733561.2233848,-1907.1626877577,2875490.0690541,13.090619061906,0,0
86.695407681451,-11.686135159258,7.8950495049505,1733561.2233848,-1907.1626877577,2875490.0690541,13.09504950495,0,0
86.695407843205,-11.688188285851,7.8994799479948,1733561.2233848,-1907.1626877577,2875490.0690541,13.099479947995,0,0
86.695408004958,-11.690241412444,7.9039103910391,1733561.2233848,-1907.1626877577,2875490.0690541,13.103910391039,0,0
86.695408166712,-11.692294539036,7.9083408340834,1733561.2233848,-1907.1626877577,2875490.0690541,13.108340834083,0,0
86.695408328465,-11.694347665629,7.9127712771277,1733561.2233848,-1907.1626877577,2875490.0690541,13.112771277128,0,0
86.695408490219,-11.696400792222,7.917201720172,1733561.2233848,-1907.1626877577,2875490.0690541,13.117201720172,0,0
86.695408651973,-11.698453918815,7.9216321632163,1733561.2233848,-1907.1626877577,2875490.0690541,13.121632163216,0,0
86.695408813726,-11.700507045407,7.9260626062606,1733561.2233848,-1907.1626877577,2875490.0690541,13.126062606261,0,0
86.69540897548,-11.702560172,7.9304930493049,1733561.2233848,-1907.1626877577,2875490.0690541,13.130493049305,0,0
86.695409137233,-11.704613298593,7.9349234923492,1733561.2233848,-1907.1626877577,2875490.0690541,13.134923492349,0,0
86.695409298987,-11.706666425186,7.9393539353935,1733561.2233848,-1907.1626877577,2875490.0690541,13.139353935394,0,0
86.695409460741,-11.708719551778,7.9437843784378,1733561.2233848,-1907.1626877577,2875490.0690541,13.143784378438,0,0
86.695409622494,-11.710772678371,7.9482148214821,1733561.2233848,-1907.1626877577,2875490.0690541,13.148214821482,0,0
86.695409784248,-11.712825804964,7.9526452645265,1733561.2233848,-1907.1626877577,2875490.0690541,13.152645264526,0,0
86.695409946001,-11.714878931557,7.9570757075708,1733561.2233848,-1907.1626877577,2875490.0690541,13.157075707571,0,0
86.695410107755,-11.716932058149,7.9615061506151,1733561.2233848,-1907.1626877577,2875490.0690541,13.161506150615,0,0
86.695410269509,-11.718985184742,7.9659365936594,1733561.2233848,-1907.1626877577,2875490.0690541,13.165936593659,0,0
86.695410431262,-11.721038311335,7.9703670367037,1733561.2233848,-1907.1626877577,2875490.0690541,13.170367036704,0,0
86.695410593016,-11.723091437928,7.974797479748,1733561.2233848,-1907.1626877577,2875490.0690541,13.174797479748,0,0
86.695410754769,-11.72514456452,7.9792279227923,1733561.2233848,-1907.1626877577,2875490.0690541,13.179227922792,0,0
86.695410916523,-11.727197691113,7.9836583658366,1733561.2233848,-1907.1626877577,2875490.0690541,13.183658365837,0,0
86.695411078277,-11.729250817706,7.9880888088809,1733561.2233848,-1907.1626877577,2875490.0690541,13.188088808881,0,0
86.69541124003,-11.731303944299,7.9925192519252,1733561.2233848,-1907.1626877577,2875490.0690541,13.192519251925,0,0
86.695411401784,-11.733357070891,7.9969496949695,1733561.2233848,-1907.1626877577,2875490.0690541,13.196949694969,0,0
86.695411563537,-11.735410197484,8.0013801380138,1733561.2233848,-1907.1626877577,2875490.0690541,13.201380138014,0,0
86.695411725291,-11.737463324077,8.0058105810581,1733561.2233848,-1907.1626877577,2875490.0690541,13.205810581058,0,0
86.695411887045,-11.73951645067,8.0102410241024,1733561.2233848,-1907.1626877577,2875490.0690541,13.210241024102,0,0
86.695412048798,-11.741569577262,8.0146714671467,1733561.2233848,-1907.1626877577,2875490.0690541,13.214671467147,0,0
86.695412210552,-11.743622703855,8.019101910191,1733561.2233848,-1907.1626877577,2875490.0690541,13.219101910191,0,0
86.695412372305,-11.745675830448,8.0235323532353,1733561.2233848,-1907.1626877577,2875490.0690541,13.223532353235,0,0
86.695412534059,-11.747728957041,8.0279627962796,1733561.2233848,-1907.1626877577,2875490.0690541,13.22796279628,0,0
86.695412695813,-11.749782083633,8.0323932393239,1733561.2233848,-1907.1626877577,2875490.0690541,13.232393239324,0,0
86.695412857566,-11.751835210226,8.0368236823682,1733561.2233848,-1907.1626877577,2875490.0690541,13.236823682368,0,0
86.69541301932,-11.753888336819,8.0412541254125,1733561.2233848,-1907.1626877577,2875490.0690541,13.241254125413,0,0
86.695413181073,-11.755941463412,8.0456845684568,1733561.2233848,-1907.1626877577,2875490.0690541,13.245684568457,0,0
86.695413342827,-11.757994590004,8.0501150115011,1733561.2233848,-1907.1626877577,2875490.0690541,13.250115011501,0,0
86.695413504581,-11.760047716597,8.0545454545455,1733561.2233848,-1907.1626877577,2875490.0690541,13.254545454545,0,0
86.695413666334,-11.76210084319,8.0589758975898,1733561.2233848,-1907.1626877577,2875490.0690541,13.25897589759,0,0
86.695413828088,-11.764153969783,8.0634063406341,1733561.2233848,-1907.1626877577,2875490.0690541,13.263406340634,0,0
86.695413989841,-11.766207096375,8.0678367836784,1733561.2233848,-1907.1626877577,2875490.0690541,13.267836783678,0,0
86.695414151595,-11.768260222968,8.0722672267227,1733561.2233848,-1907.1626877577,2875490.0690541,13.272267226723,0,0
86.695414313349,-11.770313349561,8.076697669767,1733561.2233848,-1907.1626877577,2875490.0690541,13.276697669767,0,0
86.695414475102,-11.772366476154,8.0811281128113,1733561.2233848,-1907.1626877577,2875490.0690541,13.281128112811,0,0
86.695414636856,-11.774419602746,8.0855585558556,1733561.2233848,-1907.1626877577,2875490.0690541,13.285558555856,0,0
86.695414798609,-11.776472729339,8.0899889988999,1733561.2233848,-1907.1626877577,2875490.0690541,13.2899889989,0,0
86.695414960363,-11.778525855932,8.0944194419442,1733561.2233848,-1907.1626877577,2875490.0690541,13.294419441944,0,0
86.695415122117,-11.780578982525,8.0988498849885,1733561.2233848,-1907.1626877577,2875490.0690541,13.298849884988,0,0
86.69541528387,-11.782632109117,8.1032803280328,1733561.2233848,-1907.1626877577,2875490.0690541,13.303280328033,0,0
86.695415445624,-11.78468523571,8.1077107710771,1733561.2233848,-1907.1626877577,2875490.0690541,13.307710771077,0,0
86.695415607377,-11.786738362303,8.1121412141214,1733561.2233848,-1907.1626877577,2875490.0690541,13.312141214121,0,0
86.695415769131,-11.788791488896,8.1165716571657,1733561.2233848,-1907.1626877577,2875490.0690541,13.316571657166,0,0
86.695415930885,-11.790844615488,8.12100210021,1733561.2233848,-1907.1626877577,2875490.0690541,13.32100210021,0,0
86.695416092638,-11.792897742081,8.1254325432543,1733561.2233848,-1907.1626877577,2875490.0690541,13.325432543254,0,0
86.695416254392,-11.794950868674,8.1298629862986,1733561.2233848,-1907.1626877577,2875490.0690541,13.329862986299,0,0
86.695416416145,-11.797003995267,8.1342934293429,1733561.2233848,-1907.1626877577,2875490.0690541,13.334293429343,0,0
86.695416577899,-11.799057121859,8.1387238723872,1733561.2233848,-1907.1626877577,2875490.0690541,13.338723872387,0,0
86.695416739653,-11.801110248452,8.1431543154315,1733561.2233848,-1907.1626877577,2875490.0690541,13.343154315432,0,0
86.695416901406,-11.803163375045,8.1475847584758,1733561.2233848,-1907.1626877577,2875490.0690541,13.347584758476,0,0
86.69541706316,-11.805216501638,8.1520152015202,1733561.2233848,-1907.1626877577,2875490.0690541,13.35201520152,0,0
86.695417224913,-11.80726962823,8.1564456445645,1733561.2233848,-1907.1626877577,2875490.0690541,13.356445644564,0,0
86.695417386667,-11.809322754823,8.1608760876088,1733561.2233848,-1907.1626877577,2875490.0690541,13.360876087609,0,0
86.695417548421,-11.811375881416,8.1653065306531,1733561.2233848,-1907.1626877577,2875490.0690541,13.365306530653,0,0
86.695417710174,-11.813429008009,8.1697369736974,1733561.2233848,-1907.1626877577,2875490.0690541,13.369736973697,0,0
86.695417871928,-11.815482134601,8.1741674167417,1733561.2233848,-1907.1626877577,2875490.0690541,13.374167416742,0,0
86.695418033681,-11.817535261194,8.178597859786,1733561.2233848,-1907.1626877577,2875490.0690541,13.378597859786,0,0
86.695418195435,-11.819588387787,8.1830283028303,1733561.2233848,-1907.1626877577,2875490.0690541,13.38302830283,0,0
86.695418357189,-11.82164151438,8.1874587458746,1733561.2233848,-1907.1626877577,2875490.0690541,13.387458745875,0,0
86.695418518942,-11.823694640972,8.1918891889189,1733561.2233848,-1907.1626877577,2875490.0690541,13.391889188919,0,0
86.695418680696,-11.825747767565,8.1963196319632,1733561.2233848,-1907.1626877577,2875490.0690541,13.396319631963,0,0
86.695418842449,-11.827800894158,8.2007500750075,1733561.2233848,-1907.1626877577,2875490.0690541,13.400750075008,0,0
86.695419004203,-11.829854020751,8.2051805180518,1733561.2233848,-1907.1626877577,2875490.0690541,13.405180518052,0,0
86.695419165957,-11.831907147343,8.2096109610961,1733561.2233848,-1907.1626877577,2875490.0690541,13.409610961096,0,0
86.69541932771,-11.833960273936,8.2140414041404,1733561.2233848,-1907.1626877577,2875490.0690541,13.41404140414,0,0
86.695419489464,-11.836013400529,8.2184718471847,1733561.2233848,-1907.1626877577,2875490.0690541,13.418471847185,0,0
86.695419651217,-11.838066527122,8.222902290229,1733561.2233848,-1907.1626877577,2875490.0690541,13.422902290229,0,0
86.695419812971,-11.840119653714,8.2273327332733,1733561.2233848,-1907.1626877577,2875490.0690541,13.427332733273,0,0
86.695419974725,-11.842172780307,8.2317631763176,1733561.2233848,-1907.1626877577,2875490.0690541,13.431763176318,0,0
86.695420136478,-11.8442259069,8.2361936193619,1733561.2233848,-1907.1626877577,2875490.0690541,13.436193619362,0,0
86.695420298232,-11.846279033493,8.2406240624062,1733561.2233848,-1907.1626877577,2875490.0690541,13.440624062406,0,0
86.695420459985,-11.848332160085,8.2450545054505,1733561.2233848,-1907.1626877577,2875490.0690541,13.445054505451,0,0
86.695420621739,-11.850385286678,8.2494849484948,1733561.2233848,-1907.1626877577,2875490.0690541,13.449484948495,0,0
86.695420783493,-11.852438413271,8.2539153915392,1733561.2233848,-1907.1626877577,2875490.0690541,13.453915391539,0,0
86.695420945246,-11.854491539864,8.2583458345835,1733561.2233848,-1907.1626877577,2875490.0690541,13.458345834583,0,0
86.695421107,-11.856544666456,8.2627762776278,1733561.2233848,-1907.1626877577,2875490.0690541,13.462776277628,0,0
86.695421268753,-11.858597793049,8.2672067206721,1733561.2233848,-1907.1626877577,2875490.0690541,13.467206720672,0,0
86.695421430507,-11.860650919642,8.2716371637164,1733561.2233848,-1907.1626877577,2875490.0690541,13.471637163716,0,0
86.695421592261,-11.862704046235,8.2760676067607,1733561.2233848,-1907.1626877577,2875490.0690541,13.476067606761,0,0
86.695421754014,-11.864757172827,8.280498049805,1733561.2233848,-1907.1626877577,2875490.0690541,13.480498049805,0,0
86.695421915768,-11.86681029942,8.2849284928493,1733561.2233848,-1907.1626877577,2875490.0690541,13.484928492849,0,0
86.695422077521,-11.868863426013,8.2893589358936,1733561.2233848,-1907.1626877577,2875490.0690541,13.489358935894,0,0
86.695422239275,-11.870916552606,8.2937893789379,1733561.2233848,-1907.1626877577,2875490.0690541,13.493789378938,0,0
86.695422401029,-11.872969679198,8.2982198219822,1733561.2233848,-1907.1626877577,2875490.0690541,13.498219821982,0,0
86.695422562782,-11.875022805791,8.3026502650265,1733561.2233848,-1907.1626877577,2875490.0690541,13.502650265027,0,0
86.695422724536,-11.877075932384,8.3070807080708,1733561.2233848,-1907.1626877577,2875490.0690541,13.507080708071,0,0
86.695422886289,-11.879129058977,8.3115111511151,1733561.2233848,-1907.1626877577,2875490.0690541,13.511511151115,0,0
86.695423048043,-11.881182185569,8.3159415941594,1733561.2233848,-1907.1626877577,2875490.0690541,13.515941594159,0,0
86.695423209797,-11.883235312162,8.3203720372037,1733561.2233848,-1907.1626877577,2875490.0690541,13.520372037204,0,0
86.69542337155,-11.885288438755,8.324802480248,1733561.2233848,-1907.1626877577,2875490.0690541,13.524802480248,0,0
86.695423533304,-11.887341565348,8.3292329232923,1733561.2233848,-1907.1626877577,2875490.0690541,13.529232923292,0,0
86.695423695057,-11.88939469194,8.3336633663366,1733561.2233848,-1907.1626877577,2875490.0690541,13.533663366337,0,0
86.695423856811,-11.891447818533,8.3380938093809,1733561.2233848,-1907.1626877577,2875490.0690541,13.538093809381,0,0
86.69542401936,-11.893500947447,8.3425242524252,1739812.3723621,-15582.41465716,2845385.3481932,13.542524252425,0,0
86.695424182415,-11.895554077834,8.3469546954695,1739812.3723621,-15582.41465716,2845385.3481932,13.54695469547,0,0
86.695424345722,-11.897607207687,8.3513851385139,1754488.6655469,-3451.2842767499,2829212.3636629,13.551385138514,0,0
86.69542451038,-11.899660334692,8.3558155815582,1754488.6655469,-3451.2842767499,2829212.3636629,13.555815581558,0,0
86.695424675037,-11.901713461698,8.3602460246025,1754488.6655469,-3451.2842767499,2829212.3636629,13.560246024602,0,0
86.695424839695,-11.903766588703,8.3646764676468,1754488.6655469,-3451.2842767499,2829212.3636629,13.564676467647,0,0
86.695425004352,-11.905819715709,8.3691069106911,1754488.6655469,-3451.2842767499,2829212.3636629,13.569106910691,0,0
86.695425169009,-11.907872842714,8.3735373537354,1754488.6655469,-3451.2842767499,2829212.3636629,13.573537353735,0,0
86.695425333667,-11.90992596972,8.3779677967797,1754488.6655469,-3451.2842767499,2829212.3636629,13.57796779678,0,0
86.695425498324,-11.911979096725,8.382398239824,1754488.6655469,-3451.2842767499,2829212.3636629,13.582398239824,0,0
86.695425662981,-11.914032223731,8.3868286828683,1754488.6655469,-3451.2842767499,2829212.3636629,13.586828682868,0,0
86.695425827639,-11.916085350737,8.3912591259126,1754488.6655469,-3451.2842767499,2829212.3636629,13.591259125913,0,0
86.695425992296,-11.918138477742,8.3956895689569,1754488.6655469,-3451.2842767499,2829212.3636629,13.595689568957,0,0
86.695426156953,-11.920191604748,8.4001200120012,1754488.6655469,-3451.2842767499,2829212.3636629,13.600120012001,0,0
86.695426321611,-11.922244731753,8.4045504550455,1754488.6655469,-3451.2842767499,2829212.3636629,13.604550455046,0,0
86.695426486268,-11.924297858759,8.4089808980898,1754488.6655469,-3451.2842767499,2829212.3636629,13.60898089809,0,0
86.695426650925,-11.926350985764,8.4134113411341,1754488.6655469,-3451.2842767499,2829212.3636629,13.613411341134,0,0
86.695426815583,-11.92840411277,8.4178417841784,1754488.6655469,-3451.2842767499,2829212.3636629,13.617841784178,0,0
86.69542698024,-11.930457239775,8.4222722272227,1754488.6655469,-3451.2842767499,2829212.3636629,13.622272227223,0,0
86.695427144897,-11.932510366781,8.426702670267,1754488.6655469,-3451.2842767499,2829212.3636629,13.626702670267,0,0
86.695427309555,-11.934563493787,8.4311331133113,1754488.6655469,-3451.2842767499,2829212.3636629,13.631133113311,0,0
86.695427474212,-11.936616620792,8.4355635563556,1754488.6655469,-3451.2842767499,2829212.3636629,13.635563556356,0,0
86.695427638869,-11.938669747798,8.4399939993999,1754488.6655469,-3451.2842767499,2829212.3636629,13.6399939994,0,0
86.695427803527,-11.940722874803,8.4444244424442,1754488.6655469,-3451.2842767499,2829212.3636629,13.644424442444,0,0
86.695427968184,-11.942776001809,8.4488548854885,1754488.6655469,-3451.2842767499,2829212.3636629,13.648854885489,0,0
86.695428132842,-11.944829128814,8.4532853285329,1754488.6655469,-3451.2842767499,2829212.3636629,13.653285328533,0,0
86.695428297499,-11.94688225582,8.4577157715772,1754488.6655469,-3451.2842767499,2829212.3636629,13.657715771577,0,0
86.695428462156,-11.948935382825,8.4621462146215,1754488.6655469,-3451.2842767499,2829212.3636629,13.662146214621,0,0
86.695428626814,-11.950988509831,8.4665766576658,1754488.6655469,-3451.2842767499,2829212.3636629,13.666576657666,0,0
86.695428791471,-11.953041636837,8.4710071007101,1754488.6655469,-3451.2842767499,2829212.3636629,13.67100710071,0,0
86.695428956128,-11.955094763842,8.4754375437544,1754488.6655469,-3451.2842767499,2829212.3636629,13.675437543754,0,0
86.695429120786,-11.957147890848,8.4798679867987,1754488.6655469,-3451.2842767499,2829212.3636629,13.679867986799,0,0
86.695429285443,-11.959201017853,8.484298429843,1754488.6655469,-3451.2842767499,2829212.3636629,13.684298429843,0,0
86.6954294501,-11.961254144859,8.4887288728873,1754488.6655469,-3451.2842767499,2829212.3636629,13.688728872887,0,0
86.695429614746,-11.963307271858,8.4931593159316,1750560.4315912,2216.9237996649,2820200.5386785,13.693159315932,0,0
86.69542977933,-11.965360398825,8.4975897589759,1750560.4315912,2216.9237996649,2820200.5386785,13.697589758976,0,0
86.695429943913,-11.967413525792,8.5020202020202,1750560.4315912,2216.9237996649,2820200.5386785,13.70202020202,0,0
86.695430108497,-11.969466652758,8.5064506450645,1750560.4315912,2216.9237996649,2820200.5386785,13.706450645065,0,0
86.695430273081,-11.971519779725,8.5108810881088,1750560.4315912,2216.9237996649,2820200.5386785,13.710881088109,0,0
86.695430437664,-11.973572906692,8.5153115311531,1750560.4315912,2216.9237996649,2820200.5386785,13.715311531153,0,0
86.695430602248,-11.975626033659,8.5197419741974,1750560.4315912,2216.9237996649,2820200.5386785,13.719741974197,0,0
86.695430766831,-11.977679160625,8.5241724172417,1750560.4315912,2216.9237996649,2820200.5386785,13.724172417242,0,0
86.695430931415,-11.979732287592,8.528602860286,1750560.4315912,2216.9237996649,2820200.5386785,13.728602860286,0,0
86.695431095998,-11.981785414559,8.5330333033303,1750560.4315912,2216.9237996649,2820200.5386785,13.73303330333,0,0
86.695431260582,-11.983838541525,8.5374637463746,1750560.4315912,2216.9237996649,2820200.5386785,13.737463746375,0,0
86.695431425165,-11.985891668492,8.5418941894189,1750560.4315912,2216.9237996649,2820200.5386785,13.741894189419,0,0
86.695431589749,-11.987944795459,8.5463246324632,1750560.4315912,2216.9237996649,2820200.5386785,13.746324632463,0,0
86.695431754332,-11.989997922425,8.5507550755075,1750560.4315912,2216.9237996649,2820200.5386785,13.750755075508,0,0
86.695431918916,-11.992051049392,8.5551855185519,1750560.4315912,2216.9237996649,2820200.5386785,13.755185518552,0,0
86.695432083499,-11.994104176359,8.5596159615962,1750560.4315912,2216.9237996649,2820200.5386785,13.759615961596,0,0
86.695432248083,-11.996157303325,8.5640464046405,1750560.4315912,2216.9237996649,2820200.5386785,13.76404640464,0,0
86.695432412666,-11.998210430292,8.5684768476848,1750560.4315912,2216.9237996649,2820200.5386785,13.768476847685,0,0
86.69543257725,-12.000263557259,8.5729072907291,1750560.4315912,2216.9237996649,2820200.5386785,13.772907290729,0,0
86.695432741833,-12.002316684225,8.5773377337734,1750560.4315912,2216.9237996649,2820200.5386785,13.777337733773,0,0
86.695432906417,-12.004369811192,8.5817681768177,1750560.4315912,2216.9237996649,2820200.5386785,13.781768176818,0,0
86.695433071,-12.006422938159,8.586198619862,1750560.4315912,2216.9237996649,2820200.5386785,13.786198619862,0,0
86.695433235584,-12.008476065125,8.5906290629063,1750560.4315912,2216.9237996649,2820200.5386785,13.790629062906,0,0
86.695433400168,-12.010529192092,8.5950595059506,1750560.4315912,2216.9237996649,2820200.5386785,13.795059505951,0,0
86.695433564751,-12.012582319059,8.5994899489949,1750560.4315912,2216.9237996649,2820200.5386785,13.799489948995,0,0
86.695433729335,-12.014635446026,8.6039203920392,1750560.4315912,2216.9237996649,2820200.5386785,13.803920392039,0,0
86.695433893918,-12.016688572992,8.6083508350835,1750560.4315912,2216.9237996649,2820200.5386785,13.808350835084,0,0
86.695434058502,-12.018741699959,8.6127812781278,1750560.4315912,2216.9237996649,2820200.5386785,13.812781278128,0,0
86.695434223085,-12.020794826926,8.6172117211721,1750560.4315912,2216.9237996649,2820200.5386785,13.817211721172,0,0
86.695434387669,-12.022847953892,8.6216421642164,1750560.4315912,2216.9237996649,2820200.5386785,13.821642164216,0,0
86.695434552252,-12.024901080859,8.6260726072607,1750560.4315912,2216.9237996649,2820200.5386785,13.826072607261,0,0
86.695434716836,-12.026954207826,8.630503050305,1750560.4315912,2216.9237996649,2820200.5386785,13.830503050305,0,0
86.695434881419,-12.029007334792,8.6349334933493,1750560.4315912,2216.9237996649,2820200.5386785,13.834933493349,0,0
86.695435046003,-12.031060461759,8.6393639363936,1750560.4315912,2216.9237996649,2820200.5386785,13.839363936394,0,0
86.695435210586,-12.033113588726,8.6437943794379,1750560.4315912,2216.9237996649,2820200.5386785,13.843794379438,0,0
86.69543537517,-12.035166715692,8.6482248224822,1750560.4315912,2216.9237996649,2820200.5386785,13.848224822482,0,0
86.695435539753,-12.037219842659,8.6526552655266,1750560.4315912,2216.9237996649,2820200.5386785,13.852655265527,0,0
86.695435704337,-12.039272969626,8.6570857085709,1750560.4315912,2216.9237996649,2820200.5386785,13.857085708571,0,0
86.69543586892,-12.041326096592,8.6615161516152,1750560.4315912,2216.9237996649,2820200.5386785,13.861516151615,0,0
86.695436033504,-12.043379223559,8.6659465946595,1750560.4315912,2216.9237996649,2820200.5386785,13.865946594659,0,0
86.695436198087,-12.045432350526,8.6703770377038,1750560.4315912,2216.9237996649,2820200.5386785,13.870377037704,0,0
86.695436362671,-12.047485477492,8.6748074807481,1750560.4315912,2216.9237996649,2820200.5386785,13.874807480748,0,0
86.695436527254,-12.049538604459,8.6792379237924,1750560.4315912,2216.9237996649,2820200.5386785,13.879237923792,0,0
86.695436691838,-12.051591731426,8.6836683668367,1750560.4315912,2216.9237996649,2820200.5386785,13.883668366837,0,0
86.695436856421,-12.053644858393,8.688098809881,1750560.4315912,2216.9237996649,2820200.5386785,13.888098809881,0,0
86.695437021005,-12.055697985359,8.6925292529253,1750560.4315912,2216.9237996649,2820200.5386785,13.892529252925,0,0
86.695437185589,-12.057751112326,8.6969596959696,1750560.4315912,2216.9237996649,2820200.5386785,13.89695969597,0,0
86.695437350172,-12.059804239293,8.7013901390139,1750560.4315912,2216.9237996649,2820200.5386785,13.901390139014,0,0
86.695437514756,-12.061857366259,8.7058205820582,1750560.4315912,2216.9237996649,2820200.5386785,13.905820582058,0,0
86.695437679339,-12.063910493226,8.7102510251025,1750560.4315912,2216.9237996649,2820200.5386785,13.910251025103,0,0
86.695437843923,-12.065963620193,8.7146814681468,1750560.4315912,2216.9237996649,2820200.5386785,13.914681468147,0,0
86.695438008506,-12.068016747159,8.7191119111911,1750560.4315912,2216.9237996649,2820200.5386785,13.919111911191,0,0
86.69543817309,-12.070069874126,8.7235423542354,1750560.4315912,2216.9237996649,2820200.5386785,13.923542354235,0,0
86.695438337673,-12.072123001093,8.7279727972797,1750560.4315912,2216.9237996649,2820200.5386785,13.92797279728,0,0
86.695438502257,-12.074176128059,8.732403240324,1750560.4315912,2216.9237996649,2820200.5386785,13.932403240324,0,0
86.69543866684,-12.076229255026,8.7368336833683,1750560.4315912,2216.9237996649,2820200.5386785,13.936833683368,0,0
86.695438831424,-12.078282381993,8.7412641264126,1750560.4315912,2216.9237996649,2820200.5386785,13.941264126413,0,0
86.695438996007,-12.080335508959,8.7456945694569,1750560.4315912,2216.9237996649,2820200.5386785,13.945694569457,0,0
86.695439160591,-12.082388635926,8.7501250125013,1750560.4315912,2216.9237996649,2820200.5386785,13.950125012501,0,0
86.695439325174,-12.084441762893,8.7545554555456,1750560.4315912,2216.9237996649,2820200.5386785,13.954555455546,0,0
86.695439489758,-12.086494889859,8.7589858985899,1750560.4315912,2216.9237996649,2820200.5386785,13.95898589859,0,0
86.695439654341,-12.088548016826,8.7634163416342,1750560.4315912,2216.9237996649,2820200.5386785,13.963416341634,0,0
86.695439818925,-12.090601143793,8.7678467846785,1750560.4315912,2216.9237996649,2820200.5386785,13.967846784678,0,0
86.695439983508,-12.09265427076,8.7722772277228,1750560.4315912,2216.9237996649,2820200.5386785,13.972277227723,0,0
86.695440148092,-12.094707397726,8.7767076707671,1750560.4315912,2216.9237996649,2820200.5386785,13.976707670767,0,0
86.695440312676,-12.096760524693,8.7811381138114,1750560.4315912,2216.9237996649,2820200.5386785,13.981138113811,0,0
86.695440477259,-12.09881365166,8.7855685568557,1750560.4315912,2216.9237996649,2820200.5386785,13.985568556856,0,0
86.695440641843,-12.100866778626,8.7899989999,1750560.4315912,2216.9237996649,2820200.5386785,13.9899989999,0,0
86.695440806426,-12.102919905593,8.7944294429443,1750560.4315912,2216.9237996649,2820200.5386785,13.994429442944,0,0
86.69544097101,-12.10497303256,8.7988598859886,1750560.4315912,2216.9237996649,2820200.5386785,13.998859885989,0,0
86.695441135593,-12.107026159526,8.8032903290329,1750560.4315912,2216.9237996649,2820200.5386785,14.003290329033,0,0
86.695441300177,-12.109079286493,8.8077207720772,1750560.4315912,2216.9237996649,2820200.5386785,14.007720772077,0,0
86.69544146476,-12.11113241346,8.8121512151215,1750560.4315912,2216.9237996649,2820200.5386785,14.012151215122,0,0
86.695441629344,-12.113185540426,8.8165816581658,1750560.4315912,2216.9237996649,2820200.5386785,14.016581658166,0,0
86.695441793927,-12.115238667393,8.8210121012101,1750560.4315912,2216.9237996649,2820200.5386785,14.02101210121,0,0
86.695441958511,-12.11729179436,8.8254425442544,1750560.4315912,2216.9237996649,2820200.5386785,14.025442544254,0,0
86.695442123094,-12.119344921326,8.8298729872987,1750560.4315912,2216.9237996649,2820200.5386785,14.029872987299,0,0
86.695442287678,-12.121398048293,8.834303430343,1750560.4315912,2216.9237996649,2820200.5386785,14.034303430343,0,0
86.695442452261,-12.12345117526,8.8387338733873,1750560.4315912,2216.9237996649,2820200.5386785,14.038733873387,0,0
86.695442616845,-12.125504302226,8.8431643164316,1750560.4315912,2216.9237996649,2820200.5386785,14.043164316432,0,0
86.695442781428,-12.127557429193,8.8475947594759,1750560.4315912,2216.9237996649,2820200.5386785,14.047594759476,0,0
86.695442946012,-12.12961055616,8.8520252025203,1750560.4315912,2216.9237996649,2820200.5386785,14.05202520252,0,0
86.695443110595,-12.131663683127,8.8564556455646,1750560.4315912,2216.9237996649,2820200.5386785,14.056455645565,0,0
86.695443275179,-12.133716810093,8.8608860886089,1750560.4315912,2216.9237996649,2820200.5386785,14.060886088609,0,0
86.695443439762,-12.13576993706,8.8653165316532,1750560.4315912,2216.9237996649,2820200.5386785,14.065316531653,0,0
86.695443604346,-12.137823064027,8.8697469746975,1750560.4315912,2216.9237996649,2820200.5386785,14.069746974697,0,0
86.69544376893,-12.139876190993,8.8741774177418,1750560.4315912,2216.9237996649,2820200.5386785,14.074177417742,0,0
86.695443933513,-12.14192931796,8.8786078607861,1750560.4315912,2216.9237996649,2820200.5386785,14.078607860786,0,0
86.695444098097,-12.143982444927,8.8830383038304,1750560.4315912,2216.9237996649,2820200.5386785,14.08303830383,0,0
86.69544426268,-12.146035571893,8.8874687468747,1750560.4315912,2216.9237996649,2820200.5386785,14.087468746875,0,0
86.695444427264,-12.14808869886,8.891899189919,1750560.4315912,2216.9237996649,2820200.5386785,14.091899189919,0,0
86.695444591847,-12.150141825827,8.8963296329633,1750560.4315912,2216.9237996649,2820200.5386785,14.096329632963,0,0
86.695444756431,-12.152194952793,8.9007600760076,1750560.4315912,2216.9237996649,2820200.5386785,14.100760076008,0,0
86.695444921014,-12.15424807976,8.9051905190519,1750560.4315912,2216.9237996649,2820200.5386785,14.105190519052,0,0
86.695445085598,-12.156301206727,8.9096209620962,1750560.4315912,2216.9237996649,2820200.5386785,14.109620962096,0,0
86.695445250181,-12.158354333693,8.9140514051405,1750560.4315912,2216.9237996649,2820200.5386785,14.114051405141,0,0
86.695445414765,-12.16040746066,8.9184818481848,1750560.4315912,2216.9237996649,2820200.5386785,14.118481848185,0,0
86.695445579348,-12.162460587627,8.9229122912291,1750560.4315912,2216.9237996649,2820200.5386785,14.122912291229,0,0
86.695445743932,-12.164513714593,8.9273427342734,1750560.4315912,2216.9237996649,2820200.5386785,14.127342734273,0,0
86.695445908515,-12.16656684156,8.9317731773177,1750560.4315912,2216.9237996649,2820200.5386785,14.131773177318,0,0
86.695446073099,-12.168619968527,8.936203620362,1750560.4315912,2216.9237996649,2820200.5386785,14.136203620362,0,0
86.695446237682,-12.170673095494,8.9406340634063,1750560.4315912,2216.9237996649,2820200.5386785,14.140634063406,0,0
86.695446402266,-12.17272622246,8.9450645064506,1750560.4315912,2216.9237996649,2820200.5386785,14.145064506451,0,0
86.695446566849,-12.174779349427,8.9494949494949,1750560.4315912,2216.9237996649,2820200.5386785,14.149494949495,0,0
86.695446731433,-12.176832476394,8.9539253925393,1750560.4315912,2216.9237996649,2820200.5386785,14.153925392539,0,0
86.695446896016,-12.17888560336,8.9583558355836,1750560.4315912,2216.9237996649,2820200.5386785,14.158355835584,0,0
86.6954470606,-12.180938730327,8.9627862786279,1750560.4315912,2216.9237996649,2820200.5386785,14.162786278628,0,0
86.695447225184,-12.182991857294,8.9672167216722,1750560.4315912,2216.9237996649,2820200.5386785,14.167216721672,0,0
86.695447389767,-12.18504498426,8.9716471647165,1750560.4315912,2216.9237996649,2820200.5386785,14.171647164716,0,0
86.695447554351,-12.187098111227,8.9760776077608,1750560.4315912,2216.9237996649,2820200.5386785,14.176077607761,0,0
86.695447718934,-12.189151238194,8.9805080508051,1750560.4315912,2216.9237996649,2820200.5386785,14.180508050805,0,0
86.695447883518,-12.19120436516,8.9849384938494,1750560.4315912,2216.9237996649,2820200.5386785,14.184938493849,0,0
86.695448048101,-12.193257492127,8.9893689368937,1750560.4315912,2216.9237996649,2820200.5386785,14.189368936894,0,0
86.695448212685,-12.195310619094,8.993799379938,1750560.4315912,2216.9237996649,2820200.5386785,14.193799379938,0,0
86.695448377268,-12.19736374606,8.9982298229823,1750560.4315912,2216.9237996649,2820200.5386785,14.198229822982,0,0
86.695448541852,-12.199416873027,9.0026602660266,1750560.4315912,2216.9237996649,2820200.5386785,14.202660266027,0,0
86.695448706435,-12.201469999994,9.0070907090709,1750560.4315912,2216.9237996649,2820200.5386785,14.207090709071,0,0
86.695448871019,-12.20352312696,9.0115211521152,1750560.4315912,2216.9237996649,2820200.5386785,14.211521152115,0,0
86.695449035602,-12.205576253927,9.0159515951595,1750560.4315912,2216.9237996649,2820200.5386785,14.21595159516,0,0
86.695449200186,-12.207629380894,9.0203820382038,1750560.4315912,2216.9237996649,2820200.5386785,14.220382038204,0,0
86.695449364769,-12.209682507861,9.0248124812481,1750560.4315912,2216.9237996649,2820200.5386785,14.224812481248,0,0
86.695449529353,-12.211735634827,9.0292429242924,1750560.4315912,2216.9237996649,2820200.5386785,14.229242924292,0,0
86.695449693936,-12.213788761794,9.0336733673367,1750560.4315912,2216.9237996649,2820200.5386785,14.233673367337,0,0
86.69544985852,-12.215841888761,9.038103810381,1750560.4315912,2216.9237996649,2820200.5386785,14.238103810381,0,0
86.695450023103,-12.217895015727,9.0425342534253,1750560.4315912,2216.9237996649,2820200.5386785,14.242534253425,0,0
86.695450187687,-12.219948142694,9.0469646964696,1750560.4315912,2216.9237996649,2820200.5386785,14.24696469647,0,0
86.69545035227,-12.222001269661,9.051395139514,1750560.4315912,2216.9237996649,2820200.5386785,14.251395139514,0,0
86.695450516854,-12.224054396627,9.0558255825583,1750560.4315912,2216.9237996649,2820200.5386785,14.255825582558,0,0
86.695450681438,-12.226107523594,9.0602560256026,1750560.4315912,2216.9237996649,2820200.5386785,14.260256025603,0,0
86.695450846021,-12.228160650561,9.0646864686469,1750560.4315912,2216.9237996649,2820200.5386785,14.264686468647,0,0
86.695451010605,-12.230213777527,9.0691169116912,1750560.4315912,2216.9237996649,2820200.5386785,14.269116911691,0,0
86.695451175188,-12.232266904494,9.0735473547355,1750560.4315912,2216.9237996649,2820200.5386785,14.273547354735,0,0
86.695451339772,-12.234320031461,9.0779777977798,1750560.4315912,2216.9237996649,2820200.5386785,14.27797779778,0,0
86.695451504355,-12.236373158427,9.0824082408241,1750560.4315912,2216.9237996649,2820200.5386785,14.282408240824,0,0
86.695451668939,-12.238426285394,9.0868386838684,1750560.4315912,2216.9237996649,2820200.5386785,14.286838683868,0,0
86.695451833522,-12.240479412361,9.0912691269127,1750560.4315912,2216.9237996649,2820200.5386785,14.291269126913,0,0
86.695451998106,-12.242532539327,9.095699569957,1750560.4315912,2216.9237996649,2820200.5386785,14.295699569957,0,0
86.695452162689,-12.244585666294,9.1001300130013,1750560.4315912,2216.9237996649,2820200.5386785,14.300130013001,0,0
86.695452327273,-12.246638793261,9.1045604560456,1750560.4315912,2216.9237996649,2820200.5386785,14.304560456046,0,0
86.695452491856,-12.248691920228,9.1089908990899,1750560.4315912,2216.9237996649,2820200.5386785,14.30899089909,0,0
86.69545265644,-12.250745047194,9.1134213421342,1750560.4315912,2216.9237996649,2820200.5386785,14.313421342134,0,0
86.695452821023,-12.252798174161,9.1178517851785,1750560.4315912,2216.9237996649,2820200.5386785,14.317851785179,0,0
86.695452985607,-12.254851301128,9.1222822282228,1750560.4315912,2216.9237996649,2820200.5386785,14.322282228223,0,0
86.69545315019,-12.256904428094,9.1267126712671,1750560.4315912,2216.9237996649,2820200.5386785,14.326712671267,0,0
86.695453314774,-12.258957555061,9.1311431143114,1750560.4315912,2216.9237996649,2820200.5386785,14.331143114311,0,0
86.695453479357,-12.261010682028,9.1355735573557,1750560.4315912,2216.9237996649,2820200.5386785,14.335573557356,0,0
86.695453643941,-12.263063808994,9.1400040004,1750560.4315912,2216.9237996649,2820200.5386785,14.3400040004,0,0
86.695453808524,-12.265116935961,9.1444344434443,1750560.4315912,2216.9237996649,2820200.5386785,14.344434443444,0,0
86.695453973108,-12.267170062928,9.1488648864886,1750560.4315912,2216.9237996649,2820200.5386785,14.348864886489,0,0
86.695454137692,-12.269223189894,9.153295329533,1750560.4315912,2216.9237996649,2820200.5386785,14.353295329533,0,0
86.695454302275,-12.271276316861,9.1577257725773,1750560.4315912,2216.9237996649,2820200.5386785,14.357725772577,0,0
86.695454466859,-12.273329443828,9.1621562156216,1750560.4315912,2216.9237996649,2820200.5386785,14.362156215622,0,0
86.695454631442,-12.275382570794,9.1665866586659,1750560.4315912,2216.9237996649,2820200.5386785,14.366586658666,0,0
86.695454796026,-12.277435697761,9.1710171017102,1750560.4315912,2216.9237996649,2820200.5386785,14.37101710171,0,0
86.695454960609,-12.279488824728,9.1754475447545,1750560.4315912,2216.9237996649,2820200.5386785,14.375447544754,0,0
86.695455125193,-12.281541951694,9.1798779877988,1750560.4315912,2216.9237996649,2820200.5386785,14.379877987799,0,0
86.695455289776,-12.283595078661,9.1843084308431,1750560.4315912,2216.9237996649,2820200.5386785,14.384308430843,0,0
86.69545545436,-12.285648205628,9.1887388738874,1750560.4315912,2216.9237996649,2820200.5386785,14.388738873887,0,0
86.695455618943,-12.287701332595,9.1931693169317,1750560.4315912,2216.9237996649,2820200.5386785,14.393169316932,0,0
86.695455783527,-12.289754459561,9.197599759976,1750560.4315912,2216.9237996649,2820200.5386785,14.397599759976,0,0
86.69545594811,-12.291807586528,9.2020302030203,1750560.4315912,2216.9237996649,2820200.5386785,14.40203020302,0,0
86.695456112694,-12.293860713495,9.2064606460646,1750560.4315912,2216.9237996649,2820200.5386785,14.406460646065,0,0
86.695456277277,-12.295913840461,9.2108910891089,1750560.4315912,2216.9237996649,2820200.5386785,14.410891089109,0,0
86.695456441861,-12.297966967428,9.2153215321532,1750560.4315912,2216.9237996649,2820200.5386785,14.415321532153,0,0
86.695456606444,-12.300020094395,9.2197519751975,1750560.4315912,2216.9237996649,2820200.5386785,14.419751975198,0,0
86.695456771028,-12.302073221361,9.2241824182418,1750560.4315912,2216.9237996649,2820200.5386785,14.424182418242,0,0
86.695456935611,-12.304126348328,9.2286128612861,1750560.4315912,2216.9237996649,2820200.5386785,14.428612861286,0,0
86.695457100195,-12.306179475295,9.2330433043304,1750560.4315912,2216.9237996649,2820200.5386785,14.43304330433,0,0
86.695457264778,-12.308232602261,9.2374737473747,1750560.4315912,2216.9237996649,2820200.5386785,14.437473747375,0,0
86.695457429362,-12.310285729228,9.241904190419,1750560.4315912,2216.9237996649,2820200.5386785,14.441904190419,0,0
86.695457593946,-12.312338856195,9.2463346334633,1750560.4315912,2216.9237996649,2820200.5386785,14.446334633463,0,0
86.695457758529,-12.314391983161,9.2507650765077,1750560.4315912,2216.9237996649,2820200.5386785,14.450765076508,0,0
86.695457923113,-12.316445110128,9.255195519552,1750560.4315912,2216.9237996649,2820200.5386785,14.455195519552,0,0
86.695458087696,-12.318498237095,9.2596259625963,1750560.4315912,2216.9237996649,2820200.5386785,14.459625962596,0,0
86.695458253449,-12.320551362089,9.2640564056406,1767128.7397275,11338.93217002,2807973.6309178,14.464056405641,0,0
86.695458419681,-12.322604486272,9.2684868486849,1767128.7397275,11338.93217002,2807973.6309178,14.468486848685,0,0
86.695458585913,-12.324657610456,9.2729172917292,1767128.7397275,11338.93217002,2807973.6309178,14.472917291729,0,0
86.695458752146,-12.32671073464,9.2773477347735,1767128.7397275,11338.93217002,2807973.6309178,14.477347734773,0,0
86.695458918378,-12.328763858823,9.2817781778178,1767128.7397275,11338.93217002,2807973.6309178,14.481778177818,0,0
86.695459084611,-12.330816983007,9.2862086208621,1767128.7397275,11338.93217002,2807973.6309178,14.486208620862,0,0
86.695459250843,-12.332870107191,9.2906390639064,1767128.7397275,11338.93217002,2807973.6309178,14.490639063906,0,0
86.695459417076,-12.334923231374,9.2950695069507,1767128.7397275,11338.93217002,2807973.6309178,14.495069506951,0,0
86.695459583308,-12.336976355558,9.299499949995,1767128.7397275,11338.93217002,2807973.6309178,14.499499949995,0,0
86.695459749541,-12.339029479741,9.3039303930393,1767128.7397275,11338.93217002,2807973.6309178,14.503930393039,0,0
86.695459915773,-12.341082603925,9.3083608360836,1767128.7397275,11338.93217002,2807973.6309178,14.508360836084,0,0
86.695460082006,-12.343135728109,9.3127912791279,1767128.7397275,11338.93217002,2807973.6309178,14.512791279128,0,0
86.695460248238,-12.345188852292,9.3172217221722,1767128.7397275,11338.93217002,2807973.6309178,14.517221722172,0,0
86.695460414471,-12.347241976476,9.3216521652165,1767128.7397275,11338.93217002,2807973.6309178,14.521652165217,0,0
86.695460581075,-12.349295101943,9.3260826082608,1768748.326347,662.68068394486,2781207.7393205,14.526082608261,0,0
86.69546074815,-12.351348229033,9.3305130513051,1768748.326347,662.68068394486,2781207.7393205,14.530513051305,0,0
86.695460915224,-12.353401356123,9.3349434943494,1768748.326347,662.68068394486,2781207.7393205,14.534943494349,0,0
86.695461082299,-12.355454483212,9.3393739373937,1768748.326347,662.68068394486,2781207.7393205,14.539373937394,0,0
86.695461249373,-12.357507610302,9.343804380438,1768748.326347,662.68068394486,2781207.7393205,14.543804380438,0,0
86.695461416448,-12.359560737392,9.3482348234823,1768748.326347,662.68068394486,2781207.7393205,14.548234823482,0,0
86.695461583522,-12.361613864482,9.3526652665267,1768748.326347,662.68068394486,2781207.7393205,14.552665266527,0,0
86.695461750597,-12.363666991571,9.357095709571,1768748.326347,662.68068394486,2781207.7393205,14.557095709571,0,0
86.695461917671,-12.365720118661,9.3615261526153,1768748.326347,662.68068394486,2781207.7393205,14.561526152615,0,0
86.695462084746,-12.367773245751,9.3659565956596,1768748.326347,662.68068394486,2781207.7393205,14.56595659566,0,0
86.69546225182,-12.36982637284,9.3703870387039,1768748.326347,662.68068394486,2781207.7393205,14.570387038704,0,0
86.695462418895,-12.37187949993,9.3748174817482,1768748.326347,662.68068394486,2781207.7393205,14.574817481748,0,0
86.695462585969,-12.37393262702,9.3792479247925,1768748.326347,662.68068394486,2781207.7393205,14.579247924792,0,0
86.695462753044,-12.375985754109,9.3836783678368,1768748.326347,662.68068394486,2781207.7393205,14.583678367837,0,0
86.695462920118,-12.378038881199,9.3881088108811,1768748.326347,662.68068394486,2781207.7393205,14.588108810881,0,0
86.695463087192,-12.380092008289,9.3925392539254,1768748.326347,662.68068394486,2781207.7393205,14.592539253925,0,0
86.695463254267,-12.382145135378,9.3969696969697,1768748.326347,662.68068394486,2781207.7393205,14.59696969697,0,0
86.695463421341,-12.384198262468,9.401400140014,1768748.326347,662.68068394486,2781207.7393205,14.601400140014,0,0
86.695463588416,-12.386251389558,9.4058305830583,1768748.326347,662.68068394486,2781207.7393205,14.605830583058,0,0
86.69546375549,-12.388304516647,9.4102610261026,1768748.326347,662.68068394486,2781207.7393205,14.610261026103,0,0
86.695463922565,-12.390357643737,9.4146914691469,1768748.326347,662.68068394486,2781207.7393205,14.614691469147,0,0
86.695464089639,-12.392410770827,9.4191219121912,1768748.326347,662.68068394486,2781207.7393205,14.619121912191,0,0
86.695464256714,-12.394463897916,9.4235523552355,1768748.326347,662.68068394486,2781207.7393205,14.623552355236,0,0
86.695464423788,-12.396517025006,9.4279827982798,1768748.326347,662.68068394486,2781207.7393205,14.62798279828,0,0
86.695464590863,-12.398570152096,9.4324132413241,1768748.326347,662.68068394486,2781207.7393205,14.632413241324,0,0
86.695464757937,-12.400623279185,9.4368436843684,1768748.326347,662.68068394486,2781207.7393205,14.636843684368,0,0
86.695464925012,-12.402676406275,9.4412741274127,1768748.326347,662.68068394486,2781207.7393205,14.641274127413,0,0
86.695465092086,-12.404729533365,9.445704570457,1768748.326347,662.68068394486,2781207.7393205,14.645704570457,0,0
86.695465259161,-12.406782660454,9.4501350135013,1768748.326347,662.68068394486,2781207.7393205,14.650135013501,0,0
86.695465426235,-12.408835787544,9.4545654565457,1768748.326347,662.68068394486,2781207.7393205,14.654565456546,0,0
86.69546559331,-12.410888914634,9.45899589959,1768748.326347,662.68068394486,2781207.7393205,14.65899589959,0,0
86.695465760384,-12.412942041723,9.4634263426343,1768748.326347,662.68068394486,2781207.7393205,14.663426342634,0,0
86.695465927459,-12.414995168813,9.4678567856786,1768748.326347,662.68068394486,2781207.7393205,14.667856785679,0,0
86.695466094533,-12.417048295903,9.4722872287229,1768748.326347,662.68068394486,2781207.7393205,14.672287228723,0,0
86.695466261608,-12.419101422992,9.4767176717672,1768748.326347,662.68068394486,2781207.7393205,14.676717671767,0,0
86.695466428682,-12.421154550082,9.4811481148115,1768748.326347,662.68068394486,2781207.7393205,14.681148114811,0,0
86.695466595757,-12.423207677172,9.4855785578558,1768748.326347,662.68068394486,2781207.7393205,14.685578557856,0,0
86.695466762831,-12.425260804261,9.4900090009001,1768748.326347,662.68068394486,2781207.7393205,14.6900090009,0,0
86.695466929906,-12.427313931351,9.4944394439444,1768748.326347,662.68068394486,2781207.7393205,14.694439443944,0,0
86.69546709698,-12.429367058441,9.4988698869887,1768748.326347,662.68068394486,2781207.7393205,14.698869886989,0,0
86.695467264055,-12.43142018553,9.503300330033,1768748.326347,662.68068394486,2781207.7393205,14.703300330033,0,0
86.695467431129,-12.43347331262,9.5077307730773,1768748.326347,662.68068394486,2781207.7393205,14.707730773077,0,0
86.695467598204,-12.43552643971,9.5121612161216,1768748.326347,662.68068394486,2781207.7393205,14.712161216122,0,0
86.695467765278,-12.437579566799,9.5165916591659,1768748.326347,662.68068394486,2781207.7393205,14.716591659166,0,0
86.695467932353,-12.439632693889,9.5210221022102,1768748.326347,662.68068394486,2781207.7393205,14.72102210221,0,0
86.695468099427,-12.441685820979,9.5254525452545,1768748.326347,662.68068394486,2781207.7393205,14.725452545255,0,0
86.695468266502,-12.443738948068,9.5298829882988,1768748.326347,662.68068394486,2781207.7393205,14.729882988299,0,0
86.695468433576,-12.445792075158,9.5343134313431,1768748.326347,662.68068394486,2781207.7393205,14.734313431343,0,0
86.695468600651,-12.447845202248,9.5387438743874,1768748.326347,662.68068394486,2781207.7393205,14.738743874387,0,0
86.695468767725,-12.449898329337,9.5431743174317,1768748.326347,662.68068394486,2781207.7393205,14.743174317432,0,0
86.6954689348,-12.451951456427,9.547604760476,1768748.326347,662.68068394486,2781207.7393205,14.747604760476,0,0
86.695469101874,-12.454004583517,9.5520352035204,1768748.326347,662.68068394486,2781207.7393205,14.75203520352,0,0
86.695469268949,-12.456057710606,9.5564656465647,1768748.326347,662.68068394486,2781207.7393205,14.756465646565,0,0
86.695469436023,-12.458110837696,9.560896089609,1768748.326347,662.68068394486,2781207.7393205,14.760896089609,0,0
86.695469603098,-12.460163964786,9.5653265326533,1768748.326347,662.68068394486,2781207.7393205,14.765326532653,0,0
86.695469770172,-12.462217091875,9.5697569756976,1768748.326347,662.68068394486,2781207.7393205,14.769756975698,0,0
86.695469937247,-12.464270218965,9.5741874187419,1768748.326347,662.68068394486,2781207.7393205,14.774187418742,0,0
86.695470104321,-12.466323346055,9.5786178617862,1768748.326347,662.68068394486,2781207.7393205,14.778617861786,0,0
86.695470271396,-12.468376473144,9.5830483048305,1768748.326347,662.68068394486,2781207.7393205,14.78304830483,0,0
86.69547043847,-12.470429600234,9.5874787478748,1768748.326347,662.68068394486,2781207.7393205,14.787478747875,0,0
86.695470605545,-12.472482727324,9.5919091909191,1768748.326347,662.68068394486,2781207.7393205,14.791909190919,0,0
86.695470772619,-12.474535854413,9.5963396339634,1768748.326347,662.68068394486,2781207.7393205,14.796339633963,0,0
86.695470939693,-12.476588981503,9.6007700770077,1768748.326347,662.68068394486,2781207.7393205,14.800770077008,0,0
86.695471106768,-12.478642108593,9.605200520052,1768748.326347,662.68068394486,2781207.7393205,14.805200520052,0,0
86.695471273842,-12.480695235682,9.6096309630963,1768748.326347,662.68068394486,2781207.7393205,14.809630963096,0,0
86.695471440917,-12.482748362772,9.6140614061406,1768748.326347,662.68068394486,2781207.7393205,14.814061406141,0,0
86.695471607991,-12.484801489862,9.6184918491849,1768748.326347,662.68068394486,2781207.7393205,14.818491849185,0,0
86.695471775066,-12.486854616951,9.6229222922292,1768748.326347,662.68068394486,2781207.7393205,14.822922292229,0,0
86.69547194214,-12.488907744041,9.6273527352735,1768748.326347,662.68068394486,2781207.7393205,14.827352735274,0,0
86.695472109215,-12.490960871131,9.6317831783178,1768748.326347,662.68068394486,2781207.7393205,14.831783178318,0,0
86.695472276289,-12.49301399822,9.6362136213621,1768748.326347,662.68068394486,2781207.7393205,14.836213621362,0,0
86.695472443364,-12.49506712531,9.6406440644064,1768748.326347,662.68068394486,2781207.7393205,14.840644064406,0,0
86.695472610438,-12.4971202524,9.6450745074507,1768748.326347,662.68068394486,2781207.7393205,14.845074507451,0,0
86.695472777513,-12.49917337949,9.6495049504951,1768748.326347,662.68068394486,2781207.7393205,14.849504950495,0,0
86.695472944587,-12.501226506579,9.6539353935394,1768748.326347,662.68068394486,2781207.7393205,14.853935393539,0,0
86.695473111662,-12.503279633669,9.6583658365837,1768748.326347,662.68068394486,2781207.7393205,14.858365836584,0,0
86.695473278736,-12.505332760759,9.662796279628,1768748.326347,662.68068394486,2781207.7393205,14.862796279628,0,0
86.695473445811,-12.507385887848,9.6672267226723,1768748.326347,662.68068394486,2781207.7393205,14.867226722672,0,0
86.695473612885,-12.509439014938,9.6716571657166,1768748.326347,662.68068394486,2781207.7393205,14.871657165717,0,0
86.69547377996,-12.511492142028,9.6760876087609,1768748.326347,662.68068394486,2781207.7393205,14.876087608761,0,0
86.695473947034,-12.513545269117,9.6805180518052,1768748.326347,662.68068394486,2781207.7393205,14.880518051805,0,0
86.695474114109,-12.515598396207,9.6849484948495,1768748.326347,662.68068394486,2781207.7393205,14.884948494849,0,0
86.695474281183,-12.517651523297,9.6893789378938,1768748.326347,662.68068394486,2781207.7393205,14.889378937894,0,0
86.695474448258,-12.519704650386,9.6938093809381,1768748.326347,662.68068394486,2781207.7393205,14.893809380938,0,0
86.695474615332,-12.521757777476,9.6982398239824,1768748.326347,662.68068394486,2781207.7393205,14.898239823982,0,0
86.695474782407,-12.523810904566,9.7026702670267,1768748.326347,662.68068394486,2781207.7393205,14.902670267027,0,0
86.695474949481,-12.525864031655,9.707100710071,1768748.326347,662.68068394486,2781207.7393205,14.907100710071,0,0
86.695475116556,-12.527917158745,9.7115311531153,1768748.326347,662.68068394486,2781207.7393205,14.911531153115,0,0
86.69547528363,-12.529970285835,9.7159615961596,1768748.326347,662.68068394486,2781207.7393205,14.91596159616,0,0
86.695475450705,-12.532023412924,9.7203920392039,1768748.326347,662.68068394486,2781207.7393205,14.920392039204,0,0
86.695475617779,-12.534076540014,9.7248224822482,1768748.326347,662.68068394486,2781207.7393205,14.924822482248,0,0
86.695475784854,-12.536129667104,9.7292529252925,1768748.326347,662.68068394486,2781207.7393205,14.929252925293,0,0
86.695475951928,-12.538182794193,9.7336833683368,1768748.326347,662.68068394486,2781207.7393205,14.933683368337,0,0
86.695476119003,-12.540235921283,9.7381138113811,1768748.326347,662.68068394486,2781207.7393205,14.938113811381,0,0
86.695476286077,-12.542289048373,9.7425442544254,1768748.326347,662.68068394486,2781207.7393205,14.942544254425,0,0
86.695476453152,-12.544342175462,9.7469746974697,1768748.326347,662.68068394486,2781207.7393205,14.94697469747,0,0
86.695476620226,-12.546395302552,9.7514051405141,1768748.326347,662.68068394486,2781207.7393205,14.951405140514,0,0
86.695476787301,-12.548448429642,9.7558355835584,1768748.326347,662.68068394486,2781207.7393205,14.955835583558,0,0
86.695476954375,-12.550501556731,9.7602660266027,1768748.326347,662.68068394486,2781207.7393205,14.960266026603,0,0
86.69547712145,-12.552554683821,9.764696469647,1768748.326347,662.68068394486,2781207.7393205,14.964696469647,0,0
86.695477288524,-12.554607810911,9.7691269126913,1768748.326347,662.68068394486,2781207.7393205,14.969126912691,0,0
86.695477455599,-12.556660938,9.7735573557356,1768748.326347,662.68068394486,2781207.7393205,14.973557355736,0,0
86.695477622673,-12.55871406509,9.7779877987799,1768748.326347,662.68068394486,2781207.7393205,14.97798779878,0,0
86.695477789748,-12.56076719218,9.7824182418242,1768748.326347,662.68068394486,2781207.7393205,14.982418241824,0,0
86.695477956822,-12.562820319269,9.7868486848685,1768748.326347,662.68068394486,2781207.7393205,14.986848684868,0,0
86.695478123897,-12.564873446359,9.7912791279128,1768748.326347,662.68068394486,2781207.7393205,14.991279127913,0,0
86.695478290971,-12.566926573449,9.7957095709571,1768748.326347,662.68068394486,2781207.7393205,14.995709570957,0,0
86.695478458046,-12.568979700538,9.8001400140014,1768748.326347,662.68068394486,2781207.7393205,15.000140014001,0,0
86.69547862512,-12.571032827628,9.8045704570457,1768748.326347,662.68068394486,2781207.7393205,15.004570457046,0,0
86.695478792195,-12.573085954718,9.80900090009,1768748.326347,662.68068394486,2781207.7393205,15.00900090009,0,0
86.695478959269,-12.575139081807,9.8134313431343,1768748.326347,662.68068394486,2781207.7393205,15.013431343134,0,0
86.695479126343,-12.577192208897,9.8178617861786,1768748.326347,662.68068394486,2781207.7393205,15.017861786179,0,0
86.695479293418,-12.579245335987,9.8222922292229,1768748.326347,662.68068394486,2781207.7393205,15.022292229223,0,0
86.695479460492,-12.581298463076,9.8267226722672,1768748.326347,662.68068394486,2781207.7393205,15.026722672267,0,0
86.695479627567,-12.583351590166,9.8311531153115,1768748.326347,662.68068394486,2781207.7393205,15.031153115312,0,0
86.695479794641,-12.585404717256,9.8355835583558,1768748.326347,662.68068394486,2781207.7393205,15.035583558356,0,0
86.695479961716,-12.587457844345,9.8400140014001,1768748.326347,662.68068394486,2781207.7393205,15.0400140014,0,0
86.69548012879,-12.589510971435,9.8444444444444,1768748.326347,662.68068394486,2781207.7393205,15.044444444444,0,0
86.695480295865,-12.591564098525,9.8488748874887,1768748.326347,662.68068394486,2781207.7393205,15.048874887489,0,0
86.695480462939,-12.593617225614,9.8533053305331,1768748.326347,662.68068394486,2781207.7393205,15.053305330533,0,0
86.695480630014,-12.595670352704,9.8577357735774,1768748.326347,662.68068394486,2781207.7393205,15.057735773577,0,0
86.695480797088,-12.597723479794,9.8621662166217,1768748.326347,662.68068394486,2781207.7393205,15.062166216622,0,0
86.695480964163,-12.599776606883,9.866596659666,1768748.326347,662.68068394486,2781207.7393205,15.066596659666,0,0
86.695481131237,-12.601829733973,9.8710271027103,1768748.326347,662.68068394486,2781207.7393205,15.07102710271,0,0
86.695481298312,-12.603882861063,9.8754575457546,1768748.326347,662.68068394486,2781207.7393205,15.075457545755,0,0
86.695481465386,-12.605935988152,9.8798879887989,1768748.326347,662.68068394486,2781207.7393205,15.079887988799,0,0
86.695481632461,-12.607989115242,9.8843184318432,1768748.326347,662.68068394486,2781207.7393205,15.084318431843,0,0
86.695481799535,-12.610042242332,9.8887488748875,1768748.326347,662.68068394486,2781207.7393205,15.088748874887,0,0
86.69548196661,-12.612095369421,9.8931793179318,1768748.326347,662.68068394486,2781207.7393205,15.093179317932,0,0
86.695482133684,-12.614148496511,9.8976097609761,1768748.326347,662.68068394486,2781207.7393205,15.097609760976,0,0
86.695482300759,-12.616201623601,9.9020402040204,1768748.326347,662.68068394486,2781207.7393205,15.10204020402,0,0
86.695482467833,-12.61825475069,9.9064706470647,1768748.326347,662.68068394486,2781207.7393205,15.106470647065,0,0
86.695482634908,-12.62030787778,9.910901090109,1768748.326347,662.68068394486,2781207.7393205,15.110901090109,0,0
86.695482801982,-12.62236100487,9.9153315331533,1768748.326347,662.68068394486,2781207.7393205,15.115331533153,0,0
86.695482969057,-12.624414131959,9.9197619761976,1768748.326347,662.68068394486,2781207.7393205,15.119761976198,0,0
86.695483136131,-12.626467259049,9.9241924192419,1768748.326347,662.68068394486,2781207.7393205,15.124192419242,0,0
86.695483303206,-12.628520386139,9.9286228622862,1768748.326347,662.68068394486,2781207.7393205,15.128622862286,0,0
86.69548347028,-12.630573513229,9.9330533053305,1768748.326347,662.68068394486,2781207.7393205,15.133053305331,0,0
86.695483637355,-12.632626640318,9.9374837483748,1768748.326347,662.68068394486,2781207.7393205,15.137483748375,0,0
86.695483804429,-12.634679767408,9.9419141914191,1768748.326347,662.68068394486,2781207.7393205,15.141914191419,0,0
86.695483971504,-12.636732894498,9.9463446344634,1768748.326347,662.68068394486,2781207.7393205,15.146344634463,0,0
86.695484138578,-12.638786021587,9.9507750775077,1768748.326347,662.68068394486,2781207.7393205,15.150775077508,0,0
86.695484305653,-12.640839148677,9.9552055205521,1768748.326347,662.68068394486,2781207.7393205,15.155205520552,0,0
86.695484472727,-12.642892275767,9.9596359635964,1768748.326347,662.68068394486,2781207.7393205,15.159635963596,0,0
86.695484639802,-12.644945402856,9.9640664066407,1768748.326347,662.68068394486,2781207.7393205,15.164066406641,0,0
86.695484806876,-12.646998529946,9.968496849685,1768748.326347,662.68068394486,2781207.7393205,15.168496849685,0,0
86.695484973951,-12.649051657036,9.9729272927293,1768748.326347,662.68068394486,2781207.7393205,15.172927292729,0,0
86.695485141025,-12.651104784125,9.9773577357736,1768748.326347,662.68068394486,2781207.7393205,15.177357735774,0,0
86.6954853081,-12.653157911215,9.9817881788179,1768748.326347,662.68068394486,2781207.7393205,15.181788178818,0,0
86.695485475174,-12.655211038305,9.9862186218622,1768748.326347,662.68068394486,2781207.7393205,15.186218621862,0,0
86.695485642249,-12.657264165394,9.9906490649065,1768748.326347,662.68068394486,2781207.7393205,15.190649064906,0,0
86.695485809323,-12.659317292484,9.9950795079508,1768748.326347,662.68068394486,2781207.7393205,15.195079507951,0,0
86.695485976398,-12.661370419574,9.9995099509951,1768748.326347,662.68068394486,2781207.7393205,15.199509950995,0,0
86.695486143472,-12.663423546663,10.003940394039,1768748.326347,662.68068394486,2781207.7393205,15.203940394039,0,0
86.695486310547,-12.665476673753,10.008370837084,1768748.326347,662.68068394486,2781207.7393205,15.208370837084,0,0
86.695486477621,-12.667529800843,10.012801280128,1768748.326347,662.68068394486,2781207.7393205,15.212801280128,0,0
86.695486644696,-12.669582927932,10.017231723172,1768748.326347,662.68068394486,2781207.7393205,15.217231723172,0,0
86.69548681177,-12.671636055022,10.021662166217,1768748.326347,662.68068394486,2781207.7393205,15.221662166217,0,0
86.695486978844,-12.673689182112,10.026092609261,1768748.326347,662.68068394486,2781207.7393205,15.226092609261,0,0
86.695487145919,-12.675742309201,10.030523052305,1768748.326347,662.68068394486,2781207.7393205,15.230523052305,0,0
86.695487312993,-12.677795436291,10.03495349535,1768748.326347,662.68068394486,2781207.7393205,15.23495349535,0,0
86.695487480068,-12.679848563381,10.039383938394,1768748.326347,662.68068394486,2781207.7393205,15.239383938394,0,0
86.695487647142,-12.68190169047,10.043814381438,1768748.326347,662.68068394486,2781207.7393205,15.243814381438,0,0
86.695487814217,-12.68395481756,10.048244824482,1768748.326347,662.68068394486,2781207.7393205,15.248244824482,0,0
86.695487981291,-12.68600794465,10.052675267527,1768748.326347,662.68068394486,2781207.7393205,15.252675267527,0,0
86.695488148366,-12.688061071739,10.057105710571,1768748.326347,662.68068394486,2781207.7393205,15.257105710571,0,0
86.69548831544,-12.690114198829,10.061536153615,1768748.326347,662.68068394486,2781207.7393205,15.261536153615,0,0
86.695488482515,-12.692167325919,10.06596659666,1768748.326347,662.68068394486,2781207.7393205,15.26596659666,0,0
86.695488649589,-12.694220453008,10.070397039704,1768748.326347,662.68068394486,2781207.7393205,15.270397039704,0,0
86.695488816664,-12.696273580098,10.074827482748,1768748.326347,662.68068394486,2781207.7393205,15.274827482748,0,0
86.695488983738,-12.698326707188,10.079257925793,1768748.326347,662.68068394486,2781207.7393205,15.279257925793,0,0
86.695489150813,-12.700379834277,10.083688368837,1768748.326347,662.68068394486,2781207.7393205,15.283688368837,0,0
86.695489317887,-12.702432961367,10.088118811881,1768748.326347,662.68068394486,2781207.7393205,15.288118811881,0,0
86.695489484962,-12.704486088457,10.092549254925,1768748.326347,662.68068394486,2781207.7393205,15.292549254925,0,0
86.695489652036,-12.706539215546,10.09697969797,1768748.326347,662.68068394486,2781207.7393205,15.29697969797,0,0
86.695489819111,-12.708592342636,10.101410141014,1768748.326347,662.68068394486,2781207.7393205,15.301410141014,0,0
86.695489986185,-12.710645469726,10.105840584058,1768748.326347,662.68068394486,2781207.7393205,15.305840584058,0,0
86.69549015326,-12.712698596815,10.110271027103,1768748.326347,662.68068394486,2781207.7393205,15.310271027103,0,0
86.695490320334,-12.714751723905,10.114701470147,1768748.326347,662.68068394486,2781207.7393205,15.314701470147,0,0
86.695490487409,-12.716804850995,10.119131913191,1768748.326347,662.68068394486,2781207.7393205,15.319131913191,0,0
86.695490654483,-12.718857978084,10.123562356236,1768748.326347,662.68068394486,2781207.7393205,15.323562356236,0,0
86.695490821558,-12.720911105174,10.12799279928,1768748.326347,662.68068394486,2781207.7393205,15.32799279928,0,0
86.695490988632,-12.722964232264,10.132423242324,1768748.326347,662.68068394486,2781207.7393205,15.332423242324,0,0
86.695491155707,-12.725017359353,10.136853685369,1768748.326347,662.68068394486,2781207.7393205,15.336853685369,0,0
86.695491322781,-12.727070486443,10.141284128413,1768748.326347,662.68068394486,2781207.7393205,15.341284128413,0,0
86.695491489856,-12.729123613533,10.145714571457,1768748.326347,662.68068394486,2781207.7393205,15.345714571457,0,0
86.69549165693,-12.731176740622,10.150145014501,1768748.326347,662.68068394486,2781207.7393205,15.350145014501,0,0
86.695491824005,-12.733229867712,10.154575457546,1768748.326347,662.68068394486,2781207.7393205,15.354575457546,0,0
86.695491991079,-12.735282994802,10.15900590059,1768748.326347,662.68068394486,2781207.7393205,15.35900590059,0,0
86.695492158154,-12.737336121891,10.163436343634,1768748.326347,662.68068394486,2781207.7393205,15.363436343634,0,0
86.695492325228,-12.739389248981,10.167866786679,1768748.326347,662.68068394486,2781207.7393205,15.367866786679,0,0
86.695492492303,-12.741442376071,10.172297229723,1768748.326347,662.68068394486,2781207.7393205,15.372297229723,0,0
86.695492659377,-12.74349550316,10.176727672767,1768748.326347,662.68068394486,2781207.7393205,15.376727672767,0,0
86.695492826452,-12.74554863025,10.181158115812,1768748.326347,662.68068394486,2781207.7393205,15.381158115812,0,0
86.695492993526,-12.74760175734,10.185588558856,1768748.326347,662.68068394486,2781207.7393205,15.385588558856,0,0
86.695493160601,-12.749654884429,10.1900190019,1768748.326347,662.68068394486,2781207.7393205,15.3900190019,0,0
86.695493327675,-12.751708011519,10.194449444944,1768748.326347,662.68068394486,2781207.7393205,15.394449444944,0,0
86.69549349475,-12.753761138609,10.198879887989,1768748.326347,662.68068394486,2781207.7393205,15.398879887989,0,0
86.695493661824,-12.755814265698,10.203310331033,1768748.326347,662.68068394486,2781207.7393205,15.403310331033,0,0
86.695493828899,-12.757867392788,10.207740774077,1768748.326347,662.68068394486,2781207.7393205,15.407740774077,0,0
86.695493995973,-12.759920519878,10.212171217122,1768748.326347,662.68068394486,2781207.7393205,15.412171217122,0,0
86.69549416372,-12.761973645755,10.216601660166,1780503.4781344,7986.2843267619,2770085.1071796,15.416601660166,0,0
86.69549433203,-12.764026770618,10.22103210321,1780503.4781344,7986.2843267619,2770085.1071796,15.42103210321,0,0
86.695494500339,-12.766079895481,10.225462546255,1780503.4781344,7986.2843267619,2770085.1071796,15.425462546255,0,0
86.695494668649,-12.768133020345,10.229892989299,1780503.4781344,7986.2843267619,2770085.1071796,15.429892989299,0,0
86.695494836959,-12.770186145208,10.234323432343,1780503.4781344,7986.2843267619,2770085.1071796,15.434323432343,0,0
86.695495005268,-12.772239270071,10.238753875388,1780503.4781344,7986.2843267619,2770085.1071796,15.438753875388,0,0
86.695495173578,-12.774292394934,10.243184318432,1780503.4781344,7986.2843267619,2770085.1071796,15.443184318432,0,0
86.695495341887,-12.776345519798,10.247614761476,1780503.4781344,7986.2843267619,2770085.1071796,15.447614761476,0,0
86.695495510197,-12.778398644661,10.25204520452,1780503.4781344,7986.2843267619,2770085.1071796,15.45204520452,0,0
86.695495678507,-12.780451769524,10.256475647565,1780503.4781344,7986.2843267619,2770085.1071796,15.456475647565,0,0
86.695495846816,-12.782504894387,10.260906090609,1780503.4781344,7986.2843267619,2770085.1071796,15.460906090609,0,0
86.695496015126,-12.784558019251,10.265336533653,1780503.4781344,7986.2843267619,2770085.1071796,15.465336533653,0,0
86.695496183435,-12.786611144114,10.269766976698,1780503.4781344,7986.2843267619,2770085.1071796,15.469766976698,0,0
86.695496351745,-12.788664268977,10.274197419742,1780503.4781344,7986.2843267619,2770085.1071796,15.474197419742,0,0
86.695496520054,-12.79071739384,10.278627862786,1780503.4781344,7986.2843267619,2770085.1071796,15.478627862786,0,0
86.695496688364,-12.792770518704,10.283058305831,1780503.4781344,7986.2843267619,2770085.1071796,15.483058305831,0,0
86.695496856674,-12.794823643567,10.287488748875,1780503.4781344,7986.2843267619,2770085.1071796,15.487488748875,0,0
86.695497024983,-12.79687676843,10.291919191919,1780503.4781344,7986.2843267619,2770085.1071796,15.491919191919,0,0
86.695497193293,-12.798929893293,10.296349634963,1780503.4781344,7986.2843267619,2770085.1071796,15.496349634963,0,0
86.695497361602,-12.800983018157,10.300780078008,1780503.4781344,7986.2843267619,2770085.1071796,15.500780078008,0,0
86.695497529912,-12.80303614302,10.305210521052,1780503.4781344,7986.2843267619,2770085.1071796,15.505210521052,0,0
86.695497698222,-12.805089267883,10.309640964096,1780503.4781344,7986.2843267619,2770085.1071796,15.509640964096,0,0
86.695497866531,-12.807142392746,10.314071407141,1780503.4781344,7986.2843267619,2770085.1071796,15.514071407141,0,0
86.695498034841,-12.80919551761,10.318501850185,1780503.4781344,7986.2843267619,2770085.1071796,15.518501850185,0,0
86.69549820315,-12.811248642473,10.322932293229,1780503.4781344,7986.2843267619,2770085.1071796,15.522932293229,0,0
86.69549837146,-12.813301767336,10.327362736274,1780503.4781344,7986.2843267619,2770085.1071796,15.527362736274,0,0
86.695498539769,-12.815354892199,10.331793179318,1780503.4781344,7986.2843267619,2770085.1071796,15.531793179318,0,0
86.695498708079,-12.817408017063,10.336223622362,1780503.4781344,7986.2843267619,2770085.1071796,15.536223622362,0,0
86.695498876389,-12.819461141926,10.340654065407,1780503.4781344,7986.2843267619,2770085.1071796,15.540654065407,0,0
86.695499044698,-12.821514266789,10.345084508451,1780503.4781344,7986.2843267619,2770085.1071796,15.545084508451,0,0
86.695499213008,-12.823567391652,10.349514951495,1780503.4781344,7986.2843267619,2770085.1071796,15.549514951495,0,0
86.695499381317,-12.825620516516,10.353945394539,1780503.4781344,7986.2843267619,2770085.1071796,15.553945394539,0,0
86.695499549627,-12.827673641379,10.358375837584,1780503.4781344,7986.2843267619,2770085.1071796,15.558375837584,0,0
86.695499717937,-12.829726766242,10.362806280628,1780503.4781344,7986.2843267619,2770085.1071796,15.562806280628,0,0
86.695499886246,-12.831779891105,10.367236723672,1780503.4781344,7986.2843267619,2770085.1071796,15.567236723672,0,0
86.695500054556,-12.833833015969,10.371667166717,1780503.4781344,7986.2843267619,2770085.1071796,15.571667166717,0,0
86.695500222865,-12.835886140832,10.376097609761,1780503.4781344,7986.2843267619,2770085.1071796,15.576097609761,0,0
86.695500391175,-12.837939265695,10.380528052805,1780503.4781344,7986.2843267619,2770085.1071796,15.580528052805,0,0
86.695500559485,-12.839992390558,10.38495849585,1780503.4781344,7986.2843267619,2770085.1071796,15.58495849585,0,0
86.695500727794,-12.842045515422,10.389388938894,1780503.4781344,7986.2843267619,2770085.1071796,15.589388938894,0,0
86.695500896104,-12.844098640285,10.393819381938,1780503.4781344,7986.2843267619,2770085.1071796,15.593819381938,0,0
86.69550106481,-12.846151766309,10.398249824982,1784095.2193279,-1039.6938404256,2748081.244219,15.598249824982,0,0
86.695501233992,-12.848204893727,10.402680268027,1784095.2193279,-1039.6938404256,2748081.244219,15.602680268027,0,0
86.695501403174,-12.850258021146,10.407110711071,1784095.2193279,-1039.6938404256,2748081.244219,15.607110711071,0,0
86.695501572357,-12.852311148565,10.411541154115,1784095.2193279,-1039.6938404256,2748081.244219,15.611541154115,0,0
86.695501741539,-12.854364275984,10.41597159716,1784095.2193279,-1039.6938404256,2748081.244219,15.61597159716,0,0
86.695501910721,-12.856417403402,10.420402040204,1784095.2193279,-1039.6938404256,2748081.244219,15.620402040204,0,0
86.695502079904,-12.858470530821,10.424832483248,1784095.2193279,-1039.6938404256,2748081.244219,15.624832483248,0,0
86.695502249086,-12.86052365824,10.429262926293,1784095.2193279,-1039.6938404256,2748081.244219,15.629262926293,0,0
86.695502418268,-12.862576785658,10.433693369337,1784095.2193279,-1039.6938404256,2748081.244219,15.633693369337,0,0
86.695502587451,-12.864629913077,10.438123812381,1784095.2193279,-1039.6938404256,2748081.244219,15.638123812381,0,0
86.695502756633,-12.866683040496,10.442554255426,1784095.2193279,-1039.6938404256,2748081.244219,15.642554255426,0,0
86.695502925815,-12.868736167915,10.44698469847,1784095.2193279,-1039.6938404256,2748081.244219,15.64698469847,0,0
86.695503094998,-12.870789295333,10.451415141514,1784095.2193279,-1039.6938404256,2748081.244219,15.651415141514,0,0
86.69550326418,-12.872842422752,10.455845584558,1784095.2193279,-1039.6938404256,2748081.244219,15.655845584558,0,0
86.695503433362,-12.874895550171,10.460276027603,1784095.2193279,-1039.6938404256,2748081.244219,15.660276027603,0,0
86.695503602545,-12.87694867759,10.464706470647,1784095.2193279,-1039.6938404256,2748081.244219,15.664706470647,0,0
86.695503771727,-12.879001805008,10.469136913691,1784095.2193279,-1039.6938404256,2748081.244219,15.669136913691,0,0
86.695503940909,-12.881054932427,10.473567356736,1784095.2193279,-1039.6938404256,2748081.244219,15.673567356736,0,0
86.695504110092,-12.883108059846,10.47799779978,1784095.2193279,-1039.6938404256,2748081.244219,15.67799779978,0,0
86.695504279274,-12.885161187264,10.482428242824,1784095.2193279,-1039.6938404256,2748081.244219,15.682428242824,0,0
86.695504448456,-12.887214314683,10.486858685869,1784095.2193279,-1039.6938404256,2748081.244219,15.686858685869,0,0
86.695504617639,-12.889267442102,10.491289128913,1784095.2193279,-1039.6938404256,2748081.244219,15.691289128913,0,0
86.695504786821,-12.891320569521,10.495719571957,1784095.2193279,-1039.6938404256,2748081.244219,15.695719571957,0,0
86.695504956003,-12.893373696939,10.500150015001,1784095.2193279,-1039.6938404256,2748081.244219,15.700150015001,0,0
86.695505125186,-12.895426824358,10.504580458046,1784095.2193279,-1039.6938404256,2748081.244219,15.704580458046,0,0
86.695505294368,-12.897479951777,10.50901090109,1784095.2193279,-1039.6938404256,2748081.244219,15.70901090109,0,0
86.69550546355,-12.899533079195,10.513441344134,1784095.2193279,-1039.6938404256,2748081.244219,15.713441344134,0,0
86.695505632733,-12.901586206614,10.517871787179,1784095.2193279,-1039.6938404256,2748081.244219,15.717871787179,0,0
86.695505801915,-12.903639334033,10.522302230223,1784095.2193279,-1039.6938404256,2748081.244219,15.722302230223,0,0
86.695505971097,-12.905692461452,10.526732673267,1784095.2193279,-1039.6938404256,2748081.244219,15.726732673267,0,0
86.69550614028,-12.90774558887,10.531163116312,1784095.2193279,-1039.6938404256,2748081.244219,15.731163116312,0,0
86.695506309462,-12.909798716289,10.535593559356,1784095.2193279,-1039.6938404256,2748081.244219,15.735593559356,0,0
86.695506478644,-12.911851843708,10.5400240024,1784095.2193279,-1039.6938404256,2748081.244219,15.7400240024,0,0
86.695506647827,-12.913904971126,10.544454445445,1784095.2193279,-1039.6938404256,2748081.244219,15.744454445445,0,0
86.695506817009,-12.915958098545,10.548884888489,1784095.2193279,-1039.6938404256,2748081.244219,15.748884888489,0,0
86.695506986191,-12.918011225964,10.553315331533,1784095.2193279,-1039.6938404256,2748081.244219,15.753315331533,0,0
86.695507155374,-12.920064353383,10.557745774577,1784095.2193279,-1039.6938404256,2748081.244219,15.757745774577,0,0
86.695507324556,-12.922117480801,10.562176217622,1784095.2193279,-1039.6938404256,2748081.244219,15.762176217622,0,0
86.695507493738,-12.92417060822,10.566606660666,1784095.2193279,-1039.6938404256,2748081.244219,15.766606660666,0,0
86.695507662921,-12.926223735639,10.57103710371,1784095.2193279,-1039.6938404256,2748081.244219,15.77103710371,0,0
86.695507832103,-12.928276863057,10.575467546755,1784095.2193279,-1039.6938404256,2748081.244219,15.775467546755,0,0
86.695508001285,-12.930329990476,10.579897989799,1784095.2193279,-1039.6938404256,2748081.244219,15.779897989799,0,0
86.695508170468,-12.932383117895,10.584328432843,1784095.2193279,-1039.6938404256,2748081.244219,15.784328432843,0,0
86.69550833965,-12.934436245314,10.588758875888,1784095.2193279,-1039.6938404256,2748081.244219,15.788758875888,0,0
86.695508508832,-12.936489372732,10.593189318932,1784095.2193279,-1039.6938404256,2748081.244219,15.793189318932,0,0
86.695508678015,-12.938542500151,10.597619761976,1784095.2193279,-1039.6938404256,2748081.244219,15.797619761976,0,0
86.695508847197,-12.94059562757,10.602050205021,1784095.2193279,-1039.6938404256,2748081.244219,15.80205020502,0,0
86.695509016379,-12.942648754988,10.606480648065,1784095.2193279,-1039.6938404256,2748081.244219,15.806480648065,0,0
86.695509185562,-12.944701882407,10.610911091109,1784095.2193279,-1039.6938404256,2748081.244219,15.810911091109,0,0
86.695509354744,-12.946755009826,10.615341534153,1784095.2193279,-1039.6938404256,2748081.244219,15.815341534153,0,0
86.695509523926,-12.948808137245,10.619771977198,1784095.2193279,-1039.6938404256,2748081.244219,15.819771977198,0,0
86.695509693109,-12.950861264663,10.624202420242,1784095.2193279,-1039.6938404256,2748081.244219,15.824202420242,0,0
86.695509862291,-12.952914392082,10.628632863286,1784095.2193279,-1039.6938404256,2748081.244219,15.828632863286,0,0
86.695510031473,-12.954967519501,10.633063306331,1784095.2193279,-1039.6938404256,2748081.244219,15.833063306331,0,0
86.695510200656,-12.957020646919,10.637493749375,1784095.2193279,-1039.6938404256,2748081.244219,15.837493749375,0,0
86.695510369838,-12.959073774338,10.641924192419,1784095.2193279,-1039.6938404256,2748081.244219,15.841924192419,0,0
86.69551053902,-12.961126901757,10.646354635464,1784095.2193279,-1039.6938404256,2748081.244219,15.846354635464,0,0
86.695510708203,-12.963180029176,10.650785078508,1784095.2193279,-1039.6938404256,2748081.244219,15.850785078508,0,0
86.695510877385,-12.965233156594,10.655215521552,1784095.2193279,-1039.6938404256,2748081.244219,15.855215521552,0,0
86.695511046567,-12.967286284013,10.659645964596,1784095.2193279,-1039.6938404256,2748081.244219,15.859645964596,0,0
86.69551121575,-12.969339411432,10.664076407641,1784095.2193279,-1039.6938404256,2748081.244219,15.864076407641,0,0
86.695511384932,-12.971392538851,10.668506850685,1784095.2193279,-1039.6938404256,2748081.244219,15.868506850685,0,0
86.695511554114,-12.973445666269,10.672937293729,1784095.2193279,-1039.6938404256,2748081.244219,15.872937293729,0,0
86.695511723297,-12.975498793688,10.677367736774,1784095.2193279,-1039.6938404256,2748081.244219,15.877367736774,0,0
86.695511892479,-12.977551921107,10.681798179818,1784095.2193279,-1039.6938404256,2748081.244219,15.881798179818,0,0
86.695512061661,-12.979605048525,10.686228622862,1784095.2193279,-1039.6938404256,2748081.244219,15.886228622862,0,0
86.695512230844,-12.981658175944,10.690659065907,1784095.2193279,-1039.6938404256,2748081.244219,15.890659065907,0,0
86.695512400026,-12.983711303363,10.695089508951,1784095.2193279,-1039.6938404256,2748081.244219,15.895089508951,0,0
86.695512569208,-12.985764430782,10.699519951995,1784095.2193279,-1039.6938404256,2748081.244219,15.899519951995,0,0
86.695512738391,-12.9878175582,10.70395039504,1784095.2193279,-1039.6938404256,2748081.244219,15.90395039504,0,0
86.695512907573,-12.989870685619,10.708380838084,1784095.2193279,-1039.6938404256,2748081.244219,15.908380838084,0,0
86.695513076756,-12.991923813038,10.712811281128,1784095.2193279,-1039.6938404256,2748081.244219,15.912811281128,0,0
86.695513245938,-12.993976940456,10.717241724172,1784095.2193279,-1039.6938404256,2748081.244219,15.917241724172,0,0
86.69551341512,-12.996030067875,10.721672167217,1784095.2193279,-1039.6938404256,2748081.244219,15.921672167217,0,0
86.695513584303,-12.998083195294,10.726102610261,1784095.2193279,-1039.6938404256,2748081.244219,15.926102610261,0,0
86.695513753485,-13.000136322713,10.730533053305,1784095.2193279,-1039.6938404256,2748081.244219,15.930533053305,0,0
86.695513922667,-13.002189450131,10.73496349635,1784095.2193279,-1039.6938404256,2748081.244219,15.93496349635,0,0
86.69551409185,-13.00424257755,10.739393939394,1784095.2193279,-1039.6938404256,2748081.244219,15.939393939394,0,0
86.695514261032,-13.006295704969,10.743824382438,1784095.2193279,-1039.6938404256,2748081.244219,15.943824382438,0,0
86.695514430214,-13.008348832387,10.748254825483,1784095.2193279,-1039.6938404256,2748081.244219,15.948254825483,0,0
86.695514599397,-13.010401959806,10.752685268527,1784095.2193279,-1039.6938404256,2748081.244219,15.952685268527,0,0
86.695514768579,-13.012455087225,10.757115711571,1784095.2193279,-1039.6938404256,2748081.244219,15.957115711571,0,0
86.695514937761,-13.014508214644,10.761546154615,1784095.2193279,-1039.6938404256,2748081.244219,15.961546154615,0,0
86.695515106944,-13.016561342062,10.76597659766,1784095.2193279,-1039.6938404256,2748081.244219,15.96597659766,0,0
86.695515276126,-13.018614469481,10.770407040704,1784095.2193279,-1039.6938404256,2748081.244219,15.970407040704,0,0
86.695515445308,-13.0206675969,10.774837483748,1784095.2193279,-1039.6938404256,2748081.244219,15.974837483748,0,0
86.695515614491,-13.022720724318,10.779267926793,1784095.2193279,-1039.6938404256,2748081.244219,15.979267926793,0,0
86.695515783673,-13.024773851737,10.783698369837,1784095.2193279,-1039.6938404256,2748081.244219,15.983698369837,0,0
86.695515952855,-13.026826979156,10.788128812881,1784095.2193279,-1039.6938404256,2748081.244219,15.988128812881,0,0
86.695516122038,-13.028880106575,10.792559255926,1784095.2193279,-1039.6938404256,2748081.244219,15.992559255926,0,0
86.69551629122,-13.030933233993,10.79698969897,1784095.2193279,-1039.6938404256,2748081.244219,15.99698969897,0,0
86.695516460402,-13.032986361412,10.801420142014,1784095.2193279,-1039.6938404256,2748081.244219,16.001420142014,0,0
86.695516629585,-13.035039488831,10.805850585059,1784095.2193279,-1039.6938404256,2748081.244219,16.005850585059,0,0
86.695516798767,-13.037092616249,10.810281028103,1784095.2193279,-1039.6938404256,2748081.244219,16.010281028103,0,0
86.695516967949,-13.039145743668,10.814711471147,1784095.2193279,-1039.6938404256,2748081.244219,16.014711471147,0,0
86.695517137132,-13.041198871087,10.819141914191,1784095.2193279,-1039.6938404256,2748081.244219,16.019141914191,0,0
86.695517306314,-13.043251998506,10.823572357236,1784095.2193279,-1039.6938404256,2748081.244219,16.023572357236,0,0
86.695517475496,-13.045305125924,10.82800280028,1784095.2193279,-1039.6938404256,2748081.244219,16.02800280028,0,0
86.695517644679,-13.047358253343,10.832433243324,1784095.2193279,-1039.6938404256,2748081.244219,16.032433243324,0,0
86.695517813861,-13.049411380762,10.836863686369,1784095.2193279,-1039.6938404256,2748081.244219,16.036863686369,0,0
86.695517983043,-13.05146450818,10.841294129413,1784095.2193279,-1039.6938404256,2748081.244219,16.041294129413,0,0
86.695518152226,-13.053517635599,10.845724572457,1784095.2193279,-1039.6938404256,2748081.244219,16.045724572457,0,0
86.695518321408,-13.055570763018,10.850155015502,1784095.2193279,-1039.6938404256,2748081.244219,16.050155015502,0,0
86.69551849059,-13.057623890437,10.854585458546,1784095.2193279,-1039.6938404256,2748081.244219,16.054585458546,0,0
86.695518659773,-13.059677017855,10.85901590159,1784095.2193279,-1039.6938404256,2748081.244219,16.05901590159,0,0
86.695518828955,-13.061730145274,10.863446344634,1784095.2193279,-1039.6938404256,2748081.244219,16.063446344634,0,0
86.695518998137,-13.063783272693,10.867876787679,1784095.2193279,-1039.6938404256,2748081.244219,16.067876787679,0,0
86.69551916732,-13.065836400112,10.872307230723,1784095.2193279,-1039.6938404256,2748081.244219,16.072307230723,0,0
86.695519336502,-13.06788952753,10.876737673767,1784095.2193279,-1039.6938404256,2748081.244219,16.076737673767,0,0
86.695519505684,-13.069942654949,10.881168116812,1784095.2193279,-1039.6938404256,2748081.244219,16.081168116812,0,0
86.695519674867,-13.071995782368,10.885598559856,1784095.2193279,-1039.6938404256,2748081.244219,16.085598559856,0,0
86.695519844049,-13.074048909786,10.8900290029,1784095.2193279,-1039.6938404256,2748081.244219,16.0900290029,0,0
86.695520013231,-13.076102037205,10.894459445945,1784095.2193279,-1039.6938404256,2748081.244219,16.094459445945,0,0
86.695520182414,-13.078155164624,10.898889888989,1784095.2193279,-1039.6938404256,2748081.244219,16.098889888989,0,0
86.695520351596,-13.080208292043,10.903320332033,1784095.2193279,-1039.6938404256,2748081.244219,16.103320332033,0,0
86.695520520778,-13.082261419461,10.907750775078,1784095.2193279,-1039.6938404256,2748081.244219,16.107750775078,0,0
86.695520689961,-13.08431454688,10.912181218122,1784095.2193279,-1039.6938404256,2748081.244219,16.112181218122,0,0
86.695520859143,-13.086367674299,10.916611661166,1784095.2193279,-1039.6938404256,2748081.244219,16.116611661166,0,0
86.695521028325,-13.088420801717,10.92104210421,1784095.2193279,-1039.6938404256,2748081.244219,16.12104210421,0,0
86.695521197508,-13.090473929136,10.925472547255,1784095.2193279,-1039.6938404256,2748081.244219,16.125472547255,0,0
86.69552136669,-13.092527056555,10.929902990299,1784095.2193279,-1039.6938404256,2748081.244219,16.129902990299,0,0
86.695521535872,-13.094580183974,10.934333433343,1784095.2193279,-1039.6938404256,2748081.244219,16.134333433343,0,0
86.695521705055,-13.096633311392,10.938763876388,1784095.2193279,-1039.6938404256,2748081.244219,16.138763876388,0,0
86.695521874237,-13.098686438811,10.943194319432,1784095.2193279,-1039.6938404256,2748081.244219,16.143194319432,0,0
86.695522043419,-13.10073956623,10.947624762476,1784095.2193279,-1039.6938404256,2748081.244219,16.147624762476,0,0
86.695522212602,-13.102792693648,10.952055205521,1784095.2193279,-1039.6938404256,2748081.244219,16.152055205521,0,0
86.695522381784,-13.104845821067,10.956485648565,1784095.2193279,-1039.6938404256,2748081.244219,16.156485648565,0,0
86.695522550966,-13.106898948486,10.960916091609,1784095.2193279,-1039.6938404256,2748081.244219,16.160916091609,0,0
86.695522720149,-13.108952075905,10.965346534653,1784095.2193279,-1039.6938404256,2748081.244219,16.165346534653,0,0
86.695522889331,-13.111005203323,10.969776977698,1784095.2193279,-1039.6938404256,2748081.244219,16.169776977698,0,0
86.695523058513,-13.113058330742,10.974207420742,1784095.2193279,-1039.6938404256,2748081.244219,16.174207420742,0,0
86.695523227696,-13.115111458161,10.978637863786,1784095.2193279,-1039.6938404256,2748081.244219,16.178637863786,0,0
86.695523396878,-13.117164585579,10.983068306831,1784095.2193279,-1039.6938404256,2748081.244219,16.183068306831,0,0
86.69552356606,-13.119217712998,10.987498749875,1784095.2193279,-1039.6938404256,2748081.244219,16.187498749875,0,0
86.695523735243,-13.121270840417,10.991929192919,1784095.2193279,-1039.6938404256,2748081.244219,16.191929192919,0,0
86.695523904425,-13.123323967836,10.996359635964,1784095.2193279,-1039.6938404256,2748081.244219,16.196359635964,0,0
86.695524073607,-13.125377095254,11.000790079008,1784095.2193279,-1039.6938404256,2748081.244219,16.200790079008,0,0
86.69552424279,-13.127430222673,11.005220522052,1784095.2193279,-1039.6938404256,2748081.244219,16.205220522052,0,0
86.695524411972,-13.129483350092,11.009650965097,1784095.2193279,-1039.6938404256,2748081.244219,16.209650965097,0,0
86.695524581154,-13.13153647751,11.014081408141,1784095.2193279,-1039.6938404256,2748081.244219,16.214081408141,0,0
86.695524750337,-13.133589604929,11.018511851185,1784095.2193279,-1039.6938404256,2748081.244219,16.218511851185,0,0
86.695524919519,-13.135642732348,11.022942294229,1784095.2193279,-1039.6938404256,2748081.244219,16.222942294229,0,0
86.695525088701,-13.137695859767,11.027372737274,1784095.2193279,-1039.6938404256,2748081.244219,16.227372737274,0,0
86.695525257884,-13.139748987185,11.031803180318,1784095.2193279,-1039.6938404256,2748081.244219,16.231803180318,0,0
86.695525427066,-13.141802114604,11.036233623362,1784095.2193279,-1039.6938404256,2748081.244219,16.236233623362,0,0
86.695525596248,-13.143855242023,11.040664066407,1784095.2193279,-1039.6938404256,2748081.244219,16.240664066407,0,0
86.695525765431,-13.145908369441,11.045094509451,1784095.2193279,-1039.6938404256,2748081.244219,16.245094509451,0,0
86.695525934613,-13.14796149686,11.049524952495,1784095.2193279,-1039.6938404256,2748081.244219,16.249524952495,0,0
86.695526103795,-13.150014624279,11.05395539554,1784095.2193279,-1039.6938404256,2748081.244219,16.25395539554,0,0
86.695526272978,-13.152067751698,11.058385838584,1784095.2193279,-1039.6938404256,2748081.244219,16.258385838584,0,0
86.69552644216,-13.154120879116,11.062816281628,1784095.2193279,-1039.6938404256,2748081.244219,16.262816281628,0,0
86.695526611342,-13.156174006535,11.067246724672,1784095.2193279,-1039.6938404256,2748081.244219,16.267246724672,0,0
86.695526780525,-13.158227133954,11.071677167717,1784095.2193279,-1039.6938404256,2748081.244219,16.271677167717,0,0
86.695526949707,-13.160280261373,11.076107610761,1784095.2193279,-1039.6938404256,2748081.244219,16.276107610761,0,0
86.695527118889,-13.162333388791,11.080538053805,1784095.2193279,-1039.6938404256,2748081.244219,16.280538053805,0,0
86.695527288072,-13.16438651621,11.08496849685,1784095.2193279,-1039.6938404256,2748081.244219,16.28496849685,0,0
86.695527457254,-13.166439643629,11.089398939894,1784095.2193279,-1039.6938404256,2748081.244219,16.289398939894,0,0
86.695527626436,-13.168492771047,11.093829382938,1784095.2193279,-1039.6938404256,2748081.244219,16.293829382938,0,0
86.695527795619,-13.170545898466,11.098259825983,1784095.2193279,-1039.6938404256,2748081.244219,16.298259825983,0,0
86.695527964801,-13.172599025885,11.102690269027,1784095.2193279,-1039.6938404256,2748081.244219,16.302690269027,0,0
86.695528133983,-13.174652153304,11.107120712071,1784095.2193279,-1039.6938404256,2748081.244219,16.307120712071,0,0
86.695528303166,-13.176705280722,11.111551155116,1784095.2193279,-1039.6938404256,2748081.244219,16.311551155116,0,0
86.695528472348,-13.178758408141,11.11598159816,1784095.2193279,-1039.6938404256,2748081.244219,16.31598159816,0,0
86.69552864153,-13.18081153556,11.120412041204,1784095.2193279,-1039.6938404256,2748081.244219,16.320412041204,0,0
86.695528810713,-13.182864662978,11.124842484248,1784095.2193279,-1039.6938404256,2748081.244219,16.324842484248,0,0
86.695528979895,-13.184917790397,11.129272927293,1784095.2193279,-1039.6938404256,2748081.244219,16.329272927293,0,0
86.695529149077,-13.186970917816,11.133703370337,1784095.2193279,-1039.6938404256,2748081.244219,16.333703370337,0,0
86.69552931826,-13.189024045235,11.138133813381,1784095.2193279,-1039.6938404256,2748081.244219,16.338133813381,0,0
86.695529487442,-13.191077172653,11.142564256426,1784095.2193279,-1039.6938404256,2748081.244219,16.342564256426,0,0
86.695529656624,-13.193130300072,11.14699469947,1784095.2193279,-1039.6938404256,2748081.244219,16.34699469947,0,0
86.695529825807,-13.195183427491,11.151425142514,1784095.2193279,-1039.6938404256,2748081.244219,16.351425142514,0,0
86.695529994989,-13.197236554909,11.155855585559,1784095.2193279,-1039.6938404256,2748081.244219,16.355855585559,0,0
86.695530164171,-13.199289682328,11.160286028603,1784095.2193279,-1039.6938404256,2748081.244219,16.360286028603,0,0
86.695530333354,-13.201342809747,11.164716471647,1784095.2193279,-1039.6938404256,2748081.244219,16.364716471647,0,0
86.695530502536,-13.203395937166,11.169146914691,1784095.2193279,-1039.6938404256,2748081.244219,16.369146914691,0,0
86.695530671718,-13.205449064584,11.173577357736,1784095.2193279,-1039.6938404256,2748081.244219,16.373577357736,0,0
86.695530840901,-13.207502192003,11.17800780078,1784095.2193279,-1039.6938404256,2748081.244219,16.37800780078,0,0
86.695531010083,-13.209555319422,11.182438243824,1784095.2193279,-1039.6938404256,2748081.244219,16.382438243824,0,0
86.695531179265,-13.21160844684,11.186868686869,1784095.2193279,-1039.6938404256,2748081.244219,16.386868686869,0,0
86.695531348448,-13.213661574259,11.191299129913,1784095.2193279,-1039.6938404256,2748081.244219,16.391299129913,0,0
86.69553151763,-13.215714701678,11.195729572957,1784095.2193279,-1039.6938404256,2748081.244219,16.395729572957,0,0
86.695531686812,-13.217767829097,11.200160016002,1784095.2193279,-1039.6938404256,2748081.244219,16.400160016002,0,0
86.695531855995,-13.219820956515,11.204590459046,1784095.2193279,-1039.6938404256,2748081.244219,16.404590459046,0,0
86.695532025177,-13.221874083934,11.20902090209,1784095.2193279,-1039.6938404256,2748081.244219,16.40902090209,0,0
86.695532194359,-13.223927211353,11.213451345135,1784095.2193279,-1039.6938404256,2748081.244219,16.413451345135,0,0
86.695532363542,-13.225980338771,11.217881788179,1784095.2193279,-1039.6938404256,2748081.244219,16.417881788179,0,0
86.695532532724,-13.22803346619,11.222312231223,1784095.2193279,-1039.6938404256,2748081.244219,16.422312231223,0,0
86.695532702223,-13.230086592977,11.226742674267,1793744.1745059,6252.2019464949,2737327.2792229,16.426742674267,0,0
86.695532872462,-13.232139718284,11.231173117312,1793744.1745059,6252.2019464949,2737327.2792229,16.431173117312,0,0
86.695533042701,-13.234192843591,11.235603560356,1793744.1745059,6252.2019464949,2737327.2792229,16.435603560356,0,0
86.695533212941,-13.236245968898,11.2400340034,1793744.1745059,6252.2019464949,2737327.2792229,16.4400340034,0,0
86.69553338318,-13.238299094205,11.244464446445,1793744.1745059,6252.2019464949,2737327.2792229,16.444464446445,0,0
86.695533553419,-13.240352219512,11.248894889489,1793744.1745059,6252.2019464949,2737327.2792229,16.448894889489,0,0
86.695533723659,-13.242405344819,11.253325332533,1793744.1745059,6252.2019464949,2737327.2792229,16.453325332533,0,0
86.695533893898,-13.244458470126,11.257755775578,1793744.1745059,6252.2019464949,2737327.2792229,16.457755775578,0,0
86.695534064138,-13.246511595433,11.262186218622,1793744.1745059,6252.2019464949,2737327.2792229,16.462186218622,0,0
86.695534234377,-13.24856472074,11.266616661666,1793744.1745059,6252.2019464949,2737327.2792229,16.466616661666,0,0
86.695534404616,-13.250617846047,11.27104710471,1793744.1745059,6252.2019464949,2737327.2792229,16.47104710471,0,0
86.695534574856,-13.252670971354,11.275477547755,1793744.1745059,6252.2019464949,2737327.2792229,16.475477547755,0,0
86.695534745095,-13.254724096661,11.279907990799,1793744.1745059,6252.2019464949,2737327.2792229,16.479907990799,0,0
86.695534915335,-13.256777221968,11.284338433843,1793744.1745059,6252.2019464949,2737327.2792229,16.484338433843,0,0
86.695535085574,-13.258830347275,11.288768876888,1793744.1745059,6252.2019464949,2737327.2792229,16.488768876888,0,0
86.695535255813,-13.260883472582,11.293199319932,1793744.1745059,6252.2019464949,2737327.2792229,16.493199319932,0,0
86.695535426053,-13.262936597889,11.297629762976,1793744.1745059,6252.2019464949,2737327.2792229,16.497629762976,0,0
86.695535596292,-13.264989723196,11.302060206021,1793744.1745059,6252.2019464949,2737327.2792229,16.502060206021,0,0
86.695535766531,-13.267042848503,11.306490649065,1793744.1745059,6252.2019464949,2737327.2792229,16.506490649065,0,0
86.695535936771,-13.26909597381,11.310921092109,1793744.1745059,6252.2019464949,2737327.2792229,16.510921092109,0,0
86.69553610701,-13.271149099117,11.315351535154,1793744.1745059,6252.2019464949,2737327.2792229,16.515351535154,0,0
86.69553627725,-13.273202224424,11.319781978198,1793744.1745059,6252.2019464949,2737327.2792229,16.519781978198,0,0
86.695536447489,-13.275255349731,11.324212421242,1793744.1745059,6252.2019464949,2737327.2792229,16.524212421242,0,0
86.695536617728,-13.277308475038,11.328642864286,1793744.1745059,6252.2019464949,2737327.2792229,16.528642864286,0,0
86.695536787968,-13.279361600345,11.333073307331,1793744.1745059,6252.2019464949,2737327.2792229,16.533073307331,0,0
86.695536958207,-13.281414725652,11.337503750375,1793744.1745059,6252.2019464949,2737327.2792229,16.537503750375,0,0
86.695537128446,-13.283467850959,11.341934193419,1793744.1745059,6252.2019464949,2737327.2792229,16.541934193419,0,0
86.695537298686,-13.285520976266,11.346364636464,1793744.1745059,6252.2019464949,2737327.2792229,16.546364636464,0,0
86.695537468925,-13.287574101572,11.350795079508,1793744.1745059,6252.2019464949,2737327.2792229,16.550795079508,0,0
86.695537639165,-13.289627226879,11.355225522552,1793744.1745059,6252.2019464949,2737327.2792229,16.555225522552,0,0
86.695537809404,-13.291680352186,11.359655965597,1793744.1745059,6252.2019464949,2737327.2792229,16.559655965597,0,0
86.695537979643,-13.293733477493,11.364086408641,1793744.1745059,6252.2019464949,2737327.2792229,16.564086408641,0,0
86.695538149883,-13.2957866028,11.368516851685,1793744.1745059,6252.2019464949,2737327.2792229,16.568516851685,0,0
86.695538320122,-13.297839728107,11.372947294729,1793744.1745059,6252.2019464949,2737327.2792229,16.572947294729,0,0
86.695538490362,-13.299892853414,11.377377737774,1793744.1745059,6252.2019464949,2737327.2792229,16.577377737774,0,0
86.695538660601,-13.301945978721,11.381808180818,1793744.1745059,6252.2019464949,2737327.2792229,16.581808180818,0,0
86.69553883084,-13.303999104028,11.386238623862,1793744.1745059,6252.2019464949,2737327.2792229,16.586238623862,0,0
86.69553900108,-13.306052229335,11.390669066907,1793744.1745059,6252.2019464949,2737327.2792229,16.590669066907,0,0
86.695539171319,-13.308105354642,11.395099509951,1793744.1745059,6252.2019464949,2737327.2792229,16.595099509951,0,0
86.695539341558,-13.310158479949,11.399529952995,1793744.1745059,6252.2019464949,2737327.2792229,16.599529952995,0,0
86.695539511798,-13.312211605256,11.40396039604,1793744.1745059,6252.2019464949,2737327.2792229,16.60396039604,0,0
86.695539682037,-13.314264730563,11.408390839084,1793744.1745059,6252.2019464949,2737327.2792229,16.608390839084,0,0
86.695539852277,-13.31631785587,11.412821282128,1793744.1745059,6252.2019464949,2737327.2792229,16.612821282128,0,0
86.695540022516,-13.318370981177,11.417251725173,1793744.1745059,6252.2019464949,2737327.2792229,16.617251725173,0,0
86.695540192755,-13.320424106484,11.421682168217,1793744.1745059,6252.2019464949,2737327.2792229,16.621682168217,0,0
86.695540362995,-13.322477231791,11.426112611261,1793744.1745059,6252.2019464949,2737327.2792229,16.626112611261,0,0
86.695540533234,-13.324530357098,11.430543054305,1793744.1745059,6252.2019464949,2737327.2792229,16.630543054305,0,0
86.695540703473,-13.326583482405,11.43497349735,1793744.1745059,6252.2019464949,2737327.2792229,16.63497349735,0,0
86.695540873713,-13.328636607712,11.439403940394,1793744.1745059,6252.2019464949,2737327.2792229,16.639403940394,0,0
86.695541043952,-13.330689733019,11.443834383438,1793744.1745059,6252.2019464949,2737327.2792229,16.643834383438,0,0
86.695541214192,-13.332742858326,11.448264826483,1793744.1745059,6252.2019464949,2737327.2792229,16.648264826483,0,0
86.695541384431,-13.334795983633,11.452695269527,1793744.1745059,6252.2019464949,2737327.2792229,16.652695269527,0,0
86.69554155467,-13.33684910894,11.457125712571,1793744.1745059,6252.2019464949,2737327.2792229,16.657125712571,0,0
86.69554172491,-13.338902234247,11.461556155616,1793744.1745059,6252.2019464949,2737327.2792229,16.661556155616,0,0
86.695541895149,-13.340955359554,11.46598659866,1793744.1745059,6252.2019464949,2737327.2792229,16.66598659866,0,0
86.695542065389,-13.343008484861,11.470417041704,1793744.1745059,6252.2019464949,2737327.2792229,16.670417041704,0,0
86.695542235628,-13.345061610168,11.474847484748,1793744.1745059,6252.2019464949,2737327.2792229,16.674847484748,0,0
86.695542405867,-13.347114735475,11.479277927793,1793744.1745059,6252.2019464949,2737327.2792229,16.679277927793,0,0
86.695542576107,-13.349167860781,11.483708370837,1793744.1745059,6252.2019464949,2737327.2792229,16.683708370837,0,0
86.695542746346,-13.351220986088,11.488138813881,1793744.1745059,6252.2019464949,2737327.2792229,16.688138813881,0,0
86.695542916585,-13.353274111395,11.492569256926,1793744.1745059,6252.2019464949,2737327.2792229,16.692569256926,0,0
86.695543086825,-13.355327236702,11.49699969997,1793744.1745059,6252.2019464949,2737327.2792229,16.69699969997,0,0
86.695543257064,-13.357380362009,11.501430143014,1793744.1745059,6252.2019464949,2737327.2792229,16.701430143014,0,0
86.695543427304,-13.359433487316,11.505860586059,1793744.1745059,6252.2019464949,2737327.2792229,16.705860586059,0,0
86.695543597543,-13.361486612623,11.510291029103,1793744.1745059,6252.2019464949,2737327.2792229,16.710291029103,0,0
86.695543767782,-13.36353973793,11.514721472147,1793744.1745059,6252.2019464949,2737327.2792229,16.714721472147,0,0
86.695543938022,-13.365592863237,11.519151915192,1793744.1745059,6252.2019464949,2737327.2792229,16.719151915192,0,0
86.695544108261,-13.367645988544,11.523582358236,1793744.1745059,6252.2019464949,2737327.2792229,16.723582358236,0,0
86.6955442785,-13.369699113851,11.52801280128,1793744.1745059,6252.2019464949,2737327.2792229,16.72801280128,0,0
86.695544448818,-13.371752239379,11.532443244324,1798334.607322,-2294.9258192285,2719410.278321,16.732443244324,0,0
86.695544619901,-13.373805367059,11.536873687369,1798334.607322,-2294.9258192285,2719410.278321,16.736873687369,0,0
86.695544790985,-13.375858494738,11.541304130413,1798334.607322,-2294.9258192285,2719410.278321,16.741304130413,0,0
86.695544962068,-13.377911622418,11.545734573457,1798334.607322,-2294.9258192285,2719410.278321,16.745734573457,0,0
86.695545133151,-13.379964750098,11.550165016502,1798334.607322,-2294.9258192285,2719410.278321,16.750165016502,0,0
86.695545304234,-13.382017877778,11.554595459546,1798334.607322,-2294.9258192285,2719410.278321,16.754595459546,0,0
86.695545475317,-13.384071005458,11.55902590259,1798334.607322,-2294.9258192285,2719410.278321,16.75902590259,0,0
86.6955456464,-13.386124133138,11.563456345635,1798334.607322,-2294.9258192285,2719410.278321,16.763456345635,0,0
86.695545817483,-13.388177260818,11.567886788679,1798334.607322,-2294.9258192285,2719410.278321,16.767886788679,0,0
86.695545988566,-13.390230388497,11.572317231723,1798334.607322,-2294.9258192285,2719410.278321,16.772317231723,0,0
86.695546159649,-13.392283516177,11.576747674767,1798334.607322,-2294.9258192285,2719410.278321,16.776747674767,0,0
86.695546330732,-13.394336643857,11.581178117812,1798334.607322,-2294.9258192285,2719410.278321,16.781178117812,0,0
86.695546501815,-13.396389771537,11.585608560856,1798334.607322,-2294.9258192285,2719410.278321,16.785608560856,0,0
86.695546672899,-13.398442899217,11.5900390039,1798334.607322,-2294.9258192285,2719410.278321,16.7900390039,0,0
86.695546843982,-13.400496026897,11.594469446945,1798334.607322,-2294.9258192285,2719410.278321,16.794469446945,0,0
86.695547015065,-13.402549154576,11.598899889989,1798334.607322,-2294.9258192285,2719410.278321,16.798899889989,0,0
86.695547186148,-13.404602282256,11.603330333033,1798334.607322,-2294.9258192285,2719410.278321,16.803330333033,0,0
86.695547357231,-13.406655409936,11.607760776078,1798334.607322,-2294.9258192285,2719410.278321,16.807760776078,0,0
86.695547528314,-13.408708537616,11.612191219122,1798334.607322,-2294.9258192285,2719410.278321,16.812191219122,0,0
86.695547699397,-13.410761665296,11.616621662166,1798334.607322,-2294.9258192285,2719410.278321,16.816621662166,0,0
86.69554787048,-13.412814792976,11.621052105211,1798334.607322,-2294.9258192285,2719410.278321,16.821052105211,0,0
86.695548041563,-13.414867920655,11.625482548255,1798334.607322,-2294.9258192285,2719410.278321,16.825482548255,0,0
86.695548212646,-13.416921048335,11.629912991299,1798334.607322,-2294.9258192285,2719410.278321,16.829912991299,0,0
86.695548383729,-13.418974176015,11.634343434343,1798334.607322,-2294.9258192285,2719410.278321,16.834343434343,0,0
86.695548554812,-13.421027303695,11.638773877388,1798334.607322,-2294.9258192285,2719410.278321,16.838773877388,0,0
86.695548725896,-13.423080431375,11.643204320432,1798334.607322,-2294.9258192285,2719410.278321,16.843204320432,0,0
86.695548896979,-13.425133559055,11.647634763476,1798334.607322,-2294.9258192285,2719410.278321,16.847634763476,0,0
86.695549068062,-13.427186686734,11.652065206521,1798334.607322,-2294.9258192285,2719410.278321,16.852065206521,0,0
86.695549239145,-13.429239814414,11.656495649565,1798334.607322,-2294.9258192285,2719410.278321,16.856495649565,0,0
86.695549410228,-13.431292942094,11.660926092609,1798334.607322,-2294.9258192285,2719410.278321,16.860926092609,0,0
86.695549581311,-13.433346069774,11.665356535654,1798334.607322,-2294.9258192285,2719410.278321,16.865356535654,0,0
86.695549752394,-13.435399197454,11.669786978698,1798334.607322,-2294.9258192285,2719410.278321,16.869786978698,0,0
86.695549923477,-13.437452325134,11.674217421742,1798334.607322,-2294.9258192285,2719410.278321,16.874217421742,0,0
86.69555009456,-13.439505452814,11.678647864786,1798334.607322,-2294.9258192285,2719410.278321,16.878647864786,0,0
86.695550265643,-13.441558580493,11.683078307831,1798334.607322,-2294.9258192285,2719410.278321,16.883078307831,0,0
86.695550436726,-13.443611708173,11.687508750875,1798334.607322,-2294.9258192285,2719410.278321,16.887508750875,0,0
86.69555060781,-13.445664835853,11.691939193919,1798334.607322,-2294.9258192285,2719410.278321,16.891939193919,0,0
86.695550778893,-13.447717963533,11.696369636964,1798334.607322,-2294.9258192285,2719410.278321,16.896369636964,0,0
86.695550949976,-13.449771091213,11.700800080008,1798334.607322,-2294.9258192285,2719410.278321,16.900800080008,0,0
86.695551121059,-13.451824218893,11.705230523052,1798334.607322,-2294.9258192285,2719410.278321,16.905230523052,0,0
86.695551292142,-13.453877346572,11.709660966097,1798334.607322,-2294.9258192285,2719410.278321,16.909660966097,0,0
86.695551463225,-13.455930474252,11.714091409141,1798334.607322,-2294.9258192285,2719410.278321,16.914091409141,0,0
86.695551634308,-13.457983601932,11.718521852185,1798334.607322,-2294.9258192285,2719410.278321,16.918521852185,0,0
86.695551805391,-13.460036729612,11.72295229523,1798334.607322,-2294.9258192285,2719410.278321,16.92295229523,0,0
86.695551976474,-13.462089857292,11.727382738274,1798334.607322,-2294.9258192285,2719410.278321,16.927382738274,0,0
86.695552147557,-13.464142984972,11.731813181318,1798334.607322,-2294.9258192285,2719410.278321,16.931813181318,0,0
86.69555231864,-13.466196112651,11.736243624362,1798334.607322,-2294.9258192285,2719410.278321,16.936243624362,0,0
86.695552489724,-13.468249240331,11.740674067407,1798334.607322,-2294.9258192285,2719410.278321,16.940674067407,0,0
86.695552660807,-13.470302368011,11.745104510451,1798334.607322,-2294.9258192285,2719410.278321,16.945104510451,0,0
86.69555283189,-13.472355495691,11.749534953495,1798334.607322,-2294.9258192285,2719410.278321,16.949534953495,0,0
86.695553002973,-13.474408623371,11.75396539654,1798334.607322,-2294.9258192285,2719410.278321,16.95396539654,0,0
86.695553174056,-13.476461751051,11.758395839584,1798334.607322,-2294.9258192285,2719410.278321,16.958395839584,0,0
86.695553345139,-13.47851487873,11.762826282628,1798334.607322,-2294.9258192285,2719410.278321,16.962826282628,0,0
86.695553516222,-13.48056800641,11.767256725673,1798334.607322,-2294.9258192285,2719410.278321,16.967256725673,0,0
86.695553687305,-13.48262113409,11.771687168717,1798334.607322,-2294.9258192285,2719410.278321,16.971687168717,0,0
86.695553858388,-13.48467426177,11.776117611761,1798334.607322,-2294.9258192285,2719410.278321,16.976117611761,0,0
86.695554029471,-13.48672738945,11.780548054805,1798334.607322,-2294.9258192285,2719410.278321,16.980548054805,0,0
86.695554200554,-13.48878051713,11.78497849785,1798334.607322,-2294.9258192285,2719410.278321,16.98497849785,0,0
86.695554371638,-13.49083364481,11.789408940894,1798334.607322,-2294.9258192285,2719410.278321,16.989408940894,0,0
86.695554542721,-13.492886772489,11.793839383938,1798334.607322,-2294.9258192285,2719410.278321,16.993839383938,0,0
86.695554713804,-13.494939900169,11.798269826983,1798334.607322,-2294.9258192285,2719410.278321,16.998269826983,0,0
86.695554884887,-13.496993027849,11.802700270027,1798334.607322,-2294.9258192285,2719410.278321,17.002700270027,0,0
86.69555505597,-13.499046155529,11.807130713071,1798334.607322,-2294.9258192285,2719410.278321,17.007130713071,0,0
86.695555227053,-13.501099283209,11.811561156116,1798334.607322,-2294.9258192285,2719410.278321,17.011561156116,0,0
86.695555398136,-13.503152410889,11.81599159916,1798334.607322,-2294.9258192285,2719410.278321,17.01599159916,0,0
86.695555569219,-13.505205538568,11.820422042204,1798334.607322,-2294.9258192285,2719410.278321,17.020422042204,0,0
86.695555740302,-13.507258666248,11.824852485249,1798334.607322,-2294.9258192285,2719410.278321,17.024852485249,0,0
86.695555911385,-13.509311793928,11.829282928293,1798334.607322,-2294.9258192285,2719410.278321,17.029282928293,0,0
86.695556082468,-13.511364921608,11.833713371337,1798334.607322,-2294.9258192285,2719410.278321,17.033713371337,0,0
86.695556253552,-13.513418049288,11.838143814381,1798334.607322,-2294.9258192285,2719410.278321,17.038143814381,0,0
86.695556424635,-13.515471176968,11.842574257426,1798334.607322,-2294.9258192285,2719410.278321,17.042574257426,0,0
86.695556595718,-13.517524304647,11.84700470047,1798334.607322,-2294.9258192285,2719410.278321,17.04700470047,0,0
86.695556766801,-13.519577432327,11.851435143514,1798334.607322,-2294.9258192285,2719410.278321,17.051435143514,0,0
86.695556937884,-13.521630560007,11.855865586559,1798334.607322,-2294.9258192285,2719410.278321,17.055865586559,0,0
86.695557108967,-13.523683687687,11.860296029603,1798334.607322,-2294.9258192285,2719410.278321,17.060296029603,0,0
86.69555728005,-13.525736815367,11.864726472647,1798334.607322,-2294.9258192285,2719410.278321,17.064726472647,0,0
86.695557451133,-13.527789943047,11.869156915692,1798334.607322,-2294.9258192285,2719410.278321,17.069156915692,0,0
86.695557622216,-13.529843070726,11.873587358736,1798334.607322,-2294.9258192285,2719410.278321,17.073587358736,0,0
86.695557793299,-13.531896198406,11.87801780178,1798334.607322,-2294.9258192285,2719410.278321,17.07801780178,0,0
86.695557964382,-13.533949326086,11.882448244824,1798334.607322,-2294.9258192285,2719410.278321,17.082448244824,0,0
86.695558135466,-13.536002453766,11.886878687869,1798334.607322,-2294.9258192285,2719410.278321,17.086878687869,0,0
86.695558306549,-13.538055581446,11.891309130913,1798334.607322,-2294.9258192285,2719410.278321,17.091309130913,0,0
86.695558477632,-13.540108709126,11.895739573957,1798334.607322,-2294.9258192285,2719410.278321,17.095739573957,0,0
86.695558648715,-13.542161836806,11.900170017002,1798334.607322,-2294.9258192285,2719410.278321,17.100170017002,0,0
86.695558819798,-13.544214964485,11.904600460046,1798334.607322,-2294.9258192285,2719410.278321,17.104600460046,0,0
86.695558990881,-13.546268092165,11.90903090309,1798334.607322,-2294.9258192285,2719410.278321,17.10903090309,0,0
86.695559161964,-13.548321219845,11.913461346135,1798334.607322,-2294.9258192285,2719410.278321,17.113461346135,0,0
86.695559333047,-13.550374347525,11.917891789179,1798334.607322,-2294.9258192285,2719410.278321,17.117891789179,0,0
86.69555950413,-13.552427475205,11.922322232223,1798334.607322,-2294.9258192285,2719410.278321,17.122322232223,0,0
86.695559675213,-13.554480602885,11.926752675268,1798334.607322,-2294.9258192285,2719410.278321,17.126752675268,0,0
86.695559846296,-13.556533730564,11.931183118312,1798334.607322,-2294.9258192285,2719410.278321,17.131183118312,0,0
86.69556001738,-13.558586858244,11.935613561356,1798334.607322,-2294.9258192285,2719410.278321,17.135613561356,0,0
86.695560188463,-13.560639985924,11.9400440044,1798334.607322,-2294.9258192285,2719410.278321,17.1400440044,0,0
86.695560359546,-13.562693113604,11.944474447445,1798334.607322,-2294.9258192285,2719410.278321,17.144474447445,0,0
86.695560530629,-13.564746241284,11.948904890489,1798334.607322,-2294.9258192285,2719410.278321,17.148904890489,0,0
86.695560701712,-13.566799368964,11.953335333533,1798334.607322,-2294.9258192285,2719410.278321,17.153335333533,0,0
86.695560872795,-13.568852496643,11.957765776578,1798334.607322,-2294.9258192285,2719410.278321,17.157765776578,0,0
86.695561043878,-13.570905624323,11.962196219622,1798334.607322,-2294.9258192285,2719410.278321,17.162196219622,0,0
86.695561214961,-13.572958752003,11.966626662666,1798334.607322,-2294.9258192285,2719410.278321,17.166626662666,0,0
86.695561386044,-13.575011879683,11.971057105711,1798334.607322,-2294.9258192285,2719410.278321,17.171057105711,0,0
86.695561557127,-13.577065007363,11.975487548755,1798334.607322,-2294.9258192285,2719410.278321,17.175487548755,0,0
86.69556172821,-13.579118135043,11.979917991799,1798334.607322,-2294.9258192285,2719410.278321,17.179917991799,0,0
86.695561899294,-13.581171262723,11.984348434843,1798334.607322,-2294.9258192285,2719410.278321,17.184348434843,0,0
86.695562070377,-13.583224390402,11.988778877888,1798334.607322,-2294.9258192285,2719410.278321,17.188778877888,0,0
86.69556224146,-13.585277518082,11.993209320932,1798334.607322,-2294.9258192285,2719410.278321,17.193209320932,0,0
86.695562412543,-13.587330645762,11.997639763976,1798334.607322,-2294.9258192285,2719410.278321,17.197639763976,0,0
86.695562583626,-13.589383773442,12.002070207021,1798334.607322,-2294.9258192285,2719410.278321,17.202070207021,0,0
86.695562754709,-13.591436901122,12.006500650065,1798334.607322,-2294.9258192285,2719410.278321,17.206500650065,0,0
86.695562925792,-13.593490028802,12.010931093109,1798334.607322,-2294.9258192285,2719410.278321,17.210931093109,0,0
86.695563096875,-13.595543156481,12.015361536154,1798334.607322,-2294.9258192285,2719410.278321,17.215361536154,0,0
86.695563267958,-13.597596284161,12.019791979198,1798334.607322,-2294.9258192285,2719410.278321,17.219791979198,0,0
86.695563439041,-13.599649411841,12.024222422242,1798334.607322,-2294.9258192285,2719410.278321,17.224222422242,0,0
86.695563610124,-13.601702539521,12.028652865287,1798334.607322,-2294.9258192285,2719410.278321,17.228652865287,0,0
86.695563781208,-13.603755667201,12.033083308331,1798334.607322,-2294.9258192285,2719410.278321,17.233083308331,0,0
86.695563952291,-13.605808794881,12.037513751375,1798334.607322,-2294.9258192285,2719410.278321,17.237513751375,0,0
86.695564123374,-13.60786192256,12.041944194419,1798334.607322,-2294.9258192285,2719410.278321,17.241944194419,0,0
86.695564294457,-13.60991505024,12.046374637464,1798334.607322,-2294.9258192285,2719410.278321,17.246374637464,0,0
86.69556446554,-13.61196817792,12.050805080508,1798334.607322,-2294.9258192285,2719410.278321,17.250805080508,0,0
86.695564636623,-13.6140213056,12.055235523552,1798334.607322,-2294.9258192285,2719410.278321,17.255235523552,0,0
86.695564807706,-13.61607443328,12.059665966597,1798334.607322,-2294.9258192285,2719410.278321,17.259665966597,0,0
86.695564978789,-13.61812756096,12.064096409641,1798334.607322,-2294.9258192285,2719410.278321,17.264096409641,0,0
86.695565149872,-13.620180688639,12.068526852685,1798334.607322,-2294.9258192285,2719410.278321,17.268526852685,0,0
86.695565320955,-13.622233816319,12.07295729573,1798334.607322,-2294.9258192285,2719410.278321,17.27295729573,0,0
86.695565492038,-13.624286943999,12.077387738774,1798334.607322,-2294.9258192285,2719410.278321,17.277387738774,0,0
86.695565663122,-13.626340071679,12.081818181818,1798334.607322,-2294.9258192285,2719410.278321,17.281818181818,0,0
86.695565834205,-13.628393199359,12.086248624862,1798334.607322,-2294.9258192285,2719410.278321,17.286248624862,0,0
86.695566005288,-13.630446327039,12.090679067907,1798334.607322,-2294.9258192285,2719410.278321,17.290679067907,0,0
86.695566176371,-13.632499454719,12.095109510951,1798334.607322,-2294.9258192285,2719410.278321,17.295109510951,0,0
86.695566347454,-13.634552582398,12.099539953995,1798334.607322,-2294.9258192285,2719410.278321,17.299539953995,0,0
86.695566518537,-13.636605710078,12.10397039704,1798334.607322,-2294.9258192285,2719410.278321,17.30397039704,0,0
86.69556668962,-13.638658837758,12.108400840084,1798334.607322,-2294.9258192285,2719410.278321,17.308400840084,0,0
86.695566860703,-13.640711965438,12.112831283128,1798334.607322,-2294.9258192285,2719410.278321,17.312831283128,0,0
86.695567031786,-13.642765093118,12.117261726173,1798334.607322,-2294.9258192285,2719410.278321,17.317261726173,0,0
86.695567202869,-13.644818220798,12.121692169217,1798334.607322,-2294.9258192285,2719410.278321,17.321692169217,0,0
86.695567373952,-13.646871348477,12.126122612261,1798334.607322,-2294.9258192285,2719410.278321,17.326122612261,0,0
86.695567545036,-13.648924476157,12.130553055306,1798334.607322,-2294.9258192285,2719410.278321,17.330553055306,0,0
86.695567716119,-13.650977603837,12.13498349835,1798334.607322,-2294.9258192285,2719410.278321,17.33498349835,0,0
86.695567887202,-13.653030731517,12.139413941394,1798334.607322,-2294.9258192285,2719410.278321,17.339413941394,0,0
86.695568058285,-13.655083859197,12.143844384438,1798334.607322,-2294.9258192285,2719410.278321,17.343844384438,0,0
86.695568229368,-13.657136986877,12.148274827483,1798334.607322,-2294.9258192285,2719410.278321,17.348274827483,0,0
86.695568400451,-13.659190114556,12.152705270527,1798334.607322,-2294.9258192285,2719410.278321,17.352705270527,0,0
86.695568571534,-13.661243242236,12.157135713571,1798334.607322,-2294.9258192285,2719410.278321,17.357135713571,0,0
86.695568742617,-13.663296369916,12.161566156616,1798334.607322,-2294.9258192285,2719410.278321,17.361566156616,0,0
86.6955689137,-13.665349497596,12.16599659966,1798334.607322,-2294.9258192285,2719410.278321,17.36599659966,0,0
86.695569084783,-13.667402625276,12.170427042704,1798334.607322,-2294.9258192285,2719410.278321,17.370427042704,0,0
86.695569255866,-13.669455752956,12.174857485749,1798334.607322,-2294.9258192285,2719410.278321,17.374857485749,0,0
86.69556942695,-13.671508880635,12.179287928793,1798334.607322,-2294.9258192285,2719410.278321,17.379287928793,0,0
86.695569598033,-13.673562008315,12.183718371837,1798334.607322,-2294.9258192285,2719410.278321,17.383718371837,0,0
86.695569769116,-13.675615135995,12.188148814881,1798334.607322,-2294.9258192285,2719410.278321,17.388148814881,0,0
86.695569940199,-13.677668263675,12.192579257926,1798334.607322,-2294.9258192285,2719410.278321,17.392579257926,0,0
86.695570111282,-13.679721391355,12.19700970097,1798334.607322,-2294.9258192285,2719410.278321,17.39700970097,0,0
86.695570282365,-13.681774519035,12.201440144014,1798334.607322,-2294.9258192285,2719410.278321,17.401440144014,0,0
86.695570453448,-13.683827646715,12.205870587059,1798334.607322,-2294.9258192285,2719410.278321,17.405870587059,0,0
86.695570624531,-13.685880774394,12.210301030103,1798334.607322,-2294.9258192285,2719410.278321,17.410301030103,0,0
86.695570795614,-13.687933902074,12.214731473147,1798334.607322,-2294.9258192285,2719410.278321,17.414731473147,0,0
86.695570966697,-13.689987029754,12.219161916192,1798334.607322,-2294.9258192285,2719410.278321,17.419161916192,0,0
86.69557113778,-13.692040157434,12.223592359236,1798334.607322,-2294.9258192285,2719410.278321,17.423592359236,0,0
86.695571308863,-13.694093285114,12.22802280228,1798334.607322,-2294.9258192285,2719410.278321,17.42802280228,0,0
86.695571479947,-13.696146412794,12.232453245325,1798334.607322,-2294.9258192285,2719410.278321,17.432453245325,0,0
86.69557165103,-13.698199540473,12.236883688369,1798334.607322,-2294.9258192285,2719410.278321,17.436883688369,0,0
86.695571822113,-13.700252668153,12.241314131413,1798334.607322,-2294.9258192285,2719410.278321,17.441314131413,0,0
86.695571993196,-13.702305795833,12.245744574457,1798334.607322,-2294.9258192285,2719410.278321,17.445744574457,0,0
86.695572164279,-13.704358923513,12.250175017502,1798334.607322,-2294.9258192285,2719410.278321,17.450175017502,0,0
86.695572335362,-13.706412051193,12.254605460546,1798334.607322,-2294.9258192285,2719410.278321,17.454605460546,0,0
86.695572506445,-13.708465178873,12.25903590359,1798334.607322,-2294.9258192285,2719410.278321,17.45903590359,0,0
86.695572677528,-13.710518306552,12.263466346635,1798334.607322,-2294.9258192285,2719410.278321,17.463466346635,0,0
86.695572848611,-13.712571434232,12.267896789679,1798334.607322,-2294.9258192285,2719410.278321,17.467896789679,0,0
86.695573019694,-13.714624561912,12.272327232723,1798334.607322,-2294.9258192285,2719410.278321,17.472327232723,0,0
86.695573190777,-13.716677689592,12.276757675768,1798334.607322,-2294.9258192285,2719410.278321,17.476757675768,0,0
86.695573361861,-13.718730817272,12.281188118812,1798334.607322,-2294.9258192285,2719410.278321,17.481188118812,0,0
86.695573532944,-13.720783944952,12.285618561856,1798334.607322,-2294.9258192285,2719410.278321,17.485618561856,0,0
86.695573704027,-13.722837072631,12.2900490049,1798334.607322,-2294.9258192285,2719410.278321,17.4900490049,0,0
86.69557387511,-13.724890200311,12.294479447945,1798334.607322,-2294.9258192285,2719410.278321,17.494479447945,0,0
86.695574046193,-13.726943327991,12.298909890989,1798334.607322,-2294.9258192285,2719410.278321,17.498909890989,0,0
86.695574217276,-13.728996455671,12.303340334033,1798334.607322,-2294.9258192285,2719410.278321,17.503340334033,0,0
86.695574388359,-13.731049583351,12.307770777078,1798334.607322,-2294.9258192285,2719410.278321,17.507770777078,0,0
86.695574559442,-13.733102711031,12.312201220122,1798334.607322,-2294.9258192285,2719410.278321,17.512201220122,0,0
86.695574730525,-13.735155838711,12.316631663166,1798334.607322,-2294.9258192285,2719410.278321,17.516631663166,0,0
86.695574901902,-13.73720896577,12.321062106211,1807576.1768512,5315.012099345,2709848.1557698,17.521062106211,0,0
86.695575073978,-13.739262091351,12.325492549255,1807576.1768512,5315.012099345,2709848.1557698,17.525492549255,0,0
86.695575246054,-13.741315216932,12.329922992299,1807576.1768512,5315.012099345,2709848.1557698,17.529922992299,0,0
86.695575418129,-13.743368342514,12.334353435344,1807576.1768512,5315.012099345,2709848.1557698,17.534353435344,0,0
86.695575590205,-13.745421468095,12.338783878388,1807576.1768512,5315.012099345,2709848.1557698,17.538783878388,0,0
86.695575762281,-13.747474593676,12.343214321432,1807576.1768512,5315.012099345,2709848.1557698,17.543214321432,0,0
86.695575934357,-13.749527719257,12.347644764476,1807576.1768512,5315.012099345,2709848.1557698,17.547644764476,0,0
86.695576106433,-13.751580844838,12.352075207521,1807576.1768512,5315.012099345,2709848.1557698,17.552075207521,0,0
86.695576278509,-13.75363397042,12.356505650565,1807576.1768512,5315.012099345,2709848.1557698,17.556505650565,0,0
86.695576450585,-13.755687096001,12.360936093609,1807576.1768512,5315.012099345,2709848.1557698,17.560936093609,0,0
86.69557662266,-13.757740221582,12.365366536654,1807576.1768512,5315.012099345,2709848.1557698,17.565366536654,0,0
86.695576794736,-13.759793347163,12.369796979698,1807576.1768512,5315.012099345,2709848.1557698,17.569796979698,0,0
86.695576966812,-13.761846472744,12.374227422742,1807576.1768512,5315.012099345,2709848.1557698,17.574227422742,0,0
86.695577138888,-13.763899598326,12.378657865787,1807576.1768512,5315.012099345,2709848.1557698,17.578657865787,0,0
86.695577310964,-13.765952723907,12.383088308831,1807576.1768512,5315.012099345,2709848.1557698,17.583088308831,0,0
86.69557748304,-13.768005849488,12.387518751875,1807576.1768512,5315.012099345,2709848.1557698,17.587518751875,0,0
86.695577655116,-13.770058975069,12.391949194919,1807576.1768512,5315.012099345,2709848.1557698,17.591949194919,0,0
86.695577827192,-13.77211210065,12.396379637964,1807576.1768512,5315.012099345,2709848.1557698,17.596379637964,0,0
86.695577999267,-13.774165226232,12.400810081008,1807576.1768512,5315.012099345,2709848.1557698,17.600810081008,0,0
86.695578171343,-13.776218351813,12.405240524052,1807576.1768512,5315.012099345,2709848.1557698,17.605240524052,0,0
86.695578343419,-13.778271477394,12.409670967097,1807576.1768512,5315.012099345,2709848.1557698,17.609670967097,0,0
86.695578515495,-13.780324602975,12.414101410141,1807576.1768512,5315.012099345,2709848.1557698,17.614101410141,0,0
86.695578687571,-13.782377728556,12.418531853185,1807576.1768512,5315.012099345,2709848.1557698,17.618531853185,0,0
86.695578859647,-13.784430854138,12.42296229623,1807576.1768512,5315.012099345,2709848.1557698,17.62296229623,0,0
86.695579031723,-13.786483979719,12.427392739274,1807576.1768512,5315.012099345,2709848.1557698,17.627392739274,0,0
86.695579203798,-13.7885371053,12.431823182318,1807576.1768512,5315.012099345,2709848.1557698,17.631823182318,0,0
86.695579375874,-13.790590230881,12.436253625363,1807576.1768512,5315.012099345,2709848.1557698,17.636253625363,0,0
86.69557954795,-13.792643356462,12.440684068407,1807576.1768512,5315.012099345,2709848.1557698,17.640684068407,0,0
86.695579720026,-13.794696482044,12.445114511451,1807576.1768512,5315.012099345,2709848.1557698,17.645114511451,0,0
86.695579892102,-13.796749607625,12.449544954495,1807576.1768512,5315.012099345,2709848.1557698,17.649544954495,0,0
86.695580064178,-13.798802733206,12.45397539754,1807576.1768512,5315.012099345,2709848.1557698,17.65397539754,0,0
86.695580236254,-13.800855858787,12.458405840584,1807576.1768512,5315.012099345,2709848.1557698,17.658405840584,0,0
86.695580408329,-13.802908984368,12.462836283628,1807576.1768512,5315.012099345,2709848.1557698,17.662836283628,0,0
86.695580580405,-13.80496210995,12.467266726673,1807576.1768512,5315.012099345,2709848.1557698,17.667266726673,0,0
86.695580752481,-13.807015235531,12.471697169717,1807576.1768512,5315.012099345,2709848.1557698,17.671697169717,0,0
86.695580924557,-13.809068361112,12.476127612761,1807576.1768512,5315.012099345,2709848.1557698,17.676127612761,0,0
86.695581096633,-13.811121486693,12.480558055806,1807576.1768512,5315.012099345,2709848.1557698,17.680558055806,0,0
86.695581268709,-13.813174612274,12.48498849885,1807576.1768512,5315.012099345,2709848.1557698,17.68498849885,0,0
86.695581440785,-13.815227737856,12.489418941894,1807576.1768512,5315.012099345,2709848.1557698,17.689418941894,0,0
86.69558161286,-13.817280863437,12.493849384938,1807576.1768512,5315.012099345,2709848.1557698,17.693849384938,0,0
86.695581784936,-13.819333989018,12.498279827983,1807576.1768512,5315.012099345,2709848.1557698,17.698279827983,0,0
86.695581957012,-13.821387114599,12.502710271027,1807576.1768512,5315.012099345,2709848.1557698,17.702710271027,0,0
86.695582129088,-13.82344024018,12.507140714071,1807576.1768512,5315.012099345,2709848.1557698,17.707140714071,0,0
86.695582301164,-13.825493365762,12.511571157116,1807576.1768512,5315.012099345,2709848.1557698,17.711571157116,0,0
86.69558247324,-13.827546491343,12.51600160016,1807576.1768512,5315.012099345,2709848.1557698,17.71600160016,0,0
86.695582645316,-13.829599616924,12.520432043204,1807576.1768512,5315.012099345,2709848.1557698,17.720432043204,0,0
86.695582817392,-13.831652742505,12.524862486249,1807576.1768512,5315.012099345,2709848.1557698,17.724862486249,0,0
86.695582989467,-13.833705868086,12.529292929293,1807576.1768512,5315.012099345,2709848.1557698,17.729292929293,0,0
86.695583161543,-13.835758993668,12.533723372337,1807576.1768512,5315.012099345,2709848.1557698,17.733723372337,0,0
86.695583333619,-13.837812119249,12.538153815382,1807576.1768512,5315.012099345,2709848.1557698,17.738153815382,0,0
86.695583505695,-13.83986524483,12.542584258426,1807576.1768512,5315.012099345,2709848.1557698,17.742584258426,0,0
86.695583677771,-13.841918370411,12.54701470147,1807576.1768512,5315.012099345,2709848.1557698,17.74701470147,0,0
86.695583849847,-13.843971495992,12.551445144514,1807576.1768512,5315.012099345,2709848.1557698,17.751445144514,0,0
86.695584021923,-13.846024621574,12.555875587559,1807576.1768512,5315.012099345,2709848.1557698,17.755875587559,0,0
86.695584193998,-13.848077747155,12.560306030603,1807576.1768512,5315.012099345,2709848.1557698,17.760306030603,0,0
86.695584366074,-13.850130872736,12.564736473647,1807576.1768512,5315.012099345,2709848.1557698,17.764736473647,0,0
86.69558453815,-13.852183998317,12.569166916692,1807576.1768512,5315.012099345,2709848.1557698,17.769166916692,0,0
86.695584710226,-13.854237123898,12.573597359736,1807576.1768512,5315.012099345,2709848.1557698,17.773597359736,0,0
86.695584882302,-13.856290249479,12.57802780278,1807576.1768512,5315.012099345,2709848.1557698,17.77802780278,0,0
86.695585054378,-13.858343375061,12.582458245825,1807576.1768512,5315.012099345,2709848.1557698,17.782458245825,0,0
86.695585226454,-13.860396500642,12.586888688869,1807576.1768512,5315.012099345,2709848.1557698,17.786888688869,0,0
86.695585398529,-13.862449626223,12.591319131913,1807576.1768512,5315.012099345,2709848.1557698,17.791319131913,0,0
86.695585570605,-13.864502751804,12.595749574957,1807576.1768512,5315.012099345,2709848.1557698,17.795749574957,0,0
86.695585742681,-13.866555877385,12.600180018002,1807576.1768512,5315.012099345,2709848.1557698,17.800180018002,0,0
86.695585914757,-13.868609002967,12.604610461046,1807576.1768512,5315.012099345,2709848.1557698,17.804610461046,0,0
86.695586086833,-13.870662128548,12.60904090409,1807576.1768512,5315.012099345,2709848.1557698,17.80904090409,0,0
86.695586258909,-13.872715254129,12.613471347135,1807576.1768512,5315.012099345,2709848.1557698,17.813471347135,0,0
86.695586430985,-13.87476837971,12.617901790179,1807576.1768512,5315.012099345,2709848.1557698,17.817901790179,0,0
86.69558660306,-13.876821505291,12.622332233223,1807576.1768512,5315.012099345,2709848.1557698,17.822332233223,0,0
86.695586775136,-13.878874630873,12.626762676268,1807576.1768512,5315.012099345,2709848.1557698,17.826762676268,0,0
86.695586947212,-13.880927756454,12.631193119312,1807576.1768512,5315.012099345,2709848.1557698,17.831193119312,0,0
86.695587119288,-13.882980882035,12.635623562356,1807576.1768512,5315.012099345,2709848.1557698,17.835623562356,0,0
86.695587291364,-13.885034007616,12.640054005401,1807576.1768512,5315.012099345,2709848.1557698,17.840054005401,0,0
86.69558746344,-13.887087133197,12.644484448445,1807576.1768512,5315.012099345,2709848.1557698,17.844484448445,0,0
86.695587635516,-13.889140258779,12.648914891489,1807576.1768512,5315.012099345,2709848.1557698,17.848914891489,0,0
86.695587807592,-13.89119338436,12.653345334533,1807576.1768512,5315.012099345,2709848.1557698,17.853345334533,0,0
86.695587979667,-13.893246509941,12.657775777578,1807576.1768512,5315.012099345,2709848.1557698,17.857775777578,0,0
86.695588151743,-13.895299635522,12.662206220622,1807576.1768512,5315.012099345,2709848.1557698,17.862206220622,0,0
86.695588323819,-13.897352761103,12.666636663666,1807576.1768512,5315.012099345,2709848.1557698,17.866636663666,0,0
86.695588495895,-13.899405886685,12.671067106711,1807576.1768512,5315.012099345,2709848.1557698,17.871067106711,0,0
86.695588667971,-13.901459012266,12.675497549755,1807576.1768512,5315.012099345,2709848.1557698,17.875497549755,0,0
86.695588840047,-13.903512137847,12.679927992799,1807576.1768512,5315.012099345,2709848.1557698,17.879927992799,0,0
86.695589012123,-13.905565263428,12.684358435844,1807576.1768512,5315.012099345,2709848.1557698,17.884358435844,0,0
86.695589184198,-13.907618389009,12.688788878888,1807576.1768512,5315.012099345,2709848.1557698,17.888788878888,0,0
86.695589356274,-13.909671514591,12.693219321932,1807576.1768512,5315.012099345,2709848.1557698,17.893219321932,0,0
86.69558952835,-13.911724640172,12.697649764976,1807576.1768512,5315.012099345,2709848.1557698,17.897649764976,0,0
86.695589700426,-13.913777765753,12.702080208021,1807576.1768512,5315.012099345,2709848.1557698,17.902080208021,0,0
86.695589872502,-13.915830891334,12.706510651065,1807576.1768512,5315.012099345,2709848.1557698,17.906510651065,0,0
86.695590044578,-13.917884016915,12.710941094109,1807576.1768512,5315.012099345,2709848.1557698,17.910941094109,0,0
86.695590216654,-13.919937142497,12.715371537154,1807576.1768512,5315.012099345,2709848.1557698,17.915371537154,0,0
86.695590388729,-13.921990268078,12.719801980198,1807576.1768512,5315.012099345,2709848.1557698,17.919801980198,0,0
86.695590560805,-13.924043393659,12.724232423242,1807576.1768512,5315.012099345,2709848.1557698,17.924232423242,0,0
86.695590732881,-13.92609651924,12.728662866287,1807576.1768512,5315.012099345,2709848.1557698,17.928662866287,0,0
86.695590904957,-13.928149644821,12.733093309331,1807576.1768512,5315.012099345,2709848.1557698,17.933093309331,0,0
86.695591077033,-13.930202770403,12.737523752375,1807576.1768512,5315.012099345,2709848.1557698,17.937523752375,0,0
86.695591249359,-13.93225589682,12.74195419542,1809834.4733301,-2366.8012698864,2693704.8562911,17.94195419542,0,0
86.695591422045,-13.934309024441,12.746384638464,1809834.4733301,-2366.8012698864,2693704.8562911,17.946384638464,0,0
86.695591594731,-13.936362152062,12.750815081508,1809834.4733301,-2366.8012698864,2693704.8562911,17.950815081508,0,0
86.695591767417,-13.938415279684,12.755245524552,1809834.4733301,-2366.8012698864,2693704.8562911,17.955245524552,0,0
86.695591940103,-13.940468407305,12.759675967597,1809834.4733301,-2366.8012698864,2693704.8562911,17.959675967597,0,0
86.695592112789,-13.942521534926,12.764106410641,1809834.4733301,-2366.8012698864,2693704.8562911,17.964106410641,0,0
86.695592285475,-13.944574662547,12.768536853685,1809834.4733301,-2366.8012698864,2693704.8562911,17.968536853685,0,0
86.695592458161,-13.946627790168,12.77296729673,1809834.4733301,-2366.8012698864,2693704.8562911,17.97296729673,0,0
86.695592630847,-13.948680917789,12.777397739774,1809834.4733301,-2366.8012698864,2693704.8562911,17.977397739774,0,0
86.695592803533,-13.95073404541,12.781828182818,1809834.4733301,-2366.8012698864,2693704.8562911,17.981828182818,0,0
86.69559297622,-13.952787173031,12.786258625863,1809834.4733301,-2366.8012698864,2693704.8562911,17.986258625863,0,0
86.695593148906,-13.954840300653,12.790689068907,1809834.4733301,-2366.8012698864,2693704.8562911,17.990689068907,0,0
86.695593321592,-13.956893428274,12.795119511951,1809834.4733301,-2366.8012698864,2693704.8562911,17.995119511951,0,0
86.695593494278,-13.958946555895,12.799549954995,1809834.4733301,-2366.8012698864,2693704.8562911,17.999549954995,0,0
86.695593666964,-13.960999683516,12.80398039804,1809834.4733301,-2366.8012698864,2693704.8562911,18.00398039804,0,0
86.69559383965,-13.963052811137,12.808410841084,1809834.4733301,-2366.8012698864,2693704.8562911,18.008410841084,0,0
86.695594012336,-13.965105938758,12.812841284128,1809834.4733301,-2366.8012698864,2693704.8562911,18.012841284128,0,0
86.695594185022,-13.967159066379,12.817271727173,1809834.4733301,-2366.8012698864,2693704.8562911,18.017271727173,0,0
86.695594357708,-13.969212194001,12.821702170217,1809834.4733301,-2366.8012698864,2693704.8562911,18.021702170217,0,0
86.695594530394,-13.971265321622,12.826132613261,1809834.4733301,-2366.8012698864,2693704.8562911,18.026132613261,0,0
86.69559470308,-13.973318449243,12.830563056306,1809834.4733301,-2366.8012698864,2693704.8562911,18.030563056306,0,0
86.695594875766,-13.975371576864,12.83499349935,1809834.4733301,-2366.8012698864,2693704.8562911,18.03499349935,0,0
86.695595048452,-13.977424704485,12.839423942394,1809834.4733301,-2366.8012698864,2693704.8562911,18.039423942394,0,0
86.695595221138,-13.979477832106,12.843854385439,1809834.4733301,-2366.8012698864,2693704.8562911,18.043854385439,0,0
86.695595393824,-13.981530959727,12.848284828483,1809834.4733301,-2366.8012698864,2693704.8562911,18.048284828483,0,0
86.695595566511,-13.983584087349,12.852715271527,1809834.4733301,-2366.8012698864,2693704.8562911,18.052715271527,0,0
86.695595739197,-13.98563721497,12.857145714571,1809834.4733301,-2366.8012698864,2693704.8562911,18.057145714571,0,0
86.695595911883,-13.987690342591,12.861576157616,1809834.4733301,-2366.8012698864,2693704.8562911,18.061576157616,0,0
86.695596084569,-13.989743470212,12.86600660066,1809834.4733301,-2366.8012698864,2693704.8562911,18.06600660066,0,0
86.695596257255,-13.991796597833,12.870437043704,1809834.4733301,-2366.8012698864,2693704.8562911,18.070437043704,0,0
86.695596429941,-13.993849725454,12.874867486749,1809834.4733301,-2366.8012698864,2693704.8562911,18.074867486749,0,0
86.695596602627,-13.995902853075,12.879297929793,1809834.4733301,-2366.8012698864,2693704.8562911,18.079297929793,0,0
86.695596775313,-13.997955980697,12.883728372837,1809834.4733301,-2366.8012698864,2693704.8562911,18.083728372837,0,0
86.695596947999,-14.000009108318,12.888158815882,1809834.4733301,-2366.8012698864,2693704.8562911,18.088158815882,0,0
86.695597120685,-14.002062235939,12.892589258926,1809834.4733301,-2366.8012698864,2693704.8562911,18.092589258926,0,0
86.695597293371,-14.00411536356,12.89701970197,1809834.4733301,-2366.8012698864,2693704.8562911,18.09701970197,0,0
86.695597466057,-14.006168491181,12.901450145015,1809834.4733301,-2366.8012698864,2693704.8562911,18.101450145014,0,0
86.695597638743,-14.008221618802,12.905880588059,1809834.4733301,-2366.8012698864,2693704.8562911,18.105880588059,0,0
86.695597811429,-14.010274746423,12.910311031103,1809834.4733301,-2366.8012698864,2693704.8562911,18.110311031103,0,0
86.695597984115,-14.012327874045,12.914741474147,1809834.4733301,-2366.8012698864,2693704.8562911,18.114741474147,0,0
86.695598156801,-14.014381001666,12.919171917192,1809834.4733301,-2366.8012698864,2693704.8562911,18.119171917192,0,0
86.695598329488,-14.016434129287,12.923602360236,1809834.4733301,-2366.8012698864,2693704.8562911,18.123602360236,0,0
86.695598502174,-14.018487256908,12.92803280328,1809834.4733301,-2366.8012698864,2693704.8562911,18.12803280328,0,0
86.69559867486,-14.020540384529,12.932463246325,1809834.4733301,-2366.8012698864,2693704.8562911,18.132463246325,0,0
86.695598847546,-14.02259351215,12.936893689369,1809834.4733301,-2366.8012698864,2693704.8562911,18.136893689369,0,0
86.695599020232,-14.024646639771,12.941324132413,1809834.4733301,-2366.8012698864,2693704.8562911,18.141324132413,0,0
86.695599192918,-14.026699767392,12.945754575458,1809834.4733301,-2366.8012698864,2693704.8562911,18.145754575458,0,0
86.695599365604,-14.028752895014,12.950185018502,1809834.4733301,-2366.8012698864,2693704.8562911,18.150185018502,0,0
86.69559953829,-14.030806022635,12.954615461546,1809834.4733301,-2366.8012698864,2693704.8562911,18.154615461546,0,0
86.695599710976,-14.032859150256,12.95904590459,1809834.4733301,-2366.8012698864,2693704.8562911,18.15904590459,0,0
86.695599883662,-14.034912277877,12.963476347635,1809834.4733301,-2366.8012698864,2693704.8562911,18.163476347635,0,0
86.695600056348,-14.036965405498,12.967906790679,1809834.4733301,-2366.8012698864,2693704.8562911,18.167906790679,0,0
86.695600229034,-14.039018533119,12.972337233723,1809834.4733301,-2366.8012698864,2693704.8562911,18.172337233723,0,0
86.69560040172,-14.04107166074,12.976767676768,1809834.4733301,-2366.8012698864,2693704.8562911,18.176767676768,0,0
86.695600574406,-14.043124788362,12.981198119812,1809834.4733301,-2366.8012698864,2693704.8562911,18.181198119812,0,0
86.695600747092,-14.045177915983,12.985628562856,1809834.4733301,-2366.8012698864,2693704.8562911,18.185628562856,0,0
86.695600919779,-14.047231043604,12.990059005901,1809834.4733301,-2366.8012698864,2693704.8562911,18.190059005901,0,0
86.695601092465,-14.049284171225,12.994489448945,1809834.4733301,-2366.8012698864,2693704.8562911,18.194489448945,0,0
86.695601265151,-14.051337298846,12.998919891989,1809834.4733301,-2366.8012698864,2693704.8562911,18.198919891989,0,0
86.695601437837,-14.053390426467,13.003350335034,1809834.4733301,-2366.8012698864,2693704.8562911,18.203350335034,0,0
86.695601610523,-14.055443554088,13.007780778078,1809834.4733301,-2366.8012698864,2693704.8562911,18.207780778078,0,0
86.695601783209,-14.05749668171,13.012211221122,1809834.4733301,-2366.8012698864,2693704.8562911,18.212211221122,0,0
86.695601955895,-14.059549809331,13.016641664166,1809834.4733301,-2366.8012698864,2693704.8562911,18.216641664166,0,0
86.695602128581,-14.061602936952,13.021072107211,1809834.4733301,-2366.8012698864,2693704.8562911,18.221072107211,0,0
86.695602301267,-14.063656064573,13.025502550255,1809834.4733301,-2366.8012698864,2693704.8562911,18.225502550255,0,0
86.695602473953,-14.065709192194,13.029932993299,1809834.4733301,-2366.8012698864,2693704.8562911,18.229932993299,0,0
86.695602646639,-14.067762319815,13.034363436344,1809834.4733301,-2366.8012698864,2693704.8562911,18.234363436344,0,0
86.695602819325,-14.069815447436,13.038793879388,1809834.4733301,-2366.8012698864,2693704.8562911,18.238793879388,0,0
86.695602992011,-14.071868575058,13.043224322432,1809834.4733301,-2366.8012698864,2693704.8562911,18.243224322432,0,0
86.695603164697,-14.073921702679,13.047654765477,1809834.4733301,-2366.8012698864,2693704.8562911,18.247654765477,0,0
86.695603337383,-14.0759748303,13.052085208521,1809834.4733301,-2366.8012698864,2693704.8562911,18.252085208521,0,0
86.695603510069,-14.078027957921,13.056515651565,1809834.4733301,-2366.8012698864,2693704.8562911,18.256515651565,0,0
86.695603682756,-14.080081085542,13.060946094609,1809834.4733301,-2366.8012698864,2693704.8562911,18.260946094609,0,0
86.695603855442,-14.082134213163,13.065376537654,1809834.4733301,-2366.8012698864,2693704.8562911,18.265376537654,0,0
86.695604028128,-14.084187340784,13.069806980698,1809834.4733301,-2366.8012698864,2693704.8562911,18.269806980698,0,0
86.695604200814,-14.086240468406,13.074237423742,1809834.4733301,-2366.8012698864,2693704.8562911,18.274237423742,0,0
86.6956043735,-14.088293596027,13.078667866787,1809834.4733301,-2366.8012698864,2693704.8562911,18.278667866787,0,0
86.695604546186,-14.090346723648,13.083098309831,1809834.4733301,-2366.8012698864,2693704.8562911,18.283098309831,0,0
86.695604718872,-14.092399851269,13.087528752875,1809834.4733301,-2366.8012698864,2693704.8562911,18.287528752875,0,0
86.695604891558,-14.09445297889,13.09195919592,1809834.4733301,-2366.8012698864,2693704.8562911,18.29195919592,0,0
86.695605064244,-14.096506106511,13.096389638964,1809834.4733301,-2366.8012698864,2693704.8562911,18.296389638964,0,0
86.69560523693,-14.098559234132,13.100820082008,1809834.4733301,-2366.8012698864,2693704.8562911,18.300820082008,0,0
86.695605409616,-14.100612361754,13.105250525053,1809834.4733301,-2366.8012698864,2693704.8562911,18.305250525053,0,0
86.695605582302,-14.102665489375,13.109680968097,1809834.4733301,-2366.8012698864,2693704.8562911,18.309680968097,0,0
86.695605754988,-14.104718616996,13.114111411141,1809834.4733301,-2366.8012698864,2693704.8562911,18.314111411141,0,0
86.695605927674,-14.106771744617,13.118541854185,1809834.4733301,-2366.8012698864,2693704.8562911,18.318541854185,0,0
86.69560610036,-14.108824872238,13.12297229723,1809834.4733301,-2366.8012698864,2693704.8562911,18.32297229723,0,0
86.695606273047,-14.110877999859,13.127402740274,1809834.4733301,-2366.8012698864,2693704.8562911,18.327402740274,0,0
86.695606445733,-14.11293112748,13.131833183318,1809834.4733301,-2366.8012698864,2693704.8562911,18.331833183318,0,0
86.695606618419,-14.114984255101,13.136263626363,1809834.4733301,-2366.8012698864,2693704.8562911,18.336263626363,0,0
86.695606791105,-14.117037382723,13.140694069407,1809834.4733301,-2366.8012698864,2693704.8562911,18.340694069407,0,0
86.695606963791,-14.119090510344,13.145124512451,1809834.4733301,-2366.8012698864,2693704.8562911,18.345124512451,0,0
86.695607136477,-14.121143637965,13.149554955496,1809834.4733301,-2366.8012698864,2693704.8562911,18.349554955496,0,0
86.695607309163,-14.123196765586,13.15398539854,1809834.4733301,-2366.8012698864,2693704.8562911,18.35398539854,0,0
86.695607481849,-14.125249893207,13.158415841584,1809834.4733301,-2366.8012698864,2693704.8562911,18.358415841584,0,0
86.695607654535,-14.127303020828,13.162846284628,1809834.4733301,-2366.8012698864,2693704.8562911,18.362846284628,0,0
86.695607827221,-14.129356148449,13.167276727673,1809834.4733301,-2366.8012698864,2693704.8562911,18.367276727673,0,0
86.695607999907,-14.131409276071,13.171707170717,1809834.4733301,-2366.8012698864,2693704.8562911,18.371707170717,0,0
86.695608172593,-14.133462403692,13.176137613761,1809834.4733301,-2366.8012698864,2693704.8562911,18.376137613761,0,0
86.695608345279,-14.135515531313,13.180568056806,1809834.4733301,-2366.8012698864,2693704.8562911,18.380568056806,0,0
86.695608517965,-14.137568658934,13.18499849985,1809834.4733301,-2366.8012698864,2693704.8562911,18.38499849985,0,0
86.695608690651,-14.139621786555,13.189428942894,1809834.4733301,-2366.8012698864,2693704.8562911,18.389428942894,0,0
86.695608863337,-14.141674914176,13.193859385939,1809834.4733301,-2366.8012698864,2693704.8562911,18.393859385939,0,0
86.695609036024,-14.143728041797,13.198289828983,1809834.4733301,-2366.8012698864,2693704.8562911,18.398289828983,0,0
86.69560920871,-14.145781169419,13.202720272027,1809834.4733301,-2366.8012698864,2693704.8562911,18.402720272027,0,0
86.695609381396,-14.14783429704,13.207150715072,1809834.4733301,-2366.8012698864,2693704.8562911,18.407150715072,0,0
86.695609554082,-14.149887424661,13.211581158116,1809834.4733301,-2366.8012698864,2693704.8562911,18.411581158116,0,0
86.695609726768,-14.151940552282,13.21601160116,1809834.4733301,-2366.8012698864,2693704.8562911,18.41601160116,0,0
86.695609899454,-14.153993679903,13.220442044204,1809834.4733301,-2366.8012698864,2693704.8562911,18.420442044204,0,0
86.69561007214,-14.156046807524,13.224872487249,1809834.4733301,-2366.8012698864,2693704.8562911,18.424872487249,0,0
86.695610244826,-14.158099935145,13.229302930293,1809834.4733301,-2366.8012698864,2693704.8562911,18.429302930293,0,0
86.695610417512,-14.160153062767,13.233733373337,1809834.4733301,-2366.8012698864,2693704.8562911,18.433733373337,0,0
86.695610590198,-14.162206190388,13.238163816382,1809834.4733301,-2366.8012698864,2693704.8562911,18.438163816382,0,0
86.695610762884,-14.164259318009,13.242594259426,1809834.4733301,-2366.8012698864,2693704.8562911,18.442594259426,0,0
86.69561093557,-14.16631244563,13.24702470247,1809834.4733301,-2366.8012698864,2693704.8562911,18.44702470247,0,0
86.695611108256,-14.168365573251,13.251455145515,1809834.4733301,-2366.8012698864,2693704.8562911,18.451455145515,0,0
86.695611280942,-14.170418700872,13.255885588559,1809834.4733301,-2366.8012698864,2693704.8562911,18.455885588559,0,0
86.695611453628,-14.172471828493,13.260316031603,1809834.4733301,-2366.8012698864,2693704.8562911,18.460316031603,0,0
86.695611626315,-14.174524956115,13.264746474647,1809834.4733301,-2366.8012698864,2693704.8562911,18.464746474647,0,0
86.695611799001,-14.176578083736,13.269176917692,1809834.4733301,-2366.8012698864,2693704.8562911,18.469176917692,0,0
86.695611971687,-14.178631211357,13.273607360736,1809834.4733301,-2366.8012698864,2693704.8562911,18.473607360736,0,0
86.695612144373,-14.180684338978,13.27803780378,1809834.4733301,-2366.8012698864,2693704.8562911,18.47803780378,0,0
86.695612317059,-14.182737466599,13.282468246825,1809834.4733301,-2366.8012698864,2693704.8562911,18.482468246825,0,0
86.695612489745,-14.18479059422,13.286898689869,1809834.4733301,-2366.8012698864,2693704.8562911,18.486898689869,0,0
86.695612662431,-14.186843721841,13.291329132913,1809834.4733301,-2366.8012698864,2693704.8562911,18.491329132913,0,0
86.695612835117,-14.188896849462,13.295759575958,1809834.4733301,-2366.8012698864,2693704.8562911,18.495759575958,0,0
86.695613007803,-14.190949977084,13.300190019002,1809834.4733301,-2366.8012698864,2693704.8562911,18.500190019002,0,0
86.695613180489,-14.193003104705,13.304620462046,1809834.4733301,-2366.8012698864,2693704.8562911,18.504620462046,0,0
86.695613353175,-14.195056232326,13.309050905091,1809834.4733301,-2366.8012698864,2693704.8562911,18.509050905091,0,0
86.695613525861,-14.197109359947,13.313481348135,1809834.4733301,-2366.8012698864,2693704.8562911,18.513481348135,0,0
86.695613698547,-14.199162487568,13.317911791179,1809834.4733301,-2366.8012698864,2693704.8562911,18.517911791179,0,0
86.695613871233,-14.201215615189,13.322342234223,1809834.4733301,-2366.8012698864,2693704.8562911,18.522342234223,0,0
86.695614043919,-14.20326874281,13.326772677268,1809834.4733301,-2366.8012698864,2693704.8562911,18.526772677268,0,0
86.695614216605,-14.205321870432,13.331203120312,1809834.4733301,-2366.8012698864,2693704.8562911,18.531203120312,0,0
86.695614389292,-14.207374998053,13.335633563356,1809834.4733301,-2366.8012698864,2693704.8562911,18.535633563356,0,0
86.695614561978,-14.209428125674,13.340064006401,1809834.4733301,-2366.8012698864,2693704.8562911,18.540064006401,0,0
86.695614734664,-14.211481253295,13.344494449445,1809834.4733301,-2366.8012698864,2693704.8562911,18.544494449445,0,0
86.69561490735,-14.213534380916,13.348924892489,1809834.4733301,-2366.8012698864,2693704.8562911,18.548924892489,0,0
86.695615080036,-14.215587508537,13.353355335534,1809834.4733301,-2366.8012698864,2693704.8562911,18.553355335534,0,0
86.695615252722,-14.217640636158,13.357785778578,1809834.4733301,-2366.8012698864,2693704.8562911,18.557785778578,0,0
86.695615425408,-14.21969376378,13.362216221622,1809834.4733301,-2366.8012698864,2693704.8562911,18.562216221622,0,0
86.695615598094,-14.221746891401,13.366646664666,1809834.4733301,-2366.8012698864,2693704.8562911,18.566646664666,0,0
86.69561577078,-14.223800019022,13.371077107711,1809834.4733301,-2366.8012698864,2693704.8562911,18.571077107711,0,0
86.695615943466,-14.225853146643,13.375507550755,1809834.4733301,-2366.8012698864,2693704.8562911,18.575507550755,0,0
86.695616116152,-14.227906274264,13.379937993799,1809834.4733301,-2366.8012698864,2693704.8562911,18.579937993799,0,0
86.695616288838,-14.229959401885,13.384368436844,1809834.4733301,-2366.8012698864,2693704.8562911,18.584368436844,0,0
86.695616461524,-14.232012529506,13.388798879888,1809834.4733301,-2366.8012698864,2693704.8562911,18.588798879888,0,0
86.69561663421,-14.234065657128,13.393229322932,1809834.4733301,-2366.8012698864,2693704.8562911,18.593229322932,0,0
86.695616806896,-14.236118784749,13.397659765977,1809834.4733301,-2366.8012698864,2693704.8562911,18.597659765977,0,0
86.695616979582,-14.23817191237,13.402090209021,1809834.4733301,-2366.8012698864,2693704.8562911,18.602090209021,0,0
86.695617152269,-14.240225039991,13.406520652065,1809834.4733301,-2366.8012698864,2693704.8562911,18.606520652065,0,0
86.695617324955,-14.242278167612,13.41095109511,1809834.4733301,-2366.8012698864,2693704.8562911,18.61095109511,0,0
86.695617497641,-14.244331295233,13.415381538154,1809834.4733301,-2366.8012698864,2693704.8562911,18.615381538154,0,0
86.695617670327,-14.246384422854,13.419811981198,1809834.4733301,-2366.8012698864,2693704.8562911,18.619811981198,0,0
86.695617843013,-14.248437550476,13.424242424242,1809834.4733301,-2366.8012698864,2693704.8562911,18.624242424242,0,0
86.695618015699,-14.250490678097,13.428672867287,1809834.4733301,-2366.8012698864,2693704.8562911,18.628672867287,0,0
86.695618188385,-14.252543805718,13.433103310331,1809834.4733301,-2366.8012698864,2693704.8562911,18.633103310331,0,0
86.695618361071,-14.254596933339,13.437533753375,1809834.4733301,-2366.8012698864,2693704.8562911,18.637533753375,0,0
86.695618533757,-14.25665006096,13.44196419642,1809834.4733301,-2366.8012698864,2693704.8562911,18.64196419642,0,0
86.695618706443,-14.258703188581,13.446394639464,1809834.4733301,-2366.8012698864,2693704.8562911,18.646394639464,0,0
86.695618879129,-14.260756316202,13.450825082508,1809834.4733301,-2366.8012698864,2693704.8562911,18.650825082508,0,0
86.695619051815,-14.262809443823,13.455255525553,1809834.4733301,-2366.8012698864,2693704.8562911,18.655255525553,0,0
86.695619224501,-14.264862571445,13.459685968597,1809834.4733301,-2366.8012698864,2693704.8562911,18.659685968597,0,0
86.695619397187,-14.266915699066,13.464116411641,1809834.4733301,-2366.8012698864,2693704.8562911,18.664116411641,0,0
86.695619569873,-14.268968826687,13.468546854685,1809834.4733301,-2366.8012698864,2693704.8562911,18.668546854685,0,0
86.69561974256,-14.271021954308,13.47297729773,1809834.4733301,-2366.8012698864,2693704.8562911,18.67297729773,0,0
86.695619915246,-14.273075081929,13.477407740774,1809834.4733301,-2366.8012698864,2693704.8562911,18.677407740774,0,0
86.695620088459,-14.275128208485,13.481838183818,1817777.6657762,3663.2255290669,2686041.6021987,18.681838183818,0,0
86.695620261984,-14.277181334414,13.486268626863,1817777.6657762,3663.2255290669,2686041.6021987,18.686268626863,0,0
86.695620435508,-14.279234460343,13.490699069907,1817777.6657762,3663.2255290669,2686041.6021987,18.690699069907,0,0
86.695620609033,-14.281287586272,13.495129512951,1817777.6657762,3663.2255290669,2686041.6021987,18.695129512951,0,0
86.695620782558,-14.2833407122,13.499559955996,1817777.6657762,3663.2255290669,2686041.6021987,18.699559955996,0,0
86.695620956082,-14.285393838129,13.50399039904,1817777.6657762,3663.2255290669,2686041.6021987,18.70399039904,0,0
86.695621129607,-14.287446964058,13.508420842084,1817777.6657762,3663.2255290669,2686041.6021987,18.708420842084,0,0
86.695621303131,-14.289500089986,13.512851285129,1817777.6657762,3663.2255290669,2686041.6021987,18.712851285129,0,0
86.695621476656,-14.291553215915,13.517281728173,1817777.6657762,3663.2255290669,2686041.6021987,18.717281728173,0,0
86.69562165018,-14.293606341844,13.521712171217,1817777.6657762,3663.2255290669,2686041.6021987,18.721712171217,0,0
86.695621823705,-14.295659467772,13.526142614261,1817777.6657762,3663.2255290669,2686041.6021987,18.726142614261,0,0
86.695621997229,-14.297712593701,13.530573057306,1817777.6657762,3663.2255290669,2686041.6021987,18.730573057306,0,0
86.695622170754,-14.29976571963,13.53500350035,1817777.6657762,3663.2255290669,2686041.6021987,18.73500350035,0,0
86.695622344279,-14.301818845558,13.539433943394,1817777.6657762,3663.2255290669,2686041.6021987,18.739433943394,0,0
86.695622517803,-14.303871971487,13.543864386439,1817777.6657762,3663.2255290669,2686041.6021987,18.743864386439,0,0
86.695622691328,-14.305925097416,13.548294829483,1817777.6657762,3663.2255290669,2686041.6021987,18.748294829483,0,0
86.695622864852,-14.307978223344,13.552725272527,1817777.6657762,3663.2255290669,2686041.6021987,18.752725272527,0,0
86.695623038377,-14.310031349273,13.557155715572,1817777.6657762,3663.2255290669,2686041.6021987,18.757155715572,0,0
86.695623211901,-14.312084475202,13.561586158616,1817777.6657762,3663.2255290669,2686041.6021987,18.761586158616,0,0
86.695623385426,-14.314137601131,13.56601660166,1817777.6657762,3663.2255290669,2686041.6021987,18.76601660166,0,0
86.695623558951,-14.316190727059,13.570447044704,1817777.6657762,3663.2255290669,2686041.6021987,18.770447044704,0,0
86.695623732475,-14.318243852988,13.574877487749,1817777.6657762,3663.2255290669,2686041.6021987,18.774877487749,0,0
86.695623906,-14.320296978917,13.579307930793,1817777.6657762,3663.2255290669,2686041.6021987,18.779307930793,0,0
86.695624079524,-14.322350104845,13.583738373837,1817777.6657762,3663.2255290669,2686041.6021987,18.783738373837,0,0
86.695624253049,-14.324403230774,13.588168816882,1817777.6657762,3663.2255290669,2686041.6021987,18.788168816882,0,0
86.695624426573,-14.326456356703,13.592599259926,1817777.6657762,3663.2255290669,2686041.6021987,18.792599259926,0,0
86.695624600098,-14.328509482631,13.59702970297,1817777.6657762,3663.2255290669,2686041.6021987,18.79702970297,0,0
86.695624773623,-14.33056260856,13.601460146015,1817777.6657762,3663.2255290669,2686041.6021987,18.801460146015,0,0
86.695624947147,-14.332615734489,13.605890589059,1817777.6657762,3663.2255290669,2686041.6021987,18.805890589059,0,0
86.695625120672,-14.334668860417,13.610321032103,1817777.6657762,3663.2255290669,2686041.6021987,18.810321032103,0,0
86.695625294196,-14.336721986346,13.614751475148,1817777.6657762,3663.2255290669,2686041.6021987,18.814751475148,0,0
86.695625467721,-14.338775112275,13.619181918192,1817777.6657762,3663.2255290669,2686041.6021987,18.819181918192,0,0
86.695625641245,-14.340828238204,13.623612361236,1817777.6657762,3663.2255290669,2686041.6021987,18.823612361236,0,0
86.69562581477,-14.342881364132,13.62804280428,1817777.6657762,3663.2255290669,2686041.6021987,18.82804280428,0,0
86.695625988295,-14.344934490061,13.632473247325,1817777.6657762,3663.2255290669,2686041.6021987,18.832473247325,0,0
86.695626161819,-14.34698761599,13.636903690369,1817777.6657762,3663.2255290669,2686041.6021987,18.836903690369,0,0
86.695626335344,-14.349040741918,13.641334133413,1817777.6657762,3663.2255290669,2686041.6021987,18.841334133413,0,0
86.695626508868,-14.351093867847,13.645764576458,1817777.6657762,3663.2255290669,2686041.6021987,18.845764576458,0,0
86.695626682393,-14.353146993776,13.650195019502,1817777.6657762,3663.2255290669,2686041.6021987,18.850195019502,0,0
86.695626855917,-14.355200119704,13.654625462546,1817777.6657762,3663.2255290669,2686041.6021987,18.854625462546,0,0
86.695627029442,-14.357253245633,13.659055905591,1817777.6657762,3663.2255290669,2686041.6021987,18.859055905591,0,0
86.695627202967,-14.359306371562,13.663486348635,1817777.6657762,3663.2255290669,2686041.6021987,18.863486348635,0,0
86.695627376491,-14.36135949749,13.667916791679,1817777.6657762,3663.2255290669,2686041.6021987,18.867916791679,0,0
86.695627550016,-14.363412623419,13.672347234723,1817777.6657762,3663.2255290669,2686041.6021987,18.872347234723,0,0
86.69562772354,-14.365465749348,13.676777677768,1817777.6657762,3663.2255290669,2686041.6021987,18.876777677768,0,0
86.695627897065,-14.367518875276,13.681208120812,1817777.6657762,3663.2255290669,2686041.6021987,18.881208120812,0,0
86.695628070589,-14.369572001205,13.685638563856,1817777.6657762,3663.2255290669,2686041.6021987,18.885638563856,0,0
86.695628244114,-14.371625127134,13.690069006901,1817777.6657762,3663.2255290669,2686041.6021987,18.890069006901,0,0
86.695628417639,-14.373678253063,13.694499449945,1817777.6657762,3663.2255290669,2686041.6021987,18.894499449945,0,0
86.695628591163,-14.375731378991,13.698929892989,1817777.6657762,3663.2255290669,2686041.6021987,18.898929892989,0,0
86.695628764688,-14.37778450492,13.703360336034,1817777.6657762,3663.2255290669,2686041.6021987,18.903360336034,0,0
86.695628938212,-14.379837630849,13.707790779078,1817777.6657762,3663.2255290669,2686041.6021987,18.907790779078,0,0
86.695629111737,-14.381890756777,13.712221222122,1817777.6657762,3663.2255290669,2686041.6021987,18.912221222122,0,0
86.695629285261,-14.383943882706,13.716651665167,1817777.6657762,3663.2255290669,2686041.6021987,18.916651665167,0,0
86.695629458786,-14.385997008635,13.721082108211,1817777.6657762,3663.2255290669,2686041.6021987,18.921082108211,0,0
86.695629632311,-14.388050134563,13.725512551255,1817777.6657762,3663.2255290669,2686041.6021987,18.925512551255,0,0
86.695629805835,-14.390103260492,13.729942994299,1817777.6657762,3663.2255290669,2686041.6021987,18.929942994299,0,0
86.69562997936,-14.392156386421,13.734373437344,1817777.6657762,3663.2255290669,2686041.6021987,18.934373437344,0,0
86.695630152884,-14.394209512349,13.738803880388,1817777.6657762,3663.2255290669,2686041.6021987,18.938803880388,0,0
86.695630326409,-14.396262638278,13.743234323432,1817777.6657762,3663.2255290669,2686041.6021987,18.943234323432,0,0
86.695630499933,-14.398315764207,13.747664766477,1817777.6657762,3663.2255290669,2686041.6021987,18.947664766477,0,0
86.695630673458,-14.400368890135,13.752095209521,1817777.6657762,3663.2255290669,2686041.6021987,18.952095209521,0,0
86.695630846983,-14.402422016064,13.756525652565,1817777.6657762,3663.2255290669,2686041.6021987,18.956525652565,0,0
86.695631020507,-14.404475141993,13.76095609561,1817777.6657762,3663.2255290669,2686041.6021987,18.96095609561,0,0
86.695631194032,-14.406528267922,13.765386538654,1817777.6657762,3663.2255290669,2686041.6021987,18.965386538654,0,0
86.695631367556,-14.40858139385,13.769816981698,1817777.6657762,3663.2255290669,2686041.6021987,18.969816981698,0,0
86.695631541081,-14.410634519779,13.774247424742,1817777.6657762,3663.2255290669,2686041.6021987,18.974247424742,0,0
86.695631714605,-14.412687645708,13.778677867787,1817777.6657762,3663.2255290669,2686041.6021987,18.978677867787,0,0
86.69563188813,-14.414740771636,13.783108310831,1817777.6657762,3663.2255290669,2686041.6021987,18.983108310831,0,0
86.695632061655,-14.416793897565,13.787538753875,1817777.6657762,3663.2255290669,2686041.6021987,18.987538753875,0,0
86.695632235179,-14.418847023494,13.79196919692,1817777.6657762,3663.2255290669,2686041.6021987,18.99196919692,0,0
86.695632408704,-14.420900149422,13.796399639964,1817777.6657762,3663.2255290669,2686041.6021987,18.996399639964,0,0
86.695632582228,-14.422953275351,13.800830083008,1817777.6657762,3663.2255290669,2686041.6021987,19.000830083008,0,0
86.695632755753,-14.42500640128,13.805260526053,1817777.6657762,3663.2255290669,2686041.6021987,19.005260526053,0,0
86.695632929277,-14.427059527208,13.809690969097,1817777.6657762,3663.2255290669,2686041.6021987,19.009690969097,0,0
86.695633102802,-14.429112653137,13.814121412141,1817777.6657762,3663.2255290669,2686041.6021987,19.014121412141,0,0
86.695633276327,-14.431165779066,13.818551855186,1817777.6657762,3663.2255290669,2686041.6021987,19.018551855186,0,0
86.695633449851,-14.433218904995,13.82298229823,1817777.6657762,3663.2255290669,2686041.6021987,19.02298229823,0,0
86.695633623376,-14.435272030923,13.827412741274,1817777.6657762,3663.2255290669,2686041.6021987,19.027412741274,0,0
86.6956337969,-14.437325156852,13.831843184318,1817777.6657762,3663.2255290669,2686041.6021987,19.031843184318,0,0
86.695633970425,-14.439378282781,13.836273627363,1817777.6657762,3663.2255290669,2686041.6021987,19.036273627363,0,0
86.695634143949,-14.441431408709,13.840704070407,1817777.6657762,3663.2255290669,2686041.6021987,19.040704070407,0,0
86.695634317474,-14.443484534638,13.845134513451,1817777.6657762,3663.2255290669,2686041.6021987,19.045134513451,0,0
86.695634490998,-14.445537660567,13.849564956496,1817777.6657762,3663.2255290669,2686041.6021987,19.049564956496,0,0
86.695634664523,-14.447590786495,13.85399539954,1817777.6657762,3663.2255290669,2686041.6021987,19.05399539954,0,0
86.695634838048,-14.449643912424,13.858425842584,1817777.6657762,3663.2255290669,2686041.6021987,19.058425842584,0,0
86.695635011572,-14.451697038353,13.862856285629,1817777.6657762,3663.2255290669,2686041.6021987,19.062856285629,0,0
86.695635185097,-14.453750164281,13.867286728673,1817777.6657762,3663.2255290669,2686041.6021987,19.067286728673,0,0
86.695635358621,-14.45580329021,13.871717171717,1817777.6657762,3663.2255290669,2686041.6021987,19.071717171717,0,0
86.695635532146,-14.457856416139,13.876147614761,1817777.6657762,3663.2255290669,2686041.6021987,19.076147614761,0,0
86.69563570567,-14.459909542067,13.880578057806,1817777.6657762,3663.2255290669,2686041.6021987,19.080578057806,0,0
86.695635879195,-14.461962667996,13.88500850085,1817777.6657762,3663.2255290669,2686041.6021987,19.08500850085,0,0
86.69563605272,-14.464015793925,13.889438943894,1817777.6657762,3663.2255290669,2686041.6021987,19.089438943894,0,0
86.695636226244,-14.466068919854,13.893869386939,1817777.6657762,3663.2255290669,2686041.6021987,19.093869386939,0,0
86.695636399769,-14.468122045782,13.898299829983,1817777.6657762,3663.2255290669,2686041.6021987,19.098299829983,0,0
86.695636573293,-14.470175171711,13.902730273027,1817777.6657762,3663.2255290669,2686041.6021987,19.102730273027,0,0
86.695636746818,-14.47222829764,13.907160716072,1817777.6657762,3663.2255290669,2686041.6021987,19.107160716072,0,0
86.695636920342,-14.474281423568,13.911591159116,1817777.6657762,3663.2255290669,2686041.6021987,19.111591159116,0,0
86.695637093867,-14.476334549497,13.91602160216,1817777.6657762,3663.2255290669,2686041.6021987,19.11602160216,0,0
86.695637267392,-14.478387675426,13.920452045205,1817777.6657762,3663.2255290669,2686041.6021987,19.120452045205,0,0
86.695637440916,-14.480440801354,13.924882488249,1817777.6657762,3663.2255290669,2686041.6021987,19.124882488249,0,0
86.695637614441,-14.482493927283,13.929312931293,1817777.6657762,3663.2255290669,2686041.6021987,19.129312931293,0,0
86.695637787965,-14.484547053212,13.933743374337,1817777.6657762,3663.2255290669,2686041.6021987,19.133743374337,0,0
86.69563796149,-14.48660017914,13.938173817382,1817777.6657762,3663.2255290669,2686041.6021987,19.138173817382,0,0
86.695638135014,-14.488653305069,13.942604260426,1817777.6657762,3663.2255290669,2686041.6021987,19.142604260426,0,0
86.695638308539,-14.490706430998,13.94703470347,1817777.6657762,3663.2255290669,2686041.6021987,19.14703470347,0,0
86.695638482064,-14.492759556926,13.951465146515,1817777.6657762,3663.2255290669,2686041.6021987,19.151465146515,0,0
86.695638655588,-14.494812682855,13.955895589559,1817777.6657762,3663.2255290669,2686041.6021987,19.155895589559,0,0
86.695638829113,-14.496865808784,13.960326032603,1817777.6657762,3663.2255290669,2686041.6021987,19.160326032603,0,0
86.695639002637,-14.498918934713,13.964756475648,1817777.6657762,3663.2255290669,2686041.6021987,19.164756475648,0,0
86.695639176162,-14.500972060641,13.969186918692,1817777.6657762,3663.2255290669,2686041.6021987,19.169186918692,0,0
86.695639349686,-14.50302518657,13.973617361736,1817777.6657762,3663.2255290669,2686041.6021987,19.173617361736,0,0
86.695639523211,-14.505078312499,13.97804780478,1817777.6657762,3663.2255290669,2686041.6021987,19.17804780478,0,0
86.695639696736,-14.507131438427,13.982478247825,1817777.6657762,3663.2255290669,2686041.6021987,19.182478247825,0,0
86.69563987026,-14.509184564356,13.986908690869,1817777.6657762,3663.2255290669,2686041.6021987,19.186908690869,0,0
86.695640043785,-14.511237690285,13.991339133913,1817777.6657762,3663.2255290669,2686041.6021987,19.191339133913,0,0
86.695640217309,-14.513290816213,13.995769576958,1817777.6657762,3663.2255290669,2686041.6021987,19.195769576958,0,0
86.695640390834,-14.515343942142,14.000200020002,1817777.6657762,3663.2255290669,2686041.6021987,19.200200020002,0,0
86.695640564358,-14.517397068071,14.004630463046,1817777.6657762,3663.2255290669,2686041.6021987,19.204630463046,0,0
86.695640737883,-14.519450193999,14.009060906091,1817777.6657762,3663.2255290669,2686041.6021987,19.209060906091,0,0
86.695640911408,-14.521503319928,14.013491349135,1817777.6657762,3663.2255290669,2686041.6021987,19.213491349135,0,0
86.695641084965,-14.52355644596,14.017921792179,1819835.3186474,-2542.1276046701,2672128.1729178,19.217921792179,0,0
86.695641259024,-14.525609573579,14.022352235224,1819835.3186474,-2542.1276046701,2672128.1729178,19.222352235224,0,0
86.695641433083,-14.527662701198,14.026782678268,1819835.3186474,-2542.1276046701,2672128.1729178,19.226782678268,0,0
86.695641607143,-14.529715828818,14.031213121312,1819835.3186474,-2542.1276046701,2672128.1729178,19.231213121312,0,0
86.695641781202,-14.531768956437,14.035643564356,1819835.3186474,-2542.1276046701,2672128.1729178,19.235643564356,0,0
86.695641955262,-14.533822084056,14.040074007401,1819835.3186474,-2542.1276046701,2672128.1729178,19.240074007401,0,0
86.695642129321,-14.535875211676,14.044504450445,1819835.3186474,-2542.1276046701,2672128.1729178,19.244504450445,0,0
86.69564230338,-14.537928339295,14.048934893489,1819835.3186474,-2542.1276046701,2672128.1729178,19.248934893489,0,0
86.69564247744,-14.539981466914,14.053365336534,1819835.3186474,-2542.1276046701,2672128.1729178,19.253365336534,0,0
86.695642651499,-14.542034594534,14.057795779578,1819835.3186474,-2542.1276046701,2672128.1729178,19.257795779578,0,0
86.695642825558,-14.544087722153,14.062226222622,1819835.3186474,-2542.1276046701,2672128.1729178,19.262226222622,0,0
86.695642999618,-14.546140849772,14.066656665667,1819835.3186474,-2542.1276046701,2672128.1729178,19.266656665667,0,0
86.695643173677,-14.548193977392,14.071087108711,1819835.3186474,-2542.1276046701,2672128.1729178,19.271087108711,0,0
86.695643347737,-14.550247105011,14.075517551755,1819835.3186474,-2542.1276046701,2672128.1729178,19.275517551755,0,0
86.695643521796,-14.55230023263,14.079947994799,1819835.3186474,-2542.1276046701,2672128.1729178,19.279947994799,0,0
86.695643695855,-14.55435336025,14.084378437844,1819835.3186474,-2542.1276046701,2672128.1729178,19.284378437844,0,0
86.695643869915,-14.556406487869,14.088808880888,1819835.3186474,-2542.1276046701,2672128.1729178,19.288808880888,0,0
86.695644043974,-14.558459615488,14.093239323932,1819835.3186474,-2542.1276046701,2672128.1729178,19.293239323932,0,0
86.695644218033,-14.560512743108,14.097669766977,1819835.3186474,-2542.1276046701,2672128.1729178,19.297669766977,0,0
86.695644392093,-14.562565870727,14.102100210021,1819835.3186474,-2542.1276046701,2672128.1729178,19.302100210021,0,0
86.695644566152,-14.564618998346,14.106530653065,1819835.3186474,-2542.1276046701,2672128.1729178,19.306530653065,0,0
86.695644740212,-14.566672125966,14.11096109611,1819835.3186474,-2542.1276046701,2672128.1729178,19.31096109611,0,0
86.695644914271,-14.568725253585,14.115391539154,1819835.3186474,-2542.1276046701,2672128.1729178,19.315391539154,0,0
86.69564508833,-14.570778381204,14.119821982198,1819835.3186474,-2542.1276046701,2672128.1729178,19.319821982198,0,0
86.69564526239,-14.572831508824,14.124252425243,1819835.3186474,-2542.1276046701,2672128.1729178,19.324252425243,0,0
86.695645436449,-14.574884636443,14.128682868287,1819835.3186474,-2542.1276046701,2672128.1729178,19.328682868287,0,0
86.695645610508,-14.576937764062,14.133113311331,1819835.3186474,-2542.1276046701,2672128.1729178,19.333113311331,0,0
86.695645784568,-14.578990891682,14.137543754375,1819835.3186474,-2542.1276046701,2672128.1729178,19.337543754375,0,0
86.695645958627,-14.581044019301,14.14197419742,1819835.3186474,-2542.1276046701,2672128.1729178,19.34197419742,0,0
86.695646132687,-14.58309714692,14.146404640464,1819835.3186474,-2542.1276046701,2672128.1729178,19.346404640464,0,0
86.695646306746,-14.58515027454,14.150835083508,1819835.3186474,-2542.1276046701,2672128.1729178,19.350835083508,0,0
86.695646480805,-14.587203402159,14.155265526553,1819835.3186474,-2542.1276046701,2672128.1729178,19.355265526553,0,0
86.695646654865,-14.589256529778,14.159695969597,1819835.3186474,-2542.1276046701,2672128.1729178,19.359695969597,0,0
86.695646828924,-14.591309657398,14.164126412641,1819835.3186474,-2542.1276046701,2672128.1729178,19.364126412641,0,0
86.695647002983,-14.593362785017,14.168556855686,1819835.3186474,-2542.1276046701,2672128.1729178,19.368556855686,0,0
86.695647177043,-14.595415912636,14.17298729873,1819835.3186474,-2542.1276046701,2672128.1729178,19.37298729873,0,0
86.695647351102,-14.597469040256,14.177417741774,1819835.3186474,-2542.1276046701,2672128.1729178,19.377417741774,0,0
86.695647525162,-14.599522167875,14.181848184818,1819835.3186474,-2542.1276046701,2672128.1729178,19.381848184818,0,0
86.695647699221,-14.601575295494,14.186278627863,1819835.3186474,-2542.1276046701,2672128.1729178,19.386278627863,0,0
86.69564787328,-14.603628423114,14.190709070907,1819835.3186474,-2542.1276046701,2672128.1729178,19.390709070907,0,0
86.69564804734,-14.605681550733,14.195139513951,1819835.3186474,-2542.1276046701,2672128.1729178,19.395139513951,0,0
86.695648221399,-14.607734678352,14.199569956996,1819835.3186474,-2542.1276046701,2672128.1729178,19.399569956996,0,0
86.695648395458,-14.609787805972,14.20400040004,1819835.3186474,-2542.1276046701,2672128.1729178,19.40400040004,0,0
86.695648569518,-14.611840933591,14.208430843084,1819835.3186474,-2542.1276046701,2672128.1729178,19.408430843084,0,0
86.695648743577,-14.61389406121,14.212861286129,1819835.3186474,-2542.1276046701,2672128.1729178,19.412861286129,0,0
86.695648917637,-14.61594718883,14.217291729173,1819835.3186474,-2542.1276046701,2672128.1729178,19.417291729173,0,0
86.695649091696,-14.618000316449,14.221722172217,1819835.3186474,-2542.1276046701,2672128.1729178,19.421722172217,0,0
86.695649265755,-14.620053444068,14.226152615262,1819835.3186474,-2542.1276046701,2672128.1729178,19.426152615262,0,0
86.695649439815,-14.622106571688,14.230583058306,1819835.3186474,-2542.1276046701,2672128.1729178,19.430583058306,0,0
86.695649613874,-14.624159699307,14.23501350135,1819835.3186474,-2542.1276046701,2672128.1729178,19.43501350135,0,0
86.695649787933,-14.626212826926,14.239443944394,1819835.3186474,-2542.1276046701,2672128.1729178,19.439443944394,0,0
86.695649961993,-14.628265954546,14.243874387439,1819835.3186474,-2542.1276046701,2672128.1729178,19.443874387439,0,0
86.695650136052,-14.630319082165,14.248304830483,1819835.3186474,-2542.1276046701,2672128.1729178,19.448304830483,0,0
86.695650310112,-14.632372209784,14.252735273527,1819835.3186474,-2542.1276046701,2672128.1729178,19.452735273527,0,0
86.695650484171,-14.634425337404,14.257165716572,1819835.3186474,-2542.1276046701,2672128.1729178,19.457165716572,0,0
86.69565065823,-14.636478465023,14.261596159616,1819835.3186474,-2542.1276046701,2672128.1729178,19.461596159616,0,0
86.69565083229,-14.638531592642,14.26602660266,1819835.3186474,-2542.1276046701,2672128.1729178,19.46602660266,0,0
86.695651006349,-14.640584720262,14.270457045705,1819835.3186474,-2542.1276046701,2672128.1729178,19.470457045705,0,0
86.695651180408,-14.642637847881,14.274887488749,1819835.3186474,-2542.1276046701,2672128.1729178,19.474887488749,0,0
86.695651354468,-14.6446909755,14.279317931793,1819835.3186474,-2542.1276046701,2672128.1729178,19.479317931793,0,0
86.695651528527,-14.646744103119,14.283748374837,1819835.3186474,-2542.1276046701,2672128.1729178,19.483748374837,0,0
86.695651702587,-14.648797230739,14.288178817882,1819835.3186474,-2542.1276046701,2672128.1729178,19.488178817882,0,0
86.695651876646,-14.650850358358,14.292609260926,1819835.3186474,-2542.1276046701,2672128.1729178,19.492609260926,0,0
86.695652050705,-14.652903485977,14.29703970397,1819835.3186474,-2542.1276046701,2672128.1729178,19.49703970397,0,0
86.695652224765,-14.654956613597,14.301470147015,1819835.3186474,-2542.1276046701,2672128.1729178,19.501470147015,0,0
86.695652398824,-14.657009741216,14.305900590059,1819835.3186474,-2542.1276046701,2672128.1729178,19.505900590059,0,0
86.695652572883,-14.659062868835,14.310331033103,1819835.3186474,-2542.1276046701,2672128.1729178,19.510331033103,0,0
86.695652746943,-14.661115996455,14.314761476148,1819835.3186474,-2542.1276046701,2672128.1729178,19.514761476148,0,0
86.695652921002,-14.663169124074,14.319191919192,1819835.3186474,-2542.1276046701,2672128.1729178,19.519191919192,0,0
86.695653095062,-14.665222251693,14.323622362236,1819835.3186474,-2542.1276046701,2672128.1729178,19.523622362236,0,0
86.695653269121,-14.667275379313,14.328052805281,1819835.3186474,-2542.1276046701,2672128.1729178,19.528052805281,0,0
86.69565344318,-14.669328506932,14.332483248325,1819835.3186474,-2542.1276046701,2672128.1729178,19.532483248325,0,0
86.69565361724,-14.671381634551,14.336913691369,1819835.3186474,-2542.1276046701,2672128.1729178,19.536913691369,0,0
86.695653791299,-14.673434762171,14.341344134413,1819835.3186474,-2542.1276046701,2672128.1729178,19.541344134413,0,0
86.695653965358,-14.67548788979,14.345774577458,1819835.3186474,-2542.1276046701,2672128.1729178,19.545774577458,0,0
86.695654139418,-14.677541017409,14.350205020502,1819835.3186474,-2542.1276046701,2672128.1729178,19.550205020502,0,0
86.695654313477,-14.679594145029,14.354635463546,1819835.3186474,-2542.1276046701,2672128.1729178,19.554635463546,0,0
86.695654487537,-14.681647272648,14.359065906591,1819835.3186474,-2542.1276046701,2672128.1729178,19.559065906591,0,0
86.695654661596,-14.683700400267,14.363496349635,1819835.3186474,-2542.1276046701,2672128.1729178,19.563496349635,0,0
86.695654835655,-14.685753527887,14.367926792679,1819835.3186474,-2542.1276046701,2672128.1729178,19.567926792679,0,0
86.695655009715,-14.687806655506,14.372357235724,1819835.3186474,-2542.1276046701,2672128.1729178,19.572357235724,0,0
86.695655183774,-14.689859783125,14.376787678768,1819835.3186474,-2542.1276046701,2672128.1729178,19.576787678768,0,0
86.695655357833,-14.691912910745,14.381218121812,1819835.3186474,-2542.1276046701,2672128.1729178,19.581218121812,0,0
86.695655531893,-14.693966038364,14.385648564856,1819835.3186474,-2542.1276046701,2672128.1729178,19.585648564856,0,0
86.695655705952,-14.696019165983,14.390079007901,1819835.3186474,-2542.1276046701,2672128.1729178,19.590079007901,0,0
86.695655880012,-14.698072293603,14.394509450945,1819835.3186474,-2542.1276046701,2672128.1729178,19.594509450945,0,0
86.695656054071,-14.700125421222,14.398939893989,1819835.3186474,-2542.1276046701,2672128.1729178,19.598939893989,0,0
86.69565622813,-14.702178548841,14.403370337034,1819835.3186474,-2542.1276046701,2672128.1729178,19.603370337034,0,0
86.69565640219,-14.704231676461,14.407800780078,1819835.3186474,-2542.1276046701,2672128.1729178,19.607800780078,0,0
86.695656576249,-14.70628480408,14.412231223122,1819835.3186474,-2542.1276046701,2672128.1729178,19.612231223122,0,0
86.695656750308,-14.708337931699,14.416661666167,1819835.3186474,-2542.1276046701,2672128.1729178,19.616661666167,0,0
86.695656924368,-14.710391059319,14.421092109211,1819835.3186474,-2542.1276046701,2672128.1729178,19.621092109211,0,0
86.695657098427,-14.712444186938,14.425522552255,1819835.3186474,-2542.1276046701,2672128.1729178,19.625522552255,0,0
86.695657272487,-14.714497314557,14.4299529953,1819835.3186474,-2542.1276046701,2672128.1729178,19.6299529953,0,0
86.695657446546,-14.716550442177,14.434383438344,1819835.3186474,-2542.1276046701,2672128.1729178,19.634383438344,0,0
86.695657620605,-14.718603569796,14.438813881388,1819835.3186474,-2542.1276046701,2672128.1729178,19.638813881388,0,0
86.695657794665,-14.720656697415,14.443244324432,1819835.3186474,-2542.1276046701,2672128.1729178,19.643244324432,0,0
86.695657968724,-14.722709825035,14.447674767477,1819835.3186474,-2542.1276046701,2672128.1729178,19.647674767477,0,0
86.695658142783,-14.724762952654,14.452105210521,1819835.3186474,-2542.1276046701,2672128.1729178,19.652105210521,0,0
86.695658316843,-14.726816080273,14.456535653565,1819835.3186474,-2542.1276046701,2672128.1729178,19.656535653565,0,0
86.695658490902,-14.728869207893,14.46096609661,1819835.3186474,-2542.1276046701,2672128.1729178,19.66096609661,0,0
86.695658664962,-14.730922335512,14.465396539654,1819835.3186474,-2542.1276046701,2672128.1729178,19.665396539654,0,0
86.695658839021,-14.732975463131,14.469826982698,1819835.3186474,-2542.1276046701,2672128.1729178,19.669826982698,0,0
86.69565901308,-14.735028590751,14.474257425743,1819835.3186474,-2542.1276046701,2672128.1729178,19.674257425743,0,0
86.69565918714,-14.73708171837,14.478687868787,1819835.3186474,-2542.1276046701,2672128.1729178,19.678687868787,0,0
86.695659361199,-14.739134845989,14.483118311831,1819835.3186474,-2542.1276046701,2672128.1729178,19.683118311831,0,0
86.695659535258,-14.741187973609,14.487548754875,1819835.3186474,-2542.1276046701,2672128.1729178,19.687548754875,0,0
86.695659709318,-14.743241101228,14.49197919792,1819835.3186474,-2542.1276046701,2672128.1729178,19.69197919792,0,0
86.695659883377,-14.745294228847,14.496409640964,1819835.3186474,-2542.1276046701,2672128.1729178,19.696409640964,0,0
86.695660057437,-14.747347356467,14.500840084008,1819835.3186475,-2542.1276046701,2672128.1729178,19.700840084008,0,0
86.695660231496,-14.749400484086,14.505270527053,1819835.3186475,-2542.1276046701,2672128.1729178,19.705270527053,0,0
86.695660405555,-14.751453611705,14.509700970097,1819835.3186475,-2542.1276046701,2672128.1729178,19.709700970097,0,0
86.695660579615,-14.753506739325,14.514131413141,1819835.3186475,-2542.1276046701,2672128.1729178,19.714131413141,0,0
86.695660753674,-14.755559866944,14.518561856186,1819835.3186475,-2542.1276046701,2672128.1729178,19.718561856186,0,0
86.695660927733,-14.757612994563,14.52299229923,1819835.3186475,-2542.1276046701,2672128.1729178,19.72299229923,0,0
86.695661101793,-14.759666122183,14.527422742274,1819835.3186475,-2542.1276046701,2672128.1729178,19.727422742274,0,0
86.695661275852,-14.761719249802,14.531853185319,1819835.3186475,-2542.1276046701,2672128.1729178,19.731853185319,0,0
86.695661449912,-14.763772377421,14.536283628363,1819835.3186475,-2542.1276046701,2672128.1729178,19.736283628363,0,0
86.695661623971,-14.765825505041,14.540714071407,1819835.3186475,-2542.1276046701,2672128.1729178,19.740714071407,0,0
86.69566179803,-14.76787863266,14.545144514451,1819835.3186475,-2542.1276046701,2672128.1729178,19.745144514451,0,0
86.69566197209,-14.769931760279,14.549574957496,1819835.3186475,-2542.1276046701,2672128.1729178,19.749574957496,0,0
86.695662146149,-14.771984887898,14.55400540054,1819835.3186475,-2542.1276046701,2672128.1729178,19.75400540054,0,0
86.695662320208,-14.774038015518,14.558435843584,1819835.3186475,-2542.1276046701,2672128.1729178,19.758435843584,0,0
86.695662494268,-14.776091143137,14.562866286629,1819835.3186475,-2542.1276046701,2672128.1729178,19.762866286629,0,0
86.695662668327,-14.778144270756,14.567296729673,1819835.3186475,-2542.1276046701,2672128.1729178,19.767296729673,0,0
86.695662842387,-14.780197398376,14.571727172717,1819835.3186475,-2542.1276046701,2672128.1729178,19.771727172717,0,0
86.695663016446,-14.782250525995,14.576157615762,1819835.3186475,-2542.1276046701,2672128.1729178,19.776157615762,0,0
86.695663190505,-14.784303653614,14.580588058806,1819835.3186475,-2542.1276046701,2672128.1729178,19.780588058806,0,0
86.695663364565,-14.786356781234,14.58501850185,1819835.3186475,-2542.1276046701,2672128.1729178,19.78501850185,0,0
86.695663538624,-14.788409908853,14.589448944894,1819835.3186475,-2542.1276046701,2672128.1729178,19.789448944894,0,0
86.695663712683,-14.790463036472,14.593879387939,1819835.3186475,-2542.1276046701,2672128.1729178,19.793879387939,0,0
86.695663886743,-14.792516164092,14.598309830983,1819835.3186475,-2542.1276046701,2672128.1729178,19.798309830983,0,0
86.695664060802,-14.794569291711,14.602740274027,1819835.3186475,-2542.1276046701,2672128.1729178,19.802740274027,0,0
86.695664234862,-14.79662241933,14.607170717072,1819835.3186475,-2542.1276046701,2672128.1729178,19.807170717072,0,0
86.695664408921,-14.79867554695,14.611601160116,1819835.3186475,-2542.1276046701,2672128.1729178,19.811601160116,0,0
86.69566458298,-14.800728674569,14.61603160316,1819835.3186475,-2542.1276046701,2672128.1729178,19.81603160316,0,0
86.69566475704,-14.802781802188,14.620462046205,1819835.3186475,-2542.1276046701,2672128.1729178,19.820462046205,0,0
86.695664931099,-14.804834929808,14.624892489249,1819835.3186475,-2542.1276046701,2672128.1729178,19.824892489249,0,0
86.695665105158,-14.806888057427,14.629322932293,1819835.3186475,-2542.1276046701,2672128.1729178,19.829322932293,0,0
86.695665279218,-14.808941185046,14.633753375338,1819835.3186475,-2542.1276046701,2672128.1729178,19.833753375338,0,0
86.695665453277,-14.810994312666,14.638183818382,1819835.3186475,-2542.1276046701,2672128.1729178,19.838183818382,0,0
86.695665627337,-14.813047440285,14.642614261426,1819835.3186475,-2542.1276046701,2672128.1729178,19.842614261426,0,0
86.695665801396,-14.815100567904,14.64704470447,1819835.3186475,-2542.1276046701,2672128.1729178,19.84704470447,0,0
86.695665975455,-14.817153695524,14.651475147515,1819835.3186475,-2542.1276046701,2672128.1729178,19.851475147515,0,0
86.695666149515,-14.819206823143,14.655905590559,1819835.3186475,-2542.1276046701,2672128.1729178,19.855905590559,0,0
86.695666323574,-14.821259950762,14.660336033603,1819835.3186475,-2542.1276046701,2672128.1729178,19.860336033603,0,0
86.695666497633,-14.823313078382,14.664766476648,1819835.3186475,-2542.1276046701,2672128.1729178,19.864766476648,0,0
86.695666671693,-14.825366206001,14.669196919692,1819835.3186475,-2542.1276046701,2672128.1729178,19.869196919692,0,0
86.695666845752,-14.82741933362,14.673627362736,1819835.3186475,-2542.1276046701,2672128.1729178,19.873627362736,0,0
86.695667019812,-14.82947246124,14.678057805781,1819835.3186475,-2542.1276046701,2672128.1729178,19.878057805781,0,0
86.695667193871,-14.831525588859,14.682488248825,1819835.3186475,-2542.1276046701,2672128.1729178,19.882488248825,0,0
86.69566736793,-14.833578716478,14.686918691869,1819835.3186475,-2542.1276046701,2672128.1729178,19.886918691869,0,0
86.695667542677,-14.835631842734,14.691349134913,1826444.3152216,2373.0357749229,2665218.4416091,19.891349134913,0,0
86.695667717448,-14.837684968939,14.695779577958,1826444.3152216,2373.0357749229,2665218.4416091,19.895779577958,0,0
86.695667892219,-14.839738095145,14.700210021002,1826444.3152216,2373.0357749229,2665218.4416091,19.900210021002,0,0
86.69566806699,-14.841791221351,14.704640464046,1826444.3152216,2373.0357749229,2665218.4416091,19.904640464046,0,0
86.695668241762,-14.843844347557,14.709070907091,1826444.3152216,2373.0357749229,2665218.4416091,19.909070907091,0,0
86.695668416533,-14.845897473763,14.713501350135,1826444.3152216,2373.0357749229,2665218.4416091,19.913501350135,0,0
86.695668591304,-14.847950599968,14.717931793179,1826444.3152216,2373.0357749229,2665218.4416091,19.917931793179,0,0
86.695668766075,-14.850003726174,14.722362236224,1826444.3152216,2373.0357749229,2665218.4416091,19.922362236224,0,0
86.695668940847,-14.85205685238,14.726792679268,1826444.3152216,2373.0357749229,2665218.4416091,19.926792679268,0,0
86.695669115618,-14.854109978586,14.731223122312,1826444.3152216,2373.0357749229,2665218.4416091,19.931223122312,0,0
86.695669290389,-14.856163104792,14.735653565357,1826444.3152216,2373.0357749229,2665218.4416091,19.935653565357,0,0
86.69566946516,-14.858216230998,14.740084008401,1826444.3152216,2373.0357749229,2665218.4416091,19.940084008401,0,0
86.695669639932,-14.860269357203,14.744514451445,1826444.3152216,2373.0357749229,2665218.4416091,19.944514451445,0,0
86.695669814703,-14.862322483409,14.748944894489,1826444.3152216,2373.0357749229,2665218.4416091,19.948944894489,0,0
86.695669989474,-14.864375609615,14.753375337534,1826444.3152216,2373.0357749229,2665218.4416091,19.953375337534,0,0
86.695670164245,-14.866428735821,14.757805780578,1826444.3152216,2373.0357749229,2665218.4416091,19.957805780578,0,0
86.695670339017,-14.868481862027,14.762236223622,1826444.3152216,2373.0357749229,2665218.4416091,19.962236223622,0,0
86.695670513788,-14.870534988232,14.766666666667,1826444.3152216,2373.0357749229,2665218.4416091,19.966666666667,0,0
86.695670688559,-14.872588114438,14.771097109711,1826444.3152216,2373.0357749229,2665218.4416091,19.971097109711,0,0
86.69567086333,-14.874641240644,14.775527552755,1826444.3152216,2373.0357749229,2665218.4416091,19.975527552755,0,0
86.695671038102,-14.87669436685,14.7799579958,1826444.3152216,2373.0357749229,2665218.4416091,19.9799579958,0,0
86.695671212873,-14.878747493056,14.784388438844,1826444.3152216,2373.0357749229,2665218.4416091,19.984388438844,0,0
86.695671387644,-14.880800619261,14.788818881888,1826444.3152216,2373.0357749229,2665218.4416091,19.988818881888,0,0
86.695671562415,-14.882853745467,14.793249324932,1826444.3152216,2373.0357749229,2665218.4416091,19.993249324932,0,0
86.695671737187,-14.884906871673,14.797679767977,1826444.3152216,2373.0357749229,2665218.4416091,19.997679767977,0,0
86.695671911958,-14.886959997879,14.802110211021,1826444.3152216,2373.0357749229,2665218.4416091,20.002110211021,0,0
86.695672086729,-14.889013124085,14.806540654065,1826444.3152216,2373.0357749229,2665218.4416091,20.006540654065,0,0
86.6956722615,-14.89106625029,14.81097109711,1826444.3152216,2373.0357749229,2665218.4416091,20.01097109711,0,0
86.695672436272,-14.893119376496,14.815401540154,1826444.3152216,2373.0357749229,2665218.4416091,20.015401540154,0,0
86.695672611043,-14.895172502702,14.819831983198,1826444.3152216,2373.0357749229,2665218.4416091,20.019831983198,0,0
86.695672785814,-14.897225628908,14.824262426243,1826444.3152216,2373.0357749229,2665218.4416091,20.024262426243,0,0
86.695672960585,-14.899278755114,14.828692869287,1826444.3152216,2373.0357749229,2665218.4416091,20.028692869287,0,0
86.695673135356,-14.90133188132,14.833123312331,1826444.3152216,2373.0357749229,2665218.4416091,20.033123312331,0,0
86.695673310128,-14.903385007525,14.837553755376,1826444.3152216,2373.0357749229,2665218.4416091,20.037553755376,0,0
86.695673484899,-14.905438133731,14.84198419842,1826444.3152216,2373.0357749229,2665218.4416091,20.04198419842,0,0
86.69567365967,-14.907491259937,14.846414641464,1826444.3152216,2373.0357749229,2665218.4416091,20.046414641464,0,0
86.695673834441,-14.909544386143,14.850845084508,1826444.3152216,2373.0357749229,2665218.4416091,20.050845084508,0,0
86.695674009213,-14.911597512349,14.855275527553,1826444.3152216,2373.0357749229,2665218.4416091,20.055275527553,0,0
86.695674183984,-14.913650638554,14.859705970597,1826444.3152216,2373.0357749229,2665218.4416091,20.059705970597,0,0
86.695674358755,-14.91570376476,14.864136413641,1826444.3152216,2373.0357749229,2665218.4416091,20.064136413641,0,0
86.695674533526,-14.917756890966,14.868566856686,1826444.3152216,2373.0357749229,2665218.4416091,20.068566856686,0,0
86.695674708298,-14.919810017172,14.87299729973,1826444.3152216,2373.0357749229,2665218.4416091,20.07299729973,0,0
86.695674883069,-14.921863143378,14.877427742774,1826444.3152216,2373.0357749229,2665218.4416091,20.077427742774,0,0
86.69567505784,-14.923916269583,14.881858185819,1826444.3152216,2373.0357749229,2665218.4416091,20.081858185819,0,0
86.695675232611,-14.925969395789,14.886288628863,1826444.3152216,2373.0357749229,2665218.4416091,20.086288628863,0,0
86.695675407383,-14.928022521995,14.890719071907,1826444.3152216,2373.0357749229,2665218.4416091,20.090719071907,0,0
86.695675582154,-14.930075648201,14.895149514951,1826444.3152216,2373.0357749229,2665218.4416091,20.095149514951,0,0
86.695675756925,-14.932128774407,14.899579957996,1826444.3152216,2373.0357749229,2665218.4416091,20.099579957996,0,0
86.695675931696,-14.934181900613,14.90401040104,1826444.3152216,2373.0357749229,2665218.4416091,20.10401040104,0,0
86.695676106468,-14.936235026818,14.908440844084,1826444.3152216,2373.0357749229,2665218.4416091,20.108440844084,0,0
86.695676281239,-14.938288153024,14.912871287129,1826444.3152216,2373.0357749229,2665218.4416091,20.112871287129,0,0
86.69567645601,-14.94034127923,14.917301730173,1826444.3152216,2373.0357749229,2665218.4416091,20.117301730173,0,0
86.695676630781,-14.942394405436,14.921732173217,1826444.3152216,2373.0357749229,2665218.4416091,20.121732173217,0,0
86.695676805553,-14.944447531642,14.926162616262,1826444.3152216,2373.0357749229,2665218.4416091,20.126162616262,0,0
86.695676980324,-14.946500657847,14.930593059306,1826444.3152216,2373.0357749229,2665218.4416091,20.130593059306,0,0
86.695677155095,-14.948553784053,14.93502350235,1826444.3152216,2373.0357749229,2665218.4416091,20.13502350235,0,0
86.695677329866,-14.950606910259,14.939453945395,1826444.3152216,2373.0357749229,2665218.4416091,20.139453945395,0,0
86.695677504638,-14.952660036465,14.943884388439,1826444.3152216,2373.0357749229,2665218.4416091,20.143884388439,0,0
86.695677679409,-14.954713162671,14.948314831483,1826444.3152216,2373.0357749229,2665218.4416091,20.148314831483,0,0
86.69567785418,-14.956766288876,14.952745274527,1826444.3152216,2373.0357749229,2665218.4416091,20.152745274527,0,0
86.695678028951,-14.958819415082,14.957175717572,1826444.3152216,2373.0357749229,2665218.4416091,20.157175717572,0,0
86.695678203723,-14.960872541288,14.961606160616,1826444.3152216,2373.0357749229,2665218.4416091,20.161606160616,0,0
86.695678378494,-14.962925667494,14.96603660366,1826444.3152216,2373.0357749229,2665218.4416091,20.16603660366,0,0
86.695678553265,-14.9649787937,14.970467046705,1826444.3152216,2373.0357749229,2665218.4416091,20.170467046705,0,0
86.695678728036,-14.967031919906,14.974897489749,1826444.3152216,2373.0357749229,2665218.4416091,20.174897489749,0,0
86.695678902808,-14.969085046111,14.979327932793,1826444.3152216,2373.0357749229,2665218.4416091,20.179327932793,0,0
86.695679077579,-14.971138172317,14.983758375838,1826444.3152216,2373.0357749229,2665218.4416091,20.183758375838,0,0
86.69567925235,-14.973191298523,14.988188818882,1826444.3152216,2373.0357749229,2665218.4416091,20.188188818882,0,0
86.695679427121,-14.975244424729,14.992619261926,1826444.3152216,2373.0357749229,2665218.4416091,20.192619261926,0,0
86.695679601893,-14.977297550935,14.99704970497,1826444.3152216,2373.0357749229,2665218.4416091,20.19704970497,0,0
86.695679776664,-14.97935067714,15.001480148015,1826444.3152216,2373.0357749229,2665218.4416091,20.201480148015,0,0
86.695679951435,-14.981403803346,15.005910591059,1826444.3152216,2373.0357749229,2665218.4416091,20.205910591059,0,0
86.695680126206,-14.983456929552,15.010341034103,1826444.3152216,2373.0357749229,2665218.4416091,20.210341034103,0,0
86.695680300978,-14.985510055758,15.014771477148,1826444.3152216,2373.0357749229,2665218.4416091,20.214771477148,0,0
86.695680475749,-14.987563181964,15.019201920192,1826444.3152216,2373.0357749229,2665218.4416091,20.219201920192,0,0
86.69568065052,-14.989616308169,15.023632363236,1826444.3152216,2373.0357749229,2665218.4416091,20.223632363236,0,0
86.695680825291,-14.991669434375,15.028062806281,1826444.3152216,2373.0357749229,2665218.4416091,20.228062806281,0,0
86.695681000063,-14.993722560581,15.032493249325,1826444.3152216,2373.0357749229,2665218.4416091,20.232493249325,0,0
86.695681174834,-14.995775686787,15.036923692369,1826444.3152216,2373.0357749229,2665218.4416091,20.236923692369,0,0
86.695681349605,-14.997828812993,15.041354135414,1826444.3152216,2373.0357749229,2665218.4416091,20.241354135414,0,0
86.695681524376,-14.999881939199,15.045784578458,1826444.3152216,2373.0357749229,2665218.4416091,20.245784578458,0,0
86.695681699148,-15.001935065404,15.050215021502,1826444.3152216,2373.0357749229,2665218.4416091,20.250215021502,0,0
86.695681873919,-15.00398819161,15.054645464546,1826444.3152216,2373.0357749229,2665218.4416091,20.254645464546,0,0
86.69568204869,-15.006041317816,15.059075907591,1826444.3152216,2373.0357749229,2665218.4416091,20.259075907591,0,0
86.695682223461,-15.008094444022,15.063506350635,1826444.3152216,2373.0357749229,2665218.4416091,20.263506350635,0,0
86.695682398233,-15.010147570228,15.067936793679,1826444.3152216,2373.0357749229,2665218.4416091,20.267936793679,0,0
86.695682573004,-15.012200696433,15.072367236724,1826444.3152216,2373.0357749229,2665218.4416091,20.272367236724,0,0
86.695682747775,-15.014253822639,15.076797679768,1826444.3152216,2373.0357749229,2665218.4416091,20.276797679768,0,0
86.695682922546,-15.016306948845,15.081228122812,1826444.3152216,2373.0357749229,2665218.4416091,20.281228122812,0,0
86.695683097318,-15.018360075051,15.085658565857,1826444.3152216,2373.0357749229,2665218.4416091,20.285658565857,0,0
86.695683272089,-15.020413201257,15.090089008901,1826444.3152216,2373.0357749229,2665218.4416091,20.290089008901,0,0
86.69568344686,-15.022466327462,15.094519451945,1826444.3152216,2373.0357749229,2665218.4416091,20.294519451945,0,0
86.695683621631,-15.024519453668,15.098949894989,1826444.3152216,2373.0357749229,2665218.4416091,20.298949894989,0,0
86.695683796403,-15.026572579874,15.103380338034,1826444.3152216,2373.0357749229,2665218.4416091,20.303380338034,0,0
86.695683971174,-15.02862570608,15.107810781078,1826444.3152216,2373.0357749229,2665218.4416091,20.307810781078,0,0
86.695684145945,-15.030678832286,15.112241224122,1826444.3152216,2373.0357749229,2665218.4416091,20.312241224122,0,0
86.695684320716,-15.032731958491,15.116671667167,1826444.3152216,2373.0357749229,2665218.4416091,20.316671667167,0,0
86.695684495488,-15.034785084697,15.121102110211,1826444.3152216,2373.0357749229,2665218.4416091,20.321102110211,0,0
86.695684670259,-15.036838210903,15.125532553255,1826444.3152216,2373.0357749229,2665218.4416091,20.325532553255,0,0
86.69568484503,-15.038891337109,15.1299629963,1826444.3152216,2373.0357749229,2665218.4416091,20.3299629963,0,0
86.695685019801,-15.040944463315,15.134393439344,1826444.3152216,2373.0357749229,2665218.4416091,20.334393439344,0,0
86.695685194573,-15.042997589521,15.138823882388,1826444.3152216,2373.0357749229,2665218.4416091,20.338823882388,0,0
86.695685369344,-15.045050715726,15.143254325433,1826444.3152216,2373.0357749229,2665218.4416091,20.343254325433,0,0
86.695685544115,-15.047103841932,15.147684768477,1826444.3152216,2373.0357749229,2665218.4416091,20.347684768477,0,0
86.695685718886,-15.049156968138,15.152115211521,1826444.3152216,2373.0357749229,2665218.4416091,20.352115211521,0,0
86.695685893658,-15.051210094344,15.156545654565,1826444.3152216,2373.0357749229,2665218.4416091,20.356545654565,0,0
86.695686068429,-15.05326322055,15.16097609761,1826444.3152216,2373.0357749229,2665218.4416091,20.36097609761,0,0
86.6956862432,-15.055316346755,15.165406540654,1826444.3152216,2373.0357749229,2665218.4416091,20.365406540654,0,0
86.695686417971,-15.057369472961,15.169836983698,1826444.3152216,2373.0357749229,2665218.4416091,20.369836983698,0,0
86.695686592743,-15.059422599167,15.174267426743,1826444.3152216,2373.0357749229,2665218.4416091,20.374267426743,0,0
86.695686767514,-15.061475725373,15.178697869787,1826444.3152216,2373.0357749229,2665218.4416091,20.378697869787,0,0
86.695686942285,-15.063528851579,15.183128312831,1826444.3152216,2373.0357749229,2665218.4416091,20.383128312831,0,0
86.695687117056,-15.065581977784,15.187558755876,1826444.3152216,2373.0357749229,2665218.4416091,20.387558755876,0,0
86.695687291827,-15.06763510399,15.19198919892,1826444.3152216,2373.0357749229,2665218.4416091,20.39198919892,0,0
86.695687466599,-15.069688230196,15.196419641964,1826444.3152216,2373.0357749229,2665218.4416091,20.396419641964,0,0
86.69568764137,-15.071741356402,15.200850085009,1826444.3152216,2373.0357749229,2665218.4416091,20.400850085008,0,0
86.695687816141,-15.073794482608,15.205280528053,1826444.3152216,2373.0357749229,2665218.4416091,20.405280528053,0,0
86.695687990912,-15.075847608814,15.209710971097,1826444.3152216,2373.0357749229,2665218.4416091,20.409710971097,0,0
86.695688165684,-15.077900735019,15.214141414141,1826444.3152216,2373.0357749229,2665218.4416091,20.414141414141,0,0
86.695688340455,-15.079953861225,15.218571857186,1826444.3152216,2373.0357749229,2665218.4416091,20.418571857186,0,0
86.695688515226,-15.082006987431,15.22300230023,1826444.3152216,2373.0357749229,2665218.4416091,20.42300230023,0,0
86.695688689997,-15.084060113637,15.227432743274,1826444.3152216,2373.0357749229,2665218.4416091,20.427432743274,0,0
86.695688864769,-15.086113239843,15.231863186319,1826444.3152216,2373.0357749229,2665218.4416091,20.431863186319,0,0
86.69568903954,-15.088166366048,15.236293629363,1826444.3152216,2373.0357749229,2665218.4416091,20.436293629363,0,0
86.695689214311,-15.090219492254,15.240724072407,1826444.3152216,2373.0357749229,2665218.4416091,20.440724072407,0,0
86.695689389082,-15.09227261846,15.245154515452,1826444.3152216,2373.0357749229,2665218.4416091,20.445154515452,0,0
86.695689563854,-15.094325744666,15.249584958496,1826444.3152216,2373.0357749229,2665218.4416091,20.449584958496,0,0
86.695689738625,-15.096378870872,15.25401540154,1826444.3152216,2373.0357749229,2665218.4416091,20.45401540154,0,0
86.695689913396,-15.098431997077,15.258445844584,1826444.3152216,2373.0357749229,2665218.4416091,20.458445844584,0,0
86.695690088167,-15.100485123283,15.262876287629,1826444.3152216,2373.0357749229,2665218.4416091,20.462876287629,0,0
86.695690262939,-15.102538249489,15.267306730673,1826444.3152216,2373.0357749229,2665218.4416091,20.467306730673,0,0
86.69569043771,-15.104591375695,15.271737173717,1826444.3152216,2373.0357749229,2665218.4416091,20.471737173717,0,0
86.695690612481,-15.106644501901,15.276167616762,1826444.3152216,2373.0357749229,2665218.4416091,20.476167616762,0,0
86.695690787252,-15.108697628107,15.280598059806,1826444.3152216,2373.0357749229,2665218.4416091,20.480598059806,0,0
86.695690962024,-15.110750754312,15.28502850285,1826444.3152216,2373.0357749229,2665218.4416091,20.48502850285,0,0
86.695691136795,-15.112803880518,15.289458945895,1826444.3152216,2373.0357749229,2665218.4416091,20.489458945895,0,0
86.695691311566,-15.114857006724,15.293889388939,1826444.3152216,2373.0357749229,2665218.4416091,20.493889388939,0,0
86.695691486337,-15.11691013293,15.298319831983,1826444.3152216,2373.0357749229,2665218.4416091,20.498319831983,0,0
86.695691661109,-15.118963259136,15.302750275028,1826444.3152216,2373.0357749229,2665218.4416091,20.502750275028,0,0
86.69569183588,-15.121016385341,15.307180718072,1826444.3152216,2373.0357749229,2665218.4416091,20.507180718072,0,0
86.695692010651,-15.123069511547,15.311611161116,1826444.3152216,2373.0357749229,2665218.4416091,20.511611161116,0,0
86.695692185422,-15.125122637753,15.31604160416,1826444.3152216,2373.0357749229,2665218.4416091,20.51604160416,0,0
86.695692360194,-15.127175763959,15.320472047205,1826444.3152216,2373.0357749229,2665218.4416091,20.520472047205,0,0
86.695692534965,-15.129228890165,15.324902490249,1826444.3152216,2373.0357749229,2665218.4416091,20.524902490249,0,0
86.695692709736,-15.13128201637,15.329332933293,1826444.3152216,2373.0357749229,2665218.4416091,20.529332933293,0,0
86.695692884507,-15.133335142576,15.333763376338,1826444.3152216,2373.0357749229,2665218.4416091,20.533763376338,0,0
86.695693059279,-15.135388268782,15.338193819382,1826444.3152216,2373.0357749229,2665218.4416091,20.538193819382,0,0
86.69569323405,-15.137441394988,15.342624262426,1826444.3152216,2373.0357749229,2665218.4416091,20.542624262426,0,0
86.695693408821,-15.139494521194,15.347054705471,1826444.3152216,2373.0357749229,2665218.4416091,20.547054705471,0,0
86.695693583592,-15.1415476474,15.351485148515,1826444.3152216,2373.0357749229,2665218.4416091,20.551485148515,0,0
86.695693758681,-15.143600774555,15.355915591559,1828398.7948007,-2640.9067186251,2653508.3991303,20.555915591559,0,0
86.695693933921,-15.145653902159,15.360346034603,1828398.7948007,-2640.9067186251,2653508.3991303,20.560346034603,0,0
86.69569410916,-15.147707029764,15.364776477648,1828398.7948007,-2640.9067186251,2653508.3991303,20.564776477648,0,0
86.695694284399,-15.149760157368,15.369206920692,1828398.7948007,-2640.9067186251,2653508.3991303,20.569206920692,0,0
86.695694459638,-15.151813284972,15.373637363736,1828398.7948007,-2640.9067186251,2653508.3991303,20.573637363736,0,0
86.695694634877,-15.153866412576,15.378067806781,1828398.7948007,-2640.9067186251,2653508.3991303,20.578067806781,0,0
86.695694810116,-15.15591954018,15.382498249825,1828398.7948007,-2640.9067186251,2653508.3991303,20.582498249825,0,0
86.695694985355,-15.157972667784,15.386928692869,1828398.7948007,-2640.9067186251,2653508.3991303,20.586928692869,0,0
86.695695160595,-15.160025795389,15.391359135914,1828398.7948007,-2640.9067186251,2653508.3991303,20.591359135914,0,0
86.695695335834,-15.162078922993,15.395789578958,1828398.7948007,-2640.9067186251,2653508.3991303,20.595789578958,0,0
86.695695511073,-15.164132050597,15.400220022002,1828398.7948007,-2640.9067186251,2653508.3991303,20.600220022002,0,0
86.695695686312,-15.166185178201,15.404650465047,1828398.7948007,-2640.9067186251,2653508.3991303,20.604650465047,0,0
86.695695861551,-15.168238305805,15.409080908091,1828398.7948007,-2640.9067186251,2653508.3991303,20.609080908091,0,0
86.69569603679,-15.17029143341,15.413511351135,1828398.7948007,-2640.9067186251,2653508.3991303,20.613511351135,0,0
86.695696212029,-15.172344561014,15.417941794179,1828398.7948007,-2640.9067186251,2653508.3991303,20.617941794179,0,0
86.695696387269,-15.174397688618,15.422372237224,1828398.7948007,-2640.9067186251,2653508.3991303,20.622372237224,0,0
86.695696562508,-15.176450816222,15.426802680268,1828398.7948007,-2640.9067186251,2653508.3991303,20.626802680268,0,0
86.695696737747,-15.178503943826,15.431233123312,1828398.7948007,-2640.9067186251,2653508.3991303,20.631233123312,0,0
86.695696912986,-15.18055707143,15.435663566357,1828398.7948007,-2640.9067186251,2653508.3991303,20.635663566357,0,0
86.695697088225,-15.182610199035,15.440094009401,1828398.7948007,-2640.9067186251,2653508.3991303,20.640094009401,0,0
86.695697263464,-15.184663326639,15.444524452445,1828398.7948007,-2640.9067186251,2653508.3991303,20.644524452445,0,0
86.695697438704,-15.186716454243,15.44895489549,1828398.7948007,-2640.9067186251,2653508.3991303,20.64895489549,0,0
86.695697613943,-15.188769581847,15.453385338534,1828398.7948007,-2640.9067186251,2653508.3991303,20.653385338534,0,0
86.695697789182,-15.190822709451,15.457815781578,1828398.7948007,-2640.9067186251,2653508.3991303,20.657815781578,0,0
86.695697964421,-15.192875837055,15.462246224622,1828398.7948007,-2640.9067186251,2653508.3991303,20.662246224622,0,0
86.69569813966,-15.19492896466,15.466676667667,1828398.7948007,-2640.9067186251,2653508.3991303,20.666676667667,0,0
86.695698314899,-15.196982092264,15.471107110711,1828398.7948007,-2640.9067186251,2653508.3991303,20.671107110711,0,0
86.695698490138,-15.199035219868,15.475537553755,1828398.7948007,-2640.9067186251,2653508.3991303,20.675537553755,0,0
86.695698665378,-15.201088347472,15.4799679968,1828398.7948007,-2640.9067186251,2653508.3991303,20.6799679968,0,0
86.695698840617,-15.203141475076,15.484398439844,1828398.7948007,-2640.9067186251,2653508.3991303,20.684398439844,0,0
86.695699015856,-15.205194602681,15.488828882888,1828398.7948007,-2640.9067186251,2653508.3991303,20.688828882888,0,0
86.695699191095,-15.207247730285,15.493259325933,1828398.7948007,-2640.9067186251,2653508.3991303,20.693259325933,0,0
86.695699366334,-15.209300857889,15.497689768977,1828398.7948007,-2640.9067186251,2653508.3991303,20.697689768977,0,0
86.695699541573,-15.211353985493,15.502120212021,1828398.7948007,-2640.9067186251,2653508.3991303,20.702120212021,0,0
86.695699716812,-15.213407113097,15.506550655066,1828398.7948007,-2640.9067186251,2653508.3991303,20.706550655066,0,0
86.695699892052,-15.215460240701,15.51098109811,1828398.7948007,-2640.9067186251,2653508.3991303,20.71098109811,0,0
86.695700067291,-15.217513368306,15.515411541154,1828398.7948007,-2640.9067186251,2653508.3991303,20.715411541154,0,0
86.69570024253,-15.21956649591,15.519841984198,1828398.7948007,-2640.9067186251,2653508.3991303,20.719841984198,0,0
86.695700417769,-15.221619623514,15.524272427243,1828398.7948007,-2640.9067186251,2653508.3991303,20.724272427243,0,0
86.695700593008,-15.223672751118,15.528702870287,1828398.7948007,-2640.9067186251,2653508.3991303,20.728702870287,0,0
86.695700768247,-15.225725878722,15.533133313331,1828398.7948007,-2640.9067186251,2653508.3991303,20.733133313331,0,0
86.695700943486,-15.227779006326,15.537563756376,1828398.7948007,-2640.9067186251,2653508.3991303,20.737563756376,0,0
86.695701118726,-15.229832133931,15.54199419942,1828398.7948007,-2640.9067186251,2653508.3991303,20.74199419942,0,0
86.695701293965,-15.231885261535,15.546424642464,1828398.7948007,-2640.9067186251,2653508.3991303,20.746424642464,0,0
86.695701469204,-15.233938389139,15.550855085509,1828398.7948007,-2640.9067186251,2653508.3991303,20.750855085509,0,0
86.695701644443,-15.235991516743,15.555285528553,1828398.7948007,-2640.9067186251,2653508.3991303,20.755285528553,0,0
86.695701819682,-15.238044644347,15.559715971597,1828398.7948007,-2640.9067186251,2653508.3991303,20.759715971597,0,0
86.695701994921,-15.240097771951,15.564146414641,1828398.7948007,-2640.9067186251,2653508.3991303,20.764146414641,0,0
86.69570217016,-15.242150899556,15.568576857686,1828398.7948007,-2640.9067186251,2653508.3991303,20.768576857686,0,0
86.6957023454,-15.24420402716,15.57300730073,1828398.7948007,-2640.9067186251,2653508.3991303,20.77300730073,0,0
86.695702520639,-15.246257154764,15.577437743774,1828398.7948007,-2640.9067186251,2653508.3991303,20.777437743774,0,0
86.695702695878,-15.248310282368,15.581868186819,1828398.7948007,-2640.9067186251,2653508.3991303,20.781868186819,0,0
86.695702871117,-15.250363409972,15.586298629863,1828398.7948007,-2640.9067186251,2653508.3991303,20.786298629863,0,0
86.695703046356,-15.252416537577,15.590729072907,1828398.7948007,-2640.9067186251,2653508.3991303,20.790729072907,0,0
86.695703221595,-15.254469665181,15.595159515952,1828398.7948007,-2640.9067186251,2653508.3991303,20.795159515952,0,0
86.695703396834,-15.256522792785,15.599589958996,1828398.7948007,-2640.9067186251,2653508.3991303,20.799589958996,0,0
86.695703572074,-15.258575920389,15.60402040204,1828398.7948007,-2640.9067186251,2653508.3991303,20.80402040204,0,0
86.695703747313,-15.260629047993,15.608450845085,1828398.7948007,-2640.9067186251,2653508.3991303,20.808450845085,0,0
86.695703922552,-15.262682175597,15.612881288129,1828398.7948007,-2640.9067186251,2653508.3991303,20.812881288129,0,0
86.695704097791,-15.264735303202,15.617311731173,1828398.7948007,-2640.9067186251,2653508.3991303,20.817311731173,0,0
86.69570427303,-15.266788430806,15.621742174217,1828398.7948007,-2640.9067186251,2653508.3991303,20.821742174217,0,0
86.695704448269,-15.26884155841,15.626172617262,1828398.7948007,-2640.9067186251,2653508.3991303,20.826172617262,0,0
86.695704623508,-15.270894686014,15.630603060306,1828398.7948007,-2640.9067186251,2653508.3991303,20.830603060306,0,0
86.695704798748,-15.272947813618,15.63503350335,1828398.7948007,-2640.9067186251,2653508.3991303,20.83503350335,0,0
86.695704973987,-15.275000941222,15.639463946395,1828398.7948007,-2640.9067186251,2653508.3991303,20.839463946395,0,0
86.695705149226,-15.277054068827,15.643894389439,1828398.7948007,-2640.9067186251,2653508.3991303,20.843894389439,0,0
86.695705324465,-15.279107196431,15.648324832483,1828398.7948007,-2640.9067186251,2653508.3991303,20.848324832483,0,0
86.695705499704,-15.281160324035,15.652755275528,1828398.7948007,-2640.9067186251,2653508.3991303,20.852755275528,0,0
86.695705674943,-15.283213451639,15.657185718572,1828398.7948007,-2640.9067186251,2653508.3991303,20.857185718572,0,0
86.695705850182,-15.285266579243,15.661616161616,1828398.7948007,-2640.9067186251,2653508.3991303,20.861616161616,0,0
86.695706025422,-15.287319706848,15.66604660466,1828398.7948007,-2640.9067186251,2653508.3991303,20.86604660466,0,0
86.695706200661,-15.289372834452,15.670477047705,1828398.7948007,-2640.9067186251,2653508.3991303,20.870477047705,0,0
86.6957063759,-15.291425962056,15.674907490749,1828398.7948007,-2640.9067186251,2653508.3991303,20.874907490749,0,0
86.695706551139,-15.29347908966,15.679337933793,1828398.7948007,-2640.9067186251,2653508.3991303,20.879337933793,0,0
86.695706726378,-15.295532217264,15.683768376838,1828398.7948007,-2640.9067186251,2653508.3991303,20.883768376838,0,0
86.695706901617,-15.297585344868,15.688198819882,1828398.7948007,-2640.9067186251,2653508.3991303,20.888198819882,0,0
86.695707076856,-15.299638472473,15.692629262926,1828398.7948007,-2640.9067186251,2653508.3991303,20.892629262926,0,0
86.695707252096,-15.301691600077,15.697059705971,1828398.7948007,-2640.9067186251,2653508.3991303,20.897059705971,0,0
86.695707427335,-15.303744727681,15.701490149015,1828398.7948007,-2640.9067186251,2653508.3991303,20.901490149015,0,0
86.695707602574,-15.305797855285,15.705920592059,1828398.7948007,-2640.9067186251,2653508.3991303,20.905920592059,0,0
86.695707777813,-15.307850982889,15.710351035104,1828398.7948007,-2640.9067186251,2653508.3991303,20.910351035104,0,0
86.695707953052,-15.309904110493,15.714781478148,1828398.7948007,-2640.9067186251,2653508.3991303,20.914781478148,0,0
86.695708128291,-15.311957238098,15.719211921192,1828398.7948007,-2640.9067186251,2653508.3991303,20.919211921192,0,0
86.69570830353,-15.314010365702,15.723642364236,1828398.7948007,-2640.9067186251,2653508.3991303,20.923642364236,0,0
86.69570847877,-15.316063493306,15.728072807281,1828398.7948007,-2640.9067186251,2653508.3991303,20.928072807281,0,0
86.695708654009,-15.31811662091,15.732503250325,1828398.7948007,-2640.9067186251,2653508.3991303,20.932503250325,0,0
86.695708829248,-15.320169748514,15.736933693369,1828398.7948007,-2640.9067186251,2653508.3991303,20.936933693369,0,0
86.695709004487,-15.322222876119,15.741364136414,1828398.7948007,-2640.9067186251,2653508.3991303,20.941364136414,0,0
86.695709179726,-15.324276003723,15.745794579458,1828398.7948007,-2640.9067186251,2653508.3991303,20.945794579458,0,0
86.695709354965,-15.326329131327,15.750225022502,1828398.7948007,-2640.9067186251,2653508.3991303,20.950225022502,0,0
86.695709530205,-15.328382258931,15.754655465547,1828398.7948007,-2640.9067186251,2653508.3991303,20.954655465547,0,0
86.695709705444,-15.330435386535,15.759085908591,1828398.7948007,-2640.9067186251,2653508.3991303,20.959085908591,0,0
86.695709880683,-15.332488514139,15.763516351635,1828398.7948007,-2640.9067186251,2653508.3991303,20.963516351635,0,0
86.695710055922,-15.334541641744,15.767946794679,1828398.7948007,-2640.9067186251,2653508.3991303,20.967946794679,0,0
86.695710231161,-15.336594769348,15.772377237724,1828398.7948007,-2640.9067186251,2653508.3991303,20.972377237724,0,0
86.6957104064,-15.338647896952,15.776807680768,1828398.7948007,-2640.9067186251,2653508.3991303,20.976807680768,0,0
86.695710581639,-15.340701024556,15.781238123812,1828398.7948007,-2640.9067186251,2653508.3991303,20.981238123812,0,0
86.695710756879,-15.34275415216,15.785668566857,1828398.7948007,-2640.9067186251,2653508.3991303,20.985668566857,0,0
86.695710932118,-15.344807279764,15.790099009901,1828398.7948007,-2640.9067186251,2653508.3991303,20.990099009901,0,0
86.695711107357,-15.346860407369,15.794529452945,1828398.7948007,-2640.9067186251,2653508.3991303,20.994529452945,0,0
86.695711282596,-15.348913534973,15.79895989599,1828398.7948007,-2640.9067186251,2653508.3991303,20.99895989599,0,0
86.695711457835,-15.350966662577,15.803390339034,1828398.7948007,-2640.9067186251,2653508.3991303,21.003390339034,0,0
86.695711633074,-15.353019790181,15.807820782078,1828398.7948007,-2640.9067186251,2653508.3991303,21.007820782078,0,0
86.695711808313,-15.355072917785,15.812251225123,1828398.7948007,-2640.9067186251,2653508.3991303,21.012251225123,0,0
86.695711983553,-15.35712604539,15.816681668167,1828398.7948007,-2640.9067186251,2653508.3991303,21.016681668167,0,0
86.695712158792,-15.359179172994,15.821112111211,1828398.7948007,-2640.9067186251,2653508.3991303,21.021112111211,0,0
86.695712334031,-15.361232300598,15.825542554255,1828398.7948007,-2640.9067186251,2653508.3991303,21.025542554255,0,0
86.69571250927,-15.363285428202,15.8299729973,1828398.7948007,-2640.9067186251,2653508.3991303,21.0299729973,0,0
86.695712684509,-15.365338555806,15.834403440344,1828398.7948007,-2640.9067186251,2653508.3991303,21.034403440344,0,0
86.695712859748,-15.36739168341,15.838833883388,1828398.7948007,-2640.9067186251,2653508.3991303,21.038833883388,0,0
86.695713034987,-15.369444811015,15.843264326433,1828398.7948007,-2640.9067186251,2653508.3991303,21.043264326433,0,0
86.695713210227,-15.371497938619,15.847694769477,1828398.7948007,-2640.9067186251,2653508.3991303,21.047694769477,0,0
86.695713385466,-15.373551066223,15.852125212521,1828398.7948007,-2640.9067186251,2653508.3991303,21.052125212521,0,0
86.695713560705,-15.375604193827,15.856555655566,1828398.7948007,-2640.9067186251,2653508.3991303,21.056555655566,0,0
86.695713735944,-15.377657321431,15.86098609861,1828398.7948007,-2640.9067186251,2653508.3991303,21.06098609861,0,0
86.695713911183,-15.379710449035,15.865416541654,1828398.7948007,-2640.9067186251,2653508.3991303,21.065416541654,0,0
86.695714086422,-15.38176357664,15.869846984698,1828398.7948007,-2640.9067186251,2653508.3991303,21.069846984698,0,0
86.695714261661,-15.383816704244,15.874277427743,1828398.7948007,-2640.9067186251,2653508.3991303,21.074277427743,0,0
86.695714436901,-15.385869831848,15.878707870787,1828398.7948007,-2640.9067186251,2653508.3991303,21.078707870787,0,0
86.69571461214,-15.387922959452,15.883138313831,1828398.7948007,-2640.9067186251,2653508.3991303,21.083138313831,0,0
86.695714787379,-15.389976087056,15.887568756876,1828398.7948007,-2640.9067186251,2653508.3991303,21.087568756876,0,0
86.695714962618,-15.39202921466,15.89199919992,1828398.7948007,-2640.9067186251,2653508.3991303,21.09199919992,0,0
86.695715137857,-15.394082342265,15.896429642964,1828398.7948007,-2640.9067186251,2653508.3991303,21.096429642964,0,0
86.695715313096,-15.396135469869,15.900860086009,1828398.7948007,-2640.9067186251,2653508.3991303,21.100860086009,0,0
86.695715488335,-15.398188597473,15.905290529053,1828398.7948007,-2640.9067186251,2653508.3991303,21.105290529053,0,0
86.695715663575,-15.400241725077,15.909720972097,1828398.7948007,-2640.9067186251,2653508.3991303,21.109720972097,0,0
86.695715838814,-15.402294852681,15.914151415142,1828398.7948007,-2640.9067186251,2653508.3991303,21.114151415142,0,0
86.695716014053,-15.404347980286,15.918581858186,1828398.7948007,-2640.9067186251,2653508.3991303,21.118581858186,0,0
86.695716189292,-15.40640110789,15.92301230123,1828398.7948007,-2640.9067186251,2653508.3991303,21.12301230123,0,0
86.695716364531,-15.408454235494,15.927442744274,1828398.7948007,-2640.9067186251,2653508.3991303,21.127442744274,0,0
86.69571653977,-15.410507363098,15.931873187319,1828398.7948007,-2640.9067186251,2653508.3991303,21.131873187319,0,0
86.695716715485,-15.41256048983,15.936303630363,1834213.044462,1115.9011104666,2647491.2010127,21.136303630363,0,0
86.695716891348,-15.414613616288,15.940734073407,1834213.044462,1115.9011104666,2647491.2010127,21.140734073407,0,0
86.695717067212,-15.416666742746,15.945164516452,1834213.044462,1115.9011104666,2647491.2010127,21.145164516452,0,0
86.695717243076,-15.418719869203,15.949594959496,1834213.044462,1115.9011104666,2647491.2010127,21.149594959496,0,0
86.69571741894,-15.420772995661,15.95402540254,1834213.044462,1115.9011104666,2647491.2010127,21.15402540254,0,0
86.695717594804,-15.422826122119,15.958455845585,1834213.044462,1115.9011104666,2647491.2010127,21.158455845585,0,0
86.695717770667,-15.424879248577,15.962886288629,1834213.044462,1115.9011104666,2647491.2010127,21.162886288629,0,0
86.695717946531,-15.426932375034,15.967316731673,1834213.044462,1115.9011104666,2647491.2010127,21.167316731673,0,0
86.695718122395,-15.428985501492,15.971747174717,1834213.044462,1115.9011104666,2647491.2010127,21.171747174717,0,0
86.695718298259,-15.43103862795,15.976177617762,1834213.044462,1115.9011104666,2647491.2010127,21.176177617762,0,0
86.695718474122,-15.433091754408,15.980608060806,1834213.044462,1115.9011104666,2647491.2010127,21.180608060806,0,0
86.695718649986,-15.435144880865,15.98503850385,1834213.044462,1115.9011104666,2647491.2010127,21.18503850385,0,0
86.69571882585,-15.437198007323,15.989468946895,1834213.044462,1115.9011104666,2647491.2010127,21.189468946895,0,0
86.695719001714,-15.439251133781,15.993899389939,1834213.044462,1115.9011104666,2647491.2010127,21.193899389939,0,0
86.695719177577,-15.441304260239,15.998329832983,1834213.044462,1115.9011104666,2647491.2010127,21.198329832983,0,0
86.695719353441,-15.443357386696,16.002760276028,1834213.044462,1115.9011104666,2647491.2010127,21.202760276028,0,0
86.695719529305,-15.445410513154,16.007190719072,1834213.044462,1115.9011104666,2647491.2010127,21.207190719072,0,0
86.695719705169,-15.447463639612,16.011621162116,1834213.044462,1115.9011104666,2647491.2010127,21.211621162116,0,0
86.695719881033,-15.44951676607,16.016051605161,1834213.044462,1115.9011104666,2647491.2010127,21.216051605161,0,0
86.695720056896,-15.451569892527,16.020482048205,1834213.044462,1115.9011104666,2647491.2010127,21.220482048205,0,0
86.69572023276,-15.453623018985,16.024912491249,1834213.044462,1115.9011104666,2647491.2010127,21.224912491249,0,0
86.695720408624,-15.455676145443,16.029342934293,1834213.044462,1115.9011104666,2647491.2010127,21.229342934293,0,0
86.695720584488,-15.457729271901,16.033773377338,1834213.044462,1115.9011104666,2647491.2010127,21.233773377338,0,0
86.695720760351,-15.459782398358,16.038203820382,1834213.044462,1115.9011104666,2647491.2010127,21.238203820382,0,0
86.695720936215,-15.461835524816,16.042634263426,1834213.044462,1115.9011104666,2647491.2010127,21.242634263426,0,0
86.695721112079,-15.463888651274,16.047064706471,1834213.044462,1115.9011104666,2647491.2010127,21.247064706471,0,0
86.695721287943,-15.465941777732,16.051495149515,1834213.044462,1115.9011104666,2647491.2010127,21.251495149515,0,0
86.695721463806,-15.467994904189,16.055925592559,1834213.044462,1115.9011104666,2647491.2010127,21.255925592559,0,0
86.69572163967,-15.470048030647,16.060356035604,1834213.044462,1115.9011104666,2647491.2010127,21.260356035604,0,0
86.695721815534,-15.472101157105,16.064786478648,1834213.044462,1115.9011104666,2647491.2010127,21.264786478648,0,0
86.695721991398,-15.474154283563,16.069216921692,1834213.044462,1115.9011104666,2647491.2010127,21.269216921692,0,0
86.695722167262,-15.47620741002,16.073647364736,1834213.044462,1115.9011104666,2647491.2010127,21.273647364736,0,0
86.695722343125,-15.478260536478,16.078077807781,1834213.044462,1115.9011104666,2647491.2010127,21.278077807781,0,0
86.695722518989,-15.480313662936,16.082508250825,1834213.044462,1115.9011104666,2647491.2010127,21.282508250825,0,0
86.695722694853,-15.482366789394,16.086938693869,1834213.044462,1115.9011104666,2647491.2010127,21.286938693869,0,0
86.695722870717,-15.484419915851,16.091369136914,1834213.044462,1115.9011104666,2647491.2010127,21.291369136914,0,0
86.69572304658,-15.486473042309,16.095799579958,1834213.044462,1115.9011104666,2647491.2010127,21.295799579958,0,0
86.695723222444,-15.488526168767,16.100230023002,1834213.044462,1115.9011104666,2647491.2010127,21.300230023002,0,0
86.695723398308,-15.490579295225,16.104660466047,1834213.044462,1115.9011104666,2647491.2010127,21.304660466047,0,0
86.695723574172,-15.492632421682,16.109090909091,1834213.044462,1115.9011104666,2647491.2010127,21.309090909091,0,0
86.695723750036,-15.49468554814,16.113521352135,1834213.044462,1115.9011104666,2647491.2010127,21.313521352135,0,0
86.695723925899,-15.496738674598,16.11795179518,1834213.044462,1115.9011104666,2647491.2010127,21.31795179518,0,0
86.695724101763,-15.498791801056,16.122382238224,1834213.044462,1115.9011104666,2647491.2010127,21.322382238224,0,0
86.695724277627,-15.500844927513,16.126812681268,1834213.044462,1115.9011104666,2647491.2010127,21.326812681268,0,0
86.695724453491,-15.502898053971,16.131243124312,1834213.044462,1115.9011104666,2647491.2010127,21.331243124312,0,0
86.695724629354,-15.504951180429,16.135673567357,1834213.044462,1115.9011104666,2647491.2010127,21.335673567357,0,0
86.695724805218,-15.507004306887,16.140104010401,1834213.044462,1115.9011104666,2647491.2010127,21.340104010401,0,0
86.695724981082,-15.509057433344,16.144534453445,1834213.044462,1115.9011104666,2647491.2010127,21.344534453445,0,0
86.695725156946,-15.511110559802,16.14896489649,1834213.044462,1115.9011104666,2647491.2010127,21.34896489649,0,0
86.69572533281,-15.51316368626,16.153395339534,1834213.044462,1115.9011104666,2647491.2010127,21.353395339534,0,0
86.695725508673,-15.515216812718,16.157825782578,1834213.044462,1115.9011104666,2647491.2010127,21.357825782578,0,0
86.695725684537,-15.517269939175,16.162256225623,1834213.044462,1115.9011104666,2647491.2010127,21.362256225623,0,0
86.695725860401,-15.519323065633,16.166686668667,1834213.044462,1115.9011104666,2647491.2010127,21.366686668667,0,0
86.695726036265,-15.521376192091,16.171117111711,1834213.044462,1115.9011104666,2647491.2010127,21.371117111711,0,0
86.695726212128,-15.523429318549,16.175547554755,1834213.044462,1115.9011104666,2647491.2010127,21.375547554755,0,0
86.695726387992,-15.525482445006,16.1799779978,1834213.044462,1115.9011104666,2647491.2010127,21.3799779978,0,0
86.695726563856,-15.527535571464,16.184408440844,1834213.044462,1115.9011104666,2647491.2010127,21.384408440844,0,0
86.69572673972,-15.529588697922,16.188838883888,1834213.044462,1115.9011104666,2647491.2010127,21.388838883888,0,0
86.695726915583,-15.53164182438,16.193269326933,1834213.044462,1115.9011104666,2647491.2010127,21.393269326933,0,0
86.695727091447,-15.533694950837,16.197699769977,1834213.044462,1115.9011104666,2647491.2010127,21.397699769977,0,0
86.695727267311,-15.535748077295,16.202130213021,1834213.044462,1115.9011104666,2647491.2010127,21.402130213021,0,0
86.695727443175,-15.537801203753,16.206560656066,1834213.044462,1115.9011104666,2647491.2010127,21.406560656066,0,0
86.695727619039,-15.539854330211,16.21099109911,1834213.044462,1115.9011104666,2647491.2010127,21.41099109911,0,0
86.695727794902,-15.541907456668,16.215421542154,1834213.044462,1115.9011104666,2647491.2010127,21.415421542154,0,0
86.695727970766,-15.543960583126,16.219851985199,1834213.044462,1115.9011104666,2647491.2010127,21.419851985199,0,0
86.69572814663,-15.546013709584,16.224282428243,1834213.044462,1115.9011104666,2647491.2010127,21.424282428243,0,0
86.695728322494,-15.548066836042,16.228712871287,1834213.044462,1115.9011104666,2647491.2010127,21.428712871287,0,0
86.695728498357,-15.5501199625,16.233143314331,1834213.044462,1115.9011104666,2647491.2010127,21.433143314331,0,0
86.695728674221,-15.552173088957,16.237573757376,1834213.044462,1115.9011104666,2647491.2010127,21.437573757376,0,0
86.695728850085,-15.554226215415,16.24200420042,1834213.044462,1115.9011104666,2647491.2010127,21.44200420042,0,0
86.695729025949,-15.556279341873,16.246434643464,1834213.044462,1115.9011104666,2647491.2010127,21.446434643464,0,0
86.695729201812,-15.558332468331,16.250865086509,1834213.044462,1115.9011104666,2647491.2010127,21.450865086509,0,0
86.695729377676,-15.560385594788,16.255295529553,1834213.044462,1115.9011104666,2647491.2010127,21.455295529553,0,0
86.69572955354,-15.562438721246,16.259725972597,1834213.044462,1115.9011104666,2647491.2010127,21.459725972597,0,0
86.695729729404,-15.564491847704,16.264156415642,1834213.044462,1115.9011104666,2647491.2010127,21.464156415642,0,0
86.695729905268,-15.566544974162,16.268586858686,1834213.044462,1115.9011104666,2647491.2010127,21.468586858686,0,0
86.695730081131,-15.568598100619,16.27301730173,1834213.044462,1115.9011104666,2647491.2010127,21.47301730173,0,0
86.695730256995,-15.570651227077,16.277447744774,1834213.044462,1115.9011104666,2647491.2010127,21.477447744774,0,0
86.695730432859,-15.572704353535,16.281878187819,1834213.044462,1115.9011104666,2647491.2010127,21.481878187819,0,0
86.695730608723,-15.574757479993,16.286308630863,1834213.044462,1115.9011104666,2647491.2010127,21.486308630863,0,0
86.695730784586,-15.57681060645,16.290739073907,1834213.044462,1115.9011104666,2647491.2010127,21.490739073907,0,0
86.69573096045,-15.578863732908,16.295169516952,1834213.044462,1115.9011104666,2647491.2010127,21.495169516952,0,0
86.695731136314,-15.580916859366,16.299599959996,1834213.044462,1115.9011104666,2647491.2010127,21.499599959996,0,0
86.695731312178,-15.582969985824,16.30403040304,1834213.044462,1115.9011104666,2647491.2010127,21.50403040304,0,0
86.695731488042,-15.585023112281,16.308460846085,1834213.044462,1115.9011104666,2647491.2010127,21.508460846085,0,0
86.695731663905,-15.587076238739,16.312891289129,1834213.044462,1115.9011104666,2647491.2010127,21.512891289129,0,0
86.695731839769,-15.589129365197,16.317321732173,1834213.044462,1115.9011104666,2647491.2010127,21.517321732173,0,0
86.695732015633,-15.591182491655,16.321752175218,1834213.044462,1115.9011104666,2647491.2010127,21.521752175218,0,0
86.695732191497,-15.593235618112,16.326182618262,1834213.044462,1115.9011104666,2647491.2010127,21.526182618262,0,0
86.69573236736,-15.59528874457,16.330613061306,1834213.044462,1115.9011104666,2647491.2010127,21.530613061306,0,0
86.695732543224,-15.597341871028,16.33504350435,1834213.044462,1115.9011104666,2647491.2010127,21.53504350435,0,0
86.695732719088,-15.599394997486,16.339473947395,1834213.044462,1115.9011104666,2647491.2010127,21.539473947395,0,0
86.695732894952,-15.601448123943,16.343904390439,1834213.044462,1115.9011104666,2647491.2010127,21.543904390439,0,0
86.695733070815,-15.603501250401,16.348334833483,1834213.044462,1115.9011104666,2647491.2010127,21.548334833483,0,0
86.695733246679,-15.605554376859,16.352765276528,1834213.044462,1115.9011104666,2647491.2010127,21.552765276528,0,0
86.695733422543,-15.607607503317,16.357195719572,1834213.044462,1115.9011104666,2647491.2010127,21.557195719572,0,0
86.695733598407,-15.609660629774,16.361626162616,1834213.044462,1115.9011104666,2647491.2010127,21.561626162616,0,0
86.695733774271,-15.611713756232,16.366056605661,1834213.044462,1115.9011104666,2647491.2010127,21.566056605661,0,0
86.695733950134,-15.61376688269,16.370487048705,1834213.044462,1115.9011104666,2647491.2010127,21.570487048705,0,0
86.695734125998,-15.615820009148,16.374917491749,1834213.044462,1115.9011104666,2647491.2010127,21.574917491749,0,0
86.695734301862,-15.617873135605,16.379347934793,1834213.044462,1115.9011104666,2647491.2010127,21.579347934793,0,0
86.695734477726,-15.619926262063,16.383778377838,1834213.044462,1115.9011104666,2647491.2010127,21.583778377838,0,0
86.695734653589,-15.621979388521,16.388208820882,1834213.044462,1115.9011104666,2647491.2010127,21.588208820882,0,0
86.695734829453,-15.624032514979,16.392639263926,1834213.044462,1115.9011104666,2647491.2010127,21.592639263926,0,0
86.695735005317,-15.626085641436,16.397069706971,1834213.044462,1115.9011104666,2647491.2010127,21.597069706971,0,0
86.695735181181,-15.628138767894,16.401500150015,1834213.044462,1115.9011104666,2647491.2010127,21.601500150015,0,0
86.695735357045,-15.630191894352,16.405930593059,1834213.044462,1115.9011104666,2647491.2010127,21.605930593059,0,0
86.695735532908,-15.63224502081,16.410361036104,1834213.044462,1115.9011104666,2647491.2010127,21.610361036104,0,0
86.695735708772,-15.634298147267,16.414791479148,1834213.044462,1115.9011104666,2647491.2010127,21.614791479148,0,0
86.695735884636,-15.636351273725,16.419221922192,1834213.044462,1115.9011104666,2647491.2010127,21.619221922192,0,0
86.6957360605,-15.638404400183,16.423652365237,1834213.044462,1115.9011104666,2647491.2010127,21.623652365237,0,0
86.695736236363,-15.640457526641,16.428082808281,1834213.044462,1115.9011104666,2647491.2010127,21.628082808281,0,0
86.695736412227,-15.642510653098,16.432513251325,1834213.044462,1115.9011104666,2647491.2010127,21.632513251325,0,0
86.695736588091,-15.644563779556,16.436943694369,1834213.044462,1115.9011104666,2647491.2010127,21.636943694369,0,0
86.695736763955,-15.646616906014,16.441374137414,1834213.044462,1115.9011104666,2647491.2010127,21.641374137414,0,0
86.695736939818,-15.648670032472,16.445804580458,1834213.044462,1115.9011104666,2647491.2010127,21.645804580458,0,0
86.695737115682,-15.650723158929,16.450235023502,1834213.044462,1115.9011104666,2647491.2010127,21.650235023502,0,0
86.695737291546,-15.652776285387,16.454665466547,1834213.044462,1115.9011104666,2647491.2010127,21.654665466547,0,0
86.69573746741,-15.654829411845,16.459095909591,1834213.044462,1115.9011104666,2647491.2010127,21.659095909591,0,0
86.695737643274,-15.656882538303,16.463526352635,1834213.044462,1115.9011104666,2647491.2010127,21.663526352635,0,0
86.695737819137,-15.65893566476,16.46795679568,1834213.044462,1115.9011104666,2647491.2010127,21.66795679568,0,0
86.695737995001,-15.660988791218,16.472387238724,1834213.044462,1115.9011104666,2647491.2010127,21.672387238724,0,0
86.695738170865,-15.663041917676,16.476817681768,1834213.044462,1115.9011104666,2647491.2010127,21.676817681768,0,0
86.695738346729,-15.665095044134,16.481248124812,1834213.044462,1115.9011104666,2647491.2010127,21.681248124812,0,0
86.695738522592,-15.667148170591,16.485678567857,1834213.044462,1115.9011104666,2647491.2010127,21.685678567857,0,0
86.695738698456,-15.669201297049,16.490109010901,1834213.044462,1115.9011104666,2647491.2010127,21.690109010901,0,0
86.69573887432,-15.671254423507,16.494539453945,1834213.044462,1115.9011104666,2647491.2010127,21.694539453945,0,0
86.695739050184,-15.673307549965,16.49896989699,1834213.044462,1115.9011104666,2647491.2010127,21.69896989699,0,0
86.695739226048,-15.675360676422,16.503400340034,1834213.044462,1115.9011104666,2647491.2010127,21.703400340034,0,0
86.695739401911,-15.67741380288,16.507830783078,1834213.044462,1115.9011104666,2647491.2010127,21.707830783078,0,0
86.695739577775,-15.679466929338,16.512261226123,1834213.044462,1115.9011104666,2647491.2010127,21.712261226123,0,0
86.695739753639,-15.681520055796,16.516691669167,1834213.044462,1115.9011104666,2647491.2010127,21.716691669167,0,0
86.695739929503,-15.683573182253,16.521122112211,1834213.044462,1115.9011104666,2647491.2010127,21.721122112211,0,0
86.695740105366,-15.685626308711,16.525552555256,1834213.044462,1115.9011104666,2647491.2010127,21.725552555256,0,0
86.69574028123,-15.687679435169,16.5299829983,1834213.044462,1115.9011104666,2647491.2010127,21.7299829983,0,0
86.695740457094,-15.689732561627,16.534413441344,1834213.044462,1115.9011104666,2647491.2010127,21.734413441344,0,0
86.695740632958,-15.691785688084,16.538843884388,1834213.044462,1115.9011104666,2647491.2010127,21.738843884388,0,0
86.695740808821,-15.693838814542,16.543274327433,1834213.044462,1115.9011104666,2647491.2010127,21.743274327433,0,0
86.695740984685,-15.695891941,16.547704770477,1834213.044462,1115.9011104666,2647491.2010127,21.747704770477,0,0
86.695741160549,-15.697945067458,16.552135213521,1834213.044462,1115.9011104666,2647491.2010127,21.752135213521,0,0
86.695741336413,-15.699998193915,16.556565656566,1834213.044462,1115.9011104666,2647491.2010127,21.756565656566,0,0
86.695741512277,-15.702051320373,16.56099609961,1834213.044462,1115.9011104666,2647491.2010127,21.76099609961,0,0
86.69574168814,-15.704104446831,16.565426542654,1834213.044462,1115.9011104666,2647491.2010127,21.765426542654,0,0
86.695741864004,-15.706157573289,16.569856985699,1834213.044462,1115.9011104666,2647491.2010127,21.769856985699,0,0
86.695742039868,-15.708210699746,16.574287428743,1834213.044462,1115.9011104666,2647491.2010127,21.774287428743,0,0
86.695742215732,-15.710263826204,16.578717871787,1834213.044462,1115.9011104666,2647491.2010127,21.778717871787,0,0
86.695742391595,-15.712316952662,16.583148314831,1834213.044462,1115.9011104666,2647491.2010127,21.783148314831,0,0
86.695742567459,-15.71437007912,16.587578757876,1834213.044462,1115.9011104666,2647491.2010127,21.787578757876,0,0
86.695742743323,-15.716423205577,16.59200920092,1834213.044462,1115.9011104666,2647491.2010127,21.79200920092,0,0
86.695742919187,-15.718476332035,16.596439643964,1834213.044462,1115.9011104666,2647491.2010127,21.796439643964,0,0
86.695743095051,-15.720529458493,16.600870087009,1834213.044462,1115.9011104666,2647491.2010127,21.800870087009,0,0
86.695743270914,-15.722582584951,16.605300530053,1834213.044462,1115.9011104666,2647491.2010127,21.805300530053,0,0
86.695743446778,-15.724635711408,16.609730973097,1834213.044462,1115.9011104666,2647491.2010127,21.809730973097,0,0
86.695743622642,-15.726688837866,16.614161416142,1834213.044462,1115.9011104666,2647491.2010127,21.814161416142,0,0
86.695743798506,-15.728741964324,16.618591859186,1834213.044462,1115.9011104666,2647491.2010127,21.818591859186,0,0
86.695743974369,-15.730795090782,16.62302230223,1834213.044462,1115.9011104666,2647491.2010127,21.82302230223,0,0
86.695744150233,-15.732848217239,16.627452745275,1834213.044462,1115.9011104666,2647491.2010127,21.827452745275,0,0
86.695744326097,-15.734901343697,16.631883188319,1834213.044462,1115.9011104666,2647491.2010127,21.831883188319,0,0
86.695744501961,-15.736954470155,16.636313631363,1834213.044462,1115.9011104666,2647491.2010127,21.836313631363,0,0
86.695744677824,-15.739007596613,16.640744074407,1834213.044462,1115.9011104666,2647491.2010127,21.840744074407,0,0
86.695744853688,-15.74106072307,16.645174517452,1834213.044462,1115.9011104666,2647491.2010127,21.845174517452,0,0
86.695745029552,-15.743113849528,16.649604960496,1834213.044462,1115.9011104666,2647491.2010127,21.849604960496,0,0
86.695745205416,-15.745166975986,16.65403540354,1834213.044462,1115.9011104666,2647491.2010127,21.85403540354,0,0
86.69574538128,-15.747220102444,16.658465846585,1834213.044462,1115.9011104666,2647491.2010127,21.858465846585,0,0
86.695745557143,-15.749273228901,16.662896289629,1834213.044462,1115.9011104666,2647491.2010127,21.862896289629,0,0
86.695745733007,-15.751326355359,16.667326732673,1834213.044462,1115.9011104666,2647491.2010127,21.867326732673,0,0
86.695745908871,-15.753379481817,16.671757175718,1834213.044462,1115.9011104666,2647491.2010127,21.871757175718,0,0
86.695746084735,-15.755432608275,16.676187618762,1834213.044462,1115.9011104666,2647491.2010127,21.876187618762,0,0
86.695746260598,-15.757485734732,16.680618061806,1834213.044462,1115.9011104666,2647491.2010127,21.880618061806,0,0
86.695746436462,-15.75953886119,16.68504850485,1834213.044462,1115.9011104666,2647491.2010127,21.88504850485,0,0
86.695746612326,-15.761591987648,16.689478947895,1834213.044462,1115.9011104666,2647491.2010127,21.889478947895,0,0
86.69574678819,-15.763645114106,16.693909390939,1834213.044462,1115.9011104666,2647491.2010127,21.893909390939,0,0
86.695746964053,-15.765698240564,16.698339833983,1834213.044462,1115.9011104666,2647491.2010127,21.898339833983,0,0
86.695747139917,-15.767751367021,16.702770277028,1834213.044462,1115.9011104666,2647491.2010127,21.902770277028,0,0
86.695747315781,-15.769804493479,16.707200720072,1834213.044462,1115.9011104666,2647491.2010127,21.907200720072,0,0
86.695747491645,-15.771857619937,16.711631163116,1834213.044462,1115.9011104666,2647491.2010127,21.911631163116,0,0
86.695747667509,-15.773910746395,16.716061606161,1834213.044462,1115.9011104666,2647491.2010127,21.916061606161,0,0
86.695747843372,-15.775963872852,16.720492049205,1834213.044462,1115.9011104666,2647491.2010127,21.920492049205,0,0
86.695748019236,-15.77801699931,16.724922492249,1834213.044462,1115.9011104666,2647491.2010127,21.924922492249,0,0
86.6957481951,-15.780070125768,16.729352935294,1834213.044462,1115.9011104666,2647491.2010127,21.929352935294,0,0
86.695748370964,-15.782123252226,16.733783378338,1834213.044462,1115.9011104666,2647491.2010127,21.933783378338,0,0
86.695748546827,-15.784176378683,16.738213821382,1834213.044462,1115.9011104666,2647491.2010127,21.938213821382,0,0
86.695748722691,-15.786229505141,16.742644264426,1834213.044462,1115.9011104666,2647491.2010127,21.942644264426,0,0
86.695748898555,-15.788282631599,16.747074707471,1834213.044462,1115.9011104666,2647491.2010127,21.947074707471,0,0
86.695749074419,-15.790335758057,16.751505150515,1834213.044462,1115.9011104666,2647491.2010127,21.951505150515,0,0
86.695749250283,-15.792388884514,16.755935593559,1834213.044462,1115.9011104666,2647491.2010127,21.955935593559,0,0
86.695749426146,-15.794442010972,16.760366036604,1834213.044462,1115.9011104666,2647491.2010127,21.960366036604,0,0
86.69574960201,-15.79649513743,16.764796479648,1834213.044462,1115.9011104666,2647491.2010127,21.964796479648,0,0
86.695749777874,-15.798548263888,16.769226922692,1834213.044462,1115.9011104666,2647491.2010127,21.969226922692,0,0
86.695749953738,-15.800601390345,16.773657365737,1834213.044462,1115.9011104666,2647491.2010127,21.973657365737,0,0
86.695750129601,-15.802654516803,16.778087808781,1834213.044462,1115.9011104666,2647491.2010127,21.978087808781,0,0
86.695750305465,-15.804707643261,16.782518251825,1834213.044462,1115.9011104666,2647491.2010127,21.982518251825,0,0
86.695750481487,-15.806760770159,16.786948694869,1835573.3296585,-2418.8623126521,2637287.0382556,21.986948694869,0,0
86.695750657731,-15.808813897676,16.791379137914,1835573.3296585,-2418.8623126521,2637287.0382556,21.991379137914,0,0
86.695750833975,-15.810867025192,16.795809580958,1835573.3296585,-2418.8623126521,2637287.0382556,21.995809580958,0,0
86.69575101022,-15.812920152709,16.800240024002,1835573.3296585,-2418.8623126521,2637287.0382556,22.000240024002,0,0
86.695751186464,-15.814973280225,16.804670467047,1835573.3296585,-2418.8623126521,2637287.0382556,22.004670467047,0,0
86.695751362708,-15.817026407742,16.809100910091,1835573.3296585,-2418.8623126521,2637287.0382556,22.009100910091,0,0
86.695751538952,-15.819079535258,16.813531353135,1835573.3296585,-2418.8623126521,2637287.0382556,22.013531353135,0,0
86.695751715196,-15.821132662775,16.81796179618,1835573.3296585,-2418.8623126521,2637287.0382556,22.01796179618,0,0
86.69575189144,-15.823185790291,16.822392239224,1835573.3296585,-2418.8623126521,2637287.0382556,22.022392239224,0,0
86.695752067684,-15.825238917808,16.826822682268,1835573.3296585,-2418.8623126521,2637287.0382556,22.026822682268,0,0
86.695752243928,-15.827292045324,16.831253125313,1835573.3296585,-2418.8623126521,2637287.0382556,22.031253125313,0,0
86.695752420173,-15.829345172841,16.835683568357,1835573.3296585,-2418.8623126521,2637287.0382556,22.035683568357,0,0
86.695752596417,-15.831398300357,16.840114011401,1835573.3296585,-2418.8623126521,2637287.0382556,22.040114011401,0,0
86.695752772661,-15.833451427874,16.844544454445,1835573.3296585,-2418.8623126521,2637287.0382556,22.044544454445,0,0
86.695752948905,-15.83550455539,16.84897489749,1835573.3296585,-2418.8623126521,2637287.0382556,22.04897489749,0,0
86.695753125149,-15.837557682907,16.853405340534,1835573.3296585,-2418.8623126521,2637287.0382556,22.053405340534,0,0
86.695753301393,-15.839610810423,16.857835783578,1835573.3296585,-2418.8623126521,2637287.0382556,22.057835783578,0,0
86.695753477637,-15.841663937939,16.862266226623,1835573.3296585,-2418.8623126521,2637287.0382556,22.062266226623,0,0
86.695753653881,-15.843717065456,16.866696669667,1835573.3296585,-2418.8623126521,2637287.0382556,22.066696669667,0,0
86.695753830125,-15.845770192972,16.871127112711,1835573.3296585,-2418.8623126521,2637287.0382556,22.071127112711,0,0
86.69575400637,-15.847823320489,16.875557555756,1835573.3296585,-2418.8623126521,2637287.0382556,22.075557555756,0,0
86.695754182614,-15.849876448005,16.8799879988,1835573.3296585,-2418.8623126521,2637287.0382556,22.0799879988,0,0
86.695754358858,-15.851929575522,16.884418441844,1835573.3296585,-2418.8623126521,2637287.0382556,22.084418441844,0,0
86.695754535102,-15.853982703038,16.888848884888,1835573.3296585,-2418.8623126521,2637287.0382556,22.088848884888,0,0
86.695754711346,-15.856035830555,16.893279327933,1835573.3296585,-2418.8623126521,2637287.0382556,22.093279327933,0,0
86.69575488759,-15.858088958071,16.897709770977,1835573.3296585,-2418.8623126521,2637287.0382556,22.097709770977,0,0
86.695755063834,-15.860142085588,16.902140214021,1835573.3296585,-2418.8623126521,2637287.0382556,22.102140214021,0,0
86.695755240078,-15.862195213104,16.906570657066,1835573.3296585,-2418.8623126521,2637287.0382556,22.106570657066,0,0
86.695755416322,-15.864248340621,16.91100110011,1835573.3296585,-2418.8623126521,2637287.0382556,22.11100110011,0,0
86.695755592567,-15.866301468137,16.915431543154,1835573.3296585,-2418.8623126521,2637287.0382556,22.115431543154,0,0
86.695755768811,-15.868354595654,16.919861986199,1835573.3296585,-2418.8623126521,2637287.0382556,22.119861986199,0,0
86.695755945055,-15.87040772317,16.924292429243,1835573.3296585,-2418.8623126521,2637287.0382556,22.124292429243,0,0
86.695756121299,-15.872460850687,16.928722872287,1835573.3296585,-2418.8623126521,2637287.0382556,22.128722872287,0,0
86.695756297543,-15.874513978203,16.933153315332,1835573.3296585,-2418.8623126521,2637287.0382556,22.133153315332,0,0
86.695756473787,-15.87656710572,16.937583758376,1835573.3296585,-2418.8623126521,2637287.0382556,22.137583758376,0,0
86.695756650031,-15.878620233236,16.94201420142,1835573.3296585,-2418.8623126521,2637287.0382556,22.14201420142,0,0
86.695756826275,-15.880673360753,16.946444644464,1835573.3296585,-2418.8623126521,2637287.0382556,22.146444644464,0,0
86.695757002519,-15.882726488269,16.950875087509,1835573.3296585,-2418.8623126521,2637287.0382556,22.150875087509,0,0
86.695757178764,-15.884779615786,16.955305530553,1835573.3296585,-2418.8623126521,2637287.0382556,22.155305530553,0,0
86.695757355008,-15.886832743302,16.959735973597,1835573.3296585,-2418.8623126521,2637287.0382556,22.159735973597,0,0
86.695757531252,-15.888885870819,16.964166416642,1835573.3296585,-2418.8623126521,2637287.0382556,22.164166416642,0,0
86.695757707496,-15.890938998335,16.968596859686,1835573.3296585,-2418.8623126521,2637287.0382556,22.168596859686,0,0
86.69575788374,-15.892992125852,16.97302730273,1835573.3296585,-2418.8623126521,2637287.0382556,22.17302730273,0,0
86.695758059984,-15.895045253368,16.977457745775,1835573.3296585,-2418.8623126521,2637287.0382556,22.177457745775,0,0
86.695758236228,-15.897098380885,16.981888188819,1835573.3296585,-2418.8623126521,2637287.0382556,22.181888188819,0,0
86.695758412472,-15.899151508401,16.986318631863,1835573.3296585,-2418.8623126521,2637287.0382556,22.186318631863,0,0
86.695758588717,-15.901204635917,16.990749074907,1835573.3296585,-2418.8623126521,2637287.0382556,22.190749074907,0,0
86.695758764961,-15.903257763434,16.995179517952,1835573.3296585,-2418.8623126521,2637287.0382556,22.195179517952,0,0
86.695758941205,-15.90531089095,16.999609960996,1835573.3296585,-2418.8623126521,2637287.0382556,22.199609960996,0,0
86.695759117449,-15.907364018467,17.00404040404,1835573.3296585,-2418.8623126521,2637287.0382556,22.20404040404,0,0
86.695759293693,-15.909417145983,17.008470847085,1835573.3296585,-2418.8623126521,2637287.0382556,22.208470847085,0,0
86.695759469937,-15.9114702735,17.012901290129,1835573.3296585,-2418.8623126521,2637287.0382556,22.212901290129,0,0
86.695759646181,-15.913523401016,17.017331733173,1835573.3296585,-2418.8623126521,2637287.0382556,22.217331733173,0,0
86.695759822425,-15.915576528533,17.021762176218,1835573.3296585,-2418.8623126521,2637287.0382556,22.221762176218,0,0
86.695759998669,-15.917629656049,17.026192619262,1835573.3296585,-2418.8623126521,2637287.0382556,22.226192619262,0,0
86.695760174914,-15.919682783566,17.030623062306,1835573.3296585,-2418.8623126521,2637287.0382556,22.230623062306,0,0
86.695760351158,-15.921735911082,17.035053505351,1835573.3296585,-2418.8623126521,2637287.0382556,22.235053505351,0,0
86.695760527402,-15.923789038599,17.039483948395,1835573.3296585,-2418.8623126521,2637287.0382556,22.239483948395,0,0
86.695760703646,-15.925842166115,17.043914391439,1835573.3296585,-2418.8623126521,2637287.0382556,22.243914391439,0,0
86.69576087989,-15.927895293632,17.048344834483,1835573.3296585,-2418.8623126521,2637287.0382556,22.248344834483,0,0
86.695761056134,-15.929948421148,17.052775277528,1835573.3296585,-2418.8623126521,2637287.0382556,22.252775277528,0,0
86.695761232378,-15.932001548665,17.057205720572,1835573.3296585,-2418.8623126521,2637287.0382556,22.257205720572,0,0
86.695761408622,-15.934054676181,17.061636163616,1835573.3296585,-2418.8623126521,2637287.0382556,22.261636163616,0,0
86.695761584866,-15.936107803698,17.066066606661,1835573.3296585,-2418.8623126521,2637287.0382556,22.266066606661,0,0
86.695761761111,-15.938160931214,17.070497049705,1835573.3296585,-2418.8623126521,2637287.0382556,22.270497049705,0,0
86.695761937355,-15.940214058731,17.074927492749,1835573.3296585,-2418.8623126521,2637287.0382556,22.274927492749,0,0
86.695762113599,-15.942267186247,17.079357935794,1835573.3296585,-2418.8623126521,2637287.0382556,22.279357935794,0,0
86.695762289843,-15.944320313764,17.083788378838,1835573.3296585,-2418.8623126521,2637287.0382556,22.283788378838,0,0
86.695762466087,-15.94637344128,17.088218821882,1835573.3296585,-2418.8623126521,2637287.0382556,22.288218821882,0,0
86.695762642331,-15.948426568797,17.092649264926,1835573.3296585,-2418.8623126521,2637287.0382556,22.292649264926,0,0
86.695762818575,-15.950479696313,17.097079707971,1835573.3296585,-2418.8623126521,2637287.0382556,22.297079707971,0,0
86.695762994819,-15.95253282383,17.101510151015,1835573.3296585,-2418.8623126521,2637287.0382556,22.301510151015,0,0
86.695763171064,-15.954585951346,17.105940594059,1835573.3296585,-2418.8623126521,2637287.0382556,22.305940594059,0,0
86.695763347308,-15.956639078862,17.110371037104,1835573.3296585,-2418.8623126521,2637287.0382556,22.310371037104,0,0
86.695763523552,-15.958692206379,17.114801480148,1835573.3296585,-2418.8623126521,2637287.0382556,22.314801480148,0,0
86.695763699796,-15.960745333895,17.119231923192,1835573.3296585,-2418.8623126521,2637287.0382556,22.319231923192,0,0
86.69576387604,-15.962798461412,17.123662366237,1835573.3296585,-2418.8623126521,2637287.0382556,22.323662366237,0,0
86.695764052284,-15.964851588928,17.128092809281,1835573.3296585,-2418.8623126521,2637287.0382556,22.328092809281,0,0
86.695764228528,-15.966904716445,17.132523252325,1835573.3296585,-2418.8623126521,2637287.0382556,22.332523252325,0,0
86.695764404772,-15.968957843961,17.13695369537,1835573.3296585,-2418.8623126521,2637287.0382556,22.33695369537,0,0
86.695764581016,-15.971010971478,17.141384138414,1835573.3296585,-2418.8623126521,2637287.0382556,22.341384138414,0,0
86.695764757261,-15.973064098994,17.145814581458,1835573.3296585,-2418.8623126521,2637287.0382556,22.345814581458,0,0
86.695764933505,-15.975117226511,17.150245024502,1835573.3296585,-2418.8623126521,2637287.0382556,22.350245024502,0,0
86.695765109749,-15.977170354027,17.154675467547,1835573.3296585,-2418.8623126521,2637287.0382556,22.354675467547,0,0
86.695765285993,-15.979223481544,17.159105910591,1835573.3296585,-2418.8623126521,2637287.0382556,22.359105910591,0,0
86.695765462237,-15.98127660906,17.163536353635,1835573.3296585,-2418.8623126521,2637287.0382556,22.363536353635,0,0
86.695765638481,-15.983329736577,17.16796679668,1835573.3296585,-2418.8623126521,2637287.0382556,22.36796679668,0,0
86.695765814725,-15.985382864093,17.172397239724,1835573.3296585,-2418.8623126521,2637287.0382556,22.372397239724,0,0
86.695765990969,-15.98743599161,17.176827682768,1835573.3296585,-2418.8623126521,2637287.0382556,22.376827682768,0,0
86.695766167213,-15.989489119126,17.181258125813,1835573.3296585,-2418.8623126521,2637287.0382556,22.381258125813,0,0
86.695766343458,-15.991542246643,17.185688568857,1835573.3296585,-2418.8623126521,2637287.0382556,22.385688568857,0,0
86.695766520206,-15.993595373441,17.190119011901,1841318.333548,-225.95891280737,2633027.7464734,22.390119011901,0,0
86.695766697023,-15.995648500144,17.194549454945,1841318.333548,-225.95891280737,2633027.7464734,22.394549454945,0,0
86.695766873839,-15.997701626847,17.19897989799,1841318.333548,-225.95891280737,2633027.7464734,22.39897989799,0,0
86.695767050656,-15.999754753549,17.203410341034,1841318.333548,-225.95891280737,2633027.7464734,22.403410341034,0,0
86.695767227472,-16.001807880252,17.207840784078,1841318.333548,-225.95891280737,2633027.7464734,22.407840784078,0,0
86.695767404288,-16.003861006954,17.212271227123,1841318.333548,-225.95891280737,2633027.7464734,22.412271227123,0,0
86.695767581105,-16.005914133657,17.216701670167,1841318.333548,-225.95891280737,2633027.7464734,22.416701670167,0,0
86.695767757921,-16.00796726036,17.221132113211,1841318.333548,-225.95891280737,2633027.7464734,22.421132113211,0,0
86.695767934738,-16.010020387062,17.225562556256,1841318.333548,-225.95891280737,2633027.7464734,22.425562556256,0,0
86.695768111554,-16.012073513765,17.2299929993,1841318.333548,-225.95891280737,2633027.7464734,22.4299929993,0,0
86.695768288371,-16.014126640467,17.234423442344,1841318.333548,-225.95891280737,2633027.7464734,22.434423442344,0,0
86.695768465187,-16.01617976717,17.238853885389,1841318.333548,-225.95891280737,2633027.7464734,22.438853885389,0,0
86.695768642003,-16.018232893873,17.243284328433,1841318.333548,-225.95891280737,2633027.7464734,22.443284328433,0,0
86.69576881882,-16.020286020575,17.247714771477,1841318.333548,-225.95891280737,2633027.7464734,22.447714771477,0,0
86.695768995636,-16.022339147278,17.252145214521,1841318.333548,-225.95891280737,2633027.7464734,22.452145214521,0,0
86.695769172453,-16.02439227398,17.256575657566,1841318.333548,-225.95891280737,2633027.7464734,22.456575657566,0,0
86.695769349269,-16.026445400683,17.26100610061,1841318.333548,-225.95891280737,2633027.7464734,22.46100610061,0,0
86.695769526085,-16.028498527386,17.265436543654,1841318.333548,-225.95891280737,2633027.7464734,22.465436543654,0,0
86.695769702902,-16.030551654088,17.269866986699,1841318.333548,-225.95891280737,2633027.7464734,22.469866986699,0,0
86.695769879718,-16.032604780791,17.274297429743,1841318.333548,-225.95891280737,2633027.7464734,22.474297429743,0,0
86.695770056535,-16.034657907493,17.278727872787,1841318.333548,-225.95891280737,2633027.7464734,22.478727872787,0,0
86.695770233351,-16.036711034196,17.283158315832,1841318.333548,-225.95891280737,2633027.7464734,22.483158315832,0,0
86.695770410167,-16.038764160899,17.287588758876,1841318.333548,-225.95891280737,2633027.7464734,22.487588758876,0,0
86.695770586984,-16.040817287601,17.29201920192,1841318.333548,-225.95891280737,2633027.7464734,22.49201920192,0,0
86.6957707638,-16.042870414304,17.296449644964,1841318.333548,-225.95891280737,2633027.7464734,22.496449644964,0,0
86.695770940617,-16.044923541006,17.300880088009,1841318.333548,-225.95891280737,2633027.7464734,22.500880088009,0,0
86.695771117433,-16.046976667709,17.305310531053,1841318.333548,-225.95891280737,2633027.7464734,22.505310531053,0,0
86.695771294249,-16.049029794412,17.309740974097,1841318.333548,-225.95891280737,2633027.7464734,22.509740974097,0,0
86.695771471066,-16.051082921114,17.314171417142,1841318.333548,-225.95891280737,2633027.7464734,22.514171417142,0,0
86.695771647882,-16.053136047817,17.318601860186,1841318.333548,-225.95891280737,2633027.7464734,22.518601860186,0,0
86.695771824699,-16.055189174519,17.32303230323,1841318.333548,-225.95891280737,2633027.7464734,22.52303230323,0,0
86.695772001515,-16.057242301222,17.327462746275,1841318.333548,-225.95891280737,2633027.7464734,22.527462746275,0,0
86.695772178331,-16.059295427925,17.331893189319,1841318.333548,-225.95891280737,2633027.7464734,22.531893189319,0,0
86.695772355148,-16.061348554627,17.336323632363,1841318.333548,-225.95891280737,2633027.7464734,22.536323632363,0,0
86.695772531964,-16.06340168133,17.340754075408,1841318.333548,-225.95891280737,2633027.7464734,22.540754075408,0,0
86.695772708781,-16.065454808033,17.345184518452,1841318.333548,-225.95891280737,2633027.7464734,22.545184518452,0,0
86.695772885597,-16.067507934735,17.349614961496,1841318.333548,-225.95891280737,2633027.7464734,22.549614961496,0,0
86.695773062413,-16.069561061438,17.35404540454,1841318.333548,-225.95891280737,2633027.7464734,22.55404540454,0,0
86.69577323923,-16.07161418814,17.358475847585,1841318.333548,-225.95891280737,2633027.7464734,22.558475847585,0,0
86.695773416046,-16.073667314843,17.362906290629,1841318.333548,-225.95891280737,2633027.7464734,22.562906290629,0,0
86.695773592863,-16.075720441546,17.367336733673,1841318.333548,-225.95891280737,2633027.7464734,22.567336733673,0,0
86.695773769679,-16.077773568248,17.371767176718,1841318.333548,-225.95891280737,2633027.7464734,22.571767176718,0,0
86.695773946495,-16.079826694951,17.376197619762,1841318.333548,-225.95891280737,2633027.7464734,22.576197619762,0,0
86.695774123312,-16.081879821653,17.380628062806,1841318.333548,-225.95891280737,2633027.7464734,22.580628062806,0,0
86.695774300128,-16.083932948356,17.385058505851,1841318.333548,-225.95891280737,2633027.7464734,22.585058505851,0,0
86.695774476945,-16.085986075059,17.389488948895,1841318.333548,-225.95891280737,2633027.7464734,22.589488948895,0,0
86.695774653761,-16.088039201761,17.393919391939,1841318.333548,-225.95891280737,2633027.7464734,22.593919391939,0,0
86.695774830578,-16.090092328464,17.398349834983,1841318.333548,-225.95891280737,2633027.7464734,22.598349834983,0,0
86.695775007394,-16.092145455166,17.402780278028,1841318.333548,-225.95891280737,2633027.7464734,22.602780278028,0,0
86.69577518421,-16.094198581869,17.407210721072,1841318.333548,-225.95891280737,2633027.7464734,22.607210721072,0,0
86.695775361027,-16.096251708572,17.411641164116,1841318.333548,-225.95891280737,2633027.7464734,22.611641164116,0,0
86.695775537843,-16.098304835274,17.416071607161,1841318.333548,-225.95891280737,2633027.7464734,22.616071607161,0,0
86.69577571466,-16.100357961977,17.420502050205,1841318.333548,-225.95891280737,2633027.7464734,22.620502050205,0,0
86.695775891476,-16.102411088679,17.424932493249,1841318.333548,-225.95891280737,2633027.7464734,22.624932493249,0,0
86.695776068292,-16.104464215382,17.429362936294,1841318.333548,-225.95891280737,2633027.7464734,22.629362936294,0,0
86.695776245109,-16.106517342085,17.433793379338,1841318.333548,-225.95891280737,2633027.7464734,22.633793379338,0,0
86.695776421925,-16.108570468787,17.438223822382,1841318.333548,-225.95891280737,2633027.7464734,22.638223822382,0,0
86.695776598742,-16.11062359549,17.442654265427,1841318.333548,-225.95891280737,2633027.7464734,22.642654265427,0,0
86.695776775558,-16.112676722192,17.447084708471,1841318.333548,-225.95891280737,2633027.7464734,22.647084708471,0,0
86.695776952374,-16.114729848895,17.451515151515,1841318.333548,-225.95891280737,2633027.7464734,22.651515151515,0,0
86.695777129191,-16.116782975598,17.455945594559,1841318.333548,-225.95891280737,2633027.7464734,22.655945594559,0,0
86.695777306007,-16.1188361023,17.460376037604,1841318.333548,-225.95891280737,2633027.7464734,22.660376037604,0,0
86.695777482824,-16.120889229003,17.464806480648,1841318.333548,-225.95891280737,2633027.7464734,22.664806480648,0,0
86.69577765964,-16.122942355705,17.469236923692,1841318.333548,-225.95891280737,2633027.7464734,22.669236923692,0,0
86.695777836456,-16.124995482408,17.473667366737,1841318.333548,-225.95891280737,2633027.7464734,22.673667366737,0,0
86.695778013273,-16.127048609111,17.478097809781,1841318.333548,-225.95891280737,2633027.7464734,22.678097809781,0,0
86.695778190089,-16.129101735813,17.482528252825,1841318.333548,-225.95891280737,2633027.7464734,22.682528252825,0,0
86.695778366906,-16.131154862516,17.48695869587,1841318.333548,-225.95891280737,2633027.7464734,22.68695869587,0,0
86.695778543722,-16.133207989218,17.491389138914,1841318.333548,-225.95891280737,2633027.7464734,22.691389138914,0,0
86.695778720538,-16.135261115921,17.495819581958,1841318.333548,-225.95891280737,2633027.7464734,22.695819581958,0,0
86.695778897355,-16.137314242624,17.500250025002,1841318.333548,-225.95891280737,2633027.7464734,22.700250025002,0,0
86.695779074171,-16.139367369326,17.504680468047,1841318.333548,-225.95891280737,2633027.7464734,22.704680468047,0,0
86.695779250988,-16.141420496029,17.509110911091,1841318.333548,-225.95891280737,2633027.7464734,22.709110911091,0,0
86.695779427804,-16.143473622731,17.513541354135,1841318.333548,-225.95891280737,2633027.7464734,22.713541354135,0,0
86.69577960462,-16.145526749434,17.51797179718,1841318.333548,-225.95891280737,2633027.7464734,22.71797179718,0,0
86.695779781437,-16.147579876137,17.522402240224,1841318.333548,-225.95891280737,2633027.7464734,22.722402240224,0,0
86.695779958253,-16.149633002839,17.526832683268,1841318.333548,-225.95891280737,2633027.7464734,22.726832683268,0,0
86.69578013507,-16.151686129542,17.531263126313,1841318.333548,-225.95891280737,2633027.7464734,22.731263126313,0,0
86.695780311886,-16.153739256245,17.535693569357,1841318.333548,-225.95891280737,2633027.7464734,22.735693569357,0,0
86.695780488703,-16.155792382947,17.540124012401,1841318.333548,-225.95891280737,2633027.7464734,22.740124012401,0,0
86.695780665519,-16.15784550965,17.544554455446,1841318.333548,-225.95891280737,2633027.7464734,22.744554455446,0,0
86.695780842335,-16.159898636352,17.54898489849,1841318.333548,-225.95891280737,2633027.7464734,22.74898489849,0,0
86.695781019152,-16.161951763055,17.553415341534,1841318.333548,-225.95891280737,2633027.7464734,22.753415341534,0,0
86.695781195968,-16.164004889758,17.557845784578,1841318.333548,-225.95891280737,2633027.7464734,22.757845784578,0,0
86.695781372785,-16.16605801646,17.562276227623,1841318.333548,-225.95891280737,2633027.7464734,22.762276227623,0,0
86.695781549601,-16.168111143163,17.566706670667,1841318.333548,-225.95891280737,2633027.7464734,22.766706670667,0,0
86.695781726417,-16.170164269865,17.571137113711,1841318.333548,-225.95891280737,2633027.7464734,22.771137113711,0,0
86.695781903234,-16.172217396568,17.575567556756,1841318.333548,-225.95891280737,2633027.7464734,22.775567556756,0,0
86.69578208005,-16.174270523271,17.5799979998,1841318.333548,-225.95891280737,2633027.7464734,22.7799979998,0,0
86.695782256867,-16.176323649973,17.584428442844,1841318.333548,-225.95891280737,2633027.7464734,22.784428442844,0,0
86.695782433683,-16.178376776676,17.588858885889,1841318.333548,-225.95891280737,2633027.7464734,22.788858885889,0,0
86.695782610499,-16.180429903378,17.593289328933,1841318.333548,-225.95891280737,2633027.7464734,22.793289328933,0,0
86.695782787316,-16.182483030081,17.597719771977,1841318.333548,-225.95891280737,2633027.7464734,22.797719771977,0,0
86.695782964132,-16.184536156784,17.602150215021,1841318.333548,-225.95891280737,2633027.7464734,22.802150215021,0,0
86.695783140949,-16.186589283486,17.606580658066,1841318.333548,-225.95891280737,2633027.7464734,22.806580658066,0,0
86.695783317765,-16.188642410189,17.61101110111,1841318.333548,-225.95891280737,2633027.7464734,22.81101110111,0,0
86.695783494581,-16.190695536891,17.615441544154,1841318.333548,-225.95891280737,2633027.7464734,22.815441544154,0,0
86.695783671398,-16.192748663594,17.619871987199,1841318.333548,-225.95891280737,2633027.7464734,22.819871987199,0,0
86.695783848214,-16.194801790297,17.624302430243,1841318.333548,-225.95891280737,2633027.7464734,22.824302430243,0,0
86.695784025031,-16.196854916999,17.628732873287,1841318.333548,-225.95891280737,2633027.7464734,22.828732873287,0,0
86.695784201847,-16.198908043702,17.633163316332,1841318.333548,-225.95891280737,2633027.7464734,22.833163316332,0,0
86.695784378663,-16.200961170404,17.637593759376,1841318.333548,-225.95891280737,2633027.7464734,22.837593759376,0,0
86.69578455548,-16.203014297107,17.64202420242,1841318.333548,-225.95891280737,2633027.7464734,22.84202420242,0,0
86.695784732296,-16.20506742381,17.646454645465,1841318.333548,-225.95891280737,2633027.7464734,22.846454645465,0,0
86.695784909113,-16.207120550512,17.650885088509,1841318.333548,-225.95891280737,2633027.7464734,22.850885088509,0,0
86.695785085929,-16.209173677215,17.655315531553,1841318.333548,-225.95891280737,2633027.7464734,22.855315531553,0,0
86.695785262745,-16.211226803917,17.659745974597,1841318.333548,-225.95891280737,2633027.7464734,22.859745974597,0,0
86.695785439562,-16.21327993062,17.664176417642,1841318.333548,-225.95891280737,2633027.7464734,22.864176417642,0,0
86.695785616378,-16.215333057323,17.668606860686,1841318.333548,-225.95891280737,2633027.7464734,22.868606860686,0,0
86.695785793195,-16.217386184025,17.67303730373,1841318.333548,-225.95891280737,2633027.7464734,22.87303730373,0,0
86.695785970011,-16.219439310728,17.677467746775,1841318.333548,-225.95891280737,2633027.7464734,22.877467746775,0,0
86.695786146828,-16.22149243743,17.681898189819,1841318.333548,-225.95891280737,2633027.7464734,22.881898189819,0,0
86.695786323644,-16.223545564133,17.686328632863,1841318.333548,-225.95891280737,2633027.7464734,22.886328632863,0,0
86.69578650046,-16.225598690836,17.690759075908,1841318.333548,-225.95891280737,2633027.7464734,22.890759075908,0,0
86.695786677277,-16.227651817538,17.695189518952,1841318.333548,-225.95891280737,2633027.7464734,22.895189518952,0,0
86.695786854093,-16.229704944241,17.699619961996,1841318.333548,-225.95891280737,2633027.7464734,22.899619961996,0,0
86.69578703091,-16.231758070943,17.704050405041,1841318.333548,-225.95891280737,2633027.7464734,22.904050405041,0,0
86.695787207726,-16.233811197646,17.708480848085,1841318.333548,-225.95891280737,2633027.7464734,22.908480848085,0,0
86.695787384542,-16.235864324349,17.712911291129,1841318.333548,-225.95891280737,2633027.7464734,22.912911291129,0,0
86.695787561359,-16.237917451051,17.717341734173,1841318.333548,-225.95891280737,2633027.7464734,22.917341734173,0,0
86.695787738175,-16.239970577754,17.721772177218,1841318.333548,-225.95891280737,2633027.7464734,22.921772177218,0,0
86.695787914992,-16.242023704457,17.726202620262,1841318.333548,-225.95891280737,2633027.7464734,22.926202620262,0,0
86.695788091808,-16.244076831159,17.730633063306,1841318.333548,-225.95891280737,2633027.7464734,22.930633063306,0,0
86.695788268624,-16.246129957862,17.735063506351,1841318.333548,-225.95891280737,2633027.7464734,22.935063506351,0,0
86.695788445441,-16.248183084564,17.739493949395,1841318.333548,-225.95891280737,2633027.7464734,22.939493949395,0,0
86.695788622257,-16.250236211267,17.743924392439,1841318.333548,-225.95891280737,2633027.7464734,22.943924392439,0,0
86.695788799074,-16.25228933797,17.748354835484,1841318.333548,-225.95891280737,2633027.7464734,22.948354835484,0,0
86.69578897589,-16.254342464672,17.752785278528,1841318.333548,-225.95891280737,2633027.7464734,22.952785278528,0,0
86.695789152706,-16.256395591375,17.757215721572,1841318.333548,-225.95891280737,2633027.7464734,22.957215721572,0,0
86.695789329523,-16.258448718077,17.761646164616,1841318.333548,-225.95891280737,2633027.7464734,22.961646164616,0,0
86.695789506339,-16.26050184478,17.766076607661,1841318.333548,-225.95891280737,2633027.7464734,22.966076607661,0,0
86.695789683156,-16.262554971483,17.770507050705,1841318.333548,-225.95891280737,2633027.7464734,22.970507050705,0,0
86.695789859972,-16.264608098185,17.774937493749,1841318.333548,-225.95891280737,2633027.7464734,22.974937493749,0,0
86.695790036788,-16.266661224888,17.779367936794,1841318.333548,-225.95891280737,2633027.7464734,22.979367936794,0,0
86.695790213605,-16.26871435159,17.783798379838,1841318.333548,-225.95891280737,2633027.7464734,22.983798379838,0,0
86.695790390421,-16.270767478293,17.788228822882,1841318.333548,-225.95891280737,2633027.7464734,22.988228822882,0,0
86.695790567238,-16.272820604996,17.792659265927,1841318.333548,-225.95891280737,2633027.7464734,22.992659265927,0,0
86.695790744054,-16.274873731698,17.797089708971,1841318.333548,-225.95891280737,2633027.7464734,22.997089708971,0,0
86.69579092087,-16.276926858401,17.801520152015,1841318.333548,-225.95891280737,2633027.7464734,23.001520152015,0,0
86.695791097687,-16.278979985103,17.80595059506,1841318.333548,-225.95891280737,2633027.7464734,23.00595059506,0,0
86.695791274503,-16.281033111806,17.810381038104,1841318.333548,-225.95891280737,2633027.7464734,23.010381038104,0,0
86.69579145132,-16.283086238509,17.814811481148,1841318.333548,-225.95891280737,2633027.7464734,23.014811481148,0,0
86.695791628136,-16.285139365211,17.819241924192,1841318.333548,-225.95891280737,2633027.7464734,23.019241924192,0,0
86.695791804953,-16.287192491914,17.823672367237,1841318.333548,-225.95891280737,2633027.7464734,23.023672367237,0,0
86.695791981769,-16.289245618616,17.828102810281,1841318.333548,-225.95891280737,2633027.7464734,23.028102810281,0,0
86.695792158585,-16.291298745319,17.832533253325,1841318.333548,-225.95891280737,2633027.7464734,23.032533253325,0,0
86.695792335402,-16.293351872022,17.83696369637,1841318.333548,-225.95891280737,2633027.7464734,23.03696369637,0,0
86.695792512218,-16.295404998724,17.841394139414,1841318.333548,-225.95891280737,2633027.7464734,23.041394139414,0,0
86.695792689035,-16.297458125427,17.845824582458,1841318.333548,-225.95891280737,2633027.7464734,23.045824582458,0,0
86.695792865851,-16.299511252129,17.850255025503,1841318.333548,-225.95891280737,2633027.7464734,23.050255025503,0,0
86.695793042667,-16.301564378832,17.854685468547,1841318.333548,-225.95891280737,2633027.7464734,23.054685468547,0,0
86.695793219484,-16.303617505535,17.859115911591,1841318.333548,-225.95891280737,2633027.7464734,23.059115911591,0,0
86.6957933963,-16.305670632237,17.863546354635,1841318.333548,-225.95891280737,2633027.7464734,23.063546354635,0,0
86.695793573117,-16.30772375894,17.86797679768,1841318.333548,-225.95891280737,2633027.7464734,23.06797679768,0,0
86.695793749933,-16.309776885642,17.872407240724,1841318.333548,-225.95891280737,2633027.7464734,23.072407240724,0,0
86.695793926749,-16.311830012345,17.876837683768,1841318.333548,-225.95891280737,2633027.7464734,23.076837683768,0,0
86.695794103566,-16.313883139048,17.881268126813,1841318.333548,-225.95891280737,2633027.7464734,23.081268126813,0,0
86.695794280382,-16.31593626575,17.885698569857,1841318.333548,-225.95891280737,2633027.7464734,23.085698569857,0,0
86.695794457199,-16.317989392453,17.890129012901,1841318.333548,-225.95891280737,2633027.7464734,23.090129012901,0,0
86.695794634015,-16.320042519155,17.894559455946,1841318.333548,-225.95891280737,2633027.7464734,23.094559455946,0,0
86.695794810831,-16.322095645858,17.89898989899,1841318.333548,-225.95891280737,2633027.7464734,23.09898989899,0,0
86.695794987648,-16.324148772561,17.903420342034,1841318.333548,-225.95891280737,2633027.7464734,23.103420342034,0,0
86.695795164464,-16.326201899263,17.907850785079,1841318.333548,-225.95891280737,2633027.7464734,23.107850785079,0,0
86.695795341281,-16.328255025966,17.912281228123,1841318.333548,-225.95891280737,2633027.7464734,23.112281228123,0,0
86.695795518097,-16.330308152669,17.916711671167,1841318.333548,-225.95891280737,2633027.7464734,23.116711671167,0,0
86.695795694913,-16.332361279371,17.921142114211,1841318.333548,-225.95891280737,2633027.7464734,23.121142114211,0,0
86.69579587173,-16.334414406074,17.925572557256,1841318.333548,-225.95891280737,2633027.7464734,23.125572557256,0,0
86.695796048546,-16.336467532776,17.9300030003,1841318.333548,-225.95891280737,2633027.7464734,23.1300030003,0,0
86.695796225363,-16.338520659479,17.934433443344,1841318.333548,-225.95891280737,2633027.7464734,23.134433443344,0,0
86.695796402179,-16.340573786182,17.938863886389,1841318.333548,-225.95891280737,2633027.7464734,23.138863886389,0,0
86.695796578995,-16.342626912884,17.943294329433,1841318.333548,-225.95891280737,2633027.7464734,23.143294329433,0,0
86.695796755812,-16.344680039587,17.947724772477,1841318.333548,-225.95891280737,2633027.7464734,23.147724772477,0,0
86.695796932628,-16.346733166289,17.952155215522,1841318.333548,-225.95891280737,2633027.7464734,23.152155215522,0,0
86.695797109445,-16.348786292992,17.956585658566,1841318.333548,-225.95891280737,2633027.7464734,23.156585658566,0,0
86.695797286261,-16.350839419695,17.96101610161,1841318.333548,-225.95891280737,2633027.7464734,23.16101610161,0,0
86.695797463077,-16.352892546397,17.965446544654,1841318.333548,-225.95891280737,2633027.7464734,23.165446544654,0,0
86.695797639894,-16.3549456731,17.969876987699,1841318.333548,-225.95891280737,2633027.7464734,23.169876987699,0,0
86.69579781671,-16.356998799802,17.974307430743,1841318.333548,-225.95891280737,2633027.7464734,23.174307430743,0,0
86.695797993527,-16.359051926505,17.978737873787,1841318.333548,-225.95891280737,2633027.7464734,23.178737873787,0,0
86.695798170343,-16.361105053208,17.983168316832,1841318.333548,-225.95891280737,2633027.7464734,23.183168316832,0,0
86.69579834716,-16.36315817991,17.987598759876,1841318.333548,-225.95891280737,2633027.7464734,23.187598759876,0,0
86.695798523976,-16.365211306613,17.99202920292,1841318.333548,-225.95891280737,2633027.7464734,23.19202920292,0,0
86.695798700792,-16.367264433315,17.996459645965,1841318.333548,-225.95891280737,2633027.7464734,23.196459645965,0,0
86.695798877609,-16.369317560018,18.000890089009,1841318.333548,-225.95891280737,2633027.7464734,23.200890089009,0,0
86.695799054425,-16.371370686721,18.005320532053,1841318.333548,-225.95891280737,2633027.7464734,23.205320532053,0,0
86.695799231242,-16.373423813423,18.009750975098,1841318.333548,-225.95891280737,2633027.7464734,23.209750975098,0,0
86.695799408058,-16.375476940126,18.014181418142,1841318.333548,-225.95891280737,2633027.7464734,23.214181418142,0,0
86.695799584874,-16.377530066828,18.018611861186,1841318.333548,-225.95891280737,2633027.7464734,23.218611861186,0,0
86.695799761691,-16.379583193531,18.02304230423,1841318.333548,-225.95891280737,2633027.7464734,23.22304230423,0,0
86.695799938507,-16.381636320234,18.027472747275,1841318.333548,-225.95891280737,2633027.7464734,23.227472747275,0,0
86.695800115324,-16.383689446936,18.031903190319,1841318.333548,-225.95891280737,2633027.7464734,23.231903190319,0,0
86.69580029214,-16.385742573639,18.036333633363,1841318.333548,-225.95891280737,2633027.7464734,23.236333633363,0,0
86.695800468956,-16.387795700341,18.040764076408,1841318.333548,-225.95891280737,2633027.7464734,23.240764076408,0,0
86.695800645773,-16.389848827044,18.045194519452,1841318.333548,-225.95891280737,2633027.7464734,23.245194519452,0,0
86.695800822589,-16.391901953747,18.049624962496,1841318.333548,-225.95891280737,2633027.7464734,23.249624962496,0,0
86.695800999406,-16.393955080449,18.054055405541,1841318.333548,-225.95891280737,2633027.7464734,23.254055405541,0,0
86.695801176222,-16.396008207152,18.058485848585,1841318.333548,-225.95891280737,2633027.7464734,23.258485848585,0,0
86.695801353038,-16.398061333854,18.062916291629,1841318.333548,-225.95891280737,2633027.7464734,23.262916291629,0,0
86.695801529855,-16.400114460557,18.067346734673,1841318.333548,-225.95891280737,2633027.7464734,23.267346734673,0,0
86.695801706671,-16.40216758726,18.071777177718,1841318.333548,-225.95891280737,2633027.7464734,23.271777177718,0,0
86.695801883488,-16.404220713962,18.076207620762,1841318.333548,-225.95891280737,2633027.7464734,23.276207620762,0,0
86.695802060304,-16.406273840665,18.080638063806,1841318.333548,-225.95891280737,2633027.7464734,23.280638063806,0,0
86.69580223712,-16.408326967367,18.085068506851,1841318.333548,-225.95891280737,2633027.7464734,23.285068506851,0,0
86.695802413937,-16.41038009407,18.089498949895,1841318.333548,-225.95891280737,2633027.7464734,23.289498949895,0,0
86.695802590753,-16.412433220773,18.093929392939,1841318.333548,-225.95891280737,2633027.7464734,23.293929392939,0,0
86.69580276757,-16.414486347475,18.098359835984,1841318.333548,-225.95891280737,2633027.7464734,23.298359835984,0,0
86.695802944386,-16.416539474178,18.102790279028,1841318.333548,-225.95891280737,2633027.7464734,23.302790279028,0,0
86.695803121202,-16.418592600881,18.107220722072,1841318.333548,-225.95891280737,2633027.7464734,23.307220722072,0,0
86.695803298019,-16.420645727583,18.111651165117,1841318.333548,-225.95891280737,2633027.7464734,23.311651165117,0,0
86.695803474835,-16.422698854286,18.116081608161,1841318.333548,-225.95891280737,2633027.7464734,23.316081608161,0,0
86.695803651652,-16.424751980988,18.120512051205,1841318.333548,-225.95891280737,2633027.7464734,23.320512051205,0,0
86.695803828468,-16.426805107691,18.124942494249,1841318.333548,-225.95891280737,2633027.7464734,23.324942494249,0,0
86.695804005285,-16.428858234394,18.129372937294,1841318.333548,-225.95891280737,2633027.7464734,23.329372937294,0,0
86.695804182101,-16.430911361096,18.133803380338,1841318.333548,-225.95891280737,2633027.7464734,23.333803380338,0,0
86.695804358917,-16.432964487799,18.138233823382,1841318.333548,-225.95891280737,2633027.7464734,23.338233823382,0,0
86.695804535734,-16.435017614501,18.142664266427,1841318.333548,-225.95891280737,2633027.7464734,23.342664266427,0,0
86.69580471255,-16.437070741204,18.147094709471,1841318.333548,-225.95891280737,2633027.7464734,23.347094709471,0,0
86.695804889367,-16.439123867907,18.151525152515,1841318.333548,-225.95891280737,2633027.7464734,23.351525152515,0,0
86.695805066183,-16.441176994609,18.15595559556,1841318.333548,-225.95891280737,2633027.7464734,23.35595559556,0,0
86.695805242999,-16.443230121312,18.160386038604,1841318.333548,-225.95891280737,2633027.7464734,23.360386038604,0,0
86.695805419816,-16.445283248014,18.164816481648,1841318.333548,-225.95891280737,2633027.7464734,23.364816481648,0,0
86.695805596632,-16.447336374717,18.169246924692,1841318.333548,-225.95891280737,2633027.7464734,23.369246924692,0,0
86.695805773449,-16.44938950142,18.173677367737,1841318.333548,-225.95891280737,2633027.7464734,23.373677367737,0,0
86.695805950265,-16.451442628122,18.178107810781,1841318.333548,-225.95891280737,2633027.7464734,23.378107810781,0,0
86.695806127081,-16.453495754825,18.182538253825,1841318.333548,-225.95891280737,2633027.7464734,23.382538253825,0,0
86.695806303898,-16.455548881527,18.18696869687,1841318.333548,-225.95891280737,2633027.7464734,23.38696869687,0,0
86.695806480714,-16.45760200823,18.191399139914,1841318.333548,-225.95891280737,2633027.7464734,23.391399139914,0,0
86.695806657531,-16.459655134933,18.195829582958,1841318.333548,-225.95891280737,2633027.7464734,23.395829582958,0,0
86.695806834347,-16.461708261635,18.200260026003,1841318.333548,-225.95891280737,2633027.7464734,23.400260026003,0,0
86.695807011163,-16.463761388338,18.204690469047,1841318.333548,-225.95891280737,2633027.7464734,23.404690469047,0,0
86.69580718798,-16.46581451504,18.209120912091,1841318.333548,-225.95891280737,2633027.7464734,23.409120912091,0,0
86.695807364796,-16.467867641743,18.213551355136,1841318.333548,-225.95891280737,2633027.7464734,23.413551355136,0,0
86.695807541613,-16.469920768446,18.21798179818,1841318.333548,-225.95891280737,2633027.7464734,23.41798179818,0,0
86.695807718429,-16.471973895148,18.222412241224,1841318.333548,-225.95891280737,2633027.7464734,23.422412241224,0,0
86.695807895245,-16.474027021851,18.226842684268,1841318.333548,-225.95891280737,2633027.7464734,23.426842684268,0,0
86.695808072062,-16.476080148553,18.231273127313,1841318.333548,-225.95891280737,2633027.7464734,23.431273127313,0,0
86.695808248878,-16.478133275256,18.235703570357,1841318.333548,-225.95891280737,2633027.7464734,23.435703570357,0,0
86.695808425695,-16.480186401959,18.240134013401,1841318.333548,-225.95891280737,2633027.7464734,23.440134013401,0,0
86.695808602511,-16.482239528661,18.244564456446,1841318.333548,-225.95891280737,2633027.7464734,23.444564456446,0,0
86.695808779327,-16.484292655364,18.24899489949,1841318.333548,-225.95891280737,2633027.7464734,23.44899489949,0,0
86.695808956144,-16.486345782066,18.253425342534,1841318.333548,-225.95891280737,2633027.7464734,23.453425342534,0,0
86.69580913296,-16.488398908769,18.257855785579,1841318.333548,-225.95891280737,2633027.7464734,23.457855785579,0,0
86.695809309777,-16.490452035472,18.262286228623,1841318.333548,-225.95891280737,2633027.7464734,23.462286228623,0,0
86.695809486593,-16.492505162174,18.266716671667,1841318.333548,-225.95891280737,2633027.7464734,23.466716671667,0,0
86.69580966341,-16.494558288877,18.271147114711,1841318.333548,-225.95891280737,2633027.7464734,23.471147114711,0,0
86.695809840226,-16.496611415579,18.275577557756,1841318.333548,-225.95891280737,2633027.7464734,23.475577557756,0,0
86.695810017042,-16.498664542282,18.2800080008,1841318.333548,-225.95891280737,2633027.7464734,23.4800080008,0,0
86.695810193859,-16.500717668985,18.284438443844,1841318.333548,-225.95891280737,2633027.7464734,23.484438443844,0,0
86.695810370675,-16.502770795687,18.288868886889,1841318.333548,-225.95891280737,2633027.7464734,23.488868886889,0,0
86.695810547492,-16.50482392239,18.293299329933,1841318.333548,-225.95891280737,2633027.7464734,23.493299329933,0,0
86.695810724308,-16.506877049093,18.297729772977,1841318.333548,-225.95891280737,2633027.7464734,23.497729772977,0,0
86.695810901124,-16.508930175795,18.302160216022,1841318.333548,-225.95891280737,2633027.7464734,23.502160216022,0,0
86.695811077941,-16.510983302498,18.306590659066,1841318.333548,-225.95891280737,2633027.7464734,23.506590659066,0,0
86.695811254757,-16.5130364292,18.31102110211,1841318.333548,-225.95891280737,2633027.7464734,23.51102110211,0,0
86.695811431574,-16.515089555903,18.315451545155,1841318.333548,-225.95891280737,2633027.7464734,23.515451545155,0,0
86.69581160839,-16.517142682606,18.319881988199,1841318.333548,-225.95891280737,2633027.7464734,23.519881988199,0,0
86.695811785206,-16.519195809308,18.324312431243,1841318.333548,-225.95891280737,2633027.7464734,23.524312431243,0,0
86.695811962074,-16.52124893624,18.328742874287,1839677.7123517,-3257.1030840246,2620909.2426446,23.528742874287,0,0
86.695812139082,-16.523302063796,18.333173317332,1839677.7123517,-3257.1030840246,2620909.2426446,23.533173317332,0,0
86.69581231609,-16.525355191352,18.337603760376,1839677.7123517,-3257.1030840246,2620909.2426446,23.537603760376,0,0
86.695812493098,-16.527408318908,18.34203420342,1839677.7123517,-3257.1030840246,2620909.2426446,23.54203420342,0,0
86.695812670106,-16.529461446464,18.346464646465,1839677.7123517,-3257.1030840246,2620909.2426446,23.546464646465,0,0
86.695812847114,-16.531514574019,18.350895089509,1839677.7123517,-3257.1030840246,2620909.2426446,23.550895089509,0,0
86.695813024122,-16.533567701575,18.355325532553,1839677.7123517,-3257.1030840246,2620909.2426446,23.555325532553,0,0
86.69581320113,-16.535620829131,18.359755975598,1839677.7123517,-3257.1030840246,2620909.2426446,23.559755975598,0,0
86.695813378139,-16.537673956687,18.364186418642,1839677.7123517,-3257.1030840246,2620909.2426446,23.564186418642,0,0
86.695813555147,-16.539727084243,18.368616861686,1839677.7123517,-3257.1030840246,2620909.2426446,23.568616861686,0,0
86.695813732155,-16.541780211799,18.37304730473,1839677.7123517,-3257.1030840246,2620909.2426446,23.57304730473,0,0
86.695813909163,-16.543833339354,18.377477747775,1839677.7123517,-3257.1030840246,2620909.2426446,23.577477747775,0,0
86.695814086171,-16.54588646691,18.381908190819,1839677.7123517,-3257.1030840246,2620909.2426446,23.581908190819,0,0
86.695814263179,-16.547939594466,18.386338633863,1839677.7123517,-3257.1030840246,2620909.2426446,23.586338633863,0,0
86.695814440187,-16.549992722022,18.390769076908,1839677.7123517,-3257.1030840246,2620909.2426446,23.590769076908,0,0
86.695814617195,-16.552045849578,18.395199519952,1839677.7123517,-3257.1030840246,2620909.2426446,23.595199519952,0,0
86.695814794203,-16.554098977134,18.399629962996,1839677.7123517,-3257.1030840246,2620909.2426446,23.599629962996,0,0
86.695814971211,-16.556152104689,18.404060406041,1839677.7123517,-3257.1030840246,2620909.2426446,23.604060406041,0,0
86.695815148219,-16.558205232245,18.408490849085,1839677.7123517,-3257.1030840246,2620909.2426446,23.608490849085,0,0
86.695815325227,-16.560258359801,18.412921292129,1839677.7123517,-3257.1030840246,2620909.2426446,23.612921292129,0,0
86.695815502235,-16.562311487357,18.417351735174,1839677.7123517,-3257.1030840246,2620909.2426446,23.617351735174,0,0
86.695815679243,-16.564364614913,18.421782178218,1839677.7123517,-3257.1030840246,2620909.2426446,23.621782178218,0,0
86.695815856251,-16.566417742468,18.426212621262,1839677.7123517,-3257.1030840246,2620909.2426446,23.626212621262,0,0
86.695816033259,-16.568470870024,18.430643064306,1839677.7123517,-3257.1030840246,2620909.2426446,23.630643064306,0,0
86.695816210267,-16.57052399758,18.435073507351,1839677.7123517,-3257.1030840246,2620909.2426446,23.635073507351,0,0
86.695816387275,-16.572577125136,18.439503950395,1839677.7123517,-3257.1030840246,2620909.2426446,23.639503950395,0,0
86.695816564283,-16.574630252692,18.443934393439,1839677.7123517,-3257.1030840246,2620909.2426446,23.643934393439,0,0
86.695816741744,-16.576683379841,18.448364836484,1846124.9683601,-1428.2269359001,2622744.5551545,23.648364836484,0,0
86.695816919218,-16.57873650698,18.452795279528,1846124.9683601,-1428.2269359001,2622744.5551545,23.652795279528,0,0
86.695817096693,-16.580789634118,18.457225722572,1846124.9683601,-1428.2269359001,2622744.5551545,23.657225722572,0,0
86.695817274167,-16.582842761256,18.461656165617,1846124.9683601,-1428.2269359001,2622744.5551545,23.661656165617,0,0
86.695817451641,-16.584895888394,18.466086608661,1846124.9683601,-1428.2269359001,2622744.5551545,23.666086608661,0,0
86.695817629115,-16.586949015533,18.470517051705,1846124.9683601,-1428.2269359001,2622744.5551545,23.670517051705,0,0
86.695817806589,-16.589002142671,18.474947494749,1846124.9683601,-1428.2269359001,2622744.5551545,23.674947494749,0,0
86.695817984063,-16.591055269809,18.479377937794,1846124.9683601,-1428.2269359001,2622744.5551545,23.679377937794,0,0
86.695818161537,-16.593108396948,18.483808380838,1846124.9683601,-1428.2269359001,2622744.5551545,23.683808380838,0,0
86.695818339012,-16.595161524086,18.488238823882,1846124.9683601,-1428.2269359001,2622744.5551545,23.688238823882,0,0
86.695818516486,-16.597214651224,18.492669266927,1846124.9683601,-1428.2269359001,2622744.5551545,23.692669266927,0,0
86.69581869396,-16.599267778362,18.497099709971,1846124.9683601,-1428.2269359001,2622744.5551545,23.697099709971,0,0
86.695818871434,-16.601320905501,18.501530153015,1846124.9683601,-1428.2269359001,2622744.5551545,23.701530153015,0,0
86.695819048908,-16.603374032639,18.50596059606,1846124.9683601,-1428.2269359001,2622744.5551545,23.70596059606,0,0
86.695819226382,-16.605427159777,18.510391039104,1846124.9683601,-1428.2269359001,2622744.5551545,23.710391039104,0,0
86.695819403856,-16.607480286916,18.514821482148,1846124.9683601,-1428.2269359001,2622744.5551545,23.714821482148,0,0
86.69581958133,-16.609533414054,18.519251925193,1846124.9683601,-1428.2269359001,2622744.5551545,23.719251925193,0,0
86.695819758805,-16.611586541192,18.523682368237,1846124.9683601,-1428.2269359001,2622744.5551545,23.723682368237,0,0
86.695819936279,-16.61363966833,18.528112811281,1846124.9683601,-1428.2269359001,2622744.5551545,23.728112811281,0,0
86.695820113753,-16.615692795469,18.532543254325,1846124.9683601,-1428.2269359001,2622744.5551545,23.732543254325,0,0
86.695820291227,-16.617745922607,18.53697369737,1846124.9683601,-1428.2269359001,2622744.5551545,23.73697369737,0,0
86.695820468701,-16.619799049745,18.541404140414,1846124.9683601,-1428.2269359001,2622744.5551545,23.741404140414,0,0
86.695820646175,-16.621852176884,18.545834583458,1846124.9683601,-1428.2269359001,2622744.5551545,23.745834583458,0,0
86.695820823649,-16.623905304022,18.550265026503,1846124.9683601,-1428.2269359001,2622744.5551545,23.750265026503,0,0
86.695821001123,-16.62595843116,18.554695469547,1846124.9683601,-1428.2269359001,2622744.5551545,23.754695469547,0,0
86.695821178598,-16.628011558298,18.559125912591,1846124.9683601,-1428.2269359001,2622744.5551545,23.759125912591,0,0
86.695821356072,-16.630064685437,18.563556355636,1846124.9683601,-1428.2269359001,2622744.5551545,23.763556355636,0,0
86.695821533546,-16.632117812575,18.56798679868,1846124.9683601,-1428.2269359001,2622744.5551545,23.76798679868,0,0
86.69582171102,-16.634170939713,18.572417241724,1846124.9683601,-1428.2269359001,2622744.5551545,23.772417241724,0,0
86.695821888494,-16.636224066852,18.576847684768,1846124.9683601,-1428.2269359001,2622744.5551545,23.776847684768,0,0
86.695822065968,-16.63827719399,18.581278127813,1846124.9683601,-1428.2269359001,2622744.5551545,23.781278127813,0,0
86.695822243442,-16.640330321128,18.585708570857,1846124.9683601,-1428.2269359001,2622744.5551545,23.785708570857,0,0
86.695822420917,-16.642383448266,18.590139013901,1846124.9683601,-1428.2269359001,2622744.5551545,23.790139013901,0,0
86.695822598391,-16.644436575405,18.594569456946,1846124.9683601,-1428.2269359001,2622744.5551545,23.794569456946,0,0
86.695822775865,-16.646489702543,18.59899989999,1846124.9683601,-1428.2269359001,2622744.5551545,23.79899989999,0,0
86.695822953339,-16.648542829681,18.603430343034,1846124.9683601,-1428.2269359001,2622744.5551545,23.803430343034,0,0
86.695823130813,-16.65059595682,18.607860786079,1846124.9683601,-1428.2269359001,2622744.5551545,23.807860786079,0,0
86.695823308287,-16.652649083958,18.612291229123,1846124.9683601,-1428.2269359001,2622744.5551545,23.812291229123,0,0
86.695823485761,-16.654702211096,18.616721672167,1846124.9683601,-1428.2269359001,2622744.5551545,23.816721672167,0,0
86.695823663235,-16.656755338234,18.621152115212,1846124.9683601,-1428.2269359001,2622744.5551545,23.821152115212,0,0
86.69582384071,-16.658808465373,18.625582558256,1846124.9683601,-1428.2269359001,2622744.5551545,23.825582558256,0,0
86.695824018184,-16.660861592511,18.6300130013,1846124.9683601,-1428.2269359001,2622744.5551545,23.8300130013,0,0
86.695824195658,-16.662914719649,18.634443444344,1846124.9683601,-1428.2269359001,2622744.5551545,23.834443444344,0,0
86.695824373132,-16.664967846788,18.638873887389,1846124.9683601,-1428.2269359001,2622744.5551545,23.838873887389,0,0
86.695824550606,-16.667020973926,18.643304330433,1846124.9683601,-1428.2269359001,2622744.5551545,23.843304330433,0,0
86.69582472808,-16.669074101064,18.647734773477,1846124.9683601,-1428.2269359001,2622744.5551545,23.847734773477,0,0
86.695824905554,-16.671127228202,18.652165216522,1846124.9683601,-1428.2269359001,2622744.5551545,23.852165216522,0,0
86.695825083029,-16.673180355341,18.656595659566,1846124.9683601,-1428.2269359001,2622744.5551545,23.856595659566,0,0
86.695825260503,-16.675233482479,18.66102610261,1846124.9683601,-1428.2269359001,2622744.5551545,23.86102610261,0,0
86.695825437977,-16.677286609617,18.665456545655,1846124.9683601,-1428.2269359001,2622744.5551545,23.865456545655,0,0
86.695825615451,-16.679339736756,18.669886988699,1846124.9683601,-1428.2269359001,2622744.5551545,23.869886988699,0,0
86.695825792925,-16.681392863894,18.674317431743,1846124.9683601,-1428.2269359001,2622744.5551545,23.874317431743,0,0
86.695825970399,-16.683445991032,18.678747874787,1846124.9683601,-1428.2269359001,2622744.5551545,23.878747874787,0,0
86.695826147873,-16.685499118171,18.683178317832,1846124.9683601,-1428.2269359001,2622744.5551545,23.883178317832,0,0
86.695826325347,-16.687552245309,18.687608760876,1846124.9683601,-1428.2269359001,2622744.5551545,23.887608760876,0,0
86.695826502822,-16.689605372447,18.69203920392,1846124.9683601,-1428.2269359001,2622744.5551545,23.89203920392,0,0
86.695826680296,-16.691658499585,18.696469646965,1846124.9683601,-1428.2269359001,2622744.5551545,23.896469646965,0,0
86.69582685777,-16.693711626724,18.700900090009,1846124.9683601,-1428.2269359001,2622744.5551545,23.900900090009,0,0
86.695827035244,-16.695764753862,18.705330533053,1846124.9683601,-1428.2269359001,2622744.5551545,23.905330533053,0,0
86.695827212718,-16.697817881,18.709760976098,1846124.9683601,-1428.2269359001,2622744.5551545,23.909760976098,0,0
86.695827390192,-16.699871008139,18.714191419142,1846124.9683601,-1428.2269359001,2622744.5551545,23.914191419142,0,0
86.695827567666,-16.701924135277,18.718621862186,1846124.9683601,-1428.2269359001,2622744.5551545,23.918621862186,0,0
86.695827745141,-16.703977262415,18.723052305231,1846124.9683601,-1428.2269359001,2622744.5551545,23.923052305231,0,0
86.695827922615,-16.706030389553,18.727482748275,1846124.9683601,-1428.2269359001,2622744.5551545,23.927482748275,0,0
86.695828100089,-16.708083516692,18.731913191319,1846124.9683601,-1428.2269359001,2622744.5551545,23.931913191319,0,0
86.695828277563,-16.71013664383,18.736343634363,1846124.9683601,-1428.2269359001,2622744.5551545,23.936343634363,0,0
86.695828455037,-16.712189770968,18.740774077408,1846124.9683601,-1428.2269359001,2622744.5551545,23.940774077408,0,0
86.695828632511,-16.714242898107,18.745204520452,1846124.9683601,-1428.2269359001,2622744.5551545,23.945204520452,0,0
86.695828809985,-16.716296025245,18.749634963496,1846124.9683601,-1428.2269359001,2622744.5551545,23.949634963496,0,0
86.695828987459,-16.718349152383,18.754065406541,1846124.9683601,-1428.2269359001,2622744.5551545,23.954065406541,0,0
86.695829164934,-16.720402279521,18.758495849585,1846124.9683601,-1428.2269359001,2622744.5551545,23.958495849585,0,0
86.695829342408,-16.72245540666,18.762926292629,1846124.9683601,-1428.2269359001,2622744.5551545,23.962926292629,0,0
86.695829519882,-16.724508533798,18.767356735674,1846124.9683601,-1428.2269359001,2622744.5551545,23.967356735674,0,0
86.695829697347,-16.726561660889,18.771787178718,1843262.1200898,-229.01932482007,2615254.8019976,23.971787178718,0,0
86.695829874792,-16.728614787868,18.776217621762,1843262.1200898,-229.01932482007,2615254.8019976,23.976217621762,0,0
86.695830052237,-16.730667914846,18.780648064806,1843262.1200898,-229.01932482007,2615254.8019976,23.980648064806,0,0
86.695830229682,-16.732721041824,18.785078507851,1843262.1200898,-229.01932482007,2615254.8019976,23.985078507851,0,0
86.695830407127,-16.734774168803,18.789508950895,1843262.1200898,-229.01932482007,2615254.8019976,23.989508950895,0,0
86.695830584572,-16.736827295781,18.793939393939,1843262.1200898,-229.01932482007,2615254.8019976,23.993939393939,0,0
86.695830762017,-16.738880422759,18.798369836984,1843262.1200898,-229.01932482007,2615254.8019976,23.998369836984,0,0
86.695830939462,-16.740933549738,18.802800280028,1843262.1200898,-229.01932482007,2615254.8019976,24.002800280028,0,0
86.695831116906,-16.742986676716,18.807230723072,1843262.1200898,-229.01932482007,2615254.8019976,24.007230723072,0,0
86.695831294351,-16.745039803694,18.811661166117,1843262.1200898,-229.01932482007,2615254.8019976,24.011661166117,0,0
86.695831471796,-16.747092930673,18.816091609161,1843262.1200898,-229.01932482007,2615254.8019976,24.016091609161,0,0
86.695831649241,-16.749146057651,18.820522052205,1843262.1200898,-229.01932482007,2615254.8019976,24.020522052205,0,0
86.695831826686,-16.751199184629,18.82495249525,1843262.1200898,-229.01932482007,2615254.8019976,24.02495249525,0,0
86.695832004131,-16.753252311608,18.829382938294,1843262.1200898,-229.01932482007,2615254.8019976,24.029382938294,0,0
86.695832181576,-16.755305438586,18.833813381338,1843262.1200898,-229.01932482007,2615254.8019976,24.033813381338,0,0
86.695832359021,-16.757358565564,18.838243824382,1843262.1200898,-229.01932482007,2615254.8019976,24.038243824382,0,0
86.695832536465,-16.759411692543,18.842674267427,1843262.1200898,-229.01932482007,2615254.8019976,24.042674267427,0,0
86.69583271391,-16.761464819521,18.847104710471,1843262.1200898,-229.01932482007,2615254.8019976,24.047104710471,0,0
86.695832891355,-16.763517946499,18.851535153515,1843262.1200898,-229.01932482007,2615254.8019976,24.051535153515,0,0
86.6958330688,-16.765571073478,18.85596559656,1843262.1200898,-229.01932482007,2615254.8019976,24.05596559656,0,0
86.695833246245,-16.767624200456,18.860396039604,1843262.1200898,-229.01932482007,2615254.8019976,24.060396039604,0,0
86.69583342369,-16.769677327434,18.864826482648,1843262.1200898,-229.01932482007,2615254.8019976,24.064826482648,0,0
86.695833601135,-16.771730454413,18.869256925693,1843262.1200898,-229.01932482007,2615254.8019976,24.069256925693,0,0
86.69583377858,-16.773783581391,18.873687368737,1843262.1200898,-229.01932482007,2615254.8019976,24.073687368737,0,0
86.695833956024,-16.775836708369,18.878117811781,1843262.1200898,-229.01932482007,2615254.8019976,24.078117811781,0,0
86.695834133469,-16.777889835348,18.882548254825,1843262.1200898,-229.01932482007,2615254.8019976,24.082548254825,0,0
86.695834310914,-16.779942962326,18.88697869787,1843262.1200898,-229.01932482007,2615254.8019976,24.08697869787,0,0
86.695834488359,-16.781996089304,18.891409140914,1843262.1200898,-229.01932482007,2615254.8019976,24.091409140914,0,0
86.695834665804,-16.784049216283,18.895839583958,1843262.1200898,-229.01932482007,2615254.8019976,24.095839583958,0,0
86.695834843249,-16.786102343261,18.900270027003,1843262.1200898,-229.01932482007,2615254.8019976,24.100270027003,0,0
86.695835020694,-16.788155470239,18.904700470047,1843262.1200898,-229.01932482007,2615254.8019976,24.104700470047,0,0
86.695835198139,-16.790208597218,18.909130913091,1843262.1200898,-229.01932482007,2615254.8019976,24.109130913091,0,0
86.695835375583,-16.792261724196,18.913561356136,1843262.1200898,-229.01932482007,2615254.8019976,24.113561356136,0,0
86.695835553028,-16.794314851174,18.91799179918,1843262.1200898,-229.01932482007,2615254.8019976,24.11799179918,0,0
86.695835730473,-16.796367978153,18.922422242224,1843262.1200898,-229.01932482007,2615254.8019976,24.122422242224,0,0
86.695835907918,-16.798421105131,18.926852685269,1843262.1200898,-229.01932482007,2615254.8019976,24.126852685269,0,0
86.695836085363,-16.800474232109,18.931283128313,1843262.1200898,-229.01932482007,2615254.8019976,24.131283128313,0,0
86.695836262808,-16.802527359088,18.935713571357,1843262.1200898,-229.01932482007,2615254.8019976,24.135713571357,0,0
86.695836440253,-16.804580486066,18.940144014401,1843262.1200898,-229.01932482007,2615254.8019976,24.140144014401,0,0
86.695836617698,-16.806633613044,18.944574457446,1843262.1200898,-229.01932482007,2615254.8019976,24.144574457446,0,0
86.695836795142,-16.808686740023,18.94900490049,1843262.1200898,-229.01932482007,2615254.8019976,24.14900490049,0,0
86.695836972587,-16.810739867001,18.953435343534,1843262.1200898,-229.01932482007,2615254.8019976,24.153435343534,0,0
86.695837150032,-16.812792993979,18.957865786579,1843262.1200898,-229.01932482007,2615254.8019976,24.157865786579,0,0
86.695837327477,-16.814846120958,18.962296229623,1843262.1200898,-229.01932482007,2615254.8019976,24.162296229623,0,0
86.695837504922,-16.816899247936,18.966726672667,1843262.1200898,-229.01932482007,2615254.8019976,24.166726672667,0,0
86.695837682367,-16.818952374914,18.971157115712,1843262.1200898,-229.01932482007,2615254.8019976,24.171157115712,0,0
86.695837859812,-16.821005501893,18.975587558756,1843262.1200898,-229.01932482007,2615254.8019976,24.175587558756,0,0
86.695838037257,-16.823058628871,18.9800180018,1843262.1200898,-229.01932482007,2615254.8019976,24.1800180018,0,0
86.695838214702,-16.825111755849,18.984448444844,1843262.1200898,-229.01932482007,2615254.8019976,24.184448444844,0,0
86.695838392146,-16.827164882828,18.988878887889,1843262.1200898,-229.01932482007,2615254.8019976,24.188878887889,0,0
86.695838569591,-16.829218009806,18.993309330933,1843262.1200898,-229.01932482007,2615254.8019976,24.193309330933,0,0
86.695838747036,-16.831271136784,18.997739773977,1843262.1200898,-229.01932482007,2615254.8019976,24.197739773977,0,0
86.695838924481,-16.833324263763,19.002170217022,1843262.1200898,-229.01932482007,2615254.8019976,24.202170217022,0,0
86.695839101926,-16.835377390741,19.006600660066,1843262.1200898,-229.01932482007,2615254.8019976,24.206600660066,0,0
86.695839279371,-16.837430517719,19.01103110311,1843262.1200898,-229.01932482007,2615254.8019976,24.21103110311,0,0
86.695839456816,-16.839483644698,19.015461546155,1843262.1200898,-229.01932482007,2615254.8019976,24.215461546155,0,0
86.695839634261,-16.841536771676,19.019891989199,1843262.1200898,-229.01932482007,2615254.8019976,24.219891989199,0,0
86.695839811705,-16.843589898654,19.024322432243,1843262.1200898,-229.01932482007,2615254.8019976,24.224322432243,0,0
86.69583998915,-16.845643025633,19.028752875288,1843262.1200898,-229.01932482007,2615254.8019976,24.228752875288,0,0
86.695840166595,-16.847696152611,19.033183318332,1843262.1200898,-229.01932482007,2615254.8019976,24.233183318332,0,0
86.69584034404,-16.849749279589,19.037613761376,1843262.1200898,-229.01932482007,2615254.8019976,24.237613761376,0,0
86.695840521485,-16.851802406568,19.04204420442,1843262.1200898,-229.01932482007,2615254.8019976,24.24204420442,0,0
86.69584069893,-16.853855533546,19.046474647465,1843262.1200898,-229.01932482007,2615254.8019976,24.246474647465,0,0
86.695840876375,-16.855908660524,19.050905090509,1843262.1200898,-229.01932482007,2615254.8019976,24.250905090509,0,0
86.69584105382,-16.857961787503,19.055335533553,1843262.1200898,-229.01932482007,2615254.8019976,24.255335533553,0,0
86.695841231264,-16.860014914481,19.059765976598,1843262.1200898,-229.01932482007,2615254.8019976,24.259765976598,0,0
86.695841408709,-16.862068041459,19.064196419642,1843262.1200898,-229.01932482007,2615254.8019976,24.264196419642,0,0
86.695841586154,-16.864121168437,19.068626862686,1843262.1200898,-229.01932482007,2615254.8019976,24.268626862686,0,0
86.695841763599,-16.866174295416,19.073057305731,1843262.1200898,-229.01932482007,2615254.8019976,24.273057305731,0,0
86.695841941044,-16.868227422394,19.077487748775,1843262.1200898,-229.01932482007,2615254.8019976,24.277487748775,0,0
86.695842118489,-16.870280549372,19.081918191819,1843262.1200898,-229.01932482007,2615254.8019976,24.281918191819,0,0
86.695842295934,-16.872333676351,19.086348634863,1843262.1200898,-229.01932482007,2615254.8019976,24.286348634863,0,0
86.695842473379,-16.874386803329,19.090779077908,1843262.1200898,-229.01932482007,2615254.8019977,24.290779077908,0,0
86.695842650823,-16.876439930307,19.095209520952,1843262.1200898,-229.01932482007,2615254.8019977,24.295209520952,0,0
86.695842828268,-16.878493057286,19.099639963996,1843262.1200898,-229.01932482007,2615254.8019977,24.299639963996,0,0
86.695843005713,-16.880546184264,19.104070407041,1843262.1200898,-229.01932482007,2615254.8019977,24.304070407041,0,0
86.695843183158,-16.882599311242,19.108500850085,1843262.1200898,-229.01932482007,2615254.8019977,24.308500850085,0,0
86.695843360603,-16.884652438221,19.112931293129,1843262.1200898,-229.01932482007,2615254.8019977,24.312931293129,0,0
86.695843538048,-16.886705565199,19.117361736174,1843262.1200898,-229.01932482007,2615254.8019977,24.317361736174,0,0
86.695843715493,-16.888758692177,19.121792179218,1843262.1200898,-229.01932482007,2615254.8019977,24.321792179218,0,0
86.695843892938,-16.890811819156,19.126222622262,1843262.1200898,-229.01932482007,2615254.8019977,24.326222622262,0,0
86.695844070382,-16.892864946134,19.130653065307,1843262.1200898,-229.01932482007,2615254.8019977,24.330653065307,0,0
86.695844247827,-16.894918073112,19.135083508351,1843262.1200898,-229.01932482007,2615254.8019977,24.335083508351,0,0
86.695844425272,-16.896971200091,19.139513951395,1843262.1200898,-229.01932482007,2615254.8019977,24.339513951395,0,0
86.695844602717,-16.899024327069,19.143944394439,1843262.1200898,-229.01932482007,2615254.8019977,24.343944394439,0,0
86.695844780162,-16.901077454047,19.148374837484,1843262.1200898,-229.01932482007,2615254.8019977,24.348374837484,0,0
86.695844957607,-16.903130581026,19.152805280528,1843262.1200898,-229.01932482007,2615254.8019977,24.352805280528,0,0
86.695845135052,-16.905183708004,19.157235723572,1843262.1200898,-229.01932482007,2615254.8019977,24.357235723572,0,0
86.695845312497,-16.907236834982,19.161666166617,1843262.1200898,-229.01932482007,2615254.8019977,24.361666166617,0,0
86.695845489941,-16.909289961961,19.166096609661,1843262.1200898,-229.01932482007,2615254.8019977,24.366096609661,0,0
86.695845667386,-16.911343088939,19.170527052705,1843262.1200898,-229.01932482007,2615254.8019977,24.370527052705,0,0
86.695845844831,-16.913396215917,19.17495749575,1843262.1200898,-229.01932482007,2615254.8019977,24.37495749575,0,0
86.695846022276,-16.915449342896,19.179387938794,1843262.1200898,-229.01932482007,2615254.8019977,24.379387938794,0,0
86.695846199721,-16.917502469874,19.183818381838,1843262.1200898,-229.01932482007,2615254.8019977,24.383818381838,0,0
86.695846377166,-16.919555596852,19.188248824882,1843262.1200898,-229.01932482007,2615254.8019977,24.388248824882,0,0
86.695846554611,-16.921608723831,19.192679267927,1843262.1200898,-229.01932482007,2615254.8019977,24.392679267927,0,0
86.695846732056,-16.923661850809,19.197109710971,1843262.1200898,-229.01932482007,2615254.8019977,24.397109710971,0,0
86.6958469095,-16.925714977787,19.201540154015,1843262.1200898,-229.01932482007,2615254.8019977,24.401540154015,0,0
86.695847086945,-16.927768104766,19.20597059706,1843262.1200898,-229.01932482007,2615254.8019977,24.40597059706,0,0
86.69584726439,-16.929821231744,19.210401040104,1843262.1200898,-229.01932482007,2615254.8019977,24.410401040104,0,0
86.695847441835,-16.931874358722,19.214831483148,1843262.1200898,-229.01932482007,2615254.8019977,24.414831483148,0,0
86.69584761928,-16.933927485701,19.219261926193,1843262.1200898,-229.01932482007,2615254.8019977,24.419261926193,0,0
86.695847796725,-16.935980612679,19.223692369237,1843262.1200898,-229.01932482007,2615254.8019977,24.423692369237,0,0
86.69584797417,-16.938033739657,19.228122812281,1843262.1200898,-229.01932482007,2615254.8019977,24.428122812281,0,0
86.695848151615,-16.940086866636,19.232553255326,1843262.1200898,-229.01932482007,2615254.8019977,24.432553255326,0,0
86.695848329059,-16.942139993614,19.23698369837,1843262.1200898,-229.01932482007,2615254.8019977,24.43698369837,0,0
86.695848506504,-16.944193120592,19.241414141414,1843262.1200898,-229.01932482007,2615254.8019977,24.441414141414,0,0
86.695848683949,-16.946246247571,19.245844584458,1843262.1200898,-229.01932482007,2615254.8019977,24.445844584458,0,0
86.695848861394,-16.948299374549,19.250275027503,1843262.1200898,-229.01932482007,2615254.8019977,24.450275027503,0,0
86.695849038839,-16.950352501527,19.254705470547,1843262.1200898,-229.01932482007,2615254.8019977,24.454705470547,0,0
86.695849216284,-16.952405628506,19.259135913591,1843262.1200898,-229.01932482007,2615254.8019977,24.459135913591,0,0
86.695849393729,-16.954458755484,19.263566356636,1843262.1200898,-229.01932482007,2615254.8019977,24.463566356636,0,0
86.695849571174,-16.956511882462,19.26799679968,1843262.1200898,-229.01932482007,2615254.8019977,24.46799679968,0,0
86.695849748618,-16.958565009441,19.272427242724,1843262.1200898,-229.01932482007,2615254.8019977,24.472427242724,0,0
86.695849926063,-16.960618136419,19.276857685769,1843262.1200898,-229.01932482007,2615254.8019977,24.476857685769,0,0
86.695850103508,-16.962671263397,19.281288128813,1843262.1200898,-229.01932482007,2615254.8019977,24.481288128813,0,0
86.695850280953,-16.964724390376,19.285718571857,1843262.1200898,-229.01932482007,2615254.8019977,24.485718571857,0,0
86.695850458398,-16.966777517354,19.290149014901,1843262.1200898,-229.01932482007,2615254.8019977,24.490149014901,0,0
86.695850635843,-16.968830644332,19.294579457946,1843262.1200898,-229.01932482007,2615254.8019977,24.494579457946,0,0
86.695850813288,-16.970883771311,19.29900990099,1843262.1200898,-229.01932482007,2615254.8019977,24.49900990099,0,0
86.695850990733,-16.972936898289,19.303440344034,1843262.1200898,-229.01932482007,2615254.8019977,24.503440344034,0,0
86.695851168178,-16.974990025267,19.307870787079,1843262.1200898,-229.01932482007,2615254.8019977,24.507870787079,0,0
86.695851345622,-16.977043152246,19.312301230123,1843262.1200898,-229.01932482007,2615254.8019977,24.512301230123,0,0
86.695851523067,-16.979096279224,19.316731673167,1843262.1200898,-229.01932482007,2615254.8019977,24.516731673167,0,0
86.695851700512,-16.981149406202,19.321162116212,1843262.1200898,-229.01932482007,2615254.8019977,24.521162116212,0,0
86.695851877957,-16.983202533181,19.325592559256,1843262.1200898,-229.01932482007,2615254.8019977,24.525592559256,0,0
86.695852055402,-16.985255660159,19.3300230023,1843262.1200898,-229.01932482007,2615254.8019977,24.5300230023,0,0
86.695852232847,-16.987308787137,19.334453445345,1843262.1200898,-229.01932482007,2615254.8019977,24.534453445345,0,0
86.695852410292,-16.989361914116,19.338883888389,1843262.1200898,-229.01932482007,2615254.8019977,24.538883888389,0,0
86.695852587737,-16.991415041094,19.343314331433,1843262.1200898,-229.01932482007,2615254.8019977,24.543314331433,0,0
86.695852765181,-16.993468168072,19.347744774477,1843262.1200898,-229.01932482007,2615254.8019977,24.547744774477,0,0
86.695852942626,-16.995521295051,19.352175217522,1843262.1200898,-229.01932482007,2615254.8019977,24.552175217522,0,0
86.695853120071,-16.997574422029,19.356605660566,1843262.1200898,-229.01932482007,2615254.8019977,24.556605660566,0,0
86.695853297516,-16.999627549007,19.36103610361,1843262.1200898,-229.01932482007,2615254.8019977,24.56103610361,0,0
86.695853474961,-17.001680675986,19.365466546655,1843262.1200898,-229.01932482007,2615254.8019977,24.565466546655,0,0
86.695853652406,-17.003733802964,19.369896989699,1843262.1200898,-229.01932482007,2615254.8019977,24.569896989699,0,0
86.695853829851,-17.005786929942,19.374327432743,1843262.1200898,-229.01932482007,2615254.8019977,24.574327432743,0,0
86.695854007296,-17.007840056921,19.378757875788,1843262.1200898,-229.01932482007,2615254.8019977,24.578757875788,0,0
86.69585418474,-17.009893183899,19.383188318832,1843262.1200898,-229.01932482007,2615254.8019977,24.583188318832,0,0
86.695854362185,-17.011946310877,19.387618761876,1843262.1200898,-229.01932482007,2615254.8019977,24.587618761876,0,0
86.69585453963,-17.013999437856,19.39204920492,1843262.1200898,-229.01932482007,2615254.8019977,24.59204920492,0,0
86.695854717075,-17.016052564834,19.396479647965,1843262.1200898,-229.01932482007,2615254.8019977,24.596479647965,0,0
86.69585489452,-17.018105691812,19.400910091009,1843262.1200898,-229.01932482007,2615254.8019977,24.600910091009,0,0
86.695855071965,-17.020158818791,19.405340534053,1843262.1200898,-229.01932482007,2615254.8019977,24.605340534053,0,0
86.69585524941,-17.022211945769,19.409770977098,1843262.1200898,-229.01932482007,2615254.8019977,24.609770977098,0,0
86.695855426855,-17.024265072747,19.414201420142,1843262.1200898,-229.01932482007,2615254.8019977,24.614201420142,0,0
86.695855604299,-17.026318199726,19.418631863186,1843262.1200898,-229.01932482007,2615254.8019977,24.618631863186,0,0
86.695855781744,-17.028371326704,19.423062306231,1843262.1200898,-229.01932482007,2615254.8019977,24.623062306231,0,0
86.695855959189,-17.030424453682,19.427492749275,1843262.1200898,-229.01932482007,2615254.8019977,24.627492749275,0,0
86.695856136634,-17.032477580661,19.431923192319,1843262.1200898,-229.01932482007,2615254.8019977,24.631923192319,0,0
86.695856314079,-17.034530707639,19.436353635364,1843262.1200898,-229.01932482007,2615254.8019977,24.636353635364,0,0
86.695856491524,-17.036583834617,19.440784078408,1843262.1200898,-229.01932482007,2615254.8019977,24.640784078408,0,0
86.695856668969,-17.038636961596,19.445214521452,1843262.1200898,-229.01932482007,2615254.8019977,24.645214521452,0,0
86.695856846414,-17.040690088574,19.449644964496,1843262.1200898,-229.01932482007,2615254.8019977,24.649644964496,0,0
86.695857023858,-17.042743215552,19.454075407541,1843262.1200898,-229.01932482007,2615254.8019977,24.654075407541,0,0
86.695857201303,-17.04479634253,19.458505850585,1843262.1200898,-229.01932482007,2615254.8019977,24.658505850585,0,0
86.695857378748,-17.046849469509,19.462936293629,1843262.1200898,-229.01932482007,2615254.8019977,24.662936293629,0,0
86.695857556193,-17.048902596487,19.467366736674,1843262.1200898,-229.01932482007,2615254.8019977,24.667366736674,0,0
86.695857733638,-17.050955723465,19.471797179718,1843262.1200898,-229.01932482007,2615254.8019977,24.671797179718,0,0
86.695857911083,-17.053008850444,19.476227622762,1843262.1200898,-229.01932482007,2615254.8019977,24.676227622762,0,0
86.695858088528,-17.055061977422,19.480658065807,1843262.1200898,-229.01932482007,2615254.8019977,24.680658065807,0,0
86.695858265973,-17.0571151044,19.485088508851,1843262.1200898,-229.01932482007,2615254.8019977,24.685088508851,0,0
86.695858443417,-17.059168231379,19.489518951895,1843262.1200898,-229.01932482007,2615254.8019977,24.689518951895,0,0
86.695858620862,-17.061221358357,19.493949394939,1843262.1200898,-229.01932482007,2615254.8019977,24.693949394939,0,0
86.695858798307,-17.063274485335,19.498379837984,1843262.1200898,-229.01932482007,2615254.8019977,24.698379837984,0,0
86.695858975752,-17.065327612314,19.502810281028,1843262.1200898,-229.01932482007,2615254.8019977,24.702810281028,0,0
86.695859153197,-17.067380739292,19.507240724072,1843262.1200898,-229.01932482007,2615254.8019977,24.707240724072,0,0
86.695859330642,-17.06943386627,19.511671167117,1843262.1200898,-229.01932482007,2615254.8019977,24.711671167117,0,0
86.695859508087,-17.071486993249,19.516101610161,1843262.1200898,-229.01932482007,2615254.8019977,24.716101610161,0,0
86.695859685532,-17.073540120227,19.520532053205,1843262.1200898,-229.01932482007,2615254.8019977,24.720532053205,0,0
86.695859862976,-17.075593247205,19.52496249625,1843262.1200898,-229.01932482007,2615254.8019977,24.72496249625,0,0
86.695860040421,-17.077646374184,19.529392939294,1843262.1200898,-229.01932482007,2615254.8019977,24.729392939294,0,0
86.695860217866,-17.079699501162,19.533823382338,1843262.1200898,-229.01932482007,2615254.8019977,24.733823382338,0,0
86.695860395311,-17.08175262814,19.538253825383,1843262.1200898,-229.01932482007,2615254.8019977,24.738253825383,0,0
86.695860572756,-17.083805755119,19.542684268427,1843262.1200898,-229.01932482007,2615254.8019977,24.742684268427,0,0
86.695860750201,-17.085858882097,19.547114711471,1843262.1200898,-229.01932482007,2615254.8019977,24.747114711471,0,0
86.695860927646,-17.087912009075,19.551545154515,1843262.1200898,-229.01932482007,2615254.8019977,24.751545154515,0,0
86.695861105091,-17.089965136054,19.55597559756,1843262.1200898,-229.01932482007,2615254.8019977,24.75597559756,0,0
86.695861282535,-17.092018263032,19.560406040604,1843262.1200898,-229.01932482007,2615254.8019977,24.760406040604,0,0
86.69586145998,-17.09407139001,19.564836483648,1843262.1200898,-229.01932482007,2615254.8019977,24.764836483648,0,0
86.695861637425,-17.096124516989,19.569266926693,1843262.1200898,-229.01932482007,2615254.8019977,24.769266926693,0,0
86.695861815278,-17.098177643099,19.573697369737,1848219.5777392,3632.5014957938,2613065.490898,24.773697369737,0,0
86.695861993177,-17.10023076911,19.578127812781,1848219.5777392,3632.5014957938,2613065.490898,24.778127812781,0,0
86.695862171076,-17.102283895122,19.582558255826,1848219.5777392,3632.5014957938,2613065.490898,24.782558255826,0,0
86.695862348976,-17.104337021133,19.58698869887,1848219.5777392,3632.5014957938,2613065.490898,24.78698869887,0,0
86.695862526875,-17.106390147145,19.591419141914,1848219.5777392,3632.5014957938,2613065.490898,24.791419141914,0,0
86.695862704774,-17.108443273157,19.595849584958,1848219.5777392,3632.5014957938,2613065.490898,24.795849584958,0,0
86.695862882673,-17.110496399168,19.600280028003,1848219.5777392,3632.5014957938,2613065.490898,24.800280028003,0,0
86.695863060572,-17.11254952518,19.604710471047,1848219.5777392,3632.5014957938,2613065.490898,24.804710471047,0,0
86.695863238471,-17.114602651192,19.609140914091,1848219.5777392,3632.5014957938,2613065.490898,24.809140914091,0,0
86.695863416371,-17.116655777203,19.613571357136,1848219.5777392,3632.5014957938,2613065.490898,24.813571357136,0,0
86.69586359427,-17.118708903215,19.61800180018,1848219.5777392,3632.5014957938,2613065.490898,24.81800180018,0,0
86.695863772169,-17.120762029226,19.622432243224,1848219.5777392,3632.5014957938,2613065.490898,24.822432243224,0,0
86.695863950068,-17.122815155238,19.626862686269,1848219.5777392,3632.5014957938,2613065.490898,24.826862686269,0,0
86.695864127967,-17.12486828125,19.631293129313,1848219.5777392,3632.5014957938,2613065.490898,24.831293129313,0,0
86.695864305866,-17.126921407261,19.635723572357,1848219.5777392,3632.5014957938,2613065.490898,24.835723572357,0,0
86.695864483765,-17.128974533273,19.640154015402,1848219.5777392,3632.5014957938,2613065.490898,24.840154015402,0,0
86.695864661665,-17.131027659284,19.644584458446,1848219.5777392,3632.5014957938,2613065.490898,24.844584458446,0,0
86.695864839564,-17.133080785296,19.64901490149,1848219.5777392,3632.5014957938,2613065.490898,24.84901490149,0,0
86.695865017463,-17.135133911308,19.653445344534,1848219.5777392,3632.5014957938,2613065.490898,24.853445344534,0,0
86.695865195362,-17.137187037319,19.657875787579,1848219.5777392,3632.5014957938,2613065.490898,24.857875787579,0,0
86.695865373261,-17.139240163331,19.662306230623,1848219.5777392,3632.5014957938,2613065.490898,24.862306230623,0,0
86.69586555116,-17.141293289343,19.666736673667,1848219.5777392,3632.5014957938,2613065.490898,24.866736673667,0,0
86.695865729059,-17.143346415354,19.671167116712,1848219.5777392,3632.5014957938,2613065.490898,24.871167116712,0,0
86.695865906959,-17.145399541366,19.675597559756,1848219.5777392,3632.5014957938,2613065.490898,24.875597559756,0,0
86.695866084858,-17.147452667377,19.6800280028,1848219.5777392,3632.5014957938,2613065.490898,24.8800280028,0,0
86.695866262757,-17.149505793389,19.684458445845,1848219.5777392,3632.5014957938,2613065.490898,24.884458445845,0,0
86.695866440656,-17.151558919401,19.688888888889,1848219.5777392,3632.5014957938,2613065.490898,24.888888888889,0,0
86.695866618555,-17.153612045412,19.693319331933,1848219.5777392,3632.5014957938,2613065.490898,24.893319331933,0,0
86.695866796454,-17.155665171424,19.697749774977,1848219.5777392,3632.5014957938,2613065.490898,24.897749774977,0,0
86.695866974354,-17.157718297436,19.702180218022,1848219.5777392,3632.5014957938,2613065.490898,24.902180218022,0,0
86.695867152253,-17.159771423447,19.706610661066,1848219.5777392,3632.5014957938,2613065.490898,24.906610661066,0,0
86.695867330152,-17.161824549459,19.71104110411,1848219.5777392,3632.5014957938,2613065.490898,24.91104110411,0,0
86.695867508051,-17.16387767547,19.715471547155,1848219.5777392,3632.5014957938,2613065.490898,24.915471547155,0,0
86.69586768595,-17.165930801482,19.719901990199,1848219.5777392,3632.5014957938,2613065.490898,24.919901990199,0,0
86.695867863849,-17.167983927494,19.724332433243,1848219.5777392,3632.5014957938,2613065.490898,24.924332433243,0,0
86.695868041748,-17.170037053505,19.728762876288,1848219.5777392,3632.5014957938,2613065.490898,24.928762876288,0,0
86.695868219648,-17.172090179517,19.733193319332,1848219.5777392,3632.5014957938,2613065.490898,24.933193319332,0,0
86.695868397547,-17.174143305528,19.737623762376,1848219.5777392,3632.5014957938,2613065.490898,24.937623762376,0,0
86.695868575446,-17.17619643154,19.742054205421,1848219.5777392,3632.5014957938,2613065.490898,24.942054205421,0,0
86.695868753345,-17.178249557552,19.746484648465,1848219.5777392,3632.5014957938,2613065.490898,24.946484648465,0,0
86.695868931244,-17.180302683563,19.750915091509,1848219.5777392,3632.5014957938,2613065.490898,24.950915091509,0,0
86.695869109143,-17.182355809575,19.755345534553,1848219.5777392,3632.5014957938,2613065.490898,24.955345534553,0,0
86.695869287042,-17.184408935587,19.759775977598,1848219.5777392,3632.5014957938,2613065.490898,24.959775977598,0,0
86.695869464942,-17.186462061598,19.764206420642,1848219.5777392,3632.5014957938,2613065.490898,24.964206420642,0,0
86.695869642841,-17.18851518761,19.768636863686,1848219.5777392,3632.5014957938,2613065.490898,24.968636863686,0,0
86.69586982074,-17.190568313621,19.773067306731,1848219.5777392,3632.5014957938,2613065.490898,24.973067306731,0,0
86.695869998639,-17.192621439633,19.777497749775,1848219.5777392,3632.5014957938,2613065.490898,24.977497749775,0,0
86.695870176538,-17.194674565645,19.781928192819,1848219.5777392,3632.5014957938,2613065.490898,24.981928192819,0,0
86.695870354437,-17.196727691656,19.786358635864,1848219.5777392,3632.5014957938,2613065.490898,24.986358635864,0,0
86.695870532336,-17.198780817668,19.790789078908,1848219.5777392,3632.5014957938,2613065.490898,24.990789078908,0,0
86.695870710236,-17.200833943679,19.795219521952,1848219.5777392,3632.5014957938,2613065.490898,24.995219521952,0,0
86.695870888135,-17.202887069691,19.799649964996,1848219.5777392,3632.5014957938,2613065.490898,24.999649964996,0,0
86.695871066034,-17.204940195703,19.804080408041,1848219.5777392,3632.5014957938,2613065.490898,25.004080408041,0,0
86.695871243933,-17.206993321714,19.808510851085,1848219.5777392,3632.5014957938,2613065.490898,25.008510851085,0,0
86.695871421832,-17.209046447726,19.812941294129,1848219.5777392,3632.5014957938,2613065.490898,25.012941294129,0,0
86.695871599731,-17.211099573738,19.817371737174,1848219.5777392,3632.5014957938,2613065.490898,25.017371737174,0,0
86.695871777715,-17.213152700093,19.821802180218,1848807.818821,-322.94214918245,2605757.1637563,25.021802180218,0,0
86.695871955855,-17.215205827094,19.826232623262,1848807.818821,-322.94214918245,2605757.1637563,25.026232623262,0,0
86.695872133996,-17.217258954094,19.830663066307,1848807.818821,-322.94214918245,2605757.1637563,25.030663066307,0,0
86.695872312137,-17.219312081095,19.835093509351,1848807.818821,-322.94214918245,2605757.1637563,25.035093509351,0,0
86.695872490277,-17.221365208095,19.839523952395,1848807.818821,-322.94214918245,2605757.1637563,25.039523952395,0,0
86.695872668418,-17.223418335096,19.84395439544,1848807.818821,-322.94214918245,2605757.1637563,25.04395439544,0,0
86.695872846559,-17.225471462096,19.848384838484,1848807.818821,-322.94214918245,2605757.1637563,25.048384838484,0,0
86.6958730247,-17.227524589097,19.852815281528,1848807.818821,-322.94214918245,2605757.1637563,25.052815281528,0,0
86.69587320284,-17.229577716098,19.857245724572,1848807.818821,-322.94214918245,2605757.1637563,25.057245724572,0,0
86.695873380981,-17.231630843098,19.861676167617,1848807.818821,-322.94214918245,2605757.1637563,25.061676167617,0,0
86.695873559122,-17.233683970099,19.866106610661,1848807.818821,-322.94214918245,2605757.1637563,25.066106610661,0,0
86.695873737262,-17.235737097099,19.870537053705,1848807.818821,-322.94214918245,2605757.1637563,25.070537053705,0,0
86.695873915403,-17.2377902241,19.87496749675,1848807.818821,-322.94214918245,2605757.1637563,25.07496749675,0,0
86.695874093544,-17.2398433511,19.879397939794,1848807.818821,-322.94214918245,2605757.1637563,25.079397939794,0,0
86.695874271685,-17.241896478101,19.883828382838,1848807.818821,-322.94214918245,2605757.1637563,25.083828382838,0,0
86.695874449825,-17.243949605101,19.888258825883,1848807.818821,-322.94214918245,2605757.1637563,25.088258825883,0,0
86.695874627966,-17.246002732102,19.892689268927,1848807.818821,-322.94214918245,2605757.1637563,25.092689268927,0,0
86.695874806107,-17.248055859103,19.897119711971,1848807.818821,-322.94214918245,2605757.1637563,25.097119711971,0,0
86.695874984247,-17.250108986103,19.901550155015,1848807.818821,-322.94214918245,2605757.1637563,25.101550155015,0,0
86.695875162388,-17.252162113104,19.90598059806,1848807.818821,-322.94214918245,2605757.1637563,25.10598059806,0,0
86.695875340529,-17.254215240104,19.910411041104,1848807.818821,-322.94214918245,2605757.1637563,25.110411041104,0,0
86.69587551867,-17.256268367105,19.914841484148,1848807.818821,-322.94214918245,2605757.1637563,25.114841484148,0,0
86.69587569681,-17.258321494105,19.919271927193,1848807.818821,-322.94214918245,2605757.1637563,25.119271927193,0,0
86.695875874951,-17.260374621106,19.923702370237,1848807.818821,-322.94214918245,2605757.1637563,25.123702370237,0,0
86.695876053092,-17.262427748106,19.928132813281,1848807.818821,-322.94214918245,2605757.1637563,25.128132813281,0,0
86.695876231233,-17.264480875107,19.932563256326,1848807.818821,-322.94214918245,2605757.1637563,25.132563256326,0,0
86.695876409373,-17.266534002108,19.93699369937,1848807.818821,-322.94214918245,2605757.1637563,25.13699369937,0,0
86.695876587514,-17.268587129108,19.941424142414,1848807.818821,-322.94214918245,2605757.1637563,25.141424142414,0,0
86.695876765655,-17.270640256109,19.945854585459,1848807.818821,-322.94214918245,2605757.1637563,25.145854585459,0,0
86.695876943795,-17.272693383109,19.950285028503,1848807.818821,-322.94214918245,2605757.1637563,25.150285028503,0,0
86.695877121936,-17.27474651011,19.954715471547,1848807.818821,-322.94214918245,2605757.1637563,25.154715471547,0,0
86.695877300077,-17.27679963711,19.959145914591,1848807.818821,-322.94214918245,2605757.1637563,25.159145914591,0,0
86.695877478218,-17.278852764111,19.963576357636,1848807.818821,-322.94214918245,2605757.1637563,25.163576357636,0,0
86.695877656358,-17.280905891111,19.96800680068,1848807.818821,-322.94214918245,2605757.1637563,25.16800680068,0,0
86.695877834499,-17.282959018112,19.972437243724,1848807.818821,-322.94214918245,2605757.1637563,25.172437243724,0,0
86.69587801264,-17.285012145113,19.976867686769,1848807.818821,-322.94214918245,2605757.1637563,25.176867686769,0,0
86.69587819078,-17.287065272113,19.981298129813,1848807.818821,-322.94214918245,2605757.1637563,25.181298129813,0,0
86.695878368921,-17.289118399114,19.985728572857,1848807.818821,-322.94214918245,2605757.1637563,25.185728572857,0,0
86.695878547062,-17.291171526114,19.990159015902,1848807.818821,-322.94214918245,2605757.1637563,25.190159015902,0,0
86.695878725203,-17.293224653115,19.994589458946,1848807.818821,-322.94214918245,2605757.1637563,25.194589458946,0,0
86.695878903343,-17.295277780115,19.99901990199,1848807.818821,-322.94214918245,2605757.1637563,25.19901990199,0,0
86.695879081484,-17.297330907116,20.003450345035,1848807.818821,-322.94214918245,2605757.1637563,25.203450345035,0,0
86.695879259625,-17.299384034117,20.007880788079,1848807.818821,-322.94214918245,2605757.1637563,25.207880788079,0,0
86.695879437766,-17.301437161117,20.012311231123,1848807.818821,-322.94214918245,2605757.1637563,25.212311231123,0,0
86.695879615906,-17.303490288118,20.016741674167,1848807.818821,-322.94214918245,2605757.1637563,25.216741674167,0,0
86.695879794047,-17.305543415118,20.021172117212,1848807.818821,-322.94214918245,2605757.1637563,25.221172117212,0,0
86.695879972188,-17.307596542119,20.025602560256,1848807.818821,-322.94214918245,2605757.1637563,25.225602560256,0,0
86.695880150328,-17.309649669119,20.0300330033,1848807.818821,-322.94214918245,2605757.1637563,25.2300330033,0,0
86.695880328469,-17.31170279612,20.034463446345,1848807.818821,-322.94214918245,2605757.1637563,25.234463446345,0,0
86.69588050661,-17.31375592312,20.038893889389,1848807.818821,-322.94214918245,2605757.1637563,25.238893889389,0,0
86.695880684751,-17.315809050121,20.043324332433,1848807.818821,-322.94214918245,2605757.1637563,25.243324332433,0,0
86.695880862891,-17.317862177122,20.047754775478,1848807.818821,-322.94214918245,2605757.1637563,25.247754775478,0,0
86.695881041032,-17.319915304122,20.052185218522,1848807.818821,-322.94214918245,2605757.1637563,25.252185218522,0,0
86.695881219173,-17.321968431123,20.056615661566,1848807.818821,-322.94214918245,2605757.1637563,25.256615661566,0,0
86.695881397313,-17.324021558123,20.06104610461,1848807.818821,-322.94214918245,2605757.1637563,25.26104610461,0,0
86.695881575454,-17.326074685124,20.065476547655,1848807.818821,-322.94214918245,2605757.1637563,25.265476547655,0,0
86.695881753595,-17.328127812124,20.069906990699,1848807.818821,-322.94214918245,2605757.1637563,25.269906990699,0,0
86.695881931736,-17.330180939125,20.074337433743,1848807.818821,-322.94214918245,2605757.1637563,25.274337433743,0,0
86.695882109876,-17.332234066125,20.078767876788,1848807.818821,-322.94214918245,2605757.1637563,25.278767876788,0,0
86.695882288017,-17.334287193126,20.083198319832,1848807.818821,-322.94214918245,2605757.1637563,25.283198319832,0,0
86.695882466158,-17.336340320127,20.087628762876,1848807.818821,-322.94214918245,2605757.1637563,25.287628762876,0,0
86.695882644298,-17.338393447127,20.092059205921,1848807.818821,-322.94214918245,2605757.1637563,25.292059205921,0,0
86.695882822439,-17.340446574128,20.096489648965,1848807.818821,-322.94214918245,2605757.1637563,25.296489648965,0,0
86.69588300058,-17.342499701128,20.100920092009,1848807.818821,-322.94214918245,2605757.1637563,25.300920092009,0,0
86.695883178721,-17.344552828129,20.105350535054,1848807.818821,-322.94214918245,2605757.1637563,25.305350535054,0,0
86.695883356861,-17.346605955129,20.109780978098,1848807.818821,-322.94214918245,2605757.1637563,25.309780978098,0,0
86.695883535002,-17.34865908213,20.114211421142,1848807.818821,-322.94214918245,2605757.1637563,25.314211421142,0,0
86.695883713143,-17.35071220913,20.118641864186,1848807.818821,-322.94214918245,2605757.1637563,25.318641864186,0,0
86.695883891284,-17.352765336131,20.123072307231,1848807.818821,-322.94214918245,2605757.1637563,25.323072307231,0,0
86.695884069424,-17.354818463132,20.127502750275,1848807.818821,-322.94214918245,2605757.1637563,25.327502750275,0,0
86.695884247565,-17.356871590132,20.131933193319,1848807.818821,-322.94214918245,2605757.1637563,25.331933193319,0,0
86.695884425706,-17.358924717133,20.136363636364,1848807.818821,-322.94214918245,2605757.1637563,25.336363636364,0,0
86.695884603846,-17.360977844133,20.140794079408,1848807.818821,-322.94214918245,2605757.1637563,25.340794079408,0,0
86.695884781987,-17.363030971134,20.145224522452,1848807.818821,-322.94214918245,2605757.1637563,25.345224522452,0,0
86.695884960128,-17.365084098134,20.149654965497,1848807.818821,-322.94214918245,2605757.1637563,25.349654965497,0,0
86.695885138269,-17.367137225135,20.154085408541,1848807.818821,-322.94214918245,2605757.1637563,25.354085408541,0,0
86.695885316409,-17.369190352135,20.158515851585,1848807.818821,-322.94214918245,2605757.1637563,25.358515851585,0,0
86.69588549455,-17.371243479136,20.162946294629,1848807.818821,-322.94214918245,2605757.1637563,25.362946294629,0,0
86.695885672691,-17.373296606137,20.167376737674,1848807.818821,-322.94214918245,2605757.1637563,25.367376737674,0,0
86.695885850831,-17.375349733137,20.171807180718,1848807.818821,-322.94214918245,2605757.1637563,25.371807180718,0,0
86.695886028972,-17.377402860138,20.176237623762,1848807.818821,-322.94214918245,2605757.1637563,25.376237623762,0,0
86.695886207113,-17.379455987138,20.180668066807,1848807.818821,-322.94214918245,2605757.1637563,25.380668066807,0,0
86.695886385254,-17.381509114139,20.185098509851,1848807.818821,-322.94214918245,2605757.1637563,25.385098509851,0,0
86.695886563394,-17.383562241139,20.189528952895,1848807.818821,-322.94214918245,2605757.1637563,25.389528952895,0,0
86.695886741535,-17.38561536814,20.19395939594,1848807.818821,-322.94214918245,2605757.1637563,25.39395939594,0,0
86.695886919676,-17.38766849514,20.198389838984,1848807.818821,-322.94214918245,2605757.1637563,25.398389838984,0,0
86.695887097817,-17.389721622141,20.202820282028,1848807.818821,-322.94214918245,2605757.1637563,25.402820282028,0,0
86.695887275957,-17.391774749142,20.207250725073,1848807.818821,-322.94214918245,2605757.1637563,25.407250725073,0,0
86.695887454098,-17.393827876142,20.211681168117,1848807.818821,-322.94214918245,2605757.1637563,25.411681168117,0,0
86.695887632239,-17.395881003143,20.216111611161,1848807.818821,-322.94214918245,2605757.1637563,25.416111611161,0,0
86.695887810379,-17.397934130143,20.220542054205,1848807.818821,-322.94214918245,2605757.1637563,25.420542054205,0,0
86.69588798852,-17.399987257144,20.22497249725,1848807.818821,-322.94214918245,2605757.1637563,25.42497249725,0,0
86.695888166661,-17.402040384144,20.229402940294,1848807.818821,-322.94214918245,2605757.1637563,25.429402940294,0,0
86.695888344802,-17.404093511145,20.233833383338,1848807.818821,-322.94214918245,2605757.1637563,25.433833383338,0,0
86.695888522942,-17.406146638145,20.238263826383,1848807.818821,-322.94214918245,2605757.1637563,25.438263826383,0,0
86.695888701083,-17.408199765146,20.242694269427,1848807.818821,-322.94214918245,2605757.1637563,25.442694269427,0,0
86.695888879224,-17.410252892147,20.247124712471,1848807.818821,-322.94214918245,2605757.1637563,25.447124712471,0,0
86.695889057364,-17.412306019147,20.251555155516,1848807.818821,-322.94214918245,2605757.1637563,25.451555155516,0,0
86.695889235505,-17.414359146148,20.25598559856,1848807.818821,-322.94214918245,2605757.1637563,25.45598559856,0,0
86.695889413646,-17.416412273148,20.260416041604,1848807.818821,-322.94214918245,2605757.1637563,25.460416041604,0,0
86.695889591787,-17.418465400149,20.264846484648,1848807.818821,-322.94214918245,2605757.1637563,25.464846484648,0,0
86.695889769927,-17.420518527149,20.269276927693,1848807.818821,-322.94214918245,2605757.1637563,25.469276927693,0,0
86.695889948068,-17.42257165415,20.273707370737,1848807.818821,-322.94214918245,2605757.1637563,25.473707370737,0,0
86.695890126209,-17.424624781151,20.278137813781,1848807.818821,-322.94214918245,2605757.1637563,25.478137813781,0,0
86.695890304349,-17.426677908151,20.282568256826,1848807.818821,-322.94214918245,2605757.1637563,25.482568256826,0,0
86.69589048249,-17.428731035152,20.28699869987,1848807.818821,-322.94214918245,2605757.1637563,25.48699869987,0,0
86.695890660631,-17.430784162152,20.291429142914,1848807.818821,-322.94214918245,2605757.1637563,25.491429142914,0,0
86.695890838772,-17.432837289153,20.295859585959,1848807.818821,-322.94214918245,2605757.1637563,25.495859585959,0,0
86.695891016912,-17.434890416153,20.300290029003,1848807.818821,-322.94214918245,2605757.1637563,25.500290029003,0,0
86.695891195053,-17.436943543154,20.304720472047,1848807.818821,-322.94214918245,2605757.1637563,25.504720472047,0,0
86.695891373194,-17.438996670154,20.309150915092,1848807.818821,-322.94214918245,2605757.1637563,25.509150915092,0,0
86.695891551335,-17.441049797155,20.313581358136,1848807.818821,-322.94214918245,2605757.1637563,25.513581358136,0,0
86.695891729475,-17.443102924156,20.31801180118,1848807.818821,-322.94214918245,2605757.1637563,25.51801180118,0,0
86.695891907616,-17.445156051156,20.322442244224,1848807.818821,-322.94214918245,2605757.1637563,25.522442244224,0,0
86.695892085757,-17.447209178157,20.326872687269,1848807.818821,-322.94214918245,2605757.1637563,25.526872687269,0,0
86.695892263897,-17.449262305157,20.331303130313,1848807.818821,-322.94214918245,2605757.1637563,25.531303130313,0,0
86.695892442038,-17.451315432158,20.335733573357,1848807.818821,-322.94214918245,2605757.1637563,25.535733573357,0,0
86.695892620179,-17.453368559158,20.340164016402,1848807.818821,-322.94214918245,2605757.1637563,25.540164016402,0,0
86.69589279832,-17.455421686159,20.344594459446,1848807.818821,-322.94214918245,2605757.1637563,25.544594459446,0,0
86.69589297646,-17.457474813159,20.34902490249,1848807.818821,-322.94214918245,2605757.1637563,25.54902490249,0,0
86.695893154601,-17.45952794016,20.353455345535,1848807.818821,-322.94214918245,2605757.1637563,25.553455345535,0,0
86.695893332742,-17.461581067161,20.357885788579,1848807.818821,-322.94214918245,2605757.1637563,25.557885788579,0,0
86.695893510882,-17.463634194161,20.362316231623,1848807.818821,-322.94214918245,2605757.1637563,25.562316231623,0,0
86.695893689023,-17.465687321162,20.366746674667,1848807.818821,-322.94214918245,2605757.1637563,25.566746674667,0,0
86.695893867164,-17.467740448162,20.371177117712,1848807.818821,-322.94214918245,2605757.1637563,25.571177117712,0,0
86.695894045305,-17.469793575163,20.375607560756,1848807.818821,-322.94214918245,2605757.1637563,25.575607560756,0,0
86.695894223445,-17.471846702163,20.3800380038,1848807.818821,-322.94214918245,2605757.1637563,25.5800380038,0,0
86.695894401586,-17.473899829164,20.384468446845,1848807.818821,-322.94214918245,2605757.1637563,25.584468446845,0,0
86.695894579727,-17.475952956164,20.388898889889,1848807.818821,-322.94214918245,2605757.1637563,25.588898889889,0,0
86.695894757868,-17.478006083165,20.393329332933,1848807.818821,-322.94214918245,2605757.1637563,25.593329332933,0,0
86.695894936008,-17.480059210166,20.397759775978,1848807.818821,-322.94214918245,2605757.1637563,25.597759775978,0,0
86.695895114149,-17.482112337166,20.402190219022,1848807.818821,-322.94214918245,2605757.1637563,25.602190219022,0,0
86.69589529229,-17.484165464167,20.406620662066,1848807.818821,-322.94214918245,2605757.1637563,25.606620662066,0,0
86.69589547043,-17.486218591167,20.411051105111,1848807.818821,-322.94214918245,2605757.1637563,25.611051105111,0,0
86.695895648571,-17.488271718168,20.415481548155,1848807.818821,-322.94214918245,2605757.1637563,25.615481548155,0,0
86.695895826712,-17.490324845168,20.419911991199,1848807.818821,-322.94214918245,2605757.1637563,25.619911991199,0,0
86.695896004853,-17.492377972169,20.424342434243,1848807.818821,-322.94214918245,2605757.1637563,25.624342434243,0,0
86.695896182993,-17.494431099169,20.428772877288,1848807.818821,-322.94214918245,2605757.1637563,25.628772877288,0,0
86.695896361134,-17.49648422617,20.433203320332,1848807.818821,-322.94214918245,2605757.1637563,25.633203320332,0,0
86.695896539275,-17.498537353171,20.437633763376,1848807.818821,-322.94214918245,2605757.1637563,25.637633763376,0,0
86.695896717415,-17.500590480171,20.442064206421,1848807.818821,-322.94214918245,2605757.1637563,25.642064206421,0,0
86.695896895556,-17.502643607172,20.446494649465,1848807.818821,-322.94214918245,2605757.1637563,25.646494649465,0,0
86.695897073697,-17.504696734172,20.450925092509,1848807.818821,-322.94214918245,2605757.1637563,25.650925092509,0,0
86.695897251838,-17.506749861173,20.455355535554,1848807.818821,-322.94214918245,2605757.1637563,25.655355535554,0,0
86.695897429978,-17.508802988173,20.459785978598,1848807.818821,-322.94214918245,2605757.1637563,25.659785978598,0,0
86.695897608119,-17.510856115174,20.464216421642,1848807.818821,-322.94214918245,2605757.1637563,25.664216421642,0,0
86.69589778626,-17.512909242174,20.468646864686,1848807.818821,-322.94214918245,2605757.1637563,25.668646864686,0,0
86.6958979644,-17.514962369175,20.473077307731,1848807.818821,-322.94214918245,2605757.1637563,25.673077307731,0,0
86.695898142541,-17.517015496176,20.477507750775,1848807.818821,-322.94214918245,2605757.1637563,25.677507750775,0,0
86.695898320682,-17.519068623176,20.481938193819,1848807.818821,-322.94214918245,2605757.1637563,25.681938193819,0,0
86.695898498823,-17.521121750177,20.486368636864,1848807.818821,-322.94214918245,2605757.1637563,25.686368636864,0,0
86.695898676963,-17.523174877177,20.490799079908,1848807.818821,-322.94214918245,2605757.1637563,25.690799079908,0,0
86.695898855104,-17.525228004178,20.495229522952,1848807.818821,-322.94214918245,2605757.1637563,25.695229522952,0,0
86.695899033245,-17.527281131178,20.499659965997,1848807.818821,-322.94214918245,2605757.1637563,25.699659965997,0,0
86.695899211386,-17.529334258179,20.504090409041,1848807.818821,-322.94214918245,2605757.1637563,25.704090409041,0,0
86.695899389526,-17.531387385179,20.508520852085,1848807.818821,-322.94214918245,2605757.1637563,25.708520852085,0,0
86.695899567667,-17.53344051218,20.51295129513,1848807.818821,-322.94214918245,2605757.1637563,25.71295129513,0,0
86.695899745808,-17.535493639181,20.517381738174,1848807.818821,-322.94214918245,2605757.1637563,25.717381738174,0,0
86.695899923948,-17.537546766181,20.521812181218,1848807.818821,-322.94214918245,2605757.1637563,25.721812181218,0,0
86.695900102089,-17.539599893182,20.526242624262,1848807.818821,-322.94214918245,2605757.1637563,25.726242624262,0,0
86.69590028023,-17.541653020182,20.530673067307,1848807.818821,-322.94214918245,2605757.1637563,25.730673067307,0,0
86.695900458371,-17.543706147183,20.535103510351,1848807.818821,-322.94214918245,2605757.1637563,25.735103510351,0,0
86.695900636511,-17.545759274183,20.539533953395,1848807.818821,-322.94214918245,2605757.1637563,25.739533953395,0,0
86.695900814652,-17.547812401184,20.54396439644,1848807.818821,-322.94214918245,2605757.1637563,25.74396439644,0,0
86.695900992793,-17.549865528185,20.548394839484,1848807.818821,-322.94214918245,2605757.1637563,25.748394839484,0,0
86.695901170933,-17.551918655185,20.552825282528,1848807.818821,-322.94214918245,2605757.1637563,25.752825282528,0,0
86.695901349074,-17.553971782186,20.557255725573,1848807.818821,-322.94214918245,2605757.1637563,25.757255725573,0,0
86.695901527215,-17.556024909186,20.561686168617,1848807.818821,-322.94214918245,2605757.1637563,25.761686168617,0,0
86.695901705356,-17.558078036187,20.566116611661,1848807.818821,-322.94214918245,2605757.1637563,25.766116611661,0,0
86.695901883496,-17.560131163187,20.570547054705,1848807.818821,-322.94214918245,2605757.1637563,25.770547054705,0,0
86.695902061637,-17.562184290188,20.57497749775,1848807.818821,-322.94214918245,2605757.1637563,25.77497749775,0,0
86.695902239778,-17.564237417188,20.579407940794,1848807.818821,-322.94214918245,2605757.1637563,25.779407940794,0,0
86.695902417918,-17.566290544189,20.583838383838,1848807.818821,-322.94214918245,2605757.1637563,25.783838383838,0,0
86.695902596059,-17.56834367119,20.588268826883,1848807.818821,-322.94214918245,2605757.1637563,25.788268826883,0,0
86.6959027742,-17.57039679819,20.592699269927,1848807.818821,-322.94214918245,2605757.1637563,25.792699269927,0,0
86.695902952341,-17.572449925191,20.597129712971,1848807.818821,-322.94214918245,2605757.1637563,25.797129712971,0,0
86.695903130481,-17.574503052191,20.601560156016,1848807.818821,-322.94214918245,2605757.1637563,25.801560156016,0,0
86.695903308622,-17.576556179192,20.60599059906,1848807.818821,-322.94214918245,2605757.1637563,25.80599059906,0,0
86.695903486763,-17.578609306192,20.610421042104,1848807.818821,-322.94214918245,2605757.1637563,25.810421042104,0,0
86.695903664904,-17.580662433193,20.614851485149,1848807.818821,-322.94214918245,2605757.1637563,25.814851485149,0,0
86.695903843044,-17.582715560193,20.619281928193,1848807.818821,-322.94214918245,2605757.1637563,25.819281928193,0,0
86.695904021185,-17.584768687194,20.623712371237,1848807.818821,-322.94214918245,2605757.1637563,25.823712371237,0,0
86.695904199326,-17.586821814195,20.628142814281,1848807.818821,-322.94214918245,2605757.1637563,25.828142814281,0,0
86.695904377466,-17.588874941195,20.632573257326,1848807.818821,-322.94214918245,2605757.1637563,25.832573257326,0,0
86.695904555607,-17.590928068196,20.63700370037,1848807.818821,-322.94214918245,2605757.1637563,25.83700370037,0,0
86.695904733748,-17.592981195196,20.641434143414,1848807.818821,-322.94214918245,2605757.1637563,25.841434143414,0,0
86.695904911889,-17.595034322197,20.645864586459,1848807.818821,-322.94214918245,2605757.1637563,25.845864586459,0,0
86.695905090029,-17.597087449197,20.650295029503,1848807.818821,-322.94214918245,2605757.1637563,25.850295029503,0,0
86.69590526817,-17.599140576198,20.654725472547,1848807.818821,-322.94214918245,2605757.1637563,25.854725472547,0,0
86.695905446311,-17.601193703198,20.659155915592,1848807.818821,-322.94214918245,2605757.1637563,25.859155915592,0,0
86.695905624451,-17.603246830199,20.663586358636,1848807.818821,-322.94214918245,2605757.1637563,25.863586358636,0,0
86.695905802592,-17.6052999572,20.66801680168,1848807.818821,-322.94214918245,2605757.1637563,25.86801680168,0,0
86.695905980733,-17.6073530842,20.672447244724,1848807.818821,-322.94214918245,2605757.1637563,25.872447244724,0,0
86.695906158874,-17.609406211201,20.676877687769,1848807.818821,-322.94214918245,2605757.1637563,25.876877687769,0,0
86.695906337014,-17.611459338201,20.681308130813,1848807.818821,-322.94214918245,2605757.1637563,25.881308130813,0,0
86.695906515155,-17.613512465202,20.685738573857,1848807.818821,-322.94214918245,2605757.1637563,25.885738573857,0,0
86.695906693296,-17.615565592202,20.690169016902,1848807.818821,-322.94214918245,2605757.1637563,25.890169016902,0,0
86.695906871437,-17.617618719203,20.694599459946,1848807.818821,-322.94214918245,2605757.1637563,25.894599459946,0,0
86.695907049577,-17.619671846203,20.69902990299,1848807.818821,-322.94214918245,2605757.1637563,25.89902990299,0,0
86.695907227718,-17.621724973204,20.703460346035,1848807.818821,-322.94214918245,2605757.1637563,25.903460346035,0,0
86.695907405859,-17.623778100205,20.707890789079,1848807.818821,-322.94214918245,2605757.1637563,25.907890789079,0,0
86.695907583999,-17.625831227205,20.712321232123,1848807.818821,-322.94214918245,2605757.1637563,25.912321232123,0,0
86.69590776214,-17.627884354206,20.716751675168,1848807.818821,-322.94214918245,2605757.1637563,25.916751675168,0,0
86.695907940281,-17.629937481206,20.721182118212,1848807.818821,-322.94214918245,2605757.1637563,25.921182118212,0,0
86.695908118422,-17.631990608207,20.725612561256,1848807.818821,-322.94214918245,2605757.1637563,25.925612561256,0,0
86.695908296562,-17.634043735207,20.7300430043,1848807.818821,-322.94214918245,2605757.1637563,25.9300430043,0,0
86.695908474703,-17.636096862208,20.734473447345,1848807.818821,-322.94214918245,2605757.1637563,25.934473447345,0,0
86.695908652844,-17.638149989208,20.738903890389,1848807.818821,-322.94214918245,2605757.1637563,25.938903890389,0,0
86.695908830984,-17.640203116209,20.743334333433,1848807.818821,-322.94214918245,2605757.1637563,25.943334333433,0,0
86.695909009125,-17.64225624321,20.747764776478,1848807.818821,-322.94214918245,2605757.1637563,25.947764776478,0,0
86.695909187266,-17.64430937021,20.752195219522,1848807.818821,-322.94214918245,2605757.1637563,25.952195219522,0,0
86.695909365407,-17.646362497211,20.756625662566,1848807.818821,-322.94214918245,2605757.1637563,25.956625662566,0,0
86.695909543547,-17.648415624211,20.761056105611,1848807.818821,-322.94214918245,2605757.1637563,25.961056105611,0,0
86.695909721688,-17.650468751212,20.765486548655,1848807.818821,-322.94214918245,2605757.1637563,25.965486548655,0,0
86.695909899829,-17.652521878212,20.769916991699,1848807.818821,-322.94214918245,2605757.1637563,25.969916991699,0,0
86.69591007797,-17.654575005213,20.774347434743,1848807.818821,-322.94214918245,2605757.1637563,25.974347434743,0,0
86.69591025611,-17.656628132213,20.778777877788,1848807.818821,-322.94214918245,2605757.1637563,25.978777877788,0,0
86.695910434251,-17.658681259214,20.783208320832,1848807.818821,-322.94214918245,2605757.1637563,25.983208320832,0,0
86.695910612392,-17.660734386215,20.787638763876,1848807.818821,-322.94214918245,2605757.1637563,25.987638763876,0,0
86.695910790532,-17.662787513215,20.792069206921,1848807.818821,-322.94214918245,2605757.1637563,25.992069206921,0,0
86.695910968673,-17.664840640216,20.796499649965,1848807.818821,-322.94214918245,2605757.1637563,25.996499649965,0,0
86.695911146814,-17.666893767216,20.800930093009,1848807.818821,-322.94214918245,2605757.1637563,26.000930093009,0,0
86.695911324955,-17.668946894217,20.805360536054,1848807.818821,-322.94214918245,2605757.1637563,26.005360536054,0,0
86.695911503095,-17.671000021217,20.809790979098,1848807.818821,-322.94214918245,2605757.1637563,26.009790979098,0,0
86.695911681236,-17.673053148218,20.814221422142,1848807.818821,-322.94214918245,2605757.1637563,26.014221422142,0,0
86.695911859377,-17.675106275218,20.818651865187,1848807.818821,-322.94214918245,2605757.1637563,26.018651865187,0,0
86.695912037517,-17.677159402219,20.823082308231,1848807.818821,-322.94214918245,2605757.1637563,26.023082308231,0,0
86.695912215658,-17.67921252922,20.827512751275,1848807.818821,-322.94214918245,2605757.1637563,26.027512751275,0,0
86.695912393799,-17.68126565622,20.831943194319,1848807.818821,-322.94214918245,2605757.1637563,26.031943194319,0,0
86.69591257194,-17.683318783221,20.836373637364,1848807.818821,-322.94214918245,2605757.1637563,26.036373637364,0,0
86.69591275008,-17.685371910221,20.840804080408,1848807.818821,-322.94214918245,2605757.1637563,26.040804080408,0,0
86.695912928221,-17.687425037222,20.845234523452,1848807.818821,-322.94214918245,2605757.1637563,26.045234523452,0,0
86.695913106362,-17.689478164222,20.849664966497,1848807.818821,-322.94214918245,2605757.1637563,26.049664966497,0,0
86.695913284502,-17.691531291223,20.854095409541,1848807.818821,-322.94214918245,2605757.1637563,26.054095409541,0,0
86.695913462643,-17.693584418224,20.858525852585,1848807.818821,-322.94214918245,2605757.1637563,26.058525852585,0,0
86.695913640784,-17.695637545224,20.86295629563,1848807.818821,-322.94214918245,2605757.1637563,26.06295629563,0,0
86.695913818925,-17.697690672225,20.867386738674,1848807.818821,-322.94214918245,2605757.1637563,26.067386738674,0,0
86.695913997065,-17.699743799225,20.871817181718,1848807.818821,-322.94214918245,2605757.1637563,26.071817181718,0,0
86.695914175206,-17.701796926226,20.876247624762,1848807.818821,-322.94214918245,2605757.1637563,26.076247624762,0,0
86.695914353347,-17.703850053226,20.880678067807,1848807.818821,-322.94214918245,2605757.1637563,26.080678067807,0,0
86.695914531488,-17.705903180227,20.885108510851,1848807.818821,-322.94214918245,2605757.1637563,26.085108510851,0,0
86.695914709628,-17.707956307227,20.889538953895,1848807.818821,-322.94214918245,2605757.1637563,26.089538953895,0,0
86.695914887769,-17.710009434228,20.89396939694,1848807.818821,-322.94214918245,2605757.1637563,26.09396939694,0,0
86.69591506591,-17.712062561229,20.898399839984,1848807.818821,-322.94214918245,2605757.1637563,26.098399839984,0,0
86.69591524405,-17.714115688229,20.902830283028,1848807.818821,-322.94214918245,2605757.1637563,26.102830283028,0,0
86.695915422191,-17.71616881523,20.907260726073,1848807.818821,-322.94214918245,2605757.1637563,26.107260726073,0,0
86.695915600332,-17.71822194223,20.911691169117,1848807.818821,-322.94214918245,2605757.1637563,26.111691169117,0,0
86.695915778473,-17.720275069231,20.916121612161,1848807.818821,-322.94214918245,2605757.1637563,26.116121612161,0,0
86.695915956613,-17.722328196231,20.920552055206,1848807.818821,-322.94214918245,2605757.1637563,26.120552055206,0,0
86.695916134754,-17.724381323232,20.92498249825,1848807.818821,-322.94214918245,2605757.1637563,26.12498249825,0,0
86.695916312895,-17.726434450232,20.929412941294,1848807.818821,-322.94214918245,2605757.1637563,26.129412941294,0,0
86.695916491035,-17.728487577233,20.933843384338,1848807.818821,-322.94214918245,2605757.1637563,26.133843384338,0,0
86.695916669176,-17.730540704234,20.938273827383,1848807.818821,-322.94214918245,2605757.1637563,26.138273827383,0,0
86.695916847317,-17.732593831234,20.942704270427,1848807.818821,-322.94214918245,2605757.1637563,26.142704270427,0,0
86.695917025458,-17.734646958235,20.947134713471,1848807.818821,-322.94214918245,2605757.1637563,26.147134713471,0,0
86.695917203598,-17.736700085235,20.951565156516,1848807.818821,-322.94214918245,2605757.1637563,26.151565156516,0,0
86.695917381739,-17.738753212236,20.95599559956,1848807.818821,-322.94214918245,2605757.1637563,26.15599559956,0,0
86.69591755988,-17.740806339236,20.960426042604,1848807.818821,-322.94214918245,2605757.1637563,26.160426042604,0,0
86.69591773802,-17.742859466237,20.964856485649,1848807.818821,-322.94214918245,2605757.1637563,26.164856485649,0,0
86.695917916161,-17.744912593237,20.969286928693,1848807.818821,-322.94214918245,2605757.1637563,26.169286928693,0,0
86.695918094302,-17.746965720238,20.973717371737,1848807.818821,-322.94214918245,2605757.1637563,26.173717371737,0,0
86.695918272443,-17.749018847239,20.978147814781,1848807.818821,-322.94214918245,2605757.1637563,26.178147814781,0,0
86.695918450588,-17.751071974229,20.982578257826,1852351.238409,3373.2261744034,2602688.9477433,26.182578257826,0,0
86.695918629093,-17.753125100308,20.98700870087,1852351.238409,3373.2261744034,2602688.9477433,26.18700870087,0,0
86.695918807598,-17.755178226387,20.991439143914,1852351.238409,3373.2261744034,2602688.9477433,26.191439143914,0,0
86.695918986104,-17.757231352465,20.995869586959,1852351.238409,3373.2261744034,2602688.9477433,26.195869586959,0,0
86.695919164609,-17.759284478544,21.000300030003,1852351.238409,3373.2261744034,2602688.9477433,26.200300030003,0,0
86.695919343115,-17.761337604623,21.004730473047,1852351.238409,3373.2261744034,2602688.9477433,26.204730473047,0,0
86.69591952162,-17.763390730702,21.009160916092,1852351.238409,3373.2261744034,2602688.9477433,26.209160916092,0,0
86.695919700126,-17.765443856781,21.013591359136,1852351.238409,3373.2261744034,2602688.9477433,26.213591359136,0,0
86.695919878631,-17.76749698286,21.01802180218,1852351.238409,3373.2261744034,2602688.9477433,26.21802180218,0,0
86.695920057137,-17.769550108939,21.022452245225,1852351.238409,3373.2261744034,2602688.9477433,26.222452245225,0,0
86.695920235642,-17.771603235018,21.026882688269,1852351.238409,3373.2261744034,2602688.9477433,26.226882688269,0,0
86.695920414147,-17.773656361097,21.031313131313,1852351.238409,3373.2261744034,2602688.9477433,26.231313131313,0,0
86.695920592653,-17.775709487176,21.035743574357,1852351.238409,3373.2261744034,2602688.9477433,26.235743574357,0,0
86.695920771158,-17.777762613255,21.040174017402,1852351.238409,3373.2261744034,2602688.9477433,26.240174017402,0,0
86.695920949664,-17.779815739334,21.044604460446,1852351.238409,3373.2261744034,2602688.9477433,26.244604460446,0,0
86.695921128169,-17.781868865413,21.04903490349,1852351.238409,3373.2261744034,2602688.9477433,26.24903490349,0,0
86.695921306675,-17.783921991492,21.053465346535,1852351.238409,3373.2261744034,2602688.9477433,26.253465346535,0,0
86.69592148518,-17.785975117571,21.057895789579,1852351.238409,3373.2261744034,2602688.9477433,26.257895789579,0,0
86.695921663686,-17.78802824365,21.062326232623,1852351.238409,3373.2261744034,2602688.9477433,26.262326232623,0,0
86.695921842191,-17.790081369729,21.066756675668,1852351.238409,3373.2261744034,2602688.9477433,26.266756675668,0,0
86.695922020696,-17.792134495807,21.071187118712,1852351.238409,3373.2261744034,2602688.9477433,26.271187118712,0,0
86.695922199202,-17.794187621886,21.075617561756,1852351.238409,3373.2261744034,2602688.9477433,26.275617561756,0,0
86.695922377707,-17.796240747965,21.0800480048,1852351.238409,3373.2261744034,2602688.9477433,26.2800480048,0,0
86.695922556213,-17.798293874044,21.084478447845,1852351.238409,3373.2261744034,2602688.9477433,26.284478447845,0,0
86.695922734718,-17.800347000123,21.088908890889,1852351.238409,3373.2261744034,2602688.9477433,26.288908890889,0,0
86.695922913224,-17.802400126202,21.093339333933,1852351.238409,3373.2261744034,2602688.9477433,26.293339333933,0,0
86.695923091729,-17.804453252281,21.097769776978,1852351.238409,3373.2261744034,2602688.9477433,26.297769776978,0,0
86.695923270235,-17.80650637836,21.102200220022,1852351.238409,3373.2261744034,2602688.9477433,26.302200220022,0,0
86.69592344874,-17.808559504439,21.106630663066,1852351.238409,3373.2261744034,2602688.9477433,26.306630663066,0,0
86.695923627245,-17.810612630518,21.111061106111,1852351.238409,3373.2261744034,2602688.9477433,26.311061106111,0,0
86.695923805751,-17.812665756597,21.115491549155,1852351.238409,3373.2261744034,2602688.9477433,26.315491549155,0,0
86.695923984256,-17.814718882676,21.119921992199,1852351.238409,3373.2261744034,2602688.9477433,26.319921992199,0,0
86.695924162762,-17.816772008755,21.124352435244,1852351.238409,3373.2261744034,2602688.9477433,26.324352435244,0,0
86.695924341267,-17.818825134834,21.128782878288,1852351.238409,3373.2261744034,2602688.9477433,26.328782878288,0,0
86.695924519773,-17.820878260913,21.133213321332,1852351.238409,3373.2261744034,2602688.9477433,26.333213321332,0,0
86.695924698278,-17.822931386992,21.137643764376,1852351.238409,3373.2261744034,2602688.9477433,26.337643764376,0,0
86.695924876784,-17.824984513071,21.142074207421,1852351.238409,3373.2261744034,2602688.9477433,26.342074207421,0,0
86.695925055289,-17.827037639149,21.146504650465,1852351.238409,3373.2261744034,2602688.9477433,26.346504650465,0,0
86.695925233794,-17.829090765228,21.150935093509,1852351.238409,3373.2261744034,2602688.9477433,26.350935093509,0,0
86.6959254123,-17.831143891307,21.155365536554,1852351.238409,3373.2261744034,2602688.9477433,26.355365536554,0,0
86.695925590805,-17.833197017386,21.159795979598,1852351.238409,3373.2261744034,2602688.9477433,26.359795979598,0,0
86.695925769311,-17.835250143465,21.164226422642,1852351.238409,3373.2261744034,2602688.9477433,26.364226422642,0,0
86.695925947993,-17.837303270174,21.168656865687,1853317.3190271,-97.912467715913,2596224.7754763,26.368656865687,0,0
86.695926126747,-17.839356397144,21.173087308731,1853317.3190271,-97.912467715913,2596224.7754763,26.373087308731,0,0
86.695926305502,-17.841409524114,21.177517751775,1853317.3190271,-97.912467715913,2596224.7754763,26.377517751775,0,0
86.695926484257,-17.843462651084,21.181948194819,1853317.3190271,-97.912467715913,2596224.7754763,26.381948194819,0,0
86.695926663011,-17.845515778054,21.186378637864,1853317.3190271,-97.912467715913,2596224.7754763,26.386378637864,0,0
86.695926841766,-17.847568905024,21.190809080908,1853317.3190271,-97.912467715913,2596224.7754763,26.390809080908,0,0
86.695927020521,-17.849622031994,21.195239523952,1853317.3190271,-97.912467715913,2596224.7754763,26.395239523952,0,0
86.695927199276,-17.851675158964,21.199669966997,1853317.3190271,-97.912467715913,2596224.7754763,26.399669966997,0,0
86.69592737803,-17.853728285934,21.204100410041,1853317.3190271,-97.912467715913,2596224.7754763,26.404100410041,0,0
86.695927556785,-17.855781412904,21.208530853085,1853317.3190271,-97.912467715913,2596224.7754763,26.408530853085,0,0
86.69592773554,-17.857834539874,21.21296129613,1853317.3190271,-97.912467715913,2596224.7754763,26.41296129613,0,0
86.695927914294,-17.859887666844,21.217391739174,1853317.3190271,-97.912467715913,2596224.7754763,26.417391739174,0,0
86.695928093049,-17.861940793814,21.221822182218,1853317.3190271,-97.912467715913,2596224.7754763,26.421822182218,0,0
86.695928271804,-17.863993920784,21.226252625263,1853317.3190271,-97.912467715913,2596224.7754763,26.426252625263,0,0
86.695928450559,-17.866047047754,21.230683068307,1853317.3190271,-97.912467715913,2596224.7754763,26.430683068307,0,0
86.695928629313,-17.868100174724,21.235113511351,1853317.3190271,-97.912467715913,2596224.7754763,26.435113511351,0,0
86.695928808068,-17.870153301693,21.239543954395,1853317.3190271,-97.912467715913,2596224.7754763,26.439543954395,0,0
86.695928986823,-17.872206428663,21.24397439744,1853317.3190271,-97.912467715913,2596224.7754763,26.44397439744,0,0
86.695929165578,-17.874259555633,21.248404840484,1853317.3190271,-97.912467715913,2596224.7754763,26.448404840484,0,0
86.695929344332,-17.876312682603,21.252835283528,1853317.3190271,-97.912467715913,2596224.7754763,26.452835283528,0,0
86.695929523087,-17.878365809573,21.257265726573,1853317.3190271,-97.912467715913,2596224.7754763,26.457265726573,0,0
86.695929701842,-17.880418936543,21.261696169617,1853317.3190271,-97.912467715913,2596224.7754763,26.461696169617,0,0
86.695929880596,-17.882472063513,21.266126612661,1853317.3190271,-97.912467715913,2596224.7754763,26.466126612661,0,0
86.695930059351,-17.884525190483,21.270557055706,1853317.3190271,-97.912467715913,2596224.7754763,26.470557055706,0,0
86.695930238106,-17.886578317453,21.27498749875,1853317.3190271,-97.912467715913,2596224.7754763,26.47498749875,0,0
86.695930416861,-17.888631444423,21.279417941794,1853317.3190271,-97.912467715913,2596224.7754763,26.479417941794,0,0
86.695930595615,-17.890684571393,21.283848384838,1853317.3190271,-97.912467715913,2596224.7754763,26.483848384838,0,0
86.69593077437,-17.892737698363,21.288278827883,1853317.3190271,-97.912467715913,2596224.7754763,26.488278827883,0,0
86.695930953125,-17.894790825333,21.292709270927,1853317.3190271,-97.912467715913,2596224.7754763,26.492709270927,0,0
86.695931131879,-17.896843952303,21.297139713971,1853317.3190271,-97.912467715913,2596224.7754763,26.497139713971,0,0
86.695931310634,-17.898897079273,21.301570157016,1853317.3190271,-97.912467715913,2596224.7754763,26.501570157016,0,0
86.695931489389,-17.900950206243,21.30600060006,1853317.3190271,-97.912467715913,2596224.7754763,26.50600060006,0,0
86.695931668144,-17.903003333213,21.310431043104,1853317.3190271,-97.912467715913,2596224.7754763,26.510431043104,0,0
86.695931846898,-17.905056460183,21.314861486149,1853317.3190271,-97.912467715913,2596224.7754763,26.514861486149,0,0
86.695932025653,-17.907109587153,21.319291929193,1853317.3190271,-97.912467715913,2596224.7754763,26.519291929193,0,0
86.695932204408,-17.909162714123,21.323722372237,1853317.3190271,-97.912467715913,2596224.7754763,26.523722372237,0,0
86.695932383163,-17.911215841092,21.328152815282,1853317.3190271,-97.912467715913,2596224.7754763,26.528152815282,0,0
86.695932561917,-17.913268968062,21.332583258326,1853317.3190271,-97.912467715913,2596224.7754763,26.532583258326,0,0
86.695932740672,-17.915322095032,21.33701370137,1853317.3190271,-97.912467715913,2596224.7754763,26.53701370137,0,0
86.695932919427,-17.917375222002,21.341444144414,1853317.3190271,-97.912467715913,2596224.7754763,26.541444144414,0,0
86.695933098181,-17.919428348972,21.345874587459,1853317.3190271,-97.912467715913,2596224.7754763,26.545874587459,0,0
86.695933276936,-17.921481475942,21.350305030503,1853317.3190271,-97.912467715913,2596224.7754763,26.550305030503,0,0
86.695933455691,-17.923534602912,21.354735473547,1853317.3190271,-97.912467715913,2596224.7754763,26.554735473547,0,0
86.695933634446,-17.925587729882,21.359165916592,1853317.3190271,-97.912467715913,2596224.7754763,26.559165916592,0,0
86.6959338132,-17.927640856852,21.363596359636,1853317.3190271,-97.912467715913,2596224.7754763,26.563596359636,0,0
86.695933991955,-17.929693983822,21.36802680268,1853317.3190271,-97.912467715913,2596224.7754763,26.56802680268,0,0
86.69593417071,-17.931747110792,21.372457245725,1853317.3190271,-97.912467715913,2596224.7754763,26.572457245725,0,0
86.695934349464,-17.933800237762,21.376887688769,1853317.3190271,-97.912467715913,2596224.7754763,26.576887688769,0,0
86.695934528219,-17.935853364732,21.381318131813,1853317.3190271,-97.912467715913,2596224.7754763,26.581318131813,0,0
86.695934706974,-17.937906491702,21.385748574857,1853317.3190271,-97.912467715913,2596224.7754763,26.585748574857,0,0
86.695934885729,-17.939959618672,21.390179017902,1853317.3190271,-97.912467715913,2596224.7754763,26.590179017902,0,0
86.695935064483,-17.942012745642,21.394609460946,1853317.3190271,-97.912467715913,2596224.7754763,26.594609460946,0,0
86.695935243238,-17.944065872612,21.39903990399,1853317.3190271,-97.912467715913,2596224.7754763,26.59903990399,0,0
86.695935421993,-17.946118999582,21.403470347035,1853317.3190271,-97.912467715913,2596224.7754763,26.603470347035,0,0
86.695935600748,-17.948172126552,21.407900790079,1853317.3190271,-97.912467715913,2596224.7754763,26.607900790079,0,0
86.695935779502,-17.950225253522,21.412331233123,1853317.3190271,-97.912467715913,2596224.7754763,26.612331233123,0,0
86.695935958257,-17.952278380491,21.416761676168,1853317.3190271,-97.912467715913,2596224.7754763,26.616761676168,0,0
86.695936137012,-17.954331507461,21.421192119212,1853317.3190271,-97.912467715913,2596224.7754763,26.621192119212,0,0
86.695936315766,-17.956384634431,21.425622562256,1853317.3190271,-97.912467715913,2596224.7754763,26.625622562256,0,0
86.695936494521,-17.958437761401,21.430053005301,1853317.3190271,-97.912467715913,2596224.7754763,26.630053005301,0,0
86.695936673276,-17.960490888371,21.434483448345,1853317.3190271,-97.912467715913,2596224.7754763,26.634483448345,0,0
86.695936852031,-17.962544015341,21.438913891389,1853317.3190271,-97.912467715913,2596224.7754763,26.638913891389,0,0
86.695937030785,-17.964597142311,21.443344334433,1853317.3190271,-97.912467715913,2596224.7754763,26.643344334433,0,0
86.69593720954,-17.966650269281,21.447774777478,1853317.3190271,-97.912467715913,2596224.7754763,26.647774777478,0,0
86.695937388295,-17.968703396251,21.452205220522,1853317.3190271,-97.912467715913,2596224.7754763,26.652205220522,0,0
86.69593756705,-17.970756523221,21.456635663566,1853317.3190271,-97.912467715913,2596224.7754763,26.656635663566,0,0
86.695937745804,-17.972809650191,21.461066106611,1853317.3190271,-97.912467715913,2596224.7754763,26.661066106611,0,0
86.695937924559,-17.974862777161,21.465496549655,1853317.3190271,-97.912467715913,2596224.7754763,26.665496549655,0,0
86.695938103314,-17.976915904131,21.469926992699,1853317.3190271,-97.912467715913,2596224.7754763,26.669926992699,0,0
86.695938282068,-17.978969031101,21.474357435744,1853317.3190271,-97.912467715913,2596224.7754763,26.674357435744,0,0
86.695938460823,-17.981022158071,21.478787878788,1853317.3190271,-97.912467715913,2596224.7754763,26.678787878788,0,0
86.695938639578,-17.983075285041,21.483218321832,1853317.3190271,-97.912467715913,2596224.7754763,26.683218321832,0,0
86.695938818333,-17.985128412011,21.487648764876,1853317.3190271,-97.912467715913,2596224.7754763,26.687648764876,0,0
86.695938997087,-17.987181538981,21.492079207921,1853317.3190271,-97.912467715913,2596224.7754763,26.692079207921,0,0
86.695939175842,-17.989234665951,21.496509650965,1853317.3190271,-97.912467715913,2596224.7754763,26.696509650965,0,0
86.695939354597,-17.991287792921,21.500940094009,1853317.3190271,-97.912467715913,2596224.7754763,26.700940094009,0,0
86.695939533351,-17.993340919891,21.505370537054,1853317.3190271,-97.912467715913,2596224.7754763,26.705370537054,0,0
86.695939712106,-17.99539404686,21.509800980098,1853317.3190271,-97.912467715913,2596224.7754763,26.709800980098,0,0
86.695939890861,-17.99744717383,21.514231423142,1853317.3190271,-97.912467715913,2596224.7754763,26.714231423142,0,0
86.695940069616,-17.9995003008,21.518661866187,1853317.3190271,-97.912467715913,2596224.7754763,26.718661866187,0,0
86.69594024837,-18.00155342777,21.523092309231,1853317.3190271,-97.912467715913,2596224.7754763,26.723092309231,0,0
86.695940427125,-18.00360655474,21.527522752275,1853317.3190271,-97.912467715913,2596224.7754763,26.727522752275,0,0
86.69594060588,-18.00565968171,21.53195319532,1853317.3190271,-97.912467715913,2596224.7754763,26.73195319532,0,0
86.695940784635,-18.00771280868,21.536383638364,1853317.3190271,-97.912467715913,2596224.7754763,26.736383638364,0,0
86.695940963389,-18.00976593565,21.540814081408,1853317.3190271,-97.912467715913,2596224.7754763,26.740814081408,0,0
86.695941142144,-18.01181906262,21.545244524452,1853317.3190271,-97.912467715913,2596224.7754763,26.745244524452,0,0
86.695941320899,-18.01387218959,21.549674967497,1853317.3190271,-97.912467715913,2596224.7754763,26.749674967497,0,0
86.695941499653,-18.01592531656,21.554105410541,1853317.3190271,-97.912467715913,2596224.7754763,26.754105410541,0,0
86.695941678408,-18.01797844353,21.558535853585,1853317.3190271,-97.912467715913,2596224.7754763,26.758535853585,0,0
86.695941857163,-18.0200315705,21.56296629663,1853317.3190271,-97.912467715913,2596224.7754763,26.76296629663,0,0
86.695942035918,-18.02208469747,21.567396739674,1853317.3190271,-97.912467715913,2596224.7754763,26.767396739674,0,0
86.695942214672,-18.02413782444,21.571827182718,1853317.3190271,-97.912467715913,2596224.7754763,26.771827182718,0,0
86.695942393427,-18.02619095141,21.576257625763,1853317.3190271,-97.912467715913,2596224.7754763,26.776257625763,0,0
86.695942572182,-18.02824407838,21.580688068807,1853317.3190271,-97.912467715913,2596224.7754763,26.780688068807,0,0
86.695942750936,-18.03029720535,21.585118511851,1853317.3190271,-97.912467715913,2596224.7754763,26.785118511851,0,0
86.695942929691,-18.03235033232,21.589548954895,1853317.3190271,-97.912467715913,2596224.7754763,26.789548954895,0,0
86.695943108446,-18.03440345929,21.59397939794,1853317.3190271,-97.912467715913,2596224.7754763,26.79397939794,0,0
86.695943287201,-18.036456586259,21.598409840984,1853317.3190271,-97.912467715913,2596224.7754763,26.798409840984,0,0
86.695943465955,-18.038509713229,21.602840284028,1853317.3190271,-97.912467715913,2596224.7754763,26.802840284028,0,0
86.69594364471,-18.040562840199,21.607270727073,1853317.3190271,-97.912467715913,2596224.7754763,26.807270727073,0,0
86.695943823465,-18.042615967169,21.611701170117,1853317.3190271,-97.912467715913,2596224.7754763,26.811701170117,0,0
86.69594400222,-18.044669094139,21.616131613161,1853317.3190271,-97.912467715913,2596224.7754763,26.816131613161,0,0
86.695944180974,-18.046722221109,21.620562056206,1853317.3190271,-97.912467715913,2596224.7754763,26.820562056206,0,0
86.695944359729,-18.048775348079,21.62499249925,1853317.3190271,-97.912467715913,2596224.7754763,26.82499249925,0,0
86.695944538484,-18.050828475049,21.629422942294,1853317.3190271,-97.912467715913,2596224.7754763,26.829422942294,0,0
86.695944717238,-18.052881602019,21.633853385339,1853317.3190271,-97.912467715913,2596224.7754763,26.833853385339,0,0
86.695944895993,-18.054934728989,21.638283828383,1853317.3190271,-97.912467715913,2596224.7754763,26.838283828383,0,0
86.695945074748,-18.056987855959,21.642714271427,1853317.3190271,-97.912467715913,2596224.7754763,26.842714271427,0,0
86.695945253503,-18.059040982929,21.647144714471,1853317.3190271,-97.912467715913,2596224.7754763,26.847144714471,0,0
86.695945432257,-18.061094109899,21.651575157516,1853317.3190271,-97.912467715913,2596224.7754763,26.851575157516,0,0
86.695945611012,-18.063147236869,21.65600560056,1853317.3190271,-97.912467715913,2596224.7754763,26.85600560056,0,0
86.695945789767,-18.065200363839,21.660436043604,1853317.3190271,-97.912467715913,2596224.7754763,26.860436043604,0,0
86.695945968521,-18.067253490809,21.664866486649,1853317.3190271,-97.912467715913,2596224.7754763,26.864866486649,0,0
86.695946147276,-18.069306617779,21.669296929693,1853317.3190271,-97.912467715913,2596224.7754763,26.869296929693,0,0
86.695946326031,-18.071359744749,21.673727372737,1853317.3190271,-97.912467715913,2596224.7754763,26.873727372737,0,0
86.695946504786,-18.073412871719,21.678157815782,1853317.3190271,-97.912467715913,2596224.7754763,26.878157815782,0,0
86.69594668354,-18.075465998689,21.682588258826,1853317.3190271,-97.912467715913,2596224.7754763,26.882588258826,0,0
86.695946862295,-18.077519125658,21.68701870187,1853317.3190271,-97.912467715913,2596224.7754763,26.88701870187,0,0
86.69594704105,-18.079572252628,21.691449144914,1853317.3190271,-97.912467715913,2596224.7754763,26.891449144914,0,0
86.695947219805,-18.081625379598,21.695879587959,1853317.3190271,-97.912467715913,2596224.7754763,26.895879587959,0,0
86.695947398559,-18.083678506568,21.700310031003,1853317.3190271,-97.912467715913,2596224.7754763,26.900310031003,0,0
86.695947577314,-18.085731633538,21.704740474047,1853317.3190271,-97.912467715913,2596224.7754763,26.904740474047,0,0
86.695947756069,-18.087784760508,21.709170917092,1853317.3190271,-97.912467715913,2596224.7754763,26.909170917092,0,0
86.695947934823,-18.089837887478,21.713601360136,1853317.3190271,-97.912467715913,2596224.7754763,26.913601360136,0,0
86.695948113578,-18.091891014448,21.71803180318,1853317.3190271,-97.912467715913,2596224.7754763,26.91803180318,0,0
86.695948292333,-18.093944141418,21.722462246225,1853317.3190271,-97.912467715913,2596224.7754763,26.922462246225,0,0
86.695948471088,-18.095997268388,21.726892689269,1853317.3190271,-97.912467715913,2596224.7754763,26.926892689269,0,0
86.695948649842,-18.098050395358,21.731323132313,1853317.3190271,-97.912467715913,2596224.7754763,26.931323132313,0,0
86.695948828597,-18.100103522328,21.735753575358,1853317.3190271,-97.912467715913,2596224.7754763,26.935753575358,0,0
86.695949007352,-18.102156649298,21.740184018402,1853317.3190271,-97.912467715913,2596224.7754763,26.940184018402,0,0
86.695949186106,-18.104209776268,21.744614461446,1853317.3190271,-97.912467715913,2596224.7754763,26.944614461446,0,0
86.695949364861,-18.106262903238,21.74904490449,1853317.3190271,-97.912467715913,2596224.7754763,26.94904490449,0,0
86.695949543616,-18.108316030208,21.753475347535,1853317.3190271,-97.912467715913,2596224.7754763,26.953475347535,0,0
86.695949722371,-18.110369157178,21.757905790579,1853317.3190271,-97.912467715913,2596224.7754763,26.957905790579,0,0
86.695949901125,-18.112422284148,21.762336233623,1853317.3190271,-97.912467715913,2596224.7754763,26.962336233623,0,0
86.69595007988,-18.114475411118,21.766766676668,1853317.3190271,-97.912467715913,2596224.7754763,26.966766676668,0,0
86.695950258635,-18.116528538088,21.771197119712,1853317.3190271,-97.912467715913,2596224.7754763,26.971197119712,0,0
86.69595043739,-18.118581665058,21.775627562756,1853317.3190271,-97.912467715913,2596224.7754763,26.975627562756,0,0
86.695950616144,-18.120634792027,21.780058005801,1853317.3190271,-97.912467715913,2596224.7754763,26.980058005801,0,0
86.695950794899,-18.122687918997,21.784488448845,1853317.3190271,-97.912467715913,2596224.7754763,26.984488448845,0,0
86.695950973654,-18.124741045967,21.788918891889,1853317.3190271,-97.912467715913,2596224.7754763,26.988918891889,0,0
86.695951152408,-18.126794172937,21.793349334933,1853317.3190271,-97.912467715913,2596224.7754763,26.993349334933,0,0
86.695951331163,-18.128847299907,21.797779777978,1853317.3190271,-97.912467715913,2596224.7754763,26.997779777978,0,0
86.695951509918,-18.130900426877,21.802210221022,1853317.3190271,-97.912467715913,2596224.7754763,27.002210221022,0,0
86.695951688673,-18.132953553847,21.806640664066,1853317.3190271,-97.912467715913,2596224.7754763,27.006640664066,0,0
86.695951867427,-18.135006680817,21.811071107111,1853317.3190271,-97.912467715913,2596224.7754763,27.011071107111,0,0
86.695952046182,-18.137059807787,21.815501550155,1853317.3190271,-97.912467715913,2596224.7754763,27.015501550155,0,0
86.695952224937,-18.139112934757,21.819931993199,1853317.3190271,-97.912467715913,2596224.7754763,27.019931993199,0,0
86.695952403692,-18.141166061727,21.824362436244,1853317.3190271,-97.912467715913,2596224.7754763,27.024362436244,0,0
86.695952582446,-18.143219188697,21.828792879288,1853317.3190271,-97.912467715913,2596224.7754763,27.028792879288,0,0
86.695952761201,-18.145272315667,21.833223322332,1853317.3190271,-97.912467715913,2596224.7754763,27.033223322332,0,0
86.695952939956,-18.147325442637,21.837653765377,1853317.3190271,-97.912467715913,2596224.7754763,27.037653765377,0,0
86.69595311871,-18.149378569607,21.842084208421,1853317.3190271,-97.912467715913,2596224.7754763,27.042084208421,0,0
86.695953297465,-18.151431696577,21.846514651465,1853317.3190271,-97.912467715913,2596224.7754763,27.046514651465,0,0
86.69595347622,-18.153484823547,21.850945094509,1853317.3190271,-97.912467715913,2596224.7754763,27.050945094509,0,0
86.695953654975,-18.155537950517,21.855375537554,1853317.3190271,-97.912467715913,2596224.7754763,27.055375537554,0,0
86.695953833729,-18.157591077487,21.859805980598,1853317.3190271,-97.912467715913,2596224.7754763,27.059805980598,0,0
86.695954012484,-18.159644204457,21.864236423642,1853317.3190271,-97.912467715913,2596224.7754763,27.064236423642,0,0
86.695954191239,-18.161697331426,21.868666866687,1853317.3190271,-97.912467715913,2596224.7754763,27.068666866687,0,0
86.695954369993,-18.163750458396,21.873097309731,1853317.3190271,-97.912467715913,2596224.7754763,27.073097309731,0,0
86.695954548748,-18.165803585366,21.877527752775,1853317.3190271,-97.912467715913,2596224.7754763,27.077527752775,0,0
86.695954727503,-18.167856712336,21.88195819582,1853317.3190271,-97.912467715913,2596224.7754763,27.08195819582,0,0
86.695954906258,-18.169909839306,21.886388638864,1853317.3190271,-97.912467715913,2596224.7754763,27.086388638864,0,0
86.695955085012,-18.171962966276,21.890819081908,1853317.3190271,-97.912467715913,2596224.7754763,27.090819081908,0,0
86.695955263767,-18.174016093246,21.895249524952,1853317.3190271,-97.912467715913,2596224.7754763,27.095249524952,0,0
86.695955442522,-18.176069220216,21.899679967997,1853317.3190271,-97.912467715913,2596224.7754763,27.099679967997,0,0
86.695955621277,-18.178122347186,21.904110411041,1853317.3190271,-97.912467715913,2596224.7754763,27.104110411041,0,0
86.695955800031,-18.180175474156,21.908540854085,1853317.3190271,-97.912467715913,2596224.7754763,27.108540854085,0,0
86.695955978786,-18.182228601126,21.91297129713,1853317.3190271,-97.912467715913,2596224.7754763,27.11297129713,0,0
86.695956157541,-18.184281728096,21.917401740174,1853317.3190271,-97.912467715913,2596224.7754763,27.117401740174,0,0
86.695956336295,-18.186334855066,21.921832183218,1853317.3190271,-97.912467715913,2596224.7754763,27.121832183218,0,0
86.69595651505,-18.188387982036,21.926262626263,1853317.3190271,-97.912467715913,2596224.7754763,27.126262626263,0,0
86.695956693805,-18.190441109006,21.930693069307,1853317.3190271,-97.912467715913,2596224.7754763,27.130693069307,0,0
86.69595687256,-18.192494235976,21.935123512351,1853317.3190271,-97.912467715913,2596224.7754763,27.135123512351,0,0
86.695957051314,-18.194547362946,21.939553955396,1853317.3190271,-97.912467715913,2596224.7754763,27.139553955396,0,0
86.695957230069,-18.196600489916,21.94398439844,1853317.3190271,-97.912467715913,2596224.7754763,27.14398439844,0,0
86.695957408824,-18.198653616886,21.948414841484,1853317.3190271,-97.912467715913,2596224.7754763,27.148414841484,0,0
86.695957587578,-18.200706743856,21.952845284528,1853317.3190271,-97.912467715913,2596224.7754763,27.152845284528,0,0
86.695957766333,-18.202759870825,21.957275727573,1853317.3190271,-97.912467715913,2596224.7754763,27.157275727573,0,0
86.695957945088,-18.204812997795,21.961706170617,1853317.3190271,-97.912467715913,2596224.7754763,27.161706170617,0,0
86.695958123843,-18.206866124765,21.966136613661,1853317.3190271,-97.912467715913,2596224.7754763,27.166136613661,0,0
86.695958302597,-18.208919251735,21.970567056706,1853317.3190271,-97.912467715913,2596224.7754763,27.170567056706,0,0
86.695958481352,-18.210972378705,21.97499749975,1853317.3190271,-97.912467715913,2596224.7754763,27.17499749975,0,0
86.695958660107,-18.213025505675,21.979427942794,1853317.3190271,-97.912467715913,2596224.7754763,27.179427942794,0,0
86.695958838862,-18.215078632645,21.983858385839,1853317.3190271,-97.912467715913,2596224.7754763,27.183858385839,0,0
86.695959017616,-18.217131759615,21.988288828883,1853317.3190271,-97.912467715913,2596224.7754763,27.188288828883,0,0
86.695959196371,-18.219184886585,21.992719271927,1853317.3190271,-97.912467715913,2596224.7754763,27.192719271927,0,0
86.695959375126,-18.221238013555,21.997149714971,1853317.3190271,-97.912467715913,2596224.7754763,27.197149714971,0,0
86.69595955388,-18.223291140525,22.001580158016,1853317.3190271,-97.912467715913,2596224.7754763,27.201580158016,0,0
86.695959732635,-18.225344267495,22.00601060106,1853317.3190271,-97.912467715913,2596224.7754763,27.20601060106,0,0
86.69595991139,-18.227397394465,22.010441044104,1853317.3190271,-97.912467715913,2596224.7754763,27.210441044104,0,0
86.695960090145,-18.229450521435,22.014871487149,1853317.3190271,-97.912467715913,2596224.7754763,27.214871487149,0,0
86.695960268899,-18.231503648405,22.019301930193,1853317.3190271,-97.912467715913,2596224.7754763,27.219301930193,0,0
86.695960447654,-18.233556775375,22.023732373237,1853317.3190271,-97.912467715913,2596224.7754763,27.223732373237,0,0
86.695960626409,-18.235609902345,22.028162816282,1853317.3190271,-97.912467715913,2596224.7754763,27.228162816282,0,0
86.695960805163,-18.237663029315,22.032593259326,1853317.3190271,-97.912467715913,2596224.7754763,27.232593259326,0,0
86.695960983918,-18.239716156285,22.03702370237,1853317.3190271,-97.912467715913,2596224.7754763,27.23702370237,0,0
86.695961162673,-18.241769283255,22.041454145415,1853317.3190271,-97.912467715913,2596224.7754763,27.241454145415,0,0
86.695961341428,-18.243822410225,22.045884588459,1853317.3190271,-97.912467715913,2596224.7754763,27.245884588459,0,0
86.695961520182,-18.245875537194,22.050315031503,1853317.3190271,-97.912467715913,2596224.7754763,27.250315031503,0,0
86.695961698937,-18.247928664164,22.054745474547,1853317.3190271,-97.912467715913,2596224.7754763,27.254745474547,0,0
86.695961877692,-18.249981791134,22.059175917592,1853317.3190271,-97.912467715913,2596224.7754763,27.259175917592,0,0
86.695962056447,-18.252034918104,22.063606360636,1853317.3190271,-97.912467715913,2596224.7754763,27.263606360636,0,0
86.695962235201,-18.254088045074,22.06803680368,1853317.3190271,-97.912467715913,2596224.7754763,27.26803680368,0,0
86.695962413956,-18.256141172044,22.072467246725,1853317.3190271,-97.912467715913,2596224.7754763,27.272467246725,0,0
86.695962592711,-18.258194299014,22.076897689769,1853317.3190271,-97.912467715913,2596224.7754763,27.276897689769,0,0
86.695962771465,-18.260247425984,22.081328132813,1853317.3190271,-97.912467715913,2596224.7754763,27.281328132813,0,0
86.69596295022,-18.262300552954,22.085758575858,1853317.3190271,-97.912467715913,2596224.7754763,27.285758575858,0,0
86.695963128975,-18.264353679924,22.090189018902,1853317.3190271,-97.912467715913,2596224.7754763,27.290189018902,0,0
86.69596330773,-18.266406806894,22.094619461946,1853317.3190271,-97.912467715913,2596224.7754763,27.294619461946,0,0
86.695963486484,-18.268459933864,22.09904990499,1853317.3190271,-97.912467715913,2596224.7754763,27.29904990499,0,0
86.695963665239,-18.270513060834,22.103480348035,1853317.3190271,-97.912467715913,2596224.7754763,27.303480348035,0,0
86.695963843994,-18.272566187804,22.107910791079,1853317.3190271,-97.912467715913,2596224.7754763,27.307910791079,0,0
86.695964022748,-18.274619314774,22.112341234123,1853317.3190271,-97.912467715913,2596224.7754763,27.312341234123,0,0
86.695964201503,-18.276672441744,22.116771677168,1853317.3190271,-97.912467715913,2596224.7754763,27.316771677168,0,0
86.695964380258,-18.278725568714,22.121202120212,1853317.3190271,-97.912467715913,2596224.7754763,27.321202120212,0,0
86.695964559013,-18.280778695684,22.125632563256,1853317.3190271,-97.912467715913,2596224.7754763,27.325632563256,0,0
86.695964737767,-18.282831822654,22.130063006301,1853317.3190271,-97.912467715913,2596224.7754763,27.330063006301,0,0
86.695964916522,-18.284884949624,22.134493449345,1853317.3190271,-97.912467715913,2596224.7754763,27.334493449345,0,0
86.695965095277,-18.286938076593,22.138923892389,1853317.3190271,-97.912467715913,2596224.7754763,27.338923892389,0,0
86.695965274032,-18.288991203563,22.143354335434,1853317.3190271,-97.912467715913,2596224.7754763,27.343354335434,0,0
86.695965452786,-18.291044330533,22.147784778478,1853317.3190271,-97.912467715913,2596224.7754763,27.347784778478,0,0
86.695965631541,-18.293097457503,22.152215221522,1853317.3190271,-97.912467715913,2596224.7754763,27.352215221522,0,0
86.695965810296,-18.295150584473,22.156645664566,1853317.3190271,-97.912467715913,2596224.7754763,27.356645664566,0,0
86.69596598905,-18.297203711443,22.161076107611,1853317.3190271,-97.912467715913,2596224.7754763,27.361076107611,0,0
86.695966167805,-18.299256838413,22.165506550655,1853317.3190271,-97.912467715913,2596224.7754763,27.365506550655,0,0
86.69596634656,-18.301309965383,22.169936993699,1853317.3190271,-97.912467715913,2596224.7754763,27.369936993699,0,0
86.695966525315,-18.303363092353,22.174367436744,1853317.3190271,-97.912467715913,2596224.7754763,27.374367436744,0,0
86.695966704069,-18.305416219323,22.178797879788,1853317.3190271,-97.912467715913,2596224.7754763,27.378797879788,0,0
86.695966882824,-18.307469346293,22.183228322832,1853317.3190271,-97.912467715913,2596224.7754763,27.383228322832,0,0
86.695967061579,-18.309522473263,22.187658765877,1853317.3190271,-97.912467715913,2596224.7754763,27.387658765877,0,0
86.695967240334,-18.311575600233,22.192089208921,1853317.3190271,-97.912467715913,2596224.7754763,27.392089208921,0,0
86.695967419088,-18.313628727203,22.196519651965,1853317.3190271,-97.912467715913,2596224.7754763,27.396519651965,0,0
86.695967597843,-18.315681854173,22.200950095009,1853317.3190271,-97.912467715913,2596224.7754763,27.400950095009,0,0
86.695967776598,-18.317734981143,22.205380538054,1853317.3190271,-97.912467715913,2596224.7754763,27.405380538054,0,0
86.695967955352,-18.319788108113,22.209810981098,1853317.3190271,-97.912467715913,2596224.7754763,27.409810981098,0,0
86.695968134107,-18.321841235083,22.214241424142,1853317.3190271,-97.912467715913,2596224.7754763,27.414241424142,0,0
86.695968312862,-18.323894362053,22.218671867187,1853317.3190271,-97.912467715913,2596224.7754763,27.418671867187,0,0
86.695968491617,-18.325947489023,22.223102310231,1853317.3190271,-97.912467715913,2596224.7754763,27.423102310231,0,0
86.695968670371,-18.328000615993,22.227532753275,1853317.3190271,-97.912467715913,2596224.7754763,27.427532753275,0,0
86.695968849126,-18.330053742962,22.23196319632,1853317.3190271,-97.912467715913,2596224.7754763,27.43196319632,0,0
86.695969027881,-18.332106869932,22.236393639364,1853317.3190271,-97.912467715913,2596224.7754763,27.436393639364,0,0
86.695969206635,-18.334159996902,22.240824082408,1853317.3190271,-97.912467715913,2596224.7754763,27.440824082408,0,0
86.69596938539,-18.336213123872,22.245254525453,1853317.3190271,-97.912467715913,2596224.7754763,27.445254525453,0,0
86.695969564145,-18.338266250842,22.249684968497,1853317.3190271,-97.912467715913,2596224.7754763,27.449684968497,0,0
86.6959697429,-18.340319377812,22.254115411541,1853317.3190271,-97.912467715913,2596224.7754763,27.454115411541,0,0
86.695969921654,-18.342372504782,22.258545854585,1853317.3190271,-97.912467715913,2596224.7754763,27.458545854585,0,0
86.695970100409,-18.344425631752,22.26297629763,1853317.3190271,-97.912467715913,2596224.7754763,27.46297629763,0,0
86.695970279164,-18.346478758722,22.267406740674,1853317.3190271,-97.912467715913,2596224.7754763,27.467406740674,0,0
86.695970457919,-18.348531885692,22.271837183718,1853317.3190271,-97.912467715913,2596224.7754763,27.471837183718,0,0
86.695970636673,-18.350585012662,22.276267626763,1853317.3190271,-97.912467715913,2596224.7754763,27.476267626763,0,0
86.695970815428,-18.352638139632,22.280698069807,1853317.3190271,-97.912467715913,2596224.7754763,27.480698069807,0,0
86.695970994183,-18.354691266602,22.285128512851,1853317.3190271,-97.912467715913,2596224.7754763,27.485128512851,0,0
86.695971172937,-18.356744393572,22.289558955896,1853317.3190271,-97.912467715913,2596224.7754763,27.489558955896,0,0
86.695971351692,-18.358797520542,22.29398939894,1853317.3190271,-97.912467715913,2596224.7754763,27.49398939894,0,0
86.695971530447,-18.360850647512,22.298419841984,1853317.3190271,-97.912467715913,2596224.7754763,27.498419841984,0,0
86.695971709202,-18.362903774482,22.302850285029,1853317.3190271,-97.912467715913,2596224.7754763,27.502850285029,0,0
86.695971887956,-18.364956901452,22.307280728073,1853317.3190271,-97.912467715913,2596224.7754763,27.507280728073,0,0
86.695972066711,-18.367010028422,22.311711171117,1853317.3190271,-97.912467715913,2596224.7754763,27.511711171117,0,0
86.695972245466,-18.369063155392,22.316141614161,1853317.3190271,-97.912467715913,2596224.7754763,27.516141614161,0,0
86.69597242422,-18.371116282361,22.320572057206,1853317.3190271,-97.912467715913,2596224.7754763,27.520572057206,0,0
86.695972602975,-18.373169409331,22.32500250025,1853317.3190271,-97.912467715913,2596224.7754763,27.52500250025,0,0
86.69597278173,-18.375222536301,22.329432943294,1853317.3190271,-97.912467715913,2596224.7754763,27.529432943294,0,0
86.695972960485,-18.377275663271,22.333863386339,1853317.3190271,-97.912467715913,2596224.7754763,27.533863386339,0,0
86.695973139239,-18.379328790241,22.338293829383,1853317.3190271,-97.912467715913,2596224.7754763,27.538293829383,0,0
86.695973317994,-18.381381917211,22.342724272427,1853317.3190271,-97.912467715913,2596224.7754763,27.542724272427,0,0
86.695973496749,-18.383435044181,22.347154715472,1853317.3190271,-97.912467715913,2596224.7754763,27.547154715472,0,0
86.695973675504,-18.385488171151,22.351585158516,1853317.3190271,-97.912467715913,2596224.7754763,27.551585158516,0,0
86.695973854258,-18.387541298121,22.35601560156,1853317.3190271,-97.912467715913,2596224.7754763,27.55601560156,0,0
86.695974033013,-18.389594425091,22.360446044604,1853317.3190271,-97.912467715913,2596224.7754763,27.560446044604,0,0
86.695974211768,-18.391647552061,22.364876487649,1853317.3190271,-97.912467715913,2596224.7754763,27.564876487649,0,0
86.695974390522,-18.393700679031,22.369306930693,1853317.3190271,-97.912467715913,2596224.7754763,27.569306930693,0,0
86.695974569277,-18.395753806001,22.373737373737,1853317.3190271,-97.912467715913,2596224.7754763,27.573737373737,0,0
86.695974748032,-18.397806932971,22.378167816782,1853317.3190271,-97.912467715913,2596224.7754763,27.578167816782,0,0
86.695974926787,-18.399860059941,22.382598259826,1853317.3190271,-97.912467715913,2596224.7754763,27.582598259826,0,0
86.695975105541,-18.401913186911,22.38702870287,1853317.3190271,-97.912467715913,2596224.7754763,27.58702870287,0,0
86.695975284296,-18.403966313881,22.391459145915,1853317.3190271,-97.912467715913,2596224.7754763,27.591459145915,0,0
86.695975463051,-18.406019440851,22.395889588959,1853317.3190271,-97.912467715913,2596224.7754763,27.595889588959,0,0
86.695975641805,-18.408072567821,22.400320032003,1853317.3190271,-97.912467715913,2596224.7754763,27.600320032003,0,0
86.69597582056,-18.410125694791,22.404750475048,1853317.3190271,-97.912467715913,2596224.7754763,27.604750475048,0,0
86.695975999315,-18.41217882176,22.409180918092,1853317.3190271,-97.912467715913,2596224.7754763,27.609180918092,0,0
86.69597617807,-18.41423194873,22.413611361136,1853317.3190271,-97.912467715913,2596224.7754763,27.613611361136,0,0
86.695976356824,-18.4162850757,22.41804180418,1853317.3190271,-97.912467715913,2596224.7754763,27.61804180418,0,0
86.695976535579,-18.41833820267,22.422472247225,1853317.3190271,-97.912467715913,2596224.7754763,27.622472247225,0,0
86.695976714334,-18.42039132964,22.426902690269,1853317.3190271,-97.912467715913,2596224.7754763,27.626902690269,0,0
86.695976893089,-18.42244445661,22.431333133313,1853317.3190271,-97.912467715913,2596224.7754763,27.631333133313,0,0
86.695977071843,-18.42449758358,22.435763576358,1853317.3190271,-97.912467715913,2596224.7754763,27.635763576358,0,0
86.695977250598,-18.42655071055,22.440194019402,1853317.3190271,-97.912467715913,2596224.7754763,27.640194019402,0,0
86.695977429353,-18.42860383752,22.444624462446,1853317.3190271,-97.912467715913,2596224.7754763,27.644624462446,0,0
86.695977608107,-18.43065696449,22.449054905491,1853317.3190271,-97.912467715913,2596224.7754763,27.649054905491,0,0
86.695977786862,-18.43271009146,22.453485348535,1853317.3190271,-97.912467715913,2596224.7754763,27.653485348535,0,0
86.695977965617,-18.43476321843,22.457915791579,1853317.3190271,-97.912467715913,2596224.7754763,27.657915791579,0,0
86.695978144372,-18.4368163454,22.462346234623,1853317.3190271,-97.912467715913,2596224.7754763,27.662346234623,0,0
86.695978323126,-18.43886947237,22.466776677668,1853317.3190271,-97.912467715913,2596224.7754763,27.666776677668,0,0
86.695978501881,-18.44092259934,22.471207120712,1853317.3190271,-97.912467715913,2596224.7754763,27.671207120712,0,0
86.695978680636,-18.44297572631,22.475637563756,1853317.3190271,-97.912467715913,2596224.7754763,27.675637563756,0,0
86.69597885939,-18.44502885328,22.480068006801,1853317.3190271,-97.912467715913,2596224.7754763,27.680068006801,0,0
86.695979038145,-18.44708198025,22.484498449845,1853317.3190271,-97.912467715913,2596224.7754763,27.684498449845,0,0
86.6959792169,-18.44913510722,22.488928892889,1853317.3190271,-97.912467715913,2596224.7754763,27.688928892889,0,0
86.695979395655,-18.45118823419,22.493359335934,1853317.3190271,-97.912467715913,2596224.7754763,27.693359335934,0,0
86.695979574409,-18.453241361159,22.497789778978,1853317.3190271,-97.912467715913,2596224.7754763,27.697789778978,0,0
86.695979753164,-18.455294488129,22.502220222022,1853317.3190271,-97.912467715913,2596224.7754763,27.702220222022,0,0
86.695979931919,-18.457347615099,22.506650665067,1853317.3190271,-97.912467715913,2596224.7754763,27.706650665067,0,0
86.695980110674,-18.459400742069,22.511081108111,1853317.3190271,-97.912467715913,2596224.7754763,27.711081108111,0,0
86.695980289428,-18.461453869039,22.515511551155,1853317.3190271,-97.912467715913,2596224.7754763,27.715511551155,0,0
86.695980468183,-18.463506996009,22.519941994199,1853317.3190271,-97.912467715913,2596224.7754763,27.719941994199,0,0
86.695980646938,-18.465560122979,22.524372437244,1853317.3190271,-97.912467715913,2596224.7754763,27.724372437244,0,0
86.695980825692,-18.467613249949,22.528802880288,1853317.3190271,-97.912467715913,2596224.7754763,27.728802880288,0,0
86.695981004447,-18.469666376919,22.533233323332,1853317.3190271,-97.912467715913,2596224.7754763,27.733233323332,0,0
86.695981183202,-18.471719503889,22.537663766377,1853317.3190271,-97.912467715913,2596224.7754763,27.737663766377,0,0
86.695981361957,-18.473772630859,22.542094209421,1853317.3190271,-97.912467715913,2596224.7754763,27.742094209421,0,0
86.695981540711,-18.475825757829,22.546524652465,1853317.3190271,-97.912467715913,2596224.7754763,27.746524652465,0,0
86.695981719466,-18.477878884799,22.55095509551,1853317.3190271,-97.912467715913,2596224.7754763,27.75095509551,0,0
86.695981898221,-18.479932011769,22.555385538554,1853317.3190271,-97.912467715913,2596224.7754763,27.755385538554,0,0
86.695982076976,-18.481985138739,22.559815981598,1853317.3190271,-97.912467715913,2596224.7754763,27.759815981598,0,0
86.69598225573,-18.484038265709,22.564246424642,1853317.3190271,-97.912467715913,2596224.7754763,27.764246424642,0,0
86.695982434665,-18.486091392276,22.568676867687,1856247.9270071,2597.49148654,2592746.6866034,27.768676867687,0,0
86.695982613746,-18.488144518513,22.573107310731,1856247.9270071,2597.49148654,2592746.6866034,27.773107310731,0,0
86.695982792827,-18.49019764475,22.577537753775,1856247.9270071,2597.49148654,2592746.6866034,27.777537753775,0,0
86.695982971909,-18.492250770987,22.58196819682,1856247.9270071,2597.49148654,2592746.6866034,27.78196819682,0,0
86.69598315099,-18.494303897225,22.586398639864,1856247.9270071,2597.49148654,2592746.6866034,27.786398639864,0,0
86.695983330072,-18.496357023462,22.590829082908,1856247.9270071,2597.49148654,2592746.6866034,27.790829082908,0,0
86.695983509153,-18.498410149699,22.595259525953,1856247.9270071,2597.49148654,2592746.6866034,27.795259525953,0,0
86.695983688234,-18.500463275936,22.599689968997,1856247.9270071,2597.49148654,2592746.6866034,27.799689968997,0,0
86.695983867316,-18.502516402173,22.604120412041,1856247.9270071,2597.49148654,2592746.6866034,27.804120412041,0,0
86.695984046397,-18.504569528411,22.608550855086,1856247.9270071,2597.49148654,2592746.6866034,27.808550855086,0,0
86.695984225479,-18.506622654648,22.61298129813,1856247.9270071,2597.49148654,2592746.6866034,27.81298129813,0,0
86.69598440456,-18.508675780885,22.617411741174,1856247.9270071,2597.49148654,2592746.6866034,27.817411741174,0,0
86.695984583641,-18.510728907122,22.621842184218,1856247.9270071,2597.49148654,2592746.6866034,27.821842184218,0,0
86.695984762723,-18.512782033359,22.626272627263,1856247.9270071,2597.49148654,2592746.6866034,27.826272627263,0,0
86.695984941804,-18.514835159596,22.630703070307,1856247.9270071,2597.49148654,2592746.6866034,27.830703070307,0,0
86.695985120886,-18.516888285834,22.635133513351,1856247.9270071,2597.49148654,2592746.6866034,27.835133513351,0,0
86.695985299967,-18.518941412071,22.639563956396,1856247.9270071,2597.49148654,2592746.6866034,27.839563956396,0,0
86.695985479049,-18.520994538308,22.64399439944,1856247.9270071,2597.49148654,2592746.6866034,27.84399439944,0,0
86.69598565813,-18.523047664545,22.648424842484,1856247.9270071,2597.49148654,2592746.6866034,27.848424842484,0,0
86.695985837211,-18.525100790782,22.652855285529,1856247.9270071,2597.49148654,2592746.6866034,27.852855285529,0,0
86.695986016293,-18.52715391702,22.657285728573,1856247.9270071,2597.49148654,2592746.6866034,27.857285728573,0,0
86.695986195374,-18.529207043257,22.661716171617,1856247.9270071,2597.49148654,2592746.6866034,27.861716171617,0,0
86.695986374456,-18.531260169494,22.666146614661,1856247.9270071,2597.49148654,2592746.6866034,27.866146614661,0,0
86.695986553537,-18.533313295731,22.670577057706,1856247.9270071,2597.49148654,2592746.6866034,27.870577057706,0,0
86.695986732618,-18.535366421968,22.67500750075,1856247.9270071,2597.49148654,2592746.6866034,27.87500750075,0,0
86.6959869117,-18.537419548205,22.679437943794,1856247.9270071,2597.49148654,2592746.6866034,27.879437943794,0,0
86.695987090781,-18.539472674443,22.683868386839,1856247.9270071,2597.49148654,2592746.6866034,27.883868386839,0,0
86.695987269863,-18.54152580068,22.688298829883,1856247.9270071,2597.49148654,2592746.6866034,27.888298829883,0,0
86.695987448944,-18.543578926917,22.692729272927,1856247.9270071,2597.49148654,2592746.6866034,27.892729272927,0,0
86.695987628025,-18.545632053154,22.697159715972,1856247.9270071,2597.49148654,2592746.6866034,27.897159715972,0,0
86.695987807107,-18.547685179391,22.701590159016,1856247.9270071,2597.49148654,2592746.6866034,27.901590159016,0,0
86.695987986188,-18.549738305629,22.70602060206,1856247.9270071,2597.49148654,2592746.6866034,27.90602060206,0,0
86.69598816527,-18.551791431866,22.710451045105,1856247.9270071,2597.49148654,2592746.6866034,27.910451045105,0,0
86.695988344351,-18.553844558103,22.714881488149,1856247.9270071,2597.49148654,2592746.6866034,27.914881488149,0,0
86.695988523433,-18.55589768434,22.719311931193,1856247.9270071,2597.49148654,2592746.6866034,27.919311931193,0,0
86.695988702514,-18.557950810577,22.723742374237,1856247.9270071,2597.49148654,2592746.6866034,27.923742374237,0,0
86.695988881595,-18.560003936814,22.728172817282,1856247.9270071,2597.49148654,2592746.6866034,27.928172817282,0,0
86.695989060677,-18.562057063052,22.732603260326,1856247.9270071,2597.49148654,2592746.6866034,27.932603260326,0,0
86.695989239758,-18.564110189289,22.73703370337,1856247.9270071,2597.49148654,2592746.6866034,27.93703370337,0,0
86.69598941884,-18.566163315526,22.741464146415,1856247.9270071,2597.49148654,2592746.6866034,27.941464146415,0,0
86.695989597921,-18.568216441763,22.745894589459,1856247.9270071,2597.49148654,2592746.6866034,27.945894589459,0,0
86.695989777002,-18.570269568,22.750325032503,1856247.9270071,2597.49148654,2592746.6866034,27.950325032503,0,0
86.695989956084,-18.572322694237,22.754755475548,1856247.9270071,2597.49148654,2592746.6866034,27.954755475548,0,0
86.695990135165,-18.574375820475,22.759185918592,1856247.9270071,2597.49148654,2592746.6866034,27.959185918592,0,0
86.695990314247,-18.576428946712,22.763616361636,1856247.9270071,2597.49148654,2592746.6866034,27.963616361636,0,0
86.695990493328,-18.578482072949,22.76804680468,1856247.9270071,2597.49148654,2592746.6866034,27.96804680468,0,0
86.695990672409,-18.580535199186,22.772477247725,1856247.9270071,2597.49148654,2592746.6866034,27.972477247725,0,0
86.695990851491,-18.582588325423,22.776907690769,1856247.9270071,2597.49148654,2592746.6866034,27.976907690769,0,0
86.695991030572,-18.584641451661,22.781338133813,1856247.9270071,2597.49148654,2592746.6866034,27.981338133813,0,0
86.695991209654,-18.586694577898,22.785768576858,1856247.9270071,2597.49148654,2592746.6866034,27.985768576858,0,0
86.695991388735,-18.588747704135,22.790199019902,1856247.9270071,2597.49148654,2592746.6866034,27.990199019902,0,0
86.695991567817,-18.590800830372,22.794629462946,1856247.9270071,2597.49148654,2592746.6866034,27.994629462946,0,0
86.695991746898,-18.592853956609,22.799059905991,1856247.9270071,2597.49148654,2592746.6866034,27.999059905991,0,0
86.695991925979,-18.594907082846,22.803490349035,1856247.9270071,2597.49148654,2592746.6866034,28.003490349035,0,0
86.695992105061,-18.596960209084,22.807920792079,1856247.9270071,2597.49148654,2592746.6866034,28.007920792079,0,0
86.695992284142,-18.599013335321,22.812351235124,1856247.9270071,2597.49148654,2592746.6866034,28.012351235124,0,0
86.695992463224,-18.601066461558,22.816781678168,1856247.9270071,2597.49148654,2592746.6866034,28.016781678168,0,0
86.695992642305,-18.603119587795,22.821212121212,1856247.9270071,2597.49148654,2592746.6866034,28.021212121212,0,0
86.695992821386,-18.605172714032,22.825642564256,1856247.9270071,2597.49148654,2592746.6866034,28.025642564256,0,0
86.695993000592,-18.607225840705,22.830073007301,1857004.4104334,-528.44431877481,2586215.752552,28.030073007301,0,0
86.695993179908,-18.609278967763,22.834503450345,1857004.4104334,-528.44431877481,2586215.752552,28.034503450345,0,0
86.695993359224,-18.611332094821,22.838933893389,1857004.4104334,-528.44431877481,2586215.752552,28.038933893389,0,0
86.695993538539,-18.613385221879,22.843364336434,1857004.4104334,-528.44431877481,2586215.752552,28.043364336434,0,0
86.695993717855,-18.615438348936,22.847794779478,1857004.4104334,-528.44431877481,2586215.752552,28.047794779478,0,0
86.695993897171,-18.617491475994,22.852225222522,1857004.4104334,-528.44431877481,2586215.752552,28.052225222522,0,0
86.695994076487,-18.619544603052,22.856655665567,1857004.4104334,-528.44431877481,2586215.752552,28.056655665567,0,0
86.695994255802,-18.621597730109,22.861086108611,1857004.4104334,-528.44431877481,2586215.752552,28.061086108611,0,0
86.695994435118,-18.623650857167,22.865516551655,1857004.4104334,-528.44431877481,2586215.752552,28.065516551655,0,0
86.695994614434,-18.625703984225,22.869946994699,1857004.4104334,-528.44431877481,2586215.752552,28.069946994699,0,0
86.69599479375,-18.627757111283,22.874377437744,1857004.4104334,-528.44431877481,2586215.752552,28.074377437744,0,0
86.695994973065,-18.62981023834,22.878807880788,1857004.4104334,-528.44431877481,2586215.752552,28.078807880788,0,0
86.695995152381,-18.631863365398,22.883238323832,1857004.4104334,-528.44431877481,2586215.752552,28.083238323832,0,0
86.695995331697,-18.633916492456,22.887668766877,1857004.4104334,-528.44431877481,2586215.752552,28.087668766877,0,0
86.695995511012,-18.635969619514,22.892099209921,1857004.4104334,-528.44431877481,2586215.752552,28.092099209921,0,0
86.695995690328,-18.638022746571,22.896529652965,1857004.4104334,-528.44431877481,2586215.752552,28.096529652965,0,0
86.695995869644,-18.640075873629,22.90096009601,1857004.4104334,-528.44431877481,2586215.752552,28.10096009601,0,0
86.69599604896,-18.642129000687,22.905390539054,1857004.4104334,-528.44431877481,2586215.752552,28.105390539054,0,0
86.695996228275,-18.644182127744,22.909820982098,1857004.4104334,-528.44431877481,2586215.752552,28.109820982098,0,0
86.695996407591,-18.646235254802,22.914251425143,1857004.4104334,-528.44431877481,2586215.752552,28.114251425143,0,0
86.695996586907,-18.64828838186,22.918681868187,1857004.4104334,-528.44431877481,2586215.752552,28.118681868187,0,0
86.695996766223,-18.650341508918,22.923112311231,1857004.4104334,-528.44431877481,2586215.752552,28.123112311231,0,0
86.695996945538,-18.652394635975,22.927542754275,1857004.4104334,-528.44431877481,2586215.752552,28.127542754275,0,0
86.695997124854,-18.654447763033,22.93197319732,1857004.4104334,-528.44431877481,2586215.752552,28.13197319732,0,0
86.69599730417,-18.656500890091,22.936403640364,1857004.4104334,-528.44431877481,2586215.752552,28.136403640364,0,0
86.695997483485,-18.658554017149,22.940834083408,1857004.4104334,-528.44431877481,2586215.752552,28.140834083408,0,0
86.695997662801,-18.660607144206,22.945264526453,1857004.4104334,-528.44431877481,2586215.752552,28.145264526453,0,0
86.695997842117,-18.662660271264,22.949694969497,1857004.4104334,-528.44431877481,2586215.752552,28.149694969497,0,0
86.695998021433,-18.664713398322,22.954125412541,1857004.4104334,-528.44431877481,2586215.752552,28.154125412541,0,0
86.695998200748,-18.666766525379,22.958555855586,1857004.4104334,-528.44431877481,2586215.752552,28.158555855586,0,0
86.695998380064,-18.668819652437,22.96298629863,1857004.4104334,-528.44431877481,2586215.752552,28.16298629863,0,0
86.69599855938,-18.670872779495,22.967416741674,1857004.4104334,-528.44431877481,2586215.752552,28.167416741674,0,0
86.695998738696,-18.672925906553,22.971847184718,1857004.4104334,-528.44431877481,2586215.752552,28.171847184718,0,0
86.695998918011,-18.67497903361,22.976277627763,1857004.4104334,-528.44431877481,2586215.752552,28.176277627763,0,0
86.695999097327,-18.677032160668,22.980708070807,1857004.4104334,-528.44431877481,2586215.752552,28.180708070807,0,0
86.695999276643,-18.679085287726,22.985138513851,1857004.4104334,-528.44431877481,2586215.752552,28.185138513851,0,0
86.695999455958,-18.681138414784,22.989568956896,1857004.4104334,-528.44431877481,2586215.752552,28.189568956896,0,0
86.695999635274,-18.683191541841,22.99399939994,1857004.4104334,-528.44431877481,2586215.752552,28.19399939994,0,0
86.69599981459,-18.685244668899,22.998429842984,1857004.4104334,-528.44431877481,2586215.752552,28.198429842984,0,0
86.695999993906,-18.687297795957,23.002860286029,1857004.4104334,-528.44431877481,2586215.752552,28.202860286029,0,0
86.696000173221,-18.689350923014,23.007290729073,1857004.4104334,-528.44431877481,2586215.752552,28.207290729073,0,0
86.696000352537,-18.691404050072,23.011721172117,1857004.4104334,-528.44431877481,2586215.752552,28.211721172117,0,0
86.696000531853,-18.69345717713,23.016151615162,1857004.4104334,-528.44431877481,2586215.752552,28.216151615162,0,0
86.696000711168,-18.695510304188,23.020582058206,1857004.4104334,-528.44431877481,2586215.752552,28.220582058206,0,0
86.696000890484,-18.697563431245,23.02501250125,1857004.4104334,-528.44431877481,2586215.752552,28.22501250125,0,0
86.6960010698,-18.699616558303,23.029442944294,1857004.4104334,-528.44431877481,2586215.752552,28.229442944294,0,0
86.696001249116,-18.701669685361,23.033873387339,1857004.4104334,-528.44431877481,2586215.752552,28.233873387339,0,0
86.696001428431,-18.703722812418,23.038303830383,1857004.4104334,-528.44431877481,2586215.752552,28.238303830383,0,0
86.696001607747,-18.705775939476,23.042734273427,1857004.4104334,-528.44431877481,2586215.752552,28.242734273427,0,0
86.696001787063,-18.707829066534,23.047164716472,1857004.4104334,-528.44431877481,2586215.752552,28.247164716472,0,0
86.696001966379,-18.709882193592,23.051595159516,1857004.4104334,-528.44431877481,2586215.752552,28.251595159516,0,0
86.696002145694,-18.711935320649,23.05602560256,1857004.4104334,-528.44431877481,2586215.752552,28.25602560256,0,0
86.69600232501,-18.713988447707,23.060456045605,1857004.4104334,-528.44431877481,2586215.752552,28.260456045605,0,0
86.696002504326,-18.716041574765,23.064886488649,1857004.4104334,-528.44431877481,2586215.752552,28.264886488649,0,0
86.696002683641,-18.718094701823,23.069316931693,1857004.4104334,-528.44431877481,2586215.752552,28.269316931693,0,0
86.696002862957,-18.72014782888,23.073747374737,1857004.4104334,-528.44431877481,2586215.752552,28.273747374737,0,0
86.696003042273,-18.722200955938,23.078177817782,1857004.4104334,-528.44431877481,2586215.752552,28.278177817782,0,0
86.696003221589,-18.724254082996,23.082608260826,1857004.4104334,-528.44431877481,2586215.752552,28.282608260826,0,0
86.696003400904,-18.726307210053,23.08703870387,1857004.4104334,-528.44431877481,2586215.752552,28.28703870387,0,0
86.69600358022,-18.728360337111,23.091469146915,1857004.4104334,-528.44431877481,2586215.752552,28.291469146915,0,0
86.696003759536,-18.730413464169,23.095899589959,1857004.4104334,-528.44431877481,2586215.752552,28.295899589959,0,0
86.696003938852,-18.732466591227,23.100330033003,1857004.4104334,-528.44431877481,2586215.752552,28.300330033003,0,0
86.696004118167,-18.734519718284,23.104760476048,1857004.4104334,-528.44431877481,2586215.752552,28.304760476048,0,0
86.696004297483,-18.736572845342,23.109190919092,1857004.4104334,-528.44431877481,2586215.752552,28.309190919092,0,0
86.696004476799,-18.7386259724,23.113621362136,1857004.4104334,-528.44431877481,2586215.752552,28.313621362136,0,0
86.696004656114,-18.740679099458,23.118051805181,1857004.4104334,-528.44431877481,2586215.752552,28.318051805181,0,0
86.69600483543,-18.742732226515,23.122482248225,1857004.4104334,-528.44431877481,2586215.752552,28.322482248225,0,0
86.696005014746,-18.744785353573,23.126912691269,1857004.4104334,-528.44431877481,2586215.752552,28.326912691269,0,0
86.696005194062,-18.746838480631,23.131343134313,1857004.4104334,-528.44431877481,2586215.752552,28.331343134313,0,0
86.696005373377,-18.748891607688,23.135773577358,1857004.4104334,-528.44431877481,2586215.752552,28.335773577358,0,0
86.696005552693,-18.750944734746,23.140204020402,1857004.4104334,-528.44431877481,2586215.752552,28.340204020402,0,0
86.696005732009,-18.752997861804,23.144634463446,1857004.4104334,-528.44431877481,2586215.752552,28.344634463446,0,0
86.696005911325,-18.755050988862,23.149064906491,1857004.4104334,-528.44431877481,2586215.752552,28.349064906491,0,0
86.69600609064,-18.757104115919,23.153495349535,1857004.4104334,-528.44431877481,2586215.752552,28.353495349535,0,0
86.696006269956,-18.759157242977,23.157925792579,1857004.4104334,-528.44431877481,2586215.752552,28.357925792579,0,0
86.696006449272,-18.761210370035,23.162356235624,1857004.4104334,-528.44431877481,2586215.752552,28.362356235624,0,0
86.696006628587,-18.763263497093,23.166786678668,1857004.4104334,-528.44431877481,2586215.752552,28.366786678668,0,0
86.696006807903,-18.76531662415,23.171217121712,1857004.4104334,-528.44431877481,2586215.752552,28.371217121712,0,0
86.696006987219,-18.767369751208,23.175647564756,1857004.4104334,-528.44431877481,2586215.752552,28.375647564756,0,0
86.696007166535,-18.769422878266,23.180078007801,1857004.4104334,-528.44431877481,2586215.752552,28.380078007801,0,0
86.69600734585,-18.771476005323,23.184508450845,1857004.4104334,-528.44431877481,2586215.752552,28.384508450845,0,0
86.696007525166,-18.773529132381,23.188938893889,1857004.4104334,-528.44431877481,2586215.752552,28.388938893889,0,0
86.696007704482,-18.775582259439,23.193369336934,1857004.4104334,-528.44431877481,2586215.752552,28.393369336934,0,0
86.696007883797,-18.777635386497,23.197799779978,1857004.4104334,-528.44431877481,2586215.752552,28.397799779978,0,0
86.696008063113,-18.779688513554,23.202230223022,1857004.4104334,-528.44431877481,2586215.752552,28.402230223022,0,0
86.696008242429,-18.781741640612,23.206660666067,1857004.4104334,-528.44431877481,2586215.752552,28.406660666067,0,0
86.696008421745,-18.78379476767,23.211091109111,1857004.4104334,-528.44431877481,2586215.752552,28.411091109111,0,0
86.69600860106,-18.785847894728,23.215521552155,1857004.4104334,-528.44431877481,2586215.752552,28.415521552155,0,0
86.696008780376,-18.787901021785,23.2199519952,1857004.4104334,-528.44431877481,2586215.752552,28.4199519952,0,0
86.696008959692,-18.789954148843,23.224382438244,1857004.4104334,-528.44431877481,2586215.752552,28.424382438244,0,0
86.696009139008,-18.792007275901,23.228812881288,1857004.4104334,-528.44431877481,2586215.752552,28.428812881288,0,0
86.696009318323,-18.794060402958,23.233243324332,1857004.4104334,-528.44431877481,2586215.752552,28.433243324332,0,0
86.696009497639,-18.796113530016,23.237673767377,1857004.4104334,-528.44431877481,2586215.752552,28.437673767377,0,0
86.696009676955,-18.798166657074,23.242104210421,1857004.4104334,-528.44431877481,2586215.752552,28.442104210421,0,0
86.69600985627,-18.800219784132,23.246534653465,1857004.4104334,-528.44431877481,2586215.752552,28.446534653465,0,0
86.696010035586,-18.802272911189,23.25096509651,1857004.4104334,-528.44431877481,2586215.752552,28.45096509651,0,0
86.696010214902,-18.804326038247,23.255395539554,1857004.4104334,-528.44431877481,2586215.752552,28.455395539554,0,0
86.696010394218,-18.806379165305,23.259825982598,1857004.4104334,-528.44431877481,2586215.752552,28.459825982598,0,0
86.696010573533,-18.808432292363,23.264256425643,1857004.4104334,-528.44431877481,2586215.752552,28.464256425643,0,0
86.696010752849,-18.81048541942,23.268686868687,1857004.4104334,-528.44431877481,2586215.752552,28.468686868687,0,0
86.696010932165,-18.812538546478,23.273117311731,1857004.4104334,-528.44431877481,2586215.752552,28.473117311731,0,0
86.696011111481,-18.814591673536,23.277547754775,1857004.4104334,-528.44431877481,2586215.752552,28.477547754775,0,0
86.696011290796,-18.816644800593,23.28197819782,1857004.4104334,-528.44431877481,2586215.752552,28.48197819782,0,0
86.696011470112,-18.818697927651,23.286408640864,1857004.4104334,-528.44431877481,2586215.752552,28.486408640864,0,0
86.696011649428,-18.820751054709,23.290839083908,1857004.4104334,-528.44431877481,2586215.752552,28.490839083908,0,0
86.696011828743,-18.822804181767,23.295269526953,1857004.4104334,-528.44431877481,2586215.752552,28.495269526953,0,0
86.696012008059,-18.824857308824,23.299699969997,1857004.4104334,-528.44431877481,2586215.752552,28.499699969997,0,0
86.696012187375,-18.826910435882,23.304130413041,1857004.4104334,-528.44431877481,2586215.752552,28.504130413041,0,0
86.696012366691,-18.82896356294,23.308560856086,1857004.4104334,-528.44431877481,2586215.752552,28.508560856086,0,0
86.696012546006,-18.831016689998,23.31299129913,1857004.4104334,-528.44431877481,2586215.752552,28.51299129913,0,0
86.696012725322,-18.833069817055,23.317421742174,1857004.4104334,-528.44431877481,2586215.752552,28.517421742174,0,0
86.696012904638,-18.835122944113,23.321852185219,1857004.4104334,-528.44431877481,2586215.752552,28.521852185219,0,0
86.696013083954,-18.837176071171,23.326282628263,1857004.4104334,-528.44431877481,2586215.752552,28.526282628263,0,0
86.696013263269,-18.839229198228,23.330713071307,1857004.4104334,-528.44431877481,2586215.752552,28.530713071307,0,0
86.696013442585,-18.841282325286,23.335143514351,1857004.4104334,-528.44431877481,2586215.752552,28.535143514351,0,0
86.696013621901,-18.843335452344,23.339573957396,1857004.4104334,-528.44431877481,2586215.752552,28.539573957396,0,0
86.696013801216,-18.845388579402,23.34400440044,1857004.4104334,-528.44431877481,2586215.752552,28.54400440044,0,0
86.696013980532,-18.847441706459,23.348434843484,1857004.4104334,-528.44431877481,2586215.752552,28.548434843484,0,0
86.696014159848,-18.849494833517,23.352865286529,1857004.4104334,-528.44431877481,2586215.752552,28.552865286529,0,0
86.696014339164,-18.851547960575,23.357295729573,1857004.4104334,-528.44431877481,2586215.752552,28.557295729573,0,0
86.696014518479,-18.853601087633,23.361726172617,1857004.4104334,-528.44431877481,2586215.752552,28.561726172617,0,0
86.696014697795,-18.85565421469,23.366156615662,1857004.4104334,-528.44431877481,2586215.752552,28.566156615662,0,0
86.696014877111,-18.857707341748,23.370587058706,1857004.4104334,-528.44431877481,2586215.752552,28.570587058706,0,0
86.696015056427,-18.859760468806,23.37501750175,1857004.4104334,-528.44431877481,2586215.752552,28.57501750175,0,0
86.696015235742,-18.861813595863,23.379447944794,1857004.4104334,-528.44431877481,2586215.752552,28.579447944794,0,0
86.696015415058,-18.863866722921,23.383878387839,1857004.4104334,-528.44431877481,2586215.752552,28.583878387839,0,0
86.696015594374,-18.865919849979,23.388308830883,1857004.4104334,-528.44431877481,2586215.752552,28.588308830883,0,0
86.696015773689,-18.867972977037,23.392739273927,1857004.4104334,-528.44431877481,2586215.752552,28.592739273927,0,0
86.696015953005,-18.870026104094,23.397169716972,1857004.4104334,-528.44431877481,2586215.752552,28.597169716972,0,0
86.696016132321,-18.872079231152,23.401600160016,1857004.4104334,-528.44431877481,2586215.752552,28.601600160016,0,0
86.696016311637,-18.87413235821,23.40603060306,1857004.4104334,-528.44431877481,2586215.752552,28.60603060306,0,0
86.696016490952,-18.876185485268,23.410461046105,1857004.4104334,-528.44431877481,2586215.752552,28.610461046105,0,0
86.696016670268,-18.878238612325,23.414891489149,1857004.4104334,-528.44431877481,2586215.752552,28.614891489149,0,0
86.696016849584,-18.880291739383,23.419321932193,1857004.4104334,-528.44431877481,2586215.752552,28.619321932193,0,0
86.696017028899,-18.882344866441,23.423752375238,1857004.4104334,-528.44431877481,2586215.752552,28.623752375238,0,0
86.696017208215,-18.884397993498,23.428182818282,1857004.4104334,-528.44431877481,2586215.752552,28.628182818282,0,0
86.696017387531,-18.886451120556,23.432613261326,1857004.4104334,-528.44431877481,2586215.752552,28.632613261326,0,0
86.696017566847,-18.888504247614,23.43704370437,1857004.4104334,-528.44431877481,2586215.752552,28.63704370437,0,0
86.696017746162,-18.890557374672,23.441474147415,1857004.4104334,-528.44431877481,2586215.752552,28.641474147415,0,0
86.696017925478,-18.892610501729,23.445904590459,1857004.4104334,-528.44431877481,2586215.752552,28.645904590459,0,0
86.696018104794,-18.894663628787,23.450335033503,1857004.4104334,-528.44431877481,2586215.752552,28.650335033503,0,0
86.69601828411,-18.896716755845,23.454765476548,1857004.4104334,-528.44431877481,2586215.752552,28.654765476548,0,0
86.696018463425,-18.898769882902,23.459195919592,1857004.4104334,-528.44431877481,2586215.752552,28.659195919592,0,0
86.696018642741,-18.90082300996,23.463626362636,1857004.4104334,-528.44431877481,2586215.752552,28.663626362636,0,0
86.696018822057,-18.902876137018,23.468056805681,1857004.4104334,-528.44431877481,2586215.752552,28.668056805681,0,0
86.696019001372,-18.904929264076,23.472487248725,1857004.4104334,-528.44431877481,2586215.752552,28.672487248725,0,0
86.696019180688,-18.906982391133,23.476917691769,1857004.4104334,-528.44431877481,2586215.752552,28.676917691769,0,0
86.696019360004,-18.909035518191,23.481348134813,1857004.4104334,-528.44431877481,2586215.752552,28.681348134813,0,0
86.69601953932,-18.911088645249,23.485778577858,1857004.4104334,-528.44431877481,2586215.752552,28.685778577858,0,0
86.696019718635,-18.913141772307,23.490209020902,1857004.4104334,-528.44431877481,2586215.752552,28.690209020902,0,0
86.696019897951,-18.915194899364,23.494639463946,1857004.4104334,-528.44431877481,2586215.752552,28.694639463946,0,0
86.696020077267,-18.917248026422,23.499069906991,1857004.4104334,-528.44431877481,2586215.752552,28.699069906991,0,0
86.696020256583,-18.91930115348,23.503500350035,1857004.4104334,-528.44431877481,2586215.752552,28.703500350035,0,0
86.696020435898,-18.921354280537,23.507930793079,1857004.4104334,-528.44431877481,2586215.752552,28.707930793079,0,0
86.696020615214,-18.923407407595,23.512361236124,1857004.4104334,-528.44431877481,2586215.752552,28.712361236124,0,0
86.69602079453,-18.925460534653,23.516791679168,1857004.4104334,-528.44431877481,2586215.752552,28.716791679168,0,0
86.696020973845,-18.927513661711,23.521222122212,1857004.4104334,-528.44431877481,2586215.752552,28.721222122212,0,0
86.696021153161,-18.929566788768,23.525652565257,1857004.4104334,-528.44431877481,2586215.752552,28.725652565257,0,0
86.696021332477,-18.931619915826,23.530083008301,1857004.4104334,-528.44431877481,2586215.752552,28.730083008301,0,0
86.696021511793,-18.933673042884,23.534513451345,1857004.4104334,-528.44431877481,2586215.752552,28.734513451345,0,0
86.696021691108,-18.935726169942,23.538943894389,1857004.4104334,-528.44431877481,2586215.752552,28.738943894389,0,0
86.696021870424,-18.937779296999,23.543374337434,1857004.4104334,-528.44431877481,2586215.752552,28.743374337434,0,0
86.69602204974,-18.939832424057,23.547804780478,1857004.4104334,-528.44431877481,2586215.752552,28.747804780478,0,0
86.696022229056,-18.941885551115,23.552235223522,1857004.4104334,-528.44431877481,2586215.752552,28.752235223522,0,0
86.696022408371,-18.943938678172,23.556665666567,1857004.4104334,-528.44431877481,2586215.752552,28.756665666567,0,0
86.696022587687,-18.94599180523,23.561096109611,1857004.4104334,-528.44431877481,2586215.752552,28.761096109611,0,0
86.696022767003,-18.948044932288,23.565526552655,1857004.4104334,-528.44431877481,2586215.752552,28.765526552655,0,0
86.696022946318,-18.950098059346,23.5699569957,1857004.4104334,-528.44431877481,2586215.752552,28.7699569957,0,0
86.696023125634,-18.952151186403,23.574387438744,1857004.4104334,-528.44431877481,2586215.752552,28.774387438744,0,0
86.69602330495,-18.954204313461,23.578817881788,1857004.4104334,-528.44431877481,2586215.752552,28.778817881788,0,0
86.696023484266,-18.956257440519,23.583248324832,1857004.4104334,-528.44431877481,2586215.752552,28.783248324832,0,0
86.696023663581,-18.958310567577,23.587678767877,1857004.4104334,-528.44431877481,2586215.752552,28.787678767877,0,0
86.696023842897,-18.960363694634,23.592109210921,1857004.4104334,-528.44431877481,2586215.752552,28.792109210921,0,0
86.696024022213,-18.962416821692,23.596539653965,1857004.4104334,-528.44431877481,2586215.752552,28.796539653965,0,0
86.696024201528,-18.96446994875,23.60097009701,1857004.4104334,-528.44431877481,2586215.752552,28.80097009701,0,0
86.696024380844,-18.966523075807,23.605400540054,1857004.4104334,-528.44431877481,2586215.752552,28.805400540054,0,0
86.69602456016,-18.968576202865,23.609830983098,1857004.4104334,-528.44431877481,2586215.752552,28.809830983098,0,0
86.696024739476,-18.970629329923,23.614261426143,1857004.4104334,-528.44431877481,2586215.752552,28.814261426143,0,0
86.696024918791,-18.972682456981,23.618691869187,1857004.4104334,-528.44431877481,2586215.752552,28.818691869187,0,0
86.696025098107,-18.974735584038,23.623122312231,1857004.4104334,-528.44431877481,2586215.752552,28.823122312231,0,0
86.696025277423,-18.976788711096,23.627552755276,1857004.4104334,-528.44431877481,2586215.752552,28.827552755276,0,0
86.696025456739,-18.978841838154,23.63198319832,1857004.4104334,-528.44431877481,2586215.752552,28.83198319832,0,0
86.696025636054,-18.980894965212,23.636413641364,1857004.4104334,-528.44431877481,2586215.752552,28.836413641364,0,0
86.69602581537,-18.982948092269,23.640844084408,1857004.4104334,-528.44431877481,2586215.752552,28.840844084408,0,0
86.696025994686,-18.985001219327,23.645274527453,1857004.4104334,-528.44431877481,2586215.752552,28.845274527453,0,0
86.696026174001,-18.987054346385,23.649704970497,1857004.4104334,-528.44431877481,2586215.752552,28.849704970497,0,0
86.696026353317,-18.989107473442,23.654135413541,1857004.4104334,-528.44431877481,2586215.752552,28.854135413541,0,0
86.696026532633,-18.9911606005,23.658565856586,1857004.4104334,-528.44431877481,2586215.752552,28.858565856586,0,0
86.696026711949,-18.993213727558,23.66299629963,1857004.4104334,-528.44431877481,2586215.752552,28.86299629963,0,0
86.696026891264,-18.995266854616,23.667426742674,1857004.4104334,-528.44431877481,2586215.752552,28.867426742674,0,0
86.69602707058,-18.997319981673,23.671857185719,1857004.4104334,-528.44431877481,2586215.752552,28.871857185719,0,0
86.696027249896,-18.999373108731,23.676287628763,1857004.4104334,-528.44431877481,2586215.752552,28.876287628763,0,0
86.696027429212,-19.001426235789,23.680718071807,1857004.4104334,-528.44431877481,2586215.752552,28.880718071807,0,0
86.696027608527,-19.003479362847,23.685148514851,1857004.4104334,-528.44431877481,2586215.752552,28.885148514851,0,0
86.696027787843,-19.005532489904,23.689578957896,1857004.4104334,-528.44431877481,2586215.752552,28.889578957896,0,0
86.696027967159,-19.007585616962,23.69400940094,1857004.4104334,-528.44431877481,2586215.752552,28.89400940094,0,0
86.696028146474,-19.00963874402,23.698439843984,1857004.4104334,-528.44431877481,2586215.752552,28.898439843984,0,0
86.69602832579,-19.011691871077,23.702870287029,1857004.4104334,-528.44431877481,2586215.752552,28.902870287029,0,0
86.696028505106,-19.013744998135,23.707300730073,1857004.4104334,-528.44431877481,2586215.752552,28.907300730073,0,0
86.696028684422,-19.015798125193,23.711731173117,1857004.4104334,-528.44431877481,2586215.752552,28.911731173117,0,0
86.696028863737,-19.017851252251,23.716161616162,1857004.4104334,-528.44431877481,2586215.752552,28.916161616162,0,0
86.696029043053,-19.019904379308,23.720592059206,1857004.4104334,-528.44431877481,2586215.752552,28.920592059206,0,0
86.696029222369,-19.021957506366,23.72502250225,1857004.4104334,-528.44431877481,2586215.752552,28.92502250225,0,0
86.696029401685,-19.024010633424,23.729452945295,1857004.4104334,-528.44431877481,2586215.752552,28.929452945295,0,0
86.696029581,-19.026063760482,23.733883388339,1857004.4104334,-528.44431877481,2586215.752552,28.933883388339,0,0
86.696029760316,-19.028116887539,23.738313831383,1857004.4104334,-528.44431877481,2586215.752552,28.938313831383,0,0
86.696029939632,-19.030170014597,23.742744274427,1857004.4104334,-528.44431877481,2586215.752552,28.942744274427,0,0
86.696030118947,-19.032223141655,23.747174717472,1857004.4104334,-528.44431877481,2586215.752552,28.947174717472,0,0
86.696030298263,-19.034276268712,23.751605160516,1857004.4104334,-528.44431877481,2586215.752552,28.951605160516,0,0
86.696030477579,-19.03632939577,23.75603560356,1857004.4104334,-528.44431877481,2586215.752552,28.95603560356,0,0
86.696030656895,-19.038382522828,23.760466046605,1857004.4104334,-528.44431877481,2586215.752552,28.960466046605,0,0
86.69603083621,-19.040435649886,23.764896489649,1857004.4104334,-528.44431877481,2586215.752552,28.964896489649,0,0
86.696031015526,-19.042488776943,23.769326932693,1857004.4104334,-528.44431877481,2586215.752552,28.969326932693,0,0
86.696031194842,-19.044541904001,23.773757375738,1857004.4104334,-528.44431877481,2586215.752552,28.973757375738,0,0
86.696031374157,-19.046595031059,23.778187818782,1857004.4104334,-528.44431877481,2586215.752552,28.978187818782,0,0
86.696031553473,-19.048648158117,23.782618261826,1857004.4104334,-528.44431877481,2586215.752552,28.982618261826,0,0
86.696031732789,-19.050701285174,23.78704870487,1857004.4104334,-528.44431877481,2586215.752552,28.98704870487,0,0
86.696031912105,-19.052754412232,23.791479147915,1857004.4104334,-528.44431877481,2586215.752552,28.991479147915,0,0
86.69603209142,-19.05480753929,23.795909590959,1857004.4104334,-528.44431877481,2586215.752552,28.995909590959,0,0
86.696032270736,-19.056860666347,23.800340034003,1857004.4104334,-528.44431877481,2586215.752552,29.000340034003,0,0
86.696032450052,-19.058913793405,23.804770477048,1857004.4104334,-528.44431877481,2586215.752552,29.004770477048,0,0
86.696032629368,-19.060966920463,23.809200920092,1857004.4104334,-528.44431877481,2586215.752552,29.009200920092,0,0
86.696032808683,-19.063020047521,23.813631363136,1857004.4104334,-528.44431877481,2586215.752552,29.013631363136,0,0
86.696032987999,-19.065073174578,23.818061806181,1857004.4104334,-528.44431877481,2586215.752552,29.018061806181,0,0
86.696033167315,-19.067126301636,23.822492249225,1857004.4104334,-528.44431877481,2586215.752552,29.022492249225,0,0
86.69603334663,-19.069179428694,23.826922692269,1857004.4104334,-528.44431877481,2586215.752552,29.026922692269,0,0
86.696033525946,-19.071232555752,23.831353135314,1857004.4104334,-528.44431877481,2586215.752552,29.031353135314,0,0
86.696033705262,-19.073285682809,23.835783578358,1857004.4104334,-528.44431877481,2586215.752552,29.035783578358,0,0
86.696033884578,-19.075338809867,23.840214021402,1857004.4104334,-528.44431877481,2586215.752552,29.040214021402,0,0
86.696034063893,-19.077391936925,23.844644464446,1857004.4104334,-528.44431877481,2586215.752552,29.044644464446,0,0
86.696034243209,-19.079445063982,23.849074907491,1857004.4104334,-528.44431877481,2586215.752552,29.049074907491,0,0
86.696034422525,-19.08149819104,23.853505350535,1857004.4104334,-528.44431877481,2586215.752552,29.053505350535,0,0
86.696034601841,-19.083551318098,23.857935793579,1857004.4104334,-528.44431877481,2586215.752552,29.057935793579,0,0
86.696034781156,-19.085604445156,23.862366236624,1857004.4104334,-528.44431877481,2586215.752552,29.062366236624,0,0
86.696034960472,-19.087657572213,23.866796679668,1857004.4104334,-528.44431877481,2586215.752552,29.066796679668,0,0
86.696035139788,-19.089710699271,23.871227122712,1857004.4104334,-528.44431877481,2586215.752552,29.071227122712,0,0
86.696035319103,-19.091763826329,23.875657565757,1857004.4104334,-528.44431877481,2586215.752552,29.075657565757,0,0
86.696035498419,-19.093816953387,23.880088008801,1857004.4104334,-528.44431877481,2586215.752552,29.080088008801,0,0
86.696035677735,-19.095870080444,23.884518451845,1857004.4104334,-528.44431877482,2586215.752552,29.084518451845,0,0
86.696035857051,-19.097923207502,23.888948894889,1857004.4104334,-528.44431877482,2586215.752552,29.088948894889,0,0
86.696036036366,-19.09997633456,23.893379337934,1857004.4104334,-528.44431877482,2586215.752552,29.093379337934,0,0
86.696036215682,-19.102029461617,23.897809780978,1857004.4104334,-528.44431877482,2586215.752552,29.097809780978,0,0
86.696036394998,-19.104082588675,23.902240224022,1857004.4104334,-528.44431877482,2586215.752552,29.102240224022,0,0
86.696036574313,-19.106135715733,23.906670667067,1857004.4104334,-528.44431877482,2586215.752552,29.106670667067,0,0
86.696036753629,-19.108188842791,23.911101110111,1857004.4104334,-528.44431877482,2586215.752552,29.111101110111,0,0
86.696036932945,-19.110241969848,23.915531553155,1857004.4104334,-528.44431877482,2586215.752552,29.115531553155,0,0
86.696037112261,-19.112295096906,23.9199619962,1857004.4104334,-528.44431877482,2586215.752552,29.1199619962,0,0
86.696037291576,-19.114348223964,23.924392439244,1857004.4104334,-528.44431877482,2586215.752552,29.124392439244,0,0
86.696037470892,-19.116401351021,23.928822882288,1857004.4104334,-528.44431877482,2586215.752552,29.128822882288,0,0
86.696037650208,-19.118454478079,23.933253325333,1857004.4104334,-528.44431877482,2586215.752552,29.133253325333,0,0
86.696037829524,-19.120507605137,23.937683768377,1857004.4104334,-528.44431877482,2586215.752552,29.137683768377,0,0
86.696038008839,-19.122560732195,23.942114211421,1857004.4104334,-528.44431877482,2586215.752552,29.142114211421,0,0
86.696038188155,-19.124613859252,23.946544654465,1857004.4104334,-528.44431877482,2586215.752552,29.146544654465,0,0
86.696038367471,-19.12666698631,23.95097509751,1857004.4104334,-528.44431877482,2586215.752552,29.15097509751,0,0
86.696038546786,-19.128720113368,23.955405540554,1857004.4104334,-528.44431877482,2586215.752552,29.155405540554,0,0
86.696038726102,-19.130773240426,23.959835983598,1857004.4104334,-528.44431877482,2586215.752552,29.159835983598,0,0
86.696038905418,-19.132826367483,23.964266426643,1857004.4104334,-528.44431877482,2586215.752552,29.164266426643,0,0
86.696039084734,-19.134879494541,23.968696869687,1857004.4104334,-528.44431877482,2586215.752552,29.168696869687,0,0
86.696039264049,-19.136932621599,23.973127312731,1857004.4104334,-528.44431877482,2586215.752552,29.173127312731,0,0
86.696039443365,-19.138985748656,23.977557755776,1857004.4104334,-528.44431877482,2586215.752552,29.177557755776,0,0
86.696039622681,-19.141038875714,23.98198819882,1857004.4104334,-528.44431877482,2586215.752552,29.18198819882,0,0
86.696039801997,-19.143092002772,23.986418641864,1857004.4104334,-528.44431877482,2586215.752552,29.186418641864,0,0
86.696039981312,-19.14514512983,23.990849084908,1857004.4104334,-528.44431877482,2586215.752552,29.190849084908,0,0
86.696040160628,-19.147198256887,23.995279527953,1857004.4104334,-528.44431877482,2586215.752552,29.195279527953,0,0
86.696040339944,-19.149251383945,23.999709970997,1857004.4104334,-528.44431877482,2586215.752552,29.199709970997,0,0
86.696040519259,-19.151304511003,24.004140414041,1857004.4104334,-528.44431877482,2586215.752552,29.204140414041,0,0
86.696040698575,-19.153357638061,24.008570857086,1857004.4104334,-528.44431877482,2586215.752552,29.208570857086,0,0
86.696040877891,-19.155410765118,24.01300130013,1857004.4104334,-528.44431877482,2586215.752552,29.21300130013,0,0
86.696041057207,-19.157463892176,24.017431743174,1857004.4104334,-528.44431877482,2586215.752552,29.217431743174,0,0
86.696041236522,-19.159517019234,24.021862186219,1857004.4104334,-528.44431877482,2586215.752552,29.221862186219,0,0
86.696041415838,-19.161570146291,24.026292629263,1857004.4104334,-528.44431877482,2586215.752552,29.226292629263,0,0
86.696041595154,-19.163623273349,24.030723072307,1857004.4104334,-528.44431877482,2586215.752552,29.230723072307,0,0
86.69604177447,-19.165676400407,24.035153515352,1857004.4104334,-528.44431877482,2586215.752552,29.235153515352,0,0
86.696041953785,-19.167729527465,24.039583958396,1857004.4104334,-528.44431877482,2586215.752552,29.239583958396,0,0
86.696042133101,-19.169782654522,24.04401440144,1857004.4104334,-528.44431877482,2586215.752552,29.24401440144,0,0
86.696042312417,-19.17183578158,24.048444844484,1857004.4104334,-528.44431877482,2586215.752552,29.248444844484,0,0
86.696042491732,-19.173888908638,24.052875287529,1857004.4104334,-528.44431877482,2586215.752552,29.252875287529,0,0
86.696042671048,-19.175942035696,24.057305730573,1857004.4104334,-528.44431877482,2586215.752552,29.257305730573,0,0
86.696042850364,-19.177995162753,24.061736173617,1857004.4104334,-528.44431877482,2586215.752552,29.261736173617,0,0
86.69604302968,-19.180048289811,24.066166616662,1857004.4104334,-528.44431877482,2586215.752552,29.266166616662,0,0
86.696043208995,-19.182101416869,24.070597059706,1857004.4104334,-528.44431877482,2586215.7525521,29.270597059706,0,0
86.696043388311,-19.184154543926,24.07502750275,1857004.4104334,-528.44431877482,2586215.7525521,29.27502750275,0,0
86.696043567627,-19.186207670984,24.079457945795,1857004.4104334,-528.44431877482,2586215.7525521,29.279457945795,0,0
86.696043746943,-19.188260798042,24.083888388839,1857004.4104334,-528.44431877482,2586215.7525521,29.283888388839,0,0
86.696043926258,-19.1903139251,24.088318831883,1857004.4104334,-528.44431877482,2586215.7525521,29.288318831883,0,0
86.696044105574,-19.192367052157,24.092749274927,1857004.4104334,-528.44431877482,2586215.7525521,29.292749274927,0,0
86.69604428489,-19.194420179215,24.097179717972,1857004.4104334,-528.44431877482,2586215.7525521,29.297179717972,0,0
86.696044464205,-19.196473306273,24.101610161016,1857004.4104334,-528.44431877482,2586215.7525521,29.301610161016,0,0
86.696044643521,-19.198526433331,24.10604060406,1857004.4104334,-528.44431877482,2586215.7525521,29.30604060406,0,0
86.696044822837,-19.200579560388,24.110471047105,1857004.4104334,-528.44431877482,2586215.7525521,29.310471047105,0,0
86.696045002153,-19.202632687446,24.114901490149,1857004.4104334,-528.44431877482,2586215.7525521,29.314901490149,0,0
86.696045181468,-19.204685814504,24.119331933193,1857004.4104334,-528.44431877482,2586215.7525521,29.319331933193,0,0
86.696045360784,-19.206738941561,24.123762376238,1857004.4104334,-528.44431877482,2586215.7525521,29.323762376238,0,0
86.6960455401,-19.208792068619,24.128192819282,1857004.4104334,-528.44431877482,2586215.7525521,29.328192819282,0,0
86.696045719415,-19.210845195677,24.132623262326,1857004.4104334,-528.44431877482,2586215.7525521,29.332623262326,0,0
86.696045898731,-19.212898322735,24.137053705371,1857004.4104334,-528.44431877482,2586215.7525521,29.337053705371,0,0
86.696046078047,-19.214951449792,24.141484148415,1857004.4104334,-528.44431877482,2586215.7525521,29.341484148415,0,0
86.696046257363,-19.21700457685,24.145914591459,1857004.4104334,-528.44431877482,2586215.7525521,29.345914591459,0,0
86.696046436678,-19.219057703908,24.150345034503,1857004.4104334,-528.44431877482,2586215.7525521,29.350345034503,0,0
86.696046615994,-19.221110830966,24.154775477548,1857004.4104334,-528.44431877482,2586215.7525521,29.354775477548,0,0
86.69604679531,-19.223163958023,24.159205920592,1857004.4104334,-528.44431877482,2586215.7525521,29.359205920592,0,0
86.696046974626,-19.225217085081,24.163636363636,1857004.4104334,-528.44431877482,2586215.7525521,29.363636363636,0,0
86.696047153941,-19.227270212139,24.168066806681,1857004.4104334,-528.44431877482,2586215.7525521,29.368066806681,0,0
86.696047333257,-19.229323339196,24.172497249725,1857004.4104334,-528.44431877482,2586215.7525521,29.372497249725,0,0
86.696047512573,-19.231376466254,24.176927692769,1857004.4104334,-528.44431877482,2586215.7525521,29.376927692769,0,0
86.696047691888,-19.233429593312,24.181358135814,1857004.4104334,-528.44431877482,2586215.7525521,29.381358135814,0,0
86.696047871204,-19.23548272037,24.185788578858,1857004.4104334,-528.44431877482,2586215.7525521,29.385788578858,0,0
86.69604805052,-19.237535847427,24.190219021902,1857004.4104334,-528.44431877482,2586215.7525521,29.390219021902,0,0
86.696048229836,-19.239588974485,24.194649464946,1857004.4104334,-528.44431877482,2586215.7525521,29.394649464946,0,0
86.696048409151,-19.241642101543,24.199079907991,1857004.4104334,-528.44431877482,2586215.7525521,29.399079907991,0,0
86.696048588467,-19.243695228601,24.203510351035,1857004.4104334,-528.44431877482,2586215.7525521,29.403510351035,0,0
86.696048767783,-19.245748355658,24.207940794079,1857004.4104334,-528.44431877482,2586215.7525521,29.407940794079,0,0
86.696048947099,-19.247801482716,24.212371237124,1857004.4104334,-528.44431877482,2586215.7525521,29.412371237124,0,0
86.696049126414,-19.249854609774,24.216801680168,1857004.4104334,-528.44431877482,2586215.7525521,29.416801680168,0,0
86.69604930573,-19.251907736831,24.221232123212,1857004.4104334,-528.44431877482,2586215.7525521,29.421232123212,0,0
86.696049485046,-19.253960863889,24.225662566257,1857004.4104334,-528.44431877482,2586215.7525521,29.425662566257,0,0
86.696049664361,-19.256013990947,24.230093009301,1857004.4104334,-528.44431877482,2586215.7525521,29.430093009301,0,0
86.696049843677,-19.258067118005,24.234523452345,1857004.4104334,-528.44431877482,2586215.7525521,29.434523452345,0,0
86.696050022993,-19.260120245062,24.23895389539,1857004.4104334,-528.44431877482,2586215.7525521,29.43895389539,0,0
86.696050202309,-19.26217337212,24.243384338434,1857004.4104334,-528.44431877482,2586215.7525521,29.443384338434,0,0
86.696050381624,-19.264226499178,24.247814781478,1857004.4104334,-528.44431877482,2586215.7525521,29.447814781478,0,0
86.69605056094,-19.266279626236,24.252245224522,1857004.4104334,-528.44431877482,2586215.7525521,29.452245224522,0,0
86.696050740256,-19.268332753293,24.256675667567,1857004.4104334,-528.44431877482,2586215.7525521,29.456675667567,0,0
86.696050919572,-19.270385880351,24.261106110611,1857004.4104334,-528.44431877482,2586215.7525521,29.461106110611,0,0
86.696051098887,-19.272439007409,24.265536553655,1857004.4104334,-528.44431877482,2586215.7525521,29.465536553655,0,0
86.696051278203,-19.274492134466,24.2699669967,1857004.4104334,-528.44431877482,2586215.7525521,29.4699669967,0,0
86.696051457519,-19.276545261524,24.274397439744,1857004.4104334,-528.44431877482,2586215.7525521,29.474397439744,0,0
86.696051636834,-19.278598388582,24.278827882788,1857004.4104334,-528.44431877482,2586215.7525521,29.478827882788,0,0
86.69605181615,-19.28065151564,24.283258325833,1857004.4104334,-528.44431877482,2586215.7525521,29.483258325833,0,0
86.696051995466,-19.282704642697,24.287688768877,1857004.4104334,-528.44431877482,2586215.7525521,29.487688768877,0,0
86.696052174782,-19.284757769755,24.292119211921,1857004.4104334,-528.44431877482,2586215.7525521,29.492119211921,0,0
86.696052354097,-19.286810896813,24.296549654965,1857004.4104334,-528.44431877482,2586215.7525521,29.496549654965,0,0
86.696052533413,-19.28886402387,24.30098009801,1857004.4104334,-528.44431877482,2586215.7525521,29.50098009801,0,0
86.696052712729,-19.290917150928,24.305410541054,1857004.4104334,-528.44431877482,2586215.7525521,29.505410541054,0,0
86.696052892044,-19.292970277986,24.309840984098,1857004.4104334,-528.44431877482,2586215.7525521,29.509840984098,0,0
86.69605307136,-19.295023405044,24.314271427143,1857004.4104334,-528.44431877482,2586215.7525521,29.514271427143,0,0
86.696053250676,-19.297076532101,24.318701870187,1857004.4104334,-528.44431877482,2586215.7525521,29.518701870187,0,0
86.696053430086,-19.299129658961,24.323132313231,1859976.782259,1971.4854789753,2582191.5870634,29.523132313231,0,0
86.696053609746,-19.301182785296,24.327562756276,1859976.782259,1971.4854789753,2582191.5870634,29.527562756276,0,0
86.696053789406,-19.30323591163,24.33199319932,1859976.782259,1971.4854789753,2582191.5870634,29.53199319932,0,0
86.696053969067,-19.305289037965,24.336423642364,1859976.782259,1971.4854789753,2582191.5870634,29.536423642364,0,0
86.696054148727,-19.307342164299,24.340854085409,1859976.782259,1971.4854789753,2582191.5870634,29.540854085409,0,0
86.696054328387,-19.309395290633,24.345284528453,1859976.782259,1971.4854789753,2582191.5870634,29.545284528453,0,0
86.696054508048,-19.311448416968,24.349714971497,1859976.782259,1971.4854789753,2582191.5870634,29.549714971497,0,0
86.696054687708,-19.313501543302,24.354145414541,1859976.782259,1971.4854789753,2582191.5870634,29.554145414541,0,0
86.696054867368,-19.315554669637,24.358575857586,1859976.782259,1971.4854789753,2582191.5870634,29.558575857586,0,0
86.696055047028,-19.317607795971,24.36300630063,1859976.782259,1971.4854789753,2582191.5870634,29.56300630063,0,0
86.696055226689,-19.319660922306,24.367436743674,1859976.782259,1971.4854789753,2582191.5870634,29.567436743674,0,0
86.696055406349,-19.32171404864,24.371867186719,1859976.782259,1971.4854789753,2582191.5870634,29.571867186719,0,0
86.696055586009,-19.323767174974,24.376297629763,1859976.782259,1971.4854789753,2582191.5870634,29.576297629763,0,0
86.69605576567,-19.325820301309,24.380728072807,1859976.782259,1971.4854789753,2582191.5870634,29.580728072807,0,0
86.69605594533,-19.327873427643,24.385158515852,1859976.782259,1971.4854789753,2582191.5870634,29.585158515852,0,0
86.69605612499,-19.329926553978,24.389588958896,1859976.782259,1971.4854789753,2582191.5870634,29.589588958896,0,0
86.696056304651,-19.331979680312,24.39401940194,1859976.782259,1971.4854789753,2582191.5870634,29.59401940194,0,0
86.696056484311,-19.334032806646,24.398449844984,1859976.782259,1971.4854789753,2582191.5870634,29.598449844984,0,0
86.696056663971,-19.336085932981,24.402880288029,1859976.782259,1971.4854789753,2582191.5870634,29.602880288029,0,0
86.696056843631,-19.338139059315,24.407310731073,1859976.782259,1971.4854789753,2582191.5870634,29.607310731073,0,0
86.696057023292,-19.34019218565,24.411741174117,1859976.782259,1971.4854789753,2582191.5870634,29.611741174117,0,0
86.696057202952,-19.342245311984,24.416171617162,1859976.782259,1971.4854789753,2582191.5870634,29.616171617162,0,0
86.696057382612,-19.344298438318,24.420602060206,1859976.782259,1971.4854789753,2582191.5870634,29.620602060206,0,0
86.696057562273,-19.346351564653,24.42503250325,1859976.782259,1971.4854789753,2582191.5870634,29.62503250325,0,0
86.696057741933,-19.348404690987,24.429462946295,1859976.782259,1971.4854789753,2582191.5870634,29.629462946295,0,0
86.696057921593,-19.350457817322,24.433893389339,1859976.782259,1971.4854789753,2582191.5870634,29.633893389339,0,0
86.696058101253,-19.352510943656,24.438323832383,1859976.782259,1971.4854789753,2582191.5870634,29.638323832383,0,0
86.696058280914,-19.354564069991,24.442754275428,1859976.782259,1971.4854789753,2582191.5870634,29.642754275428,0,0
86.696058460574,-19.356617196325,24.447184718472,1859976.782259,1971.4854789753,2582191.5870634,29.647184718472,0,0
86.696058640234,-19.358670322659,24.451615161516,1859976.782259,1971.4854789753,2582191.5870634,29.651615161516,0,0
86.696058819895,-19.360723448994,24.45604560456,1859976.782259,1971.4854789753,2582191.5870634,29.65604560456,0,0
86.696058999555,-19.362776575328,24.460476047605,1859976.782259,1971.4854789753,2582191.5870634,29.660476047605,0,0
86.696059179215,-19.364829701663,24.464906490649,1859976.782259,1971.4854789753,2582191.5870634,29.664906490649,0,0
86.696059358875,-19.366882827997,24.469336933693,1859976.782259,1971.4854789753,2582191.5870634,29.669336933693,0,0
86.696059538536,-19.368935954331,24.473767376738,1859976.782259,1971.4854789753,2582191.5870634,29.673767376738,0,0
86.696059718196,-19.370989080666,24.478197819782,1859976.782259,1971.4854789753,2582191.5870634,29.678197819782,0,0
86.696059897856,-19.373042207,24.482628262826,1859976.782259,1971.4854789753,2582191.5870634,29.682628262826,0,0
86.696060077517,-19.375095333335,24.487058705871,1859976.782259,1971.4854789753,2582191.5870634,29.687058705871,0,0
86.696060257177,-19.377148459669,24.491489148915,1859976.782259,1971.4854789753,2582191.5870634,29.691489148915,0,0
86.696060436837,-19.379201586004,24.495919591959,1859976.782259,1971.4854789753,2582191.5870634,29.695919591959,0,0
86.696060616497,-19.381254712338,24.500350035003,1859976.782259,1971.4854789753,2582191.5870634,29.700350035003,0,0
86.696060796158,-19.383307838672,24.504780478048,1859976.782259,1971.4854789753,2582191.5870634,29.704780478048,0,0
86.696060975818,-19.385360965007,24.509210921092,1859976.782259,1971.4854789753,2582191.5870634,29.709210921092,0,0
86.696061155478,-19.387414091341,24.513641364136,1859976.782259,1971.4854789753,2582191.5870634,29.713641364136,0,0
86.696061335139,-19.389467217676,24.518071807181,1859976.782259,1971.4854789753,2582191.5870634,29.718071807181,0,0
86.696061514799,-19.39152034401,24.522502250225,1859976.782259,1971.4854789753,2582191.5870634,29.722502250225,0,0
86.696061694459,-19.393573470344,24.526932693269,1859976.782259,1971.4854789753,2582191.5870634,29.726932693269,0,0
86.696061874119,-19.395626596679,24.531363136314,1859976.782259,1971.4854789753,2582191.5870634,29.731363136314,0,0
86.69606205378,-19.397679723013,24.535793579358,1859976.782259,1971.4854789753,2582191.5870634,29.735793579358,0,0
86.69606223344,-19.399732849348,24.540224022402,1859976.782259,1971.4854789753,2582191.5870634,29.740224022402,0,0
86.6960624131,-19.401785975682,24.544654465447,1859976.782259,1971.4854789753,2582191.5870634,29.744654465447,0,0
86.696062592761,-19.403839102017,24.549084908491,1859976.782259,1971.4854789753,2582191.5870634,29.749084908491,0,0
86.696062772421,-19.405892228351,24.553515351535,1859976.782259,1971.4854789753,2582191.5870634,29.753515351535,0,0
86.696062952081,-19.407945354685,24.557945794579,1859976.782259,1971.4854789753,2582191.5870634,29.757945794579,0,0
86.696063131742,-19.40999848102,24.562376237624,1859976.782259,1971.4854789753,2582191.5870634,29.762376237624,0,0
86.696063311402,-19.412051607354,24.566806680668,1859976.782259,1971.4854789753,2582191.5870634,29.766806680668,0,0
86.696063491062,-19.414104733689,24.571237123712,1859976.782259,1971.4854789753,2582191.5870634,29.771237123712,0,0
86.696063670722,-19.416157860023,24.575667566757,1859976.782259,1971.4854789753,2582191.5870634,29.775667566757,0,0
86.696063850383,-19.418210986357,24.580098009801,1859976.782259,1971.4854789753,2582191.5870634,29.780098009801,0,0
86.696064030043,-19.420264112692,24.584528452845,1859976.782259,1971.4854789753,2582191.5870634,29.784528452845,0,0
86.696064209703,-19.422317239026,24.58895889589,1859976.782259,1971.4854789753,2582191.5870634,29.78895889589,0,0
86.696064389364,-19.424370365361,24.593389338934,1859976.782259,1971.4854789753,2582191.5870634,29.793389338934,0,0
86.696064569024,-19.426423491695,24.597819781978,1859976.782259,1971.4854789753,2582191.5870634,29.797819781978,0,0
86.696064748684,-19.428476618029,24.602250225022,1859976.782259,1971.4854789753,2582191.5870634,29.802250225022,0,0
86.696064928344,-19.430529744364,24.606680668067,1859976.782259,1971.4854789753,2582191.5870634,29.806680668067,0,0
86.696065108005,-19.432582870698,24.611111111111,1859976.782259,1971.4854789753,2582191.5870634,29.811111111111,0,0
86.696065287665,-19.434635997033,24.615541554155,1859976.782259,1971.4854789753,2582191.5870634,29.815541554155,0,0
86.696065467325,-19.436689123367,24.6199719972,1859976.782259,1971.4854789753,2582191.5870634,29.8199719972,0,0
86.696065646986,-19.438742249702,24.624402440244,1859976.782259,1971.4854789753,2582191.5870634,29.824402440244,0,0
86.696065826646,-19.440795376036,24.628832883288,1859976.782259,1971.4854789753,2582191.5870634,29.828832883288,0,0
86.696066006306,-19.44284850237,24.633263326333,1859976.782259,1971.4854789753,2582191.5870634,29.833263326333,0,0
86.696066185966,-19.444901628705,24.637693769377,1859976.782259,1971.4854789753,2582191.5870634,29.837693769377,0,0
86.696066365627,-19.446954755039,24.642124212421,1859976.782259,1971.4854789753,2582191.5870634,29.842124212421,0,0
86.696066545287,-19.449007881374,24.646554655466,1859976.782259,1971.4854789753,2582191.5870634,29.846554655466,0,0
86.696066724947,-19.451061007708,24.65098509851,1859976.782259,1971.4854789753,2582191.5870634,29.85098509851,0,0
86.696066904608,-19.453114134042,24.655415541554,1859976.782259,1971.4854789753,2582191.5870634,29.855415541554,0,0
86.696067084268,-19.455167260377,24.659845984598,1859976.782259,1971.4854789753,2582191.5870634,29.859845984598,0,0
86.696067263928,-19.457220386711,24.664276427643,1859976.782259,1971.4854789753,2582191.5870634,29.864276427643,0,0
86.696067443588,-19.459273513046,24.668706870687,1859976.782259,1971.4854789753,2582191.5870634,29.868706870687,0,0
86.696067623249,-19.46132663938,24.673137313731,1859976.782259,1971.4854789753,2582191.5870634,29.873137313731,0,0
86.696067802909,-19.463379765715,24.677567756776,1859976.782259,1971.4854789753,2582191.5870634,29.877567756776,0,0
86.696067982569,-19.465432892049,24.68199819982,1859976.782259,1971.4854789753,2582191.5870634,29.88199819982,0,0
86.69606816223,-19.467486018383,24.686428642864,1859976.782259,1971.4854789753,2582191.5870634,29.886428642864,0,0
86.69606834189,-19.469539144718,24.690859085909,1859976.782259,1971.4854789753,2582191.5870634,29.890859085909,0,0
86.69606852155,-19.471592271052,24.695289528953,1859976.782259,1971.4854789753,2582191.5870634,29.895289528953,0,0
86.696068701211,-19.473645397387,24.699719971997,1859976.782259,1971.4854789753,2582191.5870634,29.899719971997,0,0
86.696068880871,-19.475698523721,24.704150415042,1859976.782259,1971.4854789753,2582191.5870634,29.904150415041,0,0
86.696069060531,-19.477751650055,24.708580858086,1859976.782259,1971.4854789753,2582191.5870634,29.908580858086,0,0
86.696069240191,-19.47980477639,24.71301130113,1859976.782259,1971.4854789753,2582191.5870634,29.91301130113,0,0
86.696069419852,-19.481857902724,24.717441744174,1859976.782259,1971.4854789753,2582191.5870634,29.917441744174,0,0
86.696069599512,-19.483911029059,24.721872187219,1859976.782259,1971.4854789753,2582191.5870634,29.921872187219,0,0
86.696069779172,-19.485964155393,24.726302630263,1859976.782259,1971.4854789753,2582191.5870634,29.926302630263,0,0
86.696069958833,-19.488017281728,24.730733073307,1859976.782259,1971.4854789753,2582191.5870634,29.930733073307,0,0
86.696070138493,-19.490070408062,24.735163516352,1859976.782259,1971.4854789753,2582191.5870634,29.935163516352,0,0
86.696070318153,-19.492123534396,24.739593959396,1859976.782259,1971.4854789753,2582191.5870634,29.939593959396,0,0
86.696070497813,-19.494176660731,24.74402440244,1859976.782259,1971.4854789753,2582191.5870634,29.94402440244,0,0
86.696070677474,-19.496229787065,24.748454845485,1859976.782259,1971.4854789753,2582191.5870634,29.948454845485,0,0
86.696070857134,-19.4982829134,24.752885288529,1859976.782259,1971.4854789753,2582191.5870634,29.952885288529,0,0
86.696071036794,-19.500336039734,24.757315731573,1859976.782259,1971.4854789753,2582191.5870634,29.957315731573,0,0
86.696071216455,-19.502389166068,24.761746174617,1859976.782259,1971.4854789753,2582191.5870634,29.961746174617,0,0
86.696071396115,-19.504442292403,24.766176617662,1859976.782259,1971.4854789753,2582191.5870634,29.966176617662,0,0
86.696071575775,-19.506495418737,24.770607060706,1859976.782259,1971.4854789753,2582191.5870634,29.970607060706,0,0
86.696071755435,-19.508548545072,24.77503750375,1859976.782259,1971.4854789753,2582191.5870634,29.97503750375,0,0
86.696071935096,-19.510601671406,24.779467946795,1859976.782259,1971.4854789753,2582191.5870634,29.979467946795,0,0
86.696072114756,-19.51265479774,24.783898389839,1859976.782259,1971.4854789753,2582191.5870634,29.983898389839,0,0
86.696072294416,-19.514707924075,24.788328832883,1859976.782259,1971.4854789753,2582191.5870634,29.988328832883,0,0
86.696072474077,-19.516761050409,24.792759275928,1859976.782259,1971.4854789753,2582191.5870634,29.992759275928,0,0
86.696072653737,-19.518814176744,24.797189718972,1859976.782259,1971.4854789753,2582191.5870634,29.997189718972,0,0
86.696072833397,-19.520867303078,24.801620162016,1859976.782259,1971.4854789753,2582191.5870634,30.001620162016,0,0
86.696073013271,-19.522920429975,24.806050605061,1861804.2835453,-497.87594605284,2578202.1096927,30.006050605061,0,0
86.696073193183,-19.524973556974,24.810481048105,1861804.2835453,-497.87594605284,2578202.1096927,30.010481048105,0,0
86.696073373096,-19.527026683974,24.814911491149,1861804.2835453,-497.87594605284,2578202.1096927,30.014911491149,0,0
86.696073553008,-19.529079810974,24.819341934193,1861804.2835453,-497.87594605284,2578202.1096927,30.019341934193,0,0
86.69607373292,-19.531132937973,24.823772377238,1861804.2835453,-497.87594605284,2578202.1096927,30.023772377238,0,0
86.696073912833,-19.533186064973,24.828202820282,1861804.2835453,-497.87594605284,2578202.1096927,30.028202820282,0,0
86.696074092745,-19.535239191972,24.832633263326,1861804.2835453,-497.87594605284,2578202.1096927,30.032633263326,0,0
86.696074272658,-19.537292318972,24.837063706371,1861804.2835453,-497.87594605284,2578202.1096927,30.037063706371,0,0
86.69607445257,-19.539345445972,24.841494149415,1861804.2835453,-497.87594605284,2578202.1096927,30.041494149415,0,0
86.696074632483,-19.541398572971,24.845924592459,1861804.2835453,-497.87594605284,2578202.1096927,30.045924592459,0,0
86.696074812395,-19.543451699971,24.850355035504,1861804.2835453,-497.87594605284,2578202.1096927,30.050355035504,0,0
86.696074992308,-19.545504826971,24.854785478548,1861804.2835453,-497.87594605284,2578202.1096927,30.054785478548,0,0
86.69607517222,-19.54755795397,24.859215921592,1861804.2835453,-497.87594605284,2578202.1096927,30.059215921592,0,0
86.696075352133,-19.54961108097,24.863646364636,1861804.2835453,-497.87594605284,2578202.1096927,30.063646364636,0,0
86.696075532045,-19.55166420797,24.868076807681,1861804.2835453,-497.87594605284,2578202.1096927,30.068076807681,0,0
86.696075711958,-19.553717334969,24.872507250725,1861804.2835453,-497.87594605284,2578202.1096927,30.072507250725,0,0
86.69607589187,-19.555770461969,24.876937693769,1861804.2835453,-497.87594605284,2578202.1096927,30.076937693769,0,0
86.696076071783,-19.557823588969,24.881368136814,1861804.2835453,-497.87594605284,2578202.1096927,30.081368136814,0,0
86.696076251695,-19.559876715968,24.885798579858,1861804.2835453,-497.87594605284,2578202.1096927,30.085798579858,0,0
86.696076431608,-19.561929842968,24.890229022902,1861804.2835453,-497.87594605284,2578202.1096927,30.090229022902,0,0
86.69607661152,-19.563982969968,24.894659465947,1861804.2835453,-497.87594605284,2578202.1096927,30.094659465947,0,0
86.696076791433,-19.566036096967,24.899089908991,1861804.2835453,-497.87594605284,2578202.1096927,30.099089908991,0,0
86.696076971345,-19.568089223967,24.903520352035,1861804.2835453,-497.87594605284,2578202.1096927,30.103520352035,0,0
86.696077151258,-19.570142350966,24.90795079508,1861804.2835453,-497.87594605284,2578202.1096927,30.10795079508,0,0
86.69607733117,-19.572195477966,24.912381238124,1861804.2835453,-497.87594605284,2578202.1096927,30.112381238124,0,0
86.696077511083,-19.574248604966,24.916811681168,1861804.2835453,-497.87594605284,2578202.1096927,30.116811681168,0,0
86.696077690995,-19.576301731965,24.921242124212,1861804.2835453,-497.87594605284,2578202.1096927,30.121242124212,0,0
86.696077870908,-19.578354858965,24.925672567257,1861804.2835453,-497.87594605284,2578202.1096927,30.125672567257,0,0
86.69607805082,-19.580407985965,24.930103010301,1861804.2835453,-497.87594605284,2578202.1096927,30.130103010301,0,0
86.696078230733,-19.582461112964,24.934533453345,1861804.2835453,-497.87594605284,2578202.1096927,30.134533453345,0,0
86.696078410645,-19.584514239964,24.93896389639,1861804.2835453,-497.87594605284,2578202.1096927,30.13896389639,0,0
86.696078590558,-19.586567366964,24.943394339434,1861804.2835453,-497.87594605284,2578202.1096927,30.143394339434,0,0
86.69607877047,-19.588620493963,24.947824782478,1861804.2835453,-497.87594605284,2578202.1096927,30.147824782478,0,0
86.696078950383,-19.590673620963,24.952255225523,1861804.2835453,-497.87594605284,2578202.1096927,30.152255225523,0,0
86.696079130295,-19.592726747963,24.956685668567,1861804.2835453,-497.87594605284,2578202.1096927,30.156685668567,0,0
86.696079310207,-19.594779874962,24.961116111611,1861804.2835453,-497.87594605284,2578202.1096927,30.161116111611,0,0
86.69607949012,-19.596833001962,24.965546554655,1861804.2835453,-497.87594605284,2578202.1096927,30.165546554655,0,0
86.696079670032,-19.598886128962,24.9699769977,1861804.2835453,-497.87594605284,2578202.1096927,30.1699769977,0,0
86.696079849945,-19.600939255961,24.974407440744,1861804.2835453,-497.87594605284,2578202.1096927,30.174407440744,0,0
86.696080029857,-19.602992382961,24.978837883788,1861804.2835453,-497.87594605284,2578202.1096927,30.178837883788,0,0
86.69608020977,-19.60504550996,24.983268326833,1861804.2835453,-497.87594605284,2578202.1096927,30.183268326833,0,0
86.696080389682,-19.60709863696,24.987698769877,1861804.2835453,-497.87594605284,2578202.1096927,30.187698769877,0,0
86.696080569595,-19.60915176396,24.992129212921,1861804.2835453,-497.87594605284,2578202.1096927,30.192129212921,0,0
86.696080749507,-19.611204890959,24.996559655966,1861804.2835453,-497.87594605284,2578202.1096927,30.196559655966,0,0
86.69608092942,-19.613258017959,25.00099009901,1861804.2835453,-497.87594605284,2578202.1096927,30.20099009901,0,0
86.696081109332,-19.615311144959,25.005420542054,1861804.2835453,-497.87594605284,2578202.1096927,30.205420542054,0,0
86.696081289245,-19.617364271958,25.009850985099,1861804.2835453,-497.87594605284,2578202.1096927,30.209850985099,0,0
86.696081469157,-19.619417398958,25.014281428143,1861804.2835453,-497.87594605284,2578202.1096927,30.214281428143,0,0
86.69608164907,-19.621470525958,25.018711871187,1861804.2835453,-497.87594605284,2578202.1096927,30.218711871187,0,0
86.696081828982,-19.623523652957,25.023142314231,1861804.2835453,-497.87594605284,2578202.1096927,30.223142314231,0,0
86.696082008895,-19.625576779957,25.027572757276,1861804.2835453,-497.87594605284,2578202.1096927,30.227572757276,0,0
86.696082188807,-19.627629906957,25.03200320032,1861804.2835453,-497.87594605284,2578202.1096927,30.23200320032,0,0
86.69608236872,-19.629683033956,25.036433643364,1861804.2835453,-497.87594605284,2578202.1096927,30.236433643364,0,0
86.696082548632,-19.631736160956,25.040864086409,1861804.2835453,-497.87594605284,2578202.1096927,30.240864086409,0,0
86.696082728545,-19.633789287956,25.045294529453,1861804.2835453,-497.87594605284,2578202.1096927,30.245294529453,0,0
86.696082908457,-19.635842414955,25.049724972497,1861804.2835453,-497.87594605284,2578202.1096927,30.249724972497,0,0
86.69608308837,-19.637895541955,25.054155415542,1861804.2835453,-497.87594605284,2578202.1096927,30.254155415542,0,0
86.696083268282,-19.639948668954,25.058585858586,1861804.2835453,-497.87594605284,2578202.1096927,30.258585858586,0,0
86.696083448195,-19.642001795954,25.06301630163,1861804.2835453,-497.87594605284,2578202.1096927,30.26301630163,0,0
86.696083628107,-19.644054922954,25.067446744674,1861804.2835453,-497.87594605284,2578202.1096927,30.267446744674,0,0
86.69608380802,-19.646108049953,25.071877187719,1861804.2835453,-497.87594605284,2578202.1096927,30.271877187719,0,0
86.696083987932,-19.648161176953,25.076307630763,1861804.2835453,-497.87594605284,2578202.1096927,30.276307630763,0,0
86.696084167845,-19.650214303953,25.080738073807,1861804.2835453,-497.87594605284,2578202.1096927,30.280738073807,0,0
86.696084347757,-19.652267430952,25.085168516852,1861804.2835453,-497.87594605284,2578202.1096927,30.285168516852,0,0
86.69608452767,-19.654320557952,25.089598959896,1861804.2835453,-497.87594605284,2578202.1096927,30.289598959896,0,0
86.696084707582,-19.656373684952,25.09402940294,1861804.2835453,-497.87594605284,2578202.1096927,30.29402940294,0,0
86.696084887494,-19.658426811951,25.098459845985,1861804.2835453,-497.87594605284,2578202.1096927,30.298459845985,0,0
86.696085067407,-19.660479938951,25.102890289029,1861804.2835453,-497.87594605284,2578202.1096927,30.302890289029,0,0
86.696085247319,-19.662533065951,25.107320732073,1861804.2835453,-497.87594605284,2578202.1096927,30.307320732073,0,0
86.696085427232,-19.66458619295,25.111751175118,1861804.2835453,-497.87594605284,2578202.1096927,30.311751175118,0,0
86.696085607144,-19.66663931995,25.116181618162,1861804.2835453,-497.87594605284,2578202.1096927,30.316181618162,0,0
86.696085787057,-19.66869244695,25.120612061206,1861804.2835453,-497.87594605284,2578202.1096927,30.320612061206,0,0
86.696085966969,-19.670745573949,25.12504250425,1861804.2835453,-497.87594605284,2578202.1096927,30.32504250425,0,0
86.696086146882,-19.672798700949,25.129472947295,1861804.2835453,-497.87594605284,2578202.1096927,30.329472947295,0,0
86.696086326794,-19.674851827948,25.133903390339,1861804.2835453,-497.87594605284,2578202.1096927,30.333903390339,0,0
86.696086506707,-19.676904954948,25.138333833383,1861804.2835453,-497.87594605284,2578202.1096927,30.338333833383,0,0
86.696086686619,-19.678958081948,25.142764276428,1861804.2835453,-497.87594605284,2578202.1096927,30.342764276428,0,0
86.696086866532,-19.681011208947,25.147194719472,1861804.2835453,-497.87594605284,2578202.1096927,30.347194719472,0,0
86.696087046444,-19.683064335947,25.151625162516,1861804.2835453,-497.87594605284,2578202.1096927,30.351625162516,0,0
86.696087226357,-19.685117462947,25.156055605561,1861804.2835453,-497.87594605284,2578202.1096927,30.356055605561,0,0
86.696087406269,-19.687170589946,25.160486048605,1861804.2835453,-497.87594605284,2578202.1096927,30.360486048605,0,0
86.696087586182,-19.689223716946,25.164916491649,1861804.2835453,-497.87594605284,2578202.1096927,30.364916491649,0,0
86.696087766094,-19.691276843946,25.169346934693,1861804.2835453,-497.87594605284,2578202.1096927,30.369346934693,0,0
86.696087946007,-19.693329970945,25.173777377738,1861804.2835453,-497.87594605284,2578202.1096927,30.373777377738,0,0
86.696088125919,-19.695383097945,25.178207820782,1861804.2835453,-497.87594605284,2578202.1096927,30.378207820782,0,0
86.696088305832,-19.697436224945,25.182638263826,1861804.2835453,-497.87594605284,2578202.1096927,30.382638263826,0,0
86.696088485744,-19.699489351944,25.187068706871,1861804.2835453,-497.87594605284,2578202.1096927,30.387068706871,0,0
86.696088665657,-19.701542478944,25.191499149915,1861804.2835453,-497.87594605284,2578202.1096927,30.391499149915,0,0
86.696088845569,-19.703595605944,25.195929592959,1861804.2835453,-497.87594605284,2578202.1096927,30.395929592959,0,0
86.696089025482,-19.705648732943,25.200360036004,1861804.2835453,-497.87594605284,2578202.1096927,30.400360036004,0,0
86.696089205394,-19.707701859943,25.204790479048,1861804.2835453,-497.87594605284,2578202.1096927,30.404790479048,0,0
86.696089385307,-19.709754986942,25.209220922092,1861804.2835453,-497.87594605284,2578202.1096927,30.409220922092,0,0
86.696089565219,-19.711808113942,25.213651365137,1861804.2835453,-497.87594605284,2578202.1096927,30.413651365137,0,0
86.696089745132,-19.713861240942,25.218081808181,1861804.2835453,-497.87594605284,2578202.1096927,30.418081808181,0,0
86.696089925044,-19.715914367941,25.222512251225,1861804.2835453,-497.87594605284,2578202.1096927,30.422512251225,0,0
86.696090104957,-19.717967494941,25.226942694269,1861804.2835453,-497.87594605284,2578202.1096927,30.426942694269,0,0
86.696090284869,-19.720020621941,25.231373137314,1861804.2835453,-497.87594605284,2578202.1096927,30.431373137314,0,0
86.696090464781,-19.72207374894,25.235803580358,1861804.2835453,-497.87594605284,2578202.1096927,30.435803580358,0,0
86.696090644694,-19.72412687594,25.240234023402,1861804.2835453,-497.87594605284,2578202.1096927,30.440234023402,0,0
86.696090824606,-19.72618000294,25.244664466447,1861804.2835453,-497.87594605284,2578202.1096927,30.444664466447,0,0
86.696091004519,-19.728233129939,25.249094909491,1861804.2835453,-497.87594605284,2578202.1096927,30.449094909491,0,0
86.696091184431,-19.730286256939,25.253525352535,1861804.2835453,-497.87594605284,2578202.1096927,30.453525352535,0,0
86.696091364344,-19.732339383939,25.25795579558,1861804.2835453,-497.87594605284,2578202.1096927,30.45795579558,0,0
86.696091544256,-19.734392510938,25.262386238624,1861804.2835453,-497.87594605284,2578202.1096927,30.462386238624,0,0
86.696091724169,-19.736445637938,25.266816681668,1861804.2835453,-497.87594605284,2578202.1096927,30.466816681668,0,0
86.696091904081,-19.738498764938,25.271247124712,1861804.2835453,-497.87594605284,2578202.1096927,30.471247124712,0,0
86.696092083994,-19.740551891937,25.275677567757,1861804.2835453,-497.87594605284,2578202.1096927,30.475677567757,0,0
86.696092263906,-19.742605018937,25.280108010801,1861804.2835453,-497.87594605284,2578202.1096927,30.480108010801,0,0
86.696092443819,-19.744658145936,25.284538453845,1861804.2835453,-497.87594605284,2578202.1096927,30.484538453845,0,0
86.696092623731,-19.746711272936,25.28896889689,1861804.2835453,-497.87594605284,2578202.1096927,30.48896889689,0,0
86.696092803644,-19.748764399936,25.293399339934,1861804.2835453,-497.87594605284,2578202.1096927,30.493399339934,0,0
86.696092983556,-19.750817526935,25.297829782978,1861804.2835453,-497.87594605284,2578202.1096927,30.497829782978,0,0
86.696093163469,-19.752870653935,25.302260226023,1861804.2835453,-497.87594605284,2578202.1096927,30.502260226023,0,0
86.696093343381,-19.754923780935,25.306690669067,1861804.2835453,-497.87594605284,2578202.1096927,30.506690669067,0,0
86.696093523294,-19.756976907934,25.311121112111,1861804.2835453,-497.87594605284,2578202.1096927,30.511121112111,0,0
86.696093703206,-19.759030034934,25.315551555156,1861804.2835453,-497.87594605284,2578202.1096927,30.515551555156,0,0
86.696093883119,-19.761083161934,25.3199819982,1861804.2835453,-497.87594605284,2578202.1096927,30.5199819982,0,0
86.696094063031,-19.763136288933,25.324412441244,1861804.2835453,-497.87594605284,2578202.1096927,30.524412441244,0,0
86.696094242944,-19.765189415933,25.328842884288,1861804.2835453,-497.87594605284,2578202.1096927,30.528842884288,0,0
86.696094422856,-19.767242542933,25.333273327333,1861804.2835453,-497.87594605284,2578202.1096927,30.533273327333,0,0
86.696094602769,-19.769295669932,25.337703770377,1861804.2835453,-497.87594605284,2578202.1096927,30.537703770377,0,0
86.696094782681,-19.771348796932,25.342134213421,1861804.2835453,-497.87594605284,2578202.1096927,30.542134213421,0,0
86.696094962594,-19.773401923932,25.346564656466,1861804.2835453,-497.87594605284,2578202.1096927,30.546564656466,0,0
86.696095142506,-19.775455050931,25.35099509951,1861804.2835453,-497.87594605284,2578202.1096927,30.55099509951,0,0
86.696095322419,-19.777508177931,25.355425542554,1861804.2835453,-497.87594605284,2578202.1096927,30.555425542554,0,0
86.696095502331,-19.77956130493,25.359855985599,1861804.2835453,-497.87594605284,2578202.1096927,30.559855985599,0,0
86.696095682244,-19.78161443193,25.364286428643,1861804.2835453,-497.87594605284,2578202.1096927,30.564286428643,0,0
86.696095862156,-19.78366755893,25.368716871687,1861804.2835453,-497.87594605284,2578202.1096927,30.568716871687,0,0
86.696096042068,-19.785720685929,25.373147314731,1861804.2835453,-497.87594605284,2578202.1096927,30.573147314731,0,0
86.696096221981,-19.787773812929,25.377577757776,1861804.2835453,-497.87594605284,2578202.1096927,30.577577757776,0,0
86.696096401893,-19.789826939929,25.38200820082,1861804.2835453,-497.87594605284,2578202.1096927,30.58200820082,0,0
86.696096581806,-19.791880066928,25.386438643864,1861804.2835453,-497.87594605284,2578202.1096927,30.586438643864,0,0
86.696096761718,-19.793933193928,25.390869086909,1861804.2835453,-497.87594605284,2578202.1096927,30.590869086909,0,0
86.696096941631,-19.795986320928,25.395299529953,1861804.2835453,-497.87594605284,2578202.1096927,30.595299529953,0,0
86.696097121543,-19.798039447927,25.399729972997,1861804.2835453,-497.87594605284,2578202.1096927,30.599729972997,0,0
86.696097301456,-19.800092574927,25.404160416042,1861804.2835453,-497.87594605284,2578202.1096927,30.604160416042,0,0
86.696097481368,-19.802145701927,25.408590859086,1861804.2835453,-497.87594605284,2578202.1096927,30.608590859086,0,0
86.696097661281,-19.804198828926,25.41302130213,1861804.2835453,-497.87594605284,2578202.1096927,30.61302130213,0,0
86.696097841193,-19.806251955926,25.417451745175,1861804.2835453,-497.87594605284,2578202.1096927,30.617451745175,0,0
86.696098021106,-19.808305082926,25.421882188219,1861804.2835453,-497.87594605284,2578202.1096927,30.621882188219,0,0
86.696098201018,-19.810358209925,25.426312631263,1861804.2835453,-497.87594605284,2578202.1096927,30.626312631263,0,0
86.696098380931,-19.812411336925,25.430743074307,1861804.2835453,-497.87594605284,2578202.1096927,30.630743074307,0,0
86.696098560843,-19.814464463924,25.435173517352,1861804.2835453,-497.87594605284,2578202.1096927,30.635173517352,0,0
86.696098740756,-19.816517590924,25.439603960396,1861804.2835453,-497.87594605284,2578202.1096927,30.639603960396,0,0
86.696098920668,-19.818570717924,25.44403440344,1861804.2835453,-497.87594605284,2578202.1096927,30.64403440344,0,0
86.696099100581,-19.820623844923,25.448464846485,1861804.2835453,-497.87594605284,2578202.1096927,30.648464846485,0,0
86.696099280493,-19.822676971923,25.452895289529,1861804.2835453,-497.87594605284,2578202.1096927,30.652895289529,0,0
86.696099460406,-19.824730098923,25.457325732573,1861804.2835453,-497.87594605284,2578202.1096927,30.657325732573,0,0
86.696099640318,-19.826783225922,25.461756175618,1861804.2835453,-497.87594605284,2578202.1096927,30.661756175618,0,0
86.696099820231,-19.828836352922,25.466186618662,1861804.2835453,-497.87594605284,2578202.1096927,30.666186618662,0,0
86.696100000143,-19.830889479922,25.470617061706,1861804.2835453,-497.87594605284,2578202.1096927,30.670617061706,0,0
86.696100180056,-19.832942606921,25.47504750475,1861804.2835453,-497.87594605284,2578202.1096927,30.67504750475,0,0
86.696100359968,-19.834995733921,25.479477947795,1861804.2835453,-497.87594605284,2578202.1096927,30.679477947795,0,0
86.696100539881,-19.837048860921,25.483908390839,1861804.2835453,-497.87594605284,2578202.1096927,30.683908390839,0,0
86.696100719793,-19.83910198792,25.488338833883,1861804.2835453,-497.87594605284,2578202.1096927,30.688338833883,0,0
86.696100899706,-19.84115511492,25.492769276928,1861804.2835453,-497.87594605284,2578202.1096927,30.692769276928,0,0
86.696101079618,-19.84320824192,25.497199719972,1861804.2835453,-497.87594605284,2578202.1096927,30.697199719972,0,0
86.696101259531,-19.845261368919,25.501630163016,1861804.2835453,-497.87594605284,2578202.1096927,30.701630163016,0,0
86.696101439443,-19.847314495919,25.506060606061,1861804.2835453,-497.87594605284,2578202.1096927,30.706060606061,0,0
86.696101619355,-19.849367622918,25.510491049105,1861804.2835453,-497.87594605284,2578202.1096927,30.710491049105,0,0
86.696101799268,-19.851420749918,25.514921492149,1861804.2835453,-497.87594605284,2578202.1096927,30.714921492149,0,0
86.69610197918,-19.853473876918,25.519351935194,1861804.2835453,-497.87594605284,2578202.1096927,30.719351935194,0,0
86.696102159093,-19.855527003917,25.523782378238,1861804.2835453,-497.87594605284,2578202.1096927,30.723782378238,0,0
86.696102339005,-19.857580130917,25.528212821282,1861804.2835453,-497.87594605284,2578202.1096927,30.728212821282,0,0
86.696102518918,-19.859633257917,25.532643264326,1861804.2835453,-497.87594605284,2578202.1096927,30.732643264326,0,0
86.69610269883,-19.861686384916,25.537073707371,1861804.2835453,-497.87594605284,2578202.1096927,30.737073707371,0,0
86.696102878743,-19.863739511916,25.541504150415,1861804.2835453,-497.87594605284,2578202.1096927,30.741504150415,0,0
86.696103058655,-19.865792638916,25.545934593459,1861804.2835453,-497.87594605284,2578202.1096927,30.745934593459,0,0
86.696103238568,-19.867845765915,25.550365036504,1861804.2835453,-497.87594605284,2578202.1096927,30.750365036504,0,0
86.69610341848,-19.869898892915,25.554795479548,1861804.2835453,-497.87594605284,2578202.1096927,30.754795479548,0,0
86.696103598393,-19.871952019915,25.559225922592,1861804.2835453,-497.87594605284,2578202.1096927,30.759225922592,0,0
86.696103778305,-19.874005146914,25.563656365637,1861804.2835453,-497.87594605284,2578202.1096927,30.763656365637,0,0
86.696103958218,-19.876058273914,25.568086808681,1861804.2835453,-497.87594605284,2578202.1096927,30.768086808681,0,0
86.69610413813,-19.878111400914,25.572517251725,1861804.2835453,-497.87594605284,2578202.1096927,30.772517251725,0,0
86.696104318043,-19.880164527913,25.576947694769,1861804.2835453,-497.87594605284,2578202.1096927,30.776947694769,0,0
86.696104497955,-19.882217654913,25.581378137814,1861804.2835453,-497.87594605284,2578202.1096927,30.781378137814,0,0
86.696104677868,-19.884270781912,25.585808580858,1861804.2835453,-497.87594605284,2578202.1096927,30.785808580858,0,0
86.69610485778,-19.886323908912,25.590239023902,1861804.2835453,-497.87594605284,2578202.1096927,30.790239023902,0,0
86.696105037693,-19.888377035912,25.594669466947,1861804.2835453,-497.87594605284,2578202.1096927,30.794669466947,0,0
86.696105217605,-19.890430162911,25.599099909991,1861804.2835453,-497.87594605284,2578202.1096927,30.799099909991,0,0
86.696105397518,-19.892483289911,25.603530353035,1861804.2835453,-497.87594605284,2578202.1096927,30.803530353035,0,0
86.69610557743,-19.894536416911,25.60796079608,1861804.2835453,-497.87594605284,2578202.1096927,30.80796079608,0,0
86.696105757343,-19.89658954391,25.612391239124,1861804.2835453,-497.87594605284,2578202.1096927,30.812391239124,0,0
86.696105937255,-19.89864267091,25.616821682168,1861804.2835453,-497.87594605284,2578202.1096927,30.816821682168,0,0
86.696106117168,-19.90069579791,25.621252125213,1861804.2835453,-497.87594605284,2578202.1096927,30.821252125213,0,0
86.69610629708,-19.902748924909,25.625682568257,1861804.2835453,-497.87594605284,2578202.1096927,30.825682568257,0,0
86.696106476993,-19.904802051909,25.630113011301,1861804.2835453,-497.87594605284,2578202.1096927,30.830113011301,0,0
86.696106656905,-19.906855178909,25.634543454345,1861804.2835453,-497.87594605284,2578202.1096927,30.834543454345,0,0
86.696106836818,-19.908908305908,25.63897389739,1861804.2835453,-497.87594605284,2578202.1096927,30.83897389739,0,0
86.69610701673,-19.910961432908,25.643404340434,1861804.2835453,-497.87594605284,2578202.1096927,30.843404340434,0,0
86.696107196642,-19.913014559908,25.647834783478,1861804.2835453,-497.87594605284,2578202.1096927,30.847834783478,0,0
86.696107376555,-19.915067686907,25.652265226523,1861804.2835453,-497.87594605284,2578202.1096927,30.852265226523,0,0
86.696107556467,-19.917120813907,25.656695669567,1861804.2835453,-497.87594605284,2578202.1096927,30.856695669567,0,0
86.69610773638,-19.919173940906,25.661126112611,1861804.2835453,-497.87594605284,2578202.1096927,30.861126112611,0,0
86.696107916292,-19.921227067906,25.665556555656,1861804.2835453,-497.87594605284,2578202.1096927,30.865556555656,0,0
86.696108096205,-19.923280194906,25.6699869987,1861804.2835453,-497.87594605284,2578202.1096927,30.8699869987,0,0
86.696108276117,-19.925333321905,25.674417441744,1861804.2835453,-497.87594605284,2578202.1096927,30.874417441744,0,0
86.69610845603,-19.927386448905,25.678847884788,1861804.2835453,-497.87594605284,2578202.1096927,30.878847884788,0,0
86.696108635942,-19.929439575905,25.683278327833,1861804.2835453,-497.87594605284,2578202.1096927,30.883278327833,0,0
86.696108815855,-19.931492702904,25.687708770877,1861804.2835453,-497.87594605284,2578202.1096927,30.887708770877,0,0
86.696108995767,-19.933545829904,25.692139213921,1861804.2835453,-497.87594605284,2578202.1096927,30.892139213921,0,0
86.69610917568,-19.935598956904,25.696569656966,1861804.2835453,-497.87594605284,2578202.1096927,30.896569656966,0,0
86.696109355592,-19.937652083903,25.70100010001,1861804.2835453,-497.87594605284,2578202.1096927,30.90100010001,0,0
86.696109535505,-19.939705210903,25.705430543054,1861804.2835453,-497.87594605284,2578202.1096927,30.905430543054,0,0
86.696109715417,-19.941758337903,25.709860986099,1861804.2835453,-497.87594605284,2578202.1096927,30.909860986099,0,0
86.69610989533,-19.943811464902,25.714291429143,1861804.2835453,-497.87594605284,2578202.1096927,30.914291429143,0,0
86.696110075242,-19.945864591902,25.718721872187,1861804.2835453,-497.87594605284,2578202.1096927,30.918721872187,0,0
86.696110255155,-19.947917718902,25.723152315232,1861804.2835453,-497.87594605284,2578202.1096927,30.923152315232,0,0
86.696110435067,-19.949970845901,25.727582758276,1861804.2835453,-497.87594605284,2578202.1096927,30.927582758276,0,0
86.69611061498,-19.952023972901,25.73201320132,1861804.2835453,-497.87594605284,2578202.1096927,30.93201320132,0,0
86.696110794892,-19.9540770999,25.736443644364,1861804.2835453,-497.87594605284,2578202.1096927,30.936443644364,0,0
86.696110974805,-19.9561302269,25.740874087409,1861804.2835453,-497.87594605284,2578202.1096927,30.940874087409,0,0
86.696111154717,-19.9581833539,25.745304530453,1861804.2835453,-497.87594605284,2578202.1096927,30.945304530453,0,0
86.69611133463,-19.960236480899,25.749734973497,1861804.2835453,-497.87594605284,2578202.1096927,30.949734973497,0,0
86.696111514542,-19.962289607899,25.754165416542,1861804.2835453,-497.87594605284,2578202.1096927,30.954165416542,0,0
86.696111694455,-19.964342734899,25.758595859586,1861804.2835453,-497.87594605284,2578202.1096927,30.958595859586,0,0
86.696111874367,-19.966395861898,25.76302630263,1861804.2835453,-497.87594605284,2578202.1096927,30.96302630263,0,0
86.69611205428,-19.968448988898,25.767456745675,1861804.2835453,-497.87594605284,2578202.1096927,30.967456745675,0,0
86.696112234192,-19.970502115898,25.771887188719,1861804.2835453,-497.87594605284,2578202.1096927,30.971887188719,0,0
86.696112414105,-19.972555242897,25.776317631763,1861804.2835453,-497.87594605284,2578202.1096927,30.976317631763,0,0
86.696112594017,-19.974608369897,25.780748074807,1861804.2835453,-497.87594605284,2578202.1096927,30.980748074807,0,0
86.696112773929,-19.976661496897,25.785178517852,1861804.2835453,-497.87594605284,2578202.1096927,30.985178517852,0,0
86.696112953842,-19.978714623896,25.789608960896,1861804.2835453,-497.87594605284,2578202.1096927,30.989608960896,0,0
86.696113133754,-19.980767750896,25.79403940394,1861804.2835453,-497.87594605284,2578202.1096927,30.99403940394,0,0
86.696113313667,-19.982820877896,25.798469846985,1861804.2835453,-497.87594605284,2578202.1096927,30.998469846985,0,0
86.696113493579,-19.984874004895,25.802900290029,1861804.2835453,-497.87594605284,2578202.1096927,31.002900290029,0,0
86.696113673492,-19.986927131895,25.807330733073,1861804.2835453,-497.87594605284,2578202.1096927,31.007330733073,0,0
86.696113853404,-19.988980258894,25.811761176118,1861804.2835453,-497.87594605284,2578202.1096927,31.011761176118,0,0
86.696114033317,-19.991033385894,25.816191619162,1861804.2835453,-497.87594605284,2578202.1096927,31.016191619162,0,0
86.696114213229,-19.993086512894,25.820622062206,1861804.2835453,-497.87594605284,2578202.1096927,31.020622062206,0,0
86.696114393142,-19.995139639893,25.825052505251,1861804.2835453,-497.87594605284,2578202.1096927,31.025052505251,0,0
86.696114573054,-19.997192766893,25.829482948295,1861804.2835453,-497.87594605284,2578202.1096927,31.029482948295,0,0
86.696114752967,-19.999245893893,25.833913391339,1861804.2835453,-497.87594605284,2578202.1096927,31.033913391339,0,0
86.696114932879,-20.001299020892,25.838343834383,1861804.2835453,-497.87594605284,2578202.1096927,31.038343834383,0,0
86.696115112792,-20.003352147892,25.842774277428,1861804.2835453,-497.87594605284,2578202.1096927,31.042774277428,0,0
86.696115292704,-20.005405274892,25.847204720472,1861804.2835453,-497.87594605284,2578202.1096927,31.047204720472,0,0
86.696115472617,-20.007458401891,25.851635163516,1861804.2835453,-497.87594605284,2578202.1096927,31.051635163516,0,0
86.696115652529,-20.009511528891,25.856065606561,1861804.2835453,-497.87594605284,2578202.1096927,31.056065606561,0,0
86.696115832442,-20.011564655891,25.860496049605,1861804.2835453,-497.87594605284,2578202.1096927,31.060496049605,0,0
86.696116012354,-20.01361778289,25.864926492649,1861804.2835453,-497.87594605284,2578202.1096927,31.064926492649,0,0
86.696116192267,-20.01567090989,25.869356935694,1861804.2835453,-497.87594605284,2578202.1096927,31.069356935694,0,0
86.696116372179,-20.01772403689,25.873787378738,1861804.2835453,-497.87594605284,2578202.1096927,31.073787378738,0,0
86.696116552092,-20.019777163889,25.878217821782,1861804.2835453,-497.87594605284,2578202.1096927,31.078217821782,0,0
86.696116732004,-20.021830290889,25.882648264826,1861804.2835453,-497.87594605284,2578202.1096927,31.082648264826,0,0
86.696116911917,-20.023883417888,25.887078707871,1861804.2835453,-497.87594605284,2578202.1096927,31.087078707871,0,0
86.696117091829,-20.025936544888,25.891509150915,1861804.2835453,-497.87594605284,2578202.1096927,31.091509150915,0,0
86.696117271742,-20.027989671888,25.895939593959,1861804.2835453,-497.87594605284,2578202.1096927,31.095939593959,0,0
86.696117451654,-20.030042798887,25.900370037004,1861804.2835453,-497.87594605284,2578202.1096927,31.100370037004,0,0
86.696117631567,-20.032095925887,25.904800480048,1861804.2835453,-497.87594605284,2578202.1096927,31.104800480048,0,0
86.696117811479,-20.034149052887,25.909230923092,1861804.2835453,-497.87594605284,2578202.1096927,31.109230923092,0,0
86.696117991392,-20.036202179886,25.913661366137,1861804.2835453,-497.87594605284,2578202.1096927,31.113661366137,0,0
86.696118171304,-20.038255306886,25.918091809181,1861804.2835453,-497.87594605284,2578202.1096927,31.118091809181,0,0
86.696118351216,-20.040308433886,25.922522252225,1861804.2835453,-497.87594605284,2578202.1096927,31.122522252225,0,0
86.696118531129,-20.042361560885,25.92695269527,1861804.2835453,-497.87594605284,2578202.1096927,31.12695269527,0,0
86.696118711041,-20.044414687885,25.931383138314,1861804.2835453,-497.87594605284,2578202.1096927,31.131383138314,0,0
86.696118890954,-20.046467814885,25.935813581358,1861804.2835453,-497.87594605284,2578202.1096927,31.135813581358,0,0
86.696119070866,-20.048520941884,25.940244024402,1861804.2835453,-497.87594605284,2578202.1096927,31.140244024402,0,0
86.696119250779,-20.050574068884,25.944674467447,1861804.2835453,-497.87594605284,2578202.1096927,31.144674467447,0,0
86.696119430691,-20.052627195884,25.949104910491,1861804.2835453,-497.87594605284,2578202.1096927,31.149104910491,0,0
86.696119610604,-20.054680322883,25.953535353535,1861804.2835453,-497.87594605284,2578202.1096927,31.153535353535,0,0
86.696119790516,-20.056733449883,25.95796579658,1861804.2835453,-497.87594605284,2578202.1096927,31.15796579658,0,0
86.696119970429,-20.058786576882,25.962396239624,1861804.2835453,-497.87594605284,2578202.1096927,31.162396239624,0,0
86.696120150341,-20.060839703882,25.966826682668,1861804.2835453,-497.87594605284,2578202.1096927,31.166826682668,0,0
86.696120330254,-20.062892830882,25.971257125713,1861804.2835453,-497.87594605284,2578202.1096927,31.171257125713,0,0
86.696120510166,-20.064945957881,25.975687568757,1861804.2835453,-497.87594605284,2578202.1096927,31.175687568757,0,0
86.696120690079,-20.066999084881,25.980118011801,1861804.2835453,-497.87594605284,2578202.1096927,31.180118011801,0,0
86.696120869991,-20.069052211881,25.984548454845,1861804.2835453,-497.87594605284,2578202.1096927,31.184548454845,0,0
86.696121049904,-20.07110533888,25.98897889789,1861804.2835453,-497.87594605284,2578202.1096927,31.18897889789,0,0
86.696121229816,-20.07315846588,25.993409340934,1861804.2835453,-497.87594605284,2578202.1096927,31.193409340934,0,0
86.696121409729,-20.07521159288,25.997839783978,1861804.2835453,-497.87594605284,2578202.1096927,31.197839783978,0,0
86.696121589641,-20.077264719879,26.002270227023,1861804.2835453,-497.87594605284,2578202.1096927,31.202270227023,0,0
86.696121769554,-20.079317846879,26.006700670067,1861804.2835453,-497.87594605284,2578202.1096927,31.206700670067,0,0
86.696121949466,-20.081370973879,26.011131113111,1861804.2835453,-497.87594605284,2578202.1096927,31.211131113111,0,0
86.696122129379,-20.083424100878,26.015561556156,1861804.2835453,-497.87594605284,2578202.1096927,31.215561556156,0,0
86.696122309291,-20.085477227878,26.0199919992,1861804.2835453,-497.87594605284,2578202.1096927,31.2199919992,0,0
86.696122489204,-20.087530354878,26.024422442244,1861804.2835453,-497.87594605284,2578202.1096927,31.224422442244,0,0
86.696122669278,-20.089583481549,26.028852885289,1863912.6016848,1131.1912270173,2575917.2247189,31.228852885289,0,0
86.69612284942,-20.091636608083,26.033283328333,1863912.6016848,1131.1912270173,2575917.2247189,31.233283328333,0,0
86.696123029562,-20.093689734618,26.037713771377,1863912.6016848,1131.1912270173,2575917.2247189,31.237713771377,0,0
86.696123209703,-20.095742861153,26.042144214421,1863912.6016848,1131.1912270173,2575917.2247189,31.242144214421,0,0
86.696123389845,-20.097795987688,26.046574657466,1863912.6016848,1131.1912270173,2575917.2247189,31.246574657466,0,0
86.696123569987,-20.099849114223,26.05100510051,1863912.6016848,1131.1912270173,2575917.2247189,31.25100510051,0,0
86.696123750129,-20.101902240758,26.055435543554,1863912.6016848,1131.1912270173,2575917.2247189,31.255435543554,0,0
86.69612393027,-20.103955367293,26.059865986599,1863912.6016848,1131.1912270173,2575917.2247189,31.259865986599,0,0
86.696124110412,-20.106008493828,26.064296429643,1863912.6016848,1131.1912270173,2575917.2247189,31.264296429643,0,0
86.696124290554,-20.108061620363,26.068726872687,1863912.6016848,1131.1912270173,2575917.2247189,31.268726872687,0,0
86.696124470695,-20.110114746898,26.073157315732,1863912.6016848,1131.1912270173,2575917.2247189,31.273157315732,0,0
86.696124650837,-20.112167873433,26.077587758776,1863912.6016848,1131.1912270173,2575917.2247189,31.277587758776,0,0
86.696124830979,-20.114220999968,26.08201820182,1863912.6016848,1131.1912270173,2575917.2247189,31.28201820182,0,0
86.696125011121,-20.116274126503,26.086448644864,1863912.6016848,1131.1912270173,2575917.2247189,31.286448644864,0,0
86.696125191262,-20.118327253038,26.090879087909,1863912.6016848,1131.1912270173,2575917.2247189,31.290879087909,0,0
86.696125371404,-20.120380379573,26.095309530953,1863912.6016848,1131.1912270173,2575917.2247189,31.295309530953,0,0
86.696125551546,-20.122433506107,26.099739973997,1863912.6016848,1131.1912270173,2575917.2247189,31.299739973997,0,0
86.696125731688,-20.124486632642,26.104170417042,1863912.6016848,1131.1912270173,2575917.2247189,31.304170417042,0,0
86.696125911829,-20.126539759177,26.108600860086,1863912.6016848,1131.1912270173,2575917.2247189,31.308600860086,0,0
86.696126091971,-20.128592885712,26.11303130313,1863912.6016848,1131.1912270173,2575917.2247189,31.31303130313,0,0
86.696126272113,-20.130646012247,26.117461746175,1863912.6016848,1131.1912270173,2575917.2247189,31.317461746175,0,0
86.696126452254,-20.132699138782,26.121892189219,1863912.6016848,1131.1912270173,2575917.2247189,31.321892189219,0,0
86.696126632396,-20.134752265317,26.126322632263,1863912.6016848,1131.1912270173,2575917.2247189,31.326322632263,0,0
86.696126812538,-20.136805391852,26.130753075308,1863912.6016848,1131.1912270173,2575917.2247189,31.330753075308,0,0
86.69612699268,-20.138858518387,26.135183518352,1863912.6016848,1131.1912270173,2575917.2247189,31.335183518352,0,0
86.696127172821,-20.140911644922,26.139613961396,1863912.6016848,1131.1912270173,2575917.2247189,31.339613961396,0,0
86.696127352963,-20.142964771457,26.14404440444,1863912.6016848,1131.1912270173,2575917.2247189,31.34404440444,0,0
86.696127533105,-20.145017897992,26.148474847485,1863912.6016848,1131.1912270173,2575917.2247189,31.348474847485,0,0
86.696127713246,-20.147071024527,26.152905290529,1863912.6016848,1131.1912270173,2575917.2247189,31.352905290529,0,0
86.696127893388,-20.149124151062,26.157335733573,1863912.6016848,1131.1912270173,2575917.2247189,31.357335733573,0,0
86.69612807353,-20.151177277596,26.161766176618,1863912.6016848,1131.1912270173,2575917.2247189,31.361766176618,0,0
86.696128253672,-20.153230404131,26.166196619662,1863912.6016848,1131.1912270173,2575917.2247189,31.366196619662,0,0
86.696128433813,-20.155283530666,26.170627062706,1863912.6016848,1131.1912270173,2575917.2247189,31.370627062706,0,0
86.696128613955,-20.157336657201,26.175057505751,1863912.6016848,1131.1912270173,2575917.2247189,31.375057505751,0,0
86.696128794097,-20.159389783736,26.179487948795,1863912.6016848,1131.1912270173,2575917.2247189,31.379487948795,0,0
86.696128974239,-20.161442910271,26.183918391839,1863912.6016848,1131.1912270173,2575917.2247189,31.383918391839,0,0
86.69612915438,-20.163496036806,26.188348834883,1863912.6016848,1131.1912270173,2575917.2247189,31.388348834883,0,0
86.696129334522,-20.165549163341,26.192779277928,1863912.6016848,1131.1912270173,2575917.2247189,31.392779277928,0,0
86.696129514664,-20.167602289876,26.197209720972,1863912.6016848,1131.1912270173,2575917.2247189,31.397209720972,0,0
86.696129694805,-20.169655416411,26.201640164016,1863912.6016848,1131.1912270173,2575917.2247189,31.401640164016,0,0
86.696129874947,-20.171708542946,26.206070607061,1863912.6016848,1131.1912270173,2575917.2247189,31.406070607061,0,0
86.696130055089,-20.173761669481,26.210501050105,1863912.6016848,1131.1912270173,2575917.2247189,31.410501050105,0,0
86.696130235231,-20.175814796016,26.214931493149,1863912.6016848,1131.1912270173,2575917.2247189,31.414931493149,0,0
86.696130415372,-20.177867922551,26.219361936194,1863912.6016848,1131.1912270173,2575917.2247189,31.419361936194,0,0
86.696130595514,-20.179921049086,26.223792379238,1863912.6016848,1131.1912270173,2575917.2247189,31.423792379238,0,0
86.696130775656,-20.18197417562,26.228222822282,1863912.6016848,1131.1912270173,2575917.2247189,31.428222822282,0,0
86.696130955797,-20.184027302155,26.232653265327,1863912.6016848,1131.1912270173,2575917.2247189,31.432653265327,0,0
86.696131135939,-20.18608042869,26.237083708371,1863912.6016848,1131.1912270173,2575917.2247189,31.437083708371,0,0
86.696131316081,-20.188133555225,26.241514151415,1863912.6016848,1131.1912270173,2575917.2247189,31.441514151415,0,0
86.696131496223,-20.19018668176,26.245944594459,1863912.6016848,1131.1912270173,2575917.2247189,31.445944594459,0,0
86.696131676394,-20.192239808425,26.250375037504,1862859.0435409,-531.67052669785,2568659.4006427,31.450375037504,0,0
86.696131856645,-20.194292935439,26.254805480548,1862859.0435409,-531.67052669785,2568659.4006427,31.454805480548,0,0
86.696132036896,-20.196346062454,26.259235923592,1862859.0435409,-531.67052669785,2568659.4006427,31.459235923592,0,0
86.696132217146,-20.198399189469,26.263666366637,1862859.0435409,-531.67052669785,2568659.4006427,31.463666366637,0,0
86.696132397397,-20.200452316483,26.268096809681,1862859.0435409,-531.67052669785,2568659.4006427,31.468096809681,0,0
86.696132577648,-20.202505443498,26.272527252725,1862859.0435409,-531.67052669785,2568659.4006427,31.472527252725,0,0
86.696132757899,-20.204558570512,26.27695769577,1862859.0435409,-531.67052669785,2568659.4006427,31.47695769577,0,0
86.69613293815,-20.206611697527,26.281388138814,1862859.0435409,-531.67052669785,2568659.4006427,31.481388138814,0,0
86.6961331184,-20.208664824542,26.285818581858,1862859.0435409,-531.67052669785,2568659.4006427,31.485818581858,0,0
86.696133298651,-20.210717951556,26.290249024902,1862859.0435409,-531.67052669785,2568659.4006427,31.490249024902,0,0
86.696133478902,-20.212771078571,26.294679467947,1862859.0435409,-531.67052669785,2568659.4006427,31.494679467947,0,0
86.696133659153,-20.214824205585,26.299109910991,1862859.0435409,-531.67052669785,2568659.4006427,31.499109910991,0,0
86.696133839404,-20.2168773326,26.303540354035,1862859.0435409,-531.67052669785,2568659.4006427,31.503540354035,0,0
86.696134019654,-20.218930459615,26.30797079708,1862859.0435409,-531.67052669785,2568659.4006427,31.50797079708,0,0
86.696134199905,-20.220983586629,26.312401240124,1862859.0435409,-531.67052669785,2568659.4006427,31.512401240124,0,0
86.696134380156,-20.223036713644,26.316831683168,1862859.0435409,-531.67052669785,2568659.4006427,31.516831683168,0,0
86.696134560407,-20.225089840658,26.321262126213,1862859.0435409,-531.67052669785,2568659.4006427,31.521262126213,0,0
86.696134740658,-20.227142967673,26.325692569257,1862859.0435409,-531.67052669785,2568659.4006427,31.525692569257,0,0
86.696134920908,-20.229196094688,26.330123012301,1862859.0435409,-531.67052669785,2568659.4006427,31.530123012301,0,0
86.696135101159,-20.231249221702,26.334553455346,1862859.0435409,-531.67052669785,2568659.4006427,31.534553455346,0,0
86.69613528141,-20.233302348717,26.33898389839,1862859.0435409,-531.67052669785,2568659.4006427,31.53898389839,0,0
86.696135461661,-20.235355475731,26.343414341434,1862859.0435409,-531.67052669785,2568659.4006427,31.543414341434,0,0
86.696135641912,-20.237408602746,26.347844784478,1862859.0435409,-531.67052669785,2568659.4006427,31.547844784478,0,0
86.696135822163,-20.23946172976,26.352275227523,1862859.0435409,-531.67052669785,2568659.4006427,31.552275227523,0,0
86.696136002413,-20.241514856775,26.356705670567,1862859.0435409,-531.67052669785,2568659.4006427,31.556705670567,0,0
86.696136182664,-20.24356798379,26.361136113611,1862859.0435409,-531.67052669785,2568659.4006427,31.561136113611,0,0
86.696136362915,-20.245621110804,26.365566556656,1862859.0435409,-531.67052669785,2568659.4006427,31.565566556656,0,0
86.696136543166,-20.247674237819,26.3699969997,1862859.0435409,-531.67052669785,2568659.4006427,31.5699969997,0,0
86.696136723417,-20.249727364833,26.374427442744,1862859.0435409,-531.67052669785,2568659.4006427,31.574427442744,0,0
86.696136903667,-20.251780491848,26.378857885789,1862859.0435409,-531.67052669785,2568659.4006427,31.578857885789,0,0
86.696137083918,-20.253833618863,26.383288328833,1862859.0435409,-531.67052669785,2568659.4006427,31.583288328833,0,0
86.696137264169,-20.255886745877,26.387718771877,1862859.0435409,-531.67052669785,2568659.4006427,31.587718771877,0,0
86.69613744442,-20.257939872892,26.392149214921,1862859.0435409,-531.67052669785,2568659.4006427,31.592149214921,0,0
86.696137624671,-20.259992999906,26.396579657966,1862859.0435409,-531.67052669785,2568659.4006427,31.596579657966,0,0
86.696137804921,-20.262046126921,26.40101010101,1862859.0435409,-531.67052669785,2568659.4006427,31.60101010101,0,0
86.696137985172,-20.264099253936,26.405440544054,1862859.0435409,-531.67052669785,2568659.4006427,31.605440544054,0,0
86.696138165423,-20.26615238095,26.409870987099,1862859.0435409,-531.67052669785,2568659.4006427,31.609870987099,0,0
86.696138345674,-20.268205507965,26.414301430143,1862859.0435409,-531.67052669785,2568659.4006427,31.614301430143,0,0
86.696138525925,-20.270258634979,26.418731873187,1862859.0435409,-531.67052669785,2568659.4006427,31.618731873187,0,0
86.696138706176,-20.272311761994,26.423162316232,1862859.0435409,-531.67052669785,2568659.4006427,31.623162316232,0,0
86.696138886426,-20.274364889009,26.427592759276,1862859.0435409,-531.67052669785,2568659.4006427,31.627592759276,0,0
86.696139066677,-20.276418016023,26.43202320232,1862859.0435409,-531.67052669785,2568659.4006427,31.63202320232,0,0
86.696139246928,-20.278471143038,26.436453645365,1862859.0435409,-531.67052669785,2568659.4006427,31.636453645365,0,0
86.696139427179,-20.280524270052,26.440884088409,1862859.0435409,-531.67052669785,2568659.4006427,31.640884088409,0,0
86.69613960743,-20.282577397067,26.445314531453,1862859.0435409,-531.67052669785,2568659.4006427,31.645314531453,0,0
86.69613978768,-20.284630524082,26.449744974497,1862859.0435409,-531.67052669785,2568659.4006427,31.649744974497,0,0
86.696139967931,-20.286683651096,26.454175417542,1862859.0435409,-531.67052669785,2568659.4006427,31.654175417542,0,0
86.696140148182,-20.288736778111,26.458605860586,1862859.0435409,-531.67052669785,2568659.4006427,31.658605860586,0,0
86.696140328433,-20.290789905125,26.46303630363,1862859.0435409,-531.67052669785,2568659.4006427,31.66303630363,0,0
86.696140508684,-20.29284303214,26.467466746675,1862859.0435409,-531.67052669785,2568659.4006427,31.667466746675,0,0
86.696140688934,-20.294896159154,26.471897189719,1862859.0435409,-531.67052669785,2568659.4006427,31.671897189719,0,0
86.696140869185,-20.296949286169,26.476327632763,1862859.0435409,-531.67052669785,2568659.4006427,31.676327632763,0,0
86.696141049436,-20.299002413184,26.480758075808,1862859.0435409,-531.67052669785,2568659.4006427,31.680758075808,0,0
86.696141229687,-20.301055540198,26.485188518852,1862859.0435409,-531.67052669785,2568659.4006427,31.685188518852,0,0
86.696141409938,-20.303108667213,26.489618961896,1862859.0435409,-531.67052669785,2568659.4006427,31.689618961896,0,0
86.696141590188,-20.305161794227,26.49404940494,1862859.0435409,-531.67052669785,2568659.4006427,31.69404940494,0,0
86.696141770439,-20.307214921242,26.498479847985,1862859.0435409,-531.67052669785,2568659.4006427,31.698479847985,0,0
86.69614195069,-20.309268048257,26.502910291029,1862859.0435409,-531.67052669785,2568659.4006427,31.702910291029,0,0
86.696142130941,-20.311321175271,26.507340734073,1862859.0435409,-531.67052669785,2568659.4006427,31.707340734073,0,0
86.696142311192,-20.313374302286,26.511771177118,1862859.0435409,-531.67052669785,2568659.4006427,31.711771177118,0,0
86.696142491443,-20.3154274293,26.516201620162,1862859.0435409,-531.67052669785,2568659.4006427,31.716201620162,0,0
86.696142671693,-20.317480556315,26.520632063206,1862859.0435409,-531.67052669785,2568659.4006427,31.720632063206,0,0
86.696142851944,-20.31953368333,26.525062506251,1862859.0435409,-531.67052669785,2568659.4006427,31.725062506251,0,0
86.696143032195,-20.321586810344,26.529492949295,1862859.0435409,-531.67052669785,2568659.4006427,31.729492949295,0,0
86.696143212446,-20.323639937359,26.533923392339,1862859.0435409,-531.67052669785,2568659.4006427,31.733923392339,0,0
86.696143392697,-20.325693064373,26.538353835384,1862859.0435409,-531.67052669785,2568659.4006427,31.738353835384,0,0
86.696143572947,-20.327746191388,26.542784278428,1862859.0435409,-531.67052669785,2568659.4006427,31.742784278428,0,0
86.696143753198,-20.329799318403,26.547214721472,1862859.0435409,-531.67052669785,2568659.4006427,31.747214721472,0,0
86.696143933449,-20.331852445417,26.551645164516,1862859.0435409,-531.67052669785,2568659.4006427,31.751645164516,0,0
86.6961441137,-20.333905572432,26.556075607561,1862859.0435409,-531.67052669785,2568659.4006427,31.756075607561,0,0
86.696144293951,-20.335958699446,26.560506050605,1862859.0435409,-531.67052669785,2568659.4006427,31.760506050605,0,0
86.696144474201,-20.338011826461,26.564936493649,1862859.0435409,-531.67052669785,2568659.4006427,31.764936493649,0,0
86.696144654452,-20.340064953475,26.569366936694,1862859.0435409,-531.67052669785,2568659.4006427,31.769366936694,0,0
86.696144834703,-20.34211808049,26.573797379738,1862859.0435409,-531.67052669785,2568659.4006427,31.773797379738,0,0
86.696145014954,-20.344171207505,26.578227822782,1862859.0435409,-531.67052669785,2568659.4006427,31.778227822782,0,0
86.696145195205,-20.346224334519,26.582658265827,1862859.0435409,-531.67052669785,2568659.4006427,31.782658265827,0,0
86.696145375456,-20.348277461534,26.587088708871,1862859.0435409,-531.67052669785,2568659.4006427,31.787088708871,0,0
86.696145555706,-20.350330588548,26.591519151915,1862859.0435409,-531.67052669785,2568659.4006427,31.791519151915,0,0
86.696145735957,-20.352383715563,26.595949594959,1862859.0435409,-531.67052669785,2568659.4006427,31.795949594959,0,0
86.696145916208,-20.354436842578,26.600380038004,1862859.0435409,-531.67052669785,2568659.4006427,31.800380038004,0,0
86.696146096459,-20.356489969592,26.604810481048,1862859.0435409,-531.67052669785,2568659.4006427,31.804810481048,0,0
86.69614627671,-20.358543096607,26.609240924092,1862859.0435409,-531.67052669785,2568659.4006427,31.809240924092,0,0
86.69614645696,-20.360596223621,26.613671367137,1862859.0435409,-531.67052669785,2568659.4006427,31.813671367137,0,0
86.696146637211,-20.362649350636,26.618101810181,1862859.0435409,-531.67052669785,2568659.4006427,31.818101810181,0,0
86.696146817462,-20.364702477651,26.622532253225,1862859.0435409,-531.67052669785,2568659.4006427,31.822532253225,0,0
86.696146997713,-20.366755604665,26.62696269627,1862859.0435409,-531.67052669785,2568659.4006427,31.82696269627,0,0
86.696147177964,-20.36880873168,26.631393139314,1862859.0435409,-531.67052669785,2568659.4006427,31.831393139314,0,0
86.696147358214,-20.370861858694,26.635823582358,1862859.0435409,-531.67052669785,2568659.4006427,31.835823582358,0,0
86.696147538465,-20.372914985709,26.640254025403,1862859.0435409,-531.67052669785,2568659.4006427,31.840254025403,0,0
86.696147718716,-20.374968112724,26.644684468447,1862859.0435409,-531.67052669785,2568659.4006427,31.844684468447,0,0
86.696147898967,-20.377021239738,26.649114911491,1862859.0435409,-531.67052669785,2568659.4006427,31.849114911491,0,0
86.696148079218,-20.379074366753,26.653545354535,1862859.0435409,-531.67052669785,2568659.4006427,31.853545354535,0,0
86.696148259468,-20.381127493767,26.65797579758,1862859.0435409,-531.67052669785,2568659.4006427,31.85797579758,0,0
86.696148439719,-20.383180620782,26.662406240624,1862859.0435409,-531.67052669785,2568659.4006427,31.862406240624,0,0
86.69614861997,-20.385233747796,26.666836683668,1862859.0435409,-531.67052669785,2568659.4006427,31.866836683668,0,0
86.696148800221,-20.387286874811,26.671267126713,1862859.0435409,-531.67052669785,2568659.4006427,31.871267126713,0,0
86.696148980472,-20.389340001826,26.675697569757,1862859.0435409,-531.67052669785,2568659.4006427,31.875697569757,0,0
86.696149160723,-20.39139312884,26.680128012801,1862859.0435409,-531.67052669785,2568659.4006427,31.880128012801,0,0
86.696149340973,-20.393446255855,26.684558455846,1862859.0435409,-531.67052669785,2568659.4006427,31.884558455846,0,0
86.696149521224,-20.395499382869,26.68898889889,1862859.0435409,-531.67052669785,2568659.4006427,31.88898889889,0,0
86.696149701475,-20.397552509884,26.693419341934,1862859.0435409,-531.67052669785,2568659.4006427,31.893419341934,0,0
86.696149881726,-20.399605636899,26.697849784978,1862859.0435409,-531.67052669785,2568659.4006427,31.897849784978,0,0
86.696150061977,-20.401658763913,26.702280228023,1862859.0435409,-531.67052669785,2568659.4006427,31.902280228023,0,0
86.696150242227,-20.403711890928,26.706710671067,1862859.0435409,-531.67052669785,2568659.4006427,31.906710671067,0,0
86.696150422478,-20.405765017942,26.711141114111,1862859.0435409,-531.67052669785,2568659.4006427,31.911141114111,0,0
86.696150602729,-20.407818144957,26.715571557156,1862859.0435409,-531.67052669785,2568659.4006427,31.915571557156,0,0
86.69615078298,-20.409871271972,26.7200020002,1862859.0435409,-531.67052669785,2568659.4006427,31.9200020002,0,0
86.696150963231,-20.411924398986,26.724432443244,1862859.0435409,-531.67052669785,2568659.4006427,31.924432443244,0,0
86.696151143481,-20.413977526001,26.728862886289,1862859.0435409,-531.67052669785,2568659.4006427,31.928862886289,0,0
86.696151323732,-20.416030653015,26.733293329333,1862859.0435409,-531.67052669785,2568659.4006427,31.933293329333,0,0
86.696151503983,-20.41808378003,26.737723772377,1862859.0435409,-531.67052669785,2568659.4006427,31.937723772377,0,0
86.696151684234,-20.420136907045,26.742154215422,1862859.0435409,-531.67052669785,2568659.4006427,31.942154215422,0,0
86.696151864485,-20.422190034059,26.746584658466,1862859.0435409,-531.67052669785,2568659.4006427,31.946584658466,0,0
86.696152044735,-20.424243161074,26.75101510151,1862859.0435409,-531.67052669785,2568659.4006427,31.95101510151,0,0
86.696152224986,-20.426296288088,26.755445544554,1862859.0435409,-531.67052669785,2568659.4006427,31.955445544554,0,0
86.696152405237,-20.428349415103,26.759875987599,1862859.0435409,-531.67052669785,2568659.4006427,31.959875987599,0,0
86.696152585488,-20.430402542117,26.764306430643,1862859.0435409,-531.67052669785,2568659.4006427,31.964306430643,0,0
86.696152765739,-20.432455669132,26.768736873687,1862859.0435409,-531.67052669785,2568659.4006427,31.968736873687,0,0
86.69615294599,-20.434508796147,26.773167316732,1862859.0435409,-531.67052669785,2568659.4006427,31.973167316732,0,0
86.69615312624,-20.436561923161,26.777597759776,1862859.0435409,-531.67052669785,2568659.4006427,31.977597759776,0,0
86.696153306491,-20.438615050176,26.78202820282,1862859.0435409,-531.67052669785,2568659.4006427,31.98202820282,0,0
86.696153486742,-20.44066817719,26.786458645865,1862859.0435409,-531.67052669785,2568659.4006427,31.986458645865,0,0
86.696153666993,-20.442721304205,26.790889088909,1862859.0435409,-531.67052669785,2568659.4006427,31.990889088909,0,0
86.696153847244,-20.44477443122,26.795319531953,1862859.0435409,-531.67052669785,2568659.4006427,31.995319531953,0,0
86.696154027494,-20.446827558234,26.799749974997,1862859.0435409,-531.67052669785,2568659.4006427,31.999749974997,0,0
86.696154207745,-20.448880685249,26.804180418042,1862859.0435409,-531.67052669785,2568659.4006427,32.004180418042,0,0
86.696154387996,-20.450933812263,26.808610861086,1862859.0435409,-531.67052669785,2568659.4006427,32.008610861086,0,0
86.696154568247,-20.452986939278,26.81304130413,1862859.0435409,-531.67052669785,2568659.4006427,32.01304130413,0,0
86.696154748498,-20.455040066293,26.817471747175,1862859.0435409,-531.67052669785,2568659.4006427,32.017471747175,0,0
86.696154928748,-20.457093193307,26.821902190219,1862859.0435409,-531.67052669785,2568659.4006427,32.021902190219,0,0
86.696155108999,-20.459146320322,26.826332633263,1862859.0435409,-531.67052669785,2568659.4006427,32.026332633263,0,0
86.69615528925,-20.461199447336,26.830763076308,1862859.0435409,-531.67052669785,2568659.4006427,32.030763076308,0,0
86.696155469501,-20.463252574351,26.835193519352,1862859.0435409,-531.67052669785,2568659.4006427,32.035193519352,0,0
86.696155649752,-20.465305701366,26.839623962396,1862859.0435409,-531.67052669785,2568659.4006427,32.039623962396,0,0
86.696155830003,-20.46735882838,26.844054405441,1862859.0435409,-531.67052669785,2568659.4006427,32.044054405441,0,0
86.696156010253,-20.469411955395,26.848484848485,1862859.0435409,-531.67052669785,2568659.4006427,32.048484848485,0,0
86.696156190504,-20.471465082409,26.852915291529,1862859.0435409,-531.67052669785,2568659.4006427,32.052915291529,0,0
86.696156370755,-20.473518209424,26.857345734573,1862859.0435409,-531.67052669785,2568659.4006427,32.057345734573,0,0
86.696156551006,-20.475571336439,26.861776177618,1862859.0435409,-531.67052669785,2568659.4006427,32.061776177618,0,0
86.696156731257,-20.477624463453,26.866206620662,1862859.0435409,-531.67052669785,2568659.4006427,32.066206620662,0,0
86.696156911507,-20.479677590468,26.870637063706,1862859.0435409,-531.67052669785,2568659.4006427,32.070637063706,0,0
86.696157091758,-20.481730717482,26.875067506751,1862859.0435409,-531.67052669785,2568659.4006427,32.075067506751,0,0
86.696157272009,-20.483783844497,26.879497949795,1862859.0435409,-531.67052669785,2568659.4006427,32.079497949795,0,0
86.69615745226,-20.485836971511,26.883928392839,1862859.0435409,-531.67052669785,2568659.4006427,32.083928392839,0,0
86.696157632511,-20.487890098526,26.888358835884,1862859.0435409,-531.67052669785,2568659.4006427,32.088358835884,0,0
86.696157812761,-20.489943225541,26.892789278928,1862859.0435409,-531.67052669785,2568659.4006427,32.092789278928,0,0
86.696157993012,-20.491996352555,26.897219721972,1862859.0435409,-531.67052669785,2568659.4006427,32.097219721972,0,0
86.696158173263,-20.49404947957,26.901650165017,1862859.0435409,-531.67052669785,2568659.4006427,32.101650165017,0,0
86.696158353514,-20.496102606584,26.906080608061,1862859.0435409,-531.67052669785,2568659.4006427,32.106080608061,0,0
86.696158533765,-20.498155733599,26.910511051105,1862859.0435409,-531.67052669785,2568659.4006427,32.110511051105,0,0
86.696158714015,-20.500208860614,26.914941494149,1862859.0435409,-531.67052669785,2568659.4006427,32.114941494149,0,0
86.696158894266,-20.502261987628,26.919371937194,1862859.0435409,-531.67052669785,2568659.4006427,32.119371937194,0,0
86.696159074517,-20.504315114643,26.923802380238,1862859.0435409,-531.67052669785,2568659.4006427,32.123802380238,0,0
86.696159254768,-20.506368241657,26.928232823282,1862859.0435409,-531.67052669785,2568659.4006427,32.128232823282,0,0
86.696159435019,-20.508421368672,26.932663266327,1862859.0435409,-531.67052669785,2568659.4006427,32.132663266327,0,0
86.69615961527,-20.510474495687,26.937093709371,1862859.0435409,-531.67052669785,2568659.4006427,32.137093709371,0,0
86.69615979552,-20.512527622701,26.941524152415,1862859.0435409,-531.67052669785,2568659.4006427,32.141524152415,0,0
86.696159975771,-20.514580749716,26.94595459546,1862859.0435409,-531.67052669785,2568659.4006427,32.14595459546,0,0
86.696160156022,-20.51663387673,26.950385038504,1862859.0435409,-531.67052669785,2568659.4006427,32.150385038504,0,0
86.696160336273,-20.518687003745,26.954815481548,1862859.0435409,-531.67052669785,2568659.4006427,32.154815481548,0,0
86.696160516524,-20.52074013076,26.959245924592,1862859.0435409,-531.67052669785,2568659.4006427,32.159245924592,0,0
86.696160696774,-20.522793257774,26.963676367637,1862859.0435409,-531.67052669785,2568659.4006427,32.163676367637,0,0
86.696160877025,-20.524846384789,26.968106810681,1862859.0435409,-531.67052669785,2568659.4006427,32.168106810681,0,0
86.696161057276,-20.526899511803,26.972537253725,1862859.0435409,-531.67052669785,2568659.4006427,32.172537253725,0,0
86.696161237527,-20.528952638818,26.97696769677,1862859.0435409,-531.67052669785,2568659.4006427,32.17696769677,0,0
86.696161417778,-20.531005765832,26.981398139814,1862859.0435409,-531.67052669785,2568659.4006427,32.181398139814,0,0
86.696161598028,-20.533058892847,26.985828582858,1862859.0435409,-531.67052669785,2568659.4006427,32.185828582858,0,0
86.696161778279,-20.535112019862,26.990259025903,1862859.0435409,-531.67052669785,2568659.4006427,32.190259025903,0,0
86.69616195853,-20.537165146876,26.994689468947,1862859.0435409,-531.67052669785,2568659.4006427,32.194689468947,0,0
86.696162138781,-20.539218273891,26.999119911991,1862859.0435409,-531.67052669785,2568659.4006427,32.199119911991,0,0
86.696162319032,-20.541271400905,27.003550355036,1862859.0435409,-531.67052669785,2568659.4006427,32.203550355036,0,0
86.696162499283,-20.54332452792,27.00798079808,1862859.0435409,-531.67052669785,2568659.4006427,32.20798079808,0,0
86.696162679533,-20.545377654935,27.012411241124,1862859.0435409,-531.67052669785,2568659.4006427,32.212411241124,0,0
86.696162859784,-20.547430781949,27.016841684168,1862859.0435409,-531.67052669785,2568659.4006427,32.216841684168,0,0
86.696163040035,-20.549483908964,27.021272127213,1862859.0435409,-531.67052669785,2568659.4006427,32.221272127213,0,0
86.696163220286,-20.551537035978,27.025702570257,1862859.0435409,-531.67052669785,2568659.4006427,32.225702570257,0,0
86.696163400537,-20.553590162993,27.030133013301,1862859.0435409,-531.67052669785,2568659.4006427,32.230133013301,0,0
86.696163580787,-20.555643290008,27.034563456346,1862859.0435409,-531.67052669785,2568659.4006427,32.234563456346,0,0
86.696163761038,-20.557696417022,27.03899389939,1862859.0435409,-531.67052669785,2568659.4006427,32.23899389939,0,0
86.696163941289,-20.559749544037,27.043424342434,1862859.0435409,-531.67052669785,2568659.4006427,32.243424342434,0,0
86.69616412154,-20.561802671051,27.047854785479,1862859.0435409,-531.67052669785,2568659.4006427,32.247854785479,0,0
86.696164301791,-20.563855798066,27.052285228523,1862859.0435409,-531.67052669785,2568659.4006427,32.252285228523,0,0
86.696164482041,-20.565908925081,27.056715671567,1862859.0435409,-531.67052669785,2568659.4006427,32.256715671567,0,0
86.696164662292,-20.567962052095,27.061146114611,1862859.0435409,-531.67052669785,2568659.4006427,32.261146114611,0,0
86.696164842543,-20.57001517911,27.065576557656,1862859.0435409,-531.67052669785,2568659.4006427,32.265576557656,0,0
86.696165022794,-20.572068306124,27.0700070007,1862859.0435409,-531.67052669785,2568659.4006427,32.2700070007,0,0
86.696165203045,-20.574121433139,27.074437443744,1862859.0435409,-531.67052669785,2568659.4006427,32.274437443744,0,0
86.696165383296,-20.576174560153,27.078867886789,1862859.0435409,-531.67052669785,2568659.4006427,32.278867886789,0,0
86.696165563546,-20.578227687168,27.083298329833,1862859.0435409,-531.67052669785,2568659.4006427,32.283298329833,0,0
86.696165743797,-20.580280814183,27.087728772877,1862859.0435409,-531.67052669785,2568659.4006427,32.287728772877,0,0
86.696165924048,-20.582333941197,27.092159215922,1862859.0435409,-531.67052669785,2568659.4006427,32.292159215922,0,0
86.696166104299,-20.584387068212,27.096589658966,1862859.0435409,-531.67052669785,2568659.4006427,32.296589658966,0,0
86.69616628455,-20.586440195226,27.10102010201,1862859.0435409,-531.67052669785,2568659.4006427,32.30102010201,0,0
86.6961664648,-20.588493322241,27.105450545055,1862859.0435409,-531.67052669785,2568659.4006427,32.305450545055,0,0
86.696166645051,-20.590546449256,27.109880988099,1862859.0435409,-531.67052669785,2568659.4006427,32.309880988099,0,0
86.696166825302,-20.59259957627,27.114311431143,1862859.0435409,-531.67052669785,2568659.4006427,32.314311431143,0,0
86.696167005553,-20.594652703285,27.118741874187,1862859.0435409,-531.67052669785,2568659.4006427,32.318741874187,0,0
86.696167185804,-20.596705830299,27.123172317232,1862859.0435409,-531.67052669785,2568659.4006427,32.323172317232,0,0
86.696167366054,-20.598758957314,27.127602760276,1862859.0435409,-531.67052669785,2568659.4006427,32.327602760276,0,0
86.696167546305,-20.600812084329,27.13203320332,1862859.0435409,-531.67052669785,2568659.4006427,32.33203320332,0,0
86.696167726556,-20.602865211343,27.136463646365,1862859.0435409,-531.67052669785,2568659.4006427,32.336463646365,0,0
86.696167906807,-20.604918338358,27.140894089409,1862859.0435409,-531.67052669785,2568659.4006427,32.340894089409,0,0
86.696168087058,-20.606971465372,27.145324532453,1862859.0435409,-531.67052669785,2568659.4006427,32.345324532453,0,0
86.696168267308,-20.609024592387,27.149754975498,1862859.0435409,-531.67052669785,2568659.4006427,32.349754975498,0,0
86.696168447559,-20.611077719402,27.154185418542,1862859.0435409,-531.67052669785,2568659.4006427,32.354185418542,0,0
86.69616862781,-20.613130846416,27.158615861586,1862859.0435409,-531.67052669785,2568659.4006427,32.358615861586,0,0
86.696168808061,-20.615183973431,27.16304630463,1862859.0435409,-531.67052669785,2568659.4006427,32.36304630463,0,0
86.696168988312,-20.617237100445,27.167476747675,1862859.0435409,-531.67052669785,2568659.4006427,32.367476747675,0,0
86.696169168563,-20.61929022746,27.171907190719,1862859.0435409,-531.67052669785,2568659.4006427,32.371907190719,0,0
86.696169348813,-20.621343354474,27.176337633763,1862859.0435409,-531.67052669785,2568659.4006427,32.376337633763,0,0
86.696169529064,-20.623396481489,27.180768076808,1862859.0435409,-531.67052669785,2568659.4006427,32.380768076808,0,0
86.696169709315,-20.625449608504,27.185198519852,1862859.0435409,-531.67052669785,2568659.4006427,32.385198519852,0,0
86.696169889566,-20.627502735518,27.189628962896,1862859.0435409,-531.67052669785,2568659.4006427,32.389628962896,0,0
86.696170069817,-20.629555862533,27.194059405941,1862859.0435409,-531.67052669785,2568659.4006427,32.394059405941,0,0
86.696170250067,-20.631608989547,27.198489848985,1862859.0435409,-531.67052669785,2568659.4006427,32.398489848985,0,0
86.696170430318,-20.633662116562,27.202920292029,1862859.0435409,-531.67052669785,2568659.4006427,32.402920292029,0,0
86.696170610569,-20.635715243577,27.207350735074,1862859.0435409,-531.67052669785,2568659.4006427,32.407350735074,0,0
86.69617079082,-20.637768370591,27.211781178118,1862859.0435409,-531.67052669785,2568659.4006427,32.411781178118,0,0
86.696170971071,-20.639821497606,27.216211621162,1862859.0435409,-531.67052669785,2568659.4006427,32.416211621162,0,0
86.696171151321,-20.64187462462,27.220642064206,1862859.0435409,-531.67052669785,2568659.4006427,32.420642064206,0,0
86.696171331572,-20.643927751635,27.225072507251,1862859.0435409,-531.67052669785,2568659.4006427,32.425072507251,0,0
86.696171511823,-20.64598087865,27.229502950295,1862859.0435409,-531.67052669785,2568659.4006427,32.429502950295,0,0
86.696171692074,-20.648034005664,27.233933393339,1862859.0435409,-531.67052669785,2568659.4006427,32.433933393339,0,0
86.696171872325,-20.650087132679,27.238363836384,1862859.0435409,-531.67052669785,2568659.4006427,32.438363836384,0,0
86.696172052576,-20.652140259693,27.242794279428,1862859.0435409,-531.67052669785,2568659.4006427,32.442794279428,0,0
86.696172232826,-20.654193386708,27.247224722472,1862859.0435409,-531.67052669785,2568659.4006427,32.447224722472,0,0
86.696172413077,-20.656246513723,27.251655165517,1862859.0435409,-531.67052669785,2568659.4006427,32.451655165517,0,0
86.696172593328,-20.658299640737,27.256085608561,1862859.0435409,-531.67052669785,2568659.4006427,32.456085608561,0,0
86.696172773579,-20.660352767752,27.260516051605,1862859.0435409,-531.67052669785,2568659.4006427,32.460516051605,0,0
86.69617295383,-20.662405894766,27.264946494649,1862859.0435409,-531.67052669785,2568659.4006427,32.464946494649,0,0
86.69617313408,-20.664459021781,27.269376937694,1862859.0435409,-531.67052669785,2568659.4006427,32.469376937694,0,0
86.696173314331,-20.666512148796,27.273807380738,1862859.0435409,-531.67052669785,2568659.4006427,32.473807380738,0,0
86.696173494582,-20.66856527581,27.278237823782,1862859.0435409,-531.67052669785,2568659.4006427,32.478237823782,0,0
86.696173674833,-20.670618402825,27.282668266827,1862859.0435409,-531.67052669785,2568659.4006427,32.482668266827,0,0
86.696173855084,-20.672671529839,27.287098709871,1862859.0435409,-531.67052669785,2568659.4006427,32.487098709871,0,0
86.696174035334,-20.674724656854,27.291529152915,1862859.0435409,-531.67052669785,2568659.4006427,32.491529152915,0,0
86.696174215585,-20.676777783868,27.29595959596,1862859.0435409,-531.67052669785,2568659.4006427,32.49595959596,0,0
86.696174395836,-20.678830910883,27.300390039004,1862859.0435409,-531.67052669785,2568659.4006427,32.500390039004,0,0
86.696174576087,-20.680884037898,27.304820482048,1862859.0435409,-531.67052669785,2568659.4006427,32.504820482048,0,0
86.696174756338,-20.682937164912,27.309250925093,1862859.0435409,-531.67052669785,2568659.4006427,32.509250925093,0,0
86.696174936588,-20.684990291927,27.313681368137,1862859.0435409,-531.67052669785,2568659.4006427,32.513681368137,0,0
86.696175116839,-20.687043418941,27.318111811181,1862859.0435409,-531.67052669785,2568659.4006427,32.518111811181,0,0
86.69617529709,-20.689096545956,27.322542254225,1862859.0435409,-531.67052669785,2568659.4006427,32.522542254225,0,0
86.696175477341,-20.691149672971,27.32697269727,1862859.0435409,-531.67052669785,2568659.4006427,32.52697269727,0,0
86.696175657592,-20.693202799985,27.331403140314,1862859.0435409,-531.67052669785,2568659.4006427,32.531403140314,0,0
86.696175837843,-20.695255927,27.335833583358,1862859.0435409,-531.67052669785,2568659.4006427,32.535833583358,0,0
86.696176018093,-20.697309054014,27.340264026403,1862859.0435409,-531.67052669785,2568659.4006427,32.540264026403,0,0
86.696176198344,-20.699362181029,27.344694469447,1862859.0435409,-531.67052669785,2568659.4006427,32.544694469447,0,0
86.696176378595,-20.701415308044,27.349124912491,1862859.0435409,-531.67052669785,2568659.4006427,32.549124912491,0,0
86.696176558846,-20.703468435058,27.353555355536,1862859.0435409,-531.67052669785,2568659.4006427,32.553555355536,0,0
86.696176739097,-20.705521562073,27.35798579858,1862859.0435409,-531.67052669785,2568659.4006427,32.55798579858,0,0
86.696176919347,-20.707574689087,27.362416241624,1862859.0435409,-531.67052669785,2568659.4006427,32.562416241624,0,0
86.696177099598,-20.709627816102,27.366846684668,1862859.0435409,-531.67052669785,2568659.4006427,32.566846684668,0,0
86.696177279849,-20.711680943117,27.371277127713,1862859.0435409,-531.67052669785,2568659.4006427,32.571277127713,0,0
86.6961774601,-20.713734070131,27.375707570757,1862859.0435409,-531.67052669785,2568659.4006427,32.575707570757,0,0
86.696177640351,-20.715787197146,27.380138013801,1862859.0435409,-531.67052669785,2568659.4006427,32.580138013801,0,0
86.696177820601,-20.71784032416,27.384568456846,1862859.0435409,-531.67052669785,2568659.4006427,32.584568456846,0,0
86.696178000852,-20.719893451175,27.38899889989,1862859.0435409,-531.67052669785,2568659.4006427,32.58899889989,0,0
86.696178181103,-20.721946578189,27.393429342934,1862859.0435409,-531.67052669785,2568659.4006427,32.593429342934,0,0
86.696178361354,-20.723999705204,27.397859785979,1862859.0435409,-531.67052669785,2568659.4006427,32.597859785979,0,0
86.696178541605,-20.726052832219,27.402290229023,1862859.0435409,-531.67052669785,2568659.4006427,32.602290229023,0,0
86.696178721856,-20.728105959233,27.406720672067,1862859.0435409,-531.67052669785,2568659.4006427,32.606720672067,0,0
86.696178902106,-20.730159086248,27.411151115112,1862859.0435409,-531.67052669785,2568659.4006427,32.611151115112,0,0
86.696179082357,-20.732212213262,27.415581558156,1862859.0435409,-531.67052669785,2568659.4006427,32.615581558156,0,0
86.696179262608,-20.734265340277,27.4200120012,1862859.0435409,-531.67052669785,2568659.4006427,32.6200120012,0,0
86.696179442859,-20.736318467292,27.424442444244,1862859.0435409,-531.67052669785,2568659.4006427,32.624442444244,0,0
86.69617962311,-20.738371594306,27.428872887289,1862859.0435409,-531.67052669785,2568659.4006427,32.628872887289,0,0
86.69617980336,-20.740424721321,27.433303330333,1862859.0435409,-531.67052669785,2568659.4006427,32.633303330333,0,0
86.696179983611,-20.742477848335,27.437733773377,1862859.0435409,-531.67052669785,2568659.4006427,32.637733773377,0,0
86.696180163862,-20.74453097535,27.442164216422,1862859.0435409,-531.67052669785,2568659.4006427,32.642164216422,0,0
86.696180344113,-20.746584102365,27.446594659466,1862859.0435409,-531.67052669785,2568659.4006427,32.646594659466,0,0
86.696180524364,-20.748637229379,27.45102510251,1862859.0435409,-531.67052669785,2568659.4006427,32.65102510251,0,0
86.696180704614,-20.750690356394,27.455455545555,1862859.0435409,-531.67052669785,2568659.4006427,32.655455545555,0,0
86.696180884865,-20.752743483408,27.459885988599,1862859.0435409,-531.67052669785,2568659.4006427,32.659885988599,0,0
86.696181065116,-20.754796610423,27.464316431643,1862859.0435409,-531.67052669785,2568659.4006427,32.664316431643,0,0
86.696181245367,-20.756849737438,27.468746874687,1862859.0435409,-531.67052669785,2568659.4006427,32.668746874687,0,0
86.696181425618,-20.758902864452,27.473177317732,1862859.0435409,-531.67052669785,2568659.4006427,32.673177317732,0,0
86.696181605868,-20.760955991467,27.477607760776,1862859.0435409,-531.67052669785,2568659.4006427,32.677607760776,0,0
86.696181786119,-20.763009118481,27.48203820382,1862859.0435409,-531.67052669785,2568659.4006427,32.68203820382,0,0
86.69618196637,-20.765062245496,27.486468646865,1862859.0435409,-531.67052669785,2568659.4006427,32.686468646865,0,0
86.696182146621,-20.76711537251,27.490899089909,1862859.0435409,-531.67052669785,2568659.4006427,32.690899089909,0,0
86.696182326872,-20.769168499525,27.495329532953,1862859.0435409,-531.67052669785,2568659.4006427,32.695329532953,0,0
86.696182507123,-20.77122162654,27.499759975998,1862859.0435409,-531.67052669785,2568659.4006427,32.699759975998,0,0
86.696182687373,-20.773274753554,27.504190419042,1862859.0435409,-531.67052669785,2568659.4006427,32.704190419042,0,0
86.696182867624,-20.775327880569,27.508620862086,1862859.0435409,-531.67052669785,2568659.4006427,32.708620862086,0,0
86.696183047875,-20.777381007583,27.513051305131,1862859.0435409,-531.67052669785,2568659.4006427,32.713051305131,0,0
86.696183228126,-20.779434134598,27.517481748175,1862859.0435409,-531.67052669785,2568659.4006427,32.717481748175,0,0
86.696183408377,-20.781487261613,27.521912191219,1862859.0435409,-531.67052669785,2568659.4006427,32.721912191219,0,0
86.696183588627,-20.783540388627,27.526342634263,1862859.0435409,-531.67052669785,2568659.4006427,32.726342634263,0,0
86.696183768878,-20.785593515642,27.530773077308,1862859.0435409,-531.67052669785,2568659.4006427,32.730773077308,0,0
86.696183949129,-20.787646642656,27.535203520352,1862859.0435409,-531.67052669785,2568659.4006427,32.735203520352,0,0
86.69618412938,-20.789699769671,27.539633963396,1862859.0435409,-531.67052669785,2568659.4006427,32.739633963396,0,0
86.696184309631,-20.791752896686,27.544064406441,1862859.0435409,-531.67052669785,2568659.4006427,32.744064406441,0,0
86.696184490017,-20.793806023533,27.548494849485,1866168.5504551,629.35468065454,2568412.5926145,32.748494849485,0,0
86.696184670539,-20.795859150213,27.552925292529,1866168.5504551,629.35468065454,2568412.5926145,32.752925292529,0,0
86.69618485106,-20.797912276893,27.557355735574,1866168.5504551,629.35468065454,2568412.5926145,32.757355735574,0,0
86.696185031582,-20.799965403573,27.561786178618,1866168.5504551,629.35468065454,2568412.5926145,32.761786178618,0,0
86.696185212104,-20.802018530253,27.566216621662,1866168.5504551,629.35468065454,2568412.5926145,32.766216621662,0,0
86.696185392626,-20.804071656933,27.570647064706,1866168.5504551,629.35468065454,2568412.5926145,32.770647064706,0,0
86.696185573147,-20.806124783613,27.575077507751,1866168.5504551,629.35468065454,2568412.5926145,32.775077507751,0,0
86.696185753669,-20.808177910293,27.579507950795,1866168.5504551,629.35468065454,2568412.5926145,32.779507950795,0,0
86.696185934191,-20.810231036973,27.583938393839,1866168.5504551,629.35468065454,2568412.5926145,32.783938393839,0,0
86.696186114712,-20.812284163653,27.588368836884,1866168.5504551,629.35468065454,2568412.5926145,32.788368836884,0,0
86.696186295234,-20.814337290333,27.592799279928,1866168.5504551,629.35468065454,2568412.5926145,32.792799279928,0,0
86.696186475756,-20.816390417013,27.597229722972,1866168.5504551,629.35468065454,2568412.5926145,32.797229722972,0,0
86.696186656278,-20.818443543693,27.601660166017,1866168.5504551,629.35468065454,2568412.5926145,32.801660166017,0,0
86.696186836799,-20.820496670373,27.606090609061,1866168.5504551,629.35468065454,2568412.5926145,32.806090609061,0,0
86.696187017321,-20.822549797053,27.610521052105,1866168.5504551,629.35468065454,2568412.5926145,32.810521052105,0,0
86.696187197843,-20.824602923733,27.61495149515,1866168.5504551,629.35468065454,2568412.5926145,32.81495149515,0,0
86.696187378365,-20.826656050413,27.619381938194,1866168.5504551,629.35468065454,2568412.5926145,32.819381938194,0,0
86.696187558886,-20.828709177093,27.623812381238,1866168.5504551,629.35468065454,2568412.5926145,32.823812381238,0,0
86.696187739408,-20.830762303773,27.628242824282,1866168.5504551,629.35468065454,2568412.5926145,32.828242824282,0,0
86.69618791993,-20.832815430453,27.632673267327,1866168.5504551,629.35468065454,2568412.5926145,32.832673267327,0,0
86.696188100452,-20.834868557133,27.637103710371,1866168.5504551,629.35468065454,2568412.5926145,32.837103710371,0,0
86.696188280973,-20.836921683813,27.641534153415,1866168.5504551,629.35468065454,2568412.5926145,32.841534153415,0,0
86.696188461495,-20.838974810493,27.64596459646,1866168.5504551,629.35468065454,2568412.5926145,32.84596459646,0,0
86.696188642017,-20.841027937173,27.650395039504,1866168.5504551,629.35468065454,2568412.5926145,32.850395039504,0,0
86.696188822538,-20.843081063853,27.654825482548,1866168.5504551,629.35468065454,2568412.5926145,32.854825482548,0,0
86.69618900306,-20.845134190533,27.659255925593,1866168.5504551,629.35468065454,2568412.5926145,32.859255925593,0,0
86.696189183582,-20.847187317213,27.663686368637,1866168.5504551,629.35468065454,2568412.5926145,32.863686368637,0,0
86.696189364104,-20.849240443892,27.668116811681,1866168.5504551,629.35468065454,2568412.5926145,32.868116811681,0,0
86.696189544625,-20.851293570572,27.672547254725,1866168.5504551,629.35468065454,2568412.5926145,32.872547254725,0,0
86.696189725147,-20.853346697252,27.67697769777,1866168.5504551,629.35468065454,2568412.5926145,32.87697769777,0,0
86.696189905669,-20.855399823932,27.681408140814,1866168.5504551,629.35468065454,2568412.5926145,32.881408140814,0,0
86.696190086191,-20.857452950612,27.685838583858,1866168.5504551,629.35468065454,2568412.5926145,32.885838583858,0,0
86.696190266712,-20.859506077292,27.690269026903,1866168.5504551,629.35468065454,2568412.5926145,32.890269026903,0,0
86.696190447234,-20.861559203972,27.694699469947,1866168.5504551,629.35468065454,2568412.5926145,32.894699469947,0,0
86.696190627756,-20.863612330652,27.699129912991,1866168.5504551,629.35468065454,2568412.5926145,32.899129912991,0,0
86.696190808277,-20.865665457332,27.703560356036,1866168.5504551,629.35468065454,2568412.5926145,32.903560356036,0,0
86.696190988799,-20.867718584012,27.70799079908,1866168.5504551,629.35468065454,2568412.5926145,32.90799079908,0,0
86.696191169321,-20.869771710692,27.712421242124,1866168.5504551,629.35468065454,2568412.5926145,32.912421242124,0,0
86.696191349843,-20.871824837372,27.716851685169,1866168.5504551,629.35468065454,2568412.5926145,32.916851685169,0,0
86.696191530364,-20.873877964052,27.721282128213,1866168.5504551,629.35468065454,2568412.5926145,32.921282128213,0,0
86.696191710886,-20.875931090732,27.725712571257,1866168.5504551,629.35468065454,2568412.5926145,32.925712571257,0,0
86.696191891408,-20.877984217412,27.730143014301,1866168.5504551,629.35468065454,2568412.5926145,32.930143014301,0,0
86.69619207193,-20.880037344092,27.734573457346,1866168.5504551,629.35468065454,2568412.5926145,32.934573457346,0,0
86.696192252451,-20.882090470772,27.73900390039,1866168.5504551,629.35468065454,2568412.5926145,32.93900390039,0,0
86.696192432973,-20.884143597452,27.743434343434,1866168.5504551,629.35468065454,2568412.5926145,32.943434343434,0,0
86.696192613495,-20.886196724132,27.747864786479,1866168.5504551,629.35468065454,2568412.5926145,32.947864786479,0,0
86.696192794017,-20.888249850812,27.752295229523,1866168.5504551,629.35468065454,2568412.5926145,32.952295229523,0,0
86.696192974538,-20.890302977492,27.756725672567,1866168.5504551,629.35468065454,2568412.5926145,32.956725672567,0,0
86.69619315506,-20.892356104172,27.761156115612,1866168.5504551,629.35468065454,2568412.5926145,32.961156115612,0,0
86.696193335582,-20.894409230852,27.765586558656,1866168.5504551,629.35468065454,2568412.5926145,32.965586558656,0,0
86.696193516103,-20.896462357532,27.7700170017,1866168.5504551,629.35468065454,2568412.5926145,32.9700170017,0,0
86.696193696625,-20.898515484212,27.774447444744,1866168.5504551,629.35468065454,2568412.5926145,32.974447444744,0,0
86.696193877147,-20.900568610892,27.778877887789,1866168.5504551,629.35468065454,2568412.5926145,32.978877887789,0,0
86.696194057669,-20.902621737572,27.783308330833,1866168.5504551,629.35468065454,2568412.5926145,32.983308330833,0,0
86.69619423819,-20.904674864252,27.787738773877,1866168.5504551,629.35468065454,2568412.5926145,32.987738773877,0,0
86.696194418712,-20.906727990932,27.792169216922,1866168.5504551,629.35468065454,2568412.5926145,32.992169216922,0,0
86.696194599234,-20.908781117612,27.796599659966,1866168.5504551,629.35468065454,2568412.5926145,32.996599659966,0,0
86.696194779756,-20.910834244292,27.80103010301,1866168.5504551,629.35468065454,2568412.5926145,33.00103010301,0,0
86.696194960277,-20.912887370972,27.805460546055,1866168.5504551,629.35468065454,2568412.5926145,33.005460546055,0,0
86.696195140799,-20.914940497652,27.809890989099,1866168.5504551,629.35468065454,2568412.5926145,33.009890989099,0,0
86.696195321321,-20.916993624332,27.814321432143,1866168.5504551,629.35468065454,2568412.5926145,33.014321432143,0,0
86.696195501843,-20.919046751012,27.818751875188,1866168.5504551,629.35468065454,2568412.5926145,33.018751875188,0,0
86.696195682364,-20.921099877692,27.823182318232,1866168.5504551,629.35468065454,2568412.5926145,33.023182318232,0,0
86.696195862886,-20.923153004372,27.827612761276,1866168.5504551,629.35468065454,2568412.5926145,33.027612761276,0,0
86.696196043408,-20.925206131052,27.83204320432,1866168.5504551,629.35468065454,2568412.5926145,33.03204320432,0,0
86.696196223929,-20.927259257732,27.836473647365,1866168.5504551,629.35468065454,2568412.5926145,33.036473647365,0,0
86.696196404451,-20.929312384412,27.840904090409,1866168.5504551,629.35468065454,2568412.5926145,33.040904090409,0,0
86.696196584973,-20.931365511092,27.845334533453,1866168.5504551,629.35468065454,2568412.5926145,33.045334533453,0,0
86.696196765495,-20.933418637772,27.849764976498,1866168.5504551,629.35468065454,2568412.5926145,33.049764976498,0,0
86.696196946016,-20.935471764452,27.854195419542,1866168.5504551,629.35468065454,2568412.5926145,33.054195419542,0,0
86.696197126538,-20.937524891132,27.858625862586,1866168.5504551,629.35468065454,2568412.5926145,33.058625862586,0,0
86.69619730706,-20.939578017812,27.863056305631,1866168.5504551,629.35468065455,2568412.5926145,33.063056305631,0,0
86.696197487582,-20.941631144492,27.867486748675,1866168.5504551,629.35468065455,2568412.5926145,33.067486748675,0,0
86.696197668103,-20.943684271172,27.871917191719,1866168.5504551,629.35468065455,2568412.5926145,33.071917191719,0,0
86.696197848625,-20.945737397852,27.876347634763,1866168.5504551,629.35468065455,2568412.5926145,33.076347634763,0,0
86.696198029147,-20.947790524532,27.880778077808,1866168.5504551,629.35468065455,2568412.5926145,33.080778077808,0,0
86.696198209668,-20.949843651212,27.885208520852,1866168.5504551,629.35468065455,2568412.5926145,33.085208520852,0,0
86.69619839019,-20.951896777892,27.889638963896,1866168.5504551,629.35468065455,2568412.5926145,33.089638963896,0,0
86.696198570712,-20.953949904572,27.894069406941,1866168.5504551,629.35468065455,2568412.5926145,33.094069406941,0,0
86.696198751234,-20.956003031252,27.898499849985,1866168.5504551,629.35468065455,2568412.5926145,33.098499849985,0,0
86.696198931755,-20.958056157932,27.902930293029,1866168.5504551,629.35468065455,2568412.5926145,33.102930293029,0,0
86.696199112277,-20.960109284612,27.907360736074,1866168.5504551,629.35468065455,2568412.5926145,33.107360736074,0,0
86.696199292799,-20.962162411292,27.911791179118,1866168.5504551,629.35468065455,2568412.5926145,33.111791179118,0,0
86.696199473321,-20.964215537972,27.916221622162,1866168.5504551,629.35468065455,2568412.5926145,33.116221622162,0,0
86.696199653842,-20.966268664652,27.920652065207,1866168.5504551,629.35468065455,2568412.5926145,33.120652065207,0,0
86.696199834364,-20.968321791332,27.925082508251,1866168.5504551,629.35468065455,2568412.5926145,33.125082508251,0,0
86.696200014886,-20.970374918012,27.929512951295,1866168.5504551,629.35468065455,2568412.5926145,33.129512951295,0,0
86.696200195408,-20.972428044692,27.933943394339,1866168.5504551,629.35468065455,2568412.5926145,33.133943394339,0,0
86.696200375929,-20.974481171372,27.938373837384,1866168.5504551,629.35468065455,2568412.5926145,33.138373837384,0,0
86.696200556451,-20.976534298051,27.942804280428,1866168.5504551,629.35468065455,2568412.5926145,33.142804280428,0,0
86.696200736973,-20.978587424731,27.947234723472,1866168.5504551,629.35468065455,2568412.5926145,33.147234723472,0,0
86.696200917494,-20.980640551411,27.951665166517,1866168.5504551,629.35468065455,2568412.5926145,33.151665166517,0,0
86.696201098016,-20.982693678091,27.956095609561,1866168.5504551,629.35468065455,2568412.5926145,33.156095609561,0,0
86.696201278538,-20.984746804771,27.960526052605,1866168.5504551,629.35468065455,2568412.5926145,33.160526052605,0,0
86.69620145906,-20.986799931451,27.96495649565,1866168.5504551,629.35468065455,2568412.5926145,33.16495649565,0,0
86.696201639581,-20.988853058131,27.969386938694,1866168.5504551,629.35468065455,2568412.5926145,33.169386938694,0,0
86.696201820103,-20.990906184811,27.973817381738,1866168.5504551,629.35468065455,2568412.5926145,33.173817381738,0,0
86.696202000625,-20.992959311491,27.978247824782,1866168.5504551,629.35468065455,2568412.5926145,33.178247824782,0,0
86.696202181147,-20.995012438171,27.982678267827,1866168.5504551,629.35468065455,2568412.5926145,33.182678267827,0,0
86.696202361668,-20.997065564851,27.987108710871,1866168.5504551,629.35468065455,2568412.5926145,33.187108710871,0,0
86.69620254219,-20.999118691531,27.991539153915,1866168.5504551,629.35468065455,2568412.5926145,33.191539153915,0,0
86.696202722712,-21.001171818211,27.99596959696,1866168.5504551,629.35468065455,2568412.5926145,33.19596959696,0,0
86.696202903233,-21.003224944891,28.000400040004,1866168.5504551,629.35468065455,2568412.5926145,33.200400040004,0,0
86.696203083755,-21.005278071571,28.004830483048,1866168.5504551,629.35468065455,2568412.5926145,33.204830483048,0,0
86.696203264277,-21.007331198251,28.009260926093,1866168.5504551,629.35468065455,2568412.5926145,33.209260926093,0,0
86.696203444799,-21.009384324931,28.013691369137,1866168.5504551,629.35468065455,2568412.5926145,33.213691369137,0,0
86.69620362532,-21.011437451611,28.018121812181,1866168.5504551,629.35468065455,2568412.5926145,33.218121812181,0,0
86.696203805842,-21.013490578291,28.022552255226,1866168.5504551,629.35468065455,2568412.5926145,33.222552255226,0,0
86.696203986364,-21.015543704971,28.02698269827,1866168.5504551,629.35468065455,2568412.5926145,33.22698269827,0,0
86.696204166886,-21.017596831651,28.031413141314,1866168.5504551,629.35468065455,2568412.5926145,33.231413141314,0,0
86.696204347407,-21.019649958331,28.035843584358,1866168.5504551,629.35468065455,2568412.5926145,33.235843584358,0,0
86.696204527929,-21.021703085011,28.040274027403,1866168.5504551,629.35468065455,2568412.5926145,33.240274027403,0,0
86.696204708451,-21.023756211691,28.044704470447,1866168.5504551,629.35468065455,2568412.5926145,33.244704470447,0,0
86.696204888973,-21.025809338371,28.049134913491,1866168.5504551,629.35468065455,2568412.5926145,33.249134913491,0,0
86.696205069494,-21.027862465051,28.053565356536,1866168.5504551,629.35468065455,2568412.5926145,33.253565356536,0,0
86.696205250016,-21.029915591731,28.05799579958,1866168.5504551,629.35468065455,2568412.5926145,33.25799579958,0,0
86.696205430538,-21.031968718411,28.062426242624,1866168.5504551,629.35468065455,2568412.5926145,33.262426242624,0,0
86.696205611059,-21.034021845091,28.066856685669,1866168.5504551,629.35468065455,2568412.5926145,33.266856685669,0,0
86.696205791581,-21.036074971771,28.071287128713,1866168.5504551,629.35468065455,2568412.5926145,33.271287128713,0,0
86.696205972103,-21.038128098451,28.075717571757,1866168.5504551,629.35468065455,2568412.5926145,33.275717571757,0,0
86.696206152625,-21.040181225131,28.080148014801,1866168.5504551,629.35468065455,2568412.5926145,33.280148014801,0,0
86.696206333146,-21.042234351811,28.084578457846,1866168.5504551,629.35468065455,2568412.5926145,33.284578457846,0,0
86.696206513668,-21.044287478491,28.08900890089,1866168.5504551,629.35468065455,2568412.5926145,33.28900890089,0,0
86.69620669419,-21.046340605171,28.093439343934,1866168.5504551,629.35468065455,2568412.5926145,33.293439343934,0,0
86.696206874712,-21.048393731851,28.097869786979,1866168.5504551,629.35468065455,2568412.5926145,33.297869786979,0,0
86.696207055233,-21.050446858531,28.102300230023,1866168.5504551,629.35468065455,2568412.5926145,33.302300230023,0,0
86.696207235755,-21.052499985211,28.106730673067,1866168.5504551,629.35468065455,2568412.5926145,33.306730673067,0,0
86.696207416277,-21.054553111891,28.111161116112,1866168.5504551,629.35468065455,2568412.5926145,33.311161116112,0,0
86.696207596799,-21.056606238571,28.115591559156,1866168.5504551,629.35468065455,2568412.5926145,33.315591559156,0,0
86.69620777732,-21.058659365251,28.1200220022,1866168.5504551,629.35468065455,2568412.5926145,33.3200220022,0,0
86.696207957842,-21.060712491931,28.124452445245,1866168.5504551,629.35468065455,2568412.5926145,33.324452445245,0,0
86.696208138364,-21.062765618611,28.128882888289,1866168.5504551,629.35468065455,2568412.5926145,33.328882888289,0,0
86.696208318885,-21.064818745291,28.133313331333,1866168.5504551,629.35468065455,2568412.5926145,33.333313331333,0,0
86.696208499407,-21.066871871971,28.137743774377,1866168.5504551,629.35468065455,2568412.5926145,33.337743774377,0,0
86.696208679929,-21.068924998651,28.142174217422,1866168.5504551,629.35468065455,2568412.5926145,33.342174217422,0,0
86.696208860451,-21.070978125331,28.146604660466,1866168.5504551,629.35468065455,2568412.5926145,33.346604660466,0,0
86.696209040972,-21.073031252011,28.15103510351,1866168.5504551,629.35468065455,2568412.5926145,33.35103510351,0,0
86.696209221494,-21.075084378691,28.155465546555,1866168.5504551,629.35468065455,2568412.5926145,33.355465546555,0,0
86.696209402016,-21.077137505371,28.159895989599,1866168.5504551,629.35468065455,2568412.5926145,33.359895989599,0,0
86.696209582538,-21.079190632051,28.164326432643,1866168.5504551,629.35468065455,2568412.5926145,33.364326432643,0,0
86.696209763059,-21.081243758731,28.168756875688,1866168.5504551,629.35468065455,2568412.5926145,33.368756875688,0,0
86.696209943581,-21.083296885411,28.173187318732,1866168.5504551,629.35468065455,2568412.5926145,33.373187318732,0,0
86.696210124103,-21.085350012091,28.177617761776,1866168.5504551,629.35468065455,2568412.5926145,33.377617761776,0,0
86.696210304624,-21.087403138771,28.18204820482,1866168.5504551,629.35468065455,2568412.5926145,33.38204820482,0,0
86.696210485146,-21.089456265451,28.186478647865,1866168.5504551,629.35468065455,2568412.5926145,33.386478647865,0,0
86.696210665668,-21.091509392131,28.190909090909,1866168.5504551,629.35468065455,2568412.5926145,33.390909090909,0,0
86.69621084619,-21.093562518811,28.195339533953,1866168.5504551,629.35468065455,2568412.5926145,33.395339533953,0,0
86.696211026711,-21.095615645491,28.199769976998,1866168.5504551,629.35468065455,2568412.5926145,33.399769976998,0,0
86.696211207233,-21.097668772171,28.204200420042,1866168.5504551,629.35468065455,2568412.5926145,33.404200420042,0,0
86.696211387755,-21.099721898851,28.208630863086,1866168.5504551,629.35468065455,2568412.5926145,33.408630863086,0,0
86.696211568277,-21.101775025531,28.213061306131,1866168.5504551,629.35468065455,2568412.5926145,33.413061306131,0,0
86.696211748798,-21.10382815221,28.217491749175,1866168.5504551,629.35468065455,2568412.5926145,33.417491749175,0,0
86.69621192932,-21.10588127889,28.221922192219,1866168.5504551,629.35468065455,2568412.5926145,33.421922192219,0,0
86.696212109842,-21.10793440557,28.226352635264,1866168.5504551,629.35468065455,2568412.5926145,33.426352635264,0,0
86.696212290364,-21.10998753225,28.230783078308,1866168.5504551,629.35468065455,2568412.5926145,33.430783078308,0,0
86.696212470885,-21.11204065893,28.235213521352,1866168.5504551,629.35468065455,2568412.5926145,33.435213521352,0,0
86.696212651407,-21.11409378561,28.239643964396,1866168.5504551,629.35468065455,2568412.5926145,33.439643964396,0,0
86.696212831929,-21.11614691229,28.244074407441,1866168.5504551,629.35468065455,2568412.5926145,33.444074407441,0,0
86.69621301245,-21.11820003897,28.248504850485,1866168.5504551,629.35468065455,2568412.5926145,33.448504850485,0,0
86.696213192972,-21.12025316565,28.252935293529,1866168.5504551,629.35468065455,2568412.5926145,33.452935293529,0,0
86.696213373494,-21.12230629233,28.257365736574,1866168.5504551,629.35468065455,2568412.5926145,33.457365736574,0,0
86.696213554016,-21.12435941901,28.261796179618,1866168.5504551,629.35468065455,2568412.5926145,33.461796179618,0,0
86.696213734537,-21.12641254569,28.266226622662,1866168.5504551,629.35468065455,2568412.5926145,33.466226622662,0,0
86.696213915059,-21.12846567237,28.270657065707,1866168.5504551,629.35468065455,2568412.5926145,33.470657065707,0,0
86.696214095581,-21.13051879905,28.275087508751,1866168.5504551,629.35468065455,2568412.5926145,33.475087508751,0,0
86.696214276103,-21.13257192573,28.279517951795,1866168.5504551,629.35468065455,2568412.5926145,33.479517951795,0,0
86.696214456624,-21.13462505241,28.283948394839,1866168.5504551,629.35468065455,2568412.5926145,33.483948394839,0,0
86.696214637146,-21.13667817909,28.288378837884,1866168.5504551,629.35468065455,2568412.5926145,33.488378837884,0,0
86.696214817668,-21.13873130577,28.292809280928,1866168.5504551,629.35468065455,2568412.5926145,33.492809280928,0,0
86.69621499819,-21.14078443245,28.297239723972,1866168.5504551,629.35468065455,2568412.5926145,33.497239723972,0,0
86.696215178711,-21.14283755913,28.301670167017,1866168.5504551,629.35468065455,2568412.5926145,33.501670167017,0,0
86.696215359233,-21.14489068581,28.306100610061,1866168.5504551,629.35468065455,2568412.5926145,33.506100610061,0,0
86.696215539755,-21.14694381249,28.310531053105,1866168.5504551,629.35468065455,2568412.5926145,33.510531053105,0,0
86.696215720276,-21.14899693917,28.31496149615,1866168.5504551,629.35468065455,2568412.5926145,33.51496149615,0,0
86.696215900798,-21.15105006585,28.319391939194,1866168.5504551,629.35468065455,2568412.5926145,33.519391939194,0,0
86.69621608132,-21.15310319253,28.323822382238,1866168.5504551,629.35468065455,2568412.5926145,33.523822382238,0,0
86.696216261842,-21.15515631921,28.328252825283,1866168.5504551,629.35468065455,2568412.5926145,33.528252825283,0,0
86.696216442363,-21.15720944589,28.332683268327,1866168.5504551,629.35468065455,2568412.5926145,33.532683268327,0,0
86.696216622885,-21.15926257257,28.337113711371,1866168.5504551,629.35468065455,2568412.5926145,33.537113711371,0,0
86.696216803407,-21.16131569925,28.341544154415,1866168.5504551,629.35468065455,2568412.5926145,33.541544154415,0,0
86.696216983929,-21.16336882593,28.34597459746,1866168.5504551,629.35468065455,2568412.5926145,33.54597459746,0,0
86.69621716445,-21.16542195261,28.350405040504,1866168.5504551,629.35468065455,2568412.5926145,33.550405040504,0,0
86.696217344972,-21.16747507929,28.354835483548,1866168.5504551,629.35468065455,2568412.5926145,33.554835483548,0,0
86.696217525494,-21.16952820597,28.359265926593,1866168.5504551,629.35468065455,2568412.5926145,33.559265926593,0,0
86.696217706015,-21.17158133265,28.363696369637,1866168.5504551,629.35468065455,2568412.5926145,33.563696369637,0,0
86.696217886537,-21.17363445933,28.368126812681,1866168.5504551,629.35468065455,2568412.5926145,33.568126812681,0,0
86.696218067059,-21.17568758601,28.372557255726,1866168.5504551,629.35468065455,2568412.5926145,33.572557255726,0,0
86.696218247581,-21.17774071269,28.37698769877,1866168.5504551,629.35468065455,2568412.5926145,33.57698769877,0,0
86.696218428102,-21.17979383937,28.381418141814,1866168.5504551,629.35468065455,2568412.5926145,33.581418141814,0,0
86.696218608624,-21.18184696605,28.385848584858,1866168.5504551,629.35468065455,2568412.5926145,33.585848584858,0,0
86.696218789146,-21.18390009273,28.390279027903,1866168.5504551,629.35468065455,2568412.5926145,33.590279027903,0,0
86.696218969668,-21.18595321941,28.394709470947,1866168.5504551,629.35468065455,2568412.5926145,33.594709470947,0,0
86.696219150189,-21.18800634609,28.399139913991,1866168.5504551,629.35468065455,2568412.5926145,33.599139913991,0,0
86.696219330711,-21.19005947277,28.403570357036,1866168.5504551,629.35468065455,2568412.5926145,33.603570357036,0,0
86.696219511233,-21.19211259945,28.40800080008,1866168.5504551,629.35468065455,2568412.5926145,33.60800080008,0,0
86.696219691755,-21.19416572613,28.412431243124,1866168.5504551,629.35468065455,2568412.5926145,33.612431243124,0,0
86.696219872276,-21.19621885281,28.416861686169,1866168.5504551,629.35468065455,2568412.5926145,33.616861686169,0,0
86.696220052798,-21.19827197949,28.421292129213,1866168.5504551,629.35468065455,2568412.5926145,33.621292129213,0,0
86.69622023332,-21.20032510617,28.425722572257,1866168.5504551,629.35468065455,2568412.5926145,33.625722572257,0,0
86.696220413841,-21.20237823285,28.430153015302,1866168.5504551,629.35468065455,2568412.5926145,33.630153015302,0,0
86.696220594363,-21.20443135953,28.434583458346,1866168.5504551,629.35468065455,2568412.5926145,33.634583458346,0,0
86.696220774885,-21.20648448621,28.43901390139,1866168.5504551,629.35468065455,2568412.5926145,33.63901390139,0,0
86.696220955407,-21.20853761289,28.443444344434,1866168.5504551,629.35468065455,2568412.5926145,33.643444344434,0,0
86.696221135928,-21.21059073957,28.447874787479,1866168.5504551,629.35468065455,2568412.5926145,33.647874787479,0,0
86.69622131645,-21.21264386625,28.452305230523,1866168.5504551,629.35468065455,2568412.5926145,33.652305230523,0,0
86.696221496972,-21.21469699293,28.456735673567,1866168.5504551,629.35468065455,2568412.5926145,33.656735673567,0,0
86.696221677494,-21.21675011961,28.461166116612,1866168.5504551,629.35468065455,2568412.5926145,33.661166116612,0,0
86.696221858015,-21.21880324629,28.465596559656,1866168.5504551,629.35468065455,2568412.5926145,33.665596559656,0,0
86.696222038537,-21.22085637297,28.4700270027,1866168.5504551,629.35468065455,2568412.5926145,33.6700270027,0,0
86.696222219059,-21.22290949965,28.474457445745,1866168.5504551,629.35468065455,2568412.5926145,33.674457445745,0,0
86.696222399581,-21.22496262633,28.478887888789,1866168.5504551,629.35468065455,2568412.5926145,33.678887888789,0,0
86.696222580102,-21.22701575301,28.483318331833,1866168.5504551,629.35468065455,2568412.5926145,33.683318331833,0,0
86.696222760624,-21.22906887969,28.487748774877,1866168.5504551,629.35468065455,2568412.5926145,33.687748774877,0,0
86.696222941146,-21.231122006369,28.492179217922,1866168.5504551,629.35468065455,2568412.5926145,33.692179217922,0,0
86.696223121667,-21.233175133049,28.496609660966,1866168.5504551,629.35468065455,2568412.5926145,33.696609660966,0,0
86.696223302189,-21.235228259729,28.50104010401,1866168.5504551,629.35468065455,2568412.5926145,33.70104010401,0,0
86.696223482711,-21.237281386409,28.505470547055,1866168.5504551,629.35468065455,2568412.5926145,33.705470547055,0,0
86.696223663233,-21.239334513089,28.509900990099,1866168.5504551,629.35468065455,2568412.5926145,33.709900990099,0,0
86.696223843754,-21.241387639769,28.514331433143,1866168.5504551,629.35468065455,2568412.5926145,33.714331433143,0,0
86.696224024276,-21.243440766449,28.518761876188,1866168.5504551,629.35468065455,2568412.5926145,33.718761876188,0,0
86.696224204798,-21.245493893129,28.523192319232,1866168.5504551,629.35468065455,2568412.5926145,33.723192319232,0,0
86.69622438532,-21.247547019809,28.527622762276,1866168.5504551,629.35468065455,2568412.5926145,33.727622762276,0,0
86.696224565841,-21.249600146489,28.532053205321,1866168.5504551,629.35468065455,2568412.5926145,33.732053205321,0,0
86.696224746363,-21.251653273169,28.536483648365,1866168.5504551,629.35468065455,2568412.5926145,33.736483648365,0,0
86.696224926885,-21.253706399849,28.540914091409,1866168.5504551,629.35468065455,2568412.5926145,33.740914091409,0,0
86.696225107406,-21.255759526529,28.545344534453,1866168.5504551,629.35468065455,2568412.5926145,33.745344534453,0,0
86.696225287928,-21.257812653209,28.549774977498,1866168.5504551,629.35468065455,2568412.5926145,33.749774977498,0,0
86.69622546845,-21.259865779889,28.554205420542,1866168.5504551,629.35468065455,2568412.5926145,33.754205420542,0,0
86.696225648972,-21.261918906569,28.558635863586,1866168.5504551,629.35468065455,2568412.5926145,33.758635863586,0,0
86.696225829493,-21.263972033249,28.563066306631,1866168.5504551,629.35468065455,2568412.5926145,33.763066306631,0,0
86.696226010015,-21.266025159929,28.567496749675,1866168.5504551,629.35468065455,2568412.5926145,33.767496749675,0,0
86.696226190537,-21.268078286609,28.571927192719,1866168.5504551,629.35468065455,2568412.5926145,33.771927192719,0,0
86.696226371059,-21.270131413289,28.576357635764,1866168.5504551,629.35468065455,2568412.5926145,33.776357635764,0,0
86.69622655158,-21.272184539969,28.580788078808,1866168.5504551,629.35468065455,2568412.5926145,33.780788078808,0,0
86.696226732102,-21.274237666649,28.585218521852,1866168.5504551,629.35468065455,2568412.5926145,33.785218521852,0,0
86.696226912624,-21.276290793329,28.589648964896,1866168.5504551,629.35468065455,2568412.5926145,33.789648964896,0,0
86.696227093146,-21.278343920009,28.594079407941,1866168.5504551,629.35468065455,2568412.5926145,33.794079407941,0,0
86.696227273667,-21.280397046689,28.598509850985,1866168.5504551,629.35468065455,2568412.5926145,33.798509850985,0,0
86.696227454189,-21.282450173369,28.602940294029,1866168.5504551,629.35468065455,2568412.5926145,33.802940294029,0,0
86.696227634711,-21.284503300049,28.607370737074,1866168.5504551,629.35468065455,2568412.5926145,33.807370737074,0,0
86.696227815232,-21.286556426729,28.611801180118,1866168.5504551,629.35468065455,2568412.5926145,33.811801180118,0,0
86.696227995754,-21.288609553409,28.616231623162,1866168.5504551,629.35468065455,2568412.5926145,33.816231623162,0,0
86.696228176276,-21.290662680089,28.620662066207,1866168.5504551,629.35468065455,2568412.5926145,33.820662066207,0,0
86.696228356798,-21.292715806769,28.625092509251,1866168.5504551,629.35468065455,2568412.5926145,33.825092509251,0,0
86.696228537319,-21.294768933449,28.629522952295,1866168.5504551,629.35468065455,2568412.5926145,33.829522952295,0,0
86.696228717841,-21.296822060129,28.63395339534,1866168.5504551,629.35468065455,2568412.5926145,33.83395339534,0,0
86.696228898363,-21.298875186809,28.638383838384,1866168.5504551,629.35468065455,2568412.5926145,33.838383838384,0,0
86.696229078885,-21.300928313489,28.642814281428,1866168.5504551,629.35468065455,2568412.5926145,33.842814281428,0,0
86.696229259406,-21.302981440169,28.647244724472,1866168.5504551,629.35468065455,2568412.5926145,33.847244724472,0,0
86.696229439928,-21.305034566849,28.651675167517,1866168.5504551,629.35468065455,2568412.5926145,33.851675167517,0,0
86.69622962045,-21.307087693529,28.656105610561,1866168.5504551,629.35468065455,2568412.5926145,33.856105610561,0,0
86.696229800971,-21.309140820209,28.660536053605,1866168.5504551,629.35468065455,2568412.5926145,33.860536053605,0,0
86.696229981493,-21.311193946889,28.66496649665,1866168.5504551,629.35468065455,2568412.5926145,33.86496649665,0,0
86.696230162015,-21.313247073569,28.669396939694,1866168.5504551,629.35468065455,2568412.5926145,33.869396939694,0,0
86.696230342537,-21.315300200249,28.673827382738,1866168.5504551,629.35468065455,2568412.5926145,33.873827382738,0,0
86.696230523058,-21.317353326929,28.678257825783,1866168.5504551,629.35468065455,2568412.5926145,33.878257825783,0,0
86.69623070358,-21.319406453609,28.682688268827,1866168.5504551,629.35468065455,2568412.5926145,33.882688268827,0,0
86.696230884102,-21.321459580289,28.687118711871,1866168.5504551,629.35468065455,2568412.5926145,33.887118711871,0,0
86.696231064624,-21.323512706969,28.691549154915,1866168.5504551,629.35468065455,2568412.5926145,33.891549154915,0,0
86.696231245145,-21.325565833649,28.69597959796,1866168.5504551,629.35468065455,2568412.5926145,33.89597959796,0,0
86.696231425667,-21.327618960329,28.700410041004,1866168.5504551,629.35468065455,2568412.5926145,33.900410041004,0,0
86.696231606189,-21.329672087009,28.704840484048,1866168.5504551,629.35468065455,2568412.5926145,33.904840484048,0,0
86.696231786711,-21.331725213689,28.709270927093,1866168.5504551,629.35468065455,2568412.5926145,33.909270927093,0,0
86.696231967232,-21.333778340369,28.713701370137,1866168.5504551,629.35468065455,2568412.5926145,33.913701370137,0,0
86.696232147754,-21.335831467049,28.718131813181,1866168.5504551,629.35468065455,2568412.5926145,33.918131813181,0,0
86.696232328276,-21.337884593729,28.722562256226,1866168.5504551,629.35468065455,2568412.5926145,33.922562256226,0,0
86.696232508797,-21.339937720409,28.72699269927,1866168.5504551,629.35468065455,2568412.5926145,33.92699269927,0,0
86.696232689319,-21.341990847089,28.731423142314,1866168.5504551,629.35468065455,2568412.5926145,33.931423142314,0,0
86.696232869841,-21.344043973769,28.735853585359,1866168.5504551,629.35468065455,2568412.5926145,33.935853585359,0,0
86.696233050363,-21.346097100449,28.740284028403,1866168.5504551,629.35468065455,2568412.5926145,33.940284028403,0,0
86.696233230884,-21.348150227129,28.744714471447,1866168.5504551,629.35468065455,2568412.5926145,33.944714471447,0,0
86.696233411406,-21.350203353809,28.749144914491,1866168.5504551,629.35468065455,2568412.5926145,33.949144914491,0,0
86.696233591928,-21.352256480489,28.753575357536,1866168.5504551,629.35468065455,2568412.5926145,33.953575357536,0,0
86.69623377245,-21.354309607169,28.75800580058,1866168.5504551,629.35468065455,2568412.5926145,33.95800580058,0,0
86.696233952971,-21.356362733849,28.762436243624,1866168.5504551,629.35468065455,2568412.5926145,33.962436243624,0,0
86.696234133493,-21.358415860528,28.766866686669,1866168.5504551,629.35468065455,2568412.5926145,33.966866686669,0,0
86.696234314015,-21.360468987208,28.771297129713,1866168.5504551,629.35468065455,2568412.5926145,33.971297129713,0,0
86.696234494537,-21.362522113888,28.775727572757,1866168.5504551,629.35468065455,2568412.5926145,33.975727572757,0,0
86.696234675058,-21.364575240568,28.780158015802,1866168.5504551,629.35468065455,2568412.5926145,33.980158015802,0,0
86.69623485558,-21.366628367248,28.784588458846,1866168.5504551,629.35468065455,2568412.5926145,33.984588458846,0,0
86.696235036102,-21.368681493928,28.78901890189,1866168.5504551,629.35468065455,2568412.5926145,33.98901890189,0,0
86.696235216623,-21.370734620608,28.793449344934,1866168.5504551,629.35468065455,2568412.5926145,33.993449344934,0,0
86.696235397145,-21.372787747288,28.797879787979,1866168.5504551,629.35468065455,2568412.5926145,33.997879787979,0,0
86.696235577667,-21.374840873968,28.802310231023,1866168.5504551,629.35468065455,2568412.5926145,34.002310231023,0,0
86.696235758189,-21.376894000648,28.806740674067,1866168.5504551,629.35468065455,2568412.5926145,34.006740674067,0,0
86.69623593871,-21.378947127328,28.811171117112,1866168.5504551,629.35468065455,2568412.5926145,34.011171117112,0,0
86.696236119232,-21.381000254008,28.815601560156,1866168.5504551,629.35468065455,2568412.5926145,34.015601560156,0,0
86.696236299754,-21.383053380688,28.8200320032,1866168.5504551,629.35468065455,2568412.5926145,34.0200320032,0,0
86.696236480276,-21.385106507368,28.824462446245,1866168.5504551,629.35468065455,2568412.5926145,34.024462446245,0,0
86.696236660797,-21.387159634048,28.828892889289,1866168.5504551,629.35468065455,2568412.5926145,34.028892889289,0,0
86.696236841319,-21.389212760728,28.833323332333,1866168.5504551,629.35468065455,2568412.5926145,34.033323332333,0,0
86.696237021841,-21.391265887408,28.837753775378,1866168.5504551,629.35468065455,2568412.5926145,34.037753775378,0,0
86.696237202362,-21.393319014088,28.842184218422,1866168.5504551,629.35468065455,2568412.5926145,34.042184218422,0,0
86.696237382884,-21.395372140768,28.846614661466,1866168.5504551,629.35468065455,2568412.5926145,34.046614661466,0,0
86.696237563406,-21.397425267448,28.85104510451,1866168.5504551,629.35468065455,2568412.5926145,34.05104510451,0,0
86.696237743928,-21.399478394128,28.855475547555,1866168.5504551,629.35468065455,2568412.5926145,34.055475547555,0,0
86.696237924449,-21.401531520808,28.859905990599,1866168.5504551,629.35468065455,2568412.5926145,34.059905990599,0,0
86.696238104971,-21.403584647488,28.864336433643,1866168.5504551,629.35468065455,2568412.5926145,34.064336433643,0,0
86.696238285493,-21.405637774168,28.868766876688,1866168.5504551,629.35468065455,2568412.5926145,34.068766876688,0,0
86.696238466015,-21.407690900848,28.873197319732,1866168.5504551,629.35468065455,2568412.5926145,34.073197319732,0,0
86.696238646536,-21.409744027528,28.877627762776,1866168.5504551,629.35468065455,2568412.5926145,34.077627762776,0,0
86.696238827058,-21.411797154208,28.882058205821,1866168.5504551,629.35468065455,2568412.5926145,34.082058205821,0,0
86.69623900758,-21.413850280888,28.886488648865,1866168.5504551,629.35468065455,2568412.5926145,34.086488648865,0,0
86.696239188102,-21.415903407568,28.890919091909,1866168.5504551,629.35468065455,2568412.5926145,34.090919091909,0,0
86.696239368623,-21.417956534248,28.895349534953,1866168.5504551,629.35468065455,2568412.5926145,34.095349534953,0,0
86.696239549145,-21.420009660928,28.899779977998,1866168.5504551,629.35468065455,2568412.5926145,34.099779977998,0,0
86.696239729667,-21.422062787608,28.904210421042,1866168.5504551,629.35468065455,2568412.5926145,34.104210421042,0,0
86.696239910334,-21.424115914727,28.908640864086,1866630.3177444,-1303.1903230144,2562743.3126932,34.108640864086,0,0
86.696240091044,-21.426169041973,28.913071307131,1866630.3177444,-1303.1903230144,2562743.3126932,34.113071307131,0,0
86.696240271753,-21.428222169219,28.917501750175,1866630.3177444,-1303.1903230144,2562743.3126932,34.117501750175,0,0
86.696240452463,-21.430275296465,28.921932193219,1866630.3177444,-1303.1903230144,2562743.3126932,34.121932193219,0,0
86.696240633172,-21.432328423711,28.926362636264,1866630.3177444,-1303.1903230144,2562743.3126932,34.126362636264,0,0
86.696240813882,-21.434381550957,28.930793079308,1866630.3177444,-1303.1903230144,2562743.3126932,34.130793079308,0,0
86.696240994591,-21.436434678203,28.935223522352,1866630.3177444,-1303.1903230144,2562743.3126932,34.135223522352,0,0
86.696241175301,-21.438487805449,28.939653965397,1866630.3177444,-1303.1903230144,2562743.3126932,34.139653965397,0,0
86.696241356011,-21.440540932695,28.944084408441,1866630.3177444,-1303.1903230144,2562743.3126932,34.144084408441,0,0
86.69624153672,-21.442594059941,28.948514851485,1866630.3177444,-1303.1903230144,2562743.3126932,34.148514851485,0,0
86.69624171743,-21.444647187187,28.952945294529,1866630.3177444,-1303.1903230144,2562743.3126932,34.152945294529,0,0
86.696241898139,-21.446700314433,28.957375737574,1866630.3177444,-1303.1903230144,2562743.3126932,34.157375737574,0,0
86.696242078849,-21.448753441679,28.961806180618,1866630.3177444,-1303.1903230144,2562743.3126932,34.161806180618,0,0
86.696242259558,-21.450806568925,28.966236623662,1866630.3177444,-1303.1903230144,2562743.3126932,34.166236623662,0,0
86.696242440268,-21.45285969617,28.970667066707,1866630.3177444,-1303.1903230144,2562743.3126932,34.170667066707,0,0
86.696242620978,-21.454912823416,28.975097509751,1866630.3177444,-1303.1903230144,2562743.3126932,34.175097509751,0,0
86.696242801687,-21.456965950662,28.979527952795,1866630.3177444,-1303.1903230144,2562743.3126932,34.179527952795,0,0
86.696242982397,-21.459019077908,28.98395839584,1866630.3177444,-1303.1903230144,2562743.3126932,34.18395839584,0,0
86.696243163106,-21.461072205154,28.988388838884,1866630.3177444,-1303.1903230144,2562743.3126932,34.188388838884,0,0
86.696243343816,-21.4631253324,28.992819281928,1866630.3177444,-1303.1903230144,2562743.3126932,34.192819281928,0,0
86.696243524525,-21.465178459646,28.997249724972,1866630.3177444,-1303.1903230144,2562743.3126932,34.197249724972,0,0
86.696243705235,-21.467231586892,29.001680168017,1866630.3177444,-1303.1903230144,2562743.3126932,34.201680168017,0,0
86.696243885944,-21.469284714138,29.006110611061,1866630.3177444,-1303.1903230144,2562743.3126932,34.206110611061,0,0
86.696244066654,-21.471337841384,29.010541054105,1866630.3177444,-1303.1903230144,2562743.3126932,34.210541054105,0,0
86.696244247364,-21.47339096863,29.01497149715,1866630.3177444,-1303.1903230144,2562743.3126932,34.21497149715,0,0
86.696244428073,-21.475444095876,29.019401940194,1866630.3177444,-1303.1903230144,2562743.3126932,34.219401940194,0,0
86.696244608783,-21.477497223122,29.023832383238,1866630.3177444,-1303.1903230144,2562743.3126932,34.223832383238,0,0
86.696244789492,-21.479550350368,29.028262826283,1866630.3177444,-1303.1903230144,2562743.3126932,34.228262826283,0,0
86.696244970202,-21.481603477614,29.032693269327,1866630.3177444,-1303.1903230144,2562743.3126932,34.232693269327,0,0
86.696245150911,-21.48365660486,29.037123712371,1866630.3177444,-1303.1903230144,2562743.3126932,34.237123712371,0,0
86.696245331621,-21.485709732106,29.041554155416,1866630.3177444,-1303.1903230144,2562743.3126932,34.241554155416,0,0
86.696245512331,-21.487762859352,29.04598459846,1866630.3177444,-1303.1903230144,2562743.3126932,34.24598459846,0,0
86.69624569304,-21.489815986598,29.050415041504,1866630.3177444,-1303.1903230144,2562743.3126932,34.250415041504,0,0
86.69624587375,-21.491869113844,29.054845484548,1866630.3177444,-1303.1903230144,2562743.3126932,34.254845484548,0,0
86.696246054459,-21.49392224109,29.059275927593,1866630.3177444,-1303.1903230144,2562743.3126932,34.259275927593,0,0
86.696246235169,-21.495975368336,29.063706370637,1866630.3177444,-1303.1903230144,2562743.3126932,34.263706370637,0,0
86.696246415878,-21.498028495582,29.068136813681,1866630.3177444,-1303.1903230144,2562743.3126932,34.268136813681,0,0
86.696246596588,-21.500081622828,29.072567256726,1866630.3177444,-1303.1903230144,2562743.3126932,34.272567256726,0,0
86.696246777297,-21.502134750074,29.07699769977,1866630.3177444,-1303.1903230144,2562743.3126932,34.27699769977,0,0
86.696246958007,-21.50418787732,29.081428142814,1866630.3177444,-1303.1903230144,2562743.3126932,34.281428142814,0,0
86.696247138717,-21.506241004566,29.085858585859,1866630.3177444,-1303.1903230144,2562743.3126932,34.285858585859,0,0
86.696247319426,-21.508294131812,29.090289028903,1866630.3177444,-1303.1903230144,2562743.3126932,34.290289028903,0,0
86.696247500136,-21.510347259058,29.094719471947,1866630.3177444,-1303.1903230144,2562743.3126932,34.294719471947,0,0
86.696247680845,-21.512400386304,29.099149914991,1866630.3177444,-1303.1903230144,2562743.3126932,34.299149914991,0,0
86.696247861555,-21.51445351355,29.103580358036,1866630.3177444,-1303.1903230144,2562743.3126932,34.303580358036,0,0
86.696248042264,-21.516506640796,29.10801080108,1866630.3177444,-1303.1903230144,2562743.3126932,34.30801080108,0,0
86.696248222974,-21.518559768042,29.112441244124,1866630.3177444,-1303.1903230144,2562743.3126932,34.312441244124,0,0
86.696248403683,-21.520612895288,29.116871687169,1866630.3177444,-1303.1903230144,2562743.3126932,34.316871687169,0,0
86.696248584393,-21.522666022534,29.121302130213,1866630.3177444,-1303.1903230144,2562743.3126932,34.321302130213,0,0
86.696248765103,-21.52471914978,29.125732573257,1866630.3177444,-1303.1903230144,2562743.3126932,34.325732573257,0,0
86.696248945812,-21.526772277026,29.130163016302,1866630.3177444,-1303.1903230144,2562743.3126932,34.330163016302,0,0
86.696249126522,-21.528825404272,29.134593459346,1866630.3177444,-1303.1903230144,2562743.3126932,34.334593459346,0,0
86.696249307231,-21.530878531518,29.13902390239,1866630.3177444,-1303.1903230144,2562743.3126932,34.33902390239,0,0
86.696249487941,-21.532931658764,29.143454345435,1866630.3177444,-1303.1903230144,2562743.3126932,34.343454345435,0,0
86.69624966865,-21.53498478601,29.147884788479,1866630.3177444,-1303.1903230144,2562743.3126932,34.347884788479,0,0
86.69624984936,-21.537037913256,29.152315231523,1866630.3177444,-1303.1903230144,2562743.3126932,34.352315231523,0,0
86.69625003007,-21.539091040502,29.156745674567,1866630.3177444,-1303.1903230144,2562743.3126932,34.356745674567,0,0
86.696250210779,-21.541144167748,29.161176117612,1866630.3177444,-1303.1903230144,2562743.3126932,34.361176117612,0,0
86.696250391489,-21.543197294994,29.165606560656,1866630.3177444,-1303.1903230144,2562743.3126932,34.365606560656,0,0
86.696250572198,-21.54525042224,29.1700370037,1866630.3177444,-1303.1903230144,2562743.3126932,34.3700370037,0,0
86.696250752908,-21.547303549485,29.174467446745,1866630.3177444,-1303.1903230144,2562743.3126932,34.374467446745,0,0
86.696250933617,-21.549356676731,29.178897889789,1866630.3177444,-1303.1903230144,2562743.3126932,34.378897889789,0,0
86.696251114327,-21.551409803977,29.183328332833,1866630.3177444,-1303.1903230144,2562743.3126932,34.383328332833,0,0
86.696251295036,-21.553462931223,29.187758775878,1866630.3177444,-1303.1903230144,2562743.3126932,34.387758775878,0,0
86.696251475746,-21.555516058469,29.192189218922,1866630.3177444,-1303.1903230144,2562743.3126932,34.392189218922,0,0
86.696251656456,-21.557569185715,29.196619661966,1866630.3177444,-1303.1903230144,2562743.3126932,34.396619661966,0,0
86.696251837165,-21.559622312961,29.20105010501,1866630.3177444,-1303.1903230144,2562743.3126932,34.40105010501,0,0
86.696252017875,-21.561675440207,29.205480548055,1866630.3177444,-1303.1903230144,2562743.3126932,34.405480548055,0,0
86.696252198584,-21.563728567453,29.209910991099,1866630.3177444,-1303.1903230144,2562743.3126932,34.409910991099,0,0
86.696252379294,-21.565781694699,29.214341434143,1866630.3177444,-1303.1903230144,2562743.3126932,34.414341434143,0,0
86.696252560003,-21.567834821945,29.218771877188,1866630.3177444,-1303.1903230144,2562743.3126932,34.418771877188,0,0
86.696252740713,-21.569887949191,29.223202320232,1866630.3177444,-1303.1903230144,2562743.3126932,34.423202320232,0,0
86.696252921423,-21.571941076437,29.227632763276,1866630.3177444,-1303.1903230144,2562743.3126932,34.427632763276,0,0
86.696253102132,-21.573994203683,29.232063206321,1866630.3177444,-1303.1903230144,2562743.3126932,34.432063206321,0,0
86.696253282842,-21.576047330929,29.236493649365,1866630.3177444,-1303.1903230144,2562743.3126932,34.436493649365,0,0
86.696253463551,-21.578100458175,29.240924092409,1866630.3177444,-1303.1903230144,2562743.3126932,34.440924092409,0,0
86.696253644261,-21.580153585421,29.245354535454,1866630.3177444,-1303.1903230144,2562743.3126932,34.445354535454,0,0
86.69625382497,-21.582206712667,29.249784978498,1866630.3177444,-1303.1903230144,2562743.3126932,34.449784978498,0,0
86.69625400568,-21.584259839913,29.254215421542,1866630.3177444,-1303.1903230144,2562743.3126932,34.454215421542,0,0
86.696254186389,-21.586312967159,29.258645864586,1866630.3177444,-1303.1903230144,2562743.3126932,34.458645864586,0,0
86.696254367099,-21.588366094405,29.263076307631,1866630.3177444,-1303.1903230144,2562743.3126932,34.463076307631,0,0
86.696254547809,-21.590419221651,29.267506750675,1866630.3177444,-1303.1903230144,2562743.3126932,34.467506750675,0,0
86.696254728518,-21.592472348897,29.271937193719,1866630.3177444,-1303.1903230144,2562743.3126932,34.471937193719,0,0
86.696254909228,-21.594525476143,29.276367636764,1866630.3177444,-1303.1903230144,2562743.3126932,34.476367636764,0,0
86.696255089937,-21.596578603389,29.280798079808,1866630.3177444,-1303.1903230144,2562743.3126932,34.480798079808,0,0
86.696255270647,-21.598631730635,29.285228522852,1866630.3177444,-1303.1903230144,2562743.3126932,34.485228522852,0,0
86.696255451356,-21.600684857881,29.289658965897,1866630.3177444,-1303.1903230144,2562743.3126932,34.489658965897,0,0
86.696255632066,-21.602737985127,29.294089408941,1866630.3177444,-1303.1903230144,2562743.3126932,34.494089408941,0,0
86.696255812776,-21.604791112373,29.298519851985,1866630.3177444,-1303.1903230144,2562743.3126932,34.498519851985,0,0
86.696255993485,-21.606844239619,29.30295029503,1866630.3177444,-1303.1903230144,2562743.3126932,34.502950295029,0,0
86.696256174195,-21.608897366865,29.307380738074,1866630.3177444,-1303.1903230144,2562743.3126932,34.507380738074,0,0
86.696256354904,-21.610950494111,29.311811181118,1866630.3177444,-1303.1903230144,2562743.3126932,34.511811181118,0,0
86.696256535614,-21.613003621357,29.316241624162,1866630.3177444,-1303.1903230144,2562743.3126932,34.516241624162,0,0
86.696256716323,-21.615056748603,29.320672067207,1866630.3177444,-1303.1903230144,2562743.3126932,34.520672067207,0,0
86.696256897033,-21.617109875849,29.325102510251,1866630.3177444,-1303.1903230144,2562743.3126932,34.525102510251,0,0
86.696257077742,-21.619163003095,29.329532953295,1866630.3177444,-1303.1903230144,2562743.3126932,34.529532953295,0,0
86.696257258452,-21.621216130341,29.33396339634,1866630.3177444,-1303.1903230144,2562743.3126932,34.53396339634,0,0
86.696257439162,-21.623269257587,29.338393839384,1866630.3177444,-1303.1903230144,2562743.3126932,34.538393839384,0,0
86.696257619871,-21.625322384833,29.342824282428,1866630.3177444,-1303.1903230144,2562743.3126932,34.542824282428,0,0
86.696257800581,-21.627375512079,29.347254725473,1866630.3177444,-1303.1903230144,2562743.3126932,34.547254725473,0,0
86.69625798129,-21.629428639325,29.351685168517,1866630.3177444,-1303.1903230144,2562743.3126932,34.551685168517,0,0
86.696258162,-21.631481766571,29.356115611561,1866630.3177444,-1303.1903230144,2562743.3126932,34.556115611561,0,0
86.696258342709,-21.633534893817,29.360546054605,1866630.3177444,-1303.1903230144,2562743.3126932,34.560546054605,0,0
86.696258523419,-21.635588021063,29.36497649765,1866630.3177444,-1303.1903230144,2562743.3126932,34.56497649765,0,0
86.696258704128,-21.637641148309,29.369406940694,1866630.3177444,-1303.1903230144,2562743.3126932,34.569406940694,0,0
86.696258884838,-21.639694275555,29.373837383738,1866630.3177444,-1303.1903230144,2562743.3126932,34.573837383738,0,0
86.696259065548,-21.6417474028,29.378267826783,1866630.3177444,-1303.1903230144,2562743.3126932,34.578267826783,0,0
86.696259246257,-21.643800530046,29.382698269827,1866630.3177444,-1303.1903230144,2562743.3126932,34.582698269827,0,0
86.696259426967,-21.645853657292,29.387128712871,1866630.3177444,-1303.1903230144,2562743.3126932,34.587128712871,0,0
86.696259607676,-21.647906784538,29.391559155916,1866630.3177444,-1303.1903230144,2562743.3126932,34.591559155916,0,0
86.696259788386,-21.649959911784,29.39598959896,1866630.3177444,-1303.1903230144,2562743.3126932,34.59598959896,0,0
86.696259969095,-21.65201303903,29.400420042004,1866630.3177444,-1303.1903230144,2562743.3126932,34.600420042004,0,0
86.696260149805,-21.654066166276,29.404850485049,1866630.3177444,-1303.1903230144,2562743.3126932,34.604850485049,0,0
86.696260330515,-21.656119293522,29.409280928093,1866630.3177444,-1303.1903230144,2562743.3126932,34.609280928093,0,0
86.696260511224,-21.658172420768,29.413711371137,1866630.3177444,-1303.1903230144,2562743.3126932,34.613711371137,0,0
86.696260691934,-21.660225548014,29.418141814181,1866630.3177444,-1303.1903230144,2562743.3126932,34.618141814181,0,0
86.696260872643,-21.66227867526,29.422572257226,1866630.3177444,-1303.1903230144,2562743.3126932,34.622572257226,0,0
86.696261053353,-21.664331802506,29.42700270027,1866630.3177444,-1303.1903230144,2562743.3126932,34.62700270027,0,0
86.696261234062,-21.666384929752,29.431433143314,1866630.3177444,-1303.1903230144,2562743.3126932,34.631433143314,0,0
86.696261414772,-21.668438056998,29.435863586359,1866630.3177444,-1303.1903230144,2562743.3126932,34.635863586359,0,0
86.696261595481,-21.670491184244,29.440294029403,1866630.3177444,-1303.1903230144,2562743.3126932,34.640294029403,0,0
86.696261776191,-21.67254431149,29.444724472447,1866630.3177444,-1303.1903230144,2562743.3126932,34.644724472447,0,0
86.696261956901,-21.674597438736,29.449154915492,1866630.3177444,-1303.1903230144,2562743.3126932,34.649154915492,0,0
86.69626213761,-21.676650565982,29.453585358536,1866630.3177444,-1303.1903230144,2562743.3126932,34.653585358536,0,0
86.69626231832,-21.678703693228,29.45801580158,1866630.3177444,-1303.1903230144,2562743.3126932,34.65801580158,0,0
86.696262499029,-21.680756820474,29.462446244624,1866630.3177444,-1303.1903230144,2562743.3126932,34.662446244624,0,0
86.696262679739,-21.68280994772,29.466876687669,1866630.3177444,-1303.1903230144,2562743.3126932,34.666876687669,0,0
86.696262860448,-21.684863074966,29.471307130713,1866630.3177444,-1303.1903230144,2562743.3126932,34.671307130713,0,0
86.696263041158,-21.686916202212,29.475737573757,1866630.3177444,-1303.1903230144,2562743.3126932,34.675737573757,0,0
86.696263221868,-21.688969329458,29.480168016802,1866630.3177444,-1303.1903230144,2562743.3126932,34.680168016802,0,0
86.696263402577,-21.691022456704,29.484598459846,1866630.3177444,-1303.1903230144,2562743.3126932,34.684598459846,0,0
86.696263583287,-21.69307558395,29.48902890289,1866630.3177444,-1303.1903230144,2562743.3126932,34.68902890289,0,0
86.696263763996,-21.695128711196,29.493459345935,1866630.3177444,-1303.1903230144,2562743.3126932,34.693459345935,0,0
86.696263944706,-21.697181838442,29.497889788979,1866630.3177444,-1303.1903230144,2562743.3126932,34.697889788979,0,0
86.696264125415,-21.699234965688,29.502320232023,1866630.3177444,-1303.1903230144,2562743.3126932,34.702320232023,0,0
86.696264306125,-21.701288092934,29.506750675068,1866630.3177444,-1303.1903230144,2562743.3126932,34.706750675068,0,0
86.696264486834,-21.70334122018,29.511181118112,1866630.3177444,-1303.1903230144,2562743.3126932,34.711181118112,0,0
86.696264667544,-21.705394347426,29.515611561156,1866630.3177444,-1303.1903230144,2562743.3126932,34.715611561156,0,0
86.696264848254,-21.707447474672,29.5200420042,1866630.3177444,-1303.1903230144,2562743.3126932,34.7200420042,0,0
86.696265028963,-21.709500601918,29.524472447245,1866630.3177444,-1303.1903230144,2562743.3126932,34.724472447245,0,0
86.696265209673,-21.711553729164,29.528902890289,1866630.3177444,-1303.1903230144,2562743.3126932,34.728902890289,0,0
86.696265390382,-21.71360685641,29.533333333333,1866630.3177444,-1303.1903230144,2562743.3126932,34.733333333333,0,0
86.696265571092,-21.715659983656,29.537763776378,1866630.3177444,-1303.1903230144,2562743.3126932,34.737763776378,0,0
86.696265751801,-21.717713110902,29.542194219422,1866630.3177444,-1303.1903230144,2562743.3126932,34.742194219422,0,0
86.696265932511,-21.719766238148,29.546624662466,1866630.3177444,-1303.1903230144,2562743.3126932,34.746624662466,0,0
86.696266113221,-21.721819365394,29.551055105511,1866630.3177444,-1303.1903230144,2562743.3126932,34.751055105511,0,0
86.69626629393,-21.72387249264,29.555485548555,1866630.3177444,-1303.1903230144,2562743.3126932,34.755485548555,0,0
86.69626647464,-21.725925619886,29.559915991599,1866630.3177444,-1303.1903230144,2562743.3126932,34.759915991599,0,0
86.696266655349,-21.727978747132,29.564346434643,1866630.3177444,-1303.1903230144,2562743.3126932,34.764346434643,0,0
86.696266836059,-21.730031874378,29.568776877688,1866630.3177444,-1303.1903230144,2562743.3126932,34.768776877688,0,0
86.696267016768,-21.732085001624,29.573207320732,1866630.3177444,-1303.1903230144,2562743.3126932,34.773207320732,0,0
86.696267197478,-21.73413812887,29.577637763776,1866630.3177444,-1303.1903230144,2562743.3126932,34.777637763776,0,0
86.696267378187,-21.736191256115,29.582068206821,1866630.3177444,-1303.1903230144,2562743.3126932,34.782068206821,0,0
86.696267558897,-21.738244383361,29.586498649865,1866630.3177444,-1303.1903230144,2562743.3126932,34.786498649865,0,0
86.696267739607,-21.740297510607,29.590929092909,1866630.3177444,-1303.1903230144,2562743.3126932,34.790929092909,0,0
86.696267920316,-21.742350637853,29.595359535954,1866630.3177444,-1303.1903230144,2562743.3126932,34.795359535954,0,0
86.696268101026,-21.744403765099,29.599789978998,1866630.3177444,-1303.1903230144,2562743.3126932,34.799789978998,0,0
86.696268281735,-21.746456892345,29.604220422042,1866630.3177444,-1303.1903230144,2562743.3126932,34.804220422042,0,0
86.696268462445,-21.748510019591,29.608650865087,1866630.3177444,-1303.1903230144,2562743.3126932,34.808650865087,0,0
86.696268643154,-21.750563146837,29.613081308131,1866630.3177444,-1303.1903230144,2562743.3126932,34.813081308131,0,0
86.696268823864,-21.752616274083,29.617511751175,1866630.3177444,-1303.1903230144,2562743.3126932,34.817511751175,0,0
86.696269004574,-21.754669401329,29.621942194219,1866630.3177444,-1303.1903230144,2562743.3126932,34.821942194219,0,0
86.696269185283,-21.756722528575,29.626372637264,1866630.3177444,-1303.1903230144,2562743.3126932,34.826372637264,0,0
86.696269365993,-21.758775655821,29.630803080308,1866630.3177444,-1303.1903230144,2562743.3126932,34.830803080308,0,0
86.696269546702,-21.760828783067,29.635233523352,1866630.3177444,-1303.1903230144,2562743.3126932,34.835233523352,0,0
86.696269727412,-21.762881910313,29.639663966397,1866630.3177444,-1303.1903230144,2562743.3126932,34.839663966397,0,0
86.696269908121,-21.764935037559,29.644094409441,1866630.3177444,-1303.1903230144,2562743.3126932,34.844094409441,0,0
86.696270088831,-21.766988164805,29.648524852485,1866630.3177444,-1303.1903230144,2562743.3126932,34.848524852485,0,0
86.69627026954,-21.769041292051,29.65295529553,1866630.3177444,-1303.1903230144,2562743.3126932,34.85295529553,0,0
86.69627045025,-21.771094419297,29.657385738574,1866630.3177444,-1303.1903230144,2562743.3126932,34.857385738574,0,0
86.69627063096,-21.773147546543,29.661816181618,1866630.3177444,-1303.1903230144,2562743.3126932,34.861816181618,0,0
86.696270811669,-21.775200673789,29.666246624662,1866630.3177444,-1303.1903230144,2562743.3126932,34.866246624662,0,0
86.696270992398,-21.777253800989,29.670677067707,1868425.3790551,535.15733100078,2559752.4627014,34.870677067707,0,0
86.696271173331,-21.77930692772,29.675107510751,1868425.3790551,535.15733100078,2559752.4627014,34.875107510751,0,0
86.696271354264,-21.78136005445,29.679537953795,1868425.3790551,535.15733100078,2559752.4627014,34.879537953795,0,0
86.696271535196,-21.783413181181,29.68396839684,1868425.3790551,535.15733100078,2559752.4627014,34.88396839684,0,0
86.696271716129,-21.785466307911,29.688398839884,1868425.3790551,535.15733100078,2559752.4627014,34.888398839884,0,0
86.696271897061,-21.787519434641,29.692829282928,1868425.3790551,535.15733100078,2559752.4627014,34.892829282928,0,0
86.696272077994,-21.789572561372,29.697259725973,1868425.3790551,535.15733100078,2559752.4627014,34.897259725973,0,0
86.696272258926,-21.791625688102,29.701690169017,1868425.3790551,535.15733100078,2559752.4627014,34.901690169017,0,0
86.696272439859,-21.793678814833,29.706120612061,1868425.3790551,535.15733100078,2559752.4627014,34.906120612061,0,0
86.696272620792,-21.795731941563,29.710551055106,1868425.3790551,535.15733100078,2559752.4627014,34.910551055106,0,0
86.696272801724,-21.797785068293,29.71498149815,1868425.3790551,535.15733100078,2559752.4627014,34.91498149815,0,0
86.696272982657,-21.799838195024,29.719411941194,1868425.3790551,535.15733100078,2559752.4627014,34.919411941194,0,0
86.696273163589,-21.801891321754,29.723842384238,1868425.3790551,535.15733100078,2559752.4627014,34.923842384238,0,0
86.696273344522,-21.803944448485,29.728272827283,1868425.3790551,535.15733100078,2559752.4627014,34.928272827283,0,0
86.696273525454,-21.805997575215,29.732703270327,1868425.3790551,535.15733100078,2559752.4627014,34.932703270327,0,0
86.696273706387,-21.808050701945,29.737133713371,1868425.3790551,535.15733100078,2559752.4627014,34.937133713371,0,0
86.69627388732,-21.810103828676,29.741564156416,1868425.3790551,535.15733100078,2559752.4627014,34.941564156416,0,0
86.696274068252,-21.812156955406,29.74599459946,1868425.3790551,535.15733100078,2559752.4627014,34.94599459946,0,0
86.696274249185,-21.814210082137,29.750425042504,1868425.3790551,535.15733100078,2559752.4627014,34.950425042504,0,0
86.696274430117,-21.816263208867,29.754855485549,1868425.3790551,535.15733100078,2559752.4627014,34.954855485549,0,0
86.69627461105,-21.818316335597,29.759285928593,1868425.3790551,535.15733100078,2559752.4627014,34.959285928593,0,0
86.696274791983,-21.820369462328,29.763716371637,1868425.3790551,535.15733100078,2559752.4627014,34.963716371637,0,0
86.696274972915,-21.822422589058,29.768146814681,1868425.3790551,535.15733100078,2559752.4627014,34.968146814681,0,0
86.696275153848,-21.824475715789,29.772577257726,1868425.3790551,535.15733100078,2559752.4627014,34.972577257726,0,0
86.69627533478,-21.826528842519,29.77700770077,1868425.3790551,535.15733100078,2559752.4627014,34.97700770077,0,0
86.696275515713,-21.828581969249,29.781438143814,1868425.3790551,535.15733100078,2559752.4627014,34.981438143814,0,0
86.696275696645,-21.83063509598,29.785868586859,1868425.3790551,535.15733100078,2559752.4627014,34.985868586859,0,0
86.696275877578,-21.83268822271,29.790299029903,1868425.3790551,535.15733100078,2559752.4627014,34.990299029903,0,0
86.696276058511,-21.834741349441,29.794729472947,1868425.3790551,535.15733100078,2559752.4627014,34.994729472947,0,0
86.696276239443,-21.836794476171,29.799159915992,1868425.3790551,535.15733100078,2559752.4627014,34.999159915992,0,0
86.696276420376,-21.838847602901,29.803590359036,1868425.3790551,535.15733100078,2559752.4627014,35.003590359036,0,0
86.696276601308,-21.840900729632,29.80802080208,1868425.3790551,535.15733100078,2559752.4627014,35.00802080208,0,0
86.696276782241,-21.842953856362,29.812451245125,1868425.3790551,535.15733100078,2559752.4627014,35.012451245125,0,0
86.696276963173,-21.845006983093,29.816881688169,1868425.3790551,535.15733100078,2559752.4627014,35.016881688169,0,0
86.696277144106,-21.847060109823,29.821312131213,1868425.3790551,535.15733100078,2559752.4627014,35.021312131213,0,0
86.696277325039,-21.849113236553,29.825742574257,1868425.3790551,535.15733100078,2559752.4627014,35.025742574257,0,0
86.696277505971,-21.851166363284,29.830173017302,1868425.3790551,535.15733100078,2559752.4627014,35.030173017302,0,0
86.696277686904,-21.853219490014,29.834603460346,1868425.3790551,535.15733100078,2559752.4627014,35.034603460346,0,0
86.696277867836,-21.855272616745,29.83903390339,1868425.3790551,535.15733100078,2559752.4627014,35.03903390339,0,0
86.696278048769,-21.857325743475,29.843464346435,1868425.3790551,535.15733100078,2559752.4627014,35.043464346435,0,0
86.696278229701,-21.859378870205,29.847894789479,1868425.3790551,535.15733100078,2559752.4627014,35.047894789479,0,0
86.696278410634,-21.861431996936,29.852325232523,1868425.3790551,535.15733100078,2559752.4627014,35.052325232523,0,0
86.696278591567,-21.863485123666,29.856755675568,1868425.3790551,535.15733100078,2559752.4627014,35.056755675568,0,0
86.696278772499,-21.865538250397,29.861186118612,1868425.3790551,535.15733100078,2559752.4627014,35.061186118612,0,0
86.696278953432,-21.867591377127,29.865616561656,1868425.3790551,535.15733100078,2559752.4627014,35.065616561656,0,0
86.696279134364,-21.869644503857,29.8700470047,1868425.3790551,535.15733100078,2559752.4627014,35.0700470047,0,0
86.696279315297,-21.871697630588,29.874477447745,1868425.3790551,535.15733100078,2559752.4627014,35.074477447745,0,0
86.696279496229,-21.873750757318,29.878907890789,1868425.3790551,535.15733100078,2559752.4627014,35.078907890789,0,0
86.696279677162,-21.875803884049,29.883338333833,1868425.3790551,535.15733100078,2559752.4627014,35.083338333833,0,0
86.696279858095,-21.877857010779,29.887768776878,1868425.3790551,535.15733100078,2559752.4627014,35.087768776878,0,0
86.696280039027,-21.879910137509,29.892199219922,1868425.3790551,535.15733100078,2559752.4627014,35.092199219922,0,0
86.69628021996,-21.88196326424,29.896629662966,1868425.3790551,535.15733100078,2559752.4627014,35.096629662966,0,0
86.696280400892,-21.88401639097,29.901060106011,1868425.3790551,535.15733100078,2559752.4627014,35.101060106011,0,0
86.696280581825,-21.886069517701,29.905490549055,1868425.3790551,535.15733100078,2559752.4627014,35.105490549055,0,0
86.696280762758,-21.888122644431,29.909920992099,1868425.3790551,535.15733100078,2559752.4627014,35.109920992099,0,0
86.69628094369,-21.890175771161,29.914351435144,1868425.3790551,535.15733100078,2559752.4627014,35.114351435144,0,0
86.696281124623,-21.892228897892,29.918781878188,1868425.3790551,535.15733100078,2559752.4627014,35.118781878188,0,0
86.696281305555,-21.894282024622,29.923212321232,1868425.3790551,535.15733100078,2559752.4627014,35.123212321232,0,0
86.696281486488,-21.896335151353,29.927642764276,1868425.3790551,535.15733100078,2559752.4627014,35.127642764276,0,0
86.69628166742,-21.898388278083,29.932073207321,1868425.3790551,535.15733100078,2559752.4627014,35.132073207321,0,0
86.696281848353,-21.900441404813,29.936503650365,1868425.3790551,535.15733100078,2559752.4627014,35.136503650365,0,0
86.696282029286,-21.902494531544,29.940934093409,1868425.3790551,535.15733100078,2559752.4627014,35.140934093409,0,0
86.696282210218,-21.904547658274,29.945364536454,1868425.3790551,535.15733100078,2559752.4627014,35.145364536454,0,0
86.696282391151,-21.906600785005,29.949794979498,1868425.3790551,535.15733100078,2559752.4627014,35.149794979498,0,0
86.696282572083,-21.908653911735,29.954225422542,1868425.3790551,535.15733100078,2559752.4627014,35.154225422542,0,0
86.696282753016,-21.910707038465,29.958655865587,1868425.3790551,535.15733100078,2559752.4627014,35.158655865587,0,0
86.696282933948,-21.912760165196,29.963086308631,1868425.3790551,535.15733100078,2559752.4627014,35.163086308631,0,0
86.696283114881,-21.914813291926,29.967516751675,1868425.3790551,535.15733100078,2559752.4627014,35.167516751675,0,0
86.696283295814,-21.916866418657,29.971947194719,1868425.3790551,535.15733100078,2559752.4627014,35.171947194719,0,0
86.696283476746,-21.918919545387,29.976377637764,1868425.3790551,535.15733100078,2559752.4627014,35.176377637764,0,0
86.696283657679,-21.920972672117,29.980808080808,1868425.3790551,535.15733100078,2559752.4627014,35.180808080808,0,0
86.696283838611,-21.923025798848,29.985238523852,1868425.3790551,535.15733100078,2559752.4627014,35.185238523852,0,0
86.696284019544,-21.925078925578,29.989668966897,1868425.3790551,535.15733100078,2559752.4627014,35.189668966897,0,0
86.696284200476,-21.927132052308,29.994099409941,1868425.3790551,535.15733100078,2559752.4627014,35.194099409941,0,0
86.696284381409,-21.929185179039,29.998529852985,1868425.3790551,535.15733100078,2559752.4627014,35.198529852985,0,0
86.696284562342,-21.931238305769,30.00296029603,1868425.3790551,535.15733100078,2559752.4627014,35.20296029603,0,0
86.696284743274,-21.9332914325,30.007390739074,1868425.3790551,535.15733100078,2559752.4627014,35.207390739074,0,0
86.696284924207,-21.93534455923,30.011821182118,1868425.3790551,535.15733100078,2559752.4627014,35.211821182118,0,0
86.696285105139,-21.93739768596,30.016251625163,1868425.3790551,535.15733100078,2559752.4627014,35.216251625163,0,0
86.696285286072,-21.939450812691,30.020682068207,1868425.3790551,535.15733100078,2559752.4627014,35.220682068207,0,0
86.696285467004,-21.941503939421,30.025112511251,1868425.3790551,535.15733100078,2559752.4627014,35.225112511251,0,0
86.696285647937,-21.943557066152,30.029542954295,1868425.3790551,535.15733100078,2559752.4627014,35.229542954295,0,0
86.69628582887,-21.945610192882,30.03397339734,1868425.3790551,535.15733100078,2559752.4627014,35.23397339734,0,0
86.696286009802,-21.947663319612,30.038403840384,1868425.3790551,535.15733100078,2559752.4627014,35.238403840384,0,0
86.696286190735,-21.949716446343,30.042834283428,1868425.3790551,535.15733100078,2559752.4627014,35.242834283428,0,0
86.696286371667,-21.951769573073,30.047264726473,1868425.3790551,535.15733100078,2559752.4627014,35.247264726473,0,0
86.6962865526,-21.953822699804,30.051695169517,1868425.3790551,535.15733100078,2559752.4627014,35.251695169517,0,0
86.696286733533,-21.955875826534,30.056125612561,1868425.3790551,535.15733100078,2559752.4627014,35.256125612561,0,0
86.696286914465,-21.957928953264,30.060556055606,1868425.3790551,535.15733100078,2559752.4627014,35.260556055606,0,0
86.696287095398,-21.959982079995,30.06498649865,1868425.3790551,535.15733100078,2559752.4627014,35.26498649865,0,0
86.69628727633,-21.962035206725,30.069416941694,1868425.3790551,535.15733100078,2559752.4627014,35.269416941694,0,0
86.696287457263,-21.964088333456,30.073847384738,1868425.3790551,535.15733100078,2559752.4627014,35.273847384738,0,0
86.696287638195,-21.966141460186,30.078277827783,1868425.3790551,535.15733100078,2559752.4627014,35.278277827783,0,0
86.696287819128,-21.968194586916,30.082708270827,1868425.3790551,535.15733100078,2559752.4627014,35.282708270827,0,0
86.696288000061,-21.970247713647,30.087138713871,1868425.3790551,535.15733100078,2559752.4627014,35.287138713871,0,0
86.696288180993,-21.972300840377,30.091569156916,1868425.3790551,535.15733100078,2559752.4627014,35.291569156916,0,0
86.696288361926,-21.974353967108,30.09599959996,1868425.3790551,535.15733100078,2559752.4627014,35.29599959996,0,0
86.696288542858,-21.976407093838,30.100430043004,1868425.3790551,535.15733100078,2559752.4627014,35.300430043004,0,0
86.696288723791,-21.978460220568,30.104860486049,1868425.3790551,535.15733100078,2559752.4627014,35.304860486049,0,0
86.696288904723,-21.980513347299,30.109290929093,1868425.3790551,535.15733100078,2559752.4627014,35.309290929093,0,0
86.696289085656,-21.982566474029,30.113721372137,1868425.3790551,535.15733100078,2559752.4627014,35.313721372137,0,0
86.696289266589,-21.98461960076,30.118151815182,1868425.3790551,535.15733100078,2559752.4627014,35.318151815182,0,0
86.696289447521,-21.98667272749,30.122582258226,1868425.3790551,535.15733100078,2559752.4627014,35.322582258226,0,0
86.696289628454,-21.98872585422,30.12701270127,1868425.3790551,535.15733100078,2559752.4627014,35.32701270127,0,0
86.696289809386,-21.990778980951,30.131443144314,1868425.3790551,535.15733100078,2559752.4627014,35.331443144314,0,0
86.696289990319,-21.992832107681,30.135873587359,1868425.3790551,535.15733100078,2559752.4627014,35.335873587359,0,0
86.696290171251,-21.994885234412,30.140304030403,1868425.3790551,535.15733100078,2559752.4627014,35.340304030403,0,0
86.696290352184,-21.996938361142,30.144734473447,1868425.3790551,535.15733100078,2559752.4627014,35.344734473447,0,0
86.696290533117,-21.998991487872,30.149164916492,1868425.3790551,535.15733100078,2559752.4627014,35.349164916492,0,0
86.696290714049,-22.001044614603,30.153595359536,1868425.3790551,535.15733100078,2559752.4627014,35.353595359536,0,0
86.696290894982,-22.003097741333,30.15802580258,1868425.3790551,535.15733100078,2559752.4627014,35.35802580258,0,0
86.696291075914,-22.005150868064,30.162456245625,1868425.3790551,535.15733100078,2559752.4627014,35.362456245625,0,0
86.696291256847,-22.007203994794,30.166886688669,1868425.3790551,535.15733100078,2559752.4627014,35.366886688669,0,0
86.696291437779,-22.009257121524,30.171317131713,1868425.3790551,535.15733100078,2559752.4627014,35.371317131713,0,0
86.696291618712,-22.011310248255,30.175747574757,1868425.3790551,535.15733100078,2559752.4627014,35.375747574757,0,0
86.696291799645,-22.013363374985,30.180178017802,1868425.3790551,535.15733100078,2559752.4627014,35.380178017802,0,0
86.696291980577,-22.015416501716,30.184608460846,1868425.3790551,535.15733100078,2559752.4627014,35.384608460846,0,0
86.69629216151,-22.017469628446,30.18903890389,1868425.3790551,535.15733100078,2559752.4627014,35.38903890389,0,0
86.696292342442,-22.019522755176,30.193469346935,1868425.3790551,535.15733100078,2559752.4627014,35.393469346935,0,0
86.696292523375,-22.021575881907,30.197899789979,1868425.3790551,535.15733100078,2559752.4627014,35.397899789979,0,0
86.696292704308,-22.023629008637,30.202330233023,1868425.3790551,535.15733100078,2559752.4627014,35.402330233023,0,0
86.69629288524,-22.025682135368,30.206760676068,1868425.3790551,535.15733100078,2559752.4627014,35.406760676068,0,0
86.696293066173,-22.027735262098,30.211191119112,1868425.3790551,535.15733100078,2559752.4627014,35.411191119112,0,0
86.696293247105,-22.029788388828,30.215621562156,1868425.3790551,535.15733100078,2559752.4627014,35.415621562156,0,0
86.696293428038,-22.031841515559,30.220052005201,1868425.3790551,535.15733100078,2559752.4627014,35.420052005201,0,0
86.69629360897,-22.033894642289,30.224482448245,1868425.3790551,535.15733100078,2559752.4627014,35.424482448245,0,0
86.696293789903,-22.03594776902,30.228912891289,1868425.3790551,535.15733100078,2559752.4627014,35.428912891289,0,0
86.696293970836,-22.03800089575,30.233343334333,1868425.3790551,535.15733100078,2559752.4627014,35.433343334333,0,0
86.696294151768,-22.04005402248,30.237773777378,1868425.3790551,535.15733100078,2559752.4627014,35.437773777378,0,0
86.696294332701,-22.042107149211,30.242204220422,1868425.3790551,535.15733100078,2559752.4627014,35.442204220422,0,0
86.696294513633,-22.044160275941,30.246634663466,1868425.3790551,535.15733100078,2559752.4627014,35.446634663466,0,0
86.696294694566,-22.046213402672,30.251065106511,1868425.3790551,535.15733100078,2559752.4627014,35.451065106511,0,0
86.696294875498,-22.048266529402,30.255495549555,1868425.3790551,535.15733100078,2559752.4627014,35.455495549555,0,0
86.696295056431,-22.050319656132,30.259925992599,1868425.3790551,535.15733100078,2559752.4627014,35.459925992599,0,0
86.696295237364,-22.052372782863,30.264356435644,1868425.3790551,535.15733100078,2559752.4627014,35.464356435644,0,0
86.696295418296,-22.054425909593,30.268786878688,1868425.3790551,535.15733100078,2559752.4627014,35.468786878688,0,0
86.696295599229,-22.056479036324,30.273217321732,1868425.3790551,535.15733100078,2559752.4627014,35.473217321732,0,0
86.696295780161,-22.058532163054,30.277647764776,1868425.3790551,535.15733100078,2559752.4627014,35.477647764776,0,0
86.696295961094,-22.060585289784,30.282078207821,1868425.3790551,535.15733100078,2559752.4627014,35.482078207821,0,0
86.696296142026,-22.062638416515,30.286508650865,1868425.3790551,535.15733100078,2559752.4627014,35.486508650865,0,0
86.696296322959,-22.064691543245,30.290939093909,1868425.3790551,535.15733100078,2559752.4627014,35.490939093909,0,0
86.696296503892,-22.066744669976,30.295369536954,1868425.3790551,535.15733100078,2559752.4627014,35.495369536954,0,0
86.696296684824,-22.068797796706,30.299799979998,1868425.3790551,535.15733100078,2559752.4627014,35.499799979998,0,0
86.696296865757,-22.070850923436,30.304230423042,1868425.3790551,535.15733100078,2559752.4627014,35.504230423042,0,0
86.696297046689,-22.072904050167,30.308660866087,1868425.3790551,535.15733100078,2559752.4627014,35.508660866087,0,0
86.696297227622,-22.074957176897,30.313091309131,1868425.3790551,535.15733100078,2559752.4627014,35.513091309131,0,0
86.696297408554,-22.077010303628,30.317521752175,1868425.3790551,535.15733100078,2559752.4627014,35.517521752175,0,0
86.696297589487,-22.079063430358,30.32195219522,1868425.3790551,535.15733100078,2559752.4627014,35.52195219522,0,0
86.69629777042,-22.081116557088,30.326382638264,1868425.3790551,535.15733100078,2559752.4627014,35.526382638264,0,0
86.696297951352,-22.083169683819,30.330813081308,1868425.3790551,535.15733100078,2559752.4627014,35.530813081308,0,0
86.696298132285,-22.085222810549,30.335243524352,1868425.3790551,535.15733100078,2559752.4627014,35.535243524352,0,0
86.696298313217,-22.08727593728,30.339673967397,1868425.3790551,535.15733100078,2559752.4627014,35.539673967397,0,0
86.69629849415,-22.08932906401,30.344104410441,1868425.3790551,535.15733100078,2559752.4627014,35.544104410441,0,0
86.696298675083,-22.09138219074,30.348534853485,1868425.3790551,535.15733100078,2559752.4627014,35.548534853485,0,0
86.696298856015,-22.093435317471,30.35296529653,1868425.3790551,535.15733100078,2559752.4627014,35.55296529653,0,0
86.696299036948,-22.095488444201,30.357395739574,1868425.3790551,535.15733100078,2559752.4627014,35.557395739574,0,0
86.69629921788,-22.097541570932,30.361826182618,1868425.3790551,535.15733100078,2559752.4627014,35.561826182618,0,0
86.696299398813,-22.099594697662,30.366256625663,1868425.3790551,535.15733100078,2559752.4627014,35.566256625663,0,0
86.696299579745,-22.101647824392,30.370687068707,1868425.3790551,535.15733100078,2559752.4627014,35.570687068707,0,0
86.696299760678,-22.103700951123,30.375117511751,1868425.3790551,535.15733100078,2559752.4627014,35.575117511751,0,0
86.696299941611,-22.105754077853,30.379547954795,1868425.3790551,535.15733100078,2559752.4627014,35.579547954795,0,0
86.696300122543,-22.107807204584,30.38397839784,1868425.3790551,535.15733100078,2559752.4627014,35.58397839784,0,0
86.696300303476,-22.109860331314,30.388408840884,1868425.3790551,535.15733100078,2559752.4627014,35.588408840884,0,0
86.696300484408,-22.111913458044,30.392839283928,1868425.3790551,535.15733100078,2559752.4627014,35.592839283928,0,0
86.696300665341,-22.113966584775,30.397269726973,1868425.3790551,535.15733100078,2559752.4627014,35.597269726973,0,0
86.696300846273,-22.116019711505,30.401700170017,1868425.3790551,535.15733100078,2559752.4627014,35.601700170017,0,0
86.696301027206,-22.118072838236,30.406130613061,1868425.3790551,535.15733100078,2559752.4627014,35.606130613061,0,0
86.696301208139,-22.120125964966,30.410561056106,1868425.3790551,535.15733100078,2559752.4627014,35.610561056106,0,0
86.696301389071,-22.122179091696,30.41499149915,1868425.3790551,535.15733100078,2559752.4627014,35.61499149915,0,0
86.696301570004,-22.124232218427,30.419421942194,1868425.3790551,535.15733100078,2559752.4627014,35.619421942194,0,0
86.696301750936,-22.126285345157,30.423852385239,1868425.3790551,535.15733100078,2559752.4627014,35.623852385239,0,0
86.696301931869,-22.128338471888,30.428282828283,1868425.3790551,535.15733100078,2559752.4627014,35.628282828283,0,0
86.696302112801,-22.130391598618,30.432713271327,1868425.3790551,535.15733100078,2559752.4627014,35.632713271327,0,0
86.696302293734,-22.132444725348,30.437143714371,1868425.3790551,535.15733100078,2559752.4627014,35.637143714371,0,0
86.696302474667,-22.134497852079,30.441574157416,1868425.3790551,535.15733100078,2559752.4627014,35.641574157416,0,0
86.696302655599,-22.136550978809,30.44600460046,1868425.3790551,535.15733100078,2559752.4627014,35.64600460046,0,0
86.696302836532,-22.13860410554,30.450435043504,1868425.3790551,535.15733100078,2559752.4627014,35.650435043504,0,0
86.696303017464,-22.14065723227,30.454865486549,1868425.3790551,535.15733100078,2559752.4627014,35.654865486549,0,0
86.696303198397,-22.142710359,30.459295929593,1868425.3790551,535.15733100078,2559752.4627014,35.659295929593,0,0
86.696303379329,-22.144763485731,30.463726372637,1868425.3790551,535.15733100078,2559752.4627014,35.663726372637,0,0
86.696303560262,-22.146816612461,30.468156815682,1868425.3790551,535.15733100078,2559752.4627014,35.668156815682,0,0
86.696303741195,-22.148869739192,30.472587258726,1868425.3790551,535.15733100078,2559752.4627014,35.672587258726,0,0
86.696303922127,-22.150922865922,30.47701770177,1868425.3790551,535.15733100078,2559752.4627014,35.67701770177,0,0
86.69630410306,-22.152975992652,30.481448144814,1868425.3790551,535.15733100078,2559752.4627014,35.681448144814,0,0
86.696304283992,-22.155029119383,30.485878587859,1868425.3790551,535.15733100078,2559752.4627014,35.685878587859,0,0
86.696304464925,-22.157082246113,30.490309030903,1868425.3790551,535.15733100078,2559752.4627014,35.690309030903,0,0
86.696304645858,-22.159135372844,30.494739473947,1868425.3790551,535.15733100078,2559752.4627014,35.694739473947,0,0
86.69630482679,-22.161188499574,30.499169916992,1868425.3790551,535.15733100078,2559752.4627014,35.699169916992,0,0
86.696305007723,-22.163241626304,30.503600360036,1868425.3790551,535.15733100078,2559752.4627014,35.703600360036,0,0
86.696305188655,-22.165294753035,30.50803080308,1868425.3790551,535.15733100078,2559752.4627014,35.70803080308,0,0
86.696305369588,-22.167347879765,30.512461246125,1868425.3790551,535.15733100078,2559752.4627014,35.712461246125,0,0
86.69630555052,-22.169401006496,30.516891689169,1868425.3790551,535.15733100078,2559752.4627014,35.716891689169,0,0
86.696305731453,-22.171454133226,30.521322132213,1868425.3790551,535.15733100078,2559752.4627014,35.721322132213,0,0
86.696305912386,-22.173507259956,30.525752575258,1868425.3790551,535.15733100078,2559752.4627014,35.725752575258,0,0
86.696306093318,-22.175560386687,30.530183018302,1868425.3790551,535.15733100078,2559752.4627014,35.730183018302,0,0
86.696306274251,-22.177613513417,30.534613461346,1868425.3790551,535.15733100078,2559752.4627014,35.734613461346,0,0
86.696306455183,-22.179666640148,30.53904390439,1868425.3790551,535.15733100078,2559752.4627014,35.73904390439,0,0
86.696306636116,-22.181719766878,30.543474347435,1868425.3790551,535.15733100078,2559752.4627014,35.743474347435,0,0
86.696306817048,-22.183772893608,30.547904790479,1868425.3790551,535.15733100078,2559752.4627014,35.747904790479,0,0
86.696306997981,-22.185826020339,30.552335233523,1868425.3790551,535.15733100078,2559752.4627014,35.752335233523,0,0
86.696307178914,-22.187879147069,30.556765676568,1868425.3790551,535.15733100078,2559752.4627014,35.756765676568,0,0
86.696307359846,-22.1899322738,30.561196119612,1868425.3790551,535.15733100078,2559752.4627014,35.761196119612,0,0
86.696307540779,-22.19198540053,30.565626562656,1868425.3790551,535.15733100078,2559752.4627014,35.765626562656,0,0
86.696307721711,-22.19403852726,30.570057005701,1868425.3790551,535.15733100078,2559752.4627014,35.770057005701,0,0
86.696307902644,-22.196091653991,30.574487448745,1868425.3790551,535.15733100078,2559752.4627014,35.774487448745,0,0
86.696308083576,-22.198144780721,30.578917891789,1868425.3790551,535.15733100078,2559752.4627014,35.778917891789,0,0
86.696308264509,-22.200197907451,30.583348334833,1868425.3790551,535.15733100078,2559752.4627014,35.783348334833,0,0
86.696308445442,-22.202251034182,30.587778777878,1868425.3790551,535.15733100078,2559752.4627014,35.787778777878,0,0
86.696308626374,-22.204304160912,30.592209220922,1868425.3790551,535.15733100078,2559752.4627014,35.792209220922,0,0
86.696308807307,-22.206357287643,30.596639663966,1868425.3790551,535.15733100078,2559752.4627014,35.796639663966,0,0
86.696308988239,-22.208410414373,30.601070107011,1868425.3790551,535.15733100078,2559752.4627014,35.801070107011,0,0
86.696309169172,-22.210463541103,30.605500550055,1868425.3790551,535.15733100078,2559752.4627014,35.805500550055,0,0
86.696309350104,-22.212516667834,30.609930993099,1868425.3790551,535.15733100078,2559752.4627014,35.809930993099,0,0
86.696309531037,-22.214569794564,30.614361436144,1868425.3790551,535.15733100078,2559752.4627014,35.814361436144,0,0
86.69630971197,-22.216622921295,30.618791879188,1868425.3790551,535.15733100078,2559752.4627014,35.818791879188,0,0
86.696309892902,-22.218676048025,30.623222322232,1868425.3790551,535.15733100078,2559752.4627014,35.823222322232,0,0
86.696310073835,-22.220729174755,30.627652765277,1868425.3790551,535.15733100078,2559752.4627014,35.827652765277,0,0
86.696310254767,-22.222782301486,30.632083208321,1868425.3790551,535.15733100078,2559752.4627014,35.832083208321,0,0
86.6963104357,-22.224835428216,30.636513651365,1868425.3790551,535.15733100078,2559752.4627014,35.836513651365,0,0
86.696310616633,-22.226888554947,30.640944094409,1868425.3790551,535.15733100078,2559752.4627014,35.840944094409,0,0
86.696310797565,-22.228941681677,30.645374537454,1868425.3790551,535.15733100078,2559752.4627014,35.845374537454,0,0
86.696310978498,-22.230994808407,30.649804980498,1868425.3790551,535.15733100078,2559752.4627014,35.849804980498,0,0
86.69631115943,-22.233047935138,30.654235423542,1868425.3790551,535.15733100078,2559752.4627014,35.854235423542,0,0
86.696311340363,-22.235101061868,30.658665866587,1868425.3790551,535.15733100078,2559752.4627014,35.858665866587,0,0
86.696311521295,-22.237154188599,30.663096309631,1868425.3790551,535.15733100078,2559752.4627014,35.863096309631,0,0
86.696311702228,-22.239207315329,30.667526752675,1868425.3790551,535.15733100078,2559752.4627014,35.867526752675,0,0
86.696311883161,-22.241260442059,30.67195719572,1868425.3790551,535.15733100078,2559752.4627014,35.87195719572,0,0
86.696312064093,-22.24331356879,30.676387638764,1868425.3790551,535.15733100078,2559752.4627014,35.876387638764,0,0
86.696312245026,-22.24536669552,30.680818081808,1868425.3790551,535.15733100078,2559752.4627014,35.880818081808,0,0
86.696312425958,-22.247419822251,30.685248524852,1868425.3790551,535.15733100078,2559752.4627014,35.885248524852,0,0
86.696312606891,-22.249472948981,30.689678967897,1868425.3790551,535.15733100078,2559752.4627014,35.889678967897,0,0
86.696312787823,-22.251526075711,30.694109410941,1868425.3790551,535.15733100078,2559752.4627014,35.894109410941,0,0
86.696312968756,-22.253579202442,30.698539853985,1868425.3790551,535.15733100078,2559752.4627014,35.898539853985,0,0
86.696313149689,-22.255632329172,30.70297029703,1868425.3790551,535.15733100078,2559752.4627014,35.90297029703,0,0
86.696313330621,-22.257685455903,30.707400740074,1868425.3790551,535.15733100078,2559752.4627014,35.907400740074,0,0
86.696313511554,-22.259738582633,30.711831183118,1868425.3790551,535.15733100078,2559752.4627014,35.911831183118,0,0
86.696313692486,-22.261791709363,30.716261626163,1868425.3790551,535.15733100078,2559752.4627014,35.916261626163,0,0
86.696313873419,-22.263844836094,30.720692069207,1868425.3790551,535.15733100078,2559752.4627014,35.920692069207,0,0
86.696314054351,-22.265897962824,30.725122512251,1868425.3790551,535.15733100078,2559752.4627014,35.925122512251,0,0
86.696314235284,-22.267951089555,30.729552955296,1868425.3790551,535.15733100078,2559752.4627014,35.929552955296,0,0
86.696314416217,-22.270004216285,30.73398339834,1868425.3790551,535.15733100078,2559752.4627014,35.93398339834,0,0
86.696314597149,-22.272057343015,30.738413841384,1868425.3790551,535.15733100078,2559752.4627014,35.938413841384,0,0
86.696314778082,-22.274110469746,30.742844284428,1868425.3790551,535.15733100078,2559752.4627014,35.942844284428,0,0
86.696314959014,-22.276163596476,30.747274727473,1868425.3790551,535.15733100078,2559752.4627014,35.947274727473,0,0
86.696315139947,-22.278216723207,30.751705170517,1868425.3790551,535.15733100078,2559752.4627014,35.951705170517,0,0
86.696315320879,-22.280269849937,30.756135613561,1868425.3790551,535.15733100078,2559752.4627014,35.956135613561,0,0
86.696315501812,-22.282322976667,30.760566056606,1868425.3790551,535.15733100078,2559752.4627014,35.960566056606,0,0
86.696315682745,-22.284376103398,30.76499649965,1868425.3790551,535.15733100078,2559752.4627014,35.96499649965,0,0
86.696315863677,-22.286429230128,30.769426942694,1868425.3790551,535.15733100078,2559752.4627014,35.969426942694,0,0
86.69631604461,-22.288482356859,30.773857385739,1868425.3790551,535.15733100078,2559752.4627014,35.973857385739,0,0
86.696316225542,-22.290535483589,30.778287828783,1868425.3790551,535.15733100078,2559752.4627014,35.978287828783,0,0
86.696316406475,-22.292588610319,30.782718271827,1868425.3790551,535.15733100078,2559752.4627014,35.982718271827,0,0
86.696316587408,-22.29464173705,30.787148714871,1868425.3790551,535.15733100078,2559752.4627014,35.987148714871,0,0
86.69631676834,-22.29669486378,30.791579157916,1868425.3790551,535.15733100078,2559752.4627014,35.991579157916,0,0
86.696316949273,-22.298747990511,30.79600960096,1868425.3790551,535.15733100078,2559752.4627014,35.99600960096,0,0
86.696317130205,-22.300801117241,30.800440044004,1868425.3790551,535.15733100078,2559752.4627014,36.000440044004,0,0
86.696317311138,-22.302854243971,30.804870487049,1868425.3790551,535.15733100078,2559752.4627014,36.004870487049,0,0
86.69631749207,-22.304907370702,30.809300930093,1868425.3790551,535.15733100078,2559752.4627014,36.009300930093,0,0
86.696317673003,-22.306960497432,30.813731373137,1868425.3790551,535.15733100078,2559752.4627014,36.013731373137,0,0
86.696317853936,-22.309013624163,30.818161816182,1868425.3790551,535.15733100078,2559752.4627014,36.018161816182,0,0
86.696318034868,-22.311066750893,30.822592259226,1868425.3790551,535.15733100078,2559752.4627014,36.022592259226,0,0
86.696318215801,-22.313119877623,30.82702270227,1868425.3790551,535.15733100078,2559752.4627014,36.02702270227,0,0
86.696318396733,-22.315173004354,30.831453145315,1868425.3790551,535.15733100078,2559752.4627014,36.031453145315,0,0
86.696318577666,-22.317226131084,30.835883588359,1868425.3790551,535.15733100078,2559752.4627014,36.035883588359,0,0
86.696318758598,-22.319279257815,30.840314031403,1868425.3790551,535.15733100078,2559752.4627014,36.040314031403,0,0
86.696318939531,-22.321332384545,30.844744474447,1868425.3790551,535.15733100078,2559752.4627014,36.044744474447,0,0
86.696319120464,-22.323385511275,30.849174917492,1868425.3790551,535.15733100078,2559752.4627014,36.049174917492,0,0
86.696319301396,-22.325438638006,30.853605360536,1868425.3790551,535.15733100078,2559752.4627014,36.053605360536,0,0
86.696319482329,-22.327491764736,30.85803580358,1868425.3790551,535.15733100078,2559752.4627014,36.05803580358,0,0
86.696319663261,-22.329544891467,30.862466246625,1868425.3790551,535.15733100078,2559752.4627014,36.062466246625,0,0
86.696319844194,-22.331598018197,30.866896689669,1868425.3790551,535.15733100078,2559752.4627014,36.066896689669,0,0
86.696320025126,-22.333651144927,30.871327132713,1868425.3790551,535.15733100078,2559752.4627014,36.071327132713,0,0
86.696320206059,-22.335704271658,30.875757575758,1868425.3790551,535.15733100078,2559752.4627014,36.075757575758,0,0
86.696320386992,-22.337757398388,30.880188018802,1868425.3790551,535.15733100078,2559752.4627014,36.080188018802,0,0
86.696320567924,-22.339810525119,30.884618461846,1868425.3790551,535.15733100078,2559752.4627014,36.084618461846,0,0
86.696320748857,-22.341863651849,30.88904890489,1868425.3790551,535.15733100078,2559752.4627014,36.08904890489,0,0
86.696320929789,-22.343916778579,30.893479347935,1868425.3790551,535.15733100078,2559752.4627014,36.093479347935,0,0
86.696321110722,-22.34596990531,30.897909790979,1868425.3790551,535.15733100078,2559752.4627014,36.097909790979,0,0
86.696321291654,-22.34802303204,30.902340234023,1868425.3790551,535.15733100078,2559752.4627014,36.102340234023,0,0
86.696321472587,-22.350076158771,30.906770677068,1868425.3790551,535.15733100078,2559752.4627014,36.106770677068,0,0
86.69632165352,-22.352129285501,30.911201120112,1868425.3790551,535.15733100078,2559752.4627014,36.111201120112,0,0
86.696321834452,-22.354182412231,30.915631563156,1868425.3790551,535.15733100078,2559752.4627014,36.115631563156,0,0
86.696322015385,-22.356235538962,30.920062006201,1868425.3790551,535.15733100078,2559752.4627014,36.120062006201,0,0
86.696322196317,-22.358288665692,30.924492449245,1868425.3790551,535.15733100078,2559752.4627014,36.124492449245,0,0
86.69632237725,-22.360341792423,30.928922892289,1868425.3790551,535.15733100078,2559752.4627014,36.128922892289,0,0
86.696322558183,-22.362394919153,30.933353335334,1868425.3790551,535.15733100078,2559752.4627014,36.133353335334,0,0
86.696322739115,-22.364448045883,30.937783778378,1868425.3790551,535.15733100078,2559752.4627014,36.137783778378,0,0
86.696322920048,-22.366501172614,30.942214221422,1868425.3790551,535.15733100078,2559752.4627014,36.142214221422,0,0
86.69632310098,-22.368554299344,30.946644664466,1868425.3790551,535.15733100078,2559752.4627014,36.146644664466,0,0
86.696323281913,-22.370607426075,30.951075107511,1868425.3790551,535.15733100078,2559752.4627014,36.151075107511,0,0
86.696323462845,-22.372660552805,30.955505550555,1868425.3790551,535.15733100078,2559752.4627014,36.155505550555,0,0
86.696323643778,-22.374713679535,30.959935993599,1868425.3790551,535.15733100078,2559752.4627014,36.159935993599,0,0
86.696323824711,-22.376766806266,30.964366436644,1868425.3790551,535.15733100078,2559752.4627014,36.164366436644,0,0
86.696324005643,-22.378819932996,30.968796879688,1868425.3790551,535.15733100078,2559752.4627014,36.168796879688,0,0
86.696324186576,-22.380873059727,30.973227322732,1868425.3790551,535.15733100078,2559752.4627014,36.173227322732,0,0
86.696324367508,-22.382926186457,30.977657765777,1868425.3790551,535.15733100078,2559752.4627014,36.177657765777,0,0
86.696324548441,-22.384979313187,30.982088208821,1868425.3790551,535.15733100078,2559752.4627014,36.182088208821,0,0
86.696324729373,-22.387032439918,30.986518651865,1868425.3790551,535.15733100078,2559752.4627014,36.186518651865,0,0
86.696324910306,-22.389085566648,30.990949094909,1868425.3790551,535.15733100078,2559752.4627014,36.190949094909,0,0
86.696325091239,-22.391138693379,30.995379537954,1868425.3790551,535.15733100078,2559752.4627014,36.195379537954,0,0
86.696325272171,-22.393191820109,30.999809980998,1868425.3790551,535.15733100078,2559752.4627014,36.199809980998,0,0
86.696325453104,-22.395244946839,31.004240424042,1868425.3790551,535.15733100078,2559752.4627014,36.204240424042,0,0
86.696325634036,-22.39729807357,31.008670867087,1868425.3790551,535.15733100078,2559752.4627014,36.208670867087,0,0
86.696325814969,-22.3993512003,31.013101310131,1868425.3790551,535.15733100078,2559752.4627014,36.213101310131,0,0
86.696325995901,-22.401404327031,31.017531753175,1868425.3790551,535.15733100078,2559752.4627014,36.217531753175,0,0
86.696326176834,-22.403457453761,31.02196219622,1868425.3790551,535.15733100078,2559752.4627014,36.22196219622,0,0
86.696326357767,-22.405510580491,31.026392639264,1868425.3790551,535.15733100078,2559752.4627014,36.226392639264,0,0
86.696326538699,-22.407563707222,31.030823082308,1868425.3790551,535.15733100078,2559752.4627014,36.230823082308,0,0
86.696326719632,-22.409616833952,31.035253525353,1868425.3790551,535.15733100078,2559752.4627014,36.235253525353,0,0
86.696326900564,-22.411669960683,31.039683968397,1868425.3790551,535.15733100078,2559752.4627014,36.239683968397,0,0
86.696327081497,-22.413723087413,31.044114411441,1868425.3790551,535.15733100078,2559752.4627014,36.244114411441,0,0
86.696327262429,-22.415776214143,31.048544854485,1868425.3790551,535.15733100078,2559752.4627014,36.248544854485,0,0
86.696327443362,-22.417829340874,31.05297529753,1868425.3790551,535.15733100078,2559752.4627014,36.25297529753,0,0
86.696327624295,-22.419882467604,31.057405740574,1868425.3790551,535.15733100078,2559752.4627014,36.257405740574,0,0
86.696327805227,-22.421935594335,31.061836183618,1868425.3790551,535.15733100078,2559752.4627014,36.261836183618,0,0
86.69632798616,-22.423988721065,31.066266626663,1868425.3790551,535.15733100078,2559752.4627014,36.266266626663,0,0
86.696328167092,-22.426041847795,31.070697069707,1868425.3790551,535.15733100078,2559752.4627014,36.270697069707,0,0
86.696328348025,-22.428094974526,31.075127512751,1868425.3790551,535.15733100078,2559752.4627014,36.275127512751,0,0
86.696328528958,-22.430148101256,31.079557955796,1868425.3790551,535.15733100078,2559752.4627014,36.279557955796,0,0
86.69632870989,-22.432201227987,31.08398839884,1868425.3790551,535.15733100078,2559752.4627014,36.28398839884,0,0
86.696328890823,-22.434254354717,31.088418841884,1868425.3790551,535.15733100078,2559752.4627014,36.288418841884,0,0
86.696329071755,-22.436307481447,31.092849284928,1868425.3790551,535.15733100078,2559752.4627014,36.292849284928,0,0
86.696329252688,-22.438360608178,31.097279727973,1868425.3790551,535.15733100078,2559752.4627014,36.297279727973,0,0
86.69632943362,-22.440413734908,31.101710171017,1868425.3790551,535.15733100078,2559752.4627014,36.301710171017,0,0
86.696329614553,-22.442466861639,31.106140614061,1868425.3790551,535.15733100078,2559752.4627014,36.306140614061,0,0
86.696329795486,-22.444519988369,31.110571057106,1868425.3790551,535.15733100078,2559752.4627014,36.310571057106,0,0
86.696329976418,-22.446573115099,31.11500150015,1868425.3790551,535.15733100078,2559752.4627014,36.31500150015,0,0
86.696330157351,-22.44862624183,31.119431943194,1868425.3790551,535.15733100078,2559752.4627014,36.319431943194,0,0
86.696330338283,-22.45067936856,31.123862386239,1868425.3790551,535.15733100078,2559752.4627014,36.323862386239,0,0
86.696330519216,-22.452732495291,31.128292829283,1868425.3790551,535.15733100078,2559752.4627014,36.328292829283,0,0
86.696330700148,-22.454785622021,31.132723272327,1868425.3790551,535.15733100078,2559752.4627014,36.332723272327,0,0
86.696330881081,-22.456838748751,31.137153715372,1868425.3790551,535.15733100078,2559752.4627014,36.337153715372,0,0
86.696331062014,-22.458891875482,31.141584158416,1868425.3790551,535.15733100078,2559752.4627014,36.341584158416,0,0
86.696331242946,-22.460945002212,31.14601460146,1868425.3790551,535.15733100078,2559752.4627014,36.34601460146,0,0
86.696331423879,-22.462998128942,31.150445044504,1868425.3790551,535.15733100078,2559752.4627014,36.350445044504,0,0
86.696331604811,-22.465051255673,31.154875487549,1868425.3790551,535.15733100078,2559752.4627014,36.354875487549,0,0
86.696331785744,-22.467104382403,31.159305930593,1868425.3790551,535.15733100078,2559752.4627014,36.359305930593,0,0
86.696331966676,-22.469157509134,31.163736373637,1868425.3790551,535.15733100078,2559752.4627014,36.363736373637,0,0
86.696332147609,-22.471210635864,31.168166816682,1868425.3790551,535.15733100078,2559752.4627014,36.368166816682,0,0
86.696332328542,-22.473263762594,31.172597259726,1868425.3790551,535.15733100078,2559752.4627014,36.372597259726,0,0
86.696332509474,-22.475316889325,31.17702770277,1868425.3790551,535.15733100078,2559752.4627014,36.37702770277,0,0
86.696332690407,-22.477370016055,31.181458145815,1868425.3790551,535.15733100078,2559752.4627014,36.381458145815,0,0
86.696332871339,-22.479423142786,31.185888588859,1868425.3790551,535.15733100078,2559752.4627014,36.385888588859,0,0
86.696333052272,-22.481476269516,31.190319031903,1868425.3790551,535.15733100078,2559752.4627014,36.390319031903,0,0
86.696333233204,-22.483529396246,31.194749474947,1868425.3790551,535.15733100078,2559752.4627014,36.394749474947,0,0
86.696333414137,-22.485582522977,31.199179917992,1868425.3790551,535.15733100078,2559752.4627014,36.399179917992,0,0
86.69633359507,-22.487635649707,31.203610361036,1868425.3790551,535.15733100078,2559752.4627014,36.403610361036,0,0
86.696333776002,-22.489688776438,31.20804080408,1868425.3790551,535.15733100078,2559752.4627014,36.40804080408,0,0
86.696333956935,-22.491741903168,31.212471247125,1868425.3790551,535.15733100078,2559752.4627014,36.412471247125,0,0
86.696334137867,-22.493795029898,31.216901690169,1868425.3790551,535.15733100078,2559752.4627014,36.416901690169,0,0
86.6963343188,-22.495848156629,31.221332133213,1868425.3790551,535.15733100078,2559752.4627014,36.421332133213,0,0
86.696334499733,-22.497901283359,31.225762576258,1868425.3790551,535.15733100078,2559752.4627014,36.425762576258,0,0
86.696334680665,-22.49995441009,31.230193019302,1868425.3790551,535.15733100078,2559752.4627014,36.430193019302,0,0
86.696334861598,-22.50200753682,31.234623462346,1868425.3790551,535.15733100078,2559752.4627014,36.434623462346,0,0
86.69633504253,-22.50406066355,31.239053905391,1868425.3790551,535.15733100078,2559752.4627014,36.439053905391,0,0
86.696335223463,-22.506113790281,31.243484348435,1868425.3790551,535.15733100078,2559752.4627014,36.443484348435,0,0
86.696335404395,-22.508166917011,31.247914791479,1868425.3790551,535.15733100078,2559752.4627014,36.447914791479,0,0
86.696335585328,-22.510220043742,31.252345234523,1868425.3790551,535.15733100078,2559752.4627014,36.452345234523,0,0
86.696335766261,-22.512273170472,31.256775677568,1868425.3790551,535.15733100078,2559752.4627014,36.456775677568,0,0
86.696335947193,-22.514326297202,31.261206120612,1868425.3790551,535.15733100078,2559752.4627014,36.461206120612,0,0
86.696336128126,-22.516379423933,31.265636563656,1868425.3790551,535.15733100078,2559752.4627014,36.465636563656,0,0
86.696336309058,-22.518432550663,31.270067006701,1868425.3790551,535.15733100078,2559752.4627014,36.470067006701,0,0
86.696336489991,-22.520485677394,31.274497449745,1868425.3790551,535.15733100078,2559752.4627014,36.474497449745,0,0
86.696336670923,-22.522538804124,31.278927892789,1868425.3790551,535.15733100078,2559752.4627014,36.478927892789,0,0
86.696336851856,-22.524591930854,31.283358335834,1868425.3790551,535.15733100078,2559752.4627014,36.483358335834,0,0
86.696337032789,-22.526645057585,31.287788778878,1868425.3790551,535.15733100078,2559752.4627014,36.487788778878,0,0
86.696337213721,-22.528698184315,31.292219221922,1868425.3790551,535.15733100078,2559752.4627014,36.492219221922,0,0
86.696337394762,-22.530751311368,31.296649664966,1869297.6271226,-1278.7322082809,2556224.0099469,36.496649664966,0,0
86.696337575858,-22.532804438587,31.301080108011,1869297.6271226,-1278.7322082809,2556224.0099469,36.501080108011,0,0
86.696337756954,-22.534857565806,31.305510551055,1869297.6271226,-1278.7322082809,2556224.0099469,36.505510551055,0,0
86.69633793805,-22.536910693025,31.309940994099,1869297.6271226,-1278.7322082809,2556224.0099469,36.509940994099,0,0
86.696338119146,-22.538963820244,31.314371437144,1869297.6271226,-1278.7322082809,2556224.0099469,36.514371437144,0,0
86.696338300243,-22.541016947463,31.318801880188,1869297.6271226,-1278.7322082809,2556224.0099469,36.518801880188,0,0
86.696338481339,-22.543070074681,31.323232323232,1869297.6271226,-1278.7322082809,2556224.0099469,36.523232323232,0,0
86.696338662435,-22.5451232019,31.327662766277,1869297.6271226,-1278.7322082809,2556224.0099469,36.527662766277,0,0
86.696338843531,-22.547176329119,31.332093209321,1869297.6271226,-1278.7322082809,2556224.0099469,36.532093209321,0,0
86.696339024627,-22.549229456338,31.336523652365,1869297.6271226,-1278.7322082809,2556224.0099469,36.536523652365,0,0
86.696339205724,-22.551282583557,31.34095409541,1869297.6271226,-1278.7322082809,2556224.0099469,36.54095409541,0,0
86.69633938682,-22.553335710776,31.345384538454,1869297.6271226,-1278.7322082809,2556224.0099469,36.545384538454,0,0
86.696339567916,-22.555388837995,31.349814981498,1869297.6271226,-1278.7322082809,2556224.0099469,36.549814981498,0,0
86.696339749012,-22.557441965214,31.354245424542,1869297.6271226,-1278.7322082809,2556224.0099469,36.554245424542,0,0
86.696339930108,-22.559495092433,31.358675867587,1869297.6271226,-1278.7322082809,2556224.0099469,36.558675867587,0,0
86.696340111205,-22.561548219652,31.363106310631,1869297.6271226,-1278.7322082809,2556224.0099469,36.563106310631,0,0
86.696340292301,-22.563601346871,31.367536753675,1869297.6271226,-1278.7322082809,2556224.0099469,36.567536753675,0,0
86.696340473397,-22.56565447409,31.37196719672,1869297.6271226,-1278.7322082809,2556224.0099469,36.57196719672,0,0
86.696340654493,-22.567707601309,31.376397639764,1869297.6271226,-1278.7322082809,2556224.0099469,36.576397639764,0,0
86.696340835589,-22.569760728528,31.380828082808,1869297.6271226,-1278.7322082809,2556224.0099469,36.580828082808,0,0
86.696341016686,-22.571813855747,31.385258525853,1869297.6271226,-1278.7322082809,2556224.0099469,36.585258525853,0,0
86.696341197782,-22.573866982965,31.389688968897,1869297.6271226,-1278.7322082809,2556224.0099469,36.589688968897,0,0
86.696341378878,-22.575920110184,31.394119411941,1869297.6271226,-1278.7322082809,2556224.0099469,36.594119411941,0,0
86.696341559974,-22.577973237403,31.398549854986,1869297.6271226,-1278.7322082809,2556224.0099469,36.598549854985,0,0
86.69634174107,-22.580026364622,31.40298029803,1869297.6271226,-1278.7322082809,2556224.0099469,36.60298029803,0,0
86.696341922166,-22.582079491841,31.407410741074,1869297.6271226,-1278.7322082809,2556224.0099469,36.607410741074,0,0
86.696342103263,-22.58413261906,31.411841184118,1869297.6271226,-1278.7322082809,2556224.0099469,36.611841184118,0,0
86.696342284359,-22.586185746279,31.416271627163,1869297.6271226,-1278.7322082809,2556224.0099469,36.616271627163,0,0
86.696342465455,-22.588238873498,31.420702070207,1869297.6271226,-1278.7322082809,2556224.0099469,36.620702070207,0,0
86.696342646551,-22.590292000717,31.425132513251,1869297.6271226,-1278.7322082809,2556224.0099469,36.625132513251,0,0
86.696342827647,-22.592345127936,31.429562956296,1869297.6271226,-1278.7322082809,2556224.0099469,36.629562956296,0,0
86.696343008744,-22.594398255155,31.43399339934,1869297.6271226,-1278.7322082809,2556224.0099469,36.63399339934,0,0
86.69634318984,-22.596451382374,31.438423842384,1869297.6271226,-1278.7322082809,2556224.0099469,36.638423842384,0,0
86.696343370936,-22.598504509593,31.442854285429,1869297.6271226,-1278.7322082809,2556224.0099469,36.642854285429,0,0
86.696343552032,-22.600557636812,31.447284728473,1869297.6271226,-1278.7322082809,2556224.0099469,36.647284728473,0,0
86.696343733128,-22.60261076403,31.451715171517,1869297.6271226,-1278.7322082809,2556224.0099469,36.651715171517,0,0
86.696343914225,-22.604663891249,31.456145614561,1869297.6271226,-1278.7322082809,2556224.0099469,36.656145614561,0,0
86.696344095321,-22.606717018468,31.460576057606,1869297.6271226,-1278.7322082809,2556224.0099469,36.660576057606,0,0
86.696344276417,-22.608770145687,31.46500650065,1869297.6271226,-1278.7322082809,2556224.0099469,36.66500650065,0,0
86.696344457513,-22.610823272906,31.469436943694,1869297.6271226,-1278.7322082809,2556224.0099469,36.669436943694,0,0
86.696344638609,-22.612876400125,31.473867386739,1869297.6271226,-1278.7322082809,2556224.0099469,36.673867386739,0,0
86.696344819706,-22.614929527344,31.478297829783,1869297.6271226,-1278.7322082809,2556224.0099469,36.678297829783,0,0
86.696345000802,-22.616982654563,31.482728272827,1869297.6271226,-1278.7322082809,2556224.0099469,36.682728272827,0,0
86.696345181898,-22.619035781782,31.487158715872,1869297.6271226,-1278.7322082809,2556224.0099469,36.687158715872,0,0
86.696345362994,-22.621088909001,31.491589158916,1869297.6271226,-1278.7322082809,2556224.0099469,36.691589158916,0,0
86.69634554409,-22.62314203622,31.49601960196,1869297.6271226,-1278.7322082809,2556224.0099469,36.69601960196,0,0
86.696345725187,-22.625195163439,31.500450045005,1869297.6271226,-1278.7322082809,2556224.0099469,36.700450045005,0,0
86.696345906283,-22.627248290658,31.504880488049,1869297.6271226,-1278.7322082809,2556224.0099469,36.704880488049,0,0
86.696346087379,-22.629301417877,31.509310931093,1869297.6271226,-1278.7322082809,2556224.0099469,36.709310931093,0,0
86.696346268475,-22.631354545096,31.513741374137,1869297.6271226,-1278.7322082809,2556224.0099469,36.713741374137,0,0
86.696346449571,-22.633407672314,31.518171817182,1869297.6271226,-1278.7322082809,2556224.0099469,36.718171817182,0,0
86.696346630668,-22.635460799533,31.522602260226,1869297.6271226,-1278.7322082809,2556224.0099469,36.722602260226,0,0
86.696346811764,-22.637513926752,31.52703270327,1869297.6271226,-1278.7322082809,2556224.0099469,36.72703270327,0,0
86.69634699286,-22.639567053971,31.531463146315,1869297.6271226,-1278.7322082809,2556224.0099469,36.731463146315,0,0
86.696347173956,-22.64162018119,31.535893589359,1869297.6271226,-1278.7322082809,2556224.0099469,36.735893589359,0,0
86.696347355052,-22.643673308409,31.540324032403,1869297.6271226,-1278.7322082809,2556224.0099469,36.740324032403,0,0
86.696347536148,-22.645726435628,31.544754475448,1869297.6271226,-1278.7322082809,2556224.0099469,36.744754475448,0,0
86.696347717245,-22.647779562847,31.549184918492,1869297.6271226,-1278.7322082809,2556224.0099469,36.749184918492,0,0
86.696347898341,-22.649832690066,31.553615361536,1869297.6271226,-1278.7322082809,2556224.0099469,36.753615361536,0,0
86.696348079437,-22.651885817285,31.55804580458,1869297.6271226,-1278.7322082809,2556224.0099469,36.75804580458,0,0
86.696348260533,-22.653938944504,31.562476247625,1869297.6271226,-1278.7322082809,2556224.0099469,36.762476247625,0,0
86.696348441629,-22.655992071723,31.566906690669,1869297.6271226,-1278.7322082809,2556224.0099469,36.766906690669,0,0
86.696348622726,-22.658045198942,31.571337133713,1869297.6271226,-1278.7322082809,2556224.0099469,36.771337133713,0,0
86.696348803822,-22.660098326161,31.575767576758,1869297.6271226,-1278.7322082809,2556224.0099469,36.775767576758,0,0
86.696348984918,-22.662151453379,31.580198019802,1869297.6271226,-1278.7322082809,2556224.0099469,36.780198019802,0,0
86.696349166014,-22.664204580598,31.584628462846,1869297.6271226,-1278.7322082809,2556224.0099469,36.784628462846,0,0
86.69634934711,-22.666257707817,31.589058905891,1869297.6271226,-1278.7322082809,2556224.0099469,36.789058905891,0,0
86.696349528207,-22.668310835036,31.593489348935,1869297.6271226,-1278.7322082809,2556224.0099469,36.793489348935,0,0
86.696349709303,-22.670363962255,31.597919791979,1869297.6271226,-1278.7322082809,2556224.0099469,36.797919791979,0,0
86.696349890399,-22.672417089474,31.602350235024,1869297.6271226,-1278.7322082809,2556224.0099469,36.802350235024,0,0
86.696350071495,-22.674470216693,31.606780678068,1869297.6271226,-1278.7322082809,2556224.0099469,36.806780678068,0,0
86.696350252591,-22.676523343912,31.611211121112,1869297.6271226,-1278.7322082809,2556224.0099469,36.811211121112,0,0
86.696350433688,-22.678576471131,31.615641564156,1869297.6271226,-1278.7322082809,2556224.0099469,36.815641564156,0,0
86.696350614784,-22.68062959835,31.620072007201,1869297.6271226,-1278.7322082809,2556224.0099469,36.820072007201,0,0
86.69635079588,-22.682682725569,31.624502450245,1869297.6271226,-1278.7322082809,2556224.0099469,36.824502450245,0,0
86.696350976976,-22.684735852788,31.628932893289,1869297.6271226,-1278.7322082809,2556224.0099469,36.828932893289,0,0
86.696351158072,-22.686788980007,31.633363336334,1869297.6271226,-1278.7322082809,2556224.0099469,36.833363336334,0,0
86.696351339169,-22.688842107226,31.637793779378,1869297.6271226,-1278.7322082809,2556224.0099469,36.837793779378,0,0
86.696351520265,-22.690895234445,31.642224222422,1869297.6271226,-1278.7322082809,2556224.0099469,36.842224222422,0,0
86.696351701361,-22.692948361663,31.646654665467,1869297.6271226,-1278.7322082809,2556224.0099469,36.846654665467,0,0
86.696351882457,-22.695001488882,31.651085108511,1869297.6271226,-1278.7322082809,2556224.0099469,36.851085108511,0,0
86.696352063553,-22.697054616101,31.655515551555,1869297.6271226,-1278.7322082809,2556224.0099469,36.855515551555,0,0
86.696352244649,-22.69910774332,31.659945994599,1869297.6271226,-1278.7322082809,2556224.0099469,36.859945994599,0,0
86.696352425746,-22.701160870539,31.664376437644,1869297.6271226,-1278.7322082809,2556224.0099469,36.864376437644,0,0
86.696352606842,-22.703213997758,31.668806880688,1869297.6271226,-1278.7322082809,2556224.0099469,36.868806880688,0,0
86.696352787938,-22.705267124977,31.673237323732,1869297.6271226,-1278.7322082809,2556224.0099469,36.873237323732,0,0
86.696352969034,-22.707320252196,31.677667766777,1869297.6271226,-1278.7322082809,2556224.0099469,36.877667766777,0,0
86.69635315013,-22.709373379415,31.682098209821,1869297.6271226,-1278.7322082809,2556224.0099469,36.882098209821,0,0
86.696353331227,-22.711426506634,31.686528652865,1869297.6271226,-1278.7322082809,2556224.0099469,36.886528652865,0,0
86.696353512323,-22.713479633853,31.69095909591,1869297.6271226,-1278.7322082809,2556224.0099469,36.89095909591,0,0
86.696353693419,-22.715532761072,31.695389538954,1869297.6271226,-1278.7322082809,2556224.0099469,36.895389538954,0,0
86.696353874515,-22.717585888291,31.699819981998,1869297.6271226,-1278.7322082809,2556224.0099469,36.899819981998,0,0
86.696354055611,-22.71963901551,31.704250425043,1869297.6271226,-1278.7322082809,2556224.0099469,36.904250425043,0,0
86.696354236708,-22.721692142728,31.708680868087,1869297.6271226,-1278.7322082809,2556224.0099469,36.908680868087,0,0
86.696354417804,-22.723745269947,31.713111311131,1869297.6271226,-1278.7322082809,2556224.0099469,36.913111311131,0,0
86.6963545989,-22.725798397166,31.717541754175,1869297.6271226,-1278.7322082809,2556224.0099469,36.917541754175,0,0
86.696354779996,-22.727851524385,31.72197219722,1869297.6271226,-1278.7322082809,2556224.0099469,36.92197219722,0,0
86.696354961092,-22.729904651604,31.726402640264,1869297.6271226,-1278.7322082809,2556224.0099469,36.926402640264,0,0
86.696355142189,-22.731957778823,31.730833083308,1869297.6271226,-1278.7322082809,2556224.0099469,36.930833083308,0,0
86.696355323285,-22.734010906042,31.735263526353,1869297.6271226,-1278.7322082809,2556224.0099469,36.935263526353,0,0
86.696355504381,-22.736064033261,31.739693969397,1869297.6271226,-1278.7322082809,2556224.0099469,36.939693969397,0,0
86.696355685477,-22.73811716048,31.744124412441,1869297.6271226,-1278.7322082809,2556224.0099469,36.944124412441,0,0
86.696355866573,-22.740170287699,31.748554855486,1869297.6271226,-1278.7322082809,2556224.0099469,36.948554855486,0,0
86.69635604767,-22.742223414918,31.75298529853,1869297.6271226,-1278.7322082809,2556224.0099469,36.95298529853,0,0
86.696356228766,-22.744276542137,31.757415741574,1869297.6271226,-1278.7322082809,2556224.0099469,36.957415741574,0,0
86.696356409862,-22.746329669356,31.761846184618,1869297.6271226,-1278.7322082809,2556224.0099469,36.961846184618,0,0
86.696356590958,-22.748382796575,31.766276627663,1869297.6271226,-1278.7322082809,2556224.0099469,36.966276627663,0,0
86.696356772054,-22.750435923793,31.770707070707,1869297.6271226,-1278.7322082809,2556224.0099469,36.970707070707,0,0
86.696356953151,-22.752489051012,31.775137513751,1869297.6271226,-1278.7322082809,2556224.0099469,36.975137513751,0,0
86.696357134247,-22.754542178231,31.779567956796,1869297.6271226,-1278.7322082809,2556224.0099469,36.979567956796,0,0
86.696357315343,-22.75659530545,31.78399839984,1869297.6271226,-1278.7322082809,2556224.0099469,36.98399839984,0,0
86.696357496439,-22.758648432669,31.788428842884,1869297.6271226,-1278.7322082809,2556224.0099469,36.988428842884,0,0
86.696357677535,-22.760701559888,31.792859285929,1869297.6271226,-1278.7322082809,2556224.0099469,36.992859285929,0,0
86.696357858631,-22.762754687107,31.797289728973,1869297.6271226,-1278.7322082809,2556224.0099469,36.997289728973,0,0
86.696358039728,-22.764807814326,31.801720172017,1869297.6271226,-1278.7322082809,2556224.0099469,37.001720172017,0,0
86.696358220824,-22.766860941545,31.806150615062,1869297.6271226,-1278.7322082809,2556224.0099469,37.006150615062,0,0
86.69635840192,-22.768914068764,31.810581058106,1869297.6271226,-1278.7322082809,2556224.0099469,37.010581058106,0,0
86.696358583016,-22.770967195983,31.81501150115,1869297.6271226,-1278.7322082809,2556224.0099469,37.01501150115,0,0
86.696358764112,-22.773020323202,31.819441944194,1869297.6271226,-1278.7322082809,2556224.0099469,37.019441944194,0,0
86.696358945209,-22.775073450421,31.823872387239,1869297.6271226,-1278.7322082809,2556224.0099469,37.023872387239,0,0
86.696359126305,-22.77712657764,31.828302830283,1869297.6271226,-1278.7322082809,2556224.0099469,37.028302830283,0,0
86.696359307401,-22.779179704859,31.832733273327,1869297.6271226,-1278.7322082809,2556224.0099469,37.032733273327,0,0
86.696359488497,-22.781232832077,31.837163716372,1869297.6271226,-1278.7322082809,2556224.0099469,37.037163716372,0,0
86.696359669593,-22.783285959296,31.841594159416,1869297.6271226,-1278.7322082809,2556224.0099469,37.041594159416,0,0
86.69635985069,-22.785339086515,31.84602460246,1869297.6271226,-1278.7322082809,2556224.0099469,37.04602460246,0,0
86.696360031786,-22.787392213734,31.850455045505,1869297.6271226,-1278.7322082809,2556224.0099469,37.050455045505,0,0
86.696360212882,-22.789445340953,31.854885488549,1869297.6271226,-1278.7322082809,2556224.0099469,37.054885488549,0,0
86.696360393978,-22.791498468172,31.859315931593,1869297.6271226,-1278.7322082809,2556224.0099469,37.059315931593,0,0
86.696360575074,-22.793551595391,31.863746374637,1869297.6271226,-1278.7322082809,2556224.0099469,37.063746374637,0,0
86.696360756171,-22.79560472261,31.868176817682,1869297.6271226,-1278.7322082809,2556224.0099469,37.068176817682,0,0
86.696360937267,-22.797657849829,31.872607260726,1869297.6271226,-1278.7322082809,2556224.0099469,37.072607260726,0,0
86.696361118363,-22.799710977048,31.87703770377,1869297.6271226,-1278.7322082809,2556224.0099469,37.07703770377,0,0
86.696361299459,-22.801764104267,31.881468146815,1869297.6271226,-1278.7322082809,2556224.0099469,37.081468146815,0,0
86.696361480555,-22.803817231486,31.885898589859,1869297.6271226,-1278.7322082809,2556224.0099469,37.085898589859,0,0
86.696361661652,-22.805870358705,31.890329032903,1869297.6271226,-1278.7322082809,2556224.0099469,37.090329032903,0,0
86.696361842748,-22.807923485924,31.894759475948,1869297.6271226,-1278.7322082809,2556224.0099469,37.094759475948,0,0
86.696362023844,-22.809976613142,31.899189918992,1869297.6271226,-1278.7322082809,2556224.0099469,37.099189918992,0,0
86.69636220494,-22.812029740361,31.903620362036,1869297.6271226,-1278.7322082809,2556224.0099469,37.103620362036,0,0
86.696362386036,-22.81408286758,31.908050805081,1869297.6271226,-1278.7322082809,2556224.0099469,37.108050805081,0,0
86.696362567132,-22.816135994799,31.912481248125,1869297.6271226,-1278.7322082809,2556224.0099469,37.112481248125,0,0
86.696362748229,-22.818189122018,31.916911691169,1869297.6271226,-1278.7322082809,2556224.0099469,37.116911691169,0,0
86.696362929325,-22.820242249237,31.921342134213,1869297.6271226,-1278.7322082809,2556224.0099469,37.121342134213,0,0
86.696363110421,-22.822295376456,31.925772577258,1869297.6271226,-1278.7322082809,2556224.0099469,37.125772577258,0,0
86.696363291517,-22.824348503675,31.930203020302,1869297.6271226,-1278.7322082809,2556224.0099469,37.130203020302,0,0
86.696363472613,-22.826401630894,31.934633463346,1869297.6271226,-1278.7322082809,2556224.0099469,37.134633463346,0,0
86.69636365371,-22.828454758113,31.939063906391,1869297.6271226,-1278.7322082809,2556224.0099469,37.139063906391,0,0
86.696363834806,-22.830507885332,31.943494349435,1869297.6271226,-1278.7322082809,2556224.0099469,37.143494349435,0,0
86.696364016,-22.832561012296,31.947924792479,1870644.1612022,439.83287582698,2553687.5764186,37.147924792479,0,0
86.696364197271,-22.834614139057,31.952355235524,1870644.1612022,439.83287582698,2553687.5764186,37.152355235524,0,0
86.696364378542,-22.836667265819,31.956785678568,1870644.1612022,439.83287582698,2553687.5764186,37.156785678568,0,0
86.696364559813,-22.838720392581,31.961216121612,1870644.1612022,439.83287582698,2553687.5764186,37.161216121612,0,0
86.696364741085,-22.840773519342,31.965646564656,1870644.1612022,439.83287582698,2553687.5764186,37.165646564656,0,0
86.696364922356,-22.842826646104,31.970077007701,1870644.1612022,439.83287582698,2553687.5764186,37.170077007701,0,0
86.696365103627,-22.844879772865,31.974507450745,1870644.1612022,439.83287582698,2553687.5764186,37.174507450745,0,0
86.696365284899,-22.846932899627,31.978937893789,1870644.1612022,439.83287582698,2553687.5764186,37.178937893789,0,0
86.69636546617,-22.848986026389,31.983368336834,1870644.1612022,439.83287582698,2553687.5764186,37.183368336834,0,0
86.696365647441,-22.85103915315,31.987798779878,1870644.1612022,439.83287582698,2553687.5764186,37.187798779878,0,0
86.696365828712,-22.853092279912,31.992229222922,1870644.1612022,439.83287582698,2553687.5764186,37.192229222922,0,0
86.696366009984,-22.855145406673,31.996659665967,1870644.1612022,439.83287582698,2553687.5764186,37.196659665967,0,0
86.696366191255,-22.857198533435,32.001090109011,1870644.1612022,439.83287582698,2553687.5764186,37.201090109011,0,0
86.696366372526,-22.859251660196,32.005520552055,1870644.1612022,439.83287582698,2553687.5764186,37.205520552055,0,0
86.696366553798,-22.861304786958,32.0099509951,1870644.1612022,439.83287582698,2553687.5764186,37.2099509951,0,0
86.696366735069,-22.86335791372,32.014381438144,1870644.1612022,439.83287582698,2553687.5764186,37.214381438144,0,0
86.69636691634,-22.865411040481,32.018811881188,1870644.1612022,439.83287582698,2553687.5764186,37.218811881188,0,0
86.696367097611,-22.867464167243,32.023242324232,1870644.1612022,439.83287582698,2553687.5764186,37.223242324232,0,0
86.696367278883,-22.869517294004,32.027672767277,1870644.1612022,439.83287582698,2553687.5764186,37.227672767277,0,0
86.696367460154,-22.871570420766,32.032103210321,1870644.1612022,439.83287582698,2553687.5764186,37.232103210321,0,0
86.696367641425,-22.873623547528,32.036533653365,1870644.1612022,439.83287582698,2553687.5764186,37.236533653365,0,0
86.696367822697,-22.875676674289,32.04096409641,1870644.1612022,439.83287582698,2553687.5764186,37.24096409641,0,0
86.696368003968,-22.877729801051,32.045394539454,1870644.1612022,439.83287582698,2553687.5764186,37.245394539454,0,0
86.696368185239,-22.879782927812,32.049824982498,1870644.1612022,439.83287582698,2553687.5764186,37.249824982498,0,0
86.69636836651,-22.881836054574,32.054255425543,1870644.1612022,439.83287582698,2553687.5764186,37.254255425543,0,0
86.696368547782,-22.883889181336,32.058685868587,1870644.1612022,439.83287582698,2553687.5764186,37.258685868587,0,0
86.696368729053,-22.885942308097,32.063116311631,1870644.1612022,439.83287582698,2553687.5764186,37.263116311631,0,0
86.696368910324,-22.887995434859,32.067546754675,1870644.1612022,439.83287582698,2553687.5764186,37.267546754675,0,0
86.696369091595,-22.89004856162,32.07197719772,1870644.1612022,439.83287582698,2553687.5764186,37.27197719772,0,0
86.696369272867,-22.892101688382,32.076407640764,1870644.1612022,439.83287582698,2553687.5764186,37.276407640764,0,0
86.696369454138,-22.894154815143,32.080838083808,1870644.1612022,439.83287582698,2553687.5764186,37.280838083808,0,0
86.696369635409,-22.896207941905,32.085268526853,1870644.1612022,439.83287582698,2553687.5764186,37.285268526853,0,0
86.696369816681,-22.898261068667,32.089698969897,1870644.1612022,439.83287582698,2553687.5764186,37.289698969897,0,0
86.696369997952,-22.900314195428,32.094129412941,1870644.1612022,439.83287582698,2553687.5764186,37.294129412941,0,0
86.696370179223,-22.90236732219,32.098559855986,1870644.1612022,439.83287582698,2553687.5764186,37.298559855986,0,0
86.696370360494,-22.904420448951,32.10299029903,1870644.1612022,439.83287582698,2553687.5764186,37.30299029903,0,0
86.696370541766,-22.906473575713,32.107420742074,1870644.1612022,439.83287582698,2553687.5764186,37.307420742074,0,0
86.696370723037,-22.908526702475,32.111851185119,1870644.1612022,439.83287582698,2553687.5764186,37.311851185119,0,0
86.696370904308,-22.910579829236,32.116281628163,1870644.1612022,439.83287582698,2553687.5764186,37.316281628163,0,0
86.69637108558,-22.912632955998,32.120712071207,1870644.1612022,439.83287582698,2553687.5764186,37.320712071207,0,0
86.696371266851,-22.914686082759,32.125142514251,1870644.1612022,439.83287582698,2553687.5764186,37.325142514251,0,0
86.696371448122,-22.916739209521,32.129572957296,1870644.1612022,439.83287582698,2553687.5764186,37.329572957296,0,0
86.696371629393,-22.918792336282,32.13400340034,1870644.1612022,439.83287582698,2553687.5764186,37.33400340034,0,0
86.696371810665,-22.920845463044,32.138433843384,1870644.1612022,439.83287582698,2553687.5764186,37.338433843384,0,0
86.696371991936,-22.922898589806,32.142864286429,1870644.1612022,439.83287582698,2553687.5764186,37.342864286429,0,0
86.696372173207,-22.924951716567,32.147294729473,1870644.1612022,439.83287582698,2553687.5764186,37.347294729473,0,0
86.696372354479,-22.927004843329,32.151725172517,1870644.1612022,439.83287582698,2553687.5764186,37.351725172517,0,0
86.69637253575,-22.92905797009,32.156155615562,1870644.1612022,439.83287582698,2553687.5764186,37.356155615562,0,0
86.696372717021,-22.931111096852,32.160586058606,1870644.1612022,439.83287582698,2553687.5764186,37.360586058606,0,0
86.696372898292,-22.933164223614,32.16501650165,1870644.1612022,439.83287582698,2553687.5764186,37.36501650165,0,0
86.696373079564,-22.935217350375,32.169446944694,1870644.1612022,439.83287582698,2553687.5764186,37.369446944694,0,0
86.696373260835,-22.937270477137,32.173877387739,1870644.1612022,439.83287582698,2553687.5764186,37.373877387739,0,0
86.696373442106,-22.939323603898,32.178307830783,1870644.1612022,439.83287582698,2553687.5764186,37.378307830783,0,0
86.696373623378,-22.94137673066,32.182738273827,1870644.1612022,439.83287582698,2553687.5764186,37.382738273827,0,0
86.696373804649,-22.943429857421,32.187168716872,1870644.1612022,439.83287582698,2553687.5764186,37.387168716872,0,0
86.69637398592,-22.945482984183,32.191599159916,1870644.1612022,439.83287582698,2553687.5764186,37.391599159916,0,0
86.696374167191,-22.947536110945,32.19602960296,1870644.1612022,439.83287582698,2553687.5764186,37.39602960296,0,0
86.696374348463,-22.949589237706,32.200460046005,1870644.1612022,439.83287582698,2553687.5764186,37.400460046005,0,0
86.696374529734,-22.951642364468,32.204890489049,1870644.1612022,439.83287582698,2553687.5764186,37.404890489049,0,0
86.696374711005,-22.953695491229,32.209320932093,1870644.1612022,439.83287582698,2553687.5764186,37.409320932093,0,0
86.696374892277,-22.955748617991,32.213751375138,1870644.1612022,439.83287582698,2553687.5764186,37.413751375138,0,0
86.696375073548,-22.957801744753,32.218181818182,1870644.1612022,439.83287582698,2553687.5764186,37.418181818182,0,0
86.696375254819,-22.959854871514,32.222612261226,1870644.1612022,439.83287582698,2553687.5764186,37.422612261226,0,0
86.69637543609,-22.961907998276,32.22704270427,1870644.1612022,439.83287582698,2553687.5764186,37.42704270427,0,0
86.696375617362,-22.963961125037,32.231473147315,1870644.1612022,439.83287582698,2553687.5764186,37.431473147315,0,0
86.696375798633,-22.966014251799,32.235903590359,1870644.1612022,439.83287582698,2553687.5764186,37.435903590359,0,0
86.696375979904,-22.96806737856,32.240334033403,1870644.1612022,439.83287582698,2553687.5764186,37.440334033403,0,0
86.696376161175,-22.970120505322,32.244764476448,1870644.1612022,439.83287582698,2553687.5764186,37.444764476448,0,0
86.696376342447,-22.972173632084,32.249194919492,1870644.1612022,439.83287582698,2553687.5764186,37.449194919492,0,0
86.696376523718,-22.974226758845,32.253625362536,1870644.1612022,439.83287582698,2553687.5764186,37.453625362536,0,0
86.696376704989,-22.976279885607,32.258055805581,1870644.1612022,439.83287582698,2553687.5764186,37.458055805581,0,0
86.696376886261,-22.978333012368,32.262486248625,1870644.1612022,439.83287582698,2553687.5764186,37.462486248625,0,0
86.696377067532,-22.98038613913,32.266916691669,1870644.1612022,439.83287582698,2553687.5764186,37.466916691669,0,0
86.696377248803,-22.982439265892,32.271347134713,1870644.1612022,439.83287582698,2553687.5764186,37.471347134713,0,0
86.696377430074,-22.984492392653,32.275777577758,1870644.1612022,439.83287582698,2553687.5764186,37.475777577758,0,0
86.696377611346,-22.986545519415,32.280208020802,1870644.1612022,439.83287582698,2553687.5764186,37.480208020802,0,0
86.696377792617,-22.988598646176,32.284638463846,1870644.1612022,439.83287582698,2553687.5764186,37.484638463846,0,0
86.696377973888,-22.990651772938,32.289068906891,1870644.1612022,439.83287582698,2553687.5764186,37.489068906891,0,0
86.69637815516,-22.9927048997,32.293499349935,1870644.1612022,439.83287582698,2553687.5764186,37.493499349935,0,0
86.696378336431,-22.994758026461,32.297929792979,1870644.1612022,439.83287582698,2553687.5764186,37.497929792979,0,0
86.696378517702,-22.996811153223,32.302360236024,1870644.1612022,439.83287582698,2553687.5764186,37.502360236024,0,0
86.696378698973,-22.998864279984,32.306790679068,1870644.1612022,439.83287582698,2553687.5764186,37.506790679068,0,0
86.696378880245,-23.000917406746,32.311221122112,1870644.1612022,439.83287582698,2553687.5764186,37.511221122112,0,0
86.696379061516,-23.002970533507,32.315651565157,1870644.1612022,439.83287582698,2553687.5764186,37.515651565157,0,0
86.696379242787,-23.005023660269,32.320082008201,1870644.1612022,439.83287582698,2553687.5764186,37.520082008201,0,0
86.696379424059,-23.007076787031,32.324512451245,1870644.1612022,439.83287582698,2553687.5764186,37.524512451245,0,0
86.69637960533,-23.009129913792,32.328942894289,1870644.1612022,439.83287582698,2553687.5764186,37.528942894289,0,0
86.696379786601,-23.011183040554,32.333373337334,1870644.1612022,439.83287582698,2553687.5764186,37.533373337334,0,0
86.696379967872,-23.013236167315,32.337803780378,1870644.1612022,439.83287582698,2553687.5764186,37.537803780378,0,0
86.696380149144,-23.015289294077,32.342234223422,1870644.1612022,439.83287582698,2553687.5764186,37.542234223422,0,0
86.696380330415,-23.017342420839,32.346664666467,1870644.1612022,439.83287582698,2553687.5764186,37.546664666467,0,0
86.696380511686,-23.0193955476,32.351095109511,1870644.1612022,439.83287582698,2553687.5764186,37.551095109511,0,0
86.696380692958,-23.021448674362,32.355525552555,1870644.1612022,439.83287582698,2553687.5764186,37.555525552555,0,0
86.696380874229,-23.023501801123,32.3599559956,1870644.1612022,439.83287582698,2553687.5764186,37.5599559956,0,0
86.6963810555,-23.025554927885,32.364386438644,1870644.1612022,439.83287582698,2553687.5764186,37.564386438644,0,0
86.696381236771,-23.027608054646,32.368816881688,1870644.1612022,439.83287582698,2553687.5764186,37.568816881688,0,0
86.696381418043,-23.029661181408,32.373247324732,1870644.1612022,439.83287582698,2553687.5764186,37.573247324732,0,0
86.696381599314,-23.03171430817,32.377677767777,1870644.1612022,439.83287582698,2553687.5764186,37.577677767777,0,0
86.696381780585,-23.033767434931,32.382108210821,1870644.1612022,439.83287582698,2553687.5764186,37.582108210821,0,0
86.696381961857,-23.035820561693,32.386538653865,1870644.1612022,439.83287582698,2553687.5764186,37.586538653865,0,0
86.696382143128,-23.037873688454,32.39096909691,1870644.1612022,439.83287582698,2553687.5764186,37.59096909691,0,0
86.696382324399,-23.039926815216,32.395399539954,1870644.1612022,439.83287582698,2553687.5764186,37.595399539954,0,0
86.69638250567,-23.041979941978,32.399829982998,1870644.1612022,439.83287582698,2553687.5764186,37.599829982998,0,0
86.696382686942,-23.044033068739,32.404260426043,1870644.1612022,439.83287582698,2553687.5764186,37.604260426043,0,0
86.696382868213,-23.046086195501,32.408690869087,1870644.1612022,439.83287582698,2553687.5764186,37.608690869087,0,0
86.696383049484,-23.048139322262,32.413121312131,1870644.1612022,439.83287582698,2553687.5764186,37.613121312131,0,0
86.696383230755,-23.050192449024,32.417551755176,1870644.1612022,439.83287582698,2553687.5764186,37.617551755176,0,0
86.696383412027,-23.052245575785,32.42198219822,1870644.1612022,439.83287582698,2553687.5764186,37.62198219822,0,0
86.696383593298,-23.054298702547,32.426412641264,1870644.1612022,439.83287582698,2553687.5764186,37.626412641264,0,0
86.696383774569,-23.056351829309,32.430843084308,1870644.1612022,439.83287582698,2553687.5764186,37.630843084308,0,0
86.696383955841,-23.05840495607,32.435273527353,1870644.1612022,439.83287582698,2553687.5764186,37.635273527353,0,0
86.696384137112,-23.060458082832,32.439703970397,1870644.1612022,439.83287582698,2553687.5764186,37.639703970397,0,0
86.696384318383,-23.062511209593,32.444134413441,1870644.1612022,439.83287582698,2553687.5764186,37.644134413441,0,0
86.696384499654,-23.064564336355,32.448564856486,1870644.1612022,439.83287582698,2553687.5764186,37.648564856486,0,0
86.696384680926,-23.066617463117,32.45299529953,1870644.1612022,439.83287582698,2553687.5764186,37.65299529953,0,0
86.696384862197,-23.068670589878,32.457425742574,1870644.1612022,439.83287582698,2553687.5764186,37.657425742574,0,0
86.696385043468,-23.07072371664,32.461856185619,1870644.1612022,439.83287582698,2553687.5764186,37.661856185619,0,0
86.69638522474,-23.072776843401,32.466286628663,1870644.1612022,439.83287582698,2553687.5764186,37.666286628663,0,0
86.696385406011,-23.074829970163,32.470717071707,1870644.1612022,439.83287582698,2553687.5764186,37.670717071707,0,0
86.696385587282,-23.076883096924,32.475147514751,1870644.1612022,439.83287582698,2553687.5764186,37.675147514751,0,0
86.696385768553,-23.078936223686,32.479577957796,1870644.1612022,439.83287582698,2553687.5764186,37.679577957796,0,0
86.696385949825,-23.080989350448,32.48400840084,1870644.1612022,439.83287582698,2553687.5764186,37.68400840084,0,0
86.696386131096,-23.083042477209,32.488438843884,1870644.1612022,439.83287582698,2553687.5764186,37.688438843884,0,0
86.696386312367,-23.085095603971,32.492869286929,1870644.1612022,439.83287582698,2553687.5764186,37.692869286929,0,0
86.696386493639,-23.087148730732,32.497299729973,1870644.1612022,439.83287582698,2553687.5764186,37.697299729973,0,0
86.69638667491,-23.089201857494,32.501730173017,1870644.1612022,439.83287582698,2553687.5764186,37.701730173017,0,0
86.696386856181,-23.091254984256,32.506160616062,1870644.1612022,439.83287582698,2553687.5764186,37.706160616062,0,0
86.696387037452,-23.093308111017,32.510591059106,1870644.1612022,439.83287582698,2553687.5764186,37.710591059106,0,0
86.696387218724,-23.095361237779,32.51502150215,1870644.1612022,439.83287582698,2553687.5764186,37.71502150215,0,0
86.696387399995,-23.09741436454,32.519451945195,1870644.1612022,439.83287582698,2553687.5764186,37.719451945195,0,0
86.696387581266,-23.099467491302,32.523882388239,1870644.1612022,439.83287582698,2553687.5764186,37.723882388239,0,0
86.696387762538,-23.101520618064,32.528312831283,1870644.1612022,439.83287582698,2553687.5764186,37.728312831283,0,0
86.696387943809,-23.103573744825,32.532743274327,1870644.1612022,439.83287582698,2553687.5764186,37.732743274327,0,0
86.69638812508,-23.105626871587,32.537173717372,1870644.1612022,439.83287582698,2553687.5764186,37.737173717372,0,0
86.696388306351,-23.107679998348,32.541604160416,1870644.1612022,439.83287582698,2553687.5764186,37.741604160416,0,0
86.696388487623,-23.10973312511,32.54603460346,1870644.1612022,439.83287582698,2553687.5764186,37.74603460346,0,0
86.696388668894,-23.111786251871,32.550465046505,1870644.1612022,439.83287582698,2553687.5764186,37.750465046505,0,0
86.696388850165,-23.113839378633,32.554895489549,1870644.1612022,439.83287582698,2553687.5764186,37.754895489549,0,0
86.696389031437,-23.115892505395,32.559325932593,1870644.1612022,439.83287582698,2553687.5764186,37.759325932593,0,0
86.696389212708,-23.117945632156,32.563756375638,1870644.1612022,439.83287582698,2553687.5764186,37.763756375638,0,0
86.696389393979,-23.119998758918,32.568186818682,1870644.1612022,439.83287582698,2553687.5764186,37.768186818682,0,0
86.69638957525,-23.122051885679,32.572617261726,1870644.1612022,439.83287582698,2553687.5764186,37.772617261726,0,0
86.696389756522,-23.124105012441,32.57704770477,1870644.1612022,439.83287582698,2553687.5764186,37.77704770477,0,0
86.696389937793,-23.126158139203,32.581478147815,1870644.1612022,439.83287582698,2553687.5764186,37.781478147815,0,0
86.696390119064,-23.128211265964,32.585908590859,1870644.1612022,439.83287582698,2553687.5764186,37.785908590859,0,0
86.696390300335,-23.130264392726,32.590339033903,1870644.1612022,439.83287582698,2553687.5764186,37.790339033903,0,0
86.696390481607,-23.132317519487,32.594769476948,1870644.1612022,439.83287582698,2553687.5764186,37.794769476948,0,0
86.696390662878,-23.134370646249,32.599199919992,1870644.1612022,439.83287582698,2553687.5764186,37.799199919992,0,0
86.696390844149,-23.13642377301,32.603630363036,1870644.1612022,439.83287582698,2553687.5764186,37.803630363036,0,0
86.696391025421,-23.138476899772,32.608060806081,1870644.1612022,439.83287582698,2553687.5764186,37.808060806081,0,0
86.696391206692,-23.140530026534,32.612491249125,1870644.1612022,439.83287582698,2553687.5764186,37.812491249125,0,0
86.696391387963,-23.142583153295,32.616921692169,1870644.1612022,439.83287582698,2553687.5764186,37.816921692169,0,0
86.696391569234,-23.144636280057,32.621352135214,1870644.1612022,439.83287582698,2553687.5764186,37.821352135214,0,0
86.696391750506,-23.146689406818,32.625782578258,1870644.1612022,439.83287582698,2553687.5764186,37.825782578258,0,0
86.696391931777,-23.14874253358,32.630213021302,1870644.1612022,439.83287582698,2553687.5764186,37.830213021302,0,0
86.696392113048,-23.150795660342,32.634643464346,1870644.1612022,439.83287582698,2553687.5764186,37.834643464346,0,0
86.69639229432,-23.152848787103,32.639073907391,1870644.1612022,439.83287582698,2553687.5764186,37.839073907391,0,0
86.696392475591,-23.154901913865,32.643504350435,1870644.1612022,439.83287582698,2553687.5764186,37.843504350435,0,0
86.696392656862,-23.156955040626,32.647934793479,1870644.1612022,439.83287582698,2553687.5764186,37.847934793479,0,0
86.696392838133,-23.159008167388,32.652365236524,1870644.1612022,439.83287582698,2553687.5764186,37.852365236524,0,0
86.696393019405,-23.161061294149,32.656795679568,1870644.1612022,439.83287582698,2553687.5764186,37.856795679568,0,0
86.696393200676,-23.163114420911,32.661226122612,1870644.1612022,439.83287582698,2553687.5764186,37.861226122612,0,0
86.696393381947,-23.165167547673,32.665656565657,1870644.1612022,439.83287582698,2553687.5764186,37.865656565657,0,0
86.696393563219,-23.167220674434,32.670087008701,1870644.1612022,439.83287582698,2553687.5764186,37.870087008701,0,0
86.69639374449,-23.169273801196,32.674517451745,1870644.1612022,439.83287582698,2553687.5764186,37.874517451745,0,0
86.696393925761,-23.171326927957,32.678947894789,1870644.1612022,439.83287582698,2553687.5764186,37.878947894789,0,0
86.696394107032,-23.173380054719,32.683378337834,1870644.1612022,439.83287582698,2553687.5764186,37.883378337834,0,0
86.696394288304,-23.175433181481,32.687808780878,1870644.1612022,439.83287582698,2553687.5764186,37.887808780878,0,0
86.696394469575,-23.177486308242,32.692239223922,1870644.1612022,439.83287582698,2553687.5764186,37.892239223922,0,0
86.696394650846,-23.179539435004,32.696669666967,1870644.1612022,439.83287582698,2553687.5764186,37.896669666967,0,0
86.696394832118,-23.181592561765,32.701100110011,1870644.1612022,439.83287582698,2553687.5764186,37.901100110011,0,0
86.696395013389,-23.183645688527,32.705530553055,1870644.1612022,439.83287582698,2553687.5764186,37.905530553055,0,0
86.69639519466,-23.185698815288,32.7099609961,1870644.1612022,439.83287582698,2553687.5764186,37.9099609961,0,0
86.696395375931,-23.18775194205,32.714391439144,1870644.1612022,439.83287582698,2553687.5764186,37.914391439144,0,0
86.696395557203,-23.189805068812,32.718821882188,1870644.1612022,439.83287582698,2553687.5764186,37.918821882188,0,0
86.696395738474,-23.191858195573,32.723252325233,1870644.1612022,439.83287582698,2553687.5764186,37.923252325233,0,0
86.696395919745,-23.193911322335,32.727682768277,1870644.1612022,439.83287582698,2553687.5764186,37.927682768277,0,0
86.696396101016,-23.195964449096,32.732113211321,1870644.1612022,439.83287582698,2553687.5764186,37.932113211321,0,0
86.696396282288,-23.198017575858,32.736543654365,1870644.1612022,439.83287582698,2553687.5764186,37.936543654365,0,0
86.696396463559,-23.20007070262,32.74097409741,1870644.1612022,439.83287582698,2553687.5764186,37.94097409741,0,0
86.69639664483,-23.202123829381,32.745404540454,1870644.1612022,439.83287582698,2553687.5764186,37.945404540454,0,0
86.696396826102,-23.204176956143,32.749834983498,1870644.1612022,439.83287582698,2553687.5764186,37.949834983498,0,0
86.696397007373,-23.206230082904,32.754265426543,1870644.1612022,439.83287582698,2553687.5764186,37.954265426543,0,0
86.696397188644,-23.208283209666,32.758695869587,1870644.1612022,439.83287582698,2553687.5764186,37.958695869587,0,0
86.696397369915,-23.210336336428,32.763126312631,1870644.1612022,439.83287582698,2553687.5764186,37.963126312631,0,0
86.696397551187,-23.212389463189,32.767556755676,1870644.1612022,439.83287582698,2553687.5764186,37.967556755676,0,0
86.696397732458,-23.214442589951,32.77198719872,1870644.1612022,439.83287582698,2553687.5764186,37.97198719872,0,0
86.696397913729,-23.216495716712,32.776417641764,1870644.1612022,439.83287582698,2553687.5764186,37.976417641764,0,0
86.696398095001,-23.218548843474,32.780848084808,1870644.1612022,439.83287582698,2553687.5764186,37.980848084808,0,0
86.696398276272,-23.220601970235,32.785278527853,1870644.1612022,439.83287582698,2553687.5764186,37.985278527853,0,0
86.696398457543,-23.222655096997,32.789708970897,1870644.1612022,439.83287582698,2553687.5764186,37.989708970897,0,0
86.696398638814,-23.224708223759,32.794139413941,1870644.1612022,439.83287582698,2553687.5764186,37.994139413941,0,0
86.696398820086,-23.22676135052,32.798569856986,1870644.1612022,439.83287582698,2553687.5764186,37.998569856986,0,0
86.696399001357,-23.228814477282,32.80300030003,1870644.1612022,439.83287582698,2553687.5764186,38.00300030003,0,0
86.696399182628,-23.230867604043,32.807430743074,1870644.1612022,439.83287582698,2553687.5764186,38.007430743074,0,0
86.6963993639,-23.232920730805,32.811861186119,1870644.1612022,439.83287582698,2553687.5764186,38.011861186119,0,0
86.696399545171,-23.234973857567,32.816291629163,1870644.1612022,439.83287582698,2553687.5764186,38.016291629163,0,0
86.696399726442,-23.237026984328,32.820722072207,1870644.1612022,439.83287582698,2553687.5764186,38.020722072207,0,0
86.696399907713,-23.23908011109,32.825152515252,1870644.1612022,439.83287582698,2553687.5764186,38.025152515252,0,0
86.696400088985,-23.241133237851,32.829582958296,1870644.1612022,439.83287582698,2553687.5764186,38.029582958296,0,0
86.696400270256,-23.243186364613,32.83401340134,1870644.1612022,439.83287582698,2553687.5764186,38.03401340134,0,0
86.696400451527,-23.245239491374,32.838443844384,1870644.1612022,439.83287582698,2553687.5764186,38.038443844384,0,0
86.696400632799,-23.247292618136,32.842874287429,1870644.1612022,439.83287582698,2553687.5764186,38.042874287429,0,0
86.69640081407,-23.249345744898,32.847304730473,1870644.1612022,439.83287582698,2553687.5764186,38.047304730473,0,0
86.696400995341,-23.251398871659,32.851735173517,1870644.1612022,439.83287582698,2553687.5764186,38.051735173517,0,0
86.696401176612,-23.253451998421,32.856165616562,1870644.1612022,439.83287582698,2553687.5764186,38.056165616562,0,0
86.696401357884,-23.255505125182,32.860596059606,1870644.1612022,439.83287582698,2553687.5764186,38.060596059606,0,0
86.696401539155,-23.257558251944,32.86502650265,1870644.1612022,439.83287582698,2553687.5764186,38.06502650265,0,0
86.696401720426,-23.259611378706,32.869456945695,1870644.1612022,439.83287582698,2553687.5764186,38.069456945695,0,0
86.696401901697,-23.261664505467,32.873887388739,1870644.1612022,439.83287582698,2553687.5764186,38.073887388739,0,0
86.696402082969,-23.263717632229,32.878317831783,1870644.1612022,439.83287582698,2553687.5764186,38.078317831783,0,0
86.69640226424,-23.26577075899,32.882748274827,1870644.1612022,439.83287582698,2553687.5764186,38.082748274827,0,0
86.696402445511,-23.267823885752,32.887178717872,1870644.1612022,439.83287582698,2553687.5764186,38.087178717872,0,0
86.696402626783,-23.269877012513,32.891609160916,1870644.1612022,439.83287582698,2553687.5764186,38.091609160916,0,0
86.696402808054,-23.271930139275,32.89603960396,1870644.1612022,439.83287582698,2553687.5764186,38.09603960396,0,0
86.696402989325,-23.273983266037,32.900470047005,1870644.1612022,439.83287582698,2553687.5764186,38.100470047005,0,0
86.696403170596,-23.276036392798,32.904900490049,1870644.1612022,439.83287582698,2553687.5764186,38.104900490049,0,0
86.696403351868,-23.27808951956,32.909330933093,1870644.1612022,439.83287582698,2553687.5764186,38.109330933093,0,0
86.696403533139,-23.280142646321,32.913761376138,1870644.1612022,439.83287582698,2553687.5764186,38.113761376138,0,0
86.69640371441,-23.282195773083,32.918191819182,1870644.1612022,439.83287582698,2553687.5764186,38.118191819182,0,0
86.696403895682,-23.284248899845,32.922622262226,1870644.1612022,439.83287582698,2553687.5764186,38.122622262226,0,0
86.696404076953,-23.286302026606,32.927052705271,1870644.1612022,439.83287582698,2553687.5764186,38.127052705271,0,0
86.696404258224,-23.288355153368,32.931483148315,1870644.1612022,439.83287582698,2553687.5764186,38.131483148315,0,0
86.696404439495,-23.290408280129,32.935913591359,1870644.1612022,439.83287582698,2553687.5764186,38.135913591359,0,0
86.696404620767,-23.292461406891,32.940344034403,1870644.1612022,439.83287582698,2553687.5764186,38.140344034403,0,0
86.696404802038,-23.294514533653,32.944774477448,1870644.1612022,439.83287582698,2553687.5764186,38.144774477448,0,0
86.696404983309,-23.296567660414,32.949204920492,1870644.1612022,439.83287582698,2553687.5764186,38.149204920492,0,0
86.696405164581,-23.298620787176,32.953635363536,1870644.1612022,439.83287582698,2553687.5764186,38.153635363536,0,0
86.696405345852,-23.300673913937,32.958065806581,1870644.1612022,439.83287582698,2553687.5764186,38.158065806581,0,0
86.696405527123,-23.302727040699,32.962496249625,1870644.1612022,439.83287582698,2553687.5764186,38.162496249625,0,0
86.696405708394,-23.30478016746,32.966926692669,1870644.1612022,439.83287582698,2553687.5764186,38.166926692669,0,0
86.696405889666,-23.306833294222,32.971357135714,1870644.1612022,439.83287582698,2553687.5764186,38.171357135714,0,0
86.696406070937,-23.308886420984,32.975787578758,1870644.1612022,439.83287582698,2553687.5764186,38.175787578758,0,0
86.696406252208,-23.310939547745,32.980218021802,1870644.1612022,439.83287582698,2553687.5764186,38.180218021802,0,0
86.69640643348,-23.312992674507,32.984648464846,1870644.1612022,439.83287582698,2553687.5764186,38.184648464846,0,0
86.696406614751,-23.315045801268,32.989078907891,1870644.1612022,439.83287582698,2553687.5764186,38.189078907891,0,0
86.696406796022,-23.31709892803,32.993509350935,1870644.1612022,439.83287582698,2553687.5764186,38.193509350935,0,0
86.696406977293,-23.319152054792,32.997939793979,1870644.1612022,439.83287582698,2553687.5764186,38.197939793979,0,0
86.696407158565,-23.321205181553,33.002370237024,1870644.1612022,439.83287582698,2553687.5764186,38.202370237024,0,0
86.696407339836,-23.323258308315,33.006800680068,1870644.1612022,439.83287582698,2553687.5764186,38.206800680068,0,0
86.696407521107,-23.325311435076,33.011231123112,1870644.1612022,439.83287582698,2553687.5764186,38.211231123112,0,0
86.696407702379,-23.327364561838,33.015661566157,1870644.1612022,439.83287582698,2553687.5764186,38.215661566157,0,0
86.69640788365,-23.329417688599,33.020092009201,1870644.1612022,439.83287582698,2553687.5764186,38.220092009201,0,0
86.696408064921,-23.331470815361,33.024522452245,1870644.1612022,439.83287582698,2553687.5764186,38.224522452245,0,0
86.696408246192,-23.333523942123,33.02895289529,1870644.1612022,439.83287582698,2553687.5764186,38.22895289529,0,0
86.696408427464,-23.335577068884,33.033383338334,1870644.1612022,439.83287582698,2553687.5764186,38.233383338334,0,0
86.696408608735,-23.337630195646,33.037813781378,1870644.1612022,439.83287582698,2553687.5764186,38.237813781378,0,0
86.696408790006,-23.339683322407,33.042244224422,1870644.1612022,439.83287582698,2553687.5764186,38.242244224422,0,0
86.696408971278,-23.341736449169,33.046674667467,1870644.1612022,439.83287582698,2553687.5764186,38.246674667467,0,0
86.696409152549,-23.343789575931,33.051105110511,1870644.1612022,439.83287582698,2553687.5764186,38.251105110511,0,0
86.69640933382,-23.345842702692,33.055535553555,1870644.1612022,439.83287582698,2553687.5764186,38.255535553555,0,0
86.696409515091,-23.347895829454,33.0599659966,1870644.1612022,439.83287582698,2553687.5764186,38.2599659966,0,0
86.696409696363,-23.349948956215,33.064396439644,1870644.1612022,439.83287582698,2553687.5764186,38.264396439644,0,0
86.696409877634,-23.352002082977,33.068826882688,1870644.1612022,439.83287582698,2553687.5764186,38.268826882688,0,0
86.696410058905,-23.354055209738,33.073257325733,1870644.1612022,439.83287582698,2553687.5764186,38.273257325733,0,0
86.696410240176,-23.3561083365,33.077687768777,1870644.1612022,439.83287582698,2553687.5764186,38.277687768777,0,0
86.696410421448,-23.358161463262,33.082118211821,1870644.1612022,439.83287582698,2553687.5764186,38.282118211821,0,0
86.696410602719,-23.360214590023,33.086548654865,1870644.1612022,439.83287582698,2553687.5764186,38.286548654865,0,0
86.69641078399,-23.362267716785,33.09097909791,1870644.1612022,439.83287582698,2553687.5764186,38.29097909791,0,0
86.696410965262,-23.364320843546,33.095409540954,1870644.1612022,439.83287582698,2553687.5764186,38.295409540954,0,0
86.696411146533,-23.366373970308,33.099839983998,1870644.1612022,439.83287582698,2553687.5764186,38.299839983998,0,0
86.696411327804,-23.36842709707,33.104270427043,1870644.1612022,439.83287582698,2553687.5764186,38.304270427043,0,0
86.696411509075,-23.370480223831,33.108700870087,1870644.1612022,439.83287582698,2553687.5764186,38.308700870087,0,0
86.696411690347,-23.372533350593,33.113131313131,1870644.1612022,439.83287582698,2553687.5764186,38.313131313131,0,0
86.696411871618,-23.374586477354,33.117561756176,1870644.1612022,439.83287582698,2553687.5764186,38.317561756176,0,0
86.696412052889,-23.376639604116,33.12199219922,1870644.1612022,439.83287582698,2553687.5764186,38.32199219922,0,0
86.696412234161,-23.378692730877,33.126422642264,1870644.1612022,439.83287582698,2553687.5764186,38.326422642264,0,0
86.696412415432,-23.380745857639,33.130853085309,1870644.1612022,439.83287582698,2553687.5764186,38.330853085309,0,0
86.696412596703,-23.382798984401,33.135283528353,1870644.1612022,439.83287582698,2553687.5764186,38.335283528353,0,0
86.696412777974,-23.384852111162,33.139713971397,1870644.1612022,439.83287582698,2553687.5764186,38.339713971397,0,0
86.696412959246,-23.386905237924,33.144144414441,1870644.1612022,439.83287582698,2553687.5764186,38.344144414441,0,0
86.696413140517,-23.388958364685,33.148574857486,1870644.1612022,439.83287582698,2553687.5764186,38.348574857486,0,0
86.696413321788,-23.391011491447,33.15300530053,1870644.1612022,439.83287582698,2553687.5764186,38.35300530053,0,0
86.69641350306,-23.393064618209,33.157435743574,1870644.1612022,439.83287582698,2553687.5764186,38.357435743574,0,0
86.696413684331,-23.39511774497,33.161866186619,1870644.1612022,439.83287582698,2553687.5764186,38.361866186619,0,0
86.696413865602,-23.397170871732,33.166296629663,1870644.1612022,439.83287582698,2553687.5764186,38.366296629663,0,0
86.696414046873,-23.399223998493,33.170727072707,1870644.1612022,439.83287582698,2553687.5764186,38.370727072707,0,0
86.696414228145,-23.401277125255,33.175157515752,1870644.1612022,439.83287582698,2553687.5764186,38.375157515752,0,0
86.696414409416,-23.403330252017,33.179587958796,1870644.1612022,439.83287582698,2553687.5764186,38.379587958796,0,0
86.696414590687,-23.405383378778,33.18401840184,1870644.1612022,439.83287582698,2553687.5764186,38.38401840184,0,0
86.696414771959,-23.40743650554,33.188448844884,1870644.1612022,439.83287582698,2553687.5764186,38.388448844884,0,0
86.69641495323,-23.409489632301,33.192879287929,1870644.1612022,439.83287582698,2553687.5764186,38.392879287929,0,0
86.696415134501,-23.411542759063,33.197309730973,1870644.1612022,439.83287582698,2553687.5764186,38.397309730973,0,0
86.696415315772,-23.413595885824,33.201740174017,1870644.1612022,439.83287582698,2553687.5764186,38.401740174017,0,0
86.696415497044,-23.415649012586,33.206170617062,1870644.1612022,439.83287582698,2553687.5764186,38.406170617062,0,0
86.696415678315,-23.417702139348,33.210601060106,1870644.1612022,439.83287582698,2553687.5764186,38.410601060106,0,0
86.696415859586,-23.419755266109,33.21503150315,1870644.1612022,439.83287582698,2553687.5764186,38.41503150315,0,0
86.696416040857,-23.421808392871,33.219461946195,1870644.1612022,439.83287582698,2553687.5764186,38.419461946195,0,0
86.696416222129,-23.423861519632,33.223892389239,1870644.1612022,439.83287582698,2553687.5764186,38.423892389239,0,0
86.6964164034,-23.425914646394,33.228322832283,1870644.1612022,439.83287582698,2553687.5764186,38.428322832283,0,0
86.696416584671,-23.427967773156,33.232753275328,1870644.1612022,439.83287582698,2553687.5764186,38.432753275328,0,0
86.696416765943,-23.430020899917,33.237183718372,1870644.1612022,439.83287582698,2553687.5764186,38.437183718372,0,0
86.696416947214,-23.432074026679,33.241614161416,1870644.1612022,439.83287582698,2553687.5764186,38.441614161416,0,0
86.696417128485,-23.43412715344,33.24604460446,1870644.1612022,439.83287582698,2553687.5764186,38.44604460446,0,0
86.696417309756,-23.436180280202,33.250475047505,1870644.1612022,439.83287582698,2553687.5764186,38.450475047505,0,0
86.696417491028,-23.438233406963,33.254905490549,1870644.1612022,439.83287582698,2553687.5764186,38.454905490549,0,0
86.696417672299,-23.440286533725,33.259335933593,1870644.1612022,439.83287582698,2553687.5764186,38.459335933593,0,0
86.69641785357,-23.442339660487,33.263766376638,1870644.1612022,439.83287582698,2553687.5764186,38.463766376638,0,0
86.696418034842,-23.444392787248,33.268196819682,1870644.1612022,439.83287582698,2553687.5764186,38.468196819682,0,0
86.696418216113,-23.44644591401,33.272627262726,1870644.1612022,439.83287582698,2553687.5764186,38.472627262726,0,0
86.696418397384,-23.448499040771,33.277057705771,1870644.1612022,439.83287582698,2553687.5764186,38.477057705771,0,0
86.696418578655,-23.450552167533,33.281488148815,1870644.1612022,439.83287582698,2553687.5764186,38.481488148815,0,0
86.696418759927,-23.452605294295,33.285918591859,1870644.1612022,439.83287582698,2553687.5764186,38.485918591859,0,0
86.696418941198,-23.454658421056,33.290349034903,1870644.1612022,439.83287582698,2553687.5764186,38.490349034903,0,0
86.696419122469,-23.456711547818,33.294779477948,1870644.1612022,439.83287582698,2553687.5764186,38.494779477948,0,0
86.696419303741,-23.458764674579,33.299209920992,1870644.1612022,439.83287582698,2553687.5764186,38.499209920992,0,0
86.696419485012,-23.460817801341,33.303640364036,1870644.1612022,439.83287582698,2553687.5764186,38.503640364036,0,0
86.696419666283,-23.462870928102,33.308070807081,1870644.1612022,439.83287582698,2553687.5764186,38.508070807081,0,0
86.696419847554,-23.464924054864,33.312501250125,1870644.1612022,439.83287582698,2553687.5764186,38.512501250125,0,0
86.696420028826,-23.466977181626,33.316931693169,1870644.1612022,439.83287582698,2553687.5764186,38.516931693169,0,0
86.696420210097,-23.469030308387,33.321362136214,1870644.1612022,439.83287582698,2553687.5764186,38.521362136214,0,0
86.696420391368,-23.471083435149,33.325792579258,1870644.1612022,439.83287582698,2553687.5764186,38.525792579258,0,0
86.69642057264,-23.47313656191,33.330223022302,1870644.1612022,439.83287582698,2553687.5764186,38.530223022302,0,0
86.696420753911,-23.475189688672,33.334653465347,1870644.1612022,439.83287582698,2553687.5764186,38.534653465347,0,0
86.696420935182,-23.477242815434,33.339083908391,1870644.1612022,439.83287582698,2553687.5764186,38.539083908391,0,0
86.696421116453,-23.479295942195,33.343514351435,1870644.1612022,439.83287582698,2553687.5764186,38.543514351435,0,0
86.696421297725,-23.481349068957,33.347944794479,1870644.1612022,439.83287582698,2553687.5764186,38.547944794479,0,0
86.696421478996,-23.483402195718,33.352375237524,1870644.1612022,439.83287582698,2553687.5764186,38.552375237524,0,0
86.696421660267,-23.48545532248,33.356805680568,1870644.1612022,439.83287582698,2553687.5764186,38.556805680568,0,0
86.696421841539,-23.487508449241,33.361236123612,1870644.1612022,439.83287582698,2553687.5764186,38.561236123612,0,0
86.69642202281,-23.489561576003,33.365666566657,1870644.1612022,439.83287582698,2553687.5764186,38.565666566657,0,0
86.696422204081,-23.491614702765,33.370097009701,1870644.1612022,439.83287582698,2553687.5764186,38.570097009701,0,0
86.696422385352,-23.493667829526,33.374527452745,1870644.1612022,439.83287582698,2553687.5764186,38.574527452745,0,0
86.696422566624,-23.495720956288,33.37895789579,1870644.1612022,439.83287582698,2553687.5764186,38.57895789579,0,0
86.696422747895,-23.497774083049,33.383388338834,1870644.1612022,439.83287582698,2553687.5764186,38.583388338834,0,0
86.696422929166,-23.499827209811,33.387818781878,1870644.1612022,439.83287582698,2553687.5764186,38.587818781878,0,0
86.696423110437,-23.501880336573,33.392249224922,1870644.1612022,439.83287582698,2553687.5764186,38.592249224922,0,0
86.696423291709,-23.503933463334,33.396679667967,1870644.1612022,439.83287582698,2553687.5764186,38.596679667967,0,0
86.69642347298,-23.505986590096,33.401110111011,1870644.1612022,439.83287582698,2553687.5764186,38.601110111011,0,0
86.696423654251,-23.508039716857,33.405540554055,1870644.1612022,439.83287582698,2553687.5764186,38.605540554055,0,0
86.696423835523,-23.510092843619,33.4099709971,1870644.1612022,439.83287582698,2553687.5764186,38.6099709971,0,0
86.696424016794,-23.512145970381,33.414401440144,1870644.1612022,439.83287582698,2553687.5764186,38.614401440144,0,0
86.696424198065,-23.514199097142,33.418831883188,1870644.1612022,439.83287582698,2553687.5764186,38.618831883188,0,0
86.696424379336,-23.516252223904,33.423262326233,1870644.1612022,439.83287582698,2553687.5764186,38.623262326233,0,0
86.696424560608,-23.518305350665,33.427692769277,1870644.1612022,439.83287582698,2553687.5764186,38.627692769277,0,0
86.696424741879,-23.520358477427,33.432123212321,1870644.1612022,439.83287582698,2553687.5764186,38.632123212321,0,0
86.69642492315,-23.522411604188,33.436553655366,1870644.1612022,439.83287582698,2553687.5764186,38.636553655366,0,0
86.696425104422,-23.52446473095,33.44098409841,1870644.1612022,439.83287582698,2553687.5764186,38.64098409841,0,0
86.696425285693,-23.526517857712,33.445414541454,1870644.1612022,439.83287582698,2553687.5764186,38.645414541454,0,0
86.696425466964,-23.528570984473,33.449844984498,1870644.1612022,439.83287582698,2553687.5764186,38.649844984498,0,0
86.696425648235,-23.530624111235,33.454275427543,1870644.1612022,439.83287582698,2553687.5764186,38.654275427543,0,0
86.696425829507,-23.532677237996,33.458705870587,1870644.1612022,439.83287582698,2553687.5764186,38.658705870587,0,0
86.696426010778,-23.534730364758,33.463136313631,1870644.1612022,439.83287582698,2553687.5764186,38.663136313631,0,0
86.696426192049,-23.53678349152,33.467566756676,1870644.1612022,439.83287582698,2553687.5764186,38.667566756676,0,0
86.696426373321,-23.538836618281,33.47199719972,1870644.1612022,439.83287582698,2553687.5764186,38.67199719972,0,0
86.696426554592,-23.540889745043,33.476427642764,1870644.1612022,439.83287582698,2553687.5764186,38.676427642764,0,0
86.696426735863,-23.542942871804,33.480858085809,1870644.1612022,439.83287582698,2553687.5764186,38.680858085809,0,0
86.696426917134,-23.544995998566,33.485288528853,1870644.1612022,439.83287582698,2553687.5764186,38.685288528853,0,0
86.696427098406,-23.547049125327,33.489718971897,1870644.1612022,439.83287582698,2553687.5764186,38.689718971897,0,0
86.696427279677,-23.549102252089,33.494149414941,1870644.1612022,439.83287582698,2553687.5764186,38.694149414941,0,0
86.696427460948,-23.551155378851,33.498579857986,1870644.1612022,439.83287582698,2553687.5764186,38.698579857986,0,0
86.69642764222,-23.553208505612,33.50301030103,1870644.1612022,439.83287582698,2553687.5764186,38.70301030103,0,0
86.696427823491,-23.555261632374,33.507440744074,1870644.1612022,439.83287582698,2553687.5764186,38.707440744074,0,0
86.696428004762,-23.557314759135,33.511871187119,1870644.1612022,439.83287582698,2553687.5764186,38.711871187119,0,0
86.696428186033,-23.559367885897,33.516301630163,1870644.1612022,439.83287582698,2553687.5764186,38.716301630163,0,0
86.696428367305,-23.561421012659,33.520732073207,1870644.1612022,439.83287582698,2553687.5764186,38.720732073207,0,0
86.696428548576,-23.56347413942,33.525162516252,1870644.1612022,439.83287582698,2553687.5764186,38.725162516252,0,0
86.696428729847,-23.565527266182,33.529592959296,1870644.1612022,439.83287582698,2553687.5764186,38.729592959296,0,0
86.696428911119,-23.567580392943,33.53402340234,1870644.1612022,439.83287582698,2553687.5764186,38.73402340234,0,0
86.69642909239,-23.569633519705,33.538453845385,1870644.1612022,439.83287582698,2553687.5764186,38.738453845385,0,0
86.696429273661,-23.571686646466,33.542884288429,1870644.1612022,439.83287582698,2553687.5764186,38.742884288429,0,0
86.696429454932,-23.573739773228,33.547314731473,1870644.1612022,439.83287582698,2553687.5764186,38.747314731473,0,0
86.696429636204,-23.57579289999,33.551745174517,1870644.1612022,439.83287582698,2553687.5764186,38.751745174517,0,0
86.696429817475,-23.577846026751,33.556175617562,1870644.1612022,439.83287582698,2553687.5764186,38.756175617562,0,0
86.696429998746,-23.579899153513,33.560606060606,1870644.1612022,439.83287582698,2553687.5764186,38.760606060606,0,0
86.696430180017,-23.581952280274,33.56503650365,1870644.1612022,439.83287582698,2553687.5764186,38.76503650365,0,0
86.696430361289,-23.584005407036,33.569466946695,1870644.1612022,439.83287582698,2553687.5764186,38.769466946695,0,0
86.69643054256,-23.586058533798,33.573897389739,1870644.1612022,439.83287582698,2553687.5764186,38.773897389739,0,0
86.696430723831,-23.588111660559,33.578327832783,1870644.1612022,439.83287582698,2553687.5764186,38.778327832783,0,0
86.696430905103,-23.590164787321,33.582758275828,1870644.1612022,439.83287582698,2553687.5764186,38.782758275828,0,0
86.696431086374,-23.592217914082,33.587188718872,1870644.1612022,439.83287582698,2553687.5764186,38.787188718872,0,0
86.696431267645,-23.594271040844,33.591619161916,1870644.1612022,439.83287582698,2553687.5764186,38.791619161916,0,0
86.696431448916,-23.596324167605,33.59604960496,1870644.1612022,439.83287582698,2553687.5764186,38.79604960496,0,0
86.696431630188,-23.598377294367,33.600480048005,1870644.1612022,439.83287582698,2553687.5764186,38.800480048005,0,0
86.696431811459,-23.600430421129,33.604910491049,1870644.1612022,439.83287582698,2553687.5764186,38.804910491049,0,0
86.69643199273,-23.60248354789,33.609340934093,1870644.1612022,439.83287582698,2553687.5764186,38.809340934093,0,0
86.696432174002,-23.604536674652,33.613771377138,1870644.1612022,439.83287582698,2553687.5764186,38.813771377138,0,0
86.696432355273,-23.606589801413,33.618201820182,1870644.1612022,439.83287582698,2553687.5764186,38.818201820182,0,0
86.696432536544,-23.608642928175,33.622632263226,1870644.1612022,439.83287582698,2553687.5764186,38.822632263226,0,0
86.696432717815,-23.610696054937,33.627062706271,1870644.1612022,439.83287582698,2553687.5764186,38.827062706271,0,0
86.696432899087,-23.612749181698,33.631493149315,1870644.1612022,439.83287582698,2553687.5764186,38.831493149315,0,0
86.696433080358,-23.61480230846,33.635923592359,1870644.1612022,439.83287582698,2553687.5764186,38.835923592359,0,0
86.696433261629,-23.616855435221,33.640354035404,1870644.1612022,439.83287582698,2553687.5764186,38.840354035404,0,0
86.696433442901,-23.618908561983,33.644784478448,1870644.1612022,439.83287582698,2553687.5764186,38.844784478448,0,0
86.696433624172,-23.620961688745,33.649214921492,1870644.1612022,439.83287582698,2553687.5764186,38.849214921492,0,0
86.696433805443,-23.623014815506,33.653645364536,1870644.1612022,439.83287582698,2553687.5764186,38.853645364536,0,0
86.696433986714,-23.625067942268,33.658075807581,1870644.1612022,439.83287582698,2553687.5764186,38.858075807581,0,0
86.696434167986,-23.627121069029,33.662506250625,1870644.1612022,439.83287582698,2553687.5764186,38.862506250625,0,0
86.696434349257,-23.629174195791,33.666936693669,1870644.1612022,439.83287582698,2553687.5764186,38.866936693669,0,0
86.696434530548,-23.631227322611,33.671367136714,1871295.4111035,-1071.3877091107,2550531.0005056,38.871367136714,0,0
86.696434711955,-23.633280449783,33.675797579758,1871295.4111035,-1071.3877091107,2550531.0005056,38.875797579758,0,0
86.696434893362,-23.635333576956,33.680228022802,1871295.4111035,-1071.3877091107,2550531.0005056,38.880228022802,0,0
86.69643507477,-23.637386704129,33.684658465847,1871295.4111035,-1071.3877091107,2550531.0005056,38.884658465847,0,0
86.696435256177,-23.639439831301,33.689088908891,1871295.4111035,-1071.3877091107,2550531.0005056,38.889088908891,0,0
86.696435437584,-23.641492958474,33.693519351935,1871295.4111035,-1071.3877091107,2550531.0005056,38.893519351935,0,0
86.696435618992,-23.643546085647,33.697949794979,1871295.4111035,-1071.3877091107,2550531.0005056,38.897949794979,0,0
86.696435800399,-23.645599212819,33.702380238024,1871295.4111035,-1071.3877091107,2550531.0005056,38.902380238024,0,0
86.696435981806,-23.647652339992,33.706810681068,1871295.4111035,-1071.3877091107,2550531.0005056,38.906810681068,0,0
86.696436163214,-23.649705467165,33.711241124112,1871295.4111035,-1071.3877091107,2550531.0005056,38.911241124112,0,0
86.696436344621,-23.651758594337,33.715671567157,1871295.4111035,-1071.3877091107,2550531.0005056,38.915671567157,0,0
86.696436526028,-23.65381172151,33.720102010201,1871295.4111035,-1071.3877091107,2550531.0005056,38.920102010201,0,0
86.696436707436,-23.655864848683,33.724532453245,1871295.4111035,-1071.3877091107,2550531.0005056,38.924532453245,0,0
86.696436888843,-23.657917975855,33.72896289629,1871295.4111035,-1071.3877091107,2550531.0005056,38.92896289629,0,0
86.69643707025,-23.659971103028,33.733393339334,1871295.4111035,-1071.3877091107,2550531.0005056,38.933393339334,0,0
86.696437251658,-23.662024230201,33.737823782378,1871295.4111035,-1071.3877091107,2550531.0005056,38.937823782378,0,0
86.696437433065,-23.664077357373,33.742254225423,1871295.4111035,-1071.3877091107,2550531.0005056,38.942254225423,0,0
86.696437614472,-23.666130484546,33.746684668467,1871295.4111035,-1071.3877091107,2550531.0005056,38.946684668467,0,0
86.69643779588,-23.668183611719,33.751115111511,1871295.4111035,-1071.3877091107,2550531.0005056,38.951115111511,0,0
86.696437977287,-23.670236738891,33.755545554555,1871295.4111035,-1071.3877091107,2550531.0005056,38.955545554555,0,0
86.696438158694,-23.672289866064,33.7599759976,1871295.4111035,-1071.3877091107,2550531.0005056,38.9599759976,0,0
86.696438340102,-23.674342993237,33.764406440644,1871295.4111035,-1071.3877091107,2550531.0005056,38.964406440644,0,0
86.696438521509,-23.676396120409,33.768836883688,1871295.4111035,-1071.3877091107,2550531.0005056,38.968836883688,0,0
86.696438702916,-23.678449247582,33.773267326733,1871295.4111035,-1071.3877091107,2550531.0005056,38.973267326733,0,0
86.696438884324,-23.680502374755,33.777697769777,1871295.4111035,-1071.3877091107,2550531.0005056,38.977697769777,0,0
86.696439065731,-23.682555501927,33.782128212821,1871295.4111035,-1071.3877091107,2550531.0005056,38.982128212821,0,0
86.696439247138,-23.6846086291,33.786558655866,1871295.4111035,-1071.3877091107,2550531.0005056,38.986558655866,0,0
86.696439428546,-23.686661756273,33.79098909891,1871295.4111035,-1071.3877091107,2550531.0005056,38.99098909891,0,0
86.696439609953,-23.688714883445,33.795419541954,1871295.4111035,-1071.3877091107,2550531.0005056,38.995419541954,0,0
86.696439791361,-23.690768010618,33.799849984998,1871295.4111035,-1071.3877091107,2550531.0005056,38.999849984998,0,0
86.696439972768,-23.692821137791,33.804280428043,1871295.4111035,-1071.3877091107,2550531.0005056,39.004280428043,0,0
86.696440154175,-23.694874264963,33.808710871087,1871295.4111035,-1071.3877091107,2550531.0005056,39.008710871087,0,0
86.696440335583,-23.696927392136,33.813141314131,1871295.4111035,-1071.3877091107,2550531.0005056,39.013141314131,0,0
86.69644051699,-23.698980519309,33.817571757176,1871295.4111035,-1071.3877091107,2550531.0005056,39.017571757176,0,0
86.696440698397,-23.701033646481,33.82200220022,1871295.4111035,-1071.3877091107,2550531.0005056,39.02200220022,0,0
86.696440879805,-23.703086773654,33.826432643264,1871295.4111035,-1071.3877091107,2550531.0005056,39.026432643264,0,0
86.696441061212,-23.705139900827,33.830863086309,1871295.4111035,-1071.3877091107,2550531.0005056,39.030863086309,0,0
86.696441242619,-23.707193027999,33.835293529353,1871295.4111035,-1071.3877091107,2550531.0005056,39.035293529353,0,0
86.696441424027,-23.709246155172,33.839723972397,1871295.4111035,-1071.3877091107,2550531.0005056,39.039723972397,0,0
86.696441605434,-23.711299282345,33.844154415442,1871295.4111035,-1071.3877091107,2550531.0005056,39.044154415442,0,0
86.696441786841,-23.713352409518,33.848584858486,1871295.4111035,-1071.3877091107,2550531.0005056,39.048584858486,0,0
86.696441968249,-23.71540553669,33.85301530153,1871295.4111035,-1071.3877091107,2550531.0005056,39.05301530153,0,0
86.696442149656,-23.717458663863,33.857445744574,1871295.4111035,-1071.3877091107,2550531.0005056,39.057445744574,0,0
86.696442331063,-23.719511791036,33.861876187619,1871295.4111035,-1071.3877091107,2550531.0005056,39.061876187619,0,0
86.696442512471,-23.721564918208,33.866306630663,1871295.4111035,-1071.3877091107,2550531.0005056,39.066306630663,0,0
86.696442693878,-23.723618045381,33.870737073707,1871295.4111035,-1071.3877091107,2550531.0005056,39.070737073707,0,0
86.696442875285,-23.725671172554,33.875167516752,1871295.4111035,-1071.3877091107,2550531.0005056,39.075167516752,0,0
86.696443056693,-23.727724299726,33.879597959796,1871295.4111035,-1071.3877091107,2550531.0005056,39.079597959796,0,0
86.6964432381,-23.729777426899,33.88402840284,1871295.4111035,-1071.3877091107,2550531.0005056,39.08402840284,0,0
86.696443419507,-23.731830554072,33.888458845885,1871295.4111035,-1071.3877091107,2550531.0005056,39.088458845885,0,0
86.696443600915,-23.733883681244,33.892889288929,1871295.4111035,-1071.3877091107,2550531.0005056,39.092889288929,0,0
86.696443782322,-23.735936808417,33.897319731973,1871295.4111035,-1071.3877091107,2550531.0005056,39.097319731973,0,0
86.696443963729,-23.73798993559,33.901750175017,1871295.4111035,-1071.3877091107,2550531.0005056,39.101750175018,0,0
86.696444145137,-23.740043062762,33.906180618062,1871295.4111035,-1071.3877091107,2550531.0005056,39.106180618062,0,0
86.696444326544,-23.742096189935,33.910611061106,1871295.4111035,-1071.3877091107,2550531.0005056,39.110611061106,0,0
86.696444507952,-23.744149317108,33.91504150415,1871295.4111035,-1071.3877091107,2550531.0005056,39.11504150415,0,0
86.696444689359,-23.74620244428,33.919471947195,1871295.4111035,-1071.3877091107,2550531.0005056,39.119471947195,0,0
86.696444870766,-23.748255571453,33.923902390239,1871295.4111035,-1071.3877091107,2550531.0005056,39.123902390239,0,0
86.696445052174,-23.750308698626,33.928332833283,1871295.4111035,-1071.3877091107,2550531.0005056,39.128332833283,0,0
86.696445233581,-23.752361825798,33.932763276328,1871295.4111035,-1071.3877091107,2550531.0005056,39.132763276328,0,0
86.696445414988,-23.754414952971,33.937193719372,1871295.4111035,-1071.3877091107,2550531.0005056,39.137193719372,0,0
86.696445596396,-23.756468080144,33.941624162416,1871295.4111035,-1071.3877091107,2550531.0005056,39.141624162416,0,0
86.696445777803,-23.758521207316,33.946054605461,1871295.4111035,-1071.3877091107,2550531.0005056,39.146054605461,0,0
86.69644595921,-23.760574334489,33.950485048505,1871295.4111035,-1071.3877091107,2550531.0005056,39.150485048505,0,0
86.696446140618,-23.762627461662,33.954915491549,1871295.4111035,-1071.3877091107,2550531.0005056,39.154915491549,0,0
86.696446322025,-23.764680588834,33.959345934593,1871295.4111035,-1071.3877091107,2550531.0005056,39.159345934593,0,0
86.696446503432,-23.766733716007,33.963776377638,1871295.4111035,-1071.3877091107,2550531.0005056,39.163776377638,0,0
86.69644668484,-23.76878684318,33.968206820682,1871295.4111035,-1071.3877091107,2550531.0005056,39.168206820682,0,0
86.696446866247,-23.770839970352,33.972637263726,1871295.4111035,-1071.3877091107,2550531.0005056,39.172637263726,0,0
86.696447047654,-23.772893097525,33.977067706771,1871295.4111035,-1071.3877091107,2550531.0005056,39.177067706771,0,0
86.696447229062,-23.774946224698,33.981498149815,1871295.4111035,-1071.3877091107,2550531.0005056,39.181498149815,0,0
86.696447410469,-23.77699935187,33.985928592859,1871295.4111035,-1071.3877091107,2550531.0005056,39.185928592859,0,0
86.696447591876,-23.779052479043,33.990359035904,1871295.4111035,-1071.3877091107,2550531.0005056,39.190359035904,0,0
86.696447773284,-23.781105606216,33.994789478948,1871295.4111035,-1071.3877091107,2550531.0005056,39.194789478948,0,0
86.696447954691,-23.783158733388,33.999219921992,1871295.4111035,-1071.3877091107,2550531.0005056,39.199219921992,0,0
86.696448136098,-23.785211860561,34.003650365036,1871295.4111035,-1071.3877091107,2550531.0005056,39.203650365037,0,0
86.696448317506,-23.787264987734,34.008080808081,1871295.4111035,-1071.3877091107,2550531.0005056,39.208080808081,0,0
86.696448498913,-23.789318114906,34.012511251125,1871295.4111035,-1071.3877091107,2550531.0005056,39.212511251125,0,0
86.69644868032,-23.791371242079,34.016941694169,1871295.4111035,-1071.3877091107,2550531.0005056,39.216941694169,0,0
86.696448861728,-23.793424369252,34.021372137214,1871295.4111035,-1071.3877091107,2550531.0005056,39.221372137214,0,0
86.696449043135,-23.795477496424,34.025802580258,1871295.4111035,-1071.3877091107,2550531.0005056,39.225802580258,0,0
86.696449224543,-23.797530623597,34.030233023302,1871295.4111035,-1071.3877091107,2550531.0005056,39.230233023302,0,0
86.69644940595,-23.79958375077,34.034663466347,1871295.4111035,-1071.3877091107,2550531.0005056,39.234663466347,0,0
86.696449587357,-23.801636877942,34.039093909391,1871295.4111035,-1071.3877091107,2550531.0005056,39.239093909391,0,0
86.696449768765,-23.803690005115,34.043524352435,1871295.4111035,-1071.3877091107,2550531.0005056,39.243524352435,0,0
86.696449950172,-23.805743132288,34.04795479548,1871295.4111035,-1071.3877091107,2550531.0005056,39.24795479548,0,0
86.696450131579,-23.80779625946,34.052385238524,1871295.4111035,-1071.3877091107,2550531.0005056,39.252385238524,0,0
86.696450312987,-23.809849386633,34.056815681568,1871295.4111035,-1071.3877091107,2550531.0005056,39.256815681568,0,0
86.696450494394,-23.811902513806,34.061246124612,1871295.4111035,-1071.3877091107,2550531.0005056,39.261246124612,0,0
86.696450675801,-23.813955640978,34.065676567657,1871295.4111035,-1071.3877091107,2550531.0005056,39.265676567657,0,0
86.696450857209,-23.816008768151,34.070107010701,1871295.4111035,-1071.3877091107,2550531.0005056,39.270107010701,0,0
86.696451038616,-23.818061895324,34.074537453745,1871295.4111035,-1071.3877091107,2550531.0005056,39.274537453745,0,0
86.696451220023,-23.820115022496,34.07896789679,1871295.4111035,-1071.3877091107,2550531.0005056,39.27896789679,0,0
86.696451401431,-23.822168149669,34.083398339834,1871295.4111035,-1071.3877091107,2550531.0005056,39.283398339834,0,0
86.696451582838,-23.824221276842,34.087828782878,1871295.4111035,-1071.3877091107,2550531.0005056,39.287828782878,0,0
86.696451764245,-23.826274404014,34.092259225923,1871295.4111035,-1071.3877091107,2550531.0005056,39.292259225923,0,0
86.696451945653,-23.828327531187,34.096689668967,1871295.4111035,-1071.3877091107,2550531.0005056,39.296689668967,0,0
86.69645212706,-23.83038065836,34.101120112011,1871295.4111035,-1071.3877091107,2550531.0005056,39.301120112011,0,0
86.696452308467,-23.832433785532,34.105550555056,1871295.4111035,-1071.3877091107,2550531.0005056,39.305550555056,0,0
86.696452489875,-23.834486912705,34.1099809981,1871295.4111035,-1071.3877091107,2550531.0005056,39.3099809981,0,0
86.696452671282,-23.836540039878,34.114411441144,1871295.4111035,-1071.3877091107,2550531.0005056,39.314411441144,0,0
86.696452852689,-23.83859316705,34.118841884188,1871295.4111035,-1071.3877091107,2550531.0005056,39.318841884188,0,0
86.696453034097,-23.840646294223,34.123272327233,1871295.4111035,-1071.3877091107,2550531.0005056,39.323272327233,0,0
86.696453215504,-23.842699421396,34.127702770277,1871295.4111035,-1071.3877091107,2550531.0005056,39.327702770277,0,0
86.696453396911,-23.844752548568,34.132133213321,1871295.4111035,-1071.3877091107,2550531.0005056,39.332133213321,0,0
86.696453578319,-23.846805675741,34.136563656366,1871295.4111035,-1071.3877091107,2550531.0005056,39.336563656366,0,0
86.696453759726,-23.848858802914,34.14099409941,1871295.4111035,-1071.3877091107,2550531.0005056,39.34099409941,0,0
86.696453941133,-23.850911930086,34.145424542454,1871295.4111035,-1071.3877091107,2550531.0005056,39.345424542454,0,0
86.696454122541,-23.852965057259,34.149854985499,1871295.4111035,-1071.3877091107,2550531.0005056,39.349854985499,0,0
86.696454303948,-23.855018184432,34.154285428543,1871295.4111035,-1071.3877091107,2550531.0005056,39.354285428543,0,0
86.696454485356,-23.857071311604,34.158715871587,1871295.4111035,-1071.3877091107,2550531.0005056,39.358715871587,0,0
86.696454666763,-23.859124438777,34.163146314631,1871295.4111035,-1071.3877091107,2550531.0005056,39.363146314631,0,0
86.69645484817,-23.86117756595,34.167576757676,1871295.4111035,-1071.3877091107,2550531.0005056,39.367576757676,0,0
86.696455029578,-23.863230693122,34.17200720072,1871295.4111035,-1071.3877091107,2550531.0005056,39.37200720072,0,0
86.696455210985,-23.865283820295,34.176437643764,1871295.4111035,-1071.3877091107,2550531.0005056,39.376437643764,0,0
86.696455392392,-23.867336947468,34.180868086809,1871295.4111035,-1071.3877091107,2550531.0005056,39.380868086809,0,0
86.6964555738,-23.86939007464,34.185298529853,1871295.4111035,-1071.3877091107,2550531.0005056,39.385298529853,0,0
86.696455755207,-23.871443201813,34.189728972897,1871295.4111035,-1071.3877091107,2550531.0005056,39.389728972897,0,0
86.696455936614,-23.873496328986,34.194159415942,1871295.4111035,-1071.3877091107,2550531.0005056,39.394159415942,0,0
86.696456118022,-23.875549456158,34.198589858986,1871295.4111035,-1071.3877091107,2550531.0005056,39.398589858986,0,0
86.696456299429,-23.877602583331,34.20302030203,1871295.4111035,-1071.3877091107,2550531.0005056,39.40302030203,0,0
86.696456480836,-23.879655710504,34.207450745075,1871295.4111035,-1071.3877091107,2550531.0005056,39.407450745075,0,0
86.696456662244,-23.881708837676,34.211881188119,1871295.4111035,-1071.3877091107,2550531.0005056,39.411881188119,0,0
86.696456843651,-23.883761964849,34.216311631163,1871295.4111035,-1071.3877091107,2550531.0005056,39.416311631163,0,0
86.696457025058,-23.885815092022,34.220742074207,1871295.4111035,-1071.3877091107,2550531.0005056,39.420742074207,0,0
86.696457206466,-23.887868219194,34.225172517252,1871295.4111035,-1071.3877091107,2550531.0005056,39.425172517252,0,0
86.696457387873,-23.889921346367,34.229602960296,1871295.4111035,-1071.3877091107,2550531.0005056,39.429602960296,0,0
86.69645756928,-23.89197447354,34.23403340334,1871295.4111035,-1071.3877091107,2550531.0005056,39.43403340334,0,0
86.696457750688,-23.894027600712,34.238463846385,1871295.4111035,-1071.3877091107,2550531.0005056,39.438463846385,0,0
86.696457932095,-23.896080727885,34.242894289429,1871295.4111035,-1071.3877091107,2550531.0005056,39.442894289429,0,0
86.696458113502,-23.898133855058,34.247324732473,1871295.4111035,-1071.3877091107,2550531.0005056,39.447324732473,0,0
86.69645829491,-23.900186982231,34.251755175518,1871295.4111035,-1071.3877091107,2550531.0005056,39.451755175518,0,0
86.696458476358,-23.902240109298,34.256185618562,1872499.3094946,374.21035756317,2548583.7816956,39.456185618562,0,0
86.696458657913,-23.90429323609,34.260616061606,1872499.3094946,374.21035756317,2548583.7816956,39.460616061606,0,0
86.696458839469,-23.906346362882,34.26504650465,1872499.3094946,374.21035756317,2548583.7816956,39.46504650465,0,0
86.696459021024,-23.908399489674,34.269476947695,1872499.3094946,374.21035756317,2548583.7816956,39.469476947695,0,0
86.696459202579,-23.910452616465,34.273907390739,1872499.3094946,374.21035756317,2548583.7816956,39.473907390739,0,0
86.696459384135,-23.912505743257,34.278337833783,1872499.3094946,374.21035756317,2548583.7816956,39.478337833783,0,0
86.69645956569,-23.914558870049,34.282768276828,1872499.3094946,374.21035756317,2548583.7816956,39.482768276828,0,0
86.696459747245,-23.916611996841,34.287198719872,1872499.3094946,374.21035756317,2548583.7816956,39.487198719872,0,0
86.696459928801,-23.918665123633,34.291629162916,1872499.3094946,374.21035756317,2548583.7816956,39.491629162916,0,0
86.696460110356,-23.920718250425,34.296059605961,1872499.3094946,374.21035756317,2548583.7816956,39.496059605961,0,0
86.696460291912,-23.922771377216,34.300490049005,1872499.3094946,374.21035756317,2548583.7816956,39.500490049005,0,0
86.696460473467,-23.924824504008,34.304920492049,1872499.3094946,374.21035756317,2548583.7816956,39.504920492049,0,0
86.696460655022,-23.9268776308,34.309350935094,1872499.3094946,374.21035756317,2548583.7816956,39.509350935094,0,0
86.696460836578,-23.928930757592,34.313781378138,1872499.3094946,374.21035756317,2548583.7816956,39.513781378138,0,0
86.696461018133,-23.930983884384,34.318211821182,1872499.3094946,374.21035756317,2548583.7816956,39.518211821182,0,0
86.696461199688,-23.933037011176,34.322642264226,1872499.3094946,374.21035756317,2548583.7816956,39.522642264226,0,0
86.696461381244,-23.935090137968,34.327072707271,1872499.3094946,374.21035756317,2548583.7816956,39.527072707271,0,0
86.696461562799,-23.937143264759,34.331503150315,1872499.3094946,374.21035756317,2548583.7816956,39.531503150315,0,0
86.696461744354,-23.939196391551,34.335933593359,1872499.3094946,374.21035756317,2548583.7816956,39.535933593359,0,0
86.69646192591,-23.941249518343,34.340364036404,1872499.3094946,374.21035756317,2548583.7816956,39.540364036404,0,0
86.696462107465,-23.943302645135,34.344794479448,1872499.3094946,374.21035756317,2548583.7816956,39.544794479448,0,0
86.69646228902,-23.945355771927,34.349224922492,1872499.3094946,374.21035756317,2548583.7816956,39.549224922492,0,0
86.696462470576,-23.947408898719,34.353655365537,1872499.3094946,374.21035756317,2548583.7816956,39.553655365537,0,0
86.696462652131,-23.94946202551,34.358085808581,1872499.3094946,374.21035756317,2548583.7816956,39.558085808581,0,0
86.696462833686,-23.951515152302,34.362516251625,1872499.3094946,374.21035756317,2548583.7816956,39.562516251625,0,0
86.696463015242,-23.953568279094,34.366946694669,1872499.3094946,374.21035756317,2548583.7816956,39.566946694669,0,0
86.696463196797,-23.955621405886,34.371377137714,1872499.3094946,374.21035756317,2548583.7816956,39.571377137714,0,0
86.696463378353,-23.957674532678,34.375807580758,1872499.3094946,374.21035756317,2548583.7816956,39.575807580758,0,0
86.696463559908,-23.95972765947,34.380238023802,1872499.3094946,374.21035756317,2548583.7816956,39.580238023802,0,0
86.696463741463,-23.961780786262,34.384668466847,1872499.3094946,374.21035756317,2548583.7816956,39.584668466847,0,0
86.696463923019,-23.963833913053,34.389098909891,1872499.3094946,374.21035756317,2548583.7816956,39.589098909891,0,0
86.696464104574,-23.965887039845,34.393529352935,1872499.3094946,374.21035756317,2548583.7816956,39.593529352935,0,0
86.696464286129,-23.967940166637,34.39795979598,1872499.3094946,374.21035756317,2548583.7816956,39.59795979598,0,0
86.696464467685,-23.969993293429,34.402390239024,1872499.3094946,374.21035756317,2548583.7816956,39.602390239024,0,0
86.69646464924,-23.972046420221,34.406820682068,1872499.3094946,374.21035756317,2548583.7816956,39.606820682068,0,0
86.696464830795,-23.974099547013,34.411251125113,1872499.3094946,374.21035756317,2548583.7816956,39.611251125113,0,0
86.696465012351,-23.976152673805,34.415681568157,1872499.3094946,374.21035756317,2548583.7816956,39.615681568157,0,0
86.696465193906,-23.978205800596,34.420112011201,1872499.3094946,374.21035756317,2548583.7816956,39.620112011201,0,0
86.696465375461,-23.980258927388,34.424542454245,1872499.3094946,374.21035756317,2548583.7816956,39.624542454245,0,0
86.696465557017,-23.98231205418,34.42897289729,1872499.3094946,374.21035756317,2548583.7816956,39.62897289729,0,0
86.696465738572,-23.984365180972,34.433403340334,1872499.3094946,374.21035756317,2548583.7816956,39.633403340334,0,0
86.696465920127,-23.986418307764,34.437833783378,1872499.3094946,374.21035756317,2548583.7816956,39.637833783378,0,0
86.696466101683,-23.988471434556,34.442264226423,1872499.3094946,374.21035756317,2548583.7816956,39.642264226423,0,0
86.696466283238,-23.990524561347,34.446694669467,1872499.3094946,374.21035756317,2548583.7816956,39.646694669467,0,0
86.696466464794,-23.992577688139,34.451125112511,1872499.3094946,374.21035756317,2548583.7816956,39.651125112511,0,0
86.696466646349,-23.994630814931,34.455555555556,1872499.3094946,374.21035756317,2548583.7816956,39.655555555556,0,0
86.696466827904,-23.996683941723,34.4599859986,1872499.3094946,374.21035756317,2548583.7816956,39.6599859986,0,0
86.69646700946,-23.998737068515,34.464416441644,1872499.3094946,374.21035756317,2548583.7816956,39.664416441644,0,0
86.696467191015,-24.000790195307,34.468846884688,1872499.3094946,374.21035756317,2548583.7816956,39.668846884688,0,0
86.69646737257,-24.002843322099,34.473277327733,1872499.3094946,374.21035756317,2548583.7816956,39.673277327733,0,0
86.696467554126,-24.00489644889,34.477707770777,1872499.3094946,374.21035756317,2548583.7816956,39.677707770777,0,0
86.696467735681,-24.006949575682,34.482138213821,1872499.3094946,374.21035756317,2548583.7816956,39.682138213821,0,0
86.696467917236,-24.009002702474,34.486568656866,1872499.3094946,374.21035756317,2548583.7816956,39.686568656866,0,0
86.696468098792,-24.011055829266,34.49099909991,1872499.3094946,374.21035756317,2548583.7816956,39.69099909991,0,0
86.696468280347,-24.013108956058,34.495429542954,1872499.3094946,374.21035756317,2548583.7816956,39.695429542954,0,0
86.696468461902,-24.01516208285,34.499859985999,1872499.3094946,374.21035756317,2548583.7816956,39.699859985999,0,0
86.696468643458,-24.017215209641,34.504290429043,1872499.3094946,374.21035756317,2548583.7816956,39.704290429043,0,0
86.696468825013,-24.019268336433,34.508720872087,1872499.3094946,374.21035756317,2548583.7816956,39.708720872087,0,0
86.696469006568,-24.021321463225,34.513151315132,1872499.3094946,374.21035756317,2548583.7816956,39.713151315132,0,0
86.696469188124,-24.023374590017,34.517581758176,1872499.3094946,374.21035756317,2548583.7816956,39.717581758176,0,0
86.696469369679,-24.025427716809,34.52201220122,1872499.3094946,374.21035756317,2548583.7816956,39.72201220122,0,0
86.696469551235,-24.027480843601,34.526442644264,1872499.3094946,374.21035756317,2548583.7816956,39.726442644264,0,0
86.69646973279,-24.029533970393,34.530873087309,1872499.3094946,374.21035756317,2548583.7816956,39.730873087309,0,0
86.696469914345,-24.031587097184,34.535303530353,1872499.3094946,374.21035756317,2548583.7816956,39.735303530353,0,0
86.696470095901,-24.033640223976,34.539733973397,1872499.3094946,374.21035756317,2548583.7816956,39.739733973397,0,0
86.696470277456,-24.035693350768,34.544164416442,1872499.3094946,374.21035756317,2548583.7816956,39.744164416442,0,0
86.696470459011,-24.03774647756,34.548594859486,1872499.3094946,374.21035756317,2548583.7816956,39.748594859486,0,0
86.696470640567,-24.039799604352,34.55302530253,1872499.3094946,374.21035756317,2548583.7816956,39.75302530253,0,0
86.696470822122,-24.041852731144,34.557455745575,1872499.3094946,374.21035756317,2548583.7816956,39.757455745575,0,0
86.696471003677,-24.043905857935,34.561886188619,1872499.3094946,374.21035756317,2548583.7816956,39.761886188619,0,0
86.696471185233,-24.045958984727,34.566316631663,1872499.3094946,374.21035756317,2548583.7816956,39.766316631663,0,0
86.696471366788,-24.048012111519,34.570747074707,1872499.3094946,374.21035756317,2548583.7816956,39.770747074707,0,0
86.696471548343,-24.050065238311,34.575177517752,1872499.3094946,374.21035756317,2548583.7816956,39.775177517752,0,0
86.696471729899,-24.052118365103,34.579607960796,1872499.3094946,374.21035756317,2548583.7816956,39.779607960796,0,0
86.696471911454,-24.054171491895,34.58403840384,1872499.3094946,374.21035756317,2548583.7816956,39.78403840384,0,0
86.696472093009,-24.056224618687,34.588468846885,1872499.3094946,374.21035756317,2548583.7816956,39.788468846885,0,0
86.696472274565,-24.058277745478,34.592899289929,1872499.3094946,374.21035756317,2548583.7816956,39.792899289929,0,0
86.69647245612,-24.06033087227,34.597329732973,1872499.3094946,374.21035756317,2548583.7816956,39.797329732973,0,0
86.696472637676,-24.062383999062,34.601760176018,1872499.3094946,374.21035756317,2548583.7816956,39.801760176018,0,0
86.696472819231,-24.064437125854,34.606190619062,1872499.3094946,374.21035756317,2548583.7816956,39.806190619062,0,0
86.696473000786,-24.066490252646,34.610621062106,1872499.3094946,374.21035756317,2548583.7816956,39.810621062106,0,0
86.696473182342,-24.068543379438,34.615051505151,1872499.3094946,374.21035756317,2548583.7816956,39.815051505151,0,0
86.696473363897,-24.070596506229,34.619481948195,1872499.3094946,374.21035756317,2548583.7816956,39.819481948195,0,0
86.696473545452,-24.072649633021,34.623912391239,1872499.3094946,374.21035756317,2548583.7816956,39.823912391239,0,0
86.696473727008,-24.074702759813,34.628342834283,1872499.3094946,374.21035756317,2548583.7816956,39.828342834283,0,0
86.696473908563,-24.076755886605,34.632773277328,1872499.3094946,374.21035756317,2548583.7816956,39.832773277328,0,0
86.696474090118,-24.078809013397,34.637203720372,1872499.3094946,374.21035756317,2548583.7816956,39.837203720372,0,0
86.696474271674,-24.080862140189,34.641634163416,1872499.3094946,374.21035756317,2548583.7816956,39.841634163416,0,0
86.696474453229,-24.082915266981,34.646064606461,1872499.3094946,374.21035756317,2548583.7816956,39.846064606461,0,0
86.696474634784,-24.084968393772,34.650495049505,1872499.3094946,374.21035756317,2548583.7816956,39.850495049505,0,0
86.69647481634,-24.087021520564,34.654925492549,1872499.3094946,374.21035756317,2548583.7816956,39.854925492549,0,0
86.696474997895,-24.089074647356,34.659355935594,1872499.3094946,374.21035756317,2548583.7816956,39.859355935594,0,0
86.69647517945,-24.091127774148,34.663786378638,1872499.3094946,374.21035756317,2548583.7816956,39.863786378638,0,0
86.696475361006,-24.09318090094,34.668216821682,1872499.3094946,374.21035756317,2548583.7816956,39.868216821682,0,0
86.696475542561,-24.095234027732,34.672647264726,1872499.3094946,374.21035756317,2548583.7816956,39.872647264726,0,0
86.696475724117,-24.097287154524,34.677077707771,1872499.3094946,374.21035756317,2548583.7816956,39.877077707771,0,0
86.696475905672,-24.099340281315,34.681508150815,1872499.3094946,374.21035756317,2548583.7816956,39.881508150815,0,0
86.696476087227,-24.101393408107,34.685938593859,1872499.3094946,374.21035756317,2548583.7816956,39.885938593859,0,0
86.696476268783,-24.103446534899,34.690369036904,1872499.3094946,374.21035756317,2548583.7816956,39.890369036904,0,0
86.696476450338,-24.105499661691,34.694799479948,1872499.3094946,374.21035756317,2548583.7816956,39.894799479948,0,0
86.696476631893,-24.107552788483,34.699229922992,1872499.3094946,374.21035756317,2548583.7816956,39.899229922992,0,0
86.696476813449,-24.109605915275,34.703660366037,1872499.3094946,374.21035756317,2548583.7816956,39.903660366037,0,0
86.696476995004,-24.111659042066,34.708090809081,1872499.3094946,374.21035756317,2548583.7816956,39.908090809081,0,0
86.696477176559,-24.113712168858,34.712521252125,1872499.3094946,374.21035756317,2548583.7816956,39.912521252125,0,0
86.696477358115,-24.11576529565,34.71695169517,1872499.3094946,374.21035756317,2548583.7816956,39.91695169517,0,0
86.69647753967,-24.117818422442,34.721382138214,1872499.3094946,374.21035756317,2548583.7816956,39.921382138214,0,0
86.696477721225,-24.119871549234,34.725812581258,1872499.3094946,374.21035756317,2548583.7816956,39.925812581258,0,0
86.696477902781,-24.121924676026,34.730243024302,1872499.3094946,374.21035756317,2548583.7816956,39.930243024302,0,0
86.696478084336,-24.123977802818,34.734673467347,1872499.3094946,374.21035756317,2548583.7816956,39.934673467347,0,0
86.696478265891,-24.126030929609,34.739103910391,1872499.3094946,374.21035756317,2548583.7816956,39.939103910391,0,0
86.696478447447,-24.128084056401,34.743534353435,1872499.3094946,374.21035756317,2548583.7816956,39.943534353435,0,0
86.696478629002,-24.130137183193,34.74796479648,1872499.3094946,374.21035756317,2548583.7816956,39.94796479648,0,0
86.696478810558,-24.132190309985,34.752395239524,1872499.3094946,374.21035756317,2548583.7816956,39.952395239524,0,0
86.696478992113,-24.134243436777,34.756825682568,1872499.3094946,374.21035756317,2548583.7816956,39.956825682568,0,0
86.696479173668,-24.136296563569,34.761256125613,1872499.3094946,374.21035756317,2548583.7816956,39.961256125613,0,0
86.696479355224,-24.13834969036,34.765686568657,1872499.3094946,374.21035756317,2548583.7816956,39.965686568657,0,0
86.696479536779,-24.140402817152,34.770117011701,1872499.3094946,374.21035756317,2548583.7816956,39.970117011701,0,0
86.696479718334,-24.142455943944,34.774547454745,1872499.3094946,374.21035756317,2548583.7816956,39.974547454745,0,0
86.69647989989,-24.144509070736,34.77897789779,1872499.3094946,374.21035756317,2548583.7816956,39.97897789779,0,0
86.696480081445,-24.146562197528,34.783408340834,1872499.3094946,374.21035756317,2548583.7816956,39.983408340834,0,0
86.696480263,-24.14861532432,34.787838783878,1872499.3094946,374.21035756317,2548583.7816956,39.987838783878,0,0
86.696480444556,-24.150668451112,34.792269226923,1872499.3094946,374.21035756317,2548583.7816956,39.992269226923,0,0
86.696480626111,-24.152721577903,34.796699669967,1872499.3094946,374.21035756317,2548583.7816956,39.996699669967,0,0
86.696480807666,-24.154774704695,34.801130113011,1872499.3094946,374.21035756317,2548583.7816956,40.001130113011,0,0
86.696480989222,-24.156827831487,34.805560556056,1872499.3094946,374.21035756317,2548583.7816956,40.005560556056,0,0
86.696481170777,-24.158880958279,34.8099909991,1872499.3094946,374.21035756317,2548583.7816956,40.0099909991,0,0
86.696481352332,-24.160934085071,34.814421442144,1872499.3094946,374.21035756317,2548583.7816956,40.014421442144,0,0
86.696481533888,-24.162987211863,34.818851885189,1872499.3094946,374.21035756317,2548583.7816956,40.018851885189,0,0
86.696481715443,-24.165040338654,34.823282328233,1872499.3094946,374.21035756317,2548583.7816956,40.023282328233,0,0
86.696481896999,-24.167093465446,34.827712771277,1872499.3094946,374.21035756317,2548583.7816956,40.027712771277,0,0
86.696482078554,-24.169146592238,34.832143214321,1872499.3094946,374.21035756317,2548583.7816956,40.032143214321,0,0
86.696482260109,-24.17119971903,34.836573657366,1872499.3094946,374.21035756317,2548583.7816956,40.036573657366,0,0
86.696482441665,-24.173252845822,34.84100410041,1872499.3094946,374.21035756317,2548583.7816956,40.04100410041,0,0
86.69648262322,-24.175305972614,34.845434543454,1872499.3094946,374.21035756317,2548583.7816956,40.045434543454,0,0
86.696482804775,-24.177359099406,34.849864986499,1872499.3094946,374.21035756317,2548583.7816956,40.049864986499,0,0
86.696482986331,-24.179412226197,34.854295429543,1872499.3094946,374.21035756317,2548583.7816956,40.054295429543,0,0
86.696483167886,-24.181465352989,34.858725872587,1872499.3094946,374.21035756317,2548583.7816956,40.058725872587,0,0
86.696483349441,-24.183518479781,34.863156315632,1872499.3094946,374.21035756317,2548583.7816956,40.063156315632,0,0
86.696483530997,-24.185571606573,34.867586758676,1872499.3094946,374.21035756317,2548583.7816956,40.067586758676,0,0
86.696483712552,-24.187624733365,34.87201720172,1872499.3094946,374.21035756317,2548583.7816956,40.07201720172,0,0
86.696483894107,-24.189677860157,34.876447644764,1872499.3094946,374.21035756317,2548583.7816956,40.076447644764,0,0
86.696484075663,-24.191730986949,34.880878087809,1872499.3094946,374.21035756317,2548583.7816956,40.080878087809,0,0
86.696484257218,-24.19378411374,34.885308530853,1872499.3094946,374.21035756317,2548583.7816956,40.085308530853,0,0
86.696484438774,-24.195837240532,34.889738973897,1872499.3094946,374.21035756317,2548583.7816956,40.089738973897,0,0
86.696484620329,-24.197890367324,34.894169416942,1872499.3094946,374.21035756317,2548583.7816956,40.094169416942,0,0
86.696484801884,-24.199943494116,34.898599859986,1872499.3094946,374.21035756317,2548583.7816956,40.098599859986,0,0
86.69648498344,-24.201996620908,34.90303030303,1872499.3094946,374.21035756317,2548583.7816956,40.10303030303,0,0
86.696485164995,-24.2040497477,34.907460746075,1872499.3094946,374.21035756317,2548583.7816956,40.107460746075,0,0
86.69648534655,-24.206102874491,34.911891189119,1872499.3094946,374.21035756317,2548583.7816956,40.111891189119,0,0
86.696485528106,-24.208156001283,34.916321632163,1872499.3094946,374.21035756317,2548583.7816956,40.116321632163,0,0
86.696485709661,-24.210209128075,34.920752075208,1872499.3094946,374.21035756317,2548583.7816956,40.120752075208,0,0
86.696485891216,-24.212262254867,34.925182518252,1872499.3094946,374.21035756317,2548583.7816956,40.125182518252,0,0
86.696486072772,-24.214315381659,34.929612961296,1872499.3094946,374.21035756317,2548583.7816956,40.129612961296,0,0
86.696486254327,-24.216368508451,34.93404340434,1872499.3094946,374.21035756317,2548583.7816956,40.13404340434,0,0
86.696486435882,-24.218421635243,34.938473847385,1872499.3094946,374.21035756317,2548583.7816956,40.138473847385,0,0
86.696486617438,-24.220474762034,34.942904290429,1872499.3094946,374.21035756317,2548583.7816956,40.142904290429,0,0
86.696486798993,-24.222527888826,34.947334733473,1872499.3094946,374.21035756317,2548583.7816956,40.147334733473,0,0
86.696486980548,-24.224581015618,34.951765176518,1872499.3094946,374.21035756317,2548583.7816956,40.151765176518,0,0
86.696487162104,-24.22663414241,34.956195619562,1872499.3094946,374.21035756317,2548583.7816956,40.156195619562,0,0
86.696487343659,-24.228687269202,34.960626062606,1872499.3094946,374.21035756317,2548583.7816956,40.160626062606,0,0
86.696487525215,-24.230740395994,34.965056505651,1872499.3094946,374.21035756317,2548583.7816956,40.165056505651,0,0
86.69648770677,-24.232793522785,34.969486948695,1872499.3094946,374.21035756317,2548583.7816956,40.169486948695,0,0
86.696487888325,-24.234846649577,34.973917391739,1872499.3094946,374.21035756317,2548583.7816956,40.173917391739,0,0
86.696488069881,-24.236899776369,34.978347834783,1872499.3094946,374.21035756317,2548583.7816956,40.178347834783,0,0
86.696488251436,-24.238952903161,34.982778277828,1872499.3094946,374.21035756317,2548583.7816956,40.182778277828,0,0
86.696488432991,-24.241006029953,34.987208720872,1872499.3094946,374.21035756317,2548583.7816956,40.187208720872,0,0
86.696488614547,-24.243059156745,34.991639163916,1872499.3094946,374.21035756317,2548583.7816956,40.191639163916,0,0
86.696488796102,-24.245112283537,34.996069606961,1872499.3094946,374.21035756317,2548583.7816956,40.196069606961,0,0
86.696488977657,-24.247165410328,35.000500050005,1872499.3094946,374.21035756317,2548583.7816956,40.200500050005,0,0
86.696489159213,-24.24921853712,35.004930493049,1872499.3094946,374.21035756317,2548583.7816956,40.204930493049,0,0
86.696489340768,-24.251271663912,35.009360936094,1872499.3094946,374.21035756317,2548583.7816956,40.209360936094,0,0
86.696489522323,-24.253324790704,35.013791379138,1872499.3094946,374.21035756317,2548583.7816956,40.213791379138,0,0
86.696489703879,-24.255377917496,35.018221822182,1872499.3094946,374.21035756317,2548583.7816956,40.218221822182,0,0
86.696489885434,-24.257431044288,35.022652265227,1872499.3094946,374.21035756317,2548583.7816956,40.222652265227,0,0
86.696490066989,-24.259484171079,35.027082708271,1872499.3094946,374.21035756317,2548583.7816956,40.227082708271,0,0
86.696490248545,-24.261537297871,35.031513151315,1872499.3094946,374.21035756317,2548583.7816956,40.231513151315,0,0
86.6964904301,-24.263590424663,35.035943594359,1872499.3094946,374.21035756317,2548583.7816956,40.235943594359,0,0
86.696490611656,-24.265643551455,35.040374037404,1872499.3094946,374.21035756317,2548583.7816956,40.240374037404,0,0
86.696490793211,-24.267696678247,35.044804480448,1872499.3094946,374.21035756317,2548583.7816956,40.244804480448,0,0
86.696490974766,-24.269749805039,35.049234923492,1872499.3094946,374.21035756317,2548583.7816956,40.249234923492,0,0
86.696491156322,-24.271802931831,35.053665366537,1872499.3094946,374.21035756317,2548583.7816956,40.253665366537,0,0
86.696491337877,-24.273856058622,35.058095809581,1872499.3094946,374.21035756317,2548583.7816956,40.258095809581,0,0
86.696491519432,-24.275909185414,35.062526252625,1872499.3094946,374.21035756317,2548583.7816956,40.262526252625,0,0
86.696491700988,-24.277962312206,35.06695669567,1872499.3094946,374.21035756317,2548583.7816956,40.26695669567,0,0
86.696491882543,-24.280015438998,35.071387138714,1872499.3094946,374.21035756317,2548583.7816956,40.271387138714,0,0
86.696492064098,-24.28206856579,35.075817581758,1872499.3094946,374.21035756317,2548583.7816956,40.275817581758,0,0
86.696492245654,-24.284121692582,35.080248024802,1872499.3094946,374.21035756317,2548583.7816956,40.280248024802,0,0
86.696492427209,-24.286174819374,35.084678467847,1872499.3094946,374.21035756317,2548583.7816956,40.284678467847,0,0
86.696492608764,-24.288227946165,35.089108910891,1872499.3094946,374.21035756317,2548583.7816956,40.289108910891,0,0
86.69649279032,-24.290281072957,35.093539353935,1872499.3094946,374.21035756317,2548583.7816956,40.293539353935,0,0
86.696492971875,-24.292334199749,35.09796979698,1872499.3094946,374.21035756317,2548583.7816956,40.29796979698,0,0
86.69649315343,-24.294387326541,35.102400240024,1872499.3094946,374.21035756317,2548583.7816956,40.302400240024,0,0
86.696493334986,-24.296440453333,35.106830683068,1872499.3094946,374.21035756317,2548583.7816956,40.306830683068,0,0
86.696493516541,-24.298493580125,35.111261126113,1872499.3094946,374.21035756317,2548583.7816956,40.311261126113,0,0
86.696493698097,-24.300546706916,35.115691569157,1872499.3094946,374.21035756317,2548583.7816956,40.315691569157,0,0
86.696493879652,-24.302599833708,35.120122012201,1872499.3094946,374.21035756317,2548583.7816956,40.320122012201,0,0
86.696494061207,-24.3046529605,35.124552455246,1872499.3094946,374.21035756317,2548583.7816956,40.324552455246,0,0
86.696494242763,-24.306706087292,35.12898289829,1872499.3094946,374.21035756317,2548583.7816956,40.32898289829,0,0
86.696494424318,-24.308759214084,35.133413341334,1872499.3094946,374.21035756317,2548583.7816956,40.333413341334,0,0
86.696494605873,-24.310812340876,35.137843784378,1872499.3094946,374.21035756317,2548583.7816956,40.337843784378,0,0
86.696494787429,-24.312865467668,35.142274227423,1872499.3094946,374.21035756317,2548583.7816956,40.342274227423,0,0
86.696494968984,-24.314918594459,35.146704670467,1872499.3094946,374.21035756317,2548583.7816956,40.346704670467,0,0
86.696495150539,-24.316971721251,35.151135113511,1872499.3094946,374.21035756317,2548583.7816956,40.351135113511,0,0
86.696495332095,-24.319024848043,35.155565556556,1872499.3094946,374.21035756317,2548583.7816956,40.355565556556,0,0
86.69649551365,-24.321077974835,35.1599959996,1872499.3094946,374.21035756317,2548583.7816956,40.3599959996,0,0
86.696495695205,-24.323131101627,35.164426442644,1872499.3094946,374.21035756317,2548583.7816956,40.364426442644,0,0
86.696495876761,-24.325184228419,35.168856885689,1872499.3094946,374.21035756317,2548583.7816956,40.368856885689,0,0
86.696496058316,-24.32723735521,35.173287328733,1872499.3094946,374.21035756317,2548583.7816956,40.373287328733,0,0
86.696496239871,-24.329290482002,35.177717771777,1872499.3094946,374.21035756317,2548583.7816956,40.377717771777,0,0
86.696496421427,-24.331343608794,35.182148214821,1872499.3094946,374.21035756317,2548583.7816956,40.382148214821,0,0
86.696496602982,-24.333396735586,35.186578657866,1872499.3094946,374.21035756317,2548583.7816956,40.386578657866,0,0
86.696496784538,-24.335449862378,35.19100910091,1872499.3094946,374.21035756317,2548583.7816956,40.39100910091,0,0
86.696496966093,-24.33750298917,35.195439543954,1872499.3094946,374.21035756317,2548583.7816956,40.395439543954,0,0
86.696497147648,-24.339556115962,35.199869986999,1872499.3094946,374.21035756317,2548583.7816956,40.399869986999,0,0
86.696497329204,-24.341609242753,35.204300430043,1872499.3094946,374.21035756317,2548583.7816956,40.404300430043,0,0
86.696497510759,-24.343662369545,35.208730873087,1872499.3094946,374.21035756317,2548583.7816956,40.408730873087,0,0
86.696497692314,-24.345715496337,35.213161316132,1872499.3094946,374.21035756317,2548583.7816956,40.413161316132,0,0
86.69649787387,-24.347768623129,35.217591759176,1872499.3094946,374.21035756317,2548583.7816956,40.417591759176,0,0
86.696498055425,-24.349821749921,35.22202220222,1872499.3094946,374.21035756317,2548583.7816956,40.42202220222,0,0
86.69649823698,-24.351874876713,35.226452645265,1872499.3094946,374.21035756317,2548583.7816956,40.426452645265,0,0
86.696498418536,-24.353928003504,35.230883088309,1872499.3094946,374.21035756317,2548583.7816956,40.430883088309,0,0
86.696498600091,-24.355981130296,35.235313531353,1872499.3094946,374.21035756317,2548583.7816956,40.435313531353,0,0
86.696498781646,-24.358034257088,35.239743974397,1872499.3094946,374.21035756317,2548583.7816956,40.439743974397,0,0
86.696498963202,-24.36008738388,35.244174417442,1872499.3094946,374.21035756317,2548583.7816956,40.444174417442,0,0
86.696499144757,-24.362140510672,35.248604860486,1872499.3094946,374.21035756317,2548583.7816956,40.448604860486,0,0
86.696499326312,-24.364193637464,35.25303530353,1872499.3094946,374.21035756317,2548583.7816956,40.45303530353,0,0
86.696499507868,-24.366246764256,35.257465746575,1872499.3094946,374.21035756317,2548583.7816956,40.457465746575,0,0
86.696499689423,-24.368299891047,35.261896189619,1872499.3094946,374.21035756317,2548583.7816956,40.461896189619,0,0
86.696499870979,-24.370353017839,35.266326632663,1872499.3094946,374.21035756317,2548583.7816956,40.466326632663,0,0
86.696500052534,-24.372406144631,35.270757075708,1872499.3094946,374.21035756317,2548583.7816956,40.470757075708,0,0
86.696500234089,-24.374459271423,35.275187518752,1872499.3094946,374.21035756317,2548583.7816956,40.475187518752,0,0
86.696500415645,-24.376512398215,35.279617961796,1872499.3094946,374.21035756317,2548583.7816956,40.479617961796,0,0
86.6965005972,-24.378565525007,35.28404840484,1872499.3094946,374.21035756317,2548583.7816956,40.48404840484,0,0
86.696500778755,-24.380618651799,35.288478847885,1872499.3094946,374.21035756317,2548583.7816956,40.488478847885,0,0
86.696500960311,-24.38267177859,35.292909290929,1872499.3094946,374.21035756317,2548583.7816956,40.492909290929,0,0
86.696501141866,-24.384724905382,35.297339733973,1872499.3094946,374.21035756317,2548583.7816956,40.497339733973,0,0
86.696501323421,-24.386778032174,35.301770177018,1872499.3094946,374.21035756317,2548583.7816956,40.501770177018,0,0
86.696501504977,-24.388831158966,35.306200620062,1872499.3094946,374.21035756317,2548583.7816956,40.506200620062,0,0
86.696501686532,-24.390884285758,35.310631063106,1872499.3094946,374.21035756317,2548583.7816956,40.510631063106,0,0
86.696501868087,-24.39293741255,35.315061506151,1872499.3094946,374.21035756317,2548583.7816956,40.515061506151,0,0
86.696502049643,-24.394990539341,35.319491949195,1872499.3094946,374.21035756317,2548583.7816956,40.519491949195,0,0
86.696502231198,-24.397043666133,35.323922392239,1872499.3094946,374.21035756317,2548583.7816956,40.523922392239,0,0
86.696502412753,-24.399096792925,35.328352835284,1872499.3094946,374.21035756317,2548583.7816956,40.528352835284,0,0
86.696502594309,-24.401149919717,35.332783278328,1872499.3094946,374.21035756317,2548583.7816956,40.532783278328,0,0
86.696502775864,-24.403203046509,35.337213721372,1872499.3094946,374.21035756317,2548583.7816956,40.537213721372,0,0
86.69650295742,-24.405256173301,35.341644164416,1872499.3094946,374.21035756317,2548583.7816956,40.541644164416,0,0
86.696503138975,-24.407309300093,35.346074607461,1872499.3094946,374.21035756317,2548583.7816956,40.546074607461,0,0
86.69650332053,-24.409362426884,35.350505050505,1872499.3094946,374.21035756317,2548583.7816956,40.550505050505,0,0
86.696503502086,-24.411415553676,35.354935493549,1872499.3094946,374.21035756317,2548583.7816956,40.554935493549,0,0
86.696503683641,-24.413468680468,35.359365936594,1872499.3094946,374.21035756317,2548583.7816956,40.559365936594,0,0
86.696503865196,-24.41552180726,35.363796379638,1872499.3094946,374.21035756317,2548583.7816956,40.563796379638,0,0
86.696504046752,-24.417574934052,35.368226822682,1872499.3094946,374.21035756317,2548583.7816956,40.568226822682,0,0
86.696504228307,-24.419628060844,35.372657265727,1872499.3094946,374.21035756317,2548583.7816956,40.572657265727,0,0
86.696504409862,-24.421681187635,35.377087708771,1872499.3094946,374.21035756317,2548583.7816956,40.577087708771,0,0
86.696504591418,-24.423734314427,35.381518151815,1872499.3094946,374.21035756317,2548583.7816956,40.581518151815,0,0
86.696504772973,-24.425787441219,35.385948594859,1872499.3094946,374.21035756317,2548583.7816956,40.585948594859,0,0
86.696504954528,-24.427840568011,35.390379037904,1872499.3094946,374.21035756317,2548583.7816956,40.590379037904,0,0
86.696505136084,-24.429893694803,35.394809480948,1872499.3094946,374.21035756317,2548583.7816956,40.594809480948,0,0
86.696505317639,-24.431946821595,35.399239923992,1872499.3094946,374.21035756317,2548583.7816956,40.599239923992,0,0
86.696505499194,-24.433999948387,35.403670367037,1872499.3094946,374.21035756317,2548583.7816956,40.603670367037,0,0
86.69650568075,-24.436053075178,35.408100810081,1872499.3094946,374.21035756317,2548583.7816956,40.608100810081,0,0
86.696505862305,-24.43810620197,35.412531253125,1872499.3094946,374.21035756317,2548583.7816956,40.612531253125,0,0
86.696506043861,-24.440159328762,35.41696169617,1872499.3094946,374.21035756317,2548583.7816956,40.61696169617,0,0
86.696506225416,-24.442212455554,35.421392139214,1872499.3094946,374.21035756317,2548583.7816956,40.621392139214,0,0
86.696506406971,-24.444265582346,35.425822582258,1872499.3094946,374.21035756317,2548583.7816956,40.625822582258,0,0
86.696506588527,-24.446318709138,35.430253025303,1872499.3094946,374.21035756317,2548583.7816956,40.630253025303,0,0
86.696506770082,-24.448371835929,35.434683468347,1872499.3094946,374.21035756317,2548583.7816956,40.634683468347,0,0
86.696506951637,-24.450424962721,35.439113911391,1872499.3094946,374.21035756317,2548583.7816956,40.639113911391,0,0
86.696507133193,-24.452478089513,35.443544354435,1872499.3094946,374.21035756317,2548583.7816956,40.643544354435,0,0
86.696507314748,-24.454531216305,35.44797479748,1872499.3094946,374.21035756317,2548583.7816956,40.64797479748,0,0
86.696507496303,-24.456584343097,35.452405240524,1872499.3094946,374.21035756317,2548583.7816956,40.652405240524,0,0
86.696507677859,-24.458637469889,35.456835683568,1872499.3094946,374.21035756317,2548583.7816956,40.656835683568,0,0
86.696507859414,-24.460690596681,35.461266126613,1872499.3094946,374.21035756317,2548583.7816956,40.661266126613,0,0
86.696508040969,-24.462743723472,35.465696569657,1872499.3094946,374.21035756317,2548583.7816956,40.665696569657,0,0
86.696508222525,-24.464796850264,35.470127012701,1872499.3094946,374.21035756317,2548583.7816956,40.670127012701,0,0
86.69650840408,-24.466849977056,35.474557455746,1872499.3094946,374.21035756317,2548583.7816956,40.674557455746,0,0
86.696508585635,-24.468903103848,35.47898789879,1872499.3094946,374.21035756317,2548583.7816956,40.67898789879,0,0
86.696508767191,-24.47095623064,35.483418341834,1872499.3094946,374.21035756317,2548583.7816956,40.683418341834,0,0
86.696508948746,-24.473009357432,35.487848784878,1872499.3094946,374.21035756317,2548583.7816956,40.687848784878,0,0
86.696509130302,-24.475062484224,35.492279227923,1872499.3094946,374.21035756317,2548583.7816956,40.692279227923,0,0
86.696509311857,-24.477115611015,35.496709670967,1872499.3094946,374.21035756317,2548583.7816956,40.696709670967,0,0
86.696509493412,-24.479168737807,35.501140114011,1872499.3094946,374.21035756317,2548583.7816956,40.701140114011,0,0
86.696509674968,-24.481221864599,35.505570557056,1872499.3094946,374.21035756317,2548583.7816956,40.705570557056,0,0
86.696509856523,-24.483274991391,35.5100010001,1872499.3094946,374.21035756317,2548583.7816956,40.7100010001,0,0
86.696510038078,-24.485328118183,35.514431443144,1872499.3094946,374.21035756317,2548583.7816956,40.714431443144,0,0
86.696510219634,-24.487381244975,35.518861886189,1872499.3094946,374.21035756317,2548583.7816956,40.718861886189,0,0
86.696510401189,-24.489434371766,35.523292329233,1872499.3094946,374.21035756317,2548583.7816956,40.723292329233,0,0
86.696510582744,-24.491487498558,35.527722772277,1872499.3094946,374.21035756317,2548583.7816956,40.727722772277,0,0
86.6965107643,-24.49354062535,35.532153215322,1872499.3094946,374.21035756317,2548583.7816956,40.732153215322,0,0
86.696510945855,-24.495593752142,35.536583658366,1872499.3094946,374.21035756317,2548583.7816956,40.736583658366,0,0
86.69651112741,-24.497646878934,35.54101410141,1872499.3094946,374.21035756317,2548583.7816956,40.74101410141,0,0
86.696511308966,-24.499700005726,35.545444544454,1872499.3094946,374.21035756317,2548583.7816956,40.745444544454,0,0
86.696511490521,-24.501753132518,35.549874987499,1872499.3094946,374.21035756317,2548583.7816956,40.749874987499,0,0
86.696511672076,-24.503806259309,35.554305430543,1872499.3094946,374.21035756317,2548583.7816956,40.754305430543,0,0
86.696511853632,-24.505859386101,35.558735873587,1872499.3094946,374.21035756317,2548583.7816956,40.758735873587,0,0
86.696512035187,-24.507912512893,35.563166316632,1872499.3094946,374.21035756317,2548583.7816956,40.763166316632,0,0
86.696512216743,-24.509965639685,35.567596759676,1872499.3094946,374.21035756317,2548583.7816956,40.767596759676,0,0
86.696512398298,-24.512018766477,35.57202720272,1872499.3094946,374.21035756317,2548583.7816956,40.77202720272,0,0
86.696512579853,-24.514071893269,35.576457645765,1872499.3094946,374.21035756317,2548583.7816956,40.776457645765,0,0
86.696512761409,-24.51612502006,35.580888088809,1872499.3094946,374.21035756317,2548583.7816956,40.780888088809,0,0
86.696512942964,-24.518178146852,35.585318531853,1872499.3094946,374.21035756317,2548583.7816956,40.785318531853,0,0
86.696513124519,-24.520231273644,35.589748974897,1872499.3094946,374.21035756317,2548583.7816956,40.789748974897,0,0
86.696513306075,-24.522284400436,35.594179417942,1872499.3094946,374.21035756317,2548583.7816956,40.794179417942,0,0
86.69651348763,-24.524337527228,35.598609860986,1872499.3094946,374.21035756317,2548583.7816956,40.798609860986,0,0
86.696513669185,-24.52639065402,35.60304030403,1872499.3094946,374.21035756317,2548583.7816956,40.80304030403,0,0
86.696513850741,-24.528443780812,35.607470747075,1872499.3094946,374.21035756317,2548583.7816956,40.807470747075,0,0
86.696514032296,-24.530496907603,35.611901190119,1872499.3094946,374.21035756317,2548583.7816956,40.811901190119,0,0
86.696514213851,-24.532550034395,35.616331633163,1872499.3094946,374.21035756317,2548583.7816956,40.816331633163,0,0
86.696514395407,-24.534603161187,35.620762076208,1872499.3094946,374.21035756317,2548583.7816956,40.820762076208,0,0
86.696514576962,-24.536656287979,35.625192519252,1872499.3094946,374.21035756317,2548583.7816956,40.825192519252,0,0
86.696514758517,-24.538709414771,35.629622962296,1872499.3094946,374.21035756317,2548583.7816956,40.829622962296,0,0
86.696514940073,-24.540762541563,35.634053405341,1872499.3094946,374.21035756317,2548583.7816956,40.834053405341,0,0
86.696515121628,-24.542815668354,35.638483848385,1872499.3094946,374.21035756317,2548583.7816956,40.838483848385,0,0
86.696515303184,-24.544868795146,35.642914291429,1872499.3094946,374.21035756317,2548583.7816956,40.842914291429,0,0
86.696515484739,-24.546921921938,35.647344734473,1872499.3094946,374.21035756317,2548583.7816956,40.847344734473,0,0
86.696515666294,-24.54897504873,35.651775177518,1872499.3094946,374.21035756317,2548583.7816956,40.851775177518,0,0
86.69651584785,-24.551028175522,35.656205620562,1872499.3094946,374.21035756317,2548583.7816956,40.856205620562,0,0
86.696516029405,-24.553081302314,35.660636063606,1872499.3094946,374.21035756317,2548583.7816956,40.860636063606,0,0
86.69651621096,-24.555134429106,35.665066506651,1872499.3094946,374.21035756317,2548583.7816956,40.865066506651,0,0
86.696516392516,-24.557187555897,35.669496949695,1872499.3094946,374.21035756317,2548583.7816956,40.869496949695,0,0
86.696516574071,-24.559240682689,35.673927392739,1872499.3094946,374.21035756317,2548583.7816956,40.873927392739,0,0
86.696516755626,-24.561293809481,35.678357835784,1872499.3094946,374.21035756317,2548583.7816956,40.878357835784,0,0
86.696516937182,-24.563346936273,35.682788278828,1872499.3094946,374.21035756317,2548583.7816956,40.882788278828,0,0
86.696517118737,-24.565400063065,35.687218721872,1872499.3094946,374.21035756317,2548583.7816956,40.887218721872,0,0
86.696517300292,-24.567453189857,35.691649164916,1872499.3094946,374.21035756317,2548583.7816956,40.891649164916,0,0
86.696517481848,-24.569506316649,35.696079607961,1872499.3094946,374.21035756317,2548583.7816956,40.896079607961,0,0
86.696517663403,-24.57155944344,35.700510051005,1872499.3094946,374.21035756317,2548583.7816956,40.900510051005,0,0
86.696517844958,-24.573612570232,35.704940494049,1872499.3094946,374.21035756317,2548583.7816956,40.904940494049,0,0
86.696518026514,-24.575665697024,35.709370937094,1872499.3094946,374.21035756317,2548583.7816956,40.909370937094,0,0
86.696518208069,-24.577718823816,35.713801380138,1872499.3094946,374.21035756317,2548583.7816956,40.913801380138,0,0
86.696518389625,-24.579771950608,35.718231823182,1872499.3094946,374.21035756317,2548583.7816956,40.918231823182,0,0
86.69651857118,-24.5818250774,35.722662266227,1872499.3094946,374.21035756317,2548583.7816956,40.922662266227,0,0
86.696518752735,-24.583878204191,35.727092709271,1872499.3094946,374.21035756317,2548583.7816956,40.927092709271,0,0
86.696518934291,-24.585931330983,35.731523152315,1872499.3094946,374.21035756317,2548583.7816956,40.931523152315,0,0
86.696519115846,-24.587984457775,35.73595359536,1872499.3094946,374.21035756317,2548583.7816956,40.93595359536,0,0
86.696519297401,-24.590037584567,35.740384038404,1872499.3094946,374.21035756317,2548583.7816956,40.940384038404,0,0
86.696519478957,-24.592090711359,35.744814481448,1872499.3094946,374.21035756317,2548583.7816956,40.944814481448,0,0
86.696519660512,-24.594143838151,35.749244924492,1872499.3094946,374.21035756317,2548583.7816956,40.949244924492,0,0
86.696519842067,-24.596196964943,35.753675367537,1872499.3094946,374.21035756317,2548583.7816956,40.953675367537,0,0
86.696520023623,-24.598250091734,35.758105810581,1872499.3094946,374.21035756317,2548583.7816956,40.958105810581,0,0
86.696520205178,-24.600303218526,35.762536253625,1872499.3094946,374.21035756317,2548583.7816956,40.962536253625,0,0
86.696520386733,-24.602356345318,35.76696669667,1872499.3094946,374.21035756317,2548583.7816956,40.96696669667,0,0
86.696520568289,-24.60440947211,35.771397139714,1872499.3094946,374.21035756317,2548583.7816956,40.971397139714,0,0
86.696520749844,-24.606462598902,35.775827582758,1872499.3094946,374.21035756317,2548583.7816956,40.975827582758,0,0
86.696520931399,-24.608515725694,35.780258025803,1872499.3094946,374.21035756317,2548583.7816956,40.980258025803,0,0
86.696521112955,-24.610568852485,35.784688468847,1872499.3094946,374.21035756317,2548583.7816956,40.984688468847,0,0
86.69652129451,-24.612621979277,35.789118911891,1872499.3094946,374.21035756317,2548583.7816956,40.989118911891,0,0
86.696521476066,-24.614675106069,35.793549354935,1872499.3094946,374.21035756317,2548583.7816956,40.993549354935,0,0
86.696521657621,-24.616728232861,35.79797979798,1872499.3094946,374.21035756317,2548583.7816956,40.99797979798,0,0
86.696521839176,-24.618781359653,35.802410241024,1872499.3094946,374.21035756317,2548583.7816956,41.002410241024,0,0
86.696522020732,-24.620834486445,35.806840684068,1872499.3094946,374.21035756317,2548583.7816956,41.006840684068,0,0
86.696522202287,-24.622887613237,35.811271127113,1872499.3094946,374.21035756317,2548583.7816956,41.011271127113,0,0
86.696522383842,-24.624940740028,35.815701570157,1872499.3094946,374.21035756317,2548583.7816956,41.015701570157,0,0
86.696522565398,-24.62699386682,35.820132013201,1872499.3094946,374.21035756317,2548583.7816956,41.020132013201,0,0
86.696522746953,-24.629046993612,35.824562456246,1872499.3094946,374.21035756317,2548583.7816956,41.024562456246,0,0
86.696522928508,-24.631100120404,35.82899289929,1872499.3094946,374.21035756317,2548583.7816956,41.02899289929,0,0
86.696523110064,-24.633153247196,35.833423342334,1872499.3094946,374.21035756317,2548583.7816956,41.033423342334,0,0
86.696523291619,-24.635206373988,35.837853785379,1872499.3094946,374.21035756317,2548583.7816956,41.037853785379,0,0
86.696523473174,-24.637259500779,35.842284228423,1872499.3094946,374.21035756317,2548583.7816956,41.042284228423,0,0
86.69652365473,-24.639312627571,35.846714671467,1872499.3094946,374.21035756317,2548583.7816956,41.046714671467,0,0
86.696523836285,-24.641365754363,35.851145114511,1872499.3094946,374.21035756317,2548583.7816956,41.051145114511,0,0
86.69652401784,-24.643418881155,35.855575557556,1872499.3094946,374.21035756317,2548583.7816956,41.055575557556,0,0
86.696524199396,-24.645472007947,35.8600060006,1872499.3094946,374.21035756317,2548583.7816956,41.0600060006,0,0
86.696524380951,-24.647525134739,35.864436443644,1872499.3094946,374.21035756317,2548583.7816956,41.064436443644,0,0
86.696524562507,-24.649578261531,35.868866886689,1872499.3094946,374.21035756317,2548583.7816956,41.068866886689,0,0
86.696524744062,-24.651631388322,35.873297329733,1872499.3094946,374.21035756317,2548583.7816956,41.073297329733,0,0
86.696524925617,-24.653684515114,35.877727772777,1872499.3094946,374.21035756317,2548583.7816956,41.077727772777,0,0
86.696525107173,-24.655737641906,35.882158215822,1872499.3094946,374.21035756317,2548583.7816956,41.082158215822,0,0
86.696525288728,-24.657790768698,35.886588658866,1872499.3094946,374.21035756317,2548583.7816956,41.086588658866,0,0
86.696525470283,-24.65984389549,35.89101910191,1872499.3094946,374.21035756317,2548583.7816956,41.09101910191,0,0
86.696525651839,-24.661897022282,35.895449544954,1872499.3094946,374.21035756317,2548583.7816956,41.095449544954,0,0
86.696525833394,-24.663950149074,35.899879987999,1872499.3094946,374.21035756317,2548583.7816956,41.099879987999,0,0
86.696526014949,-24.666003275865,35.904310431043,1872499.3094946,374.21035756317,2548583.7816956,41.104310431043,0,0
86.696526196505,-24.668056402657,35.908740874087,1872499.3094946,374.21035756317,2548583.7816956,41.108740874087,0,0
86.69652637806,-24.670109529449,35.913171317132,1872499.3094946,374.21035756317,2548583.7816956,41.113171317132,0,0
86.696526559615,-24.672162656241,35.917601760176,1872499.3094946,374.21035756317,2548583.7816956,41.117601760176,0,0
86.696526741171,-24.674215783033,35.92203220322,1872499.3094946,374.21035756317,2548583.7816956,41.12203220322,0,0
86.696526922726,-24.676268909825,35.926462646265,1872499.3094946,374.21035756317,2548583.7816956,41.126462646265,0,0
86.696527104281,-24.678322036616,35.930893089309,1872499.3094946,374.21035756317,2548583.7816956,41.130893089309,0,0
86.696527285837,-24.680375163408,35.935323532353,1872499.3094946,374.21035756317,2548583.7816956,41.135323532353,0,0
86.696527467392,-24.6824282902,35.939753975398,1872499.3094946,374.21035756317,2548583.7816956,41.139753975398,0,0
86.696527648948,-24.684481416992,35.944184418442,1872499.3094946,374.21035756317,2548583.7816956,41.144184418442,0,0
86.696527830503,-24.686534543784,35.948614861486,1872499.3094946,374.21035756317,2548583.7816956,41.148614861486,0,0
86.696528012058,-24.688587670576,35.95304530453,1872499.3094946,374.21035756317,2548583.7816956,41.15304530453,0,0
86.696528193614,-24.690640797368,35.957475747575,1872499.3094946,374.21035756317,2548583.7816956,41.157475747575,0,0
86.696528375169,-24.692693924159,35.961906190619,1872499.3094946,374.21035756317,2548583.7816956,41.161906190619,0,0
86.696528556724,-24.694747050951,35.966336633663,1872499.3094946,374.21035756317,2548583.7816956,41.166336633663,0,0
86.69652873828,-24.696800177743,35.970767076708,1872499.3094946,374.21035756317,2548583.7816956,41.170767076708,0,0
86.696528919835,-24.698853304535,35.975197519752,1872499.3094946,374.21035756317,2548583.7816956,41.175197519752,0,0
86.69652910139,-24.700906431327,35.979627962796,1872499.3094946,374.21035756317,2548583.7816956,41.179627962796,0,0
86.696529282946,-24.702959558119,35.984058405841,1872499.3094946,374.21035756317,2548583.7816956,41.184058405841,0,0
86.696529464501,-24.70501268491,35.988488848885,1872499.3094946,374.21035756317,2548583.7816956,41.188488848885,0,0
86.696529646056,-24.707065811702,35.992919291929,1872499.3094946,374.21035756317,2548583.7816956,41.192919291929,0,0
86.696529827612,-24.709118938494,35.997349734973,1872499.3094946,374.21035756317,2548583.7816956,41.197349734973,0,0
86.696530009167,-24.711172065286,36.001780178018,1872499.3094946,374.21035756317,2548583.7816956,41.201780178018,0,0
86.696530190722,-24.713225192078,36.006210621062,1872499.3094946,374.21035756317,2548583.7816956,41.206210621062,0,0
86.696530372278,-24.71527831887,36.010641064106,1872499.3094946,374.21035756317,2548583.7816956,41.210641064106,0,0
86.696530553833,-24.717331445662,36.015071507151,1872499.3094946,374.21035756317,2548583.7816956,41.215071507151,0,0
86.696530735389,-24.719384572453,36.019501950195,1872499.3094946,374.21035756317,2548583.7816956,41.219501950195,0,0
86.696530916944,-24.721437699245,36.023932393239,1872499.3094946,374.21035756317,2548583.7816956,41.223932393239,0,0
86.696531098499,-24.723490826037,36.028362836284,1872499.3094946,374.21035756317,2548583.7816956,41.228362836284,0,0
86.696531280055,-24.725543952829,36.032793279328,1872499.3094946,374.21035756317,2548583.7816956,41.232793279328,0,0
86.69653146161,-24.727597079621,36.037223722372,1872499.3094946,374.21035756317,2548583.7816956,41.237223722372,0,0
86.696531643165,-24.729650206413,36.041654165417,1872499.3094946,374.21035756317,2548583.7816956,41.241654165417,0,0
86.696531824721,-24.731703333204,36.046084608461,1872499.3094946,374.21035756317,2548583.7816956,41.246084608461,0,0
86.696532006276,-24.733756459996,36.050515051505,1872499.3094946,374.21035756317,2548583.7816956,41.250515051505,0,0
86.696532187831,-24.735809586788,36.054945494549,1872499.3094946,374.21035756317,2548583.7816956,41.254945494549,0,0
86.696532369387,-24.73786271358,36.059375937594,1872499.3094946,374.21035756317,2548583.7816956,41.259375937594,0,0
86.696532550942,-24.739915840372,36.063806380638,1872499.3094946,374.21035756317,2548583.7816956,41.263806380638,0,0
86.696532732497,-24.741968967164,36.068236823682,1872499.3094946,374.21035756317,2548583.7816956,41.268236823682,0,0
86.696532914053,-24.744022093956,36.072667266727,1872499.3094946,374.21035756317,2548583.7816956,41.272667266727,0,0
86.696533095608,-24.746075220747,36.077097709771,1872499.3094946,374.21035756317,2548583.7816956,41.277097709771,0,0
86.696533277163,-24.748128347539,36.081528152815,1872499.3094946,374.21035756317,2548583.7816956,41.281528152815,0,0
86.696533458719,-24.750181474331,36.08595859586,1872499.3094946,374.21035756317,2548583.7816956,41.28595859586,0,0
86.696533640274,-24.752234601123,36.090389038904,1872499.3094946,374.21035756317,2548583.7816956,41.290389038904,0,0
86.69653382183,-24.754287727915,36.094819481948,1872499.3094946,374.21035756317,2548583.7816956,41.294819481948,0,0
86.696534003385,-24.756340854707,36.099249924992,1872499.3094946,374.21035756317,2548583.7816956,41.299249924992,0,0
86.69653418494,-24.758393981499,36.103680368037,1872499.3094946,374.21035756317,2548583.7816956,41.303680368037,0,0
86.696534366496,-24.76044710829,36.108110811081,1872499.3094946,374.21035756317,2548583.7816956,41.308110811081,0,0
86.696534548051,-24.762500235082,36.112541254125,1872499.3094946,374.21035756317,2548583.7816956,41.312541254125,0,0
86.696534729606,-24.764553361874,36.11697169717,1872499.3094946,374.21035756317,2548583.7816956,41.31697169717,0,0
86.696534911162,-24.766606488666,36.121402140214,1872499.3094946,374.21035756317,2548583.7816956,41.321402140214,0,0
86.696535092717,-24.768659615458,36.125832583258,1872499.3094946,374.21035756317,2548583.7816956,41.325832583258,0,0
86.696535274272,-24.77071274225,36.130263026303,1872499.3094946,374.21035756317,2548583.7816956,41.330263026303,0,0
86.696535455828,-24.772765869041,36.134693469347,1872499.3094946,374.21035756317,2548583.7816956,41.334693469347,0,0
86.696535637383,-24.774818995833,36.139123912391,1872499.3094946,374.21035756317,2548583.7816956,41.339123912391,0,0
86.696535818938,-24.776872122625,36.143554355436,1872499.3094946,374.21035756317,2548583.7816956,41.343554355436,0,0
86.696536000494,-24.778925249417,36.14798479848,1872499.3094946,374.21035756317,2548583.7816956,41.34798479848,0,0
86.696536182064,-24.78097837626,36.152415241524,1872760.8573695,-969.17535017844,2545617.9194632,41.352415241524,0,0
86.696536363719,-24.783031503407,36.156845684568,1872760.8573695,-969.17535017844,2545617.9194632,41.356845684568,0,0
86.696536545374,-24.785084630553,36.161276127613,1872760.8573695,-969.17535017844,2545617.9194632,41.361276127613,0,0
86.696536727029,-24.7871377577,36.165706570657,1872760.8573695,-969.17535017844,2545617.9194632,41.365706570657,0,0
86.696536908684,-24.789190884847,36.170137013701,1872760.8573695,-969.17535017844,2545617.9194632,41.370137013701,0,0
86.69653709034,-24.791244011993,36.174567456746,1872760.8573695,-969.17535017844,2545617.9194632,41.374567456746,0,0
86.696537271995,-24.79329713914,36.17899789979,1872760.8573695,-969.17535017844,2545617.9194632,41.37899789979,0,0
86.69653745365,-24.795350266287,36.183428342834,1872760.8573695,-969.17535017844,2545617.9194632,41.383428342834,0,0
86.696537635305,-24.797403393433,36.187858785879,1872760.8573695,-969.17535017844,2545617.9194632,41.387858785879,0,0
86.69653781696,-24.79945652058,36.192289228923,1872760.8573695,-969.17535017844,2545617.9194632,41.392289228923,0,0
86.696537998616,-24.801509647726,36.196719671967,1872760.8573695,-969.17535017844,2545617.9194632,41.396719671967,0,0
86.696538180271,-24.803562774873,36.201150115011,1872760.8573695,-969.17535017844,2545617.9194632,41.401150115011,0,0
86.696538361926,-24.80561590202,36.205580558056,1872760.8573695,-969.17535017844,2545617.9194632,41.405580558056,0,0
86.696538543581,-24.807669029166,36.2100110011,1872760.8573695,-969.17535017844,2545617.9194632,41.4100110011,0,0
86.696538725237,-24.809722156313,36.214441444144,1872760.8573695,-969.17535017844,2545617.9194632,41.414441444144,0,0
86.696538906892,-24.81177528346,36.218871887189,1872760.8573695,-969.17535017844,2545617.9194632,41.418871887189,0,0
86.696539088547,-24.813828410606,36.223302330233,1872760.8573695,-969.17535017844,2545617.9194632,41.423302330233,0,0
86.696539270202,-24.815881537753,36.227732773277,1872760.8573695,-969.17535017844,2545617.9194632,41.427732773277,0,0
86.696539451857,-24.8179346649,36.232163216322,1872760.8573695,-969.17535017844,2545617.9194632,41.432163216322,0,0
86.696539633513,-24.819987792046,36.236593659366,1872760.8573695,-969.17535017844,2545617.9194632,41.436593659366,0,0
86.696539815168,-24.822040919193,36.24102410241,1872760.8573695,-969.17535017844,2545617.9194632,41.44102410241,0,0
86.696539996823,-24.824094046339,36.245454545455,1872760.8573695,-969.17535017844,2545617.9194632,41.445454545455,0,0
86.696540178478,-24.826147173486,36.249884988499,1872760.8573695,-969.17535017844,2545617.9194632,41.449884988499,0,0
86.696540360133,-24.828200300633,36.254315431543,1872760.8573695,-969.17535017844,2545617.9194632,41.454315431543,0,0
86.696540541789,-24.830253427779,36.258745874587,1872760.8573695,-969.17535017844,2545617.9194632,41.458745874587,0,0
86.696540723444,-24.832306554926,36.263176317632,1872760.8573695,-969.17535017844,2545617.9194632,41.463176317632,0,0
86.696540905099,-24.834359682073,36.267606760676,1872760.8573695,-969.17535017844,2545617.9194632,41.467606760676,0,0
86.696541086754,-24.836412809219,36.27203720372,1872760.8573695,-969.17535017844,2545617.9194632,41.47203720372,0,0
86.696541268409,-24.838465936366,36.276467646765,1872760.8573695,-969.17535017844,2545617.9194632,41.476467646765,0,0
86.696541450065,-24.840519063512,36.280898089809,1872760.8573695,-969.17535017844,2545617.9194632,41.480898089809,0,0
86.69654163172,-24.842572190659,36.285328532853,1872760.8573695,-969.17535017844,2545617.9194632,41.485328532853,0,0
86.696541813375,-24.844625317806,36.289758975898,1872760.8573695,-969.17535017844,2545617.9194632,41.489758975898,0,0
86.69654199503,-24.846678444952,36.294189418942,1872760.8573695,-969.17535017844,2545617.9194632,41.494189418942,0,0
86.696542176686,-24.848731572099,36.298619861986,1872760.8573695,-969.17535017844,2545617.9194632,41.498619861986,0,0
86.696542358341,-24.850784699246,36.30305030503,1872760.8573695,-969.17535017844,2545617.9194632,41.50305030503,0,0
86.696542539996,-24.852837826392,36.307480748075,1872760.8573695,-969.17535017844,2545617.9194632,41.507480748075,0,0
86.696542721651,-24.854890953539,36.311911191119,1872760.8573695,-969.17535017844,2545617.9194632,41.511911191119,0,0
86.696542903306,-24.856944080686,36.316341634163,1872760.8573695,-969.17535017844,2545617.9194632,41.516341634163,0,0
86.696543084962,-24.858997207832,36.320772077208,1872760.8573695,-969.17535017844,2545617.9194632,41.520772077208,0,0
86.696543266617,-24.861050334979,36.325202520252,1872760.8573695,-969.17535017844,2545617.9194632,41.525202520252,0,0
86.696543448272,-24.863103462125,36.329632963296,1872760.8573695,-969.17535017844,2545617.9194632,41.529632963296,0,0
86.696543629927,-24.865156589272,36.334063406341,1872760.8573695,-969.17535017844,2545617.9194632,41.534063406341,0,0
86.696543811582,-24.867209716419,36.338493849385,1872760.8573695,-969.17535017844,2545617.9194632,41.538493849385,0,0
86.696543993238,-24.869262843565,36.342924292429,1872760.8573695,-969.17535017844,2545617.9194632,41.542924292429,0,0
86.696544174893,-24.871315970712,36.347354735474,1872760.8573695,-969.17535017844,2545617.9194632,41.547354735474,0,0
86.696544356548,-24.873369097859,36.351785178518,1872760.8573695,-969.17535017844,2545617.9194632,41.551785178518,0,0
86.696544538203,-24.875422225005,36.356215621562,1872760.8573695,-969.17535017844,2545617.9194632,41.556215621562,0,0
86.696544719858,-24.877475352152,36.360646064606,1872760.8573695,-969.17535017844,2545617.9194632,41.560646064606,0,0
86.696544901514,-24.879528479298,36.365076507651,1872760.8573695,-969.17535017844,2545617.9194632,41.565076507651,0,0
86.696545083169,-24.881581606445,36.369506950695,1872760.8573695,-969.17535017844,2545617.9194632,41.569506950695,0,0
86.696545264824,-24.883634733592,36.373937393739,1872760.8573695,-969.17535017844,2545617.9194632,41.573937393739,0,0
86.696545446479,-24.885687860738,36.378367836784,1872760.8573695,-969.17535017844,2545617.9194632,41.578367836784,0,0
86.696545628135,-24.887740987885,36.382798279828,1872760.8573695,-969.17535017844,2545617.9194632,41.582798279828,0,0
86.69654580979,-24.889794115032,36.387228722872,1872760.8573695,-969.17535017844,2545617.9194632,41.587228722872,0,0
86.696545991445,-24.891847242178,36.391659165917,1872760.8573695,-969.17535017844,2545617.9194632,41.591659165917,0,0
86.6965461731,-24.893900369325,36.396089608961,1872760.8573695,-969.17535017844,2545617.9194632,41.596089608961,0,0
86.696546354755,-24.895953496471,36.400520052005,1872760.8573695,-969.17535017844,2545617.9194632,41.600520052005,0,0
86.696546536411,-24.898006623618,36.404950495049,1872760.8573695,-969.17535017844,2545617.9194632,41.60495049505,0,0
86.696546718066,-24.900059750765,36.409380938094,1872760.8573695,-969.17535017844,2545617.9194632,41.609380938094,0,0
86.696546899721,-24.902112877911,36.413811381138,1872760.8573695,-969.17535017844,2545617.9194632,41.613811381138,0,0
86.696547081376,-24.904166005058,36.418241824182,1872760.8573695,-969.17535017844,2545617.9194632,41.618241824182,0,0
86.696547263031,-24.906219132205,36.422672267227,1872760.8573695,-969.17535017844,2545617.9194632,41.622672267227,0,0
86.696547444687,-24.908272259351,36.427102710271,1872760.8573695,-969.17535017844,2545617.9194632,41.627102710271,0,0
86.696547626342,-24.910325386498,36.431533153315,1872760.8573695,-969.17535017844,2545617.9194632,41.631533153315,0,0
86.696547807997,-24.912378513645,36.43596359636,1872760.8573695,-969.17535017844,2545617.9194632,41.63596359636,0,0
86.696547989652,-24.914431640791,36.440394039404,1872760.8573695,-969.17535017844,2545617.9194632,41.640394039404,0,0
86.696548171308,-24.916484767938,36.444824482448,1872760.8573695,-969.17535017844,2545617.9194632,41.644824482448,0,0
86.696548352963,-24.918537895084,36.449254925493,1872760.8573695,-969.17535017844,2545617.9194632,41.649254925493,0,0
86.696548534618,-24.920591022231,36.453685368537,1872760.8573695,-969.17535017844,2545617.9194632,41.653685368537,0,0
86.696548716273,-24.922644149378,36.458115811581,1872760.8573695,-969.17535017844,2545617.9194632,41.658115811581,0,0
86.696548897928,-24.924697276524,36.462546254625,1872760.8573695,-969.17535017844,2545617.9194632,41.662546254625,0,0
86.696549079584,-24.926750403671,36.46697669767,1872760.8573695,-969.17535017844,2545617.9194632,41.66697669767,0,0
86.696549261239,-24.928803530818,36.471407140714,1872760.8573695,-969.17535017844,2545617.9194632,41.671407140714,0,0
86.696549442894,-24.930856657964,36.475837583758,1872760.8573695,-969.17535017844,2545617.9194632,41.675837583758,0,0
86.696549624549,-24.932909785111,36.480268026803,1872760.8573695,-969.17535017844,2545617.9194632,41.680268026803,0,0
86.696549806204,-24.934962912257,36.484698469847,1872760.8573695,-969.17535017844,2545617.9194632,41.684698469847,0,0
86.69654998786,-24.937016039404,36.489128912891,1872760.8573695,-969.17535017844,2545617.9194632,41.689128912891,0,0
86.696550169515,-24.939069166551,36.493559355936,1872760.8573695,-969.17535017844,2545617.9194632,41.693559355936,0,0
86.69655035117,-24.941122293697,36.49798979898,1872760.8573695,-969.17535017844,2545617.9194632,41.69798979898,0,0
86.696550532825,-24.943175420844,36.502420242024,1872760.8573695,-969.17535017844,2545617.9194632,41.702420242024,0,0
86.69655071448,-24.945228547991,36.506850685068,1872760.8573695,-969.17535017844,2545617.9194632,41.706850685069,0,0
86.696550896136,-24.947281675137,36.511281128113,1872760.8573695,-969.17535017844,2545617.9194632,41.711281128113,0,0
86.696551077791,-24.949334802284,36.515711571157,1872760.8573695,-969.17535017844,2545617.9194632,41.715711571157,0,0
86.696551259446,-24.951387929431,36.520142014201,1872760.8573695,-969.17535017844,2545617.9194632,41.720142014201,0,0
86.696551441101,-24.953441056577,36.524572457246,1872760.8573695,-969.17535017844,2545617.9194632,41.724572457246,0,0
86.696551622757,-24.955494183724,36.52900290029,1872760.8573695,-969.17535017844,2545617.9194632,41.72900290029,0,0
86.696551804412,-24.95754731087,36.533433343334,1872760.8573695,-969.17535017844,2545617.9194632,41.733433343334,0,0
86.696551986067,-24.959600438017,36.537863786379,1872760.8573695,-969.17535017844,2545617.9194632,41.737863786379,0,0
86.696552167722,-24.961653565164,36.542294229423,1872760.8573695,-969.17535017844,2545617.9194632,41.742294229423,0,0
86.696552349377,-24.96370669231,36.546724672467,1872760.8573695,-969.17535017844,2545617.9194632,41.746724672467,0,0
86.696552531051,-24.965759819405,36.551155115512,1873672.4290559,207.35559893119,2544446.0494722,41.751155115512,0,0
86.69655271281,-24.967812946259,36.555585558556,1873672.4290559,207.35559893119,2544446.0494722,41.755585558556,0,0
86.69655289457,-24.969866073113,36.5600160016,1873672.4290559,207.35559893119,2544446.0494722,41.7600160016,0,0
86.696553076329,-24.971919199967,36.564446444644,1873672.4290559,207.35559893119,2544446.0494722,41.764446444644,0,0
86.696553258088,-24.973972326821,36.568876887689,1873672.4290559,207.35559893119,2544446.0494722,41.768876887689,0,0
86.696553439847,-24.976025453675,36.573307330733,1873672.4290559,207.35559893119,2544446.0494722,41.773307330733,0,0
86.696553621606,-24.97807858053,36.577737773777,1873672.4290559,207.35559893119,2544446.0494722,41.777737773777,0,0
86.696553803366,-24.980131707384,36.582168216822,1873672.4290559,207.35559893119,2544446.0494722,41.782168216822,0,0
86.696553985125,-24.982184834238,36.586598659866,1873672.4290559,207.35559893119,2544446.0494722,41.786598659866,0,0
86.696554166884,-24.984237961092,36.59102910291,1873672.4290559,207.35559893119,2544446.0494722,41.79102910291,0,0
86.696554348643,-24.986291087946,36.595459545955,1873672.4290559,207.35559893119,2544446.0494722,41.795459545955,0,0
86.696554530403,-24.9883442148,36.599889988999,1873672.4290559,207.35559893119,2544446.0494722,41.799889988999,0,0
86.696554712162,-24.990397341654,36.604320432043,1873672.4290559,207.35559893119,2544446.0494722,41.804320432043,0,0
86.696554893921,-24.992450468508,36.608750875088,1873672.4290559,207.35559893119,2544446.0494722,41.808750875088,0,0
86.69655507568,-24.994503595363,36.613181318132,1873672.4290559,207.35559893119,2544446.0494722,41.813181318132,0,0
86.696555257439,-24.996556722217,36.617611761176,1873672.4290559,207.35559893119,2544446.0494722,41.817611761176,0,0
86.696555439199,-24.998609849071,36.62204220422,1873672.4290559,207.35559893119,2544446.0494722,41.82204220422,0,0
86.696555620958,-25.000662975925,36.626472647265,1873672.4290559,207.35559893119,2544446.0494722,41.826472647265,0,0
86.696555802717,-25.002716102779,36.630903090309,1873672.4290559,207.35559893119,2544446.0494722,41.830903090309,0,0
86.696555984476,-25.004769229633,36.635333533353,1873672.4290559,207.35559893119,2544446.0494722,41.835333533353,0,0
86.696556166236,-25.006822356487,36.639763976398,1873672.4290559,207.35559893119,2544446.0494722,41.839763976398,0,0
86.696556347995,-25.008875483341,36.644194419442,1873672.4290559,207.35559893119,2544446.0494722,41.844194419442,0,0
86.696556529754,-25.010928610195,36.648624862486,1873672.4290559,207.35559893119,2544446.0494722,41.848624862486,0,0
86.696556711513,-25.01298173705,36.653055305531,1873672.4290559,207.35559893119,2544446.0494722,41.853055305531,0,0
86.696556893272,-25.015034863904,36.657485748575,1873672.4290559,207.35559893119,2544446.0494722,41.857485748575,0,0
86.696557075032,-25.017087990758,36.661916191619,1873672.4290559,207.35559893119,2544446.0494722,41.861916191619,0,0
86.696557256791,-25.019141117612,36.666346634663,1873672.4290559,207.35559893119,2544446.0494722,41.866346634663,0,0
86.69655743855,-25.021194244466,36.670777077708,1873672.4290559,207.35559893119,2544446.0494722,41.870777077708,0,0
86.696557620309,-25.02324737132,36.675207520752,1873672.4290559,207.35559893119,2544446.0494722,41.875207520752,0,0
86.696557802069,-25.025300498174,36.679637963796,1873672.4290559,207.35559893119,2544446.0494722,41.879637963796,0,0
86.696557983828,-25.027353625028,36.684068406841,1873672.4290559,207.35559893119,2544446.0494722,41.884068406841,0,0
86.696558165587,-25.029406751882,36.688498849885,1873672.4290559,207.35559893119,2544446.0494722,41.888498849885,0,0
86.696558347346,-25.031459878737,36.692929292929,1873672.4290559,207.35559893119,2544446.0494722,41.892929292929,0,0
86.696558529106,-25.033513005591,36.697359735974,1873672.4290559,207.35559893119,2544446.0494722,41.897359735974,0,0
86.696558710865,-25.035566132445,36.701790179018,1873672.4290559,207.35559893119,2544446.0494722,41.901790179018,0,0
86.696558892624,-25.037619259299,36.706220622062,1873672.4290559,207.35559893119,2544446.0494722,41.906220622062,0,0
86.696559074383,-25.039672386153,36.710651065107,1873672.4290559,207.35559893119,2544446.0494722,41.910651065107,0,0
86.696559256142,-25.041725513007,36.715081508151,1873672.4290559,207.35559893119,2544446.0494722,41.915081508151,0,0
86.696559437902,-25.043778639861,36.719511951195,1873672.4290559,207.35559893119,2544446.0494722,41.919511951195,0,0
86.696559619661,-25.045831766715,36.723942394239,1873672.4290559,207.35559893119,2544446.0494722,41.923942394239,0,0
86.69655980142,-25.047884893569,36.728372837284,1873672.4290559,207.35559893119,2544446.0494722,41.928372837284,0,0
86.696559983179,-25.049938020424,36.732803280328,1873672.4290559,207.35559893119,2544446.0494722,41.932803280328,0,0
86.696560164939,-25.051991147278,36.737233723372,1873672.4290559,207.35559893119,2544446.0494722,41.937233723372,0,0
86.696560346698,-25.054044274132,36.741664166417,1873672.4290559,207.35559893119,2544446.0494722,41.941664166417,0,0
86.696560528457,-25.056097400986,36.746094609461,1873672.4290559,207.35559893119,2544446.0494722,41.946094609461,0,0
86.696560710216,-25.05815052784,36.750525052505,1873672.4290559,207.35559893119,2544446.0494722,41.950525052505,0,0
86.696560891975,-25.060203654694,36.75495549555,1873672.4290559,207.35559893119,2544446.0494722,41.95495549555,0,0
86.696561073735,-25.062256781548,36.759385938594,1873672.4290559,207.35559893119,2544446.0494722,41.959385938594,0,0
86.696561255494,-25.064309908402,36.763816381638,1873672.4290559,207.35559893119,2544446.0494722,41.963816381638,0,0
86.696561437253,-25.066363035256,36.768246824682,1873672.4290559,207.35559893119,2544446.0494722,41.968246824682,0,0
86.696561619012,-25.068416162111,36.772677267727,1873672.4290559,207.35559893119,2544446.0494722,41.972677267727,0,0
86.696561800772,-25.070469288965,36.777107710771,1873672.4290559,207.35559893119,2544446.0494722,41.977107710771,0,0
86.696561982531,-25.072522415819,36.781538153815,1873672.4290559,207.35559893119,2544446.0494722,41.981538153815,0,0
86.69656216429,-25.074575542673,36.78596859686,1873672.4290559,207.35559893119,2544446.0494722,41.98596859686,0,0
86.696562346049,-25.076628669527,36.790399039904,1873672.4290559,207.35559893119,2544446.0494722,41.990399039904,0,0
86.696562527808,-25.078681796381,36.794829482948,1873672.4290559,207.35559893119,2544446.0494722,41.994829482948,0,0
86.696562709568,-25.080734923235,36.799259925993,1873672.4290559,207.35559893119,2544446.0494722,41.999259925993,0,0
86.696562891327,-25.082788050089,36.803690369037,1873672.4290559,207.35559893119,2544446.0494722,42.003690369037,0,0
86.696563073086,-25.084841176943,36.808120812081,1873672.4290559,207.35559893119,2544446.0494722,42.008120812081,0,0
86.696563254845,-25.086894303798,36.812551255126,1873672.4290559,207.35559893119,2544446.0494722,42.012551255126,0,0
86.696563436605,-25.088947430652,36.81698169817,1873672.4290559,207.35559893119,2544446.0494722,42.01698169817,0,0
86.696563618364,-25.091000557506,36.821412141214,1873672.4290559,207.35559893119,2544446.0494722,42.021412141214,0,0
86.696563800123,-25.09305368436,36.825842584258,1873672.4290559,207.35559893119,2544446.0494722,42.025842584258,0,0
86.696563981882,-25.095106811214,36.830273027303,1873672.4290559,207.35559893119,2544446.0494722,42.030273027303,0,0
86.696564163641,-25.097159938068,36.834703470347,1873672.4290559,207.35559893119,2544446.0494722,42.034703470347,0,0
86.696564345401,-25.099213064922,36.839133913391,1873672.4290559,207.35559893119,2544446.0494722,42.039133913391,0,0
86.69656452716,-25.101266191776,36.843564356436,1873672.4290559,207.35559893119,2544446.0494722,42.043564356436,0,0
86.696564708919,-25.10331931863,36.84799479948,1873672.4290559,207.35559893119,2544446.0494722,42.04799479948,0,0
86.696564890678,-25.105372445485,36.852425242524,1873672.4290559,207.35559893119,2544446.0494722,42.052425242524,0,0
86.696565072438,-25.107425572339,36.856855685569,1873672.4290559,207.35559893119,2544446.0494722,42.056855685569,0,0
86.696565254197,-25.109478699193,36.861286128613,1873672.4290559,207.35559893119,2544446.0494722,42.061286128613,0,0
86.696565435956,-25.111531826047,36.865716571657,1873672.4290559,207.35559893119,2544446.0494722,42.065716571657,0,0
86.696565617715,-25.113584952901,36.870147014701,1873672.4290559,207.35559893119,2544446.0494722,42.070147014701,0,0
86.696565799474,-25.115638079755,36.874577457746,1873672.4290559,207.35559893119,2544446.0494722,42.074577457746,0,0
86.696565981234,-25.117691206609,36.87900790079,1873672.4290559,207.35559893119,2544446.0494722,42.07900790079,0,0
86.696566162993,-25.119744333463,36.883438343834,1873672.4290559,207.35559893119,2544446.0494722,42.083438343834,0,0
86.696566344752,-25.121797460317,36.887868786879,1873672.4290559,207.35559893119,2544446.0494722,42.087868786879,0,0
86.696566526511,-25.123850587172,36.892299229923,1873672.4290559,207.35559893119,2544446.0494722,42.092299229923,0,0
86.696566708271,-25.125903714026,36.896729672967,1873672.4290559,207.35559893119,2544446.0494722,42.096729672967,0,0
86.69656689003,-25.12795684088,36.901160116012,1873672.4290559,207.35559893119,2544446.0494722,42.101160116012,0,0
86.696567071789,-25.130009967734,36.905590559056,1873672.4290559,207.35559893119,2544446.0494722,42.105590559056,0,0
86.696567253548,-25.132063094588,36.9100210021,1873672.4290559,207.35559893119,2544446.0494722,42.1100210021,0,0
86.696567435308,-25.134116221442,36.914451445145,1873672.4290559,207.35559893119,2544446.0494722,42.114451445145,0,0
86.696567617067,-25.136169348296,36.918881888189,1873672.4290559,207.35559893119,2544446.0494722,42.118881888189,0,0
86.696567798826,-25.13822247515,36.923312331233,1873672.4290559,207.35559893119,2544446.0494722,42.123312331233,0,0
86.696567980585,-25.140275602005,36.927742774277,1873672.4290559,207.35559893119,2544446.0494722,42.127742774277,0,0
86.696568162344,-25.142328728859,36.932173217322,1873672.4290559,207.35559893119,2544446.0494722,42.132173217322,0,0
86.696568344104,-25.144381855713,36.936603660366,1873672.4290559,207.35559893119,2544446.0494722,42.136603660366,0,0
86.696568525863,-25.146434982567,36.94103410341,1873672.4290559,207.35559893119,2544446.0494722,42.14103410341,0,0
86.696568707622,-25.148488109421,36.945464546455,1873672.4290559,207.35559893119,2544446.0494722,42.145464546455,0,0
86.696568889381,-25.150541236275,36.949894989499,1873672.4290559,207.35559893119,2544446.0494722,42.149894989499,0,0
86.696569071141,-25.152594363129,36.954325432543,1873672.4290559,207.35559893119,2544446.0494722,42.154325432543,0,0
86.6965692529,-25.154647489983,36.958755875588,1873672.4290559,207.35559893119,2544446.0494722,42.158755875588,0,0
86.696569434659,-25.156700616837,36.963186318632,1873672.4290559,207.35559893119,2544446.0494722,42.163186318632,0,0
86.696569616418,-25.158753743692,36.967616761676,1873672.4290559,207.35559893119,2544446.0494722,42.167616761676,0,0
86.696569798177,-25.160806870546,36.97204720472,1873672.4290559,207.35559893119,2544446.0494722,42.17204720472,0,0
86.696569979937,-25.1628599974,36.976477647765,1873672.4290559,207.35559893119,2544446.0494722,42.176477647765,0,0
86.696570161696,-25.164913124254,36.980908090809,1873672.4290559,207.35559893119,2544446.0494722,42.180908090809,0,0
86.696570343455,-25.166966251108,36.985338533853,1873672.4290559,207.35559893119,2544446.0494722,42.185338533853,0,0
86.696570525214,-25.169019377962,36.989768976898,1873672.4290559,207.35559893119,2544446.0494722,42.189768976898,0,0
86.696570706974,-25.171072504816,36.994199419942,1873672.4290559,207.35559893119,2544446.0494722,42.194199419942,0,0
86.696570888733,-25.17312563167,36.998629862986,1873672.4290559,207.35559893119,2544446.0494722,42.198629862986,0,0
86.696571070492,-25.175178758524,37.003060306031,1873672.4290559,207.35559893119,2544446.0494722,42.203060306031,0,0
86.696571252251,-25.177231885379,37.007490749075,1873672.4290559,207.35559893119,2544446.0494722,42.207490749075,0,0
86.696571434011,-25.179285012233,37.011921192119,1873672.4290559,207.35559893119,2544446.0494722,42.211921192119,0,0
86.69657161577,-25.181338139087,37.016351635164,1873672.4290559,207.35559893119,2544446.0494722,42.216351635164,0,0
86.696571797529,-25.183391265941,37.020782078208,1873672.4290559,207.35559893119,2544446.0494722,42.220782078208,0,0
86.696571979288,-25.185444392795,37.025212521252,1873672.4290559,207.35559893119,2544446.0494722,42.225212521252,0,0
86.696572161047,-25.187497519649,37.029642964296,1873672.4290559,207.35559893119,2544446.0494722,42.229642964296,0,0
86.696572342807,-25.189550646503,37.034073407341,1873672.4290559,207.35559893119,2544446.0494722,42.234073407341,0,0
86.696572524566,-25.191603773357,37.038503850385,1873672.4290559,207.35559893119,2544446.0494722,42.238503850385,0,0
86.696572706325,-25.193656900211,37.042934293429,1873672.4290559,207.35559893119,2544446.0494722,42.242934293429,0,0
86.696572888084,-25.195710027066,37.047364736474,1873672.4290559,207.35559893119,2544446.0494722,42.247364736474,0,0
86.696573069844,-25.19776315392,37.051795179518,1873672.4290559,207.35559893119,2544446.0494722,42.251795179518,0,0
86.696573251603,-25.199816280774,37.056225622562,1873672.4290559,207.35559893119,2544446.0494722,42.256225622562,0,0
86.696573433362,-25.201869407628,37.060656065607,1873672.4290559,207.35559893119,2544446.0494722,42.260656065607,0,0
86.696573615121,-25.203922534482,37.065086508651,1873672.4290559,207.35559893119,2544446.0494722,42.265086508651,0,0
86.69657379688,-25.205975661336,37.069516951695,1873672.4290559,207.35559893119,2544446.0494722,42.269516951695,0,0
86.69657397864,-25.20802878819,37.073947394739,1873672.4290559,207.35559893119,2544446.0494722,42.273947394739,0,0
86.696574160399,-25.210081915044,37.078377837784,1873672.4290559,207.35559893119,2544446.0494722,42.278377837784,0,0
86.696574342158,-25.212135041898,37.082808280828,1873672.4290559,207.35559893119,2544446.0494722,42.282808280828,0,0
86.696574523917,-25.214188168753,37.087238723872,1873672.4290559,207.35559893119,2544446.0494722,42.287238723872,0,0
86.696574705677,-25.216241295607,37.091669166917,1873672.4290559,207.35559893119,2544446.0494722,42.291669166917,0,0
86.696574887436,-25.218294422461,37.096099609961,1873672.4290559,207.35559893119,2544446.0494722,42.296099609961,0,0
86.696575069195,-25.220347549315,37.100530053005,1873672.4290559,207.35559893119,2544446.0494722,42.300530053005,0,0
86.696575250954,-25.222400676169,37.10496049605,1873672.4290559,207.35559893119,2544446.0494722,42.30496049605,0,0
86.696575432713,-25.224453803023,37.109390939094,1873672.4290559,207.35559893119,2544446.0494722,42.309390939094,0,0
86.696575614473,-25.226506929877,37.113821382138,1873672.4290559,207.35559893119,2544446.0494722,42.313821382138,0,0
86.696575796232,-25.228560056731,37.118251825183,1873672.4290559,207.35559893119,2544446.0494722,42.318251825183,0,0
86.696575977991,-25.230613183585,37.122682268227,1873672.4290559,207.35559893119,2544446.0494722,42.322682268227,0,0
86.69657615975,-25.23266631044,37.127112711271,1873672.4290559,207.35559893119,2544446.0494722,42.327112711271,0,0
86.69657634151,-25.234719437294,37.131543154315,1873672.4290559,207.35559893119,2544446.0494722,42.331543154315,0,0
86.696576523269,-25.236772564148,37.13597359736,1873672.4290559,207.35559893119,2544446.0494722,42.33597359736,0,0
86.696576705028,-25.238825691002,37.140404040404,1873672.4290559,207.35559893119,2544446.0494722,42.340404040404,0,0
86.696576886787,-25.240878817856,37.144834483448,1873672.4290559,207.35559893119,2544446.0494722,42.344834483448,0,0
86.696577068546,-25.24293194471,37.149264926493,1873672.4290559,207.35559893119,2544446.0494722,42.349264926493,0,0
86.696577250306,-25.244985071564,37.153695369537,1873672.4290559,207.35559893119,2544446.0494722,42.353695369537,0,0
86.696577432065,-25.247038198418,37.158125812581,1873672.4290559,207.35559893119,2544446.0494722,42.358125812581,0,0
86.696577613824,-25.249091325272,37.162556255626,1873672.4290559,207.35559893119,2544446.0494722,42.362556255626,0,0
86.696577795583,-25.251144452127,37.16698669867,1873672.4290559,207.35559893119,2544446.0494722,42.36698669867,0,0
86.696577977343,-25.253197578981,37.171417141714,1873672.4290559,207.35559893119,2544446.0494722,42.371417141714,0,0
86.696578159102,-25.255250705835,37.175847584758,1873672.4290559,207.35559893119,2544446.0494722,42.375847584758,0,0
86.696578340861,-25.257303832689,37.180278027803,1873672.4290559,207.35559893119,2544446.0494722,42.380278027803,0,0
86.69657852262,-25.259356959543,37.184708470847,1873672.4290559,207.35559893119,2544446.0494722,42.384708470847,0,0
86.69657870438,-25.261410086397,37.189138913891,1873672.4290559,207.35559893119,2544446.0494722,42.389138913891,0,0
86.696578886139,-25.263463213251,37.193569356936,1873672.4290559,207.35559893119,2544446.0494722,42.393569356936,0,0
86.696579067898,-25.265516340105,37.19799979998,1873672.4290559,207.35559893119,2544446.0494722,42.39799979998,0,0
86.696579249657,-25.26756946696,37.202430243024,1873672.4290559,207.35559893119,2544446.0494722,42.402430243024,0,0
86.696579431416,-25.269622593814,37.206860686069,1873672.4290559,207.35559893119,2544446.0494722,42.406860686069,0,0
86.696579613176,-25.271675720668,37.211291129113,1873672.4290559,207.35559893119,2544446.0494722,42.411291129113,0,0
86.696579794935,-25.273728847522,37.215721572157,1873672.4290559,207.35559893119,2544446.0494722,42.415721572157,0,0
86.696579976694,-25.275781974376,37.220152015202,1873672.4290559,207.35559893119,2544446.0494722,42.420152015202,0,0
86.696580158453,-25.27783510123,37.224582458246,1873672.4290559,207.35559893119,2544446.0494722,42.424582458246,0,0
86.696580340213,-25.279888228084,37.22901290129,1873672.4290559,207.35559893119,2544446.0494722,42.42901290129,0,0
86.696580521972,-25.281941354938,37.233443344334,1873672.4290559,207.35559893119,2544446.0494722,42.433443344334,0,0
86.696580703731,-25.283994481792,37.237873787379,1873672.4290559,207.35559893119,2544446.0494722,42.437873787379,0,0
86.69658088549,-25.286047608647,37.242304230423,1873672.4290559,207.35559893119,2544446.0494722,42.442304230423,0,0
86.696581067249,-25.288100735501,37.246734673467,1873672.4290559,207.35559893119,2544446.0494722,42.446734673467,0,0
86.696581249009,-25.290153862355,37.251165116512,1873672.4290559,207.35559893119,2544446.0494722,42.451165116512,0,0
86.696581430768,-25.292206989209,37.255595559556,1873672.4290559,207.35559893119,2544446.0494722,42.455595559556,0,0
86.696581612527,-25.294260116063,37.2600260026,1873672.4290559,207.35559893119,2544446.0494722,42.4600260026,0,0
86.696581794286,-25.296313242917,37.264456445645,1873672.4290559,207.35559893119,2544446.0494722,42.464456445645,0,0
86.696581976046,-25.298366369771,37.268886888689,1873672.4290559,207.35559893119,2544446.0494722,42.468886888689,0,0
86.696582157805,-25.300419496625,37.273317331733,1873672.4290559,207.35559893119,2544446.0494722,42.473317331733,0,0
86.696582339564,-25.302472623479,37.277747774777,1873672.4290559,207.35559893119,2544446.0494722,42.477747774777,0,0
86.696582521323,-25.304525750334,37.282178217822,1873672.4290559,207.35559893119,2544446.0494722,42.482178217822,0,0
86.696582703082,-25.306578877188,37.286608660866,1873672.4290559,207.35559893119,2544446.0494722,42.486608660866,0,0
86.696582884842,-25.308632004042,37.29103910391,1873672.4290559,207.35559893119,2544446.0494722,42.49103910391,0,0
86.696583066601,-25.310685130896,37.295469546955,1873672.4290559,207.35559893119,2544446.0494722,42.495469546955,0,0
86.69658324836,-25.31273825775,37.299899989999,1873672.4290559,207.35559893119,2544446.0494722,42.499899989999,0,0
86.696583430119,-25.314791384604,37.304330433043,1873672.4290559,207.35559893119,2544446.0494722,42.504330433043,0,0
86.696583611879,-25.316844511458,37.308760876088,1873672.4290559,207.35559893119,2544446.0494722,42.508760876088,0,0
86.696583793638,-25.318897638312,37.313191319132,1873672.4290559,207.35559893119,2544446.0494722,42.513191319132,0,0
86.696583975397,-25.320950765166,37.317621762176,1873672.4290559,207.35559893119,2544446.0494722,42.517621762176,0,0
86.696584157156,-25.323003892021,37.322052205221,1873672.4290559,207.35559893119,2544446.0494722,42.522052205221,0,0
86.696584338915,-25.325057018875,37.326482648265,1873672.4290559,207.35559893119,2544446.0494722,42.526482648265,0,0
86.696584520675,-25.327110145729,37.330913091309,1873672.4290559,207.35559893119,2544446.0494722,42.530913091309,0,0
86.696584702434,-25.329163272583,37.335343534353,1873672.4290559,207.35559893119,2544446.0494722,42.535343534353,0,0
86.696584884193,-25.331216399437,37.339773977398,1873672.4290559,207.35559893119,2544446.0494722,42.539773977398,0,0
86.696585065952,-25.333269526291,37.344204420442,1873672.4290559,207.35559893119,2544446.0494722,42.544204420442,0,0
86.696585247712,-25.335322653145,37.348634863486,1873672.4290559,207.35559893119,2544446.0494722,42.548634863486,0,0
86.696585429471,-25.337375779999,37.353065306531,1873672.4290559,207.35559893119,2544446.0494722,42.553065306531,0,0
86.69658561123,-25.339428906853,37.357495749575,1873672.4290559,207.35559893119,2544446.0494722,42.557495749575,0,0
86.696585792989,-25.341482033708,37.361926192619,1873672.4290559,207.35559893119,2544446.0494722,42.561926192619,0,0
86.696585974749,-25.343535160562,37.366356635664,1873672.4290559,207.35559893119,2544446.0494722,42.566356635664,0,0
86.696586156508,-25.345588287416,37.370787078708,1873672.4290559,207.35559893119,2544446.0494722,42.570787078708,0,0
86.696586338267,-25.34764141427,37.375217521752,1873672.4290559,207.35559893119,2544446.0494722,42.575217521752,0,0
86.696586520026,-25.349694541124,37.379647964796,1873672.4290559,207.35559893119,2544446.0494722,42.579647964796,0,0
86.696586701785,-25.351747667978,37.384078407841,1873672.4290559,207.35559893119,2544446.0494722,42.584078407841,0,0
86.696586883545,-25.353800794832,37.388508850885,1873672.4290559,207.35559893119,2544446.0494722,42.588508850885,0,0
86.696587065304,-25.355853921686,37.392939293929,1873672.4290559,207.35559893119,2544446.0494722,42.592939293929,0,0
86.696587247063,-25.35790704854,37.397369736974,1873672.4290559,207.35559893119,2544446.0494722,42.597369736974,0,0
86.696587428822,-25.359960175395,37.401800180018,1873672.4290559,207.35559893119,2544446.0494722,42.601800180018,0,0
86.696587610582,-25.362013302249,37.406230623062,1873672.4290559,207.35559893119,2544446.0494722,42.606230623062,0,0
86.696587792341,-25.364066429103,37.410661066107,1873672.4290559,207.35559893119,2544446.0494722,42.610661066107,0,0
86.6965879741,-25.366119555957,37.415091509151,1873672.4290559,207.35559893119,2544446.0494722,42.615091509151,0,0
86.696588155859,-25.368172682811,37.419521952195,1873672.4290559,207.35559893119,2544446.0494722,42.619521952195,0,0
86.696588337618,-25.370225809665,37.42395239524,1873672.4290559,207.35559893119,2544446.0494722,42.62395239524,0,0
86.696588519378,-25.372278936519,37.428382838284,1873672.4290559,207.35559893119,2544446.0494722,42.628382838284,0,0
86.696588701137,-25.374332063373,37.432813281328,1873672.4290559,207.35559893119,2544446.0494722,42.632813281328,0,0
86.696588882896,-25.376385190227,37.437243724372,1873672.4290559,207.35559893119,2544446.0494722,42.637243724372,0,0
86.696589064655,-25.378438317082,37.441674167417,1873672.4290559,207.35559893119,2544446.0494722,42.641674167417,0,0
86.696589246415,-25.380491443936,37.446104610461,1873672.4290559,207.35559893119,2544446.0494722,42.646104610461,0,0
86.696589428174,-25.38254457079,37.450535053505,1873672.4290559,207.35559893119,2544446.0494722,42.650535053505,0,0
86.696589609933,-25.384597697644,37.45496549655,1873672.4290559,207.35559893119,2544446.0494722,42.65496549655,0,0
86.696589791692,-25.386650824498,37.459395939594,1873672.4290559,207.35559893119,2544446.0494722,42.659395939594,0,0
86.696589973451,-25.388703951352,37.463826382638,1873672.4290559,207.35559893119,2544446.0494722,42.663826382638,0,0
86.696590155211,-25.390757078206,37.468256825683,1873672.4290559,207.35559893119,2544446.0494722,42.668256825683,0,0
86.69659033697,-25.39281020506,37.472687268727,1873672.4290559,207.35559893119,2544446.0494722,42.672687268727,0,0
86.696590518729,-25.394863331915,37.477117711771,1873672.4290559,207.35559893119,2544446.0494722,42.677117711771,0,0
86.696590700488,-25.396916458769,37.481548154815,1873672.4290559,207.35559893119,2544446.0494722,42.681548154815,0,0
86.696590882248,-25.398969585623,37.48597859786,1873672.4290559,207.35559893119,2544446.0494722,42.68597859786,0,0
86.696591064007,-25.401022712477,37.490409040904,1873672.4290559,207.35559893119,2544446.0494722,42.690409040904,0,0
86.696591245766,-25.403075839331,37.494839483948,1873672.4290559,207.35559893119,2544446.0494722,42.694839483948,0,0
86.696591427525,-25.405128966185,37.499269926993,1873672.4290559,207.35559893119,2544446.0494722,42.699269926993,0,0
86.696591609284,-25.407182093039,37.503700370037,1873672.4290559,207.35559893119,2544446.0494722,42.703700370037,0,0
86.696591791044,-25.409235219893,37.508130813081,1873672.4290559,207.35559893119,2544446.0494722,42.708130813081,0,0
86.696591972803,-25.411288346747,37.512561256126,1873672.4290559,207.35559893119,2544446.0494722,42.712561256126,0,0
86.696592154562,-25.413341473602,37.51699169917,1873672.4290559,207.35559893119,2544446.0494722,42.71699169917,0,0
86.696592336321,-25.415394600456,37.521422142214,1873672.4290559,207.35559893119,2544446.0494722,42.721422142214,0,0
86.696592518081,-25.41744772731,37.525852585259,1873672.4290559,207.35559893119,2544446.0494722,42.725852585259,0,0
86.69659269984,-25.419500854164,37.530283028303,1873672.4290559,207.35559893119,2544446.0494722,42.730283028303,0,0
86.696592881599,-25.421553981018,37.534713471347,1873672.4290559,207.35559893119,2544446.0494722,42.734713471347,0,0
86.696593063358,-25.423607107872,37.539143914391,1873672.4290559,207.35559893119,2544446.0494722,42.739143914391,0,0
86.696593245118,-25.425660234726,37.543574357436,1873672.4290559,207.35559893119,2544446.0494722,42.743574357436,0,0
86.696593426877,-25.42771336158,37.54800480048,1873672.4290559,207.35559893119,2544446.0494722,42.74800480048,0,0
86.696593608636,-25.429766488434,37.552435243524,1873672.4290559,207.35559893119,2544446.0494722,42.752435243524,0,0
86.696593790395,-25.431819615289,37.556865686569,1873672.4290559,207.35559893119,2544446.0494722,42.756865686569,0,0
86.696593972154,-25.433872742143,37.561296129613,1873672.4290559,207.35559893119,2544446.0494722,42.761296129613,0,0
86.696594153914,-25.435925868997,37.565726572657,1873672.4290559,207.35559893119,2544446.0494722,42.765726572657,0,0
86.696594335673,-25.437978995851,37.570157015702,1873672.4290559,207.35559893119,2544446.0494722,42.770157015702,0,0
86.696594517432,-25.440032122705,37.574587458746,1873672.4290559,207.35559893119,2544446.0494722,42.774587458746,0,0
86.696594699191,-25.442085249559,37.57901790179,1873672.4290559,207.35559893119,2544446.0494722,42.77901790179,0,0
86.696594880951,-25.444138376413,37.583448344834,1873672.4290559,207.35559893119,2544446.0494722,42.783448344834,0,0
86.69659506271,-25.446191503267,37.587878787879,1873672.4290559,207.35559893119,2544446.0494722,42.787878787879,0,0
86.696595244469,-25.448244630121,37.592309230923,1873672.4290559,207.35559893119,2544446.0494722,42.792309230923,0,0
86.696595426228,-25.450297756976,37.596739673967,1873672.4290559,207.35559893119,2544446.0494722,42.796739673967,0,0
86.696595607987,-25.45235088383,37.601170117012,1873672.4290559,207.35559893119,2544446.0494722,42.801170117012,0,0
86.696595789747,-25.454404010684,37.605600560056,1873672.4290559,207.35559893119,2544446.0494722,42.805600560056,0,0
86.696595971506,-25.456457137538,37.6100310031,1873672.4290559,207.35559893119,2544446.0494722,42.8100310031,0,0
86.696596153265,-25.458510264392,37.614461446145,1873672.4290559,207.35559893119,2544446.0494722,42.814461446145,0,0
86.696596335024,-25.460563391246,37.618891889189,1873672.4290559,207.35559893119,2544446.0494722,42.818891889189,0,0
86.696596516784,-25.4626165181,37.623322332233,1873672.4290559,207.35559893119,2544446.0494722,42.823322332233,0,0
86.696596698543,-25.464669644954,37.627752775278,1873672.4290559,207.35559893119,2544446.0494722,42.827752775278,0,0
86.696596880302,-25.466722771808,37.632183218322,1873672.4290559,207.35559893119,2544446.0494722,42.832183218322,0,0
86.696597062061,-25.468775898663,37.636613661366,1873672.4290559,207.35559893119,2544446.0494722,42.836613661366,0,0
86.69659724382,-25.470829025517,37.64104410441,1873672.4290559,207.35559893119,2544446.0494722,42.84104410441,0,0
86.69659742558,-25.472882152371,37.645474547455,1873672.4290559,207.35559893119,2544446.0494722,42.845474547455,0,0
86.696597607339,-25.474935279225,37.649904990499,1873672.4290559,207.35559893119,2544446.0494722,42.849904990499,0,0
86.696597789098,-25.476988406079,37.654335433543,1873672.4290559,207.35559893119,2544446.0494722,42.854335433543,0,0
86.696597970857,-25.479041532933,37.658765876588,1873672.4290559,207.35559893119,2544446.0494722,42.858765876588,0,0
86.696598152617,-25.481094659787,37.663196319632,1873672.4290559,207.35559893119,2544446.0494722,42.863196319632,0,0
86.696598334376,-25.483147786641,37.667626762676,1873672.4290559,207.35559893119,2544446.0494722,42.867626762676,0,0
86.696598516135,-25.485200913495,37.672057205721,1873672.4290559,207.35559893119,2544446.0494722,42.872057205721,0,0
86.696598697894,-25.48725404035,37.676487648765,1873672.4290559,207.35559893119,2544446.0494722,42.876487648765,0,0
86.696598879653,-25.489307167204,37.680918091809,1873672.4290559,207.35559893119,2544446.0494722,42.880918091809,0,0
86.696599061413,-25.491360294058,37.685348534853,1873672.4290559,207.35559893119,2544446.0494722,42.885348534853,0,0
86.696599243172,-25.493413420912,37.689778977898,1873672.4290559,207.35559893119,2544446.0494722,42.889778977898,0,0
86.696599424931,-25.495466547766,37.694209420942,1873672.4290559,207.35559893119,2544446.0494722,42.894209420942,0,0
86.69659960669,-25.49751967462,37.698639863986,1873672.4290559,207.35559893119,2544446.0494722,42.898639863986,0,0
86.69659978845,-25.499572801474,37.703070307031,1873672.4290559,207.35559893119,2544446.0494722,42.903070307031,0,0
86.696599970209,-25.501625928328,37.707500750075,1873672.4290559,207.35559893119,2544446.0494722,42.907500750075,0,0
86.696600151968,-25.503679055182,37.711931193119,1873672.4290559,207.35559893119,2544446.0494722,42.911931193119,0,0
86.696600333727,-25.505732182037,37.716361636164,1873672.4290559,207.35559893119,2544446.0494722,42.916361636164,0,0
86.696600515486,-25.507785308891,37.720792079208,1873672.4290559,207.35559893119,2544446.0494722,42.920792079208,0,0
86.696600697246,-25.509838435745,37.725222522252,1873672.4290559,207.35559893119,2544446.0494722,42.925222522252,0,0
86.696600879005,-25.511891562599,37.729652965297,1873672.4290559,207.35559893119,2544446.0494722,42.929652965297,0,0
86.696601060764,-25.513944689453,37.734083408341,1873672.4290559,207.35559893119,2544446.0494722,42.934083408341,0,0
86.696601242523,-25.515997816307,37.738513851385,1873672.4290559,207.35559893119,2544446.0494722,42.938513851385,0,0
86.696601424283,-25.518050943161,37.742944294429,1873672.4290559,207.35559893119,2544446.0494722,42.942944294429,0,0
86.696601606042,-25.520104070015,37.747374737474,1873672.4290559,207.35559893119,2544446.0494722,42.947374737474,0,0
86.696601787801,-25.52215719687,37.751805180518,1873672.4290559,207.35559893119,2544446.0494722,42.951805180518,0,0
86.69660196956,-25.524210323724,37.756235623562,1873672.4290559,207.35559893119,2544446.0494722,42.956235623562,0,0
86.69660215132,-25.526263450578,37.760666066607,1873672.4290559,207.35559893119,2544446.0494722,42.960666066607,0,0
86.696602333079,-25.528316577432,37.765096509651,1873672.4290559,207.35559893119,2544446.0494722,42.965096509651,0,0
86.696602514838,-25.530369704286,37.769526952695,1873672.4290559,207.35559893119,2544446.0494722,42.969526952695,0,0
86.696602696597,-25.53242283114,37.77395739574,1873672.4290559,207.35559893119,2544446.0494722,42.97395739574,0,0
86.696602878356,-25.534475957994,37.778387838784,1873672.4290559,207.35559893119,2544446.0494722,42.978387838784,0,0
86.696603060116,-25.536529084848,37.782818281828,1873672.4290559,207.35559893119,2544446.0494722,42.982818281828,0,0
86.696603241875,-25.538582211702,37.787248724872,1873672.4290559,207.35559893119,2544446.0494722,42.987248724872,0,0
86.696603423634,-25.540635338557,37.791679167917,1873672.4290559,207.35559893119,2544446.0494722,42.991679167917,0,0
86.696603605393,-25.542688465411,37.796109610961,1873672.4290559,207.35559893119,2544446.0494722,42.996109610961,0,0
86.696603787153,-25.544741592265,37.800540054005,1873672.4290559,207.35559893119,2544446.0494722,43.000540054005,0,0
86.696603968912,-25.546794719119,37.80497049705,1873672.4290559,207.35559893119,2544446.0494722,43.00497049705,0,0
86.696604150671,-25.548847845973,37.809400940094,1873672.4290559,207.35559893119,2544446.0494722,43.009400940094,0,0
86.69660433243,-25.550900972827,37.813831383138,1873672.4290559,207.35559893119,2544446.0494722,43.013831383138,0,0
86.696604514189,-25.552954099681,37.818261826183,1873672.4290559,207.35559893119,2544446.0494722,43.018261826183,0,0
86.696604695949,-25.555007226535,37.822692269227,1873672.4290559,207.35559893119,2544446.0494722,43.022692269227,0,0
86.696604877708,-25.557060353389,37.827122712271,1873672.4290559,207.35559893119,2544446.0494722,43.027122712271,0,0
86.696605059467,-25.559113480244,37.831553155316,1873672.4290559,207.35559893119,2544446.0494722,43.031553155316,0,0
86.696605241226,-25.561166607098,37.83598359836,1873672.4290559,207.35559893119,2544446.0494722,43.03598359836,0,0
86.696605422986,-25.563219733952,37.840414041404,1873672.4290559,207.35559893119,2544446.0494722,43.040414041404,0,0
86.696605604745,-25.565272860806,37.844844484448,1873672.4290559,207.35559893119,2544446.0494722,43.044844484448,0,0
86.696605786504,-25.56732598766,37.849274927493,1873672.4290559,207.35559893119,2544446.0494722,43.049274927493,0,0
86.696605968263,-25.569379114514,37.853705370537,1873672.4290559,207.35559893119,2544446.0494722,43.053705370537,0,0
86.696606150022,-25.571432241368,37.858135813581,1873672.4290559,207.35559893119,2544446.0494722,43.058135813581,0,0
86.696606331782,-25.573485368222,37.862566256626,1873672.4290559,207.35559893119,2544446.0494722,43.062566256626,0,0
86.696606513541,-25.575538495076,37.86699669967,1873672.4290559,207.35559893119,2544446.0494722,43.06699669967,0,0
86.6966066953,-25.577591621931,37.871427142714,1873672.4290559,207.35559893119,2544446.0494722,43.071427142714,0,0
86.696606877059,-25.579644748785,37.875857585759,1873672.4290559,207.35559893119,2544446.0494722,43.075857585759,0,0
86.696607058819,-25.581697875639,37.880288028803,1873672.4290559,207.35559893119,2544446.0494722,43.080288028803,0,0
86.696607240578,-25.583751002493,37.884718471847,1873672.4290559,207.35559893119,2544446.0494722,43.084718471847,0,0
86.696607422337,-25.585804129347,37.889148914891,1873672.4290559,207.35559893119,2544446.0494722,43.089148914891,0,0
86.696607604096,-25.587857256201,37.893579357936,1873672.4290559,207.35559893119,2544446.0494722,43.093579357936,0,0
86.696607785856,-25.589910383055,37.89800980098,1873672.4290559,207.35559893119,2544446.0494722,43.09800980098,0,0
86.696607967615,-25.591963509909,37.902440244024,1873672.4290559,207.35559893119,2544446.0494722,43.102440244024,0,0
86.696608149374,-25.594016636763,37.906870687069,1873672.4290559,207.35559893119,2544446.0494722,43.106870687069,0,0
86.696608331133,-25.596069763618,37.911301130113,1873672.4290559,207.35559893119,2544446.0494722,43.111301130113,0,0
86.696608512892,-25.598122890472,37.915731573157,1873672.4290559,207.35559893119,2544446.0494722,43.115731573157,0,0
86.696608694652,-25.600176017326,37.920162016202,1873672.4290559,207.35559893119,2544446.0494722,43.120162016202,0,0
86.696608876411,-25.60222914418,37.924592459246,1873672.4290559,207.35559893119,2544446.0494722,43.124592459246,0,0
86.69660905817,-25.604282271034,37.92902290229,1873672.4290559,207.35559893119,2544446.0494722,43.12902290229,0,0
86.696609239929,-25.606335397888,37.933453345335,1873672.4290559,207.35559893119,2544446.0494722,43.133453345335,0,0
86.696609421689,-25.608388524742,37.937883788379,1873672.4290559,207.35559893119,2544446.0494722,43.137883788379,0,0
86.696609603448,-25.610441651596,37.942314231423,1873672.4290559,207.35559893119,2544446.0494722,43.142314231423,0,0
86.696609785207,-25.61249477845,37.946744674467,1873672.4290559,207.35559893119,2544446.0494722,43.146744674467,0,0
86.696609966966,-25.614547905305,37.951175117512,1873672.4290559,207.35559893119,2544446.0494722,43.151175117512,0,0
86.696610148725,-25.616601032159,37.955605560556,1873672.4290559,207.35559893119,2544446.0494722,43.155605560556,0,0
86.696610330485,-25.618654159013,37.9600360036,1873672.4290559,207.35559893119,2544446.0494722,43.1600360036,0,0
86.696610512244,-25.620707285867,37.964466446645,1873672.4290559,207.35559893119,2544446.0494722,43.164466446645,0,0
86.696610694003,-25.622760412721,37.968896889689,1873672.4290559,207.35559893119,2544446.0494722,43.168896889689,0,0
86.696610875762,-25.624813539575,37.973327332733,1873672.4290559,207.35559893119,2544446.0494722,43.173327332733,0,0
86.696611057522,-25.626866666429,37.977757775778,1873672.4290559,207.35559893119,2544446.0494722,43.177757775778,0,0
86.696611239281,-25.628919793283,37.982188218822,1873672.4290559,207.35559893119,2544446.0494722,43.182188218822,0,0
86.69661142104,-25.630972920137,37.986618661866,1873672.4290559,207.35559893119,2544446.0494722,43.186618661866,0,0
86.696611602799,-25.633026046992,37.99104910491,1873672.4290559,207.35559893119,2544446.0494722,43.19104910491,0,0
86.696611784558,-25.635079173846,37.995479547955,1873672.4290559,207.35559893119,2544446.0494722,43.195479547955,0,0
86.696611966318,-25.6371323007,37.999909990999,1873672.4290559,207.35559893119,2544446.0494722,43.199909990999,0,0
86.696612148077,-25.639185427554,38.004340434043,1873672.4290559,207.35559893119,2544446.0494722,43.204340434043,0,0
86.696612329836,-25.641238554408,38.008770877088,1873672.4290559,207.35559893119,2544446.0494722,43.208770877088,0,0
86.696612511595,-25.643291681262,38.013201320132,1873672.4290559,207.35559893119,2544446.0494722,43.213201320132,0,0
86.696612693355,-25.645344808116,38.017631763176,1873672.4290559,207.35559893119,2544446.0494722,43.217631763176,0,0
86.696612875114,-25.64739793497,38.022062206221,1873672.4290559,207.35559893119,2544446.0494722,43.222062206221,0,0
86.696613056873,-25.649451061824,38.026492649265,1873672.4290559,207.35559893119,2544446.0494722,43.226492649265,0,0
86.696613238632,-25.651504188679,38.030923092309,1873672.4290559,207.35559893119,2544446.0494722,43.230923092309,0,0
86.696613420392,-25.653557315533,38.035353535354,1873672.4290559,207.35559893119,2544446.0494722,43.235353535354,0,0
86.696613602151,-25.655610442387,38.039783978398,1873672.4290559,207.35559893119,2544446.0494722,43.239783978398,0,0
86.69661378391,-25.657663569241,38.044214421442,1873672.4290559,207.35559893119,2544446.0494722,43.244214421442,0,0
86.696613965669,-25.659716696095,38.048644864486,1873672.4290559,207.35559893119,2544446.0494722,43.248644864486,0,0
86.696614147428,-25.661769822949,38.053075307531,1873672.4290559,207.35559893119,2544446.0494722,43.253075307531,0,0
86.696614329188,-25.663822949803,38.057505750575,1873672.4290559,207.35559893119,2544446.0494722,43.257505750575,0,0
86.696614510947,-25.665876076657,38.061936193619,1873672.4290559,207.35559893119,2544446.0494722,43.261936193619,0,0
86.696614692706,-25.667929203512,38.066366636664,1873672.4290559,207.35559893119,2544446.0494722,43.266366636664,0,0
86.696614874465,-25.669982330366,38.070797079708,1873672.4290559,207.35559893119,2544446.0494722,43.270797079708,0,0
86.696615056225,-25.67203545722,38.075227522752,1873672.4290559,207.35559893119,2544446.0494722,43.275227522752,0,0
86.696615237984,-25.674088584074,38.079657965797,1873672.4290559,207.35559893119,2544446.0494722,43.279657965797,0,0
86.696615419743,-25.676141710928,38.084088408841,1873672.4290559,207.35559893119,2544446.0494722,43.284088408841,0,0
86.696615601502,-25.678194837782,38.088518851885,1873672.4290559,207.35559893119,2544446.0494722,43.288518851885,0,0
86.696615783261,-25.680247964636,38.092949294929,1873672.4290559,207.35559893119,2544446.0494722,43.292949294929,0,0
86.696615965021,-25.68230109149,38.097379737974,1873672.4290559,207.35559893119,2544446.0494722,43.297379737974,0,0
86.69661614678,-25.684354218344,38.101810181018,1873672.4290559,207.35559893119,2544446.0494722,43.301810181018,0,0
86.696616328539,-25.686407345199,38.106240624062,1873672.4290559,207.35559893119,2544446.0494722,43.306240624062,0,0
86.696616510298,-25.688460472053,38.110671067107,1873672.4290559,207.35559893119,2544446.0494722,43.310671067107,0,0
86.696616692058,-25.690513598907,38.115101510151,1873672.4290559,207.35559893119,2544446.0494722,43.315101510151,0,0
86.696616873817,-25.692566725761,38.119531953195,1873672.4290559,207.35559893119,2544446.0494722,43.319531953195,0,0
86.696617055576,-25.694619852615,38.12396239624,1873672.4290559,207.35559893119,2544446.0494722,43.32396239624,0,0
86.696617237335,-25.696672979469,38.128392839284,1873672.4290559,207.35559893119,2544446.0494722,43.328392839284,0,0
86.696617419094,-25.698726106323,38.132823282328,1873672.4290559,207.35559893119,2544446.0494722,43.332823282328,0,0
86.696617600854,-25.700779233177,38.137253725373,1873672.4290559,207.35559893119,2544446.0494722,43.337253725373,0,0
86.696617782613,-25.702832360031,38.141684168417,1873672.4290559,207.35559893119,2544446.0494722,43.341684168417,0,0
86.696617964372,-25.704885486886,38.146114611461,1873672.4290559,207.35559893119,2544446.0494722,43.346114611461,0,0
86.696618146131,-25.70693861374,38.150545054505,1873672.4290559,207.35559893119,2544446.0494722,43.350545054505,0,0
86.696618327891,-25.708991740594,38.15497549755,1873672.4290559,207.35559893119,2544446.0494722,43.35497549755,0,0
86.69661850965,-25.711044867448,38.159405940594,1873672.4290559,207.35559893119,2544446.0494722,43.359405940594,0,0
86.696618691409,-25.713097994302,38.163836383638,1873672.4290559,207.35559893119,2544446.0494722,43.363836383638,0,0
86.696618873168,-25.715151121156,38.168266826683,1873672.4290559,207.35559893119,2544446.0494722,43.368266826683,0,0
86.696619054927,-25.71720424801,38.172697269727,1873672.4290559,207.35559893119,2544446.0494722,43.372697269727,0,0
86.696619236687,-25.719257374864,38.177127712771,1873672.4290559,207.35559893119,2544446.0494722,43.377127712771,0,0
86.696619418446,-25.721310501718,38.181558155816,1873672.4290559,207.35559893119,2544446.0494722,43.381558155816,0,0
86.696619600205,-25.723363628573,38.18598859886,1873672.4290559,207.35559893119,2544446.0494722,43.38598859886,0,0
86.696619781964,-25.725416755427,38.190419041904,1873672.4290559,207.35559893119,2544446.0494722,43.390419041904,0,0
86.696619963724,-25.727469882281,38.194849484948,1873672.4290559,207.35559893119,2544446.0494722,43.394849484948,0,0
86.696620145483,-25.729523009135,38.199279927993,1873672.4290559,207.35559893119,2544446.0494722,43.399279927993,0,0
86.696620327242,-25.731576135989,38.203710371037,1873672.4290559,207.35559893119,2544446.0494722,43.403710371037,0,0
86.696620509001,-25.733629262843,38.208140814081,1873672.4290559,207.35559893119,2544446.0494722,43.408140814081,0,0
86.69662069076,-25.735682389697,38.212571257126,1873672.4290559,207.35559893119,2544446.0494722,43.412571257126,0,0
86.69662087252,-25.737735516551,38.21700170017,1873672.4290559,207.35559893119,2544446.0494722,43.41700170017,0,0
86.696621054279,-25.739788643405,38.221432143214,1873672.4290559,207.35559893119,2544446.0494722,43.421432143214,0,0
86.696621236038,-25.74184177026,38.225862586259,1873672.4290559,207.35559893119,2544446.0494722,43.425862586259,0,0
86.696621417797,-25.743894897114,38.230293029303,1873672.4290559,207.35559893119,2544446.0494722,43.430293029303,0,0
86.696621599557,-25.745948023968,38.234723472347,1873672.4290559,207.35559893119,2544446.0494722,43.434723472347,0,0
86.696621781316,-25.748001150822,38.239153915392,1873672.4290559,207.35559893119,2544446.0494722,43.439153915392,0,0
86.696621963075,-25.750054277676,38.243584358436,1873672.4290559,207.35559893119,2544446.0494722,43.443584358436,0,0
86.696622144834,-25.75210740453,38.24801480148,1873672.4290559,207.35559893119,2544446.0494722,43.44801480148,0,0
86.696622326594,-25.754160531384,38.252445244524,1873672.4290559,207.35559893119,2544446.0494722,43.452445244524,0,0
86.696622508353,-25.756213658238,38.256875687569,1873672.4290559,207.35559893119,2544446.0494722,43.456875687569,0,0
86.696622690112,-25.758266785092,38.261306130613,1873672.4290559,207.35559893119,2544446.0494722,43.461306130613,0,0
86.696622871871,-25.760319911947,38.265736573657,1873672.4290559,207.35559893119,2544446.0494722,43.465736573657,0,0
86.69662305363,-25.762373038801,38.270167016702,1873672.4290559,207.35559893119,2544446.0494722,43.470167016702,0,0
86.69662323539,-25.764426165655,38.274597459746,1873672.4290559,207.35559893119,2544446.0494722,43.474597459746,0,0
86.696623417149,-25.766479292509,38.27902790279,1873672.4290559,207.35559893119,2544446.0494722,43.47902790279,0,0
86.696623598908,-25.768532419363,38.283458345835,1873672.4290559,207.35559893119,2544446.0494722,43.483458345835,0,0
86.696623780667,-25.770585546217,38.287888788879,1873672.4290559,207.35559893119,2544446.0494722,43.487888788879,0,0
86.696623962427,-25.772638673071,38.292319231923,1873672.4290559,207.35559893119,2544446.0494722,43.492319231923,0,0
86.696624144186,-25.774691799925,38.296749674967,1873672.4290559,207.35559893119,2544446.0494722,43.496749674967,0,0
86.696624325945,-25.776744926779,38.301180118012,1873672.4290559,207.35559893119,2544446.0494722,43.501180118012,0,0
86.696624507704,-25.778798053634,38.305610561056,1873672.4290559,207.35559893119,2544446.0494722,43.505610561056,0,0
86.696624689463,-25.780851180488,38.3100410041,1873672.4290559,207.35559893119,2544446.0494722,43.5100410041,0,0
86.696624871223,-25.782904307342,38.314471447145,1873672.4290559,207.35559893119,2544446.0494722,43.514471447145,0,0
86.696625052982,-25.784957434196,38.318901890189,1873672.4290559,207.35559893119,2544446.0494722,43.518901890189,0,0
86.696625234741,-25.78701056105,38.323332333233,1873672.4290559,207.35559893119,2544446.0494722,43.523332333233,0,0
86.6966254165,-25.789063687904,38.327762776278,1873672.4290559,207.35559893119,2544446.0494722,43.527762776278,0,0
86.69662559826,-25.791116814758,38.332193219322,1873672.4290559,207.35559893119,2544446.0494722,43.532193219322,0,0
86.696625780019,-25.793169941612,38.336623662366,1873672.4290559,207.35559893119,2544446.0494722,43.536623662366,0,0
86.696625961778,-25.795223068467,38.341054105411,1873672.4290559,207.35559893119,2544446.0494722,43.541054105411,0,0
86.696626143537,-25.797276195321,38.345484548455,1873672.4290559,207.35559893119,2544446.0494722,43.545484548455,0,0
86.696626325296,-25.799329322175,38.349914991499,1873672.4290559,207.35559893119,2544446.0494722,43.549914991499,0,0
86.696626507056,-25.801382449029,38.354345434543,1873672.4290559,207.35559893119,2544446.0494722,43.554345434543,0,0
86.696626688815,-25.803435575883,38.358775877588,1873672.4290559,207.35559893119,2544446.0494722,43.558775877588,0,0
86.696626870574,-25.805488702737,38.363206320632,1873672.4290559,207.35559893119,2544446.0494722,43.563206320632,0,0
86.696627052333,-25.807541829591,38.367636763676,1873672.4290559,207.35559893119,2544446.0494722,43.567636763676,0,0
86.696627234093,-25.809594956445,38.372067206721,1873672.4290559,207.35559893119,2544446.0494722,43.572067206721,0,0
86.696627415852,-25.811648083299,38.376497649765,1873672.4290559,207.35559893119,2544446.0494722,43.576497649765,0,0
86.696627597611,-25.813701210154,38.380928092809,1873672.4290559,207.35559893119,2544446.0494722,43.580928092809,0,0
86.69662777937,-25.815754337008,38.385358535854,1873672.4290559,207.35559893119,2544446.0494722,43.585358535854,0,0
86.696627961129,-25.817807463862,38.389788978898,1873672.4290559,207.35559893119,2544446.0494722,43.589788978898,0,0
86.696628142889,-25.819860590716,38.394219421942,1873672.4290559,207.35559893119,2544446.0494722,43.594219421942,0,0
86.696628324648,-25.82191371757,38.398649864986,1873672.4290559,207.35559893119,2544446.0494722,43.598649864986,0,0
86.696628506407,-25.823966844424,38.403080308031,1873672.4290559,207.35559893119,2544446.0494722,43.603080308031,0,0
86.696628688166,-25.826019971278,38.407510751075,1873672.4290559,207.35559893119,2544446.0494722,43.607510751075,0,0
86.696628869926,-25.828073098132,38.411941194119,1873672.4290559,207.35559893119,2544446.0494722,43.611941194119,0,0
86.696629051685,-25.830126224986,38.416371637164,1873672.4290559,207.35559893119,2544446.0494722,43.616371637164,0,0
86.696629233444,-25.832179351841,38.420802080208,1873672.4290559,207.35559893119,2544446.0494722,43.620802080208,0,0
86.696629415203,-25.834232478695,38.425232523252,1873672.4290559,207.35559893119,2544446.0494722,43.625232523252,0,0
86.696629596963,-25.836285605549,38.429662966297,1873672.4290559,207.35559893119,2544446.0494722,43.629662966297,0,0
86.696629778722,-25.838338732403,38.434093409341,1873672.4290559,207.35559893119,2544446.0494722,43.634093409341,0,0
86.696629960481,-25.840391859257,38.438523852385,1873672.4290559,207.35559893119,2544446.0494722,43.638523852385,0,0
86.69663014224,-25.842444986111,38.44295429543,1873672.4290559,207.35559893119,2544446.0494722,43.64295429543,0,0
86.696630323999,-25.844498112965,38.447384738474,1873672.4290559,207.35559893119,2544446.0494722,43.647384738474,0,0
86.696630505759,-25.846551239819,38.451815181518,1873672.4290559,207.35559893119,2544446.0494722,43.651815181518,0,0
86.696630687518,-25.848604366673,38.456245624562,1873672.4290559,207.35559893119,2544446.0494722,43.656245624562,0,0
86.696630869277,-25.850657493528,38.460676067607,1873672.4290559,207.35559893119,2544446.0494722,43.660676067607,0,0
86.696631051036,-25.852710620382,38.465106510651,1873672.4290559,207.35559893119,2544446.0494722,43.665106510651,0,0
86.696631232796,-25.854763747236,38.469536953695,1873672.4290559,207.35559893119,2544446.0494722,43.669536953695,0,0
86.696631414555,-25.85681687409,38.47396739674,1873672.4290559,207.35559893119,2544446.0494722,43.67396739674,0,0
86.696631596314,-25.858870000944,38.478397839784,1873672.4290559,207.35559893119,2544446.0494722,43.678397839784,0,0
86.696631778073,-25.860923127798,38.482828282828,1873672.4290559,207.35559893119,2544446.0494722,43.682828282828,0,0
86.696631959832,-25.862976254652,38.487258725873,1873672.4290559,207.35559893119,2544446.0494722,43.687258725873,0,0
86.696632141592,-25.865029381506,38.491689168917,1873672.4290559,207.35559893119,2544446.0494722,43.691689168917,0,0
86.696632323351,-25.86708250836,38.496119611961,1873672.4290559,207.35559893119,2544446.0494722,43.696119611961,0,0
86.69663250511,-25.869135635215,38.500550055005,1873672.4290559,207.35559893119,2544446.0494722,43.700550055006,0,0
86.696632686869,-25.871188762069,38.50498049805,1873672.4290559,207.35559893119,2544446.0494722,43.70498049805,0,0
86.696632868629,-25.873241888923,38.509410941094,1873672.4290559,207.35559893119,2544446.0494722,43.709410941094,0,0
86.696633050388,-25.875295015777,38.513841384138,1873672.4290559,207.35559893119,2544446.0494722,43.713841384138,0,0
86.696633232147,-25.877348142631,38.518271827183,1873672.4290559,207.35559893119,2544446.0494722,43.718271827183,0,0
86.696633413906,-25.879401269485,38.522702270227,1873672.4290559,207.35559893119,2544446.0494722,43.722702270227,0,0
86.696633595665,-25.881454396339,38.527132713271,1873672.4290559,207.35559893119,2544446.0494722,43.727132713271,0,0
86.696633777425,-25.883507523193,38.531563156316,1873672.4290559,207.35559893119,2544446.0494722,43.731563156316,0,0
86.696633959184,-25.885560650047,38.53599359936,1873672.4290559,207.35559893119,2544446.0494722,43.73599359936,0,0
86.696634140943,-25.887613776902,38.540424042404,1873672.4290559,207.35559893119,2544446.0494722,43.740424042404,0,0
86.696634322702,-25.889666903756,38.544854485449,1873672.4290559,207.35559893119,2544446.0494722,43.744854485449,0,0
86.696634504462,-25.89172003061,38.549284928493,1873672.4290559,207.35559893119,2544446.0494722,43.749284928493,0,0
86.696634686221,-25.893773157464,38.553715371537,1873672.4290559,207.35559893119,2544446.0494722,43.753715371537,0,0
86.69663486798,-25.895826284318,38.558145814581,1873672.4290559,207.35559893119,2544446.0494722,43.758145814581,0,0
86.696635049739,-25.897879411172,38.562576257626,1873672.4290559,207.35559893119,2544446.0494722,43.762576257626,0,0
86.696635231499,-25.899932538026,38.56700670067,1873672.4290559,207.35559893119,2544446.0494722,43.76700670067,0,0
86.696635413258,-25.90198566488,38.571437143714,1873672.4290559,207.35559893119,2544446.0494722,43.771437143714,0,0
86.696635595017,-25.904038791734,38.575867586759,1873672.4290559,207.35559893119,2544446.0494722,43.775867586759,0,0
86.696635776776,-25.906091918589,38.580298029803,1873672.4290559,207.35559893119,2544446.0494722,43.780298029803,0,0
86.696635958535,-25.908145045443,38.584728472847,1873672.4290559,207.35559893119,2544446.0494722,43.784728472847,0,0
86.696636140295,-25.910198172297,38.589158915892,1873672.4290559,207.35559893119,2544446.0494722,43.789158915892,0,0
86.696636322054,-25.912251299151,38.593589358936,1873672.4290559,207.35559893119,2544446.0494722,43.793589358936,0,0
86.696636503813,-25.914304426005,38.59801980198,1873672.4290559,207.35559893119,2544446.0494722,43.79801980198,0,0
86.696636685572,-25.916357552859,38.602450245024,1873672.4290559,207.35559893119,2544446.0494722,43.802450245025,0,0
86.696636867332,-25.918410679713,38.606880688069,1873672.4290559,207.35559893119,2544446.0494722,43.806880688069,0,0
86.696637049091,-25.920463806567,38.611311131113,1873672.4290559,207.35559893119,2544446.0494722,43.811311131113,0,0
86.69663723085,-25.922516933422,38.615741574157,1873672.4290559,207.35559893119,2544446.0494722,43.815741574157,0,0
86.696637412609,-25.924570060276,38.620172017202,1873672.4290559,207.35559893119,2544446.0494722,43.820172017202,0,0
86.696637594368,-25.92662318713,38.624602460246,1873672.4290559,207.35559893119,2544446.0494722,43.824602460246,0,0
86.696637776128,-25.928676313984,38.62903290329,1873672.4290559,207.35559893119,2544446.0494722,43.82903290329,0,0
86.696637957887,-25.930729440838,38.633463346335,1873672.4290559,207.35559893119,2544446.0494722,43.833463346335,0,0
86.696638139646,-25.932782567692,38.637893789379,1873672.4290559,207.35559893119,2544446.0494722,43.837893789379,0,0
86.696638321405,-25.934835694546,38.642324232423,1873672.4290559,207.35559893119,2544446.0494722,43.842324232423,0,0
86.696638503165,-25.9368888214,38.646754675468,1873672.4290559,207.35559893119,2544446.0494722,43.846754675468,0,0
86.696638684924,-25.938941948254,38.651185118512,1873672.4290559,207.35559893119,2544446.0494722,43.851185118512,0,0
86.696638866683,-25.940995075109,38.655615561556,1873672.4290559,207.35559893119,2544446.0494722,43.855615561556,0,0
86.696639048442,-25.943048201963,38.6600460046,1873672.4290559,207.35559893119,2544446.0494722,43.8600460046,0,0
86.696639230201,-25.945101328817,38.664476447645,1873672.4290559,207.35559893119,2544446.0494722,43.864476447645,0,0
86.696639411961,-25.947154455671,38.668906890689,1873672.4290559,207.35559893119,2544446.0494722,43.868906890689,0,0
86.69663959372,-25.949207582525,38.673337333733,1873672.4290559,207.35559893119,2544446.0494722,43.873337333733,0,0
86.696639775479,-25.951260709379,38.677767776778,1873672.4290559,207.35559893119,2544446.0494722,43.877767776778,0,0
86.696639957238,-25.953313836233,38.682198219822,1873672.4290559,207.35559893119,2544446.0494722,43.882198219822,0,0
86.696640138998,-25.955366963087,38.686628662866,1873672.4290559,207.35559893119,2544446.0494722,43.886628662866,0,0
86.696640320757,-25.957420089941,38.691059105911,1873672.4290559,207.35559893119,2544446.0494722,43.891059105911,0,0
86.696640502516,-25.959473216796,38.695489548955,1873672.4290559,207.35559893119,2544446.0494722,43.895489548955,0,0
86.696640684275,-25.96152634365,38.699919991999,1873672.4290559,207.35559893119,2544446.0494722,43.899919991999,0,0
86.696640866034,-25.963579470504,38.704350435044,1873672.4290559,207.35559893119,2544446.0494722,43.904350435044,0,0
86.696641047794,-25.965632597358,38.708780878088,1873672.4290559,207.35559893119,2544446.0494722,43.908780878088,0,0
86.696641229553,-25.967685724212,38.713211321132,1873672.4290559,207.35559893119,2544446.0494722,43.913211321132,0,0
86.696641411333,-25.969738851141,38.717641764176,1873884.6632286,-974.46142149245,2541933.795558,43.917641764176,0,0
86.696641593176,-25.971791978303,38.722072207221,1873884.6632286,-974.46142149245,2541933.795558,43.922072207221,0,0
86.696641775019,-25.973845105465,38.726502650265,1873884.6632286,-974.46142149245,2541933.795558,43.926502650265,0,0
86.696641956862,-25.975898232627,38.730933093309,1873884.6632286,-974.46142149245,2541933.795558,43.930933093309,0,0
86.696642138705,-25.977951359789,38.735363536354,1873884.6632286,-974.46142149245,2541933.795558,43.935363536354,0,0
86.696642320548,-25.980004486951,38.739793979398,1873884.6632286,-974.46142149245,2541933.795558,43.939793979398,0,0
86.69664250246,-25.982057613885,38.744224422442,1874468.8701003,153.51655690658,2540500.5311751,43.944224422442,0,0
86.696642684388,-25.984110740767,38.748654865487,1874468.8701003,153.51655690658,2540500.5311751,43.948654865487,0,0
86.696642866316,-25.986163867649,38.753085308531,1874468.8701003,153.51655690658,2540500.5311751,43.953085308531,0,0
86.696643048244,-25.988216994532,38.757515751575,1874468.8701003,153.51655690658,2540500.5311751,43.957515751575,0,0
86.696643230172,-25.990270121414,38.761946194619,1874468.8701003,153.51655690658,2540500.5311751,43.961946194619,0,0
86.6966434121,-25.992323248296,38.766376637664,1874468.8701003,153.51655690658,2540500.5311751,43.966376637664,0,0
86.696643594028,-25.994376375179,38.770807080708,1874468.8701003,153.51655690658,2540500.5311751,43.970807080708,0,0
86.696643775955,-25.996429502061,38.775237523752,1874468.8701003,153.51655690658,2540500.5311751,43.975237523752,0,0
86.696643957883,-25.998482628943,38.779667966797,1874468.8701003,153.51655690658,2540500.5311751,43.979667966797,0,0
86.696644139811,-26.000535755826,38.784098409841,1874468.8701003,153.51655690658,2540500.5311751,43.984098409841,0,0
86.696644321739,-26.002588882708,38.788528852885,1874468.8701003,153.51655690658,2540500.5311751,43.988528852885,0,0
86.696644503667,-26.00464200959,38.79295929593,1874468.8701003,153.51655690658,2540500.5311751,43.99295929593,0,0
86.696644685595,-26.006695136473,38.797389738974,1874468.8701003,153.51655690658,2540500.5311751,43.997389738974,0,0
86.696644867523,-26.008748263355,38.801820182018,1874468.8701003,153.51655690658,2540500.5311751,44.001820182018,0,0
86.696645049451,-26.010801390237,38.806250625063,1874468.8701003,153.51655690658,2540500.5311751,44.006250625063,0,0
86.696645231379,-26.01285451712,38.810681068107,1874468.8701003,153.51655690658,2540500.5311751,44.010681068107,0,0
86.696645413306,-26.014907644002,38.815111511151,1874468.8701003,153.51655690658,2540500.5311751,44.015111511151,0,0
86.696645595234,-26.016960770884,38.819541954195,1874468.8701003,153.51655690658,2540500.5311751,44.019541954195,0,0
86.696645777162,-26.019013897767,38.82397239724,1874468.8701003,153.51655690658,2540500.5311751,44.02397239724,0,0
86.69664595909,-26.021067024649,38.828402840284,1874468.8701003,153.51655690658,2540500.5311751,44.028402840284,0,0
86.696646141018,-26.023120151531,38.832833283328,1874468.8701003,153.51655690658,2540500.5311751,44.032833283328,0,0
86.696646322946,-26.025173278414,38.837263726373,1874468.8701003,153.51655690658,2540500.5311751,44.037263726373,0,0
86.696646504874,-26.027226405296,38.841694169417,1874468.8701003,153.51655690658,2540500.5311751,44.041694169417,0,0
86.696646686802,-26.029279532178,38.846124612461,1874468.8701003,153.51655690658,2540500.5311751,44.046124612461,0,0
86.69664686873,-26.031332659061,38.850555055506,1874468.8701003,153.51655690658,2540500.5311751,44.050555055506,0,0
86.696647050657,-26.033385785943,38.85498549855,1874468.8701003,153.51655690658,2540500.5311751,44.05498549855,0,0
86.696647232585,-26.035438912825,38.859415941594,1874468.8701003,153.51655690658,2540500.5311751,44.059415941594,0,0
86.696647414513,-26.037492039707,38.863846384638,1874468.8701003,153.51655690658,2540500.5311751,44.063846384638,0,0
86.696647596441,-26.03954516659,38.868276827683,1874468.8701003,153.51655690658,2540500.5311751,44.068276827683,0,0
86.696647778369,-26.041598293472,38.872707270727,1874468.8701003,153.51655690658,2540500.5311751,44.072707270727,0,0
86.696647960297,-26.043651420354,38.877137713771,1874468.8701003,153.51655690658,2540500.5311751,44.077137713771,0,0
86.696648142225,-26.045704547237,38.881568156816,1874468.8701003,153.51655690658,2540500.5311751,44.081568156816,0,0
86.696648324153,-26.047757674119,38.88599859986,1874468.8701003,153.51655690658,2540500.5311751,44.08599859986,0,0
86.696648506081,-26.049810801001,38.890429042904,1874468.8701003,153.51655690658,2540500.5311751,44.090429042904,0,0
86.696648688008,-26.051863927884,38.894859485949,1874468.8701003,153.51655690658,2540500.5311751,44.094859485949,0,0
86.696648869936,-26.053917054766,38.899289928993,1874468.8701003,153.51655690658,2540500.5311751,44.099289928993,0,0
86.696649051864,-26.055970181648,38.903720372037,1874468.8701003,153.51655690658,2540500.5311751,44.103720372037,0,0
86.696649233792,-26.058023308531,38.908150815082,1874468.8701003,153.51655690658,2540500.5311751,44.108150815082,0,0
86.69664941572,-26.060076435413,38.912581258126,1874468.8701003,153.51655690658,2540500.5311751,44.112581258126,0,0
86.696649597648,-26.062129562295,38.91701170117,1874468.8701003,153.51655690658,2540500.5311751,44.11701170117,0,0
86.696649779576,-26.064182689178,38.921442144214,1874468.8701003,153.51655690658,2540500.5311751,44.121442144214,0,0
86.696649961504,-26.06623581606,38.925872587259,1874468.8701003,153.51655690658,2540500.5311751,44.125872587259,0,0
86.696650143432,-26.068288942942,38.930303030303,1874468.8701003,153.51655690658,2540500.5311751,44.130303030303,0,0
86.69665032536,-26.070342069825,38.934733473347,1874468.8701003,153.51655690658,2540500.5311751,44.134733473347,0,0
86.696650507287,-26.072395196707,38.939163916392,1874468.8701003,153.51655690658,2540500.5311751,44.139163916392,0,0
86.696650689215,-26.074448323589,38.943594359436,1874468.8701003,153.51655690658,2540500.5311751,44.143594359436,0,0
86.696650871143,-26.076501450472,38.94802480248,1874468.8701003,153.51655690658,2540500.5311751,44.14802480248,0,0
86.696651053071,-26.078554577354,38.952455245525,1874468.8701003,153.51655690658,2540500.5311751,44.152455245525,0,0
86.696651234999,-26.080607704236,38.956885688569,1874468.8701003,153.51655690658,2540500.5311751,44.156885688569,0,0
86.696651416927,-26.082660831119,38.961316131613,1874468.8701003,153.51655690658,2540500.5311751,44.161316131613,0,0
86.696651598855,-26.084713958001,38.965746574657,1874468.8701003,153.51655690658,2540500.5311751,44.165746574657,0,0
86.696651780783,-26.086767084883,38.970177017702,1874468.8701003,153.51655690658,2540500.5311751,44.170177017702,0,0
86.696651962711,-26.088820211766,38.974607460746,1874468.8701003,153.51655690658,2540500.5311751,44.174607460746,0,0
86.696652144638,-26.090873338648,38.97903790379,1874468.8701003,153.51655690658,2540500.5311751,44.17903790379,0,0
86.696652326566,-26.09292646553,38.983468346835,1874468.8701003,153.51655690658,2540500.5311751,44.183468346835,0,0
86.696652508494,-26.094979592413,38.987898789879,1874468.8701003,153.51655690658,2540500.5311751,44.187898789879,0,0
86.696652690422,-26.097032719295,38.992329232923,1874468.8701003,153.51655690658,2540500.5311751,44.192329232923,0,0
86.69665287235,-26.099085846177,38.996759675968,1874468.8701003,153.51655690658,2540500.5311751,44.196759675968,0,0
86.696653054278,-26.101138973059,39.001190119012,1874468.8701003,153.51655690658,2540500.5311751,44.201190119012,0,0
86.696653236206,-26.103192099942,39.005620562056,1874468.8701003,153.51655690658,2540500.5311751,44.205620562056,0,0
86.696653418134,-26.105245226824,39.010051005101,1874468.8701003,153.51655690658,2540500.5311751,44.210051005101,0,0
86.696653600062,-26.107298353706,39.014481448145,1874468.8701003,153.51655690658,2540500.5311751,44.214481448145,0,0
86.696653781989,-26.109351480589,39.018911891189,1874468.8701003,153.51655690658,2540500.5311751,44.218911891189,0,0
86.696653963917,-26.111404607471,39.023342334233,1874468.8701003,153.51655690658,2540500.5311751,44.223342334233,0,0
86.696654145845,-26.113457734353,39.027772777278,1874468.8701003,153.51655690658,2540500.5311751,44.227772777278,0,0
86.696654327773,-26.115510861236,39.032203220322,1874468.8701003,153.51655690658,2540500.5311751,44.232203220322,0,0
86.696654509701,-26.117563988118,39.036633663366,1874468.8701003,153.51655690658,2540500.5311751,44.236633663366,0,0
86.696654691629,-26.119617115,39.041064106411,1874468.8701003,153.51655690658,2540500.5311751,44.241064106411,0,0
86.696654873557,-26.121670241883,39.045494549455,1874468.8701003,153.51655690658,2540500.5311751,44.245494549455,0,0
86.696655055485,-26.123723368765,39.049924992499,1874468.8701003,153.51655690658,2540500.5311751,44.249924992499,0,0
86.696655237413,-26.125776495647,39.054355435544,1874468.8701003,153.51655690658,2540500.5311751,44.254355435544,0,0
86.696655419341,-26.12782962253,39.058785878588,1874468.8701003,153.51655690658,2540500.5311751,44.258785878588,0,0
86.696655601268,-26.129882749412,39.063216321632,1874468.8701003,153.51655690658,2540500.5311751,44.263216321632,0,0
86.696655783196,-26.131935876294,39.067646764676,1874468.8701003,153.51655690658,2540500.5311751,44.267646764676,0,0
86.696655965124,-26.133989003177,39.072077207721,1874468.8701003,153.51655690658,2540500.5311751,44.272077207721,0,0
86.696656147052,-26.136042130059,39.076507650765,1874468.8701003,153.51655690658,2540500.5311751,44.276507650765,0,0
86.69665632898,-26.138095256941,39.080938093809,1874468.8701003,153.51655690658,2540500.5311751,44.280938093809,0,0
86.696656510908,-26.140148383824,39.085368536854,1874468.8701003,153.51655690658,2540500.5311751,44.285368536854,0,0
86.696656692836,-26.142201510706,39.089798979898,1874468.8701003,153.51655690658,2540500.5311751,44.289798979898,0,0
86.696656874764,-26.144254637588,39.094229422942,1874468.8701003,153.51655690658,2540500.5311751,44.294229422942,0,0
86.696657056692,-26.146307764471,39.098659865987,1874468.8701003,153.51655690658,2540500.5311751,44.298659865987,0,0
86.696657238619,-26.148360891353,39.103090309031,1874468.8701003,153.51655690658,2540500.5311751,44.303090309031,0,0
86.696657420547,-26.150414018235,39.107520752075,1874468.8701003,153.51655690658,2540500.5311751,44.307520752075,0,0
86.696657602475,-26.152467145118,39.11195119512,1874468.8701003,153.51655690658,2540500.5311751,44.31195119512,0,0
86.696657784403,-26.154520272,39.116381638164,1874468.8701003,153.51655690658,2540500.5311751,44.316381638164,0,0
86.696657966331,-26.156573398882,39.120812081208,1874468.8701003,153.51655690658,2540500.5311751,44.320812081208,0,0
86.696658148259,-26.158626525765,39.125242524252,1874468.8701003,153.51655690658,2540500.5311751,44.325242524252,0,0
86.696658330187,-26.160679652647,39.129672967297,1874468.8701003,153.51655690658,2540500.5311751,44.329672967297,0,0
86.696658512115,-26.162732779529,39.134103410341,1874468.8701003,153.51655690658,2540500.5311751,44.334103410341,0,0
86.696658694043,-26.164785906412,39.138533853385,1874468.8701003,153.51655690658,2540500.5311751,44.338533853385,0,0
86.69665887597,-26.166839033294,39.14296429643,1874468.8701003,153.51655690658,2540500.5311751,44.34296429643,0,0
86.696659057898,-26.168892160176,39.147394739474,1874468.8701003,153.51655690658,2540500.5311751,44.347394739474,0,0
86.696659239826,-26.170945287058,39.151825182518,1874468.8701003,153.51655690658,2540500.5311751,44.351825182518,0,0
86.696659421754,-26.172998413941,39.156255625563,1874468.8701003,153.51655690658,2540500.5311751,44.356255625563,0,0
86.696659603682,-26.175051540823,39.160686068607,1874468.8701003,153.51655690658,2540500.5311751,44.360686068607,0,0
86.69665978561,-26.177104667705,39.165116511651,1874468.8701003,153.51655690658,2540500.5311751,44.365116511651,0,0
86.696659967538,-26.179157794588,39.169546954695,1874468.8701003,153.51655690658,2540500.5311751,44.369546954695,0,0
86.696660149466,-26.18121092147,39.17397739774,1874468.8701003,153.51655690658,2540500.5311751,44.37397739774,0,0
86.696660331394,-26.183264048352,39.178407840784,1874468.8701003,153.51655690658,2540500.5311751,44.378407840784,0,0
86.696660513321,-26.185317175235,39.182838283828,1874468.8701003,153.51655690658,2540500.5311751,44.382838283828,0,0
86.696660695249,-26.187370302117,39.187268726873,1874468.8701003,153.51655690658,2540500.5311751,44.387268726873,0,0
86.696660877177,-26.189423428999,39.191699169917,1874468.8701003,153.51655690658,2540500.5311751,44.391699169917,0,0
86.696661059105,-26.191476555882,39.196129612961,1874468.8701003,153.51655690658,2540500.5311751,44.396129612961,0,0
86.696661241033,-26.193529682764,39.200560056006,1874468.8701003,153.51655690658,2540500.5311751,44.400560056006,0,0
86.696661422961,-26.195582809646,39.20499049905,1874468.8701003,153.51655690658,2540500.5311751,44.40499049905,0,0
86.696661604889,-26.197635936529,39.209420942094,1874468.8701003,153.51655690658,2540500.5311751,44.409420942094,0,0
86.696661786817,-26.199689063411,39.213851385139,1874468.8701003,153.51655690658,2540500.5311751,44.413851385139,0,0
86.696661968745,-26.201742190293,39.218281828183,1874468.8701003,153.51655690658,2540500.5311751,44.418281828183,0,0
86.696662150672,-26.203795317176,39.222712271227,1874468.8701003,153.51655690658,2540500.5311751,44.422712271227,0,0
86.6966623326,-26.205848444058,39.227142714271,1874468.8701003,153.51655690658,2540500.5311751,44.427142714271,0,0
86.696662514528,-26.20790157094,39.231573157316,1874468.8701003,153.51655690658,2540500.5311751,44.431573157316,0,0
86.696662696456,-26.209954697823,39.23600360036,1874468.8701003,153.51655690658,2540500.5311751,44.43600360036,0,0
86.696662878384,-26.212007824705,39.240434043404,1874468.8701003,153.51655690658,2540500.5311751,44.440434043404,0,0
86.696663060312,-26.214060951587,39.244864486449,1874468.8701003,153.51655690658,2540500.5311751,44.444864486449,0,0
86.69666324224,-26.21611407847,39.249294929493,1874468.8701003,153.51655690658,2540500.5311751,44.449294929493,0,0
86.696663424168,-26.218167205352,39.253725372537,1874468.8701003,153.51655690658,2540500.5311751,44.453725372537,0,0
86.696663606096,-26.220220332234,39.258155815582,1874468.8701003,153.51655690658,2540500.5311751,44.458155815582,0,0
86.696663788024,-26.222273459117,39.262586258626,1874468.8701003,153.51655690658,2540500.5311751,44.462586258626,0,0
86.696663969951,-26.224326585999,39.26701670167,1874468.8701003,153.51655690658,2540500.5311751,44.46701670167,0,0
86.696664151879,-26.226379712881,39.271447144714,1874468.8701003,153.51655690658,2540500.5311751,44.471447144714,0,0
86.696664333807,-26.228432839764,39.275877587759,1874468.8701003,153.51655690658,2540500.5311751,44.475877587759,0,0
86.696664515735,-26.230485966646,39.280308030803,1874468.8701003,153.51655690658,2540500.5311751,44.480308030803,0,0
86.696664697663,-26.232539093528,39.284738473847,1874468.8701003,153.51655690658,2540500.5311751,44.484738473847,0,0
86.696664879591,-26.23459222041,39.289168916892,1874468.8701003,153.51655690658,2540500.5311751,44.489168916892,0,0
86.696665061519,-26.236645347293,39.293599359936,1874468.8701003,153.51655690658,2540500.5311751,44.493599359936,0,0
86.696665243447,-26.238698474175,39.29802980298,1874468.8701003,153.51655690658,2540500.5311751,44.49802980298,0,0
86.696665425375,-26.240751601057,39.302460246025,1874468.8701003,153.51655690658,2540500.5311751,44.502460246025,0,0
86.696665607302,-26.24280472794,39.306890689069,1874468.8701003,153.51655690658,2540500.5311751,44.506890689069,0,0
86.69666578923,-26.244857854822,39.311321132113,1874468.8701003,153.51655690658,2540500.5311751,44.511321132113,0,0
86.696665971158,-26.246910981704,39.315751575158,1874468.8701003,153.51655690658,2540500.5311751,44.515751575158,0,0
86.696666153086,-26.248964108587,39.320182018202,1874468.8701003,153.51655690658,2540500.5311751,44.520182018202,0,0
86.696666335014,-26.251017235469,39.324612461246,1874468.8701003,153.51655690658,2540500.5311751,44.524612461246,0,0
86.696666516942,-26.253070362351,39.32904290429,1874468.8701003,153.51655690658,2540500.5311751,44.52904290429,0,0
86.696666698872,-26.255123489233,39.333473347335,1874386.2442687,-139.83518385892,2540168.5027742,44.533473347335,0,0
86.696666880802,-26.257176616114,39.337903790379,1874386.2442687,-139.83518385892,2540168.5027742,44.537903790379,0,0
86.696667062732,-26.259229742996,39.342334233423,1874386.2442687,-139.83518385892,2540168.5027742,44.542334233423,0,0
86.696667244662,-26.261282869877,39.346764676468,1874386.2442687,-139.83518385892,2540168.5027742,44.546764676468,0,0
86.696667426592,-26.263335996759,39.351195119512,1874386.2442687,-139.83518385892,2540168.5027742,44.551195119512,0,0
86.696667608522,-26.26538912364,39.355625562556,1874386.2442687,-139.83518385892,2540168.5027742,44.555625562556,0,0
86.696667790453,-26.267442250522,39.360056005601,1874386.2442687,-139.83518385892,2540168.5027742,44.560056005601,0,0
86.696667972383,-26.269495377403,39.364486448645,1874386.2442687,-139.83518385892,2540168.5027742,44.564486448645,0,0
86.696668154313,-26.271548504285,39.368916891689,1874386.2442687,-139.83518385892,2540168.5027742,44.568916891689,0,0
86.696668336243,-26.273601631166,39.373347334733,1874386.2442687,-139.83518385892,2540168.5027742,44.573347334733,0,0
86.696668518173,-26.275654758048,39.377777777778,1874386.2442687,-139.83518385892,2540168.5027742,44.577777777778,0,0
86.696668700103,-26.277707884929,39.382208220822,1874386.2442687,-139.83518385892,2540168.5027742,44.582208220822,0,0
86.696668882033,-26.279761011811,39.386638663866,1874386.2442687,-139.83518385892,2540168.5027742,44.586638663866,0,0
86.696669063963,-26.281814138692,39.391069106911,1874386.2442687,-139.83518385892,2540168.5027742,44.591069106911,0,0
86.696669245894,-26.283867265573,39.395499549955,1874386.2442687,-139.83518385892,2540168.5027742,44.595499549955,0,0
86.696669427824,-26.285920392455,39.399929992999,1874386.2442687,-139.83518385892,2540168.5027742,44.599929992999,0,0
86.696669609754,-26.287973519336,39.404360436044,1874386.2442687,-139.83518385892,2540168.5027742,44.604360436044,0,0
86.696669791684,-26.290026646218,39.408790879088,1874386.2442687,-139.83518385892,2540168.5027742,44.608790879088,0,0
86.696669973614,-26.292079773099,39.413221322132,1874386.2442687,-139.83518385892,2540168.5027742,44.613221322132,0,0
86.696670155544,-26.294132899981,39.417651765177,1874386.2442687,-139.83518385892,2540168.5027742,44.617651765177,0,0
86.696670337474,-26.296186026862,39.422082208221,1874386.2442687,-139.83518385892,2540168.5027742,44.622082208221,0,0
86.696670519405,-26.298239153744,39.426512651265,1874386.2442687,-139.83518385892,2540168.5027742,44.626512651265,0,0
86.696670701335,-26.300292280625,39.430943094309,1874386.2442687,-139.83518385892,2540168.5027742,44.630943094309,0,0
86.696670883265,-26.302345407507,39.435373537354,1874386.2442687,-139.83518385892,2540168.5027742,44.635373537354,0,0
86.696671065195,-26.304398534388,39.439803980398,1874386.2442687,-139.83518385892,2540168.5027742,44.639803980398,0,0
86.696671247125,-26.30645166127,39.444234423442,1874386.2442687,-139.83518385892,2540168.5027742,44.644234423442,0,0
86.696671429055,-26.308504788151,39.448664866487,1874386.2442687,-139.83518385892,2540168.5027742,44.648664866487,0,0
86.696671610985,-26.310557915032,39.453095309531,1874386.2442687,-139.83518385892,2540168.5027742,44.653095309531,0,0
86.696671792915,-26.312611041914,39.457525752575,1874386.2442687,-139.83518385892,2540168.5027742,44.657525752575,0,0
86.696671974846,-26.314664168795,39.46195619562,1874386.2442687,-139.83518385892,2540168.5027742,44.66195619562,0,0
86.696672156776,-26.316717295677,39.466386638664,1874386.2442687,-139.83518385892,2540168.5027742,44.666386638664,0,0
86.696672338706,-26.318770422558,39.470817081708,1874386.2442687,-139.83518385892,2540168.5027742,44.670817081708,0,0
86.696672520636,-26.32082354944,39.475247524752,1874386.2442687,-139.83518385892,2540168.5027742,44.675247524752,0,0
86.696672702566,-26.322876676321,39.479677967797,1874386.2442687,-139.83518385892,2540168.5027742,44.679677967797,0,0
86.696672884496,-26.324929803203,39.484108410841,1874386.2442687,-139.83518385892,2540168.5027742,44.684108410841,0,0
86.696673066426,-26.326982930084,39.488538853885,1874386.2442687,-139.83518385892,2540168.5027742,44.688538853885,0,0
86.696673248356,-26.329036056966,39.49296929693,1874386.2442687,-139.83518385892,2540168.5027742,44.69296929693,0,0
86.696673430287,-26.331089183847,39.497399739974,1874386.2442687,-139.83518385892,2540168.5027742,44.697399739974,0,0
86.696673612217,-26.333142310729,39.501830183018,1874386.2442687,-139.83518385892,2540168.5027742,44.701830183018,0,0
86.696673794147,-26.33519543761,39.506260626063,1874386.2442687,-139.83518385892,2540168.5027742,44.706260626063,0,0
86.696673976077,-26.337248564492,39.510691069107,1874386.2442687,-139.83518385892,2540168.5027742,44.710691069107,0,0
86.696674158007,-26.339301691373,39.515121512151,1874386.2442687,-139.83518385892,2540168.5027742,44.715121512151,0,0
86.696674339937,-26.341354818254,39.519551955196,1874386.2442687,-139.83518385892,2540168.5027742,44.719551955196,0,0
86.696674521867,-26.343407945136,39.52398239824,1874386.2442687,-139.83518385892,2540168.5027742,44.72398239824,0,0
86.696674703798,-26.345461072017,39.528412841284,1874386.2442687,-139.83518385892,2540168.5027742,44.728412841284,0,0
86.696674885728,-26.347514198899,39.532843284328,1874386.2442687,-139.83518385892,2540168.5027742,44.732843284328,0,0
86.696675067658,-26.34956732578,39.537273727373,1874386.2442687,-139.83518385892,2540168.5027742,44.737273727373,0,0
86.696675249588,-26.351620452662,39.541704170417,1874386.2442687,-139.83518385892,2540168.5027742,44.741704170417,0,0
86.696675431518,-26.353673579543,39.546134613461,1874386.2442687,-139.83518385892,2540168.5027742,44.746134613461,0,0
86.696675613448,-26.355726706425,39.550565056506,1874386.2442687,-139.83518385892,2540168.5027742,44.750565056506,0,0
86.696675795378,-26.357779833306,39.55499549955,1874386.2442687,-139.83518385892,2540168.5027742,44.75499549955,0,0
86.696675977308,-26.359832960188,39.559425942594,1874386.2442687,-139.83518385892,2540168.5027742,44.759425942594,0,0
86.696676159239,-26.361886087069,39.563856385639,1874386.2442687,-139.83518385892,2540168.5027742,44.763856385639,0,0
86.696676341169,-26.363939213951,39.568286828683,1874386.2442687,-139.83518385892,2540168.5027742,44.768286828683,0,0
86.696676523099,-26.365992340832,39.572717271727,1874386.2442687,-139.83518385892,2540168.5027742,44.772717271727,0,0
86.696676705029,-26.368045467713,39.577147714771,1874386.2442687,-139.83518385892,2540168.5027742,44.777147714771,0,0
86.696676886959,-26.370098594595,39.581578157816,1874386.2442687,-139.83518385892,2540168.5027742,44.781578157816,0,0
86.696677068889,-26.372151721476,39.58600860086,1874386.2442687,-139.83518385892,2540168.5027742,44.78600860086,0,0
86.696677250819,-26.374204848358,39.590439043904,1874386.2442687,-139.83518385892,2540168.5027742,44.790439043904,0,0
86.69667743275,-26.376257975239,39.594869486949,1874386.2442687,-139.83518385892,2540168.5027742,44.794869486949,0,0
86.69667761468,-26.378311102121,39.599299929993,1874386.2442687,-139.83518385892,2540168.5027742,44.799299929993,0,0
86.69667779661,-26.380364229002,39.603730373037,1874386.2442687,-139.83518385892,2540168.5027742,44.803730373037,0,0
86.69667797854,-26.382417355884,39.608160816082,1874386.2442687,-139.83518385892,2540168.5027742,44.808160816082,0,0
86.69667816047,-26.384470482765,39.612591259126,1874386.2442687,-139.83518385892,2540168.5027742,44.812591259126,0,0
86.6966783424,-26.386523609647,39.61702170217,1874386.2442687,-139.83518385892,2540168.5027742,44.81702170217,0,0
86.69667852433,-26.388576736528,39.621452145215,1874386.2442687,-139.83518385892,2540168.5027742,44.821452145215,0,0
86.69667870626,-26.39062986341,39.625882588259,1874386.2442687,-139.83518385892,2540168.5027742,44.825882588259,0,0
86.696678888191,-26.392682990291,39.630313031303,1874386.2442687,-139.83518385892,2540168.5027742,44.830313031303,0,0
86.696679070121,-26.394736117172,39.634743474347,1874386.2442687,-139.83518385892,2540168.5027742,44.834743474347,0,0
86.696679252051,-26.396789244054,39.639173917392,1874386.2442687,-139.83518385892,2540168.5027742,44.839173917392,0,0
86.696679433981,-26.398842370935,39.643604360436,1874386.2442687,-139.83518385892,2540168.5027742,44.843604360436,0,0
86.696679615911,-26.400895497817,39.64803480348,1874386.2442687,-139.83518385892,2540168.5027742,44.84803480348,0,0
86.696679797841,-26.402948624698,39.652465246525,1874386.2442687,-139.83518385892,2540168.5027742,44.852465246525,0,0
86.696679979771,-26.40500175158,39.656895689569,1874386.2442687,-139.83518385892,2540168.5027742,44.856895689569,0,0
86.696680161702,-26.407054878461,39.661326132613,1874386.2442687,-139.83518385892,2540168.5027742,44.861326132613,0,0
86.696680343632,-26.409108005343,39.665756575658,1874386.2442687,-139.83518385892,2540168.5027742,44.865756575658,0,0
86.696680525562,-26.411161132224,39.670187018702,1874386.2442687,-139.83518385892,2540168.5027742,44.870187018702,0,0
86.696680707492,-26.413214259106,39.674617461746,1874386.2442687,-139.83518385892,2540168.5027742,44.874617461746,0,0
86.696680889422,-26.415267385987,39.67904790479,1874386.2442687,-139.83518385892,2540168.5027742,44.87904790479,0,0
86.696681071352,-26.417320512869,39.683478347835,1874386.2442687,-139.83518385892,2540168.5027742,44.883478347835,0,0
86.696681253282,-26.41937363975,39.687908790879,1874386.2442687,-139.83518385892,2540168.5027742,44.887908790879,0,0
86.696681435212,-26.421426766631,39.692339233923,1874386.2442687,-139.83518385892,2540168.5027742,44.892339233923,0,0
86.696681617143,-26.423479893513,39.696769676968,1874386.2442687,-139.83518385892,2540168.5027742,44.896769676968,0,0
86.696681799073,-26.425533020394,39.701200120012,1874386.2442687,-139.83518385892,2540168.5027742,44.901200120012,0,0
86.696681981003,-26.427586147276,39.705630563056,1874386.2442687,-139.83518385892,2540168.5027742,44.905630563056,0,0
86.696682162933,-26.429639274157,39.710061006101,1874386.2442687,-139.83518385892,2540168.5027742,44.910061006101,0,0
86.696682344863,-26.431692401039,39.714491449145,1874386.2442687,-139.83518385892,2540168.5027742,44.914491449145,0,0
86.696682526793,-26.43374552792,39.718921892189,1874386.2442687,-139.83518385892,2540168.5027742,44.918921892189,0,0
86.696682708723,-26.435798654802,39.723352335234,1874386.2442687,-139.83518385892,2540168.5027742,44.923352335234,0,0
86.696682890654,-26.437851781683,39.727782778278,1874386.2442687,-139.83518385892,2540168.5027742,44.927782778278,0,0
86.696683072584,-26.439904908565,39.732213221322,1874386.2442687,-139.83518385892,2540168.5027742,44.932213221322,0,0
86.696683254514,-26.441958035446,39.736643664366,1874386.2442687,-139.83518385892,2540168.5027742,44.936643664366,0,0
86.696683436444,-26.444011162328,39.741074107411,1874386.2442687,-139.83518385892,2540168.5027742,44.941074107411,0,0
86.696683618374,-26.446064289209,39.745504550455,1874386.2442687,-139.83518385892,2540168.5027742,44.945504550455,0,0
86.696683800304,-26.448117416091,39.749934993499,1874386.2442687,-139.83518385892,2540168.5027742,44.949934993499,0,0
86.696683982234,-26.450170542972,39.754365436544,1874386.2442687,-139.83518385892,2540168.5027742,44.954365436544,0,0
86.696684164164,-26.452223669853,39.758795879588,1874386.2442687,-139.83518385892,2540168.5027742,44.958795879588,0,0
86.696684346095,-26.454276796735,39.763226322632,1874386.2442687,-139.83518385892,2540168.5027742,44.963226322632,0,0
86.696684528025,-26.456329923616,39.767656765677,1874386.2442687,-139.83518385892,2540168.5027742,44.967656765677,0,0
86.696684709955,-26.458383050498,39.772087208721,1874386.2442687,-139.83518385892,2540168.5027742,44.972087208721,0,0
86.696684891885,-26.460436177379,39.776517651765,1874386.2442687,-139.83518385892,2540168.5027742,44.976517651765,0,0
86.696685073815,-26.462489304261,39.780948094809,1874386.2442687,-139.83518385892,2540168.5027742,44.980948094809,0,0
86.696685255745,-26.464542431142,39.785378537854,1874386.2442687,-139.83518385892,2540168.5027742,44.985378537854,0,0
86.696685437675,-26.466595558024,39.789808980898,1874386.2442687,-139.83518385892,2540168.5027742,44.989808980898,0,0
86.696685619605,-26.468648684905,39.794239423942,1874386.2442687,-139.83518385892,2540168.5027742,44.994239423942,0,0
86.696685801536,-26.470701811787,39.798669866987,1874386.2442687,-139.83518385892,2540168.5027742,44.998669866987,0,0
86.696685983466,-26.472754938668,39.803100310031,1874386.2442687,-139.83518385892,2540168.5027742,45.003100310031,0,0
86.696686165396,-26.47480806555,39.807530753075,1874386.2442687,-139.83518385892,2540168.5027742,45.007530753075,0,0
86.696686347326,-26.476861192431,39.81196119612,1874386.2442687,-139.83518385892,2540168.5027742,45.01196119612,0,0
86.696686529256,-26.478914319312,39.816391639164,1874386.2442687,-139.83518385892,2540168.5027742,45.016391639164,0,0
86.696686711186,-26.480967446194,39.820822082208,1874386.2442687,-139.83518385892,2540168.5027742,45.020822082208,0,0
86.696686893116,-26.483020573075,39.825252525253,1874386.2442687,-139.83518385892,2540168.5027742,45.025252525253,0,0
86.696687075047,-26.485073699957,39.829682968297,1874386.2442687,-139.83518385892,2540168.5027742,45.029682968297,0,0
86.696687256977,-26.487126826838,39.834113411341,1874386.2442687,-139.83518385892,2540168.5027742,45.034113411341,0,0
86.696687438907,-26.48917995372,39.838543854385,1874386.2442687,-139.83518385892,2540168.5027742,45.038543854385,0,0
86.696687620837,-26.491233080601,39.84297429743,1874386.2442687,-139.83518385892,2540168.5027742,45.04297429743,0,0
86.696687802767,-26.493286207483,39.847404740474,1874386.2442687,-139.83518385892,2540168.5027742,45.047404740474,0,0
86.696687984697,-26.495339334364,39.851835183518,1874386.2442687,-139.83518385892,2540168.5027742,45.051835183518,0,0
86.696688166627,-26.497392461246,39.856265626563,1874386.2442687,-139.83518385892,2540168.5027742,45.056265626563,0,0
86.696688348557,-26.499445588127,39.860696069607,1874386.2442687,-139.83518385892,2540168.5027742,45.060696069607,0,0
86.696688530488,-26.501498715009,39.865126512651,1874386.2442687,-139.83518385892,2540168.5027742,45.065126512651,0,0
86.696688712418,-26.50355184189,39.869556955696,1874386.2442687,-139.83518385892,2540168.5027742,45.069556955696,0,0
86.696688894348,-26.505604968771,39.87398739874,1874386.2442687,-139.83518385892,2540168.5027742,45.07398739874,0,0
86.696689076278,-26.507658095653,39.878417841784,1874386.2442687,-139.83518385892,2540168.5027742,45.078417841784,0,0
86.696689258208,-26.509711222534,39.882848284828,1874386.2442687,-139.83518385892,2540168.5027742,45.082848284828,0,0
86.696689440138,-26.511764349416,39.887278727873,1874386.2442687,-139.83518385892,2540168.5027742,45.087278727873,0,0
86.696689622068,-26.513817476297,39.891709170917,1874386.2442687,-139.83518385892,2540168.5027742,45.091709170917,0,0
86.696689803999,-26.515870603179,39.896139613961,1874386.2442687,-139.83518385892,2540168.5027742,45.096139613961,0,0
86.696689985929,-26.51792373006,39.900570057006,1874386.2442687,-139.83518385892,2540168.5027742,45.100570057006,0,0
86.696690167859,-26.519976856942,39.90500050005,1874386.2442687,-139.83518385892,2540168.5027742,45.10500050005,0,0
86.696690349789,-26.522029983823,39.909430943094,1874386.2442687,-139.83518385892,2540168.5027742,45.109430943094,0,0
86.696690531719,-26.524083110705,39.913861386139,1874386.2442687,-139.83518385892,2540168.5027742,45.113861386139,0,0
86.696690713649,-26.526136237586,39.918291829183,1874386.2442687,-139.83518385892,2540168.5027742,45.118291829183,0,0
86.696690895579,-26.528189364468,39.922722272227,1874386.2442687,-139.83518385892,2540168.5027742,45.122722272227,0,0
86.696691077509,-26.530242491349,39.927152715272,1874386.2442687,-139.83518385892,2540168.5027742,45.127152715272,0,0
86.69669125944,-26.53229561823,39.931583158316,1874386.2442687,-139.83518385892,2540168.5027742,45.131583158316,0,0
86.69669144137,-26.534348745112,39.93601360136,1874386.2442687,-139.83518385892,2540168.5027742,45.13601360136,0,0
86.6966916233,-26.536401871993,39.940444044404,1874386.2442687,-139.83518385892,2540168.5027742,45.140444044404,0,0
86.69669180523,-26.538454998875,39.944874487449,1874386.2442687,-139.83518385892,2540168.5027742,45.144874487449,0,0
86.69669198716,-26.540508125756,39.949304930493,1874386.2442687,-139.83518385892,2540168.5027742,45.149304930493,0,0
86.69669216909,-26.542561252638,39.953735373537,1874386.2442687,-139.83518385892,2540168.5027742,45.153735373537,0,0
86.69669235102,-26.544614379519,39.958165816582,1874386.2442687,-139.83518385892,2540168.5027742,45.158165816582,0,0
86.696692532951,-26.546667506401,39.962596259626,1874386.2442687,-139.83518385892,2540168.5027742,45.162596259626,0,0
86.696692714881,-26.548720633282,39.96702670267,1874386.2442687,-139.83518385892,2540168.5027742,45.16702670267,0,0
86.696692896811,-26.550773760164,39.971457145715,1874386.2442687,-139.83518385892,2540168.5027742,45.171457145715,0,0
86.696693078741,-26.552826887045,39.975887588759,1874386.2442687,-139.83518385892,2540168.5027742,45.175887588759,0,0
86.696693260671,-26.554880013927,39.980318031803,1874386.2442687,-139.83518385892,2540168.5027742,45.180318031803,0,0
86.696693442601,-26.556933140808,39.984748474847,1874386.2442687,-139.83518385892,2540168.5027742,45.184748474847,0,0
86.696693624531,-26.558986267689,39.989178917892,1874386.2442687,-139.83518385892,2540168.5027742,45.189178917892,0,0
86.696693806461,-26.561039394571,39.993609360936,1874386.2442687,-139.83518385892,2540168.5027742,45.193609360936,0,0
86.696693988392,-26.563092521452,39.99803980398,1874386.2442687,-139.83518385892,2540168.5027742,45.19803980398,0,0
86.696694170322,-26.565145648334,40.002470247025,1874386.2442687,-139.83518385892,2540168.5027742,45.202470247025,0,0
86.696694352252,-26.567198775215,40.006900690069,1874386.2442687,-139.83518385892,2540168.5027742,45.206900690069,0,0
86.696694534182,-26.569251902097,40.011331133113,1874386.2442687,-139.83518385892,2540168.5027742,45.211331133113,0,0
86.696694716112,-26.571305028978,40.015761576158,1874386.2442687,-139.83518385892,2540168.5027742,45.215761576158,0,0
86.696694898042,-26.57335815586,40.020192019202,1874386.2442687,-139.83518385892,2540168.5027742,45.220192019202,0,0
86.696695079972,-26.575411282741,40.024622462246,1874386.2442687,-139.83518385892,2540168.5027742,45.224622462246,0,0
86.696695261903,-26.577464409623,40.029052905291,1874386.2442687,-139.83518385892,2540168.5027742,45.229052905291,0,0
86.696695443833,-26.579517536504,40.033483348335,1874386.2442687,-139.83518385892,2540168.5027742,45.233483348335,0,0
86.696695625763,-26.581570663386,40.037913791379,1874386.2442687,-139.83518385892,2540168.5027742,45.237913791379,0,0
86.696695807693,-26.583623790267,40.042344234423,1874386.2442687,-139.83518385892,2540168.5027742,45.242344234423,0,0
86.696695989623,-26.585676917149,40.046774677468,1874386.2442687,-139.83518385892,2540168.5027742,45.246774677468,0,0
86.696696171553,-26.58773004403,40.051205120512,1874386.2442687,-139.83518385892,2540168.5027742,45.251205120512,0,0
86.696696353483,-26.589783170911,40.055635563556,1874386.2442687,-139.83518385892,2540168.5027742,45.255635563556,0,0
86.696696535413,-26.591836297793,40.060066006601,1874386.2442687,-139.83518385892,2540168.5027742,45.260066006601,0,0
86.696696717344,-26.593889424674,40.064496449645,1874386.2442687,-139.83518385892,2540168.5027742,45.264496449645,0,0
86.696696899274,-26.595942551556,40.068926892689,1874386.2442687,-139.83518385892,2540168.5027742,45.268926892689,0,0
86.696697081204,-26.597995678437,40.073357335734,1874386.2442687,-139.83518385892,2540168.5027742,45.273357335734,0,0
86.696697263134,-26.600048805319,40.077787778778,1874386.2442687,-139.83518385892,2540168.5027742,45.277787778778,0,0
86.696697445064,-26.6021019322,40.082218221822,1874386.2442687,-139.83518385892,2540168.5027742,45.282218221822,0,0
86.696697626994,-26.604155059082,40.086648664866,1874386.2442687,-139.83518385892,2540168.5027742,45.286648664866,0,0
86.696697808924,-26.606208185963,40.091079107911,1874386.2442687,-139.83518385892,2540168.5027742,45.291079107911,0,0
86.696697990854,-26.608261312845,40.095509550955,1874386.2442687,-139.83518385892,2540168.5027742,45.295509550955,0,0
86.696698172785,-26.610314439726,40.099939993999,1874386.2442687,-139.83518385892,2540168.5027742,45.299939993999,0,0
86.696698354715,-26.612367566608,40.104370437044,1874386.2442687,-139.83518385892,2540168.5027742,45.304370437044,0,0
86.696698536645,-26.614420693489,40.108800880088,1874386.2442687,-139.83518385892,2540168.5027742,45.308800880088,0,0
86.696698718575,-26.61647382037,40.113231323132,1874386.2442687,-139.83518385892,2540168.5027742,45.313231323132,0,0
86.696698900505,-26.618526947252,40.117661766177,1874386.2442687,-139.83518385892,2540168.5027742,45.317661766177,0,0
86.696699082435,-26.620580074133,40.122092209221,1874386.2442687,-139.83518385892,2540168.5027742,45.322092209221,0,0
86.696699264365,-26.622633201015,40.126522652265,1874386.2442687,-139.83518385892,2540168.5027742,45.326522652265,0,0
86.696699446296,-26.624686327896,40.13095309531,1874386.2442687,-139.83518385892,2540168.5027742,45.33095309531,0,0
86.696699628226,-26.626739454778,40.135383538354,1874386.2442687,-139.83518385892,2540168.5027742,45.335383538354,0,0
86.696699810156,-26.628792581659,40.139813981398,1874386.2442687,-139.83518385892,2540168.5027742,45.339813981398,0,0
86.696699992086,-26.630845708541,40.144244424442,1874386.2442687,-139.83518385892,2540168.5027742,45.344244424442,0,0
86.696700174016,-26.632898835422,40.148674867487,1874386.2442687,-139.83518385892,2540168.5027742,45.348674867487,0,0
86.696700355946,-26.634951962304,40.153105310531,1874386.2442687,-139.83518385892,2540168.5027742,45.353105310531,0,0
86.696700537876,-26.637005089185,40.157535753575,1874386.2442687,-139.83518385892,2540168.5027742,45.357535753575,0,0
86.696700719806,-26.639058216067,40.16196619662,1874386.2442687,-139.83518385892,2540168.5027742,45.36196619662,0,0
86.696700901737,-26.641111342948,40.166396639664,1874386.2442687,-139.83518385892,2540168.5027742,45.366396639664,0,0
86.696701083667,-26.643164469829,40.170827082708,1874386.2442687,-139.83518385892,2540168.5027742,45.370827082708,0,0
86.696701265597,-26.645217596711,40.175257525753,1874386.2442687,-139.83518385892,2540168.5027742,45.375257525753,0,0
86.696701447527,-26.647270723592,40.179687968797,1874386.2442687,-139.83518385892,2540168.5027742,45.379687968797,0,0
86.696701629457,-26.649323850474,40.184118411841,1874386.2442687,-139.83518385892,2540168.5027742,45.384118411841,0,0
86.696701811387,-26.651376977355,40.188548854885,1874386.2442687,-139.83518385892,2540168.5027742,45.388548854885,0,0
86.696701993317,-26.653430104237,40.19297929793,1874386.2442687,-139.83518385892,2540168.5027742,45.39297929793,0,0
86.696702175248,-26.655483231118,40.197409740974,1874386.2442687,-139.83518385892,2540168.5027742,45.397409740974,0,0
86.696702357178,-26.657536358,40.201840184018,1874386.2442687,-139.83518385892,2540168.5027742,45.401840184018,0,0
86.696702539108,-26.659589484881,40.206270627063,1874386.2442687,-139.83518385892,2540168.5027742,45.406270627063,0,0
86.696702721038,-26.661642611763,40.210701070107,1874386.2442687,-139.83518385892,2540168.5027742,45.410701070107,0,0
86.696702902968,-26.663695738644,40.215131513151,1874386.2442687,-139.83518385892,2540168.5027742,45.415131513151,0,0
86.696703084898,-26.665748865526,40.219561956196,1874386.2442687,-139.83518385892,2540168.5027742,45.419561956196,0,0
86.696703266828,-26.667801992407,40.22399239924,1874386.2442687,-139.83518385892,2540168.5027742,45.42399239924,0,0
86.696703448758,-26.669855119288,40.228422842284,1874386.2442687,-139.83518385892,2540168.5027742,45.428422842284,0,0
86.696703630689,-26.67190824617,40.232853285329,1874386.2442687,-139.83518385892,2540168.5027742,45.432853285329,0,0
86.696703812619,-26.673961373051,40.237283728373,1874386.2442687,-139.83518385892,2540168.5027742,45.437283728373,0,0
86.696703994549,-26.676014499933,40.241714171417,1874386.2442687,-139.83518385892,2540168.5027742,45.441714171417,0,0
86.696704176479,-26.678067626814,40.246144614461,1874386.2442687,-139.83518385892,2540168.5027742,45.446144614461,0,0
86.696704358409,-26.680120753696,40.250575057506,1874386.2442687,-139.83518385892,2540168.5027742,45.450575057506,0,0
86.696704540339,-26.682173880577,40.25500550055,1874386.2442687,-139.83518385892,2540168.5027742,45.45500550055,0,0
86.696704722269,-26.684227007459,40.259435943594,1874386.2442687,-139.83518385892,2540168.5027742,45.459435943594,0,0
86.6967049042,-26.68628013434,40.263866386639,1874386.2442687,-139.83518385892,2540168.5027742,45.463866386639,0,0
86.69670508613,-26.688333261222,40.268296829683,1874386.2442687,-139.83518385892,2540168.5027742,45.468296829683,0,0
86.69670526806,-26.690386388103,40.272727272727,1874386.2442687,-139.83518385892,2540168.5027742,45.472727272727,0,0
86.69670544999,-26.692439514985,40.277157715772,1874386.2442687,-139.83518385892,2540168.5027742,45.477157715772,0,0
86.69670563192,-26.694492641866,40.281588158816,1874386.2442687,-139.83518385892,2540168.5027742,45.481588158816,0,0
86.69670581385,-26.696545768748,40.28601860186,1874386.2442687,-139.83518385892,2540168.5027742,45.48601860186,0,0
86.69670599578,-26.698598895629,40.290449044904,1874386.2442687,-139.83518385892,2540168.5027742,45.490449044904,0,0
86.69670617771,-26.70065202251,40.294879487949,1874386.2442687,-139.83518385892,2540168.5027742,45.494879487949,0,0
86.696706359641,-26.702705149392,40.299309930993,1874386.2442687,-139.83518385892,2540168.5027742,45.499309930993,0,0
86.696706541571,-26.704758276273,40.303740374037,1874386.2442687,-139.83518385892,2540168.5027742,45.503740374037,0,0
86.696706723501,-26.706811403155,40.308170817082,1874386.2442687,-139.83518385892,2540168.5027742,45.508170817082,0,0
86.696706905431,-26.708864530036,40.312601260126,1874386.2442687,-139.83518385892,2540168.5027742,45.512601260126,0,0
86.696707087361,-26.710917656918,40.31703170317,1874386.2442687,-139.83518385892,2540168.5027742,45.51703170317,0,0
86.696707269291,-26.712970783799,40.321462146215,1874386.2442687,-139.83518385892,2540168.5027742,45.521462146215,0,0
86.696707451221,-26.715023910681,40.325892589259,1874386.2442687,-139.83518385892,2540168.5027742,45.525892589259,0,0
86.696707633152,-26.717077037562,40.330323032303,1874386.2442687,-139.83518385892,2540168.5027742,45.530323032303,0,0
86.696707815082,-26.719130164444,40.334753475348,1874386.2442687,-139.83518385892,2540168.5027742,45.534753475348,0,0
86.696707997012,-26.721183291325,40.339183918392,1874386.2442687,-139.83518385892,2540168.5027742,45.539183918392,0,0
86.696708178942,-26.723236418207,40.343614361436,1874386.2442687,-139.83518385892,2540168.5027742,45.543614361436,0,0
86.696708360872,-26.725289545088,40.34804480448,1874386.2442687,-139.83518385892,2540168.5027742,45.54804480448,0,0
86.696708542802,-26.727342671969,40.352475247525,1874386.2442687,-139.83518385892,2540168.5027742,45.552475247525,0,0
86.696708724732,-26.729395798851,40.356905690569,1874386.2442687,-139.83518385892,2540168.5027742,45.556905690569,0,0
86.696708906662,-26.731448925732,40.361336133613,1874386.2442687,-139.83518385892,2540168.5027742,45.561336133613,0,0
86.696709088593,-26.733502052614,40.365766576658,1874386.2442687,-139.83518385892,2540168.5027742,45.565766576658,0,0
86.696709270523,-26.735555179495,40.370197019702,1874386.2442687,-139.83518385892,2540168.5027742,45.570197019702,0,0
86.696709452453,-26.737608306377,40.374627462746,1874386.2442687,-139.83518385892,2540168.5027742,45.574627462746,0,0
86.696709634383,-26.739661433258,40.379057905791,1874386.2442687,-139.83518385892,2540168.5027742,45.579057905791,0,0
86.696709816313,-26.74171456014,40.383488348835,1874386.2442687,-139.83518385892,2540168.5027742,45.583488348835,0,0
86.696709998243,-26.743767687021,40.387918791879,1874386.2442687,-139.83518385892,2540168.5027742,45.587918791879,0,0
86.696710180173,-26.745820813903,40.392349234923,1874386.2442687,-139.83518385892,2540168.5027742,45.592349234923,0,0
86.696710362103,-26.747873940784,40.396779677968,1874386.2442687,-139.83518385892,2540168.5027742,45.596779677968,0,0
86.696710544034,-26.749927067666,40.401210121012,1874386.2442687,-139.83518385892,2540168.5027742,45.601210121012,0,0
86.696710725964,-26.751980194547,40.405640564056,1874386.2442687,-139.83518385892,2540168.5027742,45.605640564056,0,0
86.696710907894,-26.754033321428,40.410071007101,1874386.2442687,-139.83518385892,2540168.5027742,45.610071007101,0,0
86.696711089824,-26.75608644831,40.414501450145,1874386.2442687,-139.83518385892,2540168.5027742,45.614501450145,0,0
86.696711271754,-26.758139575191,40.418931893189,1874386.2442687,-139.83518385892,2540168.5027742,45.618931893189,0,0
86.696711453684,-26.760192702073,40.423362336234,1874386.2442687,-139.83518385892,2540168.5027742,45.623362336234,0,0
86.696711635614,-26.762245828954,40.427792779278,1874386.2442687,-139.83518385892,2540168.5027742,45.627792779278,0,0
86.696711817545,-26.764298955836,40.432223222322,1874386.2442687,-139.83518385892,2540168.5027742,45.632223222322,0,0
86.696711999475,-26.766352082717,40.436653665367,1874386.2442687,-139.83518385892,2540168.5027742,45.636653665367,0,0
86.696712181405,-26.768405209599,40.441084108411,1874386.2442687,-139.83518385892,2540168.5027742,45.641084108411,0,0
86.696712363335,-26.77045833648,40.445514551455,1874386.2442687,-139.83518385892,2540168.5027742,45.645514551455,0,0
86.696712545265,-26.772511463362,40.449944994499,1874386.2442687,-139.83518385892,2540168.5027742,45.649944994499,0,0
86.696712727195,-26.774564590243,40.454375437544,1874386.2442687,-139.83518385892,2540168.5027742,45.654375437544,0,0
86.696712909125,-26.776617717125,40.458805880588,1874386.2442687,-139.83518385892,2540168.5027742,45.658805880588,0,0
86.696713091055,-26.778670844006,40.463236323632,1874386.2442687,-139.83518385892,2540168.5027742,45.663236323632,0,0
86.696713272986,-26.780723970888,40.467666766677,1874386.2442687,-139.83518385892,2540168.5027742,45.667666766677,0,0
86.696713454916,-26.782777097769,40.472097209721,1874386.2442687,-139.83518385892,2540168.5027742,45.672097209721,0,0
86.696713636846,-26.78483022465,40.476527652765,1874386.2442687,-139.83518385892,2540168.5027742,45.676527652765,0,0
86.696713818776,-26.786883351532,40.48095809581,1874386.2442687,-139.83518385892,2540168.5027742,45.68095809581,0,0
86.696714000706,-26.788936478413,40.485388538854,1874386.2442687,-139.83518385892,2540168.5027742,45.685388538854,0,0
86.696714182636,-26.790989605295,40.489818981898,1874386.2442687,-139.83518385892,2540168.5027742,45.689818981898,0,0
86.696714364566,-26.793042732176,40.494249424942,1874386.2442687,-139.83518385892,2540168.5027742,45.694249424942,0,0
86.696714546497,-26.795095859058,40.498679867987,1874386.2442687,-139.83518385892,2540168.5027742,45.698679867987,0,0
86.696714728427,-26.797148985939,40.503110311031,1874386.2442687,-139.83518385892,2540168.5027742,45.703110311031,0,0
86.696714910357,-26.799202112821,40.507540754075,1874386.2442687,-139.83518385892,2540168.5027742,45.707540754075,0,0
86.696715092287,-26.801255239702,40.51197119712,1874386.2442687,-139.83518385892,2540168.5027742,45.71197119712,0,0
86.696715274217,-26.803308366584,40.516401640164,1874386.2442687,-139.83518385892,2540168.5027742,45.716401640164,0,0
86.696715456147,-26.805361493465,40.520832083208,1874386.2442687,-139.83518385892,2540168.5027742,45.720832083208,0,0
86.696715638077,-26.807414620347,40.525262526253,1874386.2442687,-139.83518385892,2540168.5027742,45.725262526253,0,0
86.696715820007,-26.809467747228,40.529692969297,1874386.2442687,-139.83518385892,2540168.5027742,45.729692969297,0,0
86.696716001938,-26.811520874109,40.534123412341,1874386.2442687,-139.83518385892,2540168.5027742,45.734123412341,0,0
86.696716183868,-26.813574000991,40.538553855386,1874386.2442687,-139.83518385892,2540168.5027742,45.738553855386,0,0
86.696716365798,-26.815627127872,40.54298429843,1874386.2442687,-139.83518385892,2540168.5027742,45.74298429843,0,0
86.696716547728,-26.817680254754,40.547414741474,1874386.2442687,-139.83518385892,2540168.5027742,45.747414741474,0,0
86.696716729658,-26.819733381635,40.551845184518,1874386.2442687,-139.83518385892,2540168.5027742,45.751845184518,0,0
86.696716911588,-26.821786508517,40.556275627563,1874386.2442687,-139.83518385892,2540168.5027742,45.756275627563,0,0
86.696717093518,-26.823839635398,40.560706070607,1874386.2442687,-139.83518385892,2540168.5027742,45.760706070607,0,0
86.696717275449,-26.82589276228,40.565136513651,1874386.2442687,-139.83518385892,2540168.5027742,45.765136513651,0,0
86.696717457379,-26.827945889161,40.569566956696,1874386.2442687,-139.83518385892,2540168.5027742,45.769566956696,0,0
86.696717639309,-26.829999016043,40.57399739974,1874386.2442687,-139.83518385892,2540168.5027742,45.77399739974,0,0
86.696717821239,-26.832052142924,40.578427842784,1874386.2442687,-139.83518385892,2540168.5027742,45.778427842784,0,0
86.696718003169,-26.834105269806,40.582858285829,1874386.2442687,-139.83518385892,2540168.5027742,45.782858285829,0,0
86.696718185099,-26.836158396687,40.587288728873,1874386.2442687,-139.83518385892,2540168.5027742,45.787288728873,0,0
86.696718367029,-26.838211523568,40.591719171917,1874386.2442687,-139.83518385892,2540168.5027742,45.791719171917,0,0
86.696718548959,-26.84026465045,40.596149614961,1874386.2442687,-139.83518385892,2540168.5027742,45.796149614961,0,0
86.69671873089,-26.842317777331,40.600580058006,1874386.2442687,-139.83518385892,2540168.5027742,45.800580058006,0,0
86.69671891282,-26.844370904213,40.60501050105,1874386.2442687,-139.83518385892,2540168.5027742,45.80501050105,0,0
86.69671909475,-26.846424031094,40.609440944094,1874386.2442687,-139.83518385892,2540168.5027742,45.809440944094,0,0
86.69671927668,-26.848477157976,40.613871387139,1874386.2442687,-139.83518385892,2540168.5027742,45.813871387139,0,0
86.69671945861,-26.850530284857,40.618301830183,1874386.2442687,-139.83518385892,2540168.5027742,45.818301830183,0,0
86.69671964054,-26.852583411739,40.622732273227,1874386.2442687,-139.83518385892,2540168.5027742,45.822732273227,0,0
86.69671982247,-26.85463653862,40.627162716272,1874386.2442687,-139.83518385892,2540168.5027742,45.827162716272,0,0
86.696720004401,-26.856689665502,40.631593159316,1874386.2442687,-139.83518385892,2540168.5027742,45.831593159316,0,0
86.696720186331,-26.858742792383,40.63602360236,1874386.2442687,-139.83518385892,2540168.5027742,45.83602360236,0,0
86.696720368261,-26.860795919265,40.640454045405,1874386.2442687,-139.83518385892,2540168.5027742,45.840454045405,0,0
86.696720550191,-26.862849046146,40.644884488449,1874386.2442687,-139.83518385892,2540168.5027742,45.844884488449,0,0
86.696720732121,-26.864902173027,40.649314931493,1874386.2442687,-139.83518385892,2540168.5027742,45.849314931493,0,0
86.696720914051,-26.866955299909,40.653745374537,1874386.2442687,-139.83518385892,2540168.5027742,45.853745374537,0,0
86.696721095981,-26.86900842679,40.658175817582,1874386.2442687,-139.83518385892,2540168.5027742,45.858175817582,0,0
86.696721277911,-26.871061553672,40.662606260626,1874386.2442687,-139.83518385892,2540168.5027742,45.862606260626,0,0
86.696721459842,-26.873114680553,40.66703670367,1874386.2442687,-139.83518385892,2540168.5027742,45.86703670367,0,0
86.696721641772,-26.875167807435,40.671467146715,1874386.2442687,-139.83518385892,2540168.5027742,45.871467146715,0,0
86.696721823702,-26.877220934316,40.675897589759,1874386.2442687,-139.83518385892,2540168.5027742,45.875897589759,0,0
86.696722005632,-26.879274061198,40.680328032803,1874386.2442687,-139.83518385892,2540168.5027742,45.880328032803,0,0
86.696722187562,-26.881327188079,40.684758475848,1874386.2442687,-139.83518385892,2540168.5027742,45.884758475848,0,0
86.696722369492,-26.883380314961,40.689188918892,1874386.2442687,-139.83518385892,2540168.5027742,45.889188918892,0,0
86.696722551422,-26.885433441842,40.693619361936,1874386.2442687,-139.83518385892,2540168.5027742,45.893619361936,0,0
86.696722733353,-26.887486568724,40.69804980498,1874386.2442687,-139.83518385892,2540168.5027742,45.89804980498,0,0
86.696722915283,-26.889539695605,40.702480248025,1874386.2442687,-139.83518385892,2540168.5027742,45.902480248025,0,0
86.696723097213,-26.891592822487,40.706910691069,1874386.2442687,-139.83518385892,2540168.5027742,45.906910691069,0,0
86.696723279143,-26.893645949368,40.711341134113,1874386.2442687,-139.83518385892,2540168.5027742,45.911341134113,0,0
86.696723461073,-26.895699076249,40.715771577158,1874386.2442687,-139.83518385892,2540168.5027742,45.915771577158,0,0
86.696723643003,-26.897752203131,40.720202020202,1874386.2442687,-139.83518385892,2540168.5027742,45.920202020202,0,0
86.696723824933,-26.899805330012,40.724632463246,1874386.2442687,-139.83518385892,2540168.5027742,45.924632463246,0,0
86.696724006863,-26.901858456894,40.729062906291,1874386.2442687,-139.83518385892,2540168.5027742,45.929062906291,0,0
86.696724188794,-26.903911583775,40.733493349335,1874386.2442687,-139.83518385892,2540168.5027742,45.933493349335,0,0
86.696724370724,-26.905964710657,40.737923792379,1874386.2442687,-139.83518385892,2540168.5027742,45.937923792379,0,0
86.696724552654,-26.908017837538,40.742354235424,1874386.2442687,-139.83518385892,2540168.5027742,45.942354235424,0,0
86.696724734584,-26.91007096442,40.746784678468,1874386.2442687,-139.83518385892,2540168.5027742,45.946784678468,0,0
86.696724916514,-26.912124091301,40.751215121512,1874386.2442687,-139.83518385892,2540168.5027742,45.951215121512,0,0
86.696725098444,-26.914177218183,40.755645564556,1874386.2442687,-139.83518385892,2540168.5027742,45.955645564556,0,0
86.696725280374,-26.916230345064,40.760076007601,1874386.2442687,-139.83518385892,2540168.5027742,45.960076007601,0,0
86.696725462304,-26.918283471946,40.764506450645,1874386.2442687,-139.83518385892,2540168.5027742,45.964506450645,0,0
86.696725644235,-26.920336598827,40.768936893689,1874386.2442687,-139.83518385892,2540168.5027742,45.968936893689,0,0
86.696725826165,-26.922389725708,40.773367336734,1874386.2442687,-139.83518385892,2540168.5027742,45.973367336734,0,0
86.696726008095,-26.92444285259,40.777797779778,1874386.2442687,-139.83518385892,2540168.5027742,45.977797779778,0,0
86.696726190025,-26.926495979471,40.782228222822,1874386.2442687,-139.83518385892,2540168.5027742,45.982228222822,0,0
86.696726371955,-26.928549106353,40.786658665867,1874386.2442687,-139.83518385892,2540168.5027742,45.986658665867,0,0
86.696726553885,-26.930602233234,40.791089108911,1874386.2442687,-139.83518385892,2540168.5027742,45.991089108911,0,0
86.696726735815,-26.932655360116,40.795519551955,1874386.2442687,-139.83518385892,2540168.5027742,45.995519551955,0,0
86.696726917746,-26.934708486997,40.799949994999,1874386.2442687,-139.83518385892,2540168.5027742,45.999949994999,0,0
86.696727099676,-26.936761613879,40.804380438044,1874386.2442687,-139.83518385892,2540168.5027742,46.004380438044,0,0
86.696727281606,-26.93881474076,40.808810881088,1874386.2442687,-139.83518385892,2540168.5027742,46.008810881088,0,0
86.696727463536,-26.940867867642,40.813241324132,1874386.2442687,-139.83518385892,2540168.5027742,46.013241324132,0,0
86.696727645466,-26.942920994523,40.817671767177,1874386.2442687,-139.83518385892,2540168.5027742,46.017671767177,0,0
86.696727827396,-26.944974121405,40.822102210221,1874386.2442687,-139.83518385892,2540168.5027742,46.022102210221,0,0
86.696728009326,-26.947027248286,40.826532653265,1874386.2442687,-139.83518385892,2540168.5027742,46.026532653265,0,0
86.696728191256,-26.949080375167,40.83096309631,1874386.2442687,-139.83518385892,2540168.5027742,46.03096309631,0,0
86.696728373187,-26.951133502049,40.835393539354,1874386.2442687,-139.83518385892,2540168.5027742,46.035393539354,0,0
86.696728555117,-26.95318662893,40.839823982398,1874386.2442687,-139.83518385892,2540168.5027742,46.039823982398,0,0
86.696728737047,-26.955239755812,40.844254425443,1874386.2442687,-139.83518385892,2540168.5027742,46.044254425443,0,0
86.696728918977,-26.957292882693,40.848684868487,1874386.2442687,-139.83518385892,2540168.5027742,46.048684868487,0,0
86.696729100907,-26.959346009575,40.853115311531,1874386.2442687,-139.83518385892,2540168.5027742,46.053115311531,0,0
86.696729282837,-26.961399136456,40.857545754575,1874386.2442687,-139.83518385892,2540168.5027742,46.057545754575,0,0
86.696729464767,-26.963452263338,40.86197619762,1874386.2442687,-139.83518385892,2540168.5027742,46.06197619762,0,0
86.696729646698,-26.965505390219,40.866406640664,1874386.2442687,-139.83518385892,2540168.5027742,46.066406640664,0,0
86.696729828628,-26.967558517101,40.870837083708,1874386.2442687,-139.83518385892,2540168.5027742,46.070837083708,0,0
86.696730010558,-26.969611643982,40.875267526753,1874386.2442687,-139.83518385892,2540168.5027742,46.075267526753,0,0
86.696730192488,-26.971664770864,40.879697969797,1874386.2442687,-139.83518385892,2540168.5027742,46.079697969797,0,0
86.696730374418,-26.973717897745,40.884128412841,1874386.2442687,-139.83518385892,2540168.5027742,46.084128412841,0,0
86.696730556348,-26.975771024626,40.888558855886,1874386.2442687,-139.83518385892,2540168.5027742,46.088558855886,0,0
86.696730738306,-26.977824151437,40.89298929893,1875001.154134,491.53653691285,2539732.4883681,46.09298929893,0,0
86.696730920297,-26.979877278164,40.897419741974,1875001.154134,491.53653691285,2539732.4883681,46.097419741974,0,0
86.696731102288,-26.981930404891,40.901850185018,1875001.154134,491.53653691285,2539732.4883681,46.101850185018,0,0
86.696731284279,-26.983983531617,40.906280628063,1875001.154134,491.53653691285,2539732.4883681,46.106280628063,0,0
86.69673146627,-26.986036658344,40.910711071107,1875001.154134,491.53653691285,2539732.4883681,46.110711071107,0,0
86.696731648261,-26.988089785071,40.915141514151,1875001.154134,491.53653691285,2539732.4883681,46.115141514151,0,0
86.696731830251,-26.990142911798,40.919571957196,1875001.154134,491.53653691285,2539732.4883681,46.119571957196,0,0
86.696732012242,-26.992196038525,40.92400240024,1875001.154134,491.53653691285,2539732.4883681,46.12400240024,0,0
86.696732194233,-26.994249165252,40.928432843284,1875001.154134,491.53653691285,2539732.4883681,46.128432843284,0,0
86.696732376224,-26.996302291979,40.932863286329,1875001.154134,491.53653691285,2539732.4883681,46.132863286329,0,0
86.696732558215,-26.998355418705,40.937293729373,1875001.154134,491.53653691285,2539732.4883681,46.137293729373,0,0
86.696732740206,-27.000408545432,40.941724172417,1875001.154134,491.53653691285,2539732.4883681,46.141724172417,0,0
86.696732922197,-27.002461672159,40.946154615462,1875001.154134,491.53653691285,2539732.4883681,46.146154615462,0,0
86.696733104187,-27.004514798886,40.950585058506,1875001.154134,491.53653691285,2539732.4883681,46.150585058506,0,0
86.696733286178,-27.006567925613,40.95501550155,1875001.154134,491.53653691285,2539732.4883681,46.15501550155,0,0
86.696733468169,-27.00862105234,40.959445944594,1875001.154134,491.53653691285,2539732.4883681,46.159445944594,0,0
86.69673365016,-27.010674179067,40.963876387639,1875001.154134,491.53653691285,2539732.4883681,46.163876387639,0,0
86.696733832151,-27.012727305794,40.968306830683,1875001.154134,491.53653691285,2539732.4883681,46.168306830683,0,0
86.696734014142,-27.01478043252,40.972737273727,1875001.154134,491.53653691285,2539732.4883681,46.172737273727,0,0
86.696734196167,-27.016833559359,40.977167716772,1874837.4525367,43.314392001934,2537557.967591,46.177167716772,0,0
86.696734378202,-27.018886686233,40.981598159816,1874837.4525367,43.314392001934,2537557.967591,46.181598159816,0,0
86.696734560238,-27.020939813107,40.98602860286,1874837.4525367,43.314392001934,2537557.967591,46.18602860286,0,0
86.696734742274,-27.022992939981,40.990459045905,1874837.4525367,43.314392001934,2537557.967591,46.190459045905,0,0
86.696734924309,-27.025046066855,40.994889488949,1874837.4525367,43.314392001934,2537557.967591,46.194889488949,0,0
86.696735106345,-27.027099193729,40.999319931993,1874837.4525367,43.314392001934,2537557.967591,46.199319931993,0,0
86.696735288381,-27.029152320603,41.003750375037,1874837.4525367,43.314392001934,2537557.967591,46.203750375038,0,0
86.696735470417,-27.031205447477,41.008180818082,1874837.4525367,43.314392001934,2537557.967591,46.208180818082,0,0
86.696735652452,-27.033258574351,41.012611261126,1874837.4525367,43.314392001934,2537557.967591,46.212611261126,0,0
86.696735834488,-27.035311701225,41.01704170417,1874837.4525367,43.314392001934,2537557.967591,46.21704170417,0,0
86.696736016524,-27.037364828099,41.021472147215,1874837.4525367,43.314392001934,2537557.967591,46.221472147215,0,0
86.696736198559,-27.039417954973,41.025902590259,1874837.4525367,43.314392001934,2537557.967591,46.225902590259,0,0
86.696736380595,-27.041471081847,41.030333033303,1874837.4525367,43.314392001934,2537557.967591,46.230333033303,0,0
86.696736562631,-27.043524208721,41.034763476348,1874837.4525367,43.314392001934,2537557.967591,46.234763476348,0,0
86.696736744666,-27.045577335595,41.039193919392,1874837.4525367,43.314392001934,2537557.967591,46.239193919392,0,0
86.696736926702,-27.047630462469,41.043624362436,1874837.4525367,43.314392001934,2537557.967591,46.243624362436,0,0
86.696737108738,-27.049683589343,41.048054805481,1874837.4525367,43.314392001934,2537557.967591,46.248054805481,0,0
86.696737290773,-27.051736716216,41.052485248525,1874837.4525367,43.314392001934,2537557.967591,46.252485248525,0,0
86.696737472809,-27.05378984309,41.056915691569,1874837.4525367,43.314392001934,2537557.967591,46.256915691569,0,0
86.696737654845,-27.055842969964,41.061346134613,1874837.4525367,43.314392001934,2537557.967591,46.261346134613,0,0
86.69673783688,-27.057896096838,41.065776577658,1874837.4525367,43.314392001934,2537557.967591,46.265776577658,0,0
86.696738018916,-27.059949223712,41.070207020702,1874837.4525367,43.314392001934,2537557.967591,46.270207020702,0,0
86.696738200952,-27.062002350586,41.074637463746,1874837.4525367,43.314392001934,2537557.967591,46.274637463746,0,0
86.696738382987,-27.06405547746,41.079067906791,1874837.4525367,43.314392001934,2537557.967591,46.279067906791,0,0
86.696738565023,-27.066108604334,41.083498349835,1874837.4525367,43.314392001934,2537557.967591,46.283498349835,0,0
86.696738747059,-27.068161731208,41.087928792879,1874837.4525367,43.314392001934,2537557.967591,46.287928792879,0,0
86.696738929094,-27.070214858082,41.092359235924,1874837.4525367,43.314392001934,2537557.967591,46.292359235924,0,0
86.69673911113,-27.072267984956,41.096789678968,1874837.4525367,43.314392001934,2537557.967591,46.296789678968,0,0
86.696739293166,-27.07432111183,41.101220122012,1874837.4525367,43.314392001934,2537557.967591,46.301220122012,0,0
86.696739475201,-27.076374238704,41.105650565057,1874837.4525367,43.314392001934,2537557.967591,46.305650565057,0,0
86.696739657237,-27.078427365578,41.110081008101,1874837.4525367,43.314392001934,2537557.967591,46.310081008101,0,0
86.696739839273,-27.080480492452,41.114511451145,1874837.4525367,43.314392001934,2537557.967591,46.314511451145,0,0
86.696740021308,-27.082533619326,41.118941894189,1874837.4525367,43.314392001934,2537557.967591,46.318941894189,0,0
86.696740203344,-27.0845867462,41.123372337234,1874837.4525367,43.314392001934,2537557.967591,46.323372337234,0,0
86.69674038538,-27.086639873074,41.127802780278,1874837.4525367,43.314392001934,2537557.967591,46.327802780278,0,0
86.696740567416,-27.088692999947,41.132233223322,1874837.4525367,43.314392001934,2537557.967591,46.332233223322,0,0
86.696740749451,-27.090746126821,41.136663666367,1874837.4525367,43.314392001934,2537557.967591,46.336663666367,0,0
86.696740931487,-27.092799253695,41.141094109411,1874837.4525367,43.314392001934,2537557.967591,46.341094109411,0,0
86.696741113523,-27.094852380569,41.145524552455,1874837.4525367,43.314392001934,2537557.967591,46.345524552455,0,0
86.696741295558,-27.096905507443,41.1499549955,1874837.4525367,43.314392001934,2537557.967591,46.3499549955,0,0
86.696741477594,-27.098958634317,41.154385438544,1874837.4525367,43.314392001934,2537557.967591,46.354385438544,0,0
86.69674165963,-27.101011761191,41.158815881588,1874837.4525367,43.314392001934,2537557.967591,46.358815881588,0,0
86.696741841665,-27.103064888065,41.163246324632,1874837.4525367,43.314392001934,2537557.967591,46.363246324632,0,0
86.696742023701,-27.105118014939,41.167676767677,1874837.4525367,43.314392001934,2537557.967591,46.367676767677,0,0
86.696742205737,-27.107171141813,41.172107210721,1874837.4525367,43.314392001934,2537557.967591,46.372107210721,0,0
86.696742387772,-27.109224268687,41.176537653765,1874837.4525367,43.314392001934,2537557.967591,46.376537653765,0,0
86.696742569808,-27.111277395561,41.18096809681,1874837.4525367,43.314392001934,2537557.967591,46.38096809681,0,0
86.696742751844,-27.113330522435,41.185398539854,1874837.4525367,43.314392001934,2537557.967591,46.385398539854,0,0
86.696742933879,-27.115383649309,41.189828982898,1874837.4525367,43.314392001934,2537557.967591,46.389828982898,0,0
86.696743115915,-27.117436776183,41.194259425943,1874837.4525367,43.314392001934,2537557.967591,46.394259425943,0,0
86.696743297951,-27.119489903057,41.198689868987,1874837.4525367,43.314392001934,2537557.967591,46.398689868987,0,0
86.696743479986,-27.121543029931,41.203120312031,1874837.4525367,43.314392001934,2537557.967591,46.403120312031,0,0
86.696743662022,-27.123596156805,41.207550755076,1874837.4525367,43.314392001934,2537557.967591,46.407550755076,0,0
86.696743844058,-27.125649283678,41.21198119812,1874837.4525367,43.314392001934,2537557.967591,46.41198119812,0,0
86.696744026093,-27.127702410552,41.216411641164,1874837.4525367,43.314392001934,2537557.967591,46.416411641164,0,0
86.696744208129,-27.129755537426,41.220842084208,1874837.4525367,43.314392001934,2537557.967591,46.420842084208,0,0
86.696744390165,-27.1318086643,41.225272527253,1874837.4525367,43.314392001934,2537557.967591,46.425272527253,0,0
86.6967445722,-27.133861791174,41.229702970297,1874837.4525367,43.314392001934,2537557.967591,46.429702970297,0,0
86.696744754236,-27.135914918048,41.234133413341,1874837.4525367,43.314392001934,2537557.967591,46.434133413341,0,0
86.696744936272,-27.137968044922,41.238563856386,1874837.4525367,43.314392001934,2537557.967591,46.438563856386,0,0
86.696745118308,-27.140021171796,41.24299429943,1874837.4525367,43.314392001934,2537557.967591,46.44299429943,0,0
86.696745300343,-27.14207429867,41.247424742474,1874837.4525367,43.314392001934,2537557.967591,46.447424742474,0,0
86.696745482379,-27.144127425544,41.251855185519,1874837.4525367,43.314392001934,2537557.967591,46.451855185519,0,0
86.696745664415,-27.146180552418,41.256285628563,1874837.4525367,43.314392001934,2537557.967591,46.456285628563,0,0
86.69674584645,-27.148233679292,41.260716071607,1874837.4525367,43.314392001934,2537557.967591,46.460716071607,0,0
86.696746028486,-27.150286806166,41.265146514651,1874837.4525367,43.314392001934,2537557.967591,46.465146514651,0,0
86.696746210522,-27.15233993304,41.269576957696,1874837.4525367,43.314392001934,2537557.967591,46.469576957696,0,0
86.696746392557,-27.154393059914,41.27400740074,1874837.4525367,43.314392001934,2537557.967591,46.47400740074,0,0
86.696746574593,-27.156446186788,41.278437843784,1874837.4525367,43.314392001934,2537557.967591,46.478437843784,0,0
86.696746756629,-27.158499313662,41.282868286829,1874837.4525367,43.314392001934,2537557.967591,46.482868286829,0,0
86.696746938664,-27.160552440536,41.287298729873,1874837.4525367,43.314392001934,2537557.967591,46.487298729873,0,0
86.6967471207,-27.162605567409,41.291729172917,1874837.4525367,43.314392001934,2537557.967591,46.491729172917,0,0
86.696747302736,-27.164658694283,41.296159615962,1874837.4525367,43.314392001934,2537557.967591,46.496159615962,0,0
86.696747484771,-27.166711821157,41.300590059006,1874837.4525367,43.314392001934,2537557.967591,46.500590059006,0,0
86.696747666807,-27.168764948031,41.30502050205,1874837.4525367,43.314392001934,2537557.967591,46.50502050205,0,0
86.696747848843,-27.170818074905,41.309450945095,1874837.4525367,43.314392001934,2537557.967591,46.509450945095,0,0
86.696748030878,-27.172871201779,41.313881388139,1874837.4525367,43.314392001934,2537557.967591,46.513881388139,0,0
86.696748212914,-27.174924328653,41.318311831183,1874837.4525367,43.314392001934,2537557.967591,46.518311831183,0,0
86.69674839495,-27.176977455527,41.322742274227,1874837.4525367,43.314392001934,2537557.967591,46.522742274227,0,0
86.696748576985,-27.179030582401,41.327172717272,1874837.4525367,43.314392001934,2537557.967591,46.527172717272,0,0
86.696748759021,-27.181083709275,41.331603160316,1874837.4525367,43.314392001934,2537557.967591,46.531603160316,0,0
86.696748941057,-27.183136836149,41.33603360336,1874837.4525367,43.314392001934,2537557.967591,46.53603360336,0,0
86.696749123092,-27.185189963023,41.340464046405,1874837.4525367,43.314392001934,2537557.967591,46.540464046405,0,0
86.696749305128,-27.187243089897,41.344894489449,1874837.4525367,43.314392001934,2537557.967591,46.544894489449,0,0
86.696749487164,-27.189296216771,41.349324932493,1874837.4525367,43.314392001934,2537557.967591,46.549324932493,0,0
86.696749669199,-27.191349343645,41.353755375538,1874837.4525367,43.314392001934,2537557.967591,46.553755375538,0,0
86.696749851235,-27.193402470519,41.358185818582,1874837.4525367,43.314392001934,2537557.967591,46.558185818582,0,0
86.696750033271,-27.195455597393,41.362616261626,1874837.4525367,43.314392001934,2537557.967591,46.562616261626,0,0
86.696750215307,-27.197508724267,41.36704670467,1874837.4525367,43.314392001934,2537557.967591,46.56704670467,0,0
86.696750397342,-27.19956185114,41.371477147715,1874837.4525367,43.314392001934,2537557.967591,46.571477147715,0,0
86.696750579378,-27.201614978014,41.375907590759,1874837.4525367,43.314392001934,2537557.967591,46.575907590759,0,0
86.696750761414,-27.203668104888,41.380338033803,1874837.4525367,43.314392001934,2537557.967591,46.580338033803,0,0
86.696750943449,-27.205721231762,41.384768476848,1874837.4525367,43.314392001934,2537557.967591,46.584768476848,0,0
86.696751125485,-27.207774358636,41.389198919892,1874837.4525367,43.314392001934,2537557.967591,46.589198919892,0,0
86.696751307521,-27.20982748551,41.393629362936,1874837.4525367,43.314392001934,2537557.967591,46.593629362936,0,0
86.696751489556,-27.211880612384,41.398059805981,1874837.4525367,43.314392001934,2537557.967591,46.598059805981,0,0
86.696751671592,-27.213933739258,41.402490249025,1874837.4525367,43.314392001934,2537557.967591,46.602490249025,0,0
86.696751853628,-27.215986866132,41.406920692069,1874837.4525367,43.314392001934,2537557.967591,46.606920692069,0,0
86.696752035663,-27.218039993006,41.411351135114,1874837.4525367,43.314392001934,2537557.967591,46.611351135114,0,0
86.696752217699,-27.22009311988,41.415781578158,1874837.4525367,43.314392001934,2537557.967591,46.615781578158,0,0
86.696752399735,-27.222146246754,41.420212021202,1874837.4525367,43.314392001934,2537557.967591,46.620212021202,0,0
86.69675258177,-27.224199373628,41.424642464246,1874837.4525367,43.314392001934,2537557.967591,46.624642464246,0,0
86.696752763806,-27.226252500502,41.429072907291,1874837.4525367,43.314392001934,2537557.967591,46.629072907291,0,0
86.696752945842,-27.228305627376,41.433503350335,1874837.4525367,43.314392001934,2537557.967591,46.633503350335,0,0
86.696753127877,-27.23035875425,41.437933793379,1874837.4525367,43.314392001934,2537557.967591,46.637933793379,0,0
86.696753309913,-27.232411881124,41.442364236424,1874837.4525367,43.314392001934,2537557.967591,46.642364236424,0,0
86.696753491949,-27.234465007998,41.446794679468,1874837.4525367,43.314392001934,2537557.967591,46.646794679468,0,0
86.696753673984,-27.236518134871,41.451225122512,1874837.4525367,43.314392001934,2537557.967591,46.651225122512,0,0
86.69675385602,-27.238571261745,41.455655565557,1874837.4525367,43.314392001934,2537557.967591,46.655655565557,0,0
86.696754038056,-27.240624388619,41.460086008601,1874837.4525367,43.314392001934,2537557.967591,46.660086008601,0,0
86.696754220091,-27.242677515493,41.464516451645,1874837.4525367,43.314392001934,2537557.967591,46.664516451645,0,0
86.696754402127,-27.244730642367,41.468946894689,1874837.4525367,43.314392001934,2537557.967591,46.668946894689,0,0
86.696754584163,-27.246783769241,41.473377337734,1874837.4525367,43.314392001934,2537557.967591,46.673377337734,0,0
86.696754766199,-27.248836896115,41.477807780778,1874837.4525367,43.314392001934,2537557.967591,46.677807780778,0,0
86.696754948234,-27.250890022989,41.482238223822,1874837.4525367,43.314392001934,2537557.967591,46.682238223822,0,0
86.69675513027,-27.252943149863,41.486668666867,1874837.4525367,43.314392001934,2537557.967591,46.686668666867,0,0
86.696755312306,-27.254996276737,41.491099109911,1874837.4525367,43.314392001934,2537557.967591,46.691099109911,0,0
86.696755494341,-27.257049403611,41.495529552955,1874837.4525367,43.314392001934,2537557.967591,46.695529552955,0,0
86.696755676377,-27.259102530485,41.499959996,1874837.4525367,43.314392001934,2537557.967591,46.699959996,0,0
86.696755858413,-27.261155657359,41.504390439044,1874837.4525367,43.314392001934,2537557.967591,46.704390439044,0,0
86.696756040448,-27.263208784233,41.508820882088,1874837.4525367,43.314392001934,2537557.967591,46.708820882088,0,0
86.696756222484,-27.265261911107,41.513251325133,1874837.4525367,43.314392001934,2537557.967591,46.713251325133,0,0
86.69675640452,-27.267315037981,41.517681768177,1874837.4525367,43.314392001934,2537557.967591,46.717681768177,0,0
86.696756586555,-27.269368164855,41.522112211221,1874837.4525367,43.314392001934,2537557.967591,46.722112211221,0,0
86.696756768591,-27.271421291729,41.526542654265,1874837.4525367,43.314392001934,2537557.967591,46.726542654265,0,0
86.696756950627,-27.273474418602,41.53097309731,1874837.4525367,43.314392001934,2537557.967591,46.73097309731,0,0
86.696757132662,-27.275527545476,41.535403540354,1874837.4525367,43.314392001934,2537557.967591,46.735403540354,0,0
86.696757314698,-27.27758067235,41.539833983398,1874837.4525367,43.314392001934,2537557.967591,46.739833983398,0,0
86.696757496734,-27.279633799224,41.544264426443,1874837.4525367,43.314392001934,2537557.967591,46.744264426443,0,0
86.696757678769,-27.281686926098,41.548694869487,1874837.4525367,43.314392001934,2537557.967591,46.748694869487,0,0
86.696757860805,-27.283740052972,41.553125312531,1874837.4525367,43.314392001934,2537557.967591,46.753125312531,0,0
86.696758042841,-27.285793179846,41.557555755576,1874837.4525367,43.314392001934,2537557.967591,46.757555755576,0,0
86.696758224876,-27.28784630672,41.56198619862,1874837.4525367,43.314392001934,2537557.967591,46.76198619862,0,0
86.696758406912,-27.289899433594,41.566416641664,1874837.4525367,43.314392001934,2537557.967591,46.766416641664,0,0
86.696758588948,-27.291952560468,41.570847084708,1874837.4525367,43.314392001934,2537557.967591,46.770847084708,0,0
86.696758770983,-27.294005687342,41.575277527753,1874837.4525367,43.314392001934,2537557.967591,46.775277527753,0,0
86.696758953019,-27.296058814216,41.579707970797,1874837.4525367,43.314392001934,2537557.967591,46.779707970797,0,0
86.696759135055,-27.29811194109,41.584138413841,1874837.4525367,43.314392001934,2537557.967591,46.784138413841,0,0
86.69675931709,-27.300165067964,41.588568856886,1874837.4525367,43.314392001934,2537557.967591,46.788568856886,0,0
86.696759499126,-27.302218194838,41.59299929993,1874837.4525367,43.314392001934,2537557.967591,46.79299929993,0,0
86.696759681162,-27.304271321712,41.597429742974,1874837.4525367,43.314392001934,2537557.967591,46.797429742974,0,0
86.696759863198,-27.306324448586,41.601860186019,1874837.4525367,43.314392001934,2537557.967591,46.801860186019,0,0
86.696760045233,-27.30837757546,41.606290629063,1874837.4525367,43.314392001934,2537557.967591,46.806290629063,0,0
86.696760227269,-27.310430702333,41.610721072107,1874837.4525367,43.314392001934,2537557.967591,46.810721072107,0,0
86.696760409305,-27.312483829207,41.615151515152,1874837.4525367,43.314392001934,2537557.967591,46.815151515152,0,0
86.69676059134,-27.314536956081,41.619581958196,1874837.4525367,43.314392001934,2537557.967591,46.819581958196,0,0
86.696760773376,-27.316590082955,41.62401240124,1874837.4525367,43.314392001934,2537557.967591,46.82401240124,0,0
86.696760955412,-27.318643209829,41.628442844284,1874837.4525367,43.314392001934,2537557.967591,46.828442844284,0,0
86.696761137447,-27.320696336703,41.632873287329,1874837.4525367,43.314392001934,2537557.967591,46.832873287329,0,0
86.696761319483,-27.322749463577,41.637303730373,1874837.4525367,43.314392001934,2537557.967591,46.837303730373,0,0
86.696761501519,-27.324802590451,41.641734173417,1874837.4525367,43.314392001934,2537557.967591,46.841734173417,0,0
86.696761683554,-27.326855717325,41.646164616462,1874837.4525367,43.314392001934,2537557.967591,46.846164616462,0,0
86.69676186559,-27.328908844199,41.650595059506,1874837.4525367,43.314392001934,2537557.967591,46.850595059506,0,0
86.696762047626,-27.330961971073,41.65502550255,1874837.4525367,43.314392001934,2537557.967591,46.85502550255,0,0
86.696762229661,-27.333015097947,41.659455945595,1874837.4525367,43.314392001934,2537557.967591,46.859455945595,0,0
86.696762411697,-27.335068224821,41.663886388639,1874837.4525367,43.314392001934,2537557.967591,46.863886388639,0,0
86.696762593733,-27.337121351695,41.668316831683,1874837.4525367,43.314392001934,2537557.967591,46.868316831683,0,0
86.696762775768,-27.339174478569,41.672747274727,1874837.4525367,43.314392001934,2537557.967591,46.872747274727,0,0
86.696762957804,-27.341227605443,41.677177717772,1874837.4525367,43.314392001934,2537557.967591,46.877177717772,0,0
86.69676313984,-27.343280732317,41.681608160816,1874837.4525367,43.314392001934,2537557.967591,46.881608160816,0,0
86.696763321875,-27.345333859191,41.68603860386,1874837.4525367,43.314392001934,2537557.967591,46.88603860386,0,0
86.696763503911,-27.347386986064,41.690469046905,1874837.4525367,43.314392001934,2537557.967591,46.890469046905,0,0
86.696763685947,-27.349440112938,41.694899489949,1874837.4525367,43.314392001934,2537557.967591,46.894899489949,0,0
86.696763867982,-27.351493239812,41.699329932993,1874837.4525367,43.314392001934,2537557.967591,46.899329932993,0,0
86.696764050018,-27.353546366686,41.703760376038,1874837.4525367,43.314392001934,2537557.967591,46.903760376038,0,0
86.696764232054,-27.35559949356,41.708190819082,1874837.4525367,43.314392001934,2537557.967591,46.908190819082,0,0
86.69676441409,-27.357652620434,41.712621262126,1874837.4525367,43.314392001934,2537557.967591,46.912621262126,0,0
86.696764596125,-27.359705747308,41.717051705171,1874837.4525367,43.314392001934,2537557.967591,46.917051705171,0,0
86.696764778161,-27.361758874182,41.721482148215,1874837.4525367,43.314392001934,2537557.967591,46.921482148215,0,0
86.696764960197,-27.363812001056,41.725912591259,1874837.4525367,43.314392001934,2537557.967591,46.925912591259,0,0
86.696765142232,-27.36586512793,41.730343034303,1874837.4525367,43.314392001934,2537557.967591,46.930343034303,0,0
86.696765324268,-27.367918254804,41.734773477348,1874837.4525367,43.314392001934,2537557.967591,46.934773477348,0,0
86.696765506304,-27.369971381678,41.739203920392,1874837.4525367,43.314392001934,2537557.967591,46.939203920392,0,0
86.696765688339,-27.372024508552,41.743634363436,1874837.4525367,43.314392001934,2537557.967591,46.943634363436,0,0
86.696765870375,-27.374077635426,41.748064806481,1874837.4525367,43.314392001934,2537557.967591,46.948064806481,0,0
86.696766052411,-27.3761307623,41.752495249525,1874837.4525367,43.314392001934,2537557.967591,46.952495249525,0,0
86.696766234446,-27.378183889174,41.756925692569,1874837.4525367,43.314392001934,2537557.967591,46.956925692569,0,0
86.696766416482,-27.380237016048,41.761356135614,1874837.4525367,43.314392001934,2537557.967591,46.961356135614,0,0
86.696766598518,-27.382290142922,41.765786578658,1874837.4525367,43.314392001934,2537557.967591,46.965786578658,0,0
86.696766780553,-27.384343269795,41.770217021702,1874837.4525367,43.314392001934,2537557.967591,46.970217021702,0,0
86.696766962589,-27.386396396669,41.774647464746,1874837.4525367,43.314392001934,2537557.967591,46.974647464746,0,0
86.696767144625,-27.388449523543,41.779077907791,1874837.4525367,43.314392001934,2537557.967591,46.979077907791,0,0
86.69676732666,-27.390502650417,41.783508350835,1874837.4525367,43.314392001934,2537557.967591,46.983508350835,0,0
86.696767508696,-27.392555777291,41.787938793879,1874837.4525367,43.314392001934,2537557.967591,46.987938793879,0,0
86.696767690732,-27.394608904165,41.792369236924,1874837.4525367,43.314392001934,2537557.967591,46.992369236924,0,0
86.696767872767,-27.396662031039,41.796799679968,1874837.4525367,43.314392001934,2537557.967591,46.996799679968,0,0
86.696768054803,-27.398715157913,41.801230123012,1874837.4525367,43.314392001934,2537557.967591,47.001230123012,0,0
86.696768236839,-27.400768284787,41.805660566057,1874837.4525367,43.314392001934,2537557.967591,47.005660566057,0,0
86.696768418874,-27.402821411661,41.810091009101,1874837.4525367,43.314392001934,2537557.967591,47.010091009101,0,0
86.69676860091,-27.404874538535,41.814521452145,1874837.4525367,43.314392001934,2537557.967591,47.014521452145,0,0
86.696768782946,-27.406927665409,41.81895189519,1874837.4525367,43.314392001934,2537557.967591,47.01895189519,0,0
86.696768964981,-27.408980792283,41.823382338234,1874837.4525367,43.314392001934,2537557.967591,47.023382338234,0,0
86.696769147017,-27.411033919157,41.827812781278,1874837.4525367,43.314392001934,2537557.967591,47.027812781278,0,0
86.696769329053,-27.413087046031,41.832243224322,1874837.4525367,43.314392001934,2537557.967591,47.032243224322,0,0
86.696769511089,-27.415140172905,41.836673667367,1874837.4525367,43.314392001934,2537557.967591,47.036673667367,0,0
86.696769693124,-27.417193299779,41.841104110411,1874837.4525367,43.314392001934,2537557.967591,47.041104110411,0,0
86.69676987516,-27.419246426653,41.845534553455,1874837.4525367,43.314392001934,2537557.967591,47.045534553455,0,0
86.696770057196,-27.421299553526,41.8499649965,1874837.4525367,43.314392001934,2537557.967591,47.0499649965,0,0
86.696770239231,-27.4233526804,41.854395439544,1874837.4525367,43.314392001934,2537557.967591,47.054395439544,0,0
86.696770421267,-27.425405807274,41.858825882588,1874837.4525367,43.314392001934,2537557.967591,47.058825882588,0,0
86.696770603303,-27.427458934148,41.863256325633,1874837.4525367,43.314392001934,2537557.967591,47.063256325633,0,0
86.696770785338,-27.429512061022,41.867686768677,1874837.4525367,43.314392001934,2537557.967591,47.067686768677,0,0
86.696770967374,-27.431565187896,41.872117211721,1874837.4525367,43.314392001934,2537557.967591,47.072117211721,0,0
86.69677114941,-27.43361831477,41.876547654765,1874837.4525367,43.314392001934,2537557.967591,47.076547654765,0,0
86.696771331445,-27.435671441644,41.88097809781,1874837.4525367,43.314392001934,2537557.967591,47.08097809781,0,0
86.696771513481,-27.437724568518,41.885408540854,1874837.4525367,43.314392001934,2537557.967591,47.085408540854,0,0
86.696771695517,-27.439777695392,41.889838983898,1874837.4525367,43.314392001934,2537557.967591,47.089838983898,0,0
86.696771877552,-27.441830822266,41.894269426943,1874837.4525367,43.314392001934,2537557.967591,47.094269426943,0,0
86.696772059588,-27.44388394914,41.898699869987,1874837.4525367,43.314392001934,2537557.967591,47.098699869987,0,0
86.696772241624,-27.445937076014,41.903130313031,1874837.4525367,43.314392001934,2537557.967591,47.103130313031,0,0
86.696772423659,-27.447990202888,41.907560756076,1874837.4525367,43.314392001934,2537557.967591,47.107560756076,0,0
86.696772605695,-27.450043329762,41.91199119912,1874837.4525367,43.314392001934,2537557.967591,47.11199119912,0,0
86.696772787731,-27.452096456636,41.916421642164,1874837.4525367,43.314392001934,2537557.967591,47.116421642164,0,0
86.696772969766,-27.45414958351,41.920852085209,1874837.4525367,43.314392001934,2537557.967591,47.120852085209,0,0
86.696773151802,-27.456202710384,41.925282528253,1874837.4525367,43.314392001934,2537557.967591,47.125282528253,0,0
86.696773333838,-27.458255837258,41.929712971297,1874837.4525367,43.314392001934,2537557.967591,47.129712971297,0,0
86.696773515873,-27.460308964131,41.934143414341,1874837.4525367,43.314392001934,2537557.967591,47.134143414341,0,0
86.696773697909,-27.462362091005,41.938573857386,1874837.4525367,43.314392001934,2537557.967591,47.138573857386,0,0
86.696773879945,-27.464415217879,41.94300430043,1874837.4525367,43.314392001934,2537557.967591,47.14300430043,0,0
86.696774061981,-27.466468344753,41.947434743474,1874837.4525367,43.314392001934,2537557.967591,47.147434743474,0,0
86.696774244016,-27.468521471627,41.951865186519,1874837.4525367,43.314392001934,2537557.967591,47.151865186519,0,0
86.696774426052,-27.470574598501,41.956295629563,1874837.4525367,43.314392001934,2537557.967591,47.156295629563,0,0
86.696774608088,-27.472627725375,41.960726072607,1874837.4525367,43.314392001934,2537557.967591,47.160726072607,0,0
86.696774790123,-27.474680852249,41.965156515652,1874837.4525367,43.314392001934,2537557.967591,47.165156515652,0,0
86.696774972159,-27.476733979123,41.969586958696,1874837.4525367,43.314392001934,2537557.967591,47.169586958696,0,0
86.696775154195,-27.478787105997,41.97401740174,1874837.4525367,43.314392001934,2537557.967591,47.17401740174,0,0
86.69677533623,-27.480840232871,41.978447844784,1874837.4525367,43.314392001934,2537557.967591,47.178447844784,0,0
86.696775518266,-27.482893359745,41.982878287829,1874837.4525367,43.314392001934,2537557.967591,47.182878287829,0,0
86.696775700302,-27.484946486619,41.987308730873,1874837.4525367,43.314392001934,2537557.967591,47.187308730873,0,0
86.696775882337,-27.486999613493,41.991739173917,1874837.4525367,43.314392001934,2537557.967591,47.191739173917,0,0
86.696776064373,-27.489052740367,41.996169616962,1874837.4525367,43.314392001934,2537557.967591,47.196169616962,0,0
86.696776246409,-27.491105867241,42.000600060006,1874837.4525367,43.314392001934,2537557.967591,47.200600060006,0,0
86.696776428444,-27.493158994115,42.00503050305,1874837.4525367,43.314392001934,2537557.967591,47.20503050305,0,0
86.69677661048,-27.495212120989,42.009460946095,1874837.4525367,43.314392001934,2537557.967591,47.209460946095,0,0
86.696776792516,-27.497265247862,42.013891389139,1874837.4525367,43.314392001934,2537557.967591,47.213891389139,0,0
86.696776974551,-27.499318374736,42.018321832183,1874837.4525367,43.314392001934,2537557.967591,47.218321832183,0,0
86.696777156587,-27.50137150161,42.022752275228,1874837.4525367,43.314392001934,2537557.967591,47.222752275228,0,0
86.696777338623,-27.503424628484,42.027182718272,1874837.4525367,43.314392001934,2537557.967591,47.227182718272,0,0
86.696777520658,-27.505477755358,42.031613161316,1874837.4525367,43.314392001934,2537557.967591,47.231613161316,0,0
86.696777702694,-27.507530882232,42.03604360436,1874837.4525367,43.314392001934,2537557.967591,47.23604360436,0,0
86.69677788473,-27.509584009106,42.040474047405,1874837.4525367,43.314392001934,2537557.967591,47.240474047405,0,0
86.696778066765,-27.51163713598,42.044904490449,1874837.4525367,43.314392001934,2537557.967591,47.244904490449,0,0
86.696778248801,-27.513690262854,42.049334933493,1874837.4525367,43.314392001934,2537557.967591,47.249334933493,0,0
86.696778430837,-27.515743389728,42.053765376538,1874837.4525367,43.314392001934,2537557.967591,47.253765376538,0,0
86.696778612872,-27.517796516602,42.058195819582,1874837.4525367,43.314392001934,2537557.967591,47.258195819582,0,0
86.696778794908,-27.519849643476,42.062626262626,1874837.4525367,43.314392001934,2537557.967591,47.262626262626,0,0
86.696778976944,-27.52190277035,42.067056705671,1874837.4525367,43.314392001934,2537557.967591,47.267056705671,0,0
86.69677915898,-27.523955897224,42.071487148715,1874837.4525367,43.314392001934,2537557.967591,47.271487148715,0,0
86.696779341015,-27.526009024098,42.075917591759,1874837.4525367,43.314392001934,2537557.967591,47.275917591759,0,0
86.696779523051,-27.528062150972,42.080348034803,1874837.4525367,43.314392001934,2537557.967591,47.280348034803,0,0
86.696779705087,-27.530115277846,42.084778477848,1874837.4525367,43.314392001934,2537557.967591,47.284778477848,0,0
86.696779887122,-27.532168404719,42.089208920892,1874837.4525367,43.314392001934,2537557.967591,47.289208920892,0,0
86.696780069158,-27.534221531593,42.093639363936,1874837.4525367,43.314392001934,2537557.967591,47.293639363936,0,0
86.696780251194,-27.536274658467,42.098069806981,1874837.4525367,43.314392001934,2537557.967591,47.298069806981,0,0
86.696780433229,-27.538327785341,42.102500250025,1874837.4525367,43.314392001934,2537557.967591,47.302500250025,0,0
86.696780615265,-27.540380912215,42.106930693069,1874837.4525367,43.314392001934,2537557.967591,47.306930693069,0,0
86.696780797301,-27.542434039089,42.111361136114,1874837.4525367,43.314392001934,2537557.967591,47.311361136114,0,0
86.696780979336,-27.544487165963,42.115791579158,1874837.4525367,43.314392001934,2537557.967591,47.315791579158,0,0
86.696781161372,-27.546540292837,42.120222022202,1874837.4525367,43.314392001934,2537557.967591,47.320222022202,0,0
86.696781343408,-27.548593419711,42.124652465247,1874837.4525367,43.314392001934,2537557.967591,47.324652465247,0,0
86.696781525443,-27.550646546585,42.129082908291,1874837.4525367,43.314392001934,2537557.967591,47.329082908291,0,0
86.696781707479,-27.552699673459,42.133513351335,1874837.4525367,43.314392001934,2537557.967591,47.333513351335,0,0
86.696781889515,-27.554752800333,42.137943794379,1874837.4525367,43.314392001934,2537557.967591,47.337943794379,0,0
86.69678207155,-27.556805927207,42.142374237424,1874837.4525367,43.314392001934,2537557.967591,47.342374237424,0,0
86.696782253586,-27.558859054081,42.146804680468,1874837.4525367,43.314392001934,2537557.967591,47.346804680468,0,0
86.696782435622,-27.560912180955,42.151235123512,1874837.4525367,43.314392001934,2537557.967591,47.351235123512,0,0
86.696782617657,-27.562965307829,42.155665566557,1874837.4525367,43.314392001934,2537557.967591,47.355665566557,0,0
86.696782799693,-27.565018434703,42.160096009601,1874837.4525367,43.314392001934,2537557.967591,47.360096009601,0,0
86.696782981729,-27.567071561577,42.164526452645,1874837.4525367,43.314392001934,2537557.967591,47.364526452645,0,0
86.696783163764,-27.569124688451,42.16895689569,1874837.4525367,43.314392001934,2537557.967591,47.36895689569,0,0
86.6967833458,-27.571177815324,42.173387338734,1874837.4525367,43.314392001934,2537557.967591,47.373387338734,0,0
86.696783527836,-27.573230942198,42.177817781778,1874837.4525367,43.314392001934,2537557.967591,47.377817781778,0,0
86.696783709871,-27.575284069072,42.182248224822,1874837.4525367,43.314392001934,2537557.967591,47.382248224822,0,0
86.696783891907,-27.577337195946,42.186678667867,1874837.4525367,43.314392001934,2537557.967591,47.386678667867,0,0
86.696784073943,-27.57939032282,42.191109110911,1874837.4525367,43.314392001934,2537557.967591,47.391109110911,0,0
86.696784255979,-27.581443449694,42.195539553955,1874837.4525367,43.314392001934,2537557.967591,47.395539553955,0,0
86.696784438014,-27.583496576568,42.199969997,1874837.4525367,43.314392001934,2537557.967591,47.399969997,0,0
86.69678462005,-27.585549703442,42.204400440044,1874837.4525367,43.314392001934,2537557.967591,47.404400440044,0,0
86.696784802086,-27.587602830316,42.208830883088,1874837.4525367,43.314392001934,2537557.967591,47.408830883088,0,0
86.696784984121,-27.58965595719,42.213261326133,1874837.4525367,43.314392001934,2537557.967591,47.413261326133,0,0
86.696785166157,-27.591709084064,42.217691769177,1874837.4525367,43.314392001934,2537557.967591,47.417691769177,0,0
86.696785348193,-27.593762210938,42.222122212221,1874837.4525367,43.314392001934,2537557.967591,47.422122212221,0,0
86.696785530228,-27.595815337812,42.226552655266,1874837.4525367,43.314392001934,2537557.967591,47.426552655266,0,0
86.696785712264,-27.597868464686,42.23098309831,1874837.4525367,43.314392001934,2537557.967591,47.43098309831,0,0
86.6967858943,-27.59992159156,42.235413541354,1874837.4525367,43.314392001934,2537557.967591,47.435413541354,0,0
86.696786076335,-27.601974718434,42.239843984398,1874837.4525367,43.314392001934,2537557.967591,47.439843984398,0,0
86.696786258371,-27.604027845308,42.244274427443,1874837.4525367,43.314392001934,2537557.967591,47.444274427443,0,0
86.696786440407,-27.606080972182,42.248704870487,1874837.4525367,43.314392001934,2537557.967591,47.448704870487,0,0
86.696786622442,-27.608134099055,42.253135313531,1874837.4525367,43.314392001934,2537557.967591,47.453135313531,0,0
86.696786804478,-27.610187225929,42.257565756576,1874837.4525367,43.314392001934,2537557.967591,47.457565756576,0,0
86.696786986514,-27.612240352803,42.26199619962,1874837.4525367,43.314392001934,2537557.967591,47.46199619962,0,0
86.696787168549,-27.614293479677,42.266426642664,1874837.4525367,43.314392001934,2537557.967591,47.466426642664,0,0
86.696787350585,-27.616346606551,42.270857085709,1874837.4525367,43.314392001934,2537557.967591,47.470857085709,0,0
86.696787532621,-27.618399733425,42.275287528753,1874837.4525367,43.314392001934,2537557.967591,47.475287528753,0,0
86.696787714656,-27.620452860299,42.279717971797,1874837.4525367,43.314392001934,2537557.967591,47.479717971797,0,0
86.696787896692,-27.622505987173,42.284148414841,1874837.4525367,43.314392001934,2537557.967591,47.484148414841,0,0
86.696788078728,-27.624559114047,42.288578857886,1874837.4525367,43.314392001934,2537557.967591,47.488578857886,0,0
86.696788260763,-27.626612240921,42.29300930093,1874837.4525367,43.314392001934,2537557.967591,47.49300930093,0,0
86.696788442799,-27.628665367795,42.297439743974,1874837.4525367,43.314392001934,2537557.967591,47.497439743974,0,0
86.696788624835,-27.630718494669,42.301870187019,1874837.4525367,43.314392001934,2537557.967591,47.501870187019,0,0
86.696788806871,-27.632771621543,42.306300630063,1874837.4525367,43.314392001934,2537557.967591,47.506300630063,0,0
86.696788988906,-27.634824748417,42.310731073107,1874837.4525367,43.314392001934,2537557.967591,47.510731073107,0,0
86.696789170942,-27.636877875291,42.315161516152,1874837.4525367,43.314392001934,2537557.967591,47.515161516152,0,0
86.696789352978,-27.638931002165,42.319591959196,1874837.4525367,43.314392001934,2537557.967591,47.519591959196,0,0
86.696789535013,-27.640984129039,42.32402240224,1874837.4525367,43.314392001934,2537557.967591,47.52402240224,0,0
86.696789717049,-27.643037255913,42.328452845285,1874837.4525367,43.314392001934,2537557.967591,47.528452845285,0,0
86.696789899085,-27.645090382786,42.332883288329,1874837.4525367,43.314392001934,2537557.967591,47.532883288329,0,0
86.69679008112,-27.64714350966,42.337313731373,1874837.4525367,43.314392001934,2537557.967591,47.537313731373,0,0
86.696790263156,-27.649196636534,42.341744174417,1874837.4525367,43.314392001934,2537557.967591,47.541744174417,0,0
86.696790445192,-27.651249763408,42.346174617462,1874837.4525367,43.314392001934,2537557.967591,47.546174617462,0,0
86.696790627227,-27.653302890282,42.350605060506,1874837.4525367,43.314392001934,2537557.967591,47.550605060506,0,0
86.696790809263,-27.655356017156,42.35503550355,1874837.4525367,43.314392001934,2537557.967591,47.55503550355,0,0
86.696790991299,-27.65740914403,42.359465946595,1874837.4525367,43.314392001934,2537557.967591,47.559465946595,0,0
86.696791173334,-27.659462270904,42.363896389639,1874837.4525367,43.314392001934,2537557.967591,47.563896389639,0,0
86.69679135537,-27.661515397778,42.368326832683,1874837.4525367,43.314392001934,2537557.967591,47.568326832683,0,0
86.696791537406,-27.663568524652,42.372757275728,1874837.4525367,43.314392001934,2537557.967591,47.572757275728,0,0
86.696791719441,-27.665621651526,42.377187718772,1874837.4525367,43.314392001934,2537557.967591,47.577187718772,0,0
86.696791901477,-27.6676747784,42.381618161816,1874837.4525367,43.314392001934,2537557.967591,47.581618161816,0,0
86.696792083513,-27.669727905274,42.38604860486,1874837.4525367,43.314392001934,2537557.967591,47.58604860486,0,0
86.696792265548,-27.671781032148,42.390479047905,1874837.4525367,43.314392001934,2537557.967591,47.590479047905,0,0
86.696792447584,-27.673834159022,42.394909490949,1874837.4525367,43.314392001934,2537557.967591,47.594909490949,0,0
86.69679262962,-27.675887285896,42.399339933993,1874837.4525367,43.314392001934,2537557.967591,47.599339933993,0,0
86.696792811655,-27.67794041277,42.403770377038,1874837.4525367,43.314392001934,2537557.967591,47.603770377038,0,0
86.696792993691,-27.679993539644,42.408200820082,1874837.4525367,43.314392001934,2537557.967591,47.608200820082,0,0
86.696793175727,-27.682046666517,42.412631263126,1874837.4525367,43.314392001934,2537557.967591,47.612631263126,0,0
86.696793357763,-27.684099793391,42.417061706171,1874837.4525367,43.314392001934,2537557.967591,47.617061706171,0,0
86.696793539798,-27.686152920265,42.421492149215,1874837.4525367,43.314392001934,2537557.967591,47.621492149215,0,0
86.696793721834,-27.688206047139,42.425922592259,1874837.4525367,43.314392001934,2537557.967591,47.625922592259,0,0
86.696793903879,-27.690259174019,42.430353035304,1875083.9727983,-1.5071177018183,2537633.0580497,47.630353035304,0,0
86.696794085933,-27.692312300904,42.434783478348,1875083.9727983,-1.5071177018183,2537633.0580497,47.634783478348,0,0
86.696794267986,-27.694365427788,42.439213921392,1875083.9727983,-1.5071177018183,2537633.0580497,47.639213921392,0,0
86.69679445004,-27.696418554672,42.443644364436,1875083.9727983,-1.5071177018183,2537633.0580497,47.643644364436,0,0
86.696794632093,-27.698471681557,42.448074807481,1875083.9727983,-1.5071177018183,2537633.0580497,47.648074807481,0,0
86.696794814146,-27.700524808441,42.452505250525,1875083.9727983,-1.5071177018183,2537633.0580497,47.652505250525,0,0
86.6967949962,-27.702577935326,42.456935693569,1875083.9727983,-1.5071177018183,2537633.0580497,47.656935693569,0,0
86.696795178253,-27.70463106221,42.461366136614,1875083.9727983,-1.5071177018183,2537633.0580497,47.661366136614,0,0
86.696795360306,-27.706684189095,42.465796579658,1875083.9727983,-1.5071177018183,2537633.0580497,47.665796579658,0,0
86.69679554236,-27.708737315979,42.470227022702,1875083.9727983,-1.5071177018183,2537633.0580497,47.670227022702,0,0
86.696795724413,-27.710790442864,42.474657465747,1875083.9727983,-1.5071177018183,2537633.0580497,47.674657465747,0,0
86.696795906467,-27.712843569748,42.479087908791,1875083.9727983,-1.5071177018183,2537633.0580497,47.679087908791,0,0
86.69679608852,-27.714896696632,42.483518351835,1875083.9727983,-1.5071177018183,2537633.0580497,47.683518351835,0,0
86.696796270573,-27.716949823517,42.487948794879,1875083.9727983,-1.5071177018183,2537633.0580497,47.687948794879,0,0
86.696796452627,-27.719002950401,42.492379237924,1875083.9727983,-1.5071177018183,2537633.0580497,47.692379237924,0,0
86.69679663468,-27.721056077286,42.496809680968,1875083.9727983,-1.5071177018183,2537633.0580497,47.696809680968,0,0
86.696796816733,-27.72310920417,42.501240124012,1875083.9727983,-1.5071177018183,2537633.0580497,47.701240124012,0,0
86.696796998787,-27.725162331055,42.505670567057,1875083.9727983,-1.5071177018183,2537633.0580497,47.705670567057,0,0
86.69679718084,-27.727215457939,42.510101010101,1875083.9727983,-1.5071177018183,2537633.0580497,47.710101010101,0,0
86.696797362893,-27.729268584824,42.514531453145,1875083.9727983,-1.5071177018183,2537633.0580497,47.714531453145,0,0
86.696797544947,-27.731321711708,42.51896189619,1875083.9727983,-1.5071177018183,2537633.0580497,47.71896189619,0,0
86.696797727,-27.733374838592,42.523392339234,1875083.9727983,-1.5071177018183,2537633.0580497,47.723392339234,0,0
86.696797909054,-27.735427965477,42.527822782278,1875083.9727983,-1.5071177018183,2537633.0580497,47.727822782278,0,0
86.696798091107,-27.737481092361,42.532253225323,1875083.9727983,-1.5071177018183,2537633.0580497,47.732253225323,0,0
86.69679827316,-27.739534219246,42.536683668367,1875083.9727983,-1.5071177018183,2537633.0580497,47.736683668367,0,0
86.696798455214,-27.74158734613,42.541114111411,1875083.9727983,-1.5071177018183,2537633.0580497,47.741114111411,0,0
86.696798637267,-27.743640473015,42.545544554455,1875083.9727983,-1.5071177018183,2537633.0580497,47.745544554455,0,0
86.69679881932,-27.745693599899,42.5499749975,1875083.9727983,-1.5071177018183,2537633.0580497,47.7499749975,0,0
86.696799001374,-27.747746726784,42.554405440544,1875083.9727983,-1.5071177018183,2537633.0580497,47.754405440544,0,0
86.696799183427,-27.749799853668,42.558835883588,1875083.9727983,-1.5071177018183,2537633.0580497,47.758835883588,0,0
86.696799365481,-27.751852980552,42.563266326633,1875083.9727983,-1.5071177018183,2537633.0580497,47.763266326633,0,0
86.696799547534,-27.753906107437,42.567696769677,1875083.9727983,-1.5071177018183,2537633.0580497,47.767696769677,0,0
86.696799729587,-27.755959234321,42.572127212721,1875083.9727983,-1.5071177018183,2537633.0580497,47.772127212721,0,0
86.696799911641,-27.758012361206,42.576557655766,1875083.9727983,-1.5071177018183,2537633.0580497,47.776557655766,0,0
86.696800093694,-27.76006548809,42.58098809881,1875083.9727983,-1.5071177018183,2537633.0580497,47.78098809881,0,0
86.696800275747,-27.762118614975,42.585418541854,1875083.9727983,-1.5071177018183,2537633.0580497,47.785418541854,0,0
86.696800457801,-27.764171741859,42.589848984898,1875083.9727983,-1.5071177018183,2537633.0580497,47.789848984898,0,0
86.696800639854,-27.766224868744,42.594279427943,1875083.9727983,-1.5071177018183,2537633.0580497,47.794279427943,0,0
86.696800821908,-27.768277995628,42.598709870987,1875083.9727983,-1.5071177018183,2537633.0580497,47.798709870987,0,0
86.696801003961,-27.770331122512,42.603140314031,1875083.9727983,-1.5071177018183,2537633.0580497,47.803140314031,0,0
86.696801186014,-27.772384249397,42.607570757076,1875083.9727983,-1.5071177018183,2537633.0580497,47.807570757076,0,0
86.696801368068,-27.774437376281,42.61200120012,1875083.9727983,-1.5071177018183,2537633.0580497,47.81200120012,0,0
86.696801550121,-27.776490503166,42.616431643164,1875083.9727983,-1.5071177018183,2537633.0580497,47.816431643164,0,0
86.696801732174,-27.77854363005,42.620862086209,1875083.9727983,-1.5071177018183,2537633.0580497,47.820862086209,0,0
86.696801914228,-27.780596756935,42.625292529253,1875083.9727983,-1.5071177018183,2537633.0580497,47.825292529253,0,0
86.696802096281,-27.782649883819,42.629722972297,1875083.9727983,-1.5071177018183,2537633.0580497,47.829722972297,0,0
86.696802278335,-27.784703010704,42.634153415342,1875083.9727983,-1.5071177018183,2537633.0580497,47.834153415342,0,0
86.696802460388,-27.786756137588,42.638583858386,1875083.9727983,-1.5071177018183,2537633.0580497,47.838583858386,0,0
86.696802642441,-27.788809264472,42.64301430143,1875083.9727983,-1.5071177018183,2537633.0580497,47.84301430143,0,0
86.696802824495,-27.790862391357,42.647444744474,1875083.9727983,-1.5071177018183,2537633.0580497,47.847444744474,0,0
86.696803006548,-27.792915518241,42.651875187519,1875083.9727983,-1.5071177018183,2537633.0580497,47.851875187519,0,0
86.696803188601,-27.794968645126,42.656305630563,1875083.9727983,-1.5071177018183,2537633.0580497,47.856305630563,0,0
86.696803370655,-27.79702177201,42.660736073607,1875083.9727983,-1.5071177018183,2537633.0580497,47.860736073607,0,0
86.696803552708,-27.799074898895,42.665166516652,1875083.9727983,-1.5071177018183,2537633.0580497,47.865166516652,0,0
86.696803734761,-27.801128025779,42.669596959696,1875083.9727983,-1.5071177018183,2537633.0580497,47.869596959696,0,0
86.696803916815,-27.803181152664,42.67402740274,1875083.9727983,-1.5071177018183,2537633.0580497,47.87402740274,0,0
86.696804098868,-27.805234279548,42.678457845785,1875083.9727983,-1.5071177018183,2537633.0580497,47.878457845785,0,0
86.696804280922,-27.807287406432,42.682888288829,1875083.9727983,-1.5071177018183,2537633.0580497,47.882888288829,0,0
86.696804462975,-27.809340533317,42.687318731873,1875083.9727983,-1.5071177018183,2537633.0580497,47.887318731873,0,0
86.696804645028,-27.811393660201,42.691749174917,1875083.9727983,-1.5071177018183,2537633.0580497,47.891749174917,0,0
86.696804827082,-27.813446787086,42.696179617962,1875083.9727983,-1.5071177018183,2537633.0580497,47.896179617962,0,0
86.696805009135,-27.81549991397,42.700610061006,1875083.9727983,-1.5071177018183,2537633.0580497,47.900610061006,0,0
86.696805191188,-27.817553040855,42.70504050405,1875083.9727983,-1.5071177018183,2537633.0580497,47.90504050405,0,0
86.696805373242,-27.819606167739,42.709470947095,1875083.9727983,-1.5071177018183,2537633.0580497,47.909470947095,0,0
86.696805555295,-27.821659294624,42.713901390139,1875083.9727983,-1.5071177018183,2537633.0580497,47.913901390139,0,0
86.696805737349,-27.823712421508,42.718331833183,1875083.9727983,-1.5071177018183,2537633.0580497,47.918331833183,0,0
86.696805919402,-27.825765548392,42.722762276228,1875083.9727983,-1.5071177018183,2537633.0580497,47.922762276228,0,0
86.696806101455,-27.827818675277,42.727192719272,1875083.9727983,-1.5071177018183,2537633.0580497,47.927192719272,0,0
86.696806283509,-27.829871802161,42.731623162316,1875083.9727983,-1.5071177018183,2537633.0580497,47.931623162316,0,0
86.696806465562,-27.831924929046,42.736053605361,1875083.9727983,-1.5071177018183,2537633.0580497,47.936053605361,0,0
86.696806647615,-27.83397805593,42.740484048405,1875083.9727983,-1.5071177018183,2537633.0580497,47.940484048405,0,0
86.696806829669,-27.836031182815,42.744914491449,1875083.9727983,-1.5071177018183,2537633.0580497,47.944914491449,0,0
86.696807011722,-27.838084309699,42.749344934493,1875083.9727983,-1.5071177018183,2537633.0580497,47.949344934493,0,0
86.696807193776,-27.840137436584,42.753775377538,1875083.9727983,-1.5071177018183,2537633.0580497,47.953775377538,0,0
86.696807375829,-27.842190563468,42.758205820582,1875083.9727983,-1.5071177018183,2537633.0580497,47.958205820582,0,0
86.696807557882,-27.844243690352,42.762636263626,1875083.9727983,-1.5071177018183,2537633.0580497,47.962636263626,0,0
86.696807739936,-27.846296817237,42.767066706671,1875083.9727983,-1.5071177018183,2537633.0580497,47.967066706671,0,0
86.696807921989,-27.848349944121,42.771497149715,1875083.9727983,-1.5071177018183,2537633.0580497,47.971497149715,0,0
86.696808104042,-27.850403071006,42.775927592759,1875083.9727983,-1.5071177018183,2537633.0580497,47.975927592759,0,0
86.696808286096,-27.85245619789,42.780358035804,1875083.9727983,-1.5071177018183,2537633.0580497,47.980358035804,0,0
86.696808468149,-27.854509324775,42.784788478848,1875083.9727983,-1.5071177018183,2537633.0580497,47.984788478848,0,0
86.696808650202,-27.856562451659,42.789218921892,1875083.9727983,-1.5071177018183,2537633.0580497,47.989218921892,0,0
86.696808832256,-27.858615578544,42.793649364936,1875083.9727983,-1.5071177018183,2537633.0580497,47.993649364936,0,0
86.696809014309,-27.860668705428,42.798079807981,1875083.9727983,-1.5071177018183,2537633.0580497,47.998079807981,0,0
86.696809196363,-27.862721832312,42.802510251025,1875083.9727983,-1.5071177018183,2537633.0580497,48.002510251025,0,0
86.696809378416,-27.864774959197,42.806940694069,1875083.9727983,-1.5071177018183,2537633.0580497,48.006940694069,0,0
86.696809560469,-27.866828086081,42.811371137114,1875083.9727983,-1.5071177018183,2537633.0580497,48.011371137114,0,0
86.696809742523,-27.868881212966,42.815801580158,1875083.9727983,-1.5071177018183,2537633.0580497,48.015801580158,0,0
86.696809924576,-27.87093433985,42.820232023202,1875083.9727983,-1.5071177018183,2537633.0580497,48.020232023202,0,0
86.696810106629,-27.872987466735,42.824662466247,1875083.9727983,-1.5071177018183,2537633.0580497,48.024662466247,0,0
86.696810288683,-27.875040593619,42.829092909291,1875083.9727983,-1.5071177018183,2537633.0580497,48.029092909291,0,0
86.696810470736,-27.877093720504,42.833523352335,1875083.9727983,-1.5071177018183,2537633.0580497,48.033523352335,0,0
86.69681065279,-27.879146847388,42.83795379538,1875083.9727983,-1.5071177018183,2537633.0580497,48.03795379538,0,0
86.696810834843,-27.881199974272,42.842384238424,1875083.9727983,-1.5071177018183,2537633.0580497,48.042384238424,0,0
86.696811016896,-27.883253101157,42.846814681468,1875083.9727983,-1.5071177018183,2537633.0580497,48.046814681468,0,0
86.69681119895,-27.885306228041,42.851245124512,1875083.9727983,-1.5071177018183,2537633.0580497,48.051245124512,0,0
86.696811381003,-27.887359354926,42.855675567557,1875083.9727983,-1.5071177018183,2537633.0580497,48.055675567557,0,0
86.696811563056,-27.88941248181,42.860106010601,1875083.9727983,-1.5071177018183,2537633.0580497,48.060106010601,0,0
86.69681174511,-27.891465608695,42.864536453645,1875083.9727983,-1.5071177018183,2537633.0580497,48.064536453645,0,0
86.696811927163,-27.893518735579,42.86896689669,1875083.9727983,-1.5071177018183,2537633.0580497,48.06896689669,0,0
86.696812109217,-27.895571862464,42.873397339734,1875083.9727983,-1.5071177018183,2537633.0580497,48.073397339734,0,0
86.69681229127,-27.897624989348,42.877827782778,1875083.9727983,-1.5071177018183,2537633.0580497,48.077827782778,0,0
86.696812473323,-27.899678116232,42.882258225823,1875083.9727983,-1.5071177018183,2537633.0580497,48.082258225823,0,0
86.696812655377,-27.901731243117,42.886688668867,1875083.9727983,-1.5071177018183,2537633.0580497,48.086688668867,0,0
86.69681283743,-27.903784370001,42.891119111911,1875083.9727983,-1.5071177018183,2537633.0580497,48.091119111911,0,0
86.696813019483,-27.905837496886,42.895549554955,1875083.9727983,-1.5071177018183,2537633.0580497,48.095549554955,0,0
86.696813201537,-27.90789062377,42.899979998,1875083.9727983,-1.5071177018183,2537633.0580497,48.099979998,0,0
86.69681338359,-27.909943750655,42.904410441044,1875083.9727983,-1.5071177018183,2537633.0580497,48.104410441044,0,0
86.696813565643,-27.911996877539,42.908840884088,1875083.9727983,-1.5071177018183,2537633.0580497,48.108840884088,0,0
86.696813747697,-27.914050004424,42.913271327133,1875083.9727983,-1.5071177018183,2537633.0580497,48.113271327133,0,0
86.69681392975,-27.916103131308,42.917701770177,1875083.9727983,-1.5071177018183,2537633.0580497,48.117701770177,0,0
86.696814111804,-27.918156258192,42.922132213221,1875083.9727983,-1.5071177018183,2537633.0580497,48.122132213221,0,0
86.696814293857,-27.920209385077,42.926562656266,1875083.9727983,-1.5071177018183,2537633.0580497,48.126562656266,0,0
86.69681447591,-27.922262511961,42.93099309931,1875083.9727983,-1.5071177018183,2537633.0580497,48.13099309931,0,0
86.696814657964,-27.924315638846,42.935423542354,1875083.9727983,-1.5071177018183,2537633.0580497,48.135423542354,0,0
86.696814840017,-27.92636876573,42.939853985399,1875083.9727983,-1.5071177018183,2537633.0580497,48.139853985399,0,0
86.69681502207,-27.928421892615,42.944284428443,1875083.9727983,-1.5071177018183,2537633.0580497,48.144284428443,0,0
86.696815204124,-27.930475019499,42.948714871487,1875083.9727983,-1.5071177018183,2537633.0580497,48.148714871487,0,0
86.696815386177,-27.932528146384,42.953145314531,1875083.9727983,-1.5071177018183,2537633.0580497,48.153145314531,0,0
86.696815568231,-27.934581273268,42.957575757576,1875083.9727983,-1.5071177018183,2537633.0580497,48.157575757576,0,0
86.696815750284,-27.936634400152,42.96200620062,1875083.9727983,-1.5071177018183,2537633.0580497,48.16200620062,0,0
86.696815932337,-27.938687527037,42.966436643664,1875083.9727983,-1.5071177018183,2537633.0580497,48.166436643664,0,0
86.696816114391,-27.940740653921,42.970867086709,1875083.9727983,-1.5071177018183,2537633.0580497,48.170867086709,0,0
86.696816296444,-27.942793780806,42.975297529753,1875083.9727983,-1.5071177018183,2537633.0580497,48.175297529753,0,0
86.696816478497,-27.94484690769,42.979727972797,1875083.9727983,-1.5071177018183,2537633.0580497,48.179727972797,0,0
86.696816660551,-27.946900034575,42.984158415842,1875083.9727983,-1.5071177018183,2537633.0580497,48.184158415842,0,0
86.696816842604,-27.948953161459,42.988588858886,1875083.9727983,-1.5071177018183,2537633.0580497,48.188588858886,0,0
86.696817024658,-27.951006288344,42.99301930193,1875083.9727983,-1.5071177018183,2537633.0580497,48.19301930193,0,0
86.696817206711,-27.953059415228,42.997449744974,1875083.9727983,-1.5071177018183,2537633.0580497,48.197449744974,0,0
86.696817388764,-27.955112542112,43.001880188019,1875083.9727983,-1.5071177018183,2537633.0580497,48.201880188019,0,0
86.696817570818,-27.957165668997,43.006310631063,1875083.9727983,-1.5071177018183,2537633.0580497,48.206310631063,0,0
86.696817752871,-27.959218795881,43.010741074107,1875083.9727983,-1.5071177018183,2537633.0580497,48.210741074107,0,0
86.696817934924,-27.961271922766,43.015171517152,1875083.9727983,-1.5071177018183,2537633.0580497,48.215171517152,0,0
86.696818116978,-27.96332504965,43.019601960196,1875083.9727983,-1.5071177018183,2537633.0580497,48.219601960196,0,0
86.696818299031,-27.965378176535,43.02403240324,1875083.9727983,-1.5071177018183,2537633.0580497,48.22403240324,0,0
86.696818481085,-27.967431303419,43.028462846285,1875083.9727983,-1.5071177018183,2537633.0580497,48.228462846285,0,0
86.696818663138,-27.969484430304,43.032893289329,1875083.9727983,-1.5071177018183,2537633.0580497,48.232893289329,0,0
86.696818845191,-27.971537557188,43.037323732373,1875083.9727983,-1.5071177018183,2537633.0580497,48.237323732373,0,0
86.696819027245,-27.973590684072,43.041754175418,1875083.9727983,-1.5071177018183,2537633.0580497,48.241754175418,0,0
86.696819209298,-27.975643810957,43.046184618462,1875083.9727983,-1.5071177018183,2537633.0580497,48.246184618462,0,0
86.696819391351,-27.977696937841,43.050615061506,1875083.9727983,-1.5071177018183,2537633.0580497,48.250615061506,0,0
86.696819573405,-27.979750064726,43.05504550455,1875083.9727983,-1.5071177018183,2537633.0580497,48.25504550455,0,0
86.696819755458,-27.98180319161,43.059475947595,1875083.9727983,-1.5071177018183,2537633.0580497,48.259475947595,0,0
86.696819937511,-27.983856318495,43.063906390639,1875083.9727983,-1.5071177018183,2537633.0580497,48.263906390639,0,0
86.696820119565,-27.985909445379,43.068336833683,1875083.9727983,-1.5071177018183,2537633.0580497,48.268336833683,0,0
86.696820301618,-27.987962572264,43.072767276728,1875083.9727983,-1.5071177018183,2537633.0580497,48.272767276728,0,0
86.696820483672,-27.990015699148,43.077197719772,1875083.9727983,-1.5071177018183,2537633.0580497,48.277197719772,0,0
86.696820665725,-27.992068826033,43.081628162816,1875083.9727983,-1.5071177018183,2537633.0580497,48.281628162816,0,0
86.696820847778,-27.994121952917,43.086058605861,1875083.9727983,-1.5071177018183,2537633.0580497,48.286058605861,0,0
86.696821029832,-27.996175079801,43.090489048905,1875083.9727983,-1.5071177018183,2537633.0580497,48.290489048905,0,0
86.696821211885,-27.998228206686,43.094919491949,1875083.9727983,-1.5071177018183,2537633.0580497,48.294919491949,0,0
86.696821393938,-28.00028133357,43.099349934993,1875083.9727983,-1.5071177018183,2537633.0580497,48.299349934994,0,0
86.696821575992,-28.002334460455,43.103780378038,1875083.9727983,-1.5071177018183,2537633.0580497,48.303780378038,0,0
86.696821758045,-28.004387587339,43.108210821082,1875083.9727983,-1.5071177018183,2537633.0580497,48.308210821082,0,0
86.696821940099,-28.006440714224,43.112641264126,1875083.9727983,-1.5071177018183,2537633.0580497,48.312641264126,0,0
86.696822122152,-28.008493841108,43.117071707171,1875083.9727983,-1.5071177018183,2537633.0580497,48.317071707171,0,0
86.696822304205,-28.010546967993,43.121502150215,1875083.9727983,-1.5071177018183,2537633.0580497,48.321502150215,0,0
86.696822486259,-28.012600094877,43.125932593259,1875083.9727983,-1.5071177018183,2537633.0580497,48.325932593259,0,0
86.696822668312,-28.014653221761,43.130363036304,1875083.9727983,-1.5071177018183,2537633.0580497,48.330363036304,0,0
86.696822850365,-28.016706348646,43.134793479348,1875083.9727983,-1.5071177018183,2537633.0580497,48.334793479348,0,0
86.696823032419,-28.01875947553,43.139223922392,1875083.9727983,-1.5071177018183,2537633.0580497,48.339223922392,0,0
86.696823214472,-28.020812602415,43.143654365437,1875083.9727983,-1.5071177018183,2537633.0580497,48.343654365437,0,0
86.696823396526,-28.022865729299,43.148084808481,1875083.9727983,-1.5071177018183,2537633.0580497,48.348084808481,0,0
86.696823578579,-28.024918856184,43.152515251525,1875083.9727983,-1.5071177018183,2537633.0580497,48.352515251525,0,0
86.696823760632,-28.026971983068,43.156945694569,1875083.9727983,-1.5071177018183,2537633.0580497,48.356945694569,0,0
86.696823942686,-28.029025109953,43.161376137614,1875083.9727983,-1.5071177018183,2537633.0580497,48.361376137614,0,0
86.696824124739,-28.031078236837,43.165806580658,1875083.9727983,-1.5071177018183,2537633.0580497,48.365806580658,0,0
86.696824306792,-28.033131363721,43.170237023702,1875083.9727983,-1.5071177018183,2537633.0580497,48.370237023702,0,0
86.696824488846,-28.035184490606,43.174667466747,1875083.9727983,-1.5071177018183,2537633.0580497,48.374667466747,0,0
86.696824670899,-28.03723761749,43.179097909791,1875083.9727983,-1.5071177018183,2537633.0580497,48.379097909791,0,0
86.696824852953,-28.039290744375,43.183528352835,1875083.9727983,-1.5071177018183,2537633.0580497,48.383528352835,0,0
86.696825035006,-28.041343871259,43.18795879588,1875083.9727983,-1.5071177018183,2537633.0580497,48.38795879588,0,0
86.696825217059,-28.043396998144,43.192389238924,1875083.9727983,-1.5071177018183,2537633.0580497,48.392389238924,0,0
86.696825399113,-28.045450125028,43.196819681968,1875083.9727983,-1.5071177018183,2537633.0580497,48.396819681968,0,0
86.696825581166,-28.047503251913,43.201250125012,1875083.9727983,-1.5071177018183,2537633.0580497,48.401250125013,0,0
86.696825763219,-28.049556378797,43.205680568057,1875083.9727983,-1.5071177018183,2537633.0580497,48.405680568057,0,0
86.696825945273,-28.051609505681,43.210111011101,1875083.9727983,-1.5071177018183,2537633.0580497,48.410111011101,0,0
86.696826127326,-28.053662632566,43.214541454145,1875083.9727983,-1.5071177018183,2537633.0580497,48.414541454145,0,0
86.696826309379,-28.05571575945,43.21897189719,1875083.9727983,-1.5071177018183,2537633.0580497,48.41897189719,0,0
86.696826491433,-28.057768886335,43.223402340234,1875083.9727983,-1.5071177018183,2537633.0580497,48.423402340234,0,0
86.696826673486,-28.059822013219,43.227832783278,1875083.9727983,-1.5071177018183,2537633.0580497,48.427832783278,0,0
86.69682685554,-28.061875140104,43.232263226323,1875083.9727983,-1.5071177018183,2537633.0580497,48.432263226323,0,0
86.696827037593,-28.063928266988,43.236693669367,1875083.9727983,-1.5071177018183,2537633.0580497,48.436693669367,0,0
86.696827219646,-28.065981393873,43.241124112411,1875083.9727983,-1.5071177018183,2537633.0580497,48.441124112411,0,0
86.6968274017,-28.068034520757,43.245554555456,1875083.9727983,-1.5071177018183,2537633.0580497,48.445554555456,0,0
86.696827583753,-28.070087647641,43.2499849985,1875083.9727983,-1.5071177018183,2537633.0580497,48.4499849985,0,0
86.696827765806,-28.072140774526,43.254415441544,1875083.9727983,-1.5071177018183,2537633.0580497,48.454415441544,0,0
86.69682794786,-28.07419390141,43.258845884588,1875083.9727983,-1.5071177018183,2537633.0580497,48.458845884588,0,0
86.696828129913,-28.076247028295,43.263276327633,1875083.9727983,-1.5071177018183,2537633.0580497,48.463276327633,0,0
86.696828311967,-28.078300155179,43.267706770677,1875083.9727983,-1.5071177018183,2537633.0580497,48.467706770677,0,0
86.69682849402,-28.080353282064,43.272137213721,1875083.9727983,-1.5071177018183,2537633.0580497,48.472137213721,0,0
86.696828676073,-28.082406408948,43.276567656766,1875083.9727983,-1.5071177018183,2537633.0580497,48.476567656766,0,0
86.696828858127,-28.084459535833,43.28099809981,1875083.9727983,-1.5071177018183,2537633.0580497,48.48099809981,0,0
86.69682904018,-28.086512662717,43.285428542854,1875083.9727983,-1.5071177018183,2537633.0580497,48.485428542854,0,0
86.696829222233,-28.088565789601,43.289858985899,1875083.9727983,-1.5071177018183,2537633.0580497,48.489858985899,0,0
86.696829404287,-28.090618916486,43.294289428943,1875083.9727983,-1.5071177018183,2537633.0580497,48.494289428943,0,0
86.69682958634,-28.09267204337,43.298719871987,1875083.9727983,-1.5071177018183,2537633.0580497,48.498719871987,0,0
86.696829768394,-28.094725170255,43.303150315032,1875083.9727983,-1.5071177018183,2537633.0580497,48.503150315032,0,0
86.696829950447,-28.096778297139,43.307580758076,1875083.9727983,-1.5071177018183,2537633.0580497,48.507580758076,0,0
86.6968301325,-28.098831424024,43.31201120112,1875083.9727983,-1.5071177018183,2537633.0580497,48.51201120112,0,0
86.696830314554,-28.100884550908,43.316441644164,1875083.9727983,-1.5071177018183,2537633.0580497,48.516441644164,0,0
86.696830496607,-28.102937677793,43.320872087209,1875083.9727983,-1.5071177018183,2537633.0580497,48.520872087209,0,0
86.69683067866,-28.104990804677,43.325302530253,1875083.9727983,-1.5071177018183,2537633.0580497,48.525302530253,0,0
86.696830860714,-28.107043931561,43.329732973297,1875083.9727983,-1.5071177018183,2537633.0580497,48.529732973297,0,0
86.696831042767,-28.109097058446,43.334163416342,1875083.9727983,-1.5071177018183,2537633.0580497,48.534163416342,0,0
86.69683122482,-28.11115018533,43.338593859386,1875083.9727983,-1.5071177018183,2537633.0580497,48.538593859386,0,0
86.696831406874,-28.113203312215,43.34302430243,1875083.9727983,-1.5071177018183,2537633.0580497,48.54302430243,0,0
86.696831588927,-28.115256439099,43.347454745475,1875083.9727983,-1.5071177018183,2537633.0580497,48.547454745475,0,0
86.696831770981,-28.117309565984,43.351885188519,1875083.9727983,-1.5071177018183,2537633.0580497,48.551885188519,0,0
86.696831953034,-28.119362692868,43.356315631563,1875083.9727983,-1.5071177018183,2537633.0580497,48.556315631563,0,0
86.696832135087,-28.121415819753,43.360746074607,1875083.9727983,-1.5071177018183,2537633.0580497,48.560746074607,0,0
86.696832317141,-28.123468946637,43.365176517652,1875083.9727983,-1.5071177018183,2537633.0580497,48.565176517652,0,0
86.696832499194,-28.125522073521,43.369606960696,1875083.9727983,-1.5071177018183,2537633.0580497,48.569606960696,0,0
86.696832681247,-28.127575200406,43.37403740374,1875083.9727983,-1.5071177018183,2537633.0580497,48.57403740374,0,0
86.696832863301,-28.12962832729,43.378467846785,1875083.9727983,-1.5071177018183,2537633.0580497,48.578467846785,0,0
86.696833045354,-28.131681454175,43.382898289829,1875083.9727983,-1.5071177018183,2537633.0580497,48.582898289829,0,0
86.696833227408,-28.133734581059,43.387328732873,1875083.9727983,-1.5071177018183,2537633.0580497,48.587328732873,0,0
86.696833409461,-28.135787707944,43.391759175918,1875083.9727983,-1.5071177018183,2537633.0580497,48.591759175918,0,0
86.696833591514,-28.137840834828,43.396189618962,1875083.9727983,-1.5071177018183,2537633.0580497,48.596189618962,0,0
86.696833773568,-28.139893961713,43.400620062006,1875083.9727983,-1.5071177018183,2537633.0580497,48.600620062006,0,0
86.696833955621,-28.141947088597,43.405050505051,1875083.9727983,-1.5071177018183,2537633.0580497,48.605050505051,0,0
86.696834137674,-28.144000215481,43.409480948095,1875083.9727983,-1.5071177018183,2537633.0580497,48.609480948095,0,0
86.696834319728,-28.146053342366,43.413911391139,1875083.9727983,-1.5071177018183,2537633.0580497,48.613911391139,0,0
86.696834501781,-28.14810646925,43.418341834183,1875083.9727983,-1.5071177018183,2537633.0580497,48.618341834183,0,0
86.696834683835,-28.150159596135,43.422772277228,1875083.9727983,-1.5071177018183,2537633.0580497,48.622772277228,0,0
86.696834865888,-28.152212723019,43.427202720272,1875083.9727983,-1.5071177018183,2537633.0580497,48.627202720272,0,0
86.696835047941,-28.154265849904,43.431633163316,1875083.9727983,-1.5071177018183,2537633.0580497,48.631633163316,0,0
86.696835229995,-28.156318976788,43.436063606361,1875083.9727983,-1.5071177018183,2537633.0580497,48.636063606361,0,0
86.696835412048,-28.158372103673,43.440494049405,1875083.9727983,-1.5071177018183,2537633.0580497,48.640494049405,0,0
86.696835594101,-28.160425230557,43.444924492449,1875083.9727983,-1.5071177018183,2537633.0580497,48.644924492449,0,0
86.696835776155,-28.162478357441,43.449354935494,1875083.9727983,-1.5071177018183,2537633.0580497,48.649354935494,0,0
86.696835958208,-28.164531484326,43.453785378538,1875083.9727983,-1.5071177018183,2537633.0580497,48.653785378538,0,0
86.696836140261,-28.16658461121,43.458215821582,1875083.9727983,-1.5071177018183,2537633.0580497,48.658215821582,0,0
86.696836322315,-28.168637738095,43.462646264626,1875083.9727983,-1.5071177018183,2537633.0580497,48.662646264626,0,0
86.696836504368,-28.170690864979,43.467076707671,1875083.9727983,-1.5071177018183,2537633.0580497,48.667076707671,0,0
86.696836686422,-28.172743991864,43.471507150715,1875083.9727983,-1.5071177018183,2537633.0580497,48.671507150715,0,0
86.696836868475,-28.174797118748,43.475937593759,1875083.9727983,-1.5071177018183,2537633.0580497,48.675937593759,0,0
86.696837050528,-28.176850245633,43.480368036804,1875083.9727983,-1.5071177018183,2537633.0580497,48.680368036804,0,0
86.696837232582,-28.178903372517,43.484798479848,1875083.9727983,-1.5071177018183,2537633.0580497,48.684798479848,0,0
86.696837414635,-28.180956499401,43.489228922892,1875083.9727983,-1.5071177018183,2537633.0580497,48.689228922892,0,0
86.696837596688,-28.183009626286,43.493659365937,1875083.9727983,-1.5071177018183,2537633.0580497,48.693659365937,0,0
86.696837778742,-28.18506275317,43.498089808981,1875083.9727983,-1.5071177018183,2537633.0580497,48.698089808981,0,0
86.696837960795,-28.187115880055,43.502520252025,1875083.9727983,-1.5071177018183,2537633.0580497,48.702520252025,0,0
86.696838142849,-28.189169006939,43.50695069507,1875083.9727983,-1.5071177018183,2537633.0580497,48.70695069507,0,0
86.696838324902,-28.191222133824,43.511381138114,1875083.9727983,-1.5071177018183,2537633.0580497,48.711381138114,0,0
86.696838506955,-28.193275260708,43.515811581158,1875083.9727983,-1.5071177018183,2537633.0580497,48.715811581158,0,0
86.696838689009,-28.195328387593,43.520242024202,1875083.9727983,-1.5071177018183,2537633.0580497,48.720242024202,0,0
86.696838871062,-28.197381514477,43.524672467247,1875083.9727983,-1.5071177018183,2537633.0580497,48.724672467247,0,0
86.696839053115,-28.199434641361,43.529102910291,1875083.9727983,-1.5071177018183,2537633.0580497,48.729102910291,0,0
86.696839235169,-28.201487768246,43.533533353335,1875083.9727983,-1.5071177018183,2537633.0580497,48.733533353335,0,0
86.696839417222,-28.20354089513,43.53796379638,1875083.9727983,-1.5071177018183,2537633.0580497,48.73796379638,0,0
86.696839599276,-28.205594022015,43.542394239424,1875083.9727983,-1.5071177018183,2537633.0580497,48.742394239424,0,0
86.696839781329,-28.207647148899,43.546824682468,1875083.9727983,-1.5071177018183,2537633.0580497,48.746824682468,0,0
86.696839963382,-28.209700275784,43.551255125513,1875083.9727983,-1.5071177018183,2537633.0580497,48.751255125513,0,0
86.696840145436,-28.211753402668,43.555685568557,1875083.9727983,-1.5071177018183,2537633.0580497,48.755685568557,0,0
86.696840327489,-28.213806529553,43.560116011601,1875083.9727983,-1.5071177018183,2537633.0580497,48.760116011601,0,0
86.696840509542,-28.215859656437,43.564546454645,1875083.9727983,-1.5071177018183,2537633.0580497,48.764546454645,0,0
86.696840691596,-28.217912783321,43.56897689769,1875083.9727983,-1.5071177018183,2537633.0580497,48.76897689769,0,0
86.696840873649,-28.219965910206,43.573407340734,1875083.9727983,-1.5071177018183,2537633.0580497,48.773407340734,0,0
86.696841055702,-28.22201903709,43.577837783778,1875083.9727983,-1.5071177018183,2537633.0580497,48.777837783778,0,0
86.696841237756,-28.224072163975,43.582268226823,1875083.9727983,-1.5071177018183,2537633.0580497,48.782268226823,0,0
86.696841419809,-28.226125290859,43.586698669867,1875083.9727983,-1.5071177018183,2537633.0580497,48.786698669867,0,0
86.696841601863,-28.228178417744,43.591129112911,1875083.9727983,-1.5071177018183,2537633.0580497,48.791129112911,0,0
86.696841783916,-28.230231544628,43.595559555956,1875083.9727983,-1.5071177018183,2537633.0580497,48.795559555956,0,0
86.696841965969,-28.232284671513,43.599989999,1875083.9727983,-1.5071177018183,2537633.0580497,48.799989999,0,0
86.696842148023,-28.234337798397,43.604420442044,1875083.9727983,-1.5071177018183,2537633.0580497,48.804420442044,0,0
86.696842330076,-28.236390925281,43.608850885089,1875083.9727983,-1.5071177018183,2537633.0580497,48.808850885089,0,0
86.696842512129,-28.238444052166,43.613281328133,1875083.9727983,-1.5071177018183,2537633.0580497,48.813281328133,0,0
86.696842694183,-28.24049717905,43.617711771177,1875083.9727983,-1.5071177018183,2537633.0580497,48.817711771177,0,0
86.696842876236,-28.242550305935,43.622142214221,1875083.9727983,-1.5071177018183,2537633.0580497,48.822142214221,0,0
86.69684305829,-28.244603432819,43.626572657266,1875083.9727983,-1.5071177018183,2537633.0580497,48.826572657266,0,0
86.696843240343,-28.246656559704,43.63100310031,1875083.9727983,-1.5071177018183,2537633.0580497,48.83100310031,0,0
86.696843422396,-28.248709686588,43.635433543354,1875083.9727983,-1.5071177018183,2537633.0580497,48.835433543354,0,0
86.69684360445,-28.250762813473,43.639863986399,1875083.9727983,-1.5071177018183,2537633.0580497,48.839863986399,0,0
86.696843786503,-28.252815940357,43.644294429443,1875083.9727983,-1.5071177018183,2537633.0580497,48.844294429443,0,0
86.696843968556,-28.254869067241,43.648724872487,1875083.9727983,-1.5071177018183,2537633.0580497,48.848724872487,0,0
86.69684415061,-28.256922194126,43.653155315532,1875083.9727983,-1.5071177018183,2537633.0580497,48.853155315532,0,0
86.696844332663,-28.25897532101,43.657585758576,1875083.9727983,-1.5071177018183,2537633.0580497,48.857585758576,0,0
86.696844514717,-28.261028447895,43.66201620162,1875083.9727983,-1.5071177018183,2537633.0580497,48.86201620162,0,0
86.69684469677,-28.263081574779,43.666446644664,1875083.9727983,-1.5071177018183,2537633.0580497,48.866446644664,0,0
86.696844878823,-28.265134701664,43.670877087709,1875083.9727983,-1.5071177018183,2537633.0580497,48.870877087709,0,0
86.696845060877,-28.267187828548,43.675307530753,1875083.9727983,-1.5071177018183,2537633.0580497,48.875307530753,0,0
86.69684524293,-28.269240955433,43.679737973797,1875083.9727983,-1.5071177018183,2537633.0580497,48.879737973797,0,0
86.696845424983,-28.271294082317,43.684168416842,1875083.9727983,-1.5071177018183,2537633.0580497,48.884168416842,0,0
86.696845607037,-28.273347209201,43.688598859886,1875083.9727983,-1.5071177018183,2537633.0580497,48.888598859886,0,0
86.69684578909,-28.275400336086,43.69302930293,1875083.9727983,-1.5071177018183,2537633.0580497,48.89302930293,0,0
86.696845971144,-28.27745346297,43.697459745975,1875083.9727983,-1.5071177018183,2537633.0580497,48.897459745975,0,0
86.696846153197,-28.279506589855,43.701890189019,1875083.9727983,-1.5071177018183,2537633.0580497,48.901890189019,0,0
86.69684633525,-28.281559716739,43.706320632063,1875083.9727983,-1.5071177018183,2537633.0580497,48.906320632063,0,0
86.696846517304,-28.283612843624,43.710751075108,1875083.9727983,-1.5071177018183,2537633.0580497,48.910751075108,0,0
86.696846699357,-28.285665970508,43.715181518152,1875083.9727983,-1.5071177018183,2537633.0580497,48.915181518152,0,0
86.69684688141,-28.287719097393,43.719611961196,1875083.9727983,-1.5071177018183,2537633.0580497,48.919611961196,0,0
86.696847063464,-28.289772224277,43.72404240424,1875083.9727983,-1.5071177018183,2537633.0580497,48.92404240424,0,0
86.696847245517,-28.291825351161,43.728472847285,1875083.9727983,-1.5071177018183,2537633.0580497,48.928472847285,0,0
86.69684742757,-28.293878478046,43.732903290329,1875083.9727983,-1.5071177018183,2537633.0580497,48.932903290329,0,0
86.696847609624,-28.29593160493,43.737333733373,1875083.9727983,-1.5071177018183,2537633.0580497,48.937333733373,0,0
86.696847791677,-28.297984731815,43.741764176418,1875083.9727983,-1.5071177018183,2537633.0580497,48.941764176418,0,0
86.696847973731,-28.300037858699,43.746194619462,1875083.9727983,-1.5071177018183,2537633.0580497,48.946194619462,0,0
86.696848155784,-28.302090985584,43.750625062506,1875083.9727983,-1.5071177018183,2537633.0580497,48.950625062506,0,0
86.696848337837,-28.304144112468,43.755055505551,1875083.9727983,-1.5071177018183,2537633.0580497,48.955055505551,0,0
86.696848519891,-28.306197239353,43.759485948595,1875083.9727983,-1.5071177018183,2537633.0580497,48.959485948595,0,0
86.696848701944,-28.308250366237,43.763916391639,1875083.9727983,-1.5071177018183,2537633.0580497,48.963916391639,0,0
86.696848883997,-28.310303493121,43.768346834683,1875083.9727983,-1.5071177018183,2537633.0580497,48.968346834683,0,0
86.696849066051,-28.312356620006,43.772777277728,1875083.9727983,-1.5071177018183,2537633.0580497,48.972777277728,0,0
86.696849248104,-28.31440974689,43.777207720772,1875083.9727983,-1.5071177018183,2537633.0580497,48.977207720772,0,0
86.696849430158,-28.316462873775,43.781638163816,1875083.9727983,-1.5071177018183,2537633.0580497,48.981638163816,0,0
86.696849612211,-28.318516000659,43.786068606861,1875083.9727983,-1.5071177018183,2537633.0580497,48.986068606861,0,0
86.696849794264,-28.320569127544,43.790499049905,1875083.9727983,-1.5071177018183,2537633.0580497,48.990499049905,0,0
86.696849976318,-28.322622254428,43.794929492949,1875083.9727983,-1.5071177018183,2537633.0580497,48.994929492949,0,0
86.696850158371,-28.324675381313,43.799359935994,1875083.9727983,-1.5071177018183,2537633.0580497,48.999359935994,0,0
86.696850340424,-28.326728508197,43.803790379038,1875083.9727983,-1.5071177018183,2537633.0580497,49.003790379038,0,0
86.696850522478,-28.328781635081,43.808220822082,1875083.9727983,-1.5071177018183,2537633.0580497,49.008220822082,0,0
86.696850704531,-28.330834761966,43.812651265127,1875083.9727983,-1.5071177018183,2537633.0580497,49.012651265127,0,0
86.696850886585,-28.33288788885,43.817081708171,1875083.9727983,-1.5071177018183,2537633.0580497,49.017081708171,0,0
86.696851068638,-28.334941015735,43.821512151215,1875083.9727983,-1.5071177018183,2537633.0580497,49.021512151215,0,0
86.696851250691,-28.336994142619,43.825942594259,1875083.9727983,-1.5071177018183,2537633.0580497,49.025942594259,0,0
86.696851432745,-28.339047269504,43.830373037304,1875083.9727983,-1.5071177018183,2537633.0580497,49.030373037304,0,0
86.696851614798,-28.341100396388,43.834803480348,1875083.9727983,-1.5071177018183,2537633.0580497,49.034803480348,0,0
86.696851796851,-28.343153523273,43.839233923392,1875083.9727983,-1.5071177018183,2537633.0580497,49.039233923392,0,0
86.696851978905,-28.345206650157,43.843664366437,1875083.9727983,-1.5071177018183,2537633.0580497,49.043664366437,0,0
86.696852160958,-28.347259777041,43.848094809481,1875083.9727983,-1.5071177018183,2537633.0580497,49.048094809481,0,0
86.696852343011,-28.349312903926,43.852525252525,1875083.9727983,-1.5071177018183,2537633.0580497,49.052525252525,0,0
86.696852525065,-28.35136603081,43.85695569557,1875083.9727983,-1.5071177018183,2537633.0580497,49.05695569557,0,0
86.696852707118,-28.353419157695,43.861386138614,1875083.9727983,-1.5071177018183,2537633.0580497,49.061386138614,0,0
86.696852889172,-28.355472284579,43.865816581658,1875083.9727983,-1.5071177018183,2537633.0580497,49.065816581658,0,0
86.696853071225,-28.357525411464,43.870247024702,1875083.9727983,-1.5071177018183,2537633.0580497,49.070247024702,0,0
86.696853253278,-28.359578538348,43.874677467747,1875083.9727983,-1.5071177018183,2537633.0580497,49.074677467747,0,0
86.696853435332,-28.361631665233,43.879107910791,1875083.9727983,-1.5071177018183,2537633.0580497,49.079107910791,0,0
86.696853617385,-28.363684792117,43.883538353835,1875083.9727983,-1.5071177018183,2537633.0580497,49.083538353835,0,0
86.696853799438,-28.365737919001,43.88796879688,1875083.9727983,-1.5071177018183,2537633.0580497,49.08796879688,0,0
86.696853981492,-28.367791045886,43.892399239924,1875083.9727983,-1.5071177018183,2537633.0580497,49.092399239924,0,0
86.696854163545,-28.36984417277,43.896829682968,1875083.9727983,-1.5071177018183,2537633.0580497,49.096829682968,0,0
86.696854345599,-28.371897299655,43.901260126013,1875083.9727983,-1.5071177018183,2537633.0580497,49.101260126013,0,0
86.696854527652,-28.373950426539,43.905690569057,1875083.9727983,-1.5071177018183,2537633.0580497,49.105690569057,0,0
86.696854709705,-28.376003553424,43.910121012101,1875083.9727983,-1.5071177018183,2537633.0580497,49.110121012101,0,0
86.696854891759,-28.378056680308,43.914551455146,1875083.9727983,-1.5071177018183,2537633.0580497,49.114551455146,0,0
86.696855073812,-28.380109807193,43.91898189819,1875083.9727983,-1.5071177018183,2537633.0580497,49.11898189819,0,0
86.696855255865,-28.382162934077,43.923412341234,1875083.9727983,-1.5071177018183,2537633.0580497,49.123412341234,0,0
86.696855437919,-28.384216060961,43.927842784278,1875083.9727983,-1.5071177018183,2537633.0580497,49.127842784278,0,0
86.696855619972,-28.386269187846,43.932273227323,1875083.9727983,-1.5071177018183,2537633.0580497,49.132273227323,0,0
86.696855802026,-28.38832231473,43.936703670367,1875083.9727983,-1.5071177018183,2537633.0580497,49.136703670367,0,0
86.696855984079,-28.390375441615,43.941134113411,1875083.9727983,-1.5071177018183,2537633.0580497,49.141134113411,0,0
86.696856166132,-28.392428568499,43.945564556456,1875083.9727983,-1.5071177018183,2537633.0580497,49.145564556456,0,0
86.696856348186,-28.394481695384,43.9499949995,1875083.9727983,-1.5071177018183,2537633.0580497,49.1499949995,0,0
86.696856530239,-28.396534822268,43.954425442544,1875083.9727983,-1.5071177018183,2537633.0580497,49.154425442544,0,0
86.696856712292,-28.398587949153,43.958855885589,1875083.9727983,-1.5071177018183,2537633.0580497,49.158855885589,0,0
86.696856894346,-28.400641076037,43.963286328633,1875083.9727983,-1.5071177018183,2537633.0580497,49.163286328633,0,0
86.696857076399,-28.402694202921,43.967716771677,1875083.9727983,-1.5071177018183,2537633.0580497,49.167716771677,0,0
86.696857258453,-28.404747329806,43.972147214721,1875083.9727983,-1.5071177018183,2537633.0580497,49.172147214721,0,0
86.696857440506,-28.40680045669,43.976577657766,1875083.9727983,-1.5071177018183,2537633.0580497,49.176577657766,0,0
86.696857622559,-28.408853583575,43.98100810081,1875083.9727983,-1.5071177018183,2537633.0580497,49.18100810081,0,0
86.696857804613,-28.410906710459,43.985438543854,1875083.9727983,-1.5071177018183,2537633.0580497,49.185438543854,0,0
86.696857986666,-28.412959837344,43.989868986899,1875083.9727983,-1.5071177018183,2537633.0580497,49.189868986899,0,0
86.696858168719,-28.415012964228,43.994299429943,1875083.9727983,-1.5071177018183,2537633.0580497,49.194299429943,0,0
86.696858350773,-28.417066091113,43.998729872987,1875083.9727983,-1.5071177018183,2537633.0580497,49.198729872987,0,0
86.696858532826,-28.419119217997,44.003160316032,1875083.9727983,-1.5071177018183,2537633.0580497,49.203160316032,0,0
86.696858714879,-28.421172344881,44.007590759076,1875083.9727983,-1.5071177018183,2537633.0580497,49.207590759076,0,0
86.696858896933,-28.423225471766,44.01202120212,1875083.9727983,-1.5071177018183,2537633.0580497,49.21202120212,0,0
86.696859078986,-28.42527859865,44.016451645165,1875083.9727983,-1.5071177018183,2537633.0580497,49.216451645165,0,0
86.69685926104,-28.427331725535,44.020882088209,1875083.9727983,-1.5071177018183,2537633.0580497,49.220882088209,0,0
86.696859443093,-28.429384852419,44.025312531253,1875083.9727983,-1.5071177018183,2537633.0580497,49.225312531253,0,0
86.696859625146,-28.431437979304,44.029742974297,1875083.9727983,-1.5071177018183,2537633.0580497,49.229742974297,0,0
86.6968598072,-28.433491106188,44.034173417342,1875083.9727983,-1.5071177018183,2537633.0580497,49.234173417342,0,0
86.696859989253,-28.435544233073,44.038603860386,1875083.9727983,-1.5071177018183,2537633.0580497,49.238603860386,0,0
86.696860171306,-28.437597359957,44.04303430343,1875083.9727983,-1.5071177018183,2537633.0580497,49.24303430343,0,0
86.69686035336,-28.439650486841,44.047464746475,1875083.9727983,-1.5071177018183,2537633.0580497,49.247464746475,0,0
86.696860535413,-28.441703613726,44.051895189519,1875083.9727983,-1.5071177018183,2537633.0580497,49.251895189519,0,0
86.696860717467,-28.44375674061,44.056325632563,1875083.9727983,-1.5071177018183,2537633.0580497,49.256325632563,0,0
86.69686089952,-28.445809867495,44.060756075608,1875083.9727983,-1.5071177018183,2537633.0580497,49.260756075608,0,0
86.696861081573,-28.447862994379,44.065186518652,1875083.9727983,-1.5071177018183,2537633.0580497,49.265186518652,0,0
86.696861263627,-28.449916121264,44.069616961696,1875083.9727983,-1.5071177018183,2537633.0580497,49.269616961696,0,0
86.69686144568,-28.451969248148,44.07404740474,1875083.9727983,-1.5071177018183,2537633.0580497,49.27404740474,0,0
86.696861627733,-28.454022375033,44.078477847785,1875083.9727983,-1.5071177018183,2537633.0580497,49.278477847785,0,0
86.696861809787,-28.456075501917,44.082908290829,1875083.9727983,-1.5071177018183,2537633.0580497,49.282908290829,0,0
86.69686199184,-28.458128628801,44.087338733873,1875083.9727983,-1.5071177018183,2537633.0580497,49.287338733873,0,0
86.696862173894,-28.460181755686,44.091769176918,1875083.9727983,-1.5071177018183,2537633.0580497,49.291769176918,0,0
86.696862355947,-28.46223488257,44.096199619962,1875083.9727983,-1.5071177018183,2537633.0580497,49.296199619962,0,0
86.696862538,-28.464288009455,44.100630063006,1875083.9727983,-1.5071177018183,2537633.0580497,49.300630063006,0,0
86.696862720054,-28.466341136339,44.105060506051,1875083.9727983,-1.5071177018183,2537633.0580497,49.305060506051,0,0
86.696862902107,-28.468394263224,44.109490949095,1875083.9727983,-1.5071177018183,2537633.0580497,49.309490949095,0,0
86.69686308416,-28.470447390108,44.113921392139,1875083.9727983,-1.5071177018183,2537633.0580497,49.313921392139,0,0
86.696863266214,-28.472500516993,44.118351835184,1875083.9727983,-1.5071177018183,2537633.0580497,49.318351835184,0,0
86.696863448267,-28.474553643877,44.122782278228,1875083.9727983,-1.5071177018183,2537633.0580497,49.322782278228,0,0
86.69686363032,-28.476606770761,44.127212721272,1875083.9727983,-1.5071177018183,2537633.0580497,49.327212721272,0,0
86.696863812374,-28.478659897646,44.131643164316,1875083.9727983,-1.5071177018183,2537633.0580497,49.331643164316,0,0
86.696863994427,-28.48071302453,44.136073607361,1875083.9727983,-1.5071177018183,2537633.0580497,49.336073607361,0,0
86.696864176481,-28.482766151415,44.140504050405,1875083.9727983,-1.5071177018183,2537633.0580497,49.340504050405,0,0
86.696864358534,-28.484819278299,44.144934493449,1875083.9727983,-1.5071177018183,2537633.0580497,49.344934493449,0,0
86.696864540587,-28.486872405184,44.149364936494,1875083.9727983,-1.5071177018183,2537633.0580497,49.349364936494,0,0
86.696864722641,-28.488925532068,44.153795379538,1875083.9727983,-1.5071177018183,2537633.0580497,49.353795379538,0,0
86.696864904694,-28.490978658953,44.158225822582,1875083.9727983,-1.5071177018183,2537633.0580497,49.358225822582,0,0
86.696865086747,-28.493031785837,44.162656265627,1875083.9727983,-1.5071177018183,2537633.0580497,49.362656265627,0,0
86.696865268801,-28.495084912722,44.167086708671,1875083.9727983,-1.5071177018183,2537633.0580497,49.367086708671,0,0
86.696865450854,-28.497138039606,44.171517151715,1875083.9727983,-1.5071177018183,2537633.0580497,49.371517151715,0,0
86.696865632908,-28.49919116649,44.175947594759,1875083.9727983,-1.5071177018183,2537633.0580497,49.375947594759,0,0
86.696865814961,-28.501244293375,44.180378037804,1875083.9727983,-1.5071177018183,2537633.0580497,49.380378037804,0,0
86.696865997014,-28.503297420259,44.184808480848,1875083.9727983,-1.5071177018183,2537633.0580497,49.384808480848,0,0
86.696866179068,-28.505350547144,44.189238923892,1875083.9727983,-1.5071177018183,2537633.0580497,49.389238923892,0,0
86.696866361121,-28.507403674028,44.193669366937,1875083.9727983,-1.5071177018183,2537633.0580497,49.393669366937,0,0
86.696866543174,-28.509456800913,44.198099809981,1875083.9727983,-1.5071177018183,2537633.0580497,49.398099809981,0,0
86.696866725228,-28.511509927797,44.202530253025,1875083.9727983,-1.5071177018183,2537633.0580497,49.402530253025,0,0
86.696866907281,-28.513563054682,44.20696069607,1875083.9727983,-1.5071177018183,2537633.0580497,49.40696069607,0,0
86.696867089335,-28.515616181566,44.211391139114,1875083.9727983,-1.5071177018183,2537633.0580497,49.411391139114,0,0
86.696867271388,-28.51766930845,44.215821582158,1875083.9727983,-1.5071177018183,2537633.0580497,49.415821582158,0,0
86.696867453441,-28.519722435335,44.220252025203,1875083.9727983,-1.5071177018183,2537633.0580497,49.420252025203,0,0
86.696867635495,-28.521775562219,44.224682468247,1875083.9727983,-1.5071177018183,2537633.0580497,49.424682468247,0,0
86.696867817548,-28.523828689104,44.229112911291,1875083.9727983,-1.5071177018183,2537633.0580497,49.429112911291,0,0
86.696867999601,-28.525881815988,44.233543354335,1875083.9727983,-1.5071177018183,2537633.0580497,49.433543354335,0,0
86.696868181655,-28.527934942873,44.23797379738,1875083.9727983,-1.5071177018183,2537633.0580497,49.43797379738,0,0
86.696868363708,-28.529988069757,44.242404240424,1875083.9727983,-1.5071177018183,2537633.0580497,49.442404240424,0,0
86.696868545762,-28.532041196642,44.246834683468,1875083.9727983,-1.5071177018183,2537633.0580497,49.446834683468,0,0
86.696868727815,-28.534094323526,44.251265126513,1875083.9727983,-1.5071177018183,2537633.0580497,49.451265126513,0,0
86.696868909868,-28.53614745041,44.255695569557,1875083.9727983,-1.5071177018183,2537633.0580497,49.455695569557,0,0
86.696869091922,-28.538200577295,44.260126012601,1875083.9727983,-1.5071177018183,2537633.0580497,49.460126012601,0,0
86.696869273975,-28.540253704179,44.264556455646,1875083.9727983,-1.5071177018183,2537633.0580497,49.464556455646,0,0
86.696869456028,-28.542306831064,44.26898689869,1875083.9727983,-1.5071177018183,2537633.0580497,49.46898689869,0,0
86.696869638082,-28.544359957948,44.273417341734,1875083.9727983,-1.5071177018183,2537633.0580497,49.473417341734,0,0
86.696869820135,-28.546413084833,44.277847784778,1875083.9727983,-1.5071177018183,2537633.0580497,49.477847784778,0,0
86.696870002188,-28.548466211717,44.282278227823,1875083.9727983,-1.5071177018183,2537633.0580497,49.482278227823,0,0
86.696870184242,-28.550519338602,44.286708670867,1875083.9727983,-1.5071177018183,2537633.0580497,49.486708670867,0,0
86.696870366295,-28.552572465486,44.291139113911,1875083.9727983,-1.5071177018183,2537633.0580497,49.491139113911,0,0
86.696870548349,-28.55462559237,44.295569556956,1875083.9727983,-1.5071177018183,2537633.0580497,49.495569556956,0,0
86.696870730402,-28.556678719255,44.3,1875083.9727983,-1.5071177018183,2537633.0580497,49.5,0,0
