disp_x,disp_y,id,stress_xx,stress_xy,stress_yy,x,y,z
44.21029000357,-3.9487974792342,0,238095.55159801,-25723.024107265,4894967.6462064,5.2,0,0
44.210290025385,-3.9501780413608,0.0044304430443045,238095.55159801,-25723.024107265,4894967.6462064,5.2044304430443,0,0
44.210290047199,-3.9515586034874,0.008860886088609,238095.55159801,-25723.024107265,4894967.6462064,5.2088608860886,0,0
44.210290069014,-3.9529391656141,0.013291329132914,238095.55159801,-25723.024107265,4894967.6462064,5.2132913291329,0,0
44.210290090828,-3.9543197277407,0.017721772177218,238095.55159801,-25723.024107265,4894967.6462064,5.2177217721772,0,0
44.210290113348,-3.9557002827848,0.022152215221523,210244.74966453,18067.495556124,4773182.6246354,5.2221522152215,0,0
44.210290136181,-3.9570808346891,0.026582658265826,210244.74966453,18067.495556124,4773182.6246354,5.2265826582658,0,0
44.210290159013,-3.9584613865934,0.031013101310131,210244.74966453,18067.495556124,4773182.6246354,5.2310131013101,0,0
44.210290181846,-3.9598419384977,0.035443544354435,210244.74966453,18067.495556124,4773182.6246354,5.2354435443544,0,0
44.210290204678,-3.961222490402,0.03987398739874,210244.74966453,18067.495556124,4773182.6246354,5.2398739873987,0,0
44.210290227511,-3.9626030423063,0.044304430443044,210244.74966453,18067.495556124,4773182.6246354,5.244304430443,0,0
44.210290250343,-3.9639835942106,0.048734873487349,210244.74966453,18067.495556124,4773182.6246354,5.2487348734873,0,0
44.210290273176,-3.9653641461149,0.053165316531653,210244.74966453,18067.495556124,4773182.6246354,5.2531653165317,0,0
44.210290296008,-3.9667446980192,0.057595759575958,210244.74966453,18067.495556124,4773182.6246354,5.257595759576,0,0
44.210290318841,-3.9681252499235,0.062026202620262,210244.74966453,18067.495556124,4773182.6246354,5.2620262026203,0,0
44.210290341673,-3.9695058018278,0.066456645664567,210244.74966453,18067.495556124,4773182.6246354,5.2664566456646,0,0
44.210290364506,-3.9708863537321,0.070887088708871,210244.74966453,18067.495556124,4773182.6246354,5.2708870887089,0,0
44.210290387339,-3.9722669056364,0.075317531753175,210244.74966453,18067.495556124,4773182.6246354,5.2753175317532,0,0
44.210290410171,-3.9736474575407,0.079747974797479,210244.74966453,18067.495556124,4773182.6246354,5.2797479747975,0,0
44.210290433004,-3.975028009445,0.084178417841784,210244.74966453,18067.495556124,4773182.6246354,5.2841784178418,0,0
44.210290455836,-3.9764085613493,0.088608860886088,210244.74966453,18067.495556124,4773182.6246354,5.2886088608861,0,0
44.210290479554,-3.9777891141493,0.093039303930393,331480.05447629,-10008.246415509,4761009.0173271,5.2930393039304,0,0
44.210290512394,-3.9791696761835,0.097469746974697,331480.05447629,-10008.246415509,4761009.0173271,5.2974697469747,0,0
44.210290545234,-3.9805502382177,0.101900190019,331480.05447629,-10008.246415509,4761009.0173271,5.301900190019,0,0
44.210290578075,-3.9819308002519,0.10633063306331,331480.05447629,-10008.246415509,4761009.0173271,5.3063306330633,0,0
44.210290610915,-3.9833113622861,0.11076107610761,331480.05447629,-10008.246415509,4761009.0173271,5.3107610761076,0,0
44.210290643756,-3.9846919243203,0.11519151915192,331480.05447629,-10008.246415509,4761009.0173271,5.3151915191519,0,0
44.210290676596,-3.9860724863545,0.11962196219622,331480.05447629,-10008.246415509,4761009.0173271,5.3196219621962,0,0
44.210290709437,-3.9874530483887,0.12405240524052,331480.05447629,-10008.246415509,4761009.0173271,5.3240524052405,0,0
44.210290742277,-3.9888336104229,0.12848284828483,331480.05447629,-10008.246415509,4761009.0173271,5.3284828482848,0,0
44.210290775117,-3.9902141724571,0.13291329132913,331480.05447629,-10008.246415509,4761009.0173271,5.3329132913291,0,0
44.210290807958,-3.9915947344913,0.13734373437344,331480.05447629,-10008.246415509,4761009.0173271,5.3373437343734,0,0
44.210290840798,-3.9929752965255,0.14177417741774,331480.05447629,-10008.246415509,4761009.0173271,5.3417741774177,0,0
44.210290873639,-3.9943558585597,0.14620462046205,331480.05447629,-10008.246415509,4761009.0173271,5.346204620462,0,0
44.210290906479,-3.9957364205939,0.15063506350635,331480.05447629,-10008.246415509,4761009.0173271,5.3506350635064,0,0
44.210290939319,-3.9971169826281,0.15506550655066,331480.05447629,-10008.246415509,4761009.0173271,5.3550655065507,0,0
44.21029097216,-3.9984975446623,0.15949594959496,331480.05447629,-10008.246415509,4761009.0173271,5.359495949595,0,0
44.210291005,-3.9998781066965,0.16392639263926,331480.05447629,-10008.246415509,4761009.0173271,5.3639263926393,0,0
44.210291037841,-4.0012586687307,0.16835683568357,331480.05447629,-10008.246415509,4761009.0173271,5.3683568356836,0,0
44.210291070681,-4.0026392307649,0.17278727872787,331480.05447629,-10008.246415509,4761009.0173271,5.3727872787279,0,0
44.210291103522,-4.0040197927991,0.17721772177218,331480.05447629,-10008.246415509,4761009.0173271,5.3772177217722,0,0
44.210291136362,-4.0054003548333,0.18164816481648,331480.05447629,-10008.246415509,4761009.0173271,5.3816481648165,0,0
44.210291170344,-4.0067809124801,0.18607860786079,334318.80870921,36870.087318448,4649003.8726552,5.3860786078608,0,0
44.210291206393,-4.0081614621816,0.19050905090509,334318.80870921,36870.087318448,4649003.8726552,5.3905090509051,0,0
44.210291242443,-4.0095420118831,0.19493949394939,334318.80870921,36870.087318448,4649003.8726552,5.3949394939494,0,0
44.210291278492,-4.0109225615846,0.1993699369937,334318.80870921,36870.087318448,4649003.8726552,5.3993699369937,0,0
44.210291314541,-4.0123031112861,0.203800380038,334318.80870921,36870.087318448,4649003.8726552,5.403800380038,0,0
44.210291350591,-4.0136836609876,0.20823082308231,334318.80870921,36870.087318448,4649003.8726552,5.4082308230823,0,0
44.21029138664,-4.0150642106891,0.21266126612661,334318.80870921,36870.087318448,4649003.8726552,5.4126612661266,0,0
44.210291422689,-4.0164447603906,0.21709170917092,334318.80870921,36870.087318448,4649003.8726552,5.4170917091709,0,0
44.210291458739,-4.0178253100921,0.22152215221522,334318.80870921,36870.087318448,4649003.8726552,5.4215221522152,0,0
44.210291494788,-4.0192058597937,0.22595259525953,334318.80870921,36870.087318448,4649003.8726552,5.4259525952595,0,0
44.210291530837,-4.0205864094952,0.23038303830383,334318.80870921,36870.087318448,4649003.8726552,5.4303830383038,0,0
44.210291569607,-4.0219669620767,0.23481348134813,450892.12487483,6618.2175945073,4638764.2632885,5.4348134813481,0,0
44.21029161524,-4.0233475219258,0.23924392439244,450892.12487483,6618.2175945072,4638764.2632885,5.4392439243924,0,0
44.210291660874,-4.0247280817749,0.24367436743674,450892.12487483,6618.2175945072,4638764.2632885,5.4436743674367,0,0
44.210291706507,-4.026108641624,0.24810481048105,450892.12487483,6618.2175945072,4638764.2632885,5.448104810481,0,0
44.21029175214,-4.0274892014731,0.25253525352535,450892.12487483,6618.2175945072,4638764.2632885,5.4525352535254,0,0
44.210291797774,-4.0288697613222,0.25696569656966,450892.12487483,6618.2175945072,4638764.2632885,5.4569656965697,0,0
44.210291843407,-4.0302503211714,0.26139613961396,450892.12487483,6618.2175945072,4638764.2632885,5.461396139614,0,0
44.21029188904,-4.0316308810205,0.26582658265827,450892.12487483,6618.2175945072,4638764.2632885,5.4658265826583,0,0
44.210291934674,-4.0330114408696,0.27025702570257,450892.12487483,6618.2175945072,4638764.2632885,5.4702570257026,0,0
44.210291980307,-4.0343920007187,0.27468746874687,450892.12487483,6618.2175945072,4638764.2632885,5.4746874687469,0,0
44.21029202594,-4.0357725605678,0.27911791179118,450892.12487483,6618.2175945072,4638764.2632885,5.4791179117912,0,0
44.210292071574,-4.0371531204169,0.28354835483548,450892.12487483,6618.2175945072,4638764.2632885,5.4835483548355,0,0
44.210292117207,-4.038533680266,0.28797879787979,450892.12487483,6618.2175945072,4638764.2632885,5.4879787978798,0,0
44.21029216284,-4.0399142401151,0.29240924092409,450892.12487483,6618.2175945072,4638764.2632885,5.4924092409241,0,0
44.210292208474,-4.0412947999642,0.2968396839684,450892.12487483,6618.2175945072,4638764.2632885,5.4968396839684,0,0
44.210292254107,-4.0426753598133,0.3012701270127,450892.12487483,6618.2175945072,4638764.2632885,5.5012701270127,0,0
44.210292299741,-4.0440559196624,0.30570057005701,450892.12487483,6618.2175945072,4638764.2632885,5.505700570057,0,0
44.210292345374,-4.0454364795115,0.31013101310131,450892.12487483,6618.2175945072,4638764.2632885,5.5101310131013,0,0
44.210292391007,-4.0468170393606,0.31456145614561,450892.12487483,6618.2175945072,4638764.2632885,5.5145614561456,0,0
44.210292436641,-4.0481975992098,0.31899189918992,450892.12487483,6618.2175945072,4638764.2632885,5.5189918991899,0,0
44.210292482274,-4.0495781590589,0.32342234223422,450892.12487483,6618.2175945072,4638764.2632885,5.5234223422342,0,0
44.210292527907,-4.050958718908,0.32785278527853,450892.12487483,6618.2175945072,4638764.2632885,5.5278527852785,0,0
44.210292573541,-4.0523392787571,0.33228322832283,450892.12487483,6618.2175945072,4638764.2632885,5.5322832283228,0,0
44.210292619174,-4.0537198386062,0.33671367136714,450892.12487483,6618.2175945072,4638764.2632885,5.5367136713671,0,0
44.210292664807,-4.0551003984553,0.34114411441144,450892.12487483,6618.2175945072,4638764.2632885,5.5411441144114,0,0
44.210292710441,-4.0564809583044,0.34557455745575,450892.12487483,6618.2175945072,4638764.2632885,5.5455745574557,0,0
44.210292756074,-4.0578615181535,0.35000500050005,450892.12487483,6618.2175945072,4638764.2632885,5.5500050005001,0,0
44.210292803207,-4.059242073465,0.35443544354435,463665.8932418,46844.346450143,4535522.234753,5.5544354435444,0,0
44.210292852609,-4.0606226219083,0.35886588658866,463665.8932418,46844.346450143,4535522.234753,5.5588658865887,0,0
44.210292902012,-4.0620031703516,0.36329632963296,463665.8932418,46844.346450143,4535522.234753,5.563296329633,0,0
44.210292951414,-4.0633837187949,0.36772677267727,463665.8932418,46844.346450143,4535522.234753,5.5677267726773,0,0
44.210293000817,-4.0647642672382,0.37215721572157,463665.8932418,46844.346450143,4535522.234753,5.5721572157216,0,0
44.210293050219,-4.0661448156816,0.37658765876588,463665.8932418,46844.346450143,4535522.234753,5.5765876587659,0,0
44.210293099622,-4.0675253641249,0.38101810181018,463665.8932418,46844.346450143,4535522.234753,5.5810181018102,0,0
44.210293150396,-4.0689059140293,0.38544854485449,571936.58594826,18275.468822821,4526560.3893148,5.5854485448545,0,0
44.210293208686,-4.0702864719368,0.38987898789879,571936.58594826,18275.468822821,4526560.3893148,5.5898789878988,0,0
44.210293266975,-4.0716670298444,0.39430943094309,571936.58594826,18275.468822821,4526560.3893148,5.5943094309431,0,0
44.210293325264,-4.073047587752,0.3987398739874,571936.58594826,18275.468822821,4526560.3893148,5.5987398739874,0,0
44.210293383554,-4.0744281456595,0.4031703170317,571936.58594826,18275.468822821,4526560.3893148,5.6031703170317,0,0
44.210293441843,-4.0758087035671,0.40760076007601,571936.58594826,18275.468822821,4526560.3893148,5.607600760076,0,0
44.210293500132,-4.0771892614746,0.41203120312031,571936.58594826,18275.468822821,4526560.3893148,5.6120312031203,0,0
44.210293558422,-4.0785698193822,0.41646164616462,571936.58594826,18275.468822821,4526560.3893148,5.6164616461646,0,0
44.210293616711,-4.0799503772898,0.42089208920892,571936.58594827,18275.468822821,4526560.3893148,5.6208920892089,0,0
44.210293675,-4.0813309351973,0.42532253225323,571936.58594827,18275.468822821,4526560.3893148,5.6253225322532,0,0
44.21029373329,-4.0827114931049,0.42975297529753,571936.58594827,18275.468822821,4526560.3893148,5.6297529752975,0,0
44.210293791579,-4.0840920510125,0.43418341834183,571936.58594827,18275.468822821,4526560.3893148,5.6341834183418,0,0
44.210293849868,-4.08547260892,0.43861386138614,571936.58594827,18275.468822821,4526560.3893148,5.6386138613861,0,0
44.210293908158,-4.0868531668276,0.44304430443044,571936.58594827,18275.468822821,4526560.3893148,5.6430443044304,0,0
44.210293966447,-4.0882337247351,0.44747474747475,571936.58594827,18275.468822821,4526560.3893148,5.6474747474747,0,0
44.210294024736,-4.0896142826427,0.45190519051905,571936.58594827,18275.468822821,4526560.3893148,5.6519051905191,0,0
44.210294083026,-4.0909948405503,0.45633563356336,571936.58594827,18275.468822821,4526560.3893148,5.6563356335634,0,0
44.210294141315,-4.0923753984578,0.46076607660766,571936.58594827,18275.468822821,4526560.3893148,5.6607660766077,0,0
44.210294199604,-4.0937559563654,0.46519651965196,571936.58594827,18275.468822821,4526560.3893148,5.665196519652,0,0
44.210294257894,-4.0951365142729,0.46962696269627,571936.58594827,18275.468822821,4526560.3893148,5.6696269626963,0,0
44.210294316183,-4.0965170721805,0.47405740574057,571936.58594827,18275.468822821,4526560.3893148,5.6740574057406,0,0
44.210294374472,-4.0978976300881,0.47848784878488,571936.58594827,18275.468822821,4526560.3893148,5.6784878487849,0,0
44.210294432762,-4.0992781879956,0.48291829182918,571936.58594827,18275.468822821,4526560.3893148,5.6829182918292,0,0
44.210294491051,-4.1006587459032,0.48734873487349,571936.58594827,18275.468822821,4526560.3893148,5.6873487348735,0,0
44.21029454934,-4.1020393038108,0.49177917791779,571936.58594827,18275.468822821,4526560.3893148,5.6917791779178,0,0
44.21029460763,-4.1034198617183,0.4962096209621,571936.58594827,18275.468822821,4526560.3893148,5.6962096209621,0,0
44.210294665919,-4.1048004196259,0.5006400640064,571936.58594827,18275.468822821,4526560.3893148,5.7006400640064,0,0
44.210294724208,-4.1061809775334,0.50507050705071,571936.58594827,18275.468822821,4526560.3893148,5.7050705070507,0,0
44.210294782498,-4.107561535441,0.50950095009501,571936.58594827,18275.468822821,4526560.3893148,5.709500950095,0,0
44.210294840787,-4.1089420933486,0.51393139313931,571936.58594827,18275.468822821,4526560.3893148,5.7139313931393,0,0
44.210294899076,-4.1103226512561,0.51836183618362,571936.58594827,18275.468822821,4526560.3893148,5.7183618361836,0,0
44.210294957366,-4.1117032091637,0.52279227922792,571936.58594827,18275.468822821,4526560.3893148,5.7227922792279,0,0
44.210295015655,-4.1130837670712,0.52722272227223,571936.58594827,18275.468822821,4526560.3893148,5.7272227222722,0,0
44.210295073944,-4.1144643249788,0.53165316531653,571936.58594827,18275.468822821,4526560.3893148,5.7316531653165,0,0
44.21029513474,-4.1158448755783,0.53608360836084,583030.58412207,54720.304179341,4421495.1783522,5.7360836083608,0,0
44.210295196713,-4.1172254227439,0.54051405140514,583030.58412207,54720.304179341,4421495.1783522,5.7405140514051,0,0
44.21029526522,-4.1186059772067,0.54494449444945,678777.12725192,28595.935087878,4404935.4327632,5.7449444944494,0,0
44.210295335282,-4.1199865334044,0.54937493749375,678777.12725192,28595.935087878,4404935.4327632,5.7493749374937,0,0
44.210295405344,-4.1213670896022,0.55380538053805,678777.12725192,28595.935087878,4404935.4327632,5.7538053805381,0,0
44.210295475405,-4.1227476458,0.55823582358236,678777.12725192,28595.935087878,4404935.4327632,5.7582358235824,0,0
44.210295545467,-4.1241282019978,0.56266626662666,678777.12725192,28595.935087878,4404935.4327632,5.7626662666267,0,0
44.210295615528,-4.1255087581956,0.56709670967097,678777.12725192,28595.935087878,4404935.4327632,5.767096709671,0,0
44.21029568559,-4.1268893143934,0.57152715271527,678777.12725192,28595.935087878,4404935.4327632,5.7715271527153,0,0
44.210295755652,-4.1282698705912,0.57595759575958,678777.12725192,28595.935087878,4404935.4327632,5.7759575957596,0,0
44.210295825713,-4.129650426789,0.58038803880388,678777.12725192,28595.935087878,4404935.4327632,5.7803880388039,0,0
44.210295895775,-4.1310309829868,0.58481848184818,678777.12725192,28595.935087878,4404935.4327632,5.7848184818482,0,0
44.210295965836,-4.1324115391846,0.58924892489249,678777.12725192,28595.935087878,4404935.4327632,5.7892489248925,0,0
44.210296035898,-4.1337920953823,0.59367936793679,678777.12725192,28595.935087878,4404935.4327632,5.7936793679368,0,0
44.210296105301,-4.1351726519516,0.5981098109811,631482.08788334,-26530.124104056,4311413.2272967,5.7981098109811,0,0
44.210296174075,-4.1365532088754,0.6025402540254,631482.08788334,-26530.124104056,4311413.2272967,5.8025402540254,0,0
44.210296242848,-4.1379337657992,0.60697069706971,631482.08788334,-26530.124104056,4311413.2272967,5.8069706970697,0,0
44.210296311622,-4.139314322723,0.61140114011401,631482.08788334,-26530.124104056,4311413.2272967,5.811401140114,0,0
44.210296380396,-4.1406948796468,0.61583158315832,631482.08788334,-26530.124104056,4311413.2272967,5.8158315831583,0,0
44.21029644917,-4.1420754365706,0.62026202620262,631482.08788334,-26530.124104056,4311413.2272967,5.8202620262026,0,0
44.210296517944,-4.1434559934944,0.62469246924692,631482.08788334,-26530.124104056,4311413.2272967,5.8246924692469,0,0
44.210296586718,-4.1448365504182,0.62912291229123,631482.08788334,-26530.124104056,4311413.2272967,5.8291229122912,0,0
44.210296655492,-4.146217107342,0.63355335533553,631482.08788334,-26530.124104056,4311413.2272967,5.8335533553355,0,0
44.210296724266,-4.1475976642658,0.63798379837984,631482.08788334,-26530.124104056,4311413.2272967,5.8379837983798,0,0
44.21029679304,-4.1489782211896,0.64241424142414,631482.08788334,-26530.124104056,4311413.2272967,5.8424142414241,0,0
44.210296861814,-4.1503587781134,0.64684468446845,631482.08788334,-26530.124104056,4311413.2272967,5.8468446844684,0,0
44.210296930588,-4.1517393350372,0.65127512751275,631482.08788334,-26530.124104056,4311413.2272967,5.8512751275128,0,0
44.210296999362,-4.153119891961,0.65570557055706,631482.08788334,-26530.124104056,4311413.2272967,5.8557055705571,0,0
44.210297068136,-4.1545004488848,0.66013601360136,631482.08788334,-26530.124104056,4311413.2272967,5.8601360136014,0,0
44.210297136909,-4.1558810058086,0.66456645664566,631482.08788334,-26530.124104056,4311413.2272967,5.8645664566457,0,0
44.210297205683,-4.1572615627324,0.66899689968997,631482.08788334,-26530.124104056,4311413.2272967,5.86899689969,0,0
44.210297274457,-4.1586421196562,0.67342734273427,631482.08788334,-26530.124104056,4311413.2272967,5.8734273427343,0,0
44.210297343231,-4.16002267658,0.67785778577858,631482.08788334,-26530.124104056,4311413.2272967,5.8778577857786,0,0
44.210297412005,-4.1614032335038,0.68228822882288,631482.08788334,-26530.124104056,4311413.2272967,5.8822882288229,0,0
44.210297480779,-4.1627837904275,0.68671867186719,631482.08788334,-26530.124104056,4311413.2272967,5.8867186718672,0,0
44.210297549553,-4.1641643473513,0.69114911491149,631482.08788334,-26530.124104056,4311413.2272967,5.8911491149115,0,0
44.210297623173,-4.1655449066164,0.6955795579558,805111.07010807,-42851.865539433,4353033.3426907,5.8955795579558,0,0
44.210297704708,-4.1669254697047,0.7000100010001,805111.07010807,-42851.865539433,4353033.3426907,5.9000100010001,0,0
44.210297786242,-4.1683060327929,0.7044404440444,805111.07010807,-42851.865539433,4353033.3426907,5.9044404440444,0,0
44.210297867777,-4.1696865958812,0.70887088708871,805111.07010807,-42851.865539433,4353033.3426907,5.9088708870887,0,0
44.210297949312,-4.1710671589694,0.71330133013301,805111.07010807,-42851.865539433,4353033.3426907,5.913301330133,0,0
44.210298030846,-4.1724477220577,0.71773177317732,805111.07010807,-42851.865539433,4353033.3426907,5.9177317731773,0,0
44.210298110629,-4.1738282834804,0.72216221622162,726173.59178139,4682.7157677853,4244986.540582,5.9221622162216,0,0
44.210298188736,-4.1752088433078,0.72659265926593,726173.59178139,4682.7157677853,4244986.540582,5.9265926592659,0,0
44.210298266842,-4.1765894031352,0.73102310231023,726173.59178139,4682.7157677853,4244986.540582,5.9310231023102,0,0
44.210298344948,-4.1779699629627,0.73545354535454,726173.59178139,4682.7157677853,4244986.540582,5.9354535453545,0,0
44.210298423054,-4.1793505227901,0.73988398839884,726173.59178139,4682.7157677853,4244986.540582,5.9398839883988,0,0
44.21029850116,-4.1807310826175,0.74431443144314,726173.59178139,4682.7157677853,4244986.540582,5.9443144314431,0,0
44.210298579266,-4.1821116424449,0.74874487448745,726173.59178139,4682.7157677853,4244986.540582,5.9487448744874,0,0
44.210298657372,-4.1834922022724,0.75317531753175,726173.59178139,4682.7157677853,4244986.540582,5.9531753175318,0,0
44.210298735478,-4.1848727620998,0.75760576057606,726173.59178139,4682.7157677853,4244986.540582,5.9576057605761,0,0
44.210298813584,-4.1862533219272,0.76203620362036,726173.59178139,4682.7157677853,4244986.540582,5.9620362036204,0,0
44.210298891691,-4.1876338817546,0.76646664666467,726173.59178139,4682.7157677853,4244986.540582,5.9664666466647,0,0
44.210298969797,-4.1890144415821,0.77089708970897,726173.59178139,4682.7157677853,4244986.540582,5.970897089709,0,0
44.210299047903,-4.1903950014095,0.77532753275328,726173.59178139,4682.7157677853,4244986.540582,5.9753275327533,0,0
44.210299126009,-4.1917755612369,0.77975797579758,726173.59178139,4682.7157677853,4244986.540582,5.9797579757976,0,0
44.210299204115,-4.1931561210643,0.78418841884188,726173.59178139,4682.7157677853,4244986.540582,5.9841884188419,0,0
44.210299282221,-4.1945366808918,0.78861886188619,726173.59178139,4682.7157677853,4244986.540582,5.9886188618862,0,0
44.210299360327,-4.1959172407192,0.79304930493049,726173.59178139,4682.7157677853,4244986.540582,5.9930493049305,0,0
44.210299438433,-4.1972978005466,0.7974797479748,726173.59178139,4682.7157677853,4244986.540582,5.9974797479748,0,0
44.210299516539,-4.198678360374,0.8019101910191,726173.59178139,4682.7157677853,4244986.540582,6.0019101910191,0,0
44.210299594646,-4.2000589202015,0.80634063406341,726173.59178139,4682.7157677853,4244986.540582,6.0063406340634,0,0
44.210299672752,-4.2014394800289,0.81077107710771,726173.59178139,4682.7157677853,4244986.540582,6.0107710771077,0,0
44.210299750858,-4.2028200398563,0.81520152015201,726173.59178139,4682.7157677853,4244986.540582,6.015201520152,0,0
44.210299828964,-4.2042005996837,0.81963196319632,726173.59178139,4682.7157677853,4244986.540582,6.0196319631963,0,0
44.21029990707,-4.2055811595112,0.82406240624062,726173.59178139,4682.7157677853,4244986.540582,6.0240624062406,0,0
44.210299985176,-4.2069617193386,0.82849284928493,726173.59178139,4682.7157677853,4244986.540582,6.0284928492849,0,0
44.210300063282,-4.208342279166,0.83292329232923,726173.59178139,4682.7157677853,4244986.540582,6.0329232923292,0,0
44.210300141388,-4.2097228389935,0.83735373537354,726173.59178139,4682.7157677853,4244986.540582,6.0373537353735,0,0
44.210300219494,-4.2111033988209,0.84178417841784,726173.59178139,4682.7157677853,4244986.540582,6.0417841784178,0,0
44.2103002976,-4.2124839586483,0.84621462146215,726173.59178139,4682.7157677853,4244986.540582,6.0462146214621,0,0
44.210300376898,-4.2138645172114,0.85064506450645,846147.91709669,34787.828501521,4228982.8760465,6.0506450645065,0,0
44.210300465013,-4.2152450664132,0.85507550755076,846147.91709669,34787.828501521,4228982.8760465,6.0550755075508,0,0
44.210300553128,-4.216625615615,0.85950595059506,846147.91709669,34787.828501521,4228982.8760465,6.0595059505951,0,0
44.210300641243,-4.2180061648168,0.86393639363936,846147.91709669,34787.828501521,4228982.8760465,6.0639363936394,0,0
44.210300729359,-4.2193867140186,0.86836683668367,846147.91709669,34787.828501521,4228982.8760465,6.0683668366837,0,0
44.210300817474,-4.2207672632204,0.87279727972797,846147.91709669,34787.828501521,4228982.8760465,6.072797279728,0,0
44.210300905589,-4.2221478124223,0.87722772277228,846147.91709669,34787.828501521,4228982.8760465,6.0772277227723,0,0
44.210300993704,-4.2235283616241,0.88165816581658,846147.91709669,34787.828501521,4228982.8760465,6.0816581658166,0,0
44.21030108182,-4.2249089108259,0.88608860886089,846147.91709669,34787.828501521,4228982.8760465,6.0860886088609,0,0
44.210301169935,-4.2262894600277,0.89051905190519,846147.91709669,34787.828501521,4228982.8760465,6.0905190519052,0,0
44.21030125805,-4.2276700092295,0.8949494949495,846147.91709669,34787.828501521,4228982.8760465,6.0949494949495,0,0
44.210301346165,-4.2290505584313,0.8993799379938,846147.91709669,34787.828501521,4228982.8760465,6.0993799379938,0,0
44.210301434281,-4.2304311076331,0.9038103810381,846147.91709669,34787.828501521,4228982.8760465,6.1038103810381,0,0
44.210301522396,-4.2318116568349,0.90824082408241,846147.91709669,34787.828501521,4228982.8760465,6.1082408240824,0,0
44.210301610511,-4.2331922060368,0.91267126712671,846147.91709669,34787.828501521,4228982.8760465,6.1126712671267,0,0
44.210301698626,-4.2345727552386,0.91710171017102,846147.91709669,34787.828501521,4228982.8760465,6.117101710171,0,0
44.210301786742,-4.2359533044404,0.92153215321532,846147.91709669,34787.828501521,4228982.8760465,6.1215321532153,0,0
44.210301874857,-4.2373338536422,0.92596259625963,846147.91709669,34787.828501521,4228982.8760465,6.1259625962596,0,0
44.210301962972,-4.238714402844,0.93039303930393,846147.91709669,34787.828501521,4228982.8760465,6.1303930393039,0,0
44.210302051087,-4.2400949520458,0.93482348234823,846147.91709669,34787.828501521,4228982.8760465,6.1348234823482,0,0
44.210302140565,-4.2414755036992,0.93925392539254,902049.26353351,-294.05037594195,4152371.0580128,6.1392539253925,0,0
44.210302235186,-4.2428560646027,0.94368436843684,902049.26353351,-294.05037594195,4152371.0580128,6.1436843684368,0,0
44.210302329806,-4.2442366255062,0.94811481148115,902049.26353351,-294.05037594195,4152371.0580128,6.1481148114811,0,0
44.210302424426,-4.2456171864097,0.95254525452545,902049.26353351,-294.05037594195,4152371.0580128,6.1525452545255,0,0
44.210302519046,-4.2469977473132,0.95697569756976,902049.26353351,-294.05037594195,4152371.0580128,6.1569756975698,0,0
44.210302613667,-4.2483783082168,0.96140614061406,902049.26353351,-294.05037594195,4152371.0580128,6.1614061406141,0,0
44.210302708287,-4.2497588691203,0.96583658365837,902049.26353351,-294.05037594195,4152371.0580128,6.1658365836584,0,0
44.210302802907,-4.2511394300238,0.97026702670267,902049.26353351,-294.05037594195,4152371.0580128,6.1702670267027,0,0
44.210302897527,-4.2525199909273,0.97469746974697,902049.26353351,-294.05037594195,4152371.0580128,6.174697469747,0,0
44.210302992147,-4.2539005518308,0.97912791279128,902049.26353351,-294.05037594195,4152371.0580128,6.1791279127913,0,0
44.210303086768,-4.2552811127343,0.98355835583558,902049.26353351,-294.05037594195,4152371.0580128,6.1835583558356,0,0
44.210303181388,-4.2566616736378,0.98798879887989,902049.26353351,-294.05037594195,4152371.0580128,6.1879887988799,0,0
44.210303276008,-4.2580422345413,0.99241924192419,902049.26353351,-294.05037594195,4152371.0580128,6.1924192419242,0,0
44.210303370628,-4.2594227954448,0.9968496849685,902049.26353351,-294.05037594195,4152371.0580128,6.1968496849685,0,0
44.210303465249,-4.2608033563484,1.0012801280128,902049.26353351,-294.05037594195,4152371.0580128,6.2012801280128,0,0
44.210303559869,-4.2621839172519,1.0057105710571,902049.26353351,-294.05037594195,4152371.0580128,6.2057105710571,0,0
44.210303654489,-4.2635644781554,1.0101410141014,902049.26353351,-294.05037594195,4152371.0580128,6.2101410141014,0,0
44.210303749109,-4.2649450390589,1.0145714571457,902049.26353351,-294.05037594195,4152371.0580128,6.2145714571457,0,0
44.210303843729,-4.2663255999624,1.01900190019,902049.26353351,-294.05037594195,4152371.0580128,6.21900190019,0,0
44.21030393835,-4.2677061608659,1.0234323432343,902049.26353351,-294.05037594195,4152371.0580128,6.2234323432343,0,0
44.21030403297,-4.2690867217694,1.0278627862786,902049.26353351,-294.05037594195,4152371.0580128,6.2278627862786,0,0
44.21030412759,-4.2704672826729,1.0322932293229,902049.26353351,-294.05037594195,4152371.0580128,6.2322932293229,0,0
44.21030422221,-4.2718478435764,1.0367236723672,902049.26353351,-294.05037594195,4152371.0580128,6.2367236723672,0,0
44.210304316831,-4.27322840448,1.0411541154115,902049.26353351,-294.05037594195,4152371.0580128,6.2411541154115,0,0
44.210304411451,-4.2746089653835,1.0455845584558,902049.26353351,-294.05037594195,4152371.0580128,6.2455845584558,0,0
44.210304506071,-4.275989526287,1.0500150015002,902049.26353351,-294.05037594195,4152371.0580128,6.2500150015002,0,0
44.210304600691,-4.2773700871905,1.0544454445445,902049.26353351,-294.05037594195,4152371.0580128,6.2544454445445,0,0
44.210304695312,-4.278750648094,1.0588758875888,902049.26353351,-294.05037594195,4152371.0580128,6.2588758875888,0,0
44.210304789932,-4.2801312089975,1.0633063306331,902049.26353351,-294.05037594195,4152371.0580128,6.2633063306331,0,0
44.210304884552,-4.281511769901,1.0677367736774,902049.26353351,-294.05037594195,4152371.0580128,6.2677367736774,0,0
44.210304979172,-4.2828923308045,1.0721672167217,902049.26353351,-294.05037594195,4152371.0580128,6.2721672167217,0,0
44.210305073792,-4.284272891708,1.076597659766,902049.26353351,-294.05037594195,4152371.0580128,6.276597659766,0,0
44.210305168413,-4.2856534526115,1.0810281028103,902049.26353351,-294.05037594195,4152371.0580128,6.2810281028103,0,0
44.210305263033,-4.2870340135151,1.0854585458546,902049.26353351,-294.05037594195,4152371.0580128,6.2854585458546,0,0
44.210305357653,-4.2884145744186,1.0898889888989,902049.26353351,-294.05037594195,4152371.0580128,6.2898889888989,0,0
44.210305452273,-4.2897951353221,1.0943194319432,902049.26353351,-294.05037594195,4152371.0580128,6.2943194319432,0,0
44.210305546894,-4.2911756962256,1.0987498749875,902049.26353351,-294.05037594195,4152371.0580128,6.2987498749875,0,0
44.210305641514,-4.2925562571291,1.1031803180318,902049.26353351,-294.05037594195,4152371.0580128,6.3031803180318,0,0
44.210305741222,-4.2939368082425,1.1076107610761,946634.94954602,32356.004876917,4078539.9946662,6.3076107610761,0,0
44.210305841369,-4.29531735851,1.1120412041204,946634.94954602,32356.004876917,4078539.9946662,6.3120412041204,0,0
44.210305941516,-4.2966979087775,1.1164716471647,946634.94954602,32356.004876917,4078539.9946662,6.3164716471647,0,0
44.210306041663,-4.298078459045,1.120902090209,946634.94954602,32356.004876917,4078539.9946662,6.320902090209,0,0
44.210306141811,-4.2994590093125,1.1253325332533,946634.94954602,32356.004876917,4078539.9946662,6.3253325332533,0,0
44.210306241958,-4.30083955958,1.1297629762976,946634.94954602,32356.004876917,4078539.9946662,6.3297629762976,0,0
44.210306342105,-4.3022201098475,1.1341934193419,946634.94954602,32356.004876917,4078539.9946662,6.3341934193419,0,0
44.210306442253,-4.303600660115,1.1386238623862,946634.94954602,32356.004876917,4078539.9946662,6.3386238623862,0,0
44.2103065424,-4.3049812103825,1.1430543054305,946634.94954602,32356.004876917,4078539.9946662,6.3430543054305,0,0
44.210306642547,-4.30636176065,1.1474847484748,946634.94954602,32356.004876917,4078539.9946662,6.3474847484748,0,0
44.210306742695,-4.3077423109175,1.1519151915192,946634.94954602,32356.004876917,4078539.9946662,6.3519151915192,0,0
44.210306842842,-4.309122861185,1.1563456345635,946634.94954602,32356.004876917,4078539.9946662,6.3563456345635,0,0
44.210306942989,-4.3105034114526,1.1607760776078,946634.94954602,32356.004876917,4078539.9946662,6.3607760776078,0,0
44.210307043137,-4.3118839617201,1.1652065206521,946634.94954602,32356.004876917,4078539.9946662,6.3652065206521,0,0
44.210307143284,-4.3132645119876,1.1696369636964,946634.94954602,32356.004876917,4078539.9946662,6.3696369636964,0,0
44.210307243431,-4.3146450622551,1.1740674067407,946634.94954602,32356.004876917,4078539.9946662,6.3740674067407,0,0
44.210307343579,-4.3160256125226,1.178497849785,946634.94954602,32356.004876917,4078539.9946662,6.378497849785,0,0
44.210307443726,-4.3174061627901,1.1829282928293,946634.94954602,32356.004876917,4078539.9946662,6.3829282928293,0,0
44.210307543873,-4.3187867130576,1.1873587358736,946634.94954602,32356.004876917,4078539.9946662,6.3873587358736,0,0
44.210307645751,-4.3201672661951,1.1917891789179,1015864.0206589,-4565.2837866329,4030061.4427372,6.3917891789179,0,0
44.210307752719,-4.3215478277734,1.1962196219622,1015864.0206589,-4565.2837866329,4030061.4427372,6.3962196219622,0,0
44.210307859687,-4.3229283893517,1.2006500650065,1015864.0206589,-4565.2837866329,4030061.4427372,6.4006500650065,0,0
44.210307966654,-4.32430895093,1.2050805080508,1015864.0206589,-4565.2837866329,4030061.4427372,6.4050805080508,0,0
44.210308073622,-4.3256895125083,1.2095109510951,1015864.0206589,-4565.2837866329,4030061.4427372,6.4095109510951,0,0
44.21030818059,-4.3270700740866,1.2139413941394,1015864.0206589,-4565.2837866329,4030061.4427372,6.4139413941394,0,0
44.210308287558,-4.3284506356649,1.2183718371837,1015864.0206589,-4565.2837866329,4030061.4427372,6.4183718371837,0,0
44.210308394526,-4.3298311972432,1.222802280228,1015864.0206589,-4565.2837866329,4030061.4427372,6.422802280228,0,0
44.210308501493,-4.3312117588215,1.2272327232723,1015864.0206589,-4565.2837866329,4030061.4427372,6.4272327232723,0,0
44.210308608461,-4.3325923203998,1.2316631663166,1015864.0206589,-4565.2837866329,4030061.4427372,6.4316631663166,0,0
44.210308715429,-4.3339728819781,1.2360936093609,1015864.0206589,-4565.2837866329,4030061.4427372,6.4360936093609,0,0
44.210308822397,-4.3353534435564,1.2405240524052,1015864.0206589,-4565.2837866329,4030061.4427372,6.4405240524052,0,0
44.210308929365,-4.3367340051347,1.2449544954495,1015864.0206589,-4565.2837866329,4030061.4427372,6.4449544954495,0,0
44.210309036332,-4.338114566713,1.2493849384938,1015864.0206589,-4565.2837866329,4030061.4427372,6.4493849384938,0,0
44.2103091433,-4.3394951282913,1.2538153815382,1015864.0206589,-4565.2837866329,4030061.4427372,6.4538153815382,0,0
44.210309250268,-4.3408756898696,1.2582458245825,1015864.0206589,-4565.2837866329,4030061.4427372,6.4582458245825,0,0
44.210309357236,-4.3422562514479,1.2626762676268,1015864.0206589,-4565.2837866329,4030061.4427372,6.4626762676268,0,0
44.210309464204,-4.3436368130262,1.2671067106711,1015864.0206589,-4565.2837866329,4030061.4427372,6.4671067106711,0,0
44.210309571171,-4.3450173746045,1.2715371537154,1015864.0206589,-4565.2837866329,4030061.4427372,6.4715371537154,0,0
44.210309678139,-4.3463979361828,1.2759675967597,1015864.0206589,-4565.2837866329,4030061.4427372,6.4759675967597,0,0
44.210309785107,-4.3477784977611,1.280398039804,1015864.0206589,-4565.2837866329,4030061.4427372,6.480398039804,0,0
44.210309892075,-4.3491590593394,1.2848284828483,1015864.0206589,-4565.2837866329,4030061.4427372,6.4848284828483,0,0
44.210309999042,-4.3505396209177,1.2892589258926,1015864.0206589,-4565.2837866329,4030061.4427372,6.4892589258926,0,0
44.21031010601,-4.351920182496,1.2936893689369,1015864.0206589,-4565.2837866329,4030061.4427372,6.4936893689369,0,0
44.210310212978,-4.3533007440743,1.2981198119812,1015864.0206589,-4565.2837866329,4030061.4427372,6.4981198119812,0,0
44.210310319946,-4.3546813056526,1.3025502550255,1015864.0206589,-4565.2837866329,4030061.4427372,6.5025502550255,0,0
44.210310426914,-4.3560618672309,1.3069806980698,1015864.0206589,-4565.2837866329,4030061.4427372,6.5069806980698,0,0
44.210310533881,-4.3574424288092,1.3114111411141,1015864.0206589,-4565.2837866329,4030061.4427372,6.5114111411141,0,0
44.210310640849,-4.3588229903875,1.3158415841584,1015864.0206589,-4565.2837866329,4030061.4427372,6.5158415841584,0,0
44.210310747817,-4.3602035519658,1.3202720272027,1015864.0206589,-4565.2837866329,4030061.4427372,6.5202720272027,0,0
44.210310854785,-4.3615841135441,1.324702470247,1015864.0206589,-4565.2837866329,4030061.4427372,6.524702470247,0,0
44.210310961753,-4.3629646751224,1.3291329132913,1015864.0206589,-4565.2837866329,4030061.4427372,6.5291329132913,0,0
44.21031106872,-4.3643452367007,1.3335633563356,1015864.0206589,-4565.2837866329,4030061.4427372,6.5335633563356,0,0
44.210311175688,-4.365725798279,1.3379937993799,1015864.0206589,-4565.2837866329,4030061.4427372,6.5379937993799,0,0
44.210311282656,-4.3671063598573,1.3424242424242,1015864.0206589,-4565.2837866329,4030061.4427372,6.5424242424242,0,0
44.210311389727,-4.3684869212643,1.3468546854685,1081948.4870643,30842.678005456,3977138.5049113,6.5468546854685,0,0
44.210311503382,-4.3698674717056,1.3512851285129,1081948.4870643,30842.678005456,3977138.5049113,6.5512851285129,0,0
44.210311617038,-4.3712480221469,1.3557155715572,1081948.4870643,30842.678005456,3977138.5049113,6.5557155715572,0,0
44.210311730693,-4.3726285725883,1.3601460146015,1081948.4870643,30842.678005456,3977138.5049113,6.5601460146015,0,0
44.210311844348,-4.3740091230296,1.3645764576458,1081948.4870643,30842.678005456,3977138.5049113,6.5645764576458,0,0
44.210311958004,-4.3753896734709,1.3690069006901,1081948.4870643,30842.678005456,3977138.5049113,6.5690069006901,0,0
44.210312071659,-4.3767702239123,1.3734373437344,1081948.4870643,30842.678005456,3977138.5049113,6.5734373437344,0,0
44.210312185315,-4.3781507743536,1.3778677867787,1081948.4870643,30842.678005456,3977138.5049113,6.5778677867787,0,0
44.21031229897,-4.3795313247949,1.382298229823,1081948.4870643,30842.678005456,3977138.5049113,6.582298229823,0,0
44.210312412626,-4.3809118752363,1.3867286728673,1081948.4870643,30842.678005456,3977138.5049113,6.5867286728673,0,0
44.210312526281,-4.3822924256776,1.3911591159116,1081948.4870643,30842.678005456,3977138.5049113,6.5911591159116,0,0
44.210312639936,-4.3836729761189,1.3955895589559,1081948.4870643,30842.678005456,3977138.5049113,6.5955895589559,0,0
44.210312753592,-4.3850535265603,1.4000200020002,1081948.4870643,30842.678005456,3977138.5049113,6.6000200020002,0,0
44.210312867247,-4.3864340770016,1.4044504450445,1081948.4870643,30842.678005456,3977138.5049113,6.6044504450445,0,0
44.210312980903,-4.3878146274429,1.4088808880888,1081948.4870643,30842.678005456,3977138.5049113,6.6088808880888,0,0
44.210313094558,-4.3891951778843,1.4133113311331,1081948.4870643,30842.678005456,3977138.5049113,6.6133113311331,0,0
44.210313208213,-4.3905757283256,1.4177417741774,1081948.4870643,30842.678005456,3977138.5049113,6.6177417741774,0,0
44.210313321869,-4.3919562787669,1.4221722172217,1081948.4870643,30842.678005456,3977138.5049113,6.6221722172217,0,0
44.210313435524,-4.3933368292083,1.426602660266,1081948.4870643,30842.678005456,3977138.5049113,6.626602660266,0,0
44.21031354918,-4.3947173796496,1.4310331033103,1081948.4870643,30842.678005456,3977138.5049113,6.6310331033103,0,0
44.210313662835,-4.3960979300909,1.4354635463546,1081948.4870643,30842.678005456,3977138.5049113,6.6354635463546,0,0
44.210313776491,-4.3974784805323,1.4398939893989,1081948.4870643,30842.678005456,3977138.5049113,6.6398939893989,0,0
44.210313890146,-4.3988590309736,1.4443244324432,1081948.4870643,30842.678005456,3977138.5049113,6.6443244324432,0,0
44.210314004718,-4.4002395839578,1.4487548754875,1111095.7501307,-14468.275330586,3900148.7119583,6.6487548754875,0,0
44.210314122751,-4.4016201465466,1.4531853185319,1111095.7501307,-14468.275330586,3900148.7119583,6.6531853185319,0,0
44.210314240785,-4.4030007091353,1.4576157615762,1111095.7501307,-14468.275330586,3900148.7119583,6.6576157615762,0,0
44.210314358818,-4.404381271724,1.4620462046205,1111095.7501307,-14468.275330586,3900148.7119583,6.6620462046205,0,0
44.210314476852,-4.4057618343128,1.4664766476648,1111095.7501307,-14468.275330586,3900148.7119583,6.6664766476648,0,0
44.210314594885,-4.4071423969015,1.4709070907091,1111095.7501307,-14468.275330586,3900148.7119583,6.6709070907091,0,0
44.210314712919,-4.4085229594902,1.4753375337534,1111095.7501307,-14468.275330586,3900148.7119583,6.6753375337534,0,0
44.210314830952,-4.409903522079,1.4797679767977,1111095.7501307,-14468.275330586,3900148.7119583,6.6797679767977,0,0
44.210314948986,-4.4112840846677,1.484198419842,1111095.7501307,-14468.275330586,3900148.7119583,6.684198419842,0,0
44.210315067019,-4.4126646472564,1.4886288628863,1111095.7501307,-14468.275330586,3900148.7119583,6.6886288628863,0,0
44.210315185053,-4.4140452098452,1.4930593059306,1111095.7501307,-14468.275330586,3900148.7119583,6.6930593059306,0,0
44.210315303086,-4.4154257724339,1.4974897489749,1111095.7501307,-14468.275330586,3900148.7119583,6.6974897489749,0,0
44.210315421119,-4.4168063350226,1.5019201920192,1111095.7501307,-14468.275330586,3900148.7119583,6.7019201920192,0,0
44.210315539153,-4.4181868976114,1.5063506350635,1111095.7501307,-14468.275330586,3900148.7119583,6.7063506350635,0,0
44.210315657186,-4.4195674602001,1.5107810781078,1111095.7501307,-14468.275330586,3900148.7119583,6.7107810781078,0,0
44.21031577522,-4.4209480227889,1.5152115211521,1111095.7501307,-14468.275330586,3900148.7119583,6.7152115211521,0,0
44.210315893253,-4.4223285853776,1.5196419641964,1111095.7501307,-14468.275330586,3900148.7119583,6.7196419641964,0,0
44.210316011287,-4.4237091479663,1.5240724072407,1111095.7501307,-14468.275330586,3900148.7119583,6.7240724072407,0,0
44.21031612932,-4.4250897105551,1.528502850285,1111095.7501307,-14468.275330586,3900148.7119583,6.728502850285,0,0
44.210316247354,-4.4264702731438,1.5329332933293,1111095.7501307,-14468.275330586,3900148.7119583,6.7329332933293,0,0
44.210316365387,-4.4278508357325,1.5373637363736,1111095.7501307,-14468.275330586,3900148.7119583,6.7373637363736,0,0
44.210316483421,-4.4292313983213,1.5417941794179,1111095.7501307,-14468.275330586,3900148.7119583,6.7417941794179,0,0
44.210316601454,-4.43061196091,1.5462246224622,1111095.7501307,-14468.275330586,3900148.7119583,6.7462246224622,0,0
44.210316719488,-4.4319925234987,1.5506550655066,1111095.7501307,-14468.275330586,3900148.7119583,6.7506550655066,0,0
44.210316837521,-4.4333730860875,1.5550855085509,1111095.7501307,-14468.275330586,3900148.7119583,6.7550855085509,0,0
44.210316955554,-4.4347536486762,1.5595159515952,1111095.7501307,-14468.275330586,3900148.7119583,6.7595159515952,0,0
44.210317073588,-4.4361342112649,1.5639463946395,1111095.7501307,-14468.275330586,3900148.7119583,6.7639463946395,0,0
44.210317191621,-4.4375147738537,1.5683768376838,1111095.7501307,-14468.275330586,3900148.7119583,6.7683768376838,0,0
44.210317309655,-4.4388953364424,1.5728072807281,1111095.7501307,-14468.275330586,3900148.7119583,6.7728072807281,0,0
44.210317427688,-4.4402758990311,1.5772377237724,1111095.7501307,-14468.275330586,3900148.7119583,6.7772377237724,0,0
44.210317545722,-4.4416564616199,1.5816681668167,1111095.7501307,-14468.275330586,3900148.7119583,6.7816681668167,0,0
44.210317663755,-4.4430370242086,1.586098609861,1111095.7501307,-14468.275330586,3900148.7119583,6.786098609861,0,0
44.210317781789,-4.4444175867973,1.5905290529053,1111095.7501307,-14468.275330586,3900148.7119583,6.7905290529053,0,0
44.210317899822,-4.4457981493861,1.5949594959496,1111095.7501307,-14468.275330586,3900148.7119583,6.7949594959496,0,0
44.210318017856,-4.4471787119748,1.5993899389939,1111095.7501307,-14468.275330586,3900148.7119583,6.7993899389939,0,0
44.210318135889,-4.4485592745636,1.6038203820382,1111095.7501307,-14468.275330586,3900148.7119583,6.8038203820382,0,0
44.210318261194,-4.4499398284027,1.6082508250825,1209933.5146223,14956.175063503,3869706.8242703,6.8082508250825,0,0
44.210318387933,-4.4513203805162,1.6126812681268,1209933.5146223,14956.175063503,3869706.8242703,6.8126812681268,0,0
44.210318514671,-4.4527009326298,1.6171117111711,1209933.5146223,14956.175063503,3869706.8242703,6.8171117111711,0,0
44.21031864141,-4.4540814847434,1.6215421542154,1209933.5146223,14956.175063503,3869706.8242703,6.8215421542154,0,0
44.210318768149,-4.455462036857,1.6259725972597,1209933.5146223,14956.175063503,3869706.8242703,6.8259725972597,0,0
44.210318894887,-4.4568425889706,1.630403040304,1209933.5146223,14956.175063503,3869706.8242703,6.830403040304,0,0
44.210319021626,-4.4582231410842,1.6348334833483,1209933.5146223,14956.175063503,3869706.8242703,6.8348334833483,0,0
44.210319148365,-4.4596036931978,1.6392639263926,1209933.5146223,14956.175063503,3869706.8242703,6.8392639263926,0,0
44.210319275104,-4.4609842453113,1.6436943694369,1209933.5146223,14956.175063503,3869706.8242703,6.8436943694369,0,0
44.210319401842,-4.4623647974249,1.6481248124812,1209933.5146223,14956.175063503,3869706.8242703,6.8481248124812,0,0
44.210319528581,-4.4637453495385,1.6525552555256,1209933.5146223,14956.175063503,3869706.8242703,6.8525552555256,0,0
44.21031965532,-4.4651259016521,1.6569856985699,1209933.5146223,14956.175063503,3869706.8242703,6.8569856985699,0,0
44.210319782059,-4.4665064537657,1.6614161416142,1209933.5146223,14956.175063503,3869706.8242703,6.8614161416142,0,0
44.210319908797,-4.4678870058793,1.6658465846585,1209933.5146223,14956.175063503,3869706.8242703,6.8658465846585,0,0
44.210320035536,-4.4692675579929,1.6702770277028,1209933.5146223,14956.175063503,3869706.8242703,6.8702770277028,0,0
44.210320162275,-4.4706481101064,1.6747074707471,1209933.5146223,14956.175063503,3869706.8242703,6.8747074707471,0,0
44.210320289013,-4.47202866222,1.6791379137914,1209933.5146223,14956.175063503,3869706.8242703,6.8791379137914,0,0
44.210320415752,-4.4734092143336,1.6835683568357,1209933.5146223,14956.175063503,3869706.8242703,6.8835683568357,0,0
44.210320542491,-4.4747897664472,1.68799879988,1209933.5146223,14956.175063503,3869706.8242703,6.88799879988,0,0
44.21032066923,-4.4761703185608,1.6924292429243,1209933.5146223,14956.175063503,3869706.8242703,6.8924292429243,0,0
44.210320795968,-4.4775508706744,1.6968596859686,1209933.5146223,14956.175063503,3869706.8242703,6.8968596859686,0,0
44.210320922707,-4.478931422788,1.7012901290129,1209933.5146223,14956.175063503,3869706.8242703,6.9012901290129,0,0
44.210321049446,-4.4803119749015,1.7057205720572,1209933.5146223,14956.175063503,3869706.8242703,6.9057205720572,0,0
44.210321176185,-4.4816925270151,1.7101510151015,1209933.5146223,14956.175063503,3869706.8242703,6.9101510151015,0,0
44.210321302923,-4.4830730791287,1.7145814581458,1209933.5146223,14956.175063503,3869706.8242703,6.9145814581458,0,0
44.210321429662,-4.4844536312423,1.7190119011901,1209933.5146223,14956.175063503,3869706.8242703,6.9190119011901,0,0
44.210321556401,-4.4858341833559,1.7234423442344,1209933.5146223,14956.175063503,3869706.8242703,6.9234423442344,0,0
44.210321683139,-4.4872147354695,1.7278727872787,1209933.5146223,14956.175063503,3869706.8242703,6.9278727872787,0,0
44.210321809878,-4.4885952875831,1.732303230323,1209933.5146223,14956.175063503,3869706.8242703,6.932303230323,0,0
44.210321936617,-4.4899758396966,1.7367336733673,1209933.5146223,14956.175063503,3869706.8242703,6.9367336733673,0,0
44.210322063356,-4.4913563918102,1.7411641164116,1209933.5146223,14956.175063503,3869706.8242703,6.9411641164116,0,0
44.210322190094,-4.4927369439238,1.7455945594559,1209933.5146223,14956.175063503,3869706.8242703,6.9455945594559,0,0
44.210322316833,-4.4941174960374,1.7500250025002,1209933.5146223,14956.175063503,3869706.8242703,6.9500250025002,0,0
44.210322443572,-4.495498048151,1.7544554455446,1209933.5146223,14956.175063503,3869706.8242703,6.9544554455446,0,0
44.210322570311,-4.4968786002646,1.7588858885889,1209933.5146223,14956.175063503,3869706.8242703,6.9588858885889,0,0
44.210322700318,-4.4982591613884,1.7633163316332,1237448.642363,-29849.767910832,3785279.1782291,6.9633163316332,0,0
44.210322831502,-4.4996397257577,1.7677467746775,1237448.642363,-29849.767910832,3785279.1782291,6.9677467746775,0,0
44.210322962687,-4.501020290127,1.7721772177218,1237448.642363,-29849.767910832,3785279.1782291,6.9721772177218,0,0
44.210323093871,-4.5024008544964,1.7766076607661,1237448.642363,-29849.767910832,3785279.1782291,6.9766076607661,0,0
44.210323225055,-4.5037814188657,1.7810381038104,1237448.642363,-29849.767910832,3785279.1782291,6.9810381038104,0,0
44.21032335624,-4.505161983235,1.7854685468547,1237448.642363,-29849.767910832,3785279.1782291,6.9854685468547,0,0
44.210323487424,-4.5065425476044,1.789898989899,1237448.642363,-29849.767910832,3785279.1782291,6.989898989899,0,0
44.210323618609,-4.5079231119737,1.7943294329433,1237448.642363,-29849.767910832,3785279.1782291,6.9943294329433,0,0
44.210323749793,-4.5093036763431,1.7987598759876,1237448.642363,-29849.767910832,3785279.1782291,6.9987598759876,0,0
44.210323880978,-4.5106842407124,1.8031903190319,1237448.642363,-29849.767910832,3785279.1782291,7.0031903190319,0,0
44.210324012162,-4.5120648050817,1.8076207620762,1237448.642363,-29849.767910832,3785279.1782291,7.0076207620762,0,0
44.210324143346,-4.5134453694511,1.8120512051205,1237448.642363,-29849.767910832,3785279.1782291,7.0120512051205,0,0
44.210324274531,-4.5148259338204,1.8164816481648,1237448.642363,-29849.767910832,3785279.1782291,7.0164816481648,0,0
44.210324405715,-4.5162064981897,1.8209120912091,1237448.642363,-29849.767910832,3785279.1782291,7.0209120912091,0,0
44.2103245369,-4.5175870625591,1.8253425342534,1237448.642363,-29849.767910832,3785279.1782291,7.0253425342534,0,0
44.210324668084,-4.5189676269284,1.8297729772977,1237448.642363,-29849.767910832,3785279.1782291,7.0297729772977,0,0
44.210324799269,-4.5203481912977,1.834203420342,1237448.642363,-29849.767910832,3785279.1782291,7.034203420342,0,0
44.210324930453,-4.5217287556671,1.8386338633863,1237448.642363,-29849.767910832,3785279.1782291,7.0386338633863,0,0
44.210325061637,-4.5231093200364,1.8430643064306,1237448.642363,-29849.767910832,3785279.1782291,7.0430643064306,0,0
44.210325192822,-4.5244898844057,1.8474947494749,1237448.642363,-29849.767910832,3785279.1782291,7.0474947494749,0,0
44.210325324006,-4.5258704487751,1.8519251925193,1237448.642363,-29849.767910832,3785279.1782291,7.0519251925193,0,0
44.210325455191,-4.5272510131444,1.8563556355636,1237448.642363,-29849.767910832,3785279.1782291,7.0563556355636,0,0
44.210325586375,-4.5286315775138,1.8607860786079,1237448.642363,-29849.767910832,3785279.1782291,7.0607860786079,0,0
44.210325717559,-4.5300121418831,1.8652165216522,1237448.642363,-29849.767910832,3785279.1782291,7.0652165216522,0,0
44.210325848744,-4.5313927062524,1.8696469646965,1237448.642363,-29849.767910832,3785279.1782291,7.0696469646965,0,0
44.210325979928,-4.5327732706218,1.8740774077408,1237448.642363,-29849.767910832,3785279.1782291,7.0740774077408,0,0
44.210326111113,-4.5341538349911,1.8785078507851,1237448.642363,-29849.767910832,3785279.1782291,7.0785078507851,0,0
44.210326242297,-4.5355343993604,1.8829382938294,1237448.642363,-29849.767910832,3785279.1782291,7.0829382938294,0,0
44.210326373482,-4.5369149637298,1.8873687368737,1237448.642363,-29849.767910832,3785279.1782291,7.0873687368737,0,0
44.210326504666,-4.5382955280991,1.891799179918,1237448.642363,-29849.767910832,3785279.1782291,7.091799179918,0,0
44.210326642421,-4.5396760810493,1.8962296229623,1304275.1147358,8969.2054319811,3733159.9562938,7.0962296229623,0,0
44.210326780331,-4.5410566337307,1.9006600660066,1304275.1147358,8969.2054319811,3733159.9562938,7.1006600660066,0,0
44.210326918241,-4.5424371864122,1.9050905090509,1304275.1147358,8969.2054319811,3733159.9562938,7.1050905090509,0,0
44.210327056151,-4.5438177390936,1.9095209520952,1304275.1147358,8969.2054319811,3733159.9562938,7.1095209520952,0,0
44.210327194061,-4.5451982917751,1.9139513951395,1304275.1147358,8969.2054319811,3733159.9562938,7.1139513951395,0,0
44.210327331971,-4.5465788444565,1.9183818381838,1304275.1147358,8969.2054319811,3733159.9562938,7.1183818381838,0,0
44.210327469881,-4.5479593971379,1.9228122812281,1304275.1147358,8969.2054319811,3733159.9562938,7.1228122812281,0,0
44.210327607791,-4.5493399498194,1.9272427242724,1304275.1147358,8969.2054319811,3733159.9562938,7.1272427242724,0,0
44.210327745701,-4.5507205025008,1.9316731673167,1304275.1147358,8969.2054319811,3733159.9562938,7.1316731673167,0,0
44.210327883611,-4.5521010551823,1.936103610361,1304275.1147358,8969.2054319811,3733159.9562938,7.136103610361,0,0
44.210328021521,-4.5534816078637,1.9405340534053,1304275.1147358,8969.2054319811,3733159.9562938,7.1405340534053,0,0
44.210328159431,-4.5548621605452,1.9449644964496,1304275.1147358,8969.2054319811,3733159.9562938,7.1449644964496,0,0
44.210328297341,-4.5562427132266,1.9493949394939,1304275.1147358,8969.2054319811,3733159.9562938,7.1493949394939,0,0
44.21032843525,-4.5576232659081,1.9538253825383,1304275.1147358,8969.2054319811,3733159.9562938,7.1538253825383,0,0
44.21032857316,-4.5590038185895,1.9582558255826,1304275.1147358,8969.2054319811,3733159.9562938,7.1582558255826,0,0
44.21032871107,-4.5603843712709,1.9626862686269,1304275.1147358,8969.2054319811,3733159.9562938,7.1626862686269,0,0
44.21032884898,-4.5617649239524,1.9671167116712,1304275.1147358,8969.2054319811,3733159.9562938,7.1671167116712,0,0
44.21032898689,-4.5631454766338,1.9715471547155,1304275.1147358,8969.2054319811,3733159.9562938,7.1715471547155,0,0
44.2103291248,-4.5645260293153,1.9759775977598,1304275.1147358,8969.2054319811,3733159.9562938,7.1759775977598,0,0
44.21032926271,-4.5659065819967,1.9804080408041,1304275.1147358,8969.2054319811,3733159.9562938,7.1804080408041,0,0
44.21032940062,-4.5672871346782,1.9848384838484,1304275.1147358,8969.2054319811,3733159.9562938,7.1848384838484,0,0
44.21032953853,-4.5686676873596,1.9892689268927,1304275.1147358,8969.2054319811,3733159.9562938,7.1892689268927,0,0
44.21032967644,-4.5700482400411,1.993699369937,1304275.1147358,8969.2054319811,3733159.9562938,7.193699369937,0,0
44.21032981435,-4.5714287927225,1.9981298129813,1304275.1147358,8969.2054319811,3733159.9562938,7.1981298129813,0,0
44.21032995226,-4.572809345404,2.0025602560256,1304275.1147358,8969.2054319811,3733159.9562938,7.2025602560256,0,0
44.21033009017,-4.5741898980854,2.0069906990699,1304275.1147358,8969.2054319811,3733159.9562938,7.2069906990699,0,0
44.21033022808,-4.5755704507669,2.0114211421142,1304275.1147358,8969.2054319811,3733159.9562938,7.2114211421142,0,0
44.210330365989,-4.5769510034483,2.0158515851585,1304275.1147358,8969.2054319811,3733159.9562938,7.2158515851585,0,0
44.210330503899,-4.5783315561297,2.0202820282028,1304275.1147358,8969.2054319811,3733159.9562938,7.2202820282028,0,0
44.210330641809,-4.5797121088112,2.0247124712471,1304275.1147358,8969.2054319811,3733159.9562938,7.2247124712471,0,0
44.210330779719,-4.5810926614926,2.0291429142914,1304275.1147358,8969.2054319811,3733159.9562938,7.2291429142914,0,0
44.210330917629,-4.5824732141741,2.0335733573357,1304275.1147358,8969.2054319811,3733159.9562938,7.2335733573357,0,0
44.210331055539,-4.5838537668555,2.03800380038,1304275.1147358,8969.2054319811,3733159.9562938,7.23800380038,0,0
44.210331193449,-4.585234319537,2.0424342434243,1304275.1147358,8969.2054319811,3733159.9562938,7.2424342434243,0,0
44.210331331359,-4.5866148722184,2.0468646864686,1304275.1147358,8969.2054319811,3733159.9562938,7.2468646864686,0,0
44.210331469269,-4.5879954248999,2.051295129513,1304275.1147358,8969.2054319811,3733159.9562938,7.251295129513,0,0
44.210331607179,-4.5893759775813,2.0557255725573,1304275.1147358,8969.2054319811,3733159.9562938,7.2557255725573,0,0
44.210331745089,-4.5907565302627,2.0601560156016,1304275.1147358,8969.2054319811,3733159.9562938,7.2601560156016,0,0
44.210331882999,-4.5921370829442,2.0645864586459,1304275.1147358,8969.2054319811,3733159.9562938,7.2645864586459,0,0
44.210332020909,-4.5935176356256,2.0690169016902,1304275.1147358,8969.2054319811,3733159.9562938,7.2690169016902,0,0
44.210332158819,-4.5948981883071,2.0734473447345,1304275.1147358,8969.2054319811,3733159.9562938,7.2734473447345,0,0
44.210332296729,-4.5962787409885,2.0778777877788,1304275.1147358,8969.2054319811,3733159.9562938,7.2778777877788,0,0
44.210332434638,-4.59765929367,2.0823082308231,1304275.1147358,8969.2054319811,3733159.9562938,7.2823082308231,0,0
44.210332572548,-4.5990398463514,2.0867386738674,1304275.1147358,8969.2054319811,3733159.9562938,7.2867386738674,0,0
44.210332710458,-4.6004203990329,2.0911691169117,1304275.1147358,8969.2054319811,3733159.9562938,7.2911691169117,0,0
44.210332848368,-4.6018009517143,2.095599559956,1304275.1147358,8969.2054319811,3733159.9562938,7.295599559956,0,0
44.210332986278,-4.6031815043958,2.1000300030003,1304275.1147358,8969.2054319811,3733159.9562938,7.3000300030003,0,0
44.210333124188,-4.6045620570772,2.1044604460446,1304275.1147358,8969.2054319811,3733159.9562938,7.3044604460446,0,0
44.210333266503,-4.6059426158218,2.1088908890889,1391515.5255012,-24531.546544608,3697285.5549158,7.3088908890889,0,0
44.210333412337,-4.6073231794086,2.1133213321332,1391515.5255012,-24531.546544608,3697285.5549158,7.3133213321332,0,0
44.21033355817,-4.6087037429955,2.1177517751775,1391515.5255012,-24531.546544608,3697285.5549158,7.3177517751775,0,0
44.210333704004,-4.6100843065823,2.1221822182218,1391515.5255012,-24531.546544608,3697285.5549158,7.3221822182218,0,0
44.210333849837,-4.6114648701692,2.1266126612661,1391515.5255012,-24531.546544608,3697285.5549158,7.3266126612661,0,0
44.210333995671,-4.612845433756,2.1310431043104,1391515.5255012,-24531.546544608,3697285.5549158,7.3310431043104,0,0
44.210334141504,-4.6142259973429,2.1354735473547,1391515.5255012,-24531.546544608,3697285.5549158,7.3354735473547,0,0
44.210334287338,-4.6156065609297,2.139903990399,1391515.5255012,-24531.546544608,3697285.5549158,7.339903990399,0,0
44.210334433171,-4.6169871245165,2.1443344334433,1391515.5255012,-24531.546544608,3697285.5549158,7.3443344334433,0,0
44.210334579005,-4.6183676881034,2.1487648764876,1391515.5255012,-24531.546544608,3697285.5549158,7.3487648764876,0,0
44.210334724838,-4.6197482516902,2.153195319532,1391515.5255012,-24531.546544608,3697285.5549158,7.353195319532,0,0
44.210334870672,-4.6211288152771,2.1576257625763,1391515.5255012,-24531.546544608,3697285.5549158,7.3576257625763,0,0
44.210335016505,-4.6225093788639,2.1620562056206,1391515.5255012,-24531.546544608,3697285.5549158,7.3620562056206,0,0
44.210335162339,-4.6238899424508,2.1664866486649,1391515.5255012,-24531.546544608,3697285.5549158,7.3664866486649,0,0
44.210335308172,-4.6252705060376,2.1709170917092,1391515.5255012,-24531.546544608,3697285.5549158,7.3709170917092,0,0
44.210335454006,-4.6266510696245,2.1753475347535,1391515.5255012,-24531.546544608,3697285.5549158,7.3753475347535,0,0
44.210335599839,-4.6280316332113,2.1797779777978,1391515.5255012,-24531.546544608,3697285.5549158,7.3797779777978,0,0
44.210335745673,-4.6294121967982,2.1842084208421,1391515.5255012,-24531.546544608,3697285.5549158,7.3842084208421,0,0
44.210335891506,-4.630792760385,2.1886388638864,1391515.5255012,-24531.546544608,3697285.5549158,7.3886388638864,0,0
44.21033603734,-4.6321733239718,2.1930693069307,1391515.5255012,-24531.546544608,3697285.5549158,7.3930693069307,0,0
44.210336183173,-4.6335538875587,2.197499749975,1391515.5255012,-24531.546544608,3697285.5549158,7.397499749975,0,0
44.210336329007,-4.6349344511455,2.2019301930193,1391515.5255012,-24531.546544608,3697285.5549158,7.4019301930193,0,0
44.21033647484,-4.6363150147324,2.2063606360636,1391515.5255012,-24531.546544608,3697285.5549158,7.4063606360636,0,0
44.210336620674,-4.6376955783192,2.2107910791079,1391515.5255012,-24531.546544608,3697285.5549158,7.4107910791079,0,0
44.210336766507,-4.6390761419061,2.2152215221522,1391515.5255012,-24531.546544608,3697285.5549158,7.4152215221522,0,0
44.210336912341,-4.6404567054929,2.2196519651965,1391515.5255012,-24531.546544608,3697285.5549158,7.4196519651965,0,0
44.210337058174,-4.6418372690798,2.2240824082408,1391515.5255012,-24531.546544608,3697285.5549158,7.4240824082408,0,0
44.210337204008,-4.6432178326666,2.2285128512851,1391515.5255012,-24531.546544608,3697285.5549158,7.4285128512851,0,0
44.210337349841,-4.6445983962535,2.2329432943294,1391515.5255012,-24531.546544608,3697285.5549158,7.4329432943294,0,0
44.210337495675,-4.6459789598403,2.2373737373737,1391515.5255012,-24531.546544608,3697285.5549158,7.4373737373737,0,0
44.210337641508,-4.6473595234271,2.241804180418,1391515.5255012,-24531.546544608,3697285.5549158,7.441804180418,0,0
44.210337787342,-4.648740087014,2.2462346234623,1391515.5255012,-24531.546544608,3697285.5549158,7.4462346234623,0,0
44.210337933175,-4.6501206506008,2.2506650665067,1391515.5255012,-24531.546544608,3697285.5549158,7.4506650665067,0,0
44.210338079009,-4.6515012141877,2.255095509551,1391515.5255012,-24531.546544608,3697285.5549158,7.455095509551,0,0
44.210338224842,-4.6528817777745,2.2595259525953,1391515.5255012,-24531.546544608,3697285.5549158,7.4595259525953,0,0
44.210338370676,-4.6542623413614,2.2639563956396,1391515.5255012,-24531.546544608,3697285.5549158,7.4639563956396,0,0
44.21033851844,-4.6556428993047,2.2683868386839,1408455.0397348,12912.295002394,3614627.708584,7.4683868386839,0,0
44.210338667827,-4.657023452503,2.2728172817282,1408455.0397348,12912.295002394,3614627.708584,7.4728172817282,0,0
44.210338817214,-4.6584040057013,2.2772477247725,1408455.0397348,12912.295002394,3614627.708584,7.4772477247725,0,0
44.210338966602,-4.6597845588997,2.2816781678168,1408455.0397348,12912.295002394,3614627.708584,7.4816781678168,0,0
44.210339115989,-4.661165112098,2.2861086108611,1408455.0397348,12912.295002394,3614627.708584,7.4861086108611,0,0
44.210339265376,-4.6625456652963,2.2905390539054,1408455.0397348,12912.295002394,3614627.708584,7.4905390539054,0,0
44.210339414764,-4.6639262184946,2.2949694969497,1408455.0397348,12912.295002394,3614627.708584,7.4949694969497,0,0
44.210339564151,-4.6653067716929,2.299399939994,1408455.0397348,12912.295002394,3614627.708584,7.499399939994,0,0
44.210339713538,-4.6666873248913,2.3038303830383,1408455.0397348,12912.295002394,3614627.708584,7.5038303830383,0,0
44.210339862926,-4.6680678780896,2.3082608260826,1408455.0397348,12912.295002394,3614627.708584,7.5082608260826,0,0
44.210340012313,-4.6694484312879,2.3126912691269,1408455.0397348,12912.295002394,3614627.708584,7.5126912691269,0,0
44.2103401617,-4.6708289844862,2.3171217121712,1408455.0397348,12912.295002394,3614627.708584,7.5171217121712,0,0
44.210340311088,-4.6722095376845,2.3215521552155,1408455.0397348,12912.295002394,3614627.708584,7.5215521552155,0,0
44.210340460475,-4.6735900908828,2.3259825982598,1408455.0397348,12912.295002394,3614627.708584,7.5259825982598,0,0
44.210340609862,-4.6749706440812,2.3304130413041,1408455.0397348,12912.295002394,3614627.708584,7.5304130413041,0,0
44.21034075925,-4.6763511972795,2.3348434843484,1408455.0397348,12912.295002394,3614627.708584,7.5348434843484,0,0
44.210340908637,-4.6777317504778,2.3392739273927,1408455.0397348,12912.295002394,3614627.708584,7.5392739273927,0,0
44.210341058024,-4.6791123036761,2.343704370437,1408455.0397348,12912.295002394,3614627.708584,7.543704370437,0,0
44.210341207412,-4.6804928568744,2.3481348134813,1408455.0397348,12912.295002394,3614627.708584,7.5481348134813,0,0
44.210341356799,-4.6818734100728,2.3525652565257,1408455.0397348,12912.295002394,3614627.708584,7.5525652565257,0,0
44.210341506186,-4.6832539632711,2.35699569957,1408455.0397348,12912.295002394,3614627.708584,7.55699569957,0,0
44.210341655574,-4.6846345164694,2.3614261426143,1408455.0397348,12912.295002394,3614627.708584,7.5614261426143,0,0
44.210341804961,-4.6860150696677,2.3658565856586,1408455.0397348,12912.295002394,3614627.708584,7.5658565856586,0,0
44.210341954348,-4.687395622866,2.3702870287029,1408455.0397348,12912.295002394,3614627.708584,7.5702870287029,0,0
44.210342103736,-4.6887761760643,2.3747174717472,1408455.0397348,12912.295002394,3614627.708584,7.5747174717472,0,0
44.210342253123,-4.6901567292627,2.3791479147915,1408455.0397348,12912.295002394,3614627.708584,7.5791479147915,0,0
44.21034240251,-4.691537282461,2.3835783578358,1408455.0397348,12912.295002394,3614627.708584,7.5835783578358,0,0
44.210342551898,-4.6929178356593,2.3880088008801,1408455.0397348,12912.295002394,3614627.708584,7.5880088008801,0,0
44.210342701285,-4.6942983888576,2.3924392439244,1408455.0397348,12912.295002394,3614627.708584,7.5924392439244,0,0
44.210342850672,-4.6956789420559,2.3968696869687,1408455.0397348,12912.295002394,3614627.708584,7.5968696869687,0,0
44.21034300006,-4.6970594952542,2.401300130013,1408455.0397348,12912.295002394,3614627.708584,7.601300130013,0,0
44.210343149447,-4.6984400484526,2.4057305730573,1408455.0397348,12912.295002394,3614627.708584,7.6057305730573,0,0
44.210343298834,-4.6998206016509,2.4101610161016,1408455.0397348,12912.295002394,3614627.708584,7.6101610161016,0,0
44.210343448222,-4.7012011548492,2.4145914591459,1408455.0397348,12912.295002394,3614627.708584,7.6145914591459,0,0
44.210343597609,-4.7025817080475,2.4190219021902,1408455.0397348,12912.295002394,3614627.708584,7.6190219021902,0,0
44.210343746996,-4.7039622612458,2.4234523452345,1408455.0397348,12912.295002394,3614627.708584,7.6234523452345,0,0
44.210343896384,-4.7053428144442,2.4278827882788,1408455.0397348,12912.295002394,3614627.708584,7.6278827882788,0,0
44.210344045771,-4.7067233676425,2.4323132313231,1408455.0397348,12912.295002394,3614627.708584,7.6323132313231,0,0
44.210344195158,-4.7081039208408,2.4367436743674,1408455.0397348,12912.295002394,3614627.708584,7.6367436743674,0,0
44.210344344546,-4.7094844740391,2.4411741174117,1408455.0397348,12912.295002394,3614627.708584,7.6411741174117,0,0
44.210344493933,-4.7108650272374,2.445604560456,1408455.0397348,12912.295002394,3614627.708584,7.645604560456,0,0
44.21034464332,-4.7122455804357,2.4500350035003,1408455.0397348,12912.295002394,3614627.708584,7.6500350035004,0,0
44.210344792708,-4.7136261336341,2.4544654465447,1408455.0397348,12912.295002394,3614627.708584,7.6544654465447,0,0
44.210344945211,-4.7150066935768,2.458895889589,1455083.496983,-27088.520628809,3564796.2751986,7.658895889589,0,0
44.21034509965,-4.716387257708,2.4633263326333,1455083.496983,-27088.520628809,3564796.2751986,7.6633263326333,0,0
44.210345254088,-4.7177678218392,2.4677567756776,1455083.496983,-27088.520628809,3564796.2751986,7.6677567756776,0,0
44.210345408527,-4.7191483859704,2.4721872187219,1455083.496983,-27088.520628809,3564796.2751986,7.6721872187219,0,0
44.210345562966,-4.7205289501015,2.4766176617662,1455083.496983,-27088.520628809,3564796.2751986,7.6766176617662,0,0
44.210345717404,-4.7219095142327,2.4810481048105,1455083.496983,-27088.520628809,3564796.2751986,7.6810481048105,0,0
44.210345871843,-4.7232900783639,2.4854785478548,1455083.496983,-27088.520628809,3564796.2751986,7.6854785478548,0,0
44.210346026281,-4.7246706424951,2.4899089908991,1455083.496983,-27088.520628809,3564796.2751986,7.6899089908991,0,0
44.21034618072,-4.7260512066263,2.4943394339434,1455083.496983,-27088.520628809,3564796.2751986,7.6943394339434,0,0
44.210346335158,-4.7274317707575,2.4987698769877,1455083.496983,-27088.520628809,3564796.2751986,7.6987698769877,0,0
44.210346489597,-4.7288123348887,2.503200320032,1455083.496983,-27088.520628809,3564796.2751986,7.703200320032,0,0
44.210346644036,-4.7301928990198,2.5076307630763,1455083.496983,-27088.520628809,3564796.2751986,7.7076307630763,0,0
44.210346798474,-4.731573463151,2.5120612061206,1455083.496983,-27088.520628809,3564796.2751986,7.7120612061206,0,0
44.210346952913,-4.7329540272822,2.5164916491649,1455083.496983,-27088.520628809,3564796.2751986,7.7164916491649,0,0
44.210347107351,-4.7343345914134,2.5209220922092,1455083.496983,-27088.520628809,3564796.2751986,7.7209220922092,0,0
44.21034726179,-4.7357151555446,2.5253525352535,1455083.496983,-27088.520628809,3564796.2751986,7.7253525352535,0,0
44.210347416229,-4.7370957196758,2.5297829782978,1455083.496983,-27088.520628809,3564796.2751986,7.7297829782978,0,0
44.210347570667,-4.7384762838069,2.5342134213421,1455083.496983,-27088.520628809,3564796.2751986,7.7342134213421,0,0
44.210347725106,-4.7398568479381,2.5386438643864,1455083.496983,-27088.520628809,3564796.2751986,7.7386438643864,0,0
44.210347879544,-4.7412374120693,2.5430743074307,1455083.496983,-27088.520628809,3564796.2751986,7.7430743074307,0,0
44.210348033983,-4.7426179762005,2.547504750475,1455083.496983,-27088.520628809,3564796.2751986,7.747504750475,0,0
44.210348188422,-4.7439985403317,2.5519351935194,1455083.496983,-27088.520628809,3564796.2751986,7.7519351935194,0,0
44.21034834286,-4.7453791044629,2.5563656365637,1455083.496983,-27088.520628809,3564796.2751986,7.7563656365637,0,0
44.210348497299,-4.7467596685941,2.560796079608,1455083.496983,-27088.520628809,3564796.2751986,7.760796079608,0,0
44.210348651737,-4.7481402327252,2.5652265226523,1455083.496983,-27088.520628809,3564796.2751986,7.7652265226523,0,0
44.210348806176,-4.7495207968564,2.5696569656966,1455083.496983,-27088.520628809,3564796.2751986,7.7696569656966,0,0
44.210348960615,-4.7509013609876,2.5740874087409,1455083.496983,-27088.520628809,3564796.2751986,7.7740874087409,0,0
44.210349115053,-4.7522819251188,2.5785178517852,1455083.496983,-27088.520628809,3564796.2751986,7.7785178517852,0,0
44.210349269492,-4.75366248925,2.5829482948295,1455083.496983,-27088.520628809,3564796.2751986,7.7829482948295,0,0
44.21034942393,-4.7550430533812,2.5873787378738,1455083.496983,-27088.520628809,3564796.2751986,7.7873787378738,0,0
44.210349578369,-4.7564236175124,2.5918091809181,1455083.496983,-27088.520628809,3564796.2751986,7.7918091809181,0,0
44.210349732808,-4.7578041816435,2.5962396239624,1455083.496983,-27088.520628809,3564796.2751986,7.7962396239624,0,0
44.210349887246,-4.7591847457747,2.6006700670067,1455083.496983,-27088.520628809,3564796.2751986,7.8006700670067,0,0
44.210350041685,-4.7605653099059,2.605100510051,1455083.496983,-27088.520628809,3564796.2751986,7.805100510051,0,0
44.210350196123,-4.7619458740371,2.6095309530953,1455083.496983,-27088.520628809,3564796.2751986,7.8095309530953,0,0
44.210350350562,-4.7633264381683,2.6139613961396,1455083.496983,-27088.520628809,3564796.2751986,7.8139613961396,0,0
44.210350505001,-4.7647070022995,2.6183918391839,1455083.496983,-27088.520628809,3564796.2751986,7.8183918391839,0,0
44.210350659439,-4.7660875664307,2.6228222822282,1455083.496983,-27088.520628809,3564796.2751986,7.8228222822282,0,0
44.210350815682,-4.7674681274316,2.6272527252725,1519924.0422766,10444.199447708,3507595.7914506,7.8272527252725,0,0
44.210350976823,-4.7688486799386,2.6316831683168,1519924.0422766,10444.199447708,3507595.7914506,7.8316831683168,0,0
44.210351137964,-4.7702292324455,2.6361136113611,1519924.0422766,10444.199447708,3507595.7914506,7.8361136113611,0,0
44.210351299105,-4.7716097849525,2.6405440544054,1519924.0422766,10444.199447708,3507595.7914506,7.8405440544054,0,0
44.210351460246,-4.7729903374594,2.6449744974497,1519924.0422766,10444.199447708,3507595.7914506,7.8449744974497,0,0
44.210351621386,-4.7743708899664,2.649404940494,1519924.0422766,10444.199447708,3507595.7914506,7.849404940494,0,0
44.210351782527,-4.7757514424733,2.6538353835384,1519924.0422766,10444.199447708,3507595.7914506,7.8538353835384,0,0
44.210351943668,-4.7771319949803,2.6582658265827,1519924.0422766,10444.199447708,3507595.7914506,7.8582658265827,0,0
44.210352104809,-4.7785125474872,2.662696269627,1519924.0422766,10444.199447708,3507595.7914506,7.862696269627,0,0
44.210352265949,-4.7798930999942,2.6671267126713,1519924.0422766,10444.199447708,3507595.7914506,7.8671267126713,0,0
44.21035242709,-4.7812736525011,2.6715571557156,1519924.0422766,10444.199447708,3507595.7914506,7.8715571557156,0,0
44.210352588231,-4.7826542050081,2.6759875987599,1519924.0422766,10444.199447708,3507595.7914506,7.8759875987599,0,0
44.210352749372,-4.784034757515,2.6804180418042,1519924.0422766,10444.199447708,3507595.7914506,7.8804180418042,0,0
44.210352910512,-4.785415310022,2.6848484848485,1519924.0422766,10444.199447708,3507595.7914506,7.8848484848485,0,0
44.210353071653,-4.7867958625289,2.6892789278928,1519924.0422766,10444.199447708,3507595.7914506,7.8892789278928,0,0
44.210353232794,-4.7881764150359,2.6937093709371,1519924.0422766,10444.199447708,3507595.7914506,7.8937093709371,0,0
44.210353393935,-4.7895569675428,2.6981398139814,1519924.0422766,10444.199447708,3507595.7914506,7.8981398139814,0,0
44.210353555075,-4.7909375200498,2.7025702570257,1519924.0422766,10444.199447708,3507595.7914506,7.9025702570257,0,0
44.210353716216,-4.7923180725567,2.70700070007,1519924.0422766,10444.199447708,3507595.7914506,7.90700070007,0,0
44.210353877357,-4.7936986250637,2.7114311431143,1519924.0422766,10444.199447708,3507595.7914506,7.9114311431143,0,0
44.210354038498,-4.7950791775706,2.7158615861586,1519924.0422766,10444.199447708,3507595.7914506,7.9158615861586,0,0
44.210354199638,-4.7964597300776,2.7202920292029,1519924.0422766,10444.199447708,3507595.7914506,7.9202920292029,0,0
44.210354360779,-4.7978402825845,2.7247224722472,1519924.0422766,10444.199447708,3507595.7914506,7.9247224722472,0,0
44.21035452192,-4.7992208350915,2.7291529152915,1519924.0422766,10444.199447708,3507595.7914506,7.9291529152915,0,0
44.210354683061,-4.8006013875984,2.7335833583358,1519924.0422766,10444.199447708,3507595.7914506,7.9335833583358,0,0
44.210354844202,-4.8019819401054,2.7380138013801,1519924.0422766,10444.199447708,3507595.7914506,7.9380138013801,0,0
44.210355005342,-4.8033624926123,2.7424442444244,1519924.0422766,10444.199447708,3507595.7914506,7.9424442444244,0,0
44.210355166483,-4.8047430451193,2.7468746874687,1519924.0422766,10444.199447708,3507595.7914506,7.9468746874687,0,0
44.210355327624,-4.8061235976262,2.7513051305131,1519924.0422766,10444.199447708,3507595.7914506,7.9513051305131,0,0
44.210355488765,-4.8075041501332,2.7557355735574,1519924.0422766,10444.199447708,3507595.7914506,7.9557355735574,0,0
44.210355649905,-4.8088847026401,2.7601660166017,1519924.0422766,10444.199447708,3507595.7914506,7.9601660166017,0,0
44.210355811046,-4.8102652551471,2.764596459646,1519924.0422766,10444.199447708,3507595.7914506,7.964596459646,0,0
44.210355972187,-4.811645807654,2.7690269026903,1519924.0422766,10444.199447708,3507595.7914506,7.9690269026903,0,0
44.210356133328,-4.813026360161,2.7734573457346,1519924.0422766,10444.199447708,3507595.7914506,7.9734573457346,0,0
44.210356294468,-4.8144069126679,2.7778877887789,1519924.0422766,10444.199447708,3507595.7914506,7.9778877887789,0,0
44.210356455609,-4.8157874651749,2.7823182318232,1519924.0422766,10444.199447708,3507595.7914506,7.9823182318232,0,0
44.21035661675,-4.8171680176818,2.7867486748675,1519924.0422766,10444.199447708,3507595.7914506,7.9867486748675,0,0
44.210356777891,-4.8185485701888,2.7911791179118,1519924.0422766,10444.199447708,3507595.7914506,7.9911791179118,0,0
44.210356939031,-4.8199291226957,2.7956095609561,1519924.0422766,10444.199447708,3507595.7914506,7.9956095609561,0,0
44.210357100172,-4.8213096752027,2.8000400040004,1519924.0422766,10444.199447708,3507595.7914506,8.0000400040004,0,0
44.210357261313,-4.8226902277096,2.8044704470447,1519924.0422766,10444.199447708,3507595.7914506,8.0044704470447,0,0
44.210357422454,-4.8240707802166,2.808900890089,1519924.0422766,10444.199447708,3507595.7914506,8.008900890089,0,0
44.210357583594,-4.8254513327235,2.8133313331333,1519924.0422766,10444.199447708,3507595.7914506,8.0133313331333,0,0
44.210357744735,-4.8268318852305,2.8177617761776,1519924.0422766,10444.199447708,3507595.7914506,8.0177617761776,0,0
44.210357905876,-4.8282124377374,2.8221922192219,1519924.0422766,10444.199447708,3507595.7914506,8.0221922192219,0,0
44.210358067017,-4.8295929902444,2.8266226622662,1519924.0422766,10444.199447708,3507595.7914506,8.0266226622662,0,0
44.210358228157,-4.8309735427513,2.8310531053105,1519924.0422766,10444.199447708,3507595.7914506,8.0310531053105,0,0
44.210358389298,-4.8323540952583,2.8354835483548,1519924.0422766,10444.199447708,3507595.7914506,8.0354835483548,0,0
44.210358550439,-4.8337346477652,2.8399139913991,1519924.0422766,10444.199447708,3507595.7914506,8.0399139913991,0,0
44.21035871158,-4.8351152002722,2.8443444344434,1519924.0422766,10444.199447708,3507595.7914506,8.0443444344434,0,0
44.210358872721,-4.8364957527791,2.8487748774877,1519924.0422766,10444.199447708,3507595.7914506,8.0487748774877,0,0
44.210359033861,-4.8378763052861,2.8532053205321,1519924.0422766,10444.199447708,3507595.7914506,8.0532053205321,0,0
44.210359195002,-4.839256857793,2.8576357635764,1519924.0422766,10444.199447708,3507595.7914506,8.0576357635764,0,0
44.210359356143,-4.8406374103,2.8620662066207,1519924.0422766,10444.199447708,3507595.7914506,8.0620662066207,0,0
44.210359517284,-4.8420179628069,2.866496649665,1519924.0422766,10444.199447708,3507595.7914506,8.066496649665,0,0
44.210359678424,-4.8433985153139,2.8709270927093,1519924.0422766,10444.199447708,3507595.7914506,8.0709270927093,0,0
44.210359843593,-4.8447790735833,2.8753575357536,1605121.2133951,-25682.344114557,3481963.5371909,8.0753575357536,0,0
44.210360012221,-4.846159636802,2.8797879787979,1605121.2133951,-25682.344114557,3481963.5371909,8.0797879787979,0,0
44.21036018085,-4.8475402000208,2.8842184218422,1605121.2133951,-25682.344114557,3481963.5371909,8.0842184218422,0,0
44.210360349478,-4.8489207632395,2.8886488648865,1605121.2133951,-25682.344114557,3481963.5371909,8.0886488648865,0,0
44.210360518107,-4.8503013264583,2.8930793079308,1605121.2133951,-25682.344114557,3481963.5371909,8.0930793079308,0,0
44.210360686735,-4.851681889677,2.8975097509751,1605121.2133951,-25682.344114557,3481963.5371909,8.0975097509751,0,0
44.210360855364,-4.8530624528958,2.9019401940194,1605121.2133951,-25682.344114557,3481963.5371909,8.1019401940194,0,0
44.210361023992,-4.8544430161146,2.9063706370637,1605121.2133951,-25682.344114557,3481963.5371909,8.1063706370637,0,0
44.21036119262,-4.8558235793333,2.910801080108,1605121.2133951,-25682.344114557,3481963.5371909,8.110801080108,0,0
44.210361361249,-4.8572041425521,2.9152315231523,1605121.2133951,-25682.344114557,3481963.5371909,8.1152315231523,0,0
44.210361529877,-4.8585847057708,2.9196619661966,1605121.2133951,-25682.344114557,3481963.5371909,8.1196619661966,0,0
44.210361698506,-4.8599652689896,2.9240924092409,1605121.2133951,-25682.344114557,3481963.5371909,8.1240924092409,0,0
44.210361867134,-4.8613458322084,2.9285228522852,1605121.2133951,-25682.344114557,3481963.5371909,8.1285228522852,0,0
44.210362035762,-4.8627263954271,2.9329532953295,1605121.2133951,-25682.344114557,3481963.5371909,8.1329532953295,0,0
44.210362204391,-4.8641069586459,2.9373837383738,1605121.2133951,-25682.344114557,3481963.5371909,8.1373837383738,0,0
44.210362373019,-4.8654875218646,2.9418141814181,1605121.2133951,-25682.344114557,3481963.5371909,8.1418141814181,0,0
44.210362541648,-4.8668680850834,2.9462446244624,1605121.2133951,-25682.344114557,3481963.5371909,8.1462446244624,0,0
44.210362710276,-4.8682486483022,2.9506750675067,1605121.2133951,-25682.344114557,3481963.5371909,8.1506750675068,0,0
44.210362878905,-4.8696292115209,2.9551055105511,1605121.2133951,-25682.344114557,3481963.5371909,8.1551055105511,0,0
44.210363047533,-4.8710097747397,2.9595359535954,1605121.2133951,-25682.344114557,3481963.5371909,8.1595359535954,0,0
44.210363216161,-4.8723903379584,2.9639663966397,1605121.2133951,-25682.344114557,3481963.5371909,8.1639663966397,0,0
44.21036338479,-4.8737709011772,2.968396839684,1605121.2133951,-25682.344114557,3481963.5371909,8.168396839684,0,0
44.210363553418,-4.875151464396,2.9728272827283,1605121.2133951,-25682.344114557,3481963.5371909,8.1728272827283,0,0
44.210363722047,-4.8765320276147,2.9772577257726,1605121.2133951,-25682.344114557,3481963.5371909,8.1772577257726,0,0
44.210363890675,-4.8779125908335,2.9816881688169,1605121.2133951,-25682.344114557,3481963.5371909,8.1816881688169,0,0
44.210364059303,-4.8792931540522,2.9861186118612,1605121.2133951,-25682.344114557,3481963.5371909,8.1861186118612,0,0
44.210364227932,-4.880673717271,2.9905490549055,1605121.2133951,-25682.344114557,3481963.5371909,8.1905490549055,0,0
44.21036439656,-4.8820542804898,2.9949794979498,1605121.2133951,-25682.344114557,3481963.5371909,8.1949794979498,0,0
44.210364565189,-4.8834348437085,2.9994099409941,1605121.2133951,-25682.344114557,3481963.5371909,8.1994099409941,0,0
44.210364733817,-4.8848154069273,3.0038403840384,1605121.2133951,-25682.344114557,3481963.5371909,8.2038403840384,0,0
44.210364902446,-4.886195970146,3.0082708270827,1605121.2133951,-25682.344114557,3481963.5371909,8.2082708270827,0,0
44.210365071074,-4.8875765333648,3.012701270127,1605121.2133951,-25682.344114557,3481963.5371909,8.212701270127,0,0
44.210365239702,-4.8889570965835,3.0171317131713,1605121.2133951,-25682.344114557,3481963.5371909,8.2171317131713,0,0
44.210365408331,-4.8903376598023,3.0215621562156,1605121.2133951,-25682.344114557,3481963.5371909,8.2215621562156,0,0
44.210365576959,-4.8917182230211,3.0259925992599,1605121.2133951,-25682.344114557,3481963.5371909,8.2259925992599,0,0
44.210365745588,-4.8930987862398,3.0304230423042,1605121.2133951,-25682.344114557,3481963.5371909,8.2304230423042,0,0
44.210365914216,-4.8944793494586,3.0348534853485,1605121.2133951,-25682.344114557,3481963.5371909,8.2348534853485,0,0
44.210366082844,-4.8958599126773,3.0392839283928,1605121.2133951,-25682.344114557,3481963.5371909,8.2392839283928,0,0
44.210366251473,-4.8972404758961,3.0437143714371,1605121.2133951,-25682.344114557,3481963.5371909,8.2437143714371,0,0
44.210366420101,-4.8986210391149,3.0481448144814,1605121.2133951,-25682.344114557,3481963.5371909,8.2481448144814,0,0
44.21036658873,-4.9000016023336,3.0525752575258,1605121.2133951,-25682.344114557,3481963.5371909,8.2525752575258,0,0
44.210366757358,-4.9013821655524,3.0570057005701,1605121.2133951,-25682.344114557,3481963.5371909,8.2570057005701,0,0
44.210366925987,-4.9027627287711,3.0614361436144,1605121.2133951,-25682.344114557,3481963.5371909,8.2614361436144,0,0
44.210367094615,-4.9041432919899,3.0658665866587,1605121.2133951,-25682.344114557,3481963.5371909,8.2658665866587,0,0
44.210367263243,-4.9055238552087,3.070297029703,1605121.2133951,-25682.344114557,3481963.5371909,8.270297029703,0,0
44.210367431872,-4.9069044184274,3.0747274727473,1605121.2133951,-25682.344114557,3481963.5371909,8.2747274727473,0,0
44.2103676005,-4.9082849816462,3.0791579157916,1605121.2133951,-25682.344114557,3481963.5371909,8.2791579157916,0,0
44.210367769129,-4.9096655448649,3.0835883588359,1605121.2133951,-25682.344114557,3481963.5371909,8.2835883588359,0,0
44.21036793871,-4.911046104299,3.0880188018802,1602124.2034049,8869.6293956757,3385110.175609,8.2880188018802,0,0
44.210368109678,-4.9124266582297,3.0924492449245,1602124.2034049,8869.6293956757,3385110.175609,8.2924492449245,0,0
44.210368280646,-4.9138072121604,3.0968796879688,1602124.2034049,8869.6293956757,3385110.175609,8.2968796879688,0,0
44.210368451614,-4.9151877660911,3.1013101310131,1602124.2034049,8869.6293956757,3385110.175609,8.3013101310131,0,0
44.210368622581,-4.9165683200219,3.1057405740574,1602124.2034049,8869.6293956757,3385110.175609,8.3057405740574,0,0
44.210368793549,-4.9179488739526,3.1101710171017,1602124.2034049,8869.6293956757,3385110.175609,8.3101710171017,0,0
44.210368964517,-4.9193294278833,3.114601460146,1602124.2034049,8869.6293956757,3385110.175609,8.314601460146,0,0
44.210369135485,-4.920709981814,3.1190319031903,1602124.2034049,8869.6293956757,3385110.175609,8.3190319031903,0,0
44.210369306452,-4.9220905357447,3.1234623462346,1602124.2034049,8869.6293956757,3385110.175609,8.3234623462346,0,0
44.21036947742,-4.9234710896754,3.1278927892789,1602124.2034049,8869.6293956757,3385110.175609,8.3278927892789,0,0
44.210369648388,-4.9248516436061,3.1323232323232,1602124.2034049,8869.6293956757,3385110.175609,8.3323232323232,0,0
44.210369819356,-4.9262321975368,3.1367536753675,1602124.2034049,8869.6293956757,3385110.175609,8.3367536753675,0,0
44.210369990324,-4.9276127514675,3.1411841184118,1602124.2034049,8869.6293956757,3385110.175609,8.3411841184118,0,0
44.210370161291,-4.9289933053982,3.1456145614561,1602124.2034049,8869.6293956757,3385110.175609,8.3456145614561,0,0
44.210370332259,-4.9303738593289,3.1500450045004,1602124.2034049,8869.6293956757,3385110.175609,8.3500450045004,0,0
44.210370503227,-4.9317544132597,3.1544754475448,1602124.2034049,8869.6293956757,3385110.175609,8.3544754475448,0,0
44.210370674195,-4.9331349671904,3.1589058905891,1602124.2034049,8869.6293956757,3385110.175609,8.3589058905891,0,0
44.210370845162,-4.9345155211211,3.1633363336334,1602124.2034049,8869.6293956757,3385110.175609,8.3633363336334,0,0
44.21037101613,-4.9358960750518,3.1677667766777,1602124.2034049,8869.6293956757,3385110.175609,8.3677667766777,0,0
44.210371187098,-4.9372766289825,3.172197219722,1602124.2034049,8869.6293956757,3385110.175609,8.372197219722,0,0
44.210371358066,-4.9386571829132,3.1766276627663,1602124.2034049,8869.6293956757,3385110.175609,8.3766276627663,0,0
44.210371529034,-4.9400377368439,3.1810581058106,1602124.2034049,8869.6293956757,3385110.175609,8.3810581058106,0,0
44.210371700001,-4.9414182907746,3.1854885488549,1602124.2034049,8869.6293956757,3385110.175609,8.3854885488549,0,0
44.210371870969,-4.9427988447053,3.1899189918992,1602124.2034049,8869.6293956757,3385110.175609,8.3899189918992,0,0
44.210372041937,-4.944179398636,3.1943494349435,1602124.2034049,8869.6293956757,3385110.175609,8.3943494349435,0,0
44.210372212905,-4.9455599525667,3.1987798779878,1602124.2034049,8869.6293956757,3385110.175609,8.3987798779878,0,0
44.210372383872,-4.9469405064975,3.2032103210321,1602124.2034049,8869.6293956757,3385110.175609,8.4032103210321,0,0
44.21037255484,-4.9483210604282,3.2076407640764,1602124.2034049,8869.6293956757,3385110.175609,8.4076407640764,0,0
44.210372725808,-4.9497016143589,3.2120712071207,1602124.2034049,8869.6293956757,3385110.175609,8.4120712071207,0,0
44.210372896776,-4.9510821682896,3.216501650165,1602124.2034049,8869.6293956757,3385110.175609,8.416501650165,0,0
44.210373067743,-4.9524627222203,3.2209320932093,1602124.2034049,8869.6293956757,3385110.175609,8.4209320932093,0,0
44.210373238711,-4.953843276151,3.2253625362536,1602124.2034049,8869.6293956757,3385110.175609,8.4253625362536,0,0
44.210373409679,-4.9552238300817,3.2297929792979,1602124.2034049,8869.6293956757,3385110.175609,8.4297929792979,0,0
44.210373580647,-4.9566043840124,3.2342234223422,1602124.2034049,8869.6293956757,3385110.175609,8.4342234223422,0,0
44.210373751615,-4.9579849379431,3.2386538653865,1602124.2034049,8869.6293956757,3385110.175609,8.4386538653865,0,0
44.210373922582,-4.9593654918738,3.2430843084308,1602124.2034049,8869.6293956757,3385110.175609,8.4430843084308,0,0
44.21037409355,-4.9607460458045,3.2475147514751,1602124.2034049,8869.6293956757,3385110.175609,8.4475147514751,0,0
44.210374264518,-4.9621265997353,3.2519451945195,1602124.2034049,8869.6293956757,3385110.175609,8.4519451945195,0,0
44.210374435486,-4.963507153666,3.2563756375638,1602124.2034049,8869.6293956757,3385110.175609,8.4563756375638,0,0
44.210374606453,-4.9648877075967,3.2608060806081,1602124.2034049,8869.6293956757,3385110.175609,8.4608060806081,0,0
44.210374777421,-4.9662682615274,3.2652365236524,1602124.2034049,8869.6293956757,3385110.175609,8.4652365236524,0,0
44.210374948389,-4.9676488154581,3.2696669666967,1602124.2034049,8869.6293956757,3385110.175609,8.4696669666967,0,0
44.210375119357,-4.9690293693888,3.274097409741,1602124.2034049,8869.6293956758,3385110.175609,8.474097409741,0,0
44.210375290325,-4.9704099233195,3.2785278527853,1602124.2034049,8869.6293956758,3385110.175609,8.4785278527853,0,0
44.210375465401,-4.9717904777865,3.2829582958296,1707543.4489632,6964.7178935383,3419311.3086835,8.4829582958296,0,0
44.210375643879,-4.9731710326974,3.2873887388739,1707543.4489632,6964.7178935383,3419311.3086835,8.4873887388739,0,0
44.210375822356,-4.9745515876083,3.2918191819182,1707543.4489632,6964.7178935383,3419311.3086835,8.4918191819182,0,0
44.210376000834,-4.9759321425192,3.2962496249625,1707543.4489632,6964.7178935383,3419311.3086835,8.4962496249625,0,0
44.210376179312,-4.97731269743,3.3006800680068,1707543.4489632,6964.7178935383,3419311.3086835,8.5006800680068,0,0
44.210376357789,-4.9786932523409,3.3051105110511,1707543.4489632,6964.7178935383,3419311.3086835,8.5051105110511,0,0
44.210376536267,-4.9800738072518,3.3095409540954,1707543.4489632,6964.7178935383,3419311.3086835,8.5095409540954,0,0
44.210376714745,-4.9814543621627,3.3139713971397,1707543.4489632,6964.7178935383,3419311.3086835,8.5139713971397,0,0
44.210376893222,-4.9828349170736,3.318401840184,1707543.4489632,6964.7178935383,3419311.3086835,8.518401840184,0,0
44.2103770717,-4.9842154719844,3.3228322832283,1707543.4489632,6964.7178935383,3419311.3086835,8.5228322832283,0,0
44.210377250177,-4.9855960268953,3.3272627262726,1707543.4489632,6964.7178935383,3419311.3086835,8.5272627262726,0,0
44.210377428655,-4.9869765818062,3.3316931693169,1707543.4489632,6964.7178935383,3419311.3086835,8.5316931693169,0,0
44.210377607133,-4.9883571367171,3.3361236123612,1707543.4489632,6964.7178935383,3419311.3086835,8.5361236123612,0,0
44.21037778561,-4.989737691628,3.3405540554055,1707543.4489632,6964.7178935383,3419311.3086835,8.5405540554055,0,0
44.210377964088,-4.9911182465388,3.3449844984498,1707543.4489632,6964.7178935383,3419311.3086835,8.5449844984498,0,0
44.210378142565,-4.9924988014497,3.3494149414941,1707543.4489632,6964.7178935383,3419311.3086835,8.5494149414941,0,0
44.210378321043,-4.9938793563606,3.3538453845385,1707543.4489632,6964.7178935383,3419311.3086835,8.5538453845385,0,0
44.210378499521,-4.9952599112715,3.3582758275828,1707543.4489632,6964.7178935383,3419311.3086835,8.5582758275828,0,0
44.210378677998,-4.9966404661824,3.3627062706271,1707543.4489632,6964.7178935383,3419311.3086835,8.5627062706271,0,0
44.210378856476,-4.9980210210933,3.3671367136714,1707543.4489632,6964.7178935383,3419311.3086835,8.5671367136714,0,0
44.210379034953,-4.9994015760041,3.3715671567157,1707543.4489632,6964.7178935383,3419311.3086835,8.5715671567157,0,0
44.210379213431,-5.000782130915,3.37599759976,1707543.4489632,6964.7178935383,3419311.3086835,8.57599759976,0,0
44.210379391909,-5.0021626858259,3.3804280428043,1707543.4489632,6964.7178935383,3419311.3086835,8.5804280428043,0,0
44.210379570386,-5.0035432407368,3.3848584858486,1707543.4489632,6964.7178935383,3419311.3086835,8.5848584858486,0,0
44.210379748864,-5.0049237956477,3.3892889288929,1707543.4489632,6964.7178935383,3419311.3086835,8.5892889288929,0,0
44.210379927341,-5.0063043505585,3.3937193719372,1707543.4489632,6964.7178935383,3419311.3086835,8.5937193719372,0,0
44.210380105819,-5.0076849054694,3.3981498149815,1707543.4489632,6964.7178935383,3419311.3086835,8.5981498149815,0,0
44.210380284297,-5.0090654603803,3.4025802580258,1707543.4489632,6964.7178935383,3419311.3086835,8.6025802580258,0,0
44.210380462774,-5.0104460152912,3.4070107010701,1707543.4489632,6964.7178935383,3419311.3086835,8.6070107010701,0,0
44.210380641252,-5.0118265702021,3.4114411441144,1707543.4489632,6964.7178935383,3419311.3086835,8.6114411441144,0,0
44.210380819729,-5.0132071251129,3.4158715871587,1707543.4489632,6964.7178935383,3419311.3086835,8.6158715871587,0,0
44.210380998207,-5.0145876800238,3.420302030203,1707543.4489632,6964.7178935383,3419311.3086835,8.620302030203,0,0
44.210381176685,-5.0159682349347,3.4247324732473,1707543.4489632,6964.7178935383,3419311.3086835,8.6247324732473,0,0
44.210381355162,-5.0173487898456,3.4291629162916,1707543.4489632,6964.7178935383,3419311.3086835,8.6291629162916,0,0
44.21038153364,-5.0187293447565,3.4335933593359,1707543.4489632,6964.7178935383,3419311.3086835,8.6335933593359,0,0
44.210381712117,-5.0201098996673,3.4380238023802,1707543.4489632,6964.7178935383,3419311.3086835,8.6380238023802,0,0
44.210381890595,-5.0214904545782,3.4424542454245,1707543.4489632,6964.7178935383,3419311.3086835,8.6424542454245,0,0
44.210382069073,-5.0228710094891,3.4468846884688,1707543.4489632,6964.7178935383,3419311.3086835,8.6468846884688,0,0
44.21038224755,-5.0242515644,3.4513151315132,1707543.4489632,6964.7178935383,3419311.3086835,8.6513151315132,0,0
44.210382426028,-5.0256321193109,3.4557455745575,1707543.4489632,6964.7178935383,3419311.3086835,8.6557455745575,0,0
44.210382604505,-5.0270126742218,3.4601760176018,1707543.4489632,6964.7178935383,3419311.3086835,8.6601760176018,0,0
44.210382782983,-5.0283932291326,3.4646064606461,1707543.4489632,6964.7178935383,3419311.3086835,8.6646064606461,0,0
44.210382961461,-5.0297737840435,3.4690369036904,1707543.4489632,6964.7178935383,3419311.3086835,8.6690369036904,0,0
44.210383139938,-5.0311543389544,3.4734673467347,1707543.4489632,6964.7178935383,3419311.3086835,8.6734673467347,0,0
44.210383318416,-5.0325348938653,3.477897789779,1707543.4489632,6964.7178935383,3419311.3086835,8.677897789779,0,0
44.210383496893,-5.0339154487762,3.4823282328233,1707543.4489632,6964.7178935383,3419311.3086835,8.6823282328233,0,0
44.210383675371,-5.035296003687,3.4867586758676,1707543.4489632,6964.7178935383,3419311.3086835,8.6867586758676,0,0
44.210383853849,-5.0366765585979,3.4911891189119,1707543.4489632,6964.7178935383,3419311.3086835,8.6911891189119,0,0
44.210384032326,-5.0380571135088,3.4956195619562,1707543.4489632,6964.7178935383,3419311.3086835,8.6956195619562,0,0
44.210384210837,-5.039437669963,3.5000500050005,1673486.6268143,-25493.932326697,3311354.0991599,8.7000500050005,0,0
44.210384389469,-5.0408182319555,3.5044804480448,1673486.6268143,-25493.932326697,3311354.0991599,8.7044804480448,0,0
44.210384568101,-5.0421987939481,3.5089108910891,1673486.6268143,-25493.932326697,3311354.0991599,8.7089108910891,0,0
44.210384746732,-5.0435793559406,3.5133413341334,1673486.6268143,-25493.932326697,3311354.0991599,8.7133413341334,0,0
44.210384925364,-5.0449599179331,3.5177717771777,1673486.6268143,-25493.932326697,3311354.0991599,8.7177717771777,0,0
44.210385103996,-5.0463404799256,3.522202220222,1673486.6268143,-25493.932326697,3311354.0991599,8.722202220222,0,0
44.210385282627,-5.0477210419182,3.5266326632663,1673486.6268143,-25493.932326697,3311354.0991599,8.7266326632663,0,0
44.210385461259,-5.0491016039107,3.5310631063106,1673486.6268143,-25493.932326697,3311354.0991599,8.7310631063106,0,0
44.210385639891,-5.0504821659032,3.5354935493549,1673486.6268143,-25493.932326697,3311354.0991599,8.7354935493549,0,0
44.210385818523,-5.0518627278957,3.5399239923992,1673486.6268143,-25493.932326697,3311354.0991599,8.7399239923992,0,0
44.210385997154,-5.0532432898883,3.5443544354435,1673486.6268143,-25493.932326697,3311354.0991599,8.7443544354435,0,0
44.210386175786,-5.0546238518808,3.5487848784878,1673486.6268143,-25493.932326697,3311354.0991599,8.7487848784878,0,0
44.210386354418,-5.0560044138733,3.5532153215322,1673486.6268143,-25493.932326697,3311354.0991599,8.7532153215322,0,0
44.210386533049,-5.0573849758658,3.5576457645765,1673486.6268143,-25493.932326697,3311354.0991599,8.7576457645765,0,0
44.210386711681,-5.0587655378583,3.5620762076208,1673486.6268143,-25493.932326697,3311354.0991599,8.7620762076208,0,0
44.210386890313,-5.0601460998509,3.5665066506651,1673486.6268143,-25493.932326697,3311354.0991599,8.7665066506651,0,0
44.210387068944,-5.0615266618434,3.5709370937094,1673486.6268143,-25493.932326697,3311354.0991599,8.7709370937094,0,0
44.210387247576,-5.0629072238359,3.5753675367537,1673486.6268143,-25493.932326697,3311354.0991599,8.7753675367537,0,0
44.210387426208,-5.0642877858284,3.579797979798,1673486.6268143,-25493.932326697,3311354.0991599,8.779797979798,0,0
44.210387604839,-5.065668347821,3.5842284228423,1673486.6268143,-25493.932326697,3311354.0991599,8.7842284228423,0,0
44.210387783471,-5.0670489098135,3.5886588658866,1673486.6268143,-25493.932326697,3311354.0991599,8.7886588658866,0,0
44.210387962103,-5.068429471806,3.5930893089309,1673486.6268143,-25493.932326697,3311354.0991599,8.7930893089309,0,0
44.210388140734,-5.0698100337985,3.5975197519752,1673486.6268143,-25493.932326697,3311354.0991599,8.7975197519752,0,0
44.210388319366,-5.0711905957911,3.6019501950195,1673486.6268143,-25493.932326697,3311354.0991599,8.8019501950195,0,0
44.210388497998,-5.0725711577836,3.6063806380638,1673486.6268143,-25493.932326697,3311354.0991599,8.8063806380638,0,0
44.210388676629,-5.0739517197761,3.6108110811081,1673486.6268143,-25493.932326697,3311354.0991599,8.8108110811081,0,0
44.210388855261,-5.0753322817686,3.6152415241524,1673486.6268143,-25493.932326697,3311354.0991599,8.8152415241524,0,0
44.210389033893,-5.0767128437612,3.6196719671967,1673486.6268143,-25493.932326697,3311354.0991599,8.8196719671967,0,0
44.210389212524,-5.0780934057537,3.624102410241,1673486.6268143,-25493.932326697,3311354.0991599,8.824102410241,0,0
44.210389391156,-5.0794739677462,3.6285328532853,1673486.6268143,-25493.932326697,3311354.0991599,8.8285328532853,0,0
44.210389569788,-5.0808545297387,3.6329632963296,1673486.6268143,-25493.932326697,3311354.0991599,8.8329632963296,0,0
44.210389748419,-5.0822350917313,3.6373937393739,1673486.6268143,-25493.932326697,3311354.0991599,8.8373937393739,0,0
44.210389927051,-5.0836156537238,3.6418241824182,1673486.6268143,-25493.932326697,3311354.0991599,8.8418241824182,0,0
44.210390105683,-5.0849962157163,3.6462546254625,1673486.6268143,-25493.932326697,3311354.0991599,8.8462546254625,0,0
44.210390284314,-5.0863767777088,3.6506850685069,1673486.6268143,-25493.932326697,3311354.0991599,8.8506850685069,0,0
44.210390462946,-5.0877573397014,3.6551155115512,1673486.6268143,-25493.932326697,3311354.0991599,8.8551155115512,0,0
44.210390641578,-5.0891379016939,3.6595459545955,1673486.6268143,-25493.932326697,3311354.0991599,8.8595459545955,0,0
44.210390820209,-5.0905184636864,3.6639763976398,1673486.6268143,-25493.932326697,3311354.0991599,8.8639763976398,0,0
44.210390998841,-5.0918990256789,3.6684068406841,1673486.6268143,-25493.932326697,3311354.0991599,8.8684068406841,0,0
44.210391177473,-5.0932795876715,3.6728372837284,1673486.6268143,-25493.932326697,3311354.0991599,8.8728372837284,0,0
44.210391356104,-5.094660149664,3.6772677267727,1673486.6268143,-25493.932326697,3311354.0991599,8.8772677267727,0,0
44.210391534736,-5.0960407116565,3.681698169817,1673486.6268143,-25493.932326697,3311354.0991599,8.881698169817,0,0
44.210391713368,-5.097421273649,3.6861286128613,1673486.6268143,-25493.932326697,3311354.0991599,8.8861286128613,0,0
44.210391892,-5.0988018356416,3.6905590559056,1673486.6268143,-25493.932326697,3311354.0991599,8.8905590559056,0,0
44.210392075965,-5.1001823926258,3.6949894989499,1771717.0687951,-866.79980711331,3322388.1896339,8.8949894989499,0,0
44.210392262149,-5.1015629475261,3.6994199419942,1771717.0687951,-866.79980711331,3322388.1896339,8.8994199419942,0,0
44.210392448333,-5.1029435024264,3.7038503850385,1771717.0687951,-866.79980711331,3322388.1896339,8.9038503850385,0,0
44.210392634517,-5.1043240573267,3.7082808280828,1771717.0687951,-866.79980711331,3322388.1896339,8.9082808280828,0,0
44.210392820701,-5.105704612227,3.7127112711271,1771717.0687951,-866.79980711331,3322388.1896339,8.9127112711271,0,0
44.210393006885,-5.1070851671273,3.7171417141714,1771717.0687951,-866.79980711331,3322388.1896339,8.9171417141714,0,0
44.210393193069,-5.1084657220276,3.7215721572157,1771717.0687951,-866.79980711331,3322388.1896339,8.9215721572157,0,0
44.210393379253,-5.1098462769279,3.72600260026,1771717.0687951,-866.79980711331,3322388.1896339,8.92600260026,0,0
44.210393565438,-5.1112268318282,3.7304330433043,1771717.0687951,-866.79980711331,3322388.1896339,8.9304330433043,0,0
44.210393751622,-5.1126073867286,3.7348634863486,1771717.0687951,-866.79980711331,3322388.1896339,8.9348634863486,0,0
44.210393937806,-5.1139879416289,3.7392939293929,1771717.0687951,-866.79980711331,3322388.1896339,8.9392939293929,0,0
44.21039412399,-5.1153684965292,3.7437243724372,1771717.0687951,-866.79980711331,3322388.1896339,8.9437243724372,0,0
44.210394310174,-5.1167490514295,3.7481548154815,1771717.0687951,-866.79980711331,3322388.1896339,8.9481548154815,0,0
44.210394496358,-5.1181296063298,3.7525852585259,1771717.0687951,-866.79980711331,3322388.1896339,8.9525852585259,0,0
44.210394682542,-5.1195101612301,3.7570157015702,1771717.0687951,-866.79980711331,3322388.1896339,8.9570157015702,0,0
44.210394868726,-5.1208907161304,3.7614461446145,1771717.0687951,-866.79980711331,3322388.1896339,8.9614461446145,0,0
44.210395054911,-5.1222712710307,3.7658765876588,1771717.0687951,-866.79980711331,3322388.1896339,8.9658765876588,0,0
44.210395241095,-5.1236518259311,3.7703070307031,1771717.0687951,-866.79980711331,3322388.1896339,8.9703070307031,0,0
44.210395427279,-5.1250323808314,3.7747374737474,1771717.0687951,-866.79980711331,3322388.1896339,8.9747374737474,0,0
44.210395613463,-5.1264129357317,3.7791679167917,1771717.0687951,-866.79980711331,3322388.1896339,8.9791679167917,0,0
44.210395799647,-5.127793490632,3.783598359836,1771717.0687951,-866.79980711331,3322388.1896339,8.983598359836,0,0
44.210395985831,-5.1291740455323,3.7880288028803,1771717.0687951,-866.79980711331,3322388.1896339,8.9880288028803,0,0
44.210396172015,-5.1305546004326,3.7924592459246,1771717.0687951,-866.79980711331,3322388.1896339,8.9924592459246,0,0
44.210396358199,-5.1319351553329,3.7968896889689,1771717.0687951,-866.79980711331,3322388.1896339,8.9968896889689,0,0
44.210396544384,-5.1333157102332,3.8013201320132,1771717.0687951,-866.79980711331,3322388.1896339,9.0013201320132,0,0
44.210396730568,-5.1346962651335,3.8057505750575,1771717.0687951,-866.79980711331,3322388.1896339,9.0057505750575,0,0
44.210396916752,-5.1360768200339,3.8101810181018,1771717.0687951,-866.79980711331,3322388.1896339,9.0101810181018,0,0
44.210397102936,-5.1374573749342,3.8146114611461,1771717.0687951,-866.79980711331,3322388.1896339,9.0146114611461,0,0
44.21039728912,-5.1388379298345,3.8190419041904,1771717.0687951,-866.79980711331,3322388.1896339,9.0190419041904,0,0
44.210397475304,-5.1402184847348,3.8234723472347,1771717.0687951,-866.79980711331,3322388.1896339,9.0234723472347,0,0
44.210397661488,-5.1415990396351,3.827902790279,1771717.0687951,-866.79980711331,3322388.1896339,9.027902790279,0,0
44.210397847672,-5.1429795945354,3.8323332333233,1771717.0687951,-866.79980711331,3322388.1896339,9.0323332333233,0,0
44.210398033857,-5.1443601494357,3.8367636763676,1771717.0687951,-866.79980711331,3322388.1896339,9.0367636763676,0,0
44.210398220041,-5.145740704336,3.8411941194119,1771717.0687951,-866.79980711331,3322388.1896339,9.0411941194119,0,0
44.210398406225,-5.1471212592364,3.8456245624562,1771717.0687951,-866.79980711331,3322388.1896339,9.0456245624562,0,0
44.210398592409,-5.1485018141367,3.8500550055005,1771717.0687951,-866.79980711331,3322388.1896339,9.0500550055005,0,0
44.210398778593,-5.149882369037,3.8544854485449,1771717.0687951,-866.79980711331,3322388.1896339,9.0544854485449,0,0
44.210398964777,-5.1512629239373,3.8589158915892,1771717.0687951,-866.79980711331,3322388.1896339,9.0589158915892,0,0
44.210399150961,-5.1526434788376,3.8633463346335,1771717.0687951,-866.79980711331,3322388.1896339,9.0633463346335,0,0
44.210399337145,-5.1540240337379,3.8677767776778,1771717.0687951,-866.79980711331,3322388.1896339,9.0677767776778,0,0
44.210399523329,-5.1554045886382,3.8722072207221,1771717.0687951,-866.79980711331,3322388.1896339,9.0722072207221,0,0
44.210399709514,-5.1567851435385,3.8766376637664,1771717.0687951,-866.79980711331,3322388.1896339,9.0766376637664,0,0
44.210399895698,-5.1581656984388,3.8810681068107,1771717.0687951,-866.79980711331,3322388.1896339,9.0810681068107,0,0
44.210400081882,-5.1595462533392,3.885498549855,1771717.0687951,-866.79980711331,3322388.1896339,9.085498549855,0,0
44.210400268066,-5.1609268082395,3.8899289928993,1771717.0687951,-866.79980711331,3322388.1896339,9.0899289928993,0,0
44.21040045425,-5.1623073631398,3.8943594359436,1771717.0687951,-866.79980711331,3322388.1896339,9.0943594359436,0,0
44.210400640434,-5.1636879180401,3.8987898789879,1771717.0687951,-866.79980711331,3322388.1896339,9.0987898789879,0,0
44.210400826618,-5.1650684729404,3.9032203220322,1771717.0687951,-866.79980711331,3322388.1896339,9.1032203220322,0,0
44.210401012802,-5.1664490278407,3.9076507650765,1771717.0687951,-866.79980711331,3322388.1896339,9.1076507650765,0,0
44.210401198987,-5.167829582741,3.9120812081208,1771717.0687951,-866.79980711331,3322388.1896339,9.1120812081208,0,0
44.210401385171,-5.1692101376413,3.9165116511651,1771717.0687951,-866.79980711331,3322388.1896339,9.1165116511651,0,0
44.210401571355,-5.1705906925417,3.9209420942094,1771717.0687951,-866.79980711331,3322388.1896339,9.1209420942094,0,0
44.210401757539,-5.171971247442,3.9253725372537,1771717.0687951,-866.79980711331,3322388.1896339,9.1253725372537,0,0
44.210401943723,-5.1733518023423,3.929802980298,1771717.0687951,-866.79980711331,3322388.1896339,9.129802980298,0,0
44.210402129907,-5.1747323572426,3.9342334233423,1771717.0687951,-866.79980711331,3322388.1896339,9.1342334233423,0,0
44.210402316091,-5.1761129121429,3.9386638663866,1771717.0687951,-866.79980711331,3322388.1896339,9.1386638663866,0,0
44.210402502275,-5.1774934670432,3.9430943094309,1771717.0687951,-866.79980711331,3322388.1896339,9.1430943094309,0,0
44.21040268846,-5.1788740219435,3.9475247524752,1771717.0687951,-866.79980711331,3322388.1896339,9.1475247524752,0,0
44.210402874644,-5.1802545768438,3.9519551955196,1771717.0687951,-866.79980711331,3322388.1896339,9.1519551955196,0,0
44.210403060828,-5.1816351317441,3.9563856385639,1771717.0687951,-866.79980711331,3322388.1896339,9.1563856385639,0,0
44.210403247012,-5.1830156866445,3.9608160816082,1771717.0687951,-866.79980711331,3322388.1896339,9.1608160816082,0,0
44.210403433196,-5.1843962415448,3.9652465246525,1771717.0687951,-866.79980711331,3322388.1896339,9.1652465246525,0,0
44.21040361938,-5.1857767964451,3.9696769676968,1771717.0687951,-866.79980711331,3322388.1896339,9.1696769676968,0,0
44.210403805564,-5.1871573513454,3.9741074107411,1771717.0687951,-866.79980711331,3322388.1896339,9.1741074107411,0,0
44.210403991748,-5.1885379062457,3.9785378537854,1771717.0687951,-866.79980711331,3322388.1896339,9.1785378537854,0,0
44.210404177933,-5.189918461146,3.9829682968297,1771717.0687951,-866.79980711331,3322388.1896339,9.1829682968297,0,0
44.210404364117,-5.1912990160463,3.987398739874,1771717.0687951,-866.79980711331,3322388.1896339,9.187398739874,0,0
44.210404550301,-5.1926795709466,3.9918291829183,1771717.0687951,-866.79980711331,3322388.1896339,9.1918291829183,0,0
44.210404736485,-5.194060125847,3.9962596259626,1771717.0687951,-866.79980711331,3322388.1896339,9.1962596259626,0,0
44.210404922669,-5.1954406807473,4.0006900690069,1771717.0687951,-866.79980711331,3322388.1896339,9.2006900690069,0,0
44.210405108853,-5.1968212356476,4.0051205120512,1771717.0687951,-866.79980711331,3322388.1896339,9.2051205120512,0,0
44.210405295908,-5.198201793725,4.0095509550955,1773716.6714737,-30846.337245976,3245139.8436719,9.2095509550955,0,0
44.210405484308,-5.1995823567159,4.0139813981398,1773716.6714737,-30846.337245976,3245139.8436719,9.2139813981398,0,0
44.210405672709,-5.2009629197069,4.0184118411841,1773716.6714737,-30846.337245976,3245139.8436719,9.2184118411841,0,0
44.21040586111,-5.2023434826979,4.0228422842284,1773716.6714737,-30846.337245976,3245139.8436719,9.2228422842284,0,0
44.21040604951,-5.2037240456889,4.0272727272727,1773716.6714737,-30846.337245976,3245139.8436719,9.2272727272727,0,0
44.210406237911,-5.2051046086798,4.031703170317,1773716.6714737,-30846.337245976,3245139.8436719,9.231703170317,0,0
44.210406426311,-5.2064851716708,4.0361336133613,1773716.6714737,-30846.337245976,3245139.8436719,9.2361336133613,0,0
44.210406614712,-5.2078657346618,4.0405640564056,1773716.6714737,-30846.337245976,3245139.8436719,9.2405640564056,0,0
44.210406803113,-5.2092462976528,4.0449944994499,1773716.6714737,-30846.337245976,3245139.8436719,9.2449944994499,0,0
44.210406991513,-5.2106268606437,4.0494249424942,1773716.6714737,-30846.337245976,3245139.8436719,9.2494249424942,0,0
44.210407179914,-5.2120074236347,4.0538553855386,1773716.6714737,-30846.337245976,3245139.8436719,9.2538553855386,0,0
44.210407368314,-5.2133879866257,4.0582858285829,1773716.6714737,-30846.337245976,3245139.8436719,9.2582858285829,0,0
44.210407556715,-5.2147685496167,4.0627162716272,1773716.6714737,-30846.337245976,3245139.8436719,9.2627162716272,0,0
44.210407745116,-5.2161491126077,4.0671467146715,1773716.6714737,-30846.337245976,3245139.8436719,9.2671467146715,0,0
44.210407933516,-5.2175296755986,4.0715771577158,1773716.6714737,-30846.337245976,3245139.8436719,9.2715771577158,0,0
44.210408121917,-5.2189102385896,4.0760076007601,1773716.6714737,-30846.337245976,3245139.8436719,9.2760076007601,0,0
44.210408310317,-5.2202908015806,4.0804380438044,1773716.6714737,-30846.337245976,3245139.8436719,9.2804380438044,0,0
44.210408498718,-5.2216713645716,4.0848684868487,1773716.6714737,-30846.337245976,3245139.8436719,9.2848684868487,0,0
44.210408687119,-5.2230519275625,4.089298929893,1773716.6714737,-30846.337245976,3245139.8436719,9.289298929893,0,0
44.210408875519,-5.2244324905535,4.0937293729373,1773716.6714737,-30846.337245976,3245139.8436719,9.2937293729373,0,0
44.21040906392,-5.2258130535445,4.0981598159816,1773716.6714737,-30846.337245976,3245139.8436719,9.2981598159816,0,0
44.21040925232,-5.2271936165355,4.1025902590259,1773716.6714737,-30846.337245976,3245139.8436719,9.3025902590259,0,0
44.210409440721,-5.2285741795264,4.1070207020702,1773716.6714737,-30846.337245976,3245139.8436719,9.3070207020702,0,0
44.210409629122,-5.2299547425174,4.1114511451145,1773716.6714737,-30846.337245976,3245139.8436719,9.3114511451145,0,0
44.210409817522,-5.2313353055084,4.1158815881588,1773716.6714737,-30846.337245976,3245139.8436719,9.3158815881588,0,0
44.210410005923,-5.2327158684994,4.1203120312031,1773716.6714737,-30846.337245976,3245139.8436719,9.3203120312031,0,0
44.210410194323,-5.2340964314903,4.1247424742474,1773716.6714737,-30846.337245976,3245139.8436719,9.3247424742474,0,0
44.210410382724,-5.2354769944813,4.1291729172917,1773716.6714737,-30846.337245976,3245139.8436719,9.3291729172917,0,0
44.210410571125,-5.2368575574723,4.133603360336,1773716.6714737,-30846.337245976,3245139.8436719,9.333603360336,0,0
44.210410759525,-5.2382381204633,4.1380338033803,1773716.6714737,-30846.337245976,3245139.8436719,9.3380338033803,0,0
44.210410947926,-5.2396186834542,4.1424642464246,1773716.6714737,-30846.337245976,3245139.8436719,9.3424642464246,0,0
44.210411139874,-5.2409992417352,4.1468946894689,1841004.8321405,-5187.6415798447,3232220.7687079,9.3468946894689,0,0
44.210411333993,-5.2423797971341,4.1513251325133,1841004.8321405,-5187.6415798447,3232220.7687079,9.3513251325133,0,0
44.210411528113,-5.243760352533,4.1557555755576,1841004.8321405,-5187.6415798447,3232220.7687079,9.3557555755576,0,0
44.210411722232,-5.2451409079318,4.1601860186019,1841004.8321405,-5187.6415798447,3232220.7687079,9.3601860186019,0,0
44.210411916351,-5.2465214633307,4.1646164616462,1841004.8321405,-5187.6415798447,3232220.7687079,9.3646164616462,0,0
44.21041211047,-5.2479020187296,4.1690469046905,1841004.8321405,-5187.6415798447,3232220.7687079,9.3690469046905,0,0
44.21041230459,-5.2492825741284,4.1734773477348,1841004.8321405,-5187.6415798447,3232220.7687079,9.3734773477348,0,0
44.210412498709,-5.2506631295273,4.1779077907791,1841004.8321405,-5187.6415798447,3232220.7687079,9.3779077907791,0,0
44.210412692828,-5.2520436849262,4.1823382338234,1841004.8321405,-5187.6415798447,3232220.7687079,9.3823382338234,0,0
44.210412886948,-5.253424240325,4.1867686768677,1841004.8321405,-5187.6415798447,3232220.7687079,9.3867686768677,0,0
44.210413081067,-5.2548047957239,4.191199119912,1841004.8321405,-5187.6415798447,3232220.7687079,9.391199119912,0,0
44.210413275186,-5.2561853511227,4.1956295629563,1841004.8321405,-5187.6415798447,3232220.7687079,9.3956295629563,0,0
44.210413469305,-5.2575659065216,4.2000600060006,1841004.8321405,-5187.6415798447,3232220.7687079,9.4000600060006,0,0
44.210413663425,-5.2589464619205,4.2044904490449,1841004.8321405,-5187.6415798447,3232220.7687079,9.4044904490449,0,0
44.210413857544,-5.2603270173193,4.2089208920892,1841004.8321405,-5187.6415798447,3232220.7687079,9.4089208920892,0,0
44.210414051663,-5.2617075727182,4.2133513351335,1841004.8321405,-5187.6415798447,3232220.7687079,9.4133513351335,0,0
44.210414245782,-5.2630881281171,4.2177817781778,1841004.8321405,-5187.6415798447,3232220.7687079,9.4177817781778,0,0
44.210414439902,-5.2644686835159,4.2222122212221,1841004.8321405,-5187.6415798447,3232220.7687079,9.4222122212221,0,0
44.210414634021,-5.2658492389148,4.2266426642664,1841004.8321405,-5187.6415798447,3232220.7687079,9.4266426642664,0,0
44.21041482814,-5.2672297943137,4.2310731073107,1841004.8321405,-5187.6415798447,3232220.7687079,9.4310731073107,0,0
44.210415022259,-5.2686103497125,4.235503550355,1841004.8321405,-5187.6415798447,3232220.7687079,9.435503550355,0,0
44.210415216379,-5.2699909051114,4.2399339933993,1841004.8321405,-5187.6415798447,3232220.7687079,9.4399339933993,0,0
44.210415410498,-5.2713714605103,4.2443644364436,1841004.8321405,-5187.6415798447,3232220.7687079,9.4443644364436,0,0
44.210415604617,-5.2727520159091,4.2487948794879,1841004.8321405,-5187.6415798447,3232220.7687079,9.4487948794879,0,0
44.210415798737,-5.274132571308,4.2532253225323,1841004.8321405,-5187.6415798447,3232220.7687079,9.4532253225323,0,0
44.210415992856,-5.2755131267068,4.2576557655766,1841004.8321405,-5187.6415798447,3232220.7687079,9.4576557655766,0,0
44.210416186975,-5.2768936821057,4.2620862086209,1841004.8321405,-5187.6415798447,3232220.7687079,9.4620862086209,0,0
44.210416381094,-5.2782742375046,4.2665166516652,1841004.8321405,-5187.6415798447,3232220.7687079,9.4665166516652,0,0
44.210416575214,-5.2796547929034,4.2709470947095,1841004.8321405,-5187.6415798447,3232220.7687079,9.4709470947095,0,0
44.210416769333,-5.2810353483023,4.2753775377538,1841004.8321405,-5187.6415798447,3232220.7687079,9.4753775377538,0,0
44.210416963452,-5.2824159037012,4.2798079807981,1841004.8321405,-5187.6415798447,3232220.7687079,9.4798079807981,0,0
44.210417157571,-5.2837964591,4.2842384238424,1841004.8321405,-5187.6415798447,3232220.7687079,9.4842384238424,0,0
44.210417351691,-5.2851770144989,4.2886688668867,1841004.8321405,-5187.6415798447,3232220.7687079,9.4886688668867,0,0
44.21041754581,-5.2865575698978,4.293099309931,1841004.8321405,-5187.6415798447,3232220.7687079,9.493099309931,0,0
44.210417739929,-5.2879381252966,4.2975297529753,1841004.8321405,-5187.6415798447,3232220.7687079,9.4975297529753,0,0
44.210417934049,-5.2893186806955,4.3019601960196,1841004.8321405,-5187.6415798447,3232220.7687079,9.5019601960196,0,0
44.210418128168,-5.2906992360944,4.3063906390639,1841004.8321405,-5187.6415798447,3232220.7687079,9.5063906390639,0,0
44.210418322287,-5.2920797914932,4.3108210821082,1841004.8321405,-5187.6415798447,3232220.7687079,9.5108210821082,0,0
44.210418516406,-5.2934603468921,4.3152515251525,1841004.8321405,-5187.6415798447,3232220.7687079,9.5152515251525,0,0
44.210418710526,-5.2948409022909,4.3196819681968,1841004.8321405,-5187.6415798447,3232220.7687079,9.5196819681968,0,0
44.210418904645,-5.2962214576898,4.3241124112411,1841004.8321405,-5187.6415798447,3232220.7687079,9.5241124112411,0,0
44.210419098764,-5.2976020130887,4.3285428542854,1841004.8321405,-5187.6415798447,3232220.7687079,9.5285428542854,0,0
44.210419292883,-5.2989825684875,4.3329732973297,1841004.8321405,-5187.6415798447,3232220.7687079,9.5329732973297,0,0
44.210419487003,-5.3003631238864,4.337403740374,1841004.8321405,-5187.6415798447,3232220.7687079,9.537403740374,0,0
44.210419681122,-5.3017436792853,4.3418341834183,1841004.8321405,-5187.6415798447,3232220.7687079,9.5418341834183,0,0
44.210419875241,-5.3031242346841,4.3462646264626,1841004.8321405,-5187.6415798447,3232220.7687079,9.5462646264626,0,0
44.21042006936,-5.304504790083,4.350695069507,1841004.8321405,-5187.6415798447,3232220.7687079,9.550695069507,0,0
44.21042026348,-5.3058853454819,4.3551255125513,1841004.8321405,-5187.6415798447,3232220.7687079,9.5551255125513,0,0
44.210420457599,-5.3072659008807,4.3595559555956,1841004.8321405,-5187.6415798447,3232220.7687079,9.5595559555956,0,0
44.210420651718,-5.3086464562796,4.3639863986399,1841004.8321405,-5187.6415798447,3232220.7687079,9.5639863986399,0,0
44.210420845838,-5.3100270116785,4.3684168416842,1841004.8321405,-5187.6415798447,3232220.7687079,9.5684168416842,0,0
44.210421039957,-5.3114075670773,4.3728472847285,1841004.8321405,-5187.6415798447,3232220.7687079,9.5728472847285,0,0
44.210421234076,-5.3127881224762,4.3772777277728,1841004.8321405,-5187.6415798447,3232220.7687079,9.5772777277728,0,0
44.210421428195,-5.314168677875,4.3817081708171,1841004.8321405,-5187.6415798447,3232220.7687079,9.5817081708171,0,0
44.210421622315,-5.3155492332739,4.3861386138614,1841004.8321405,-5187.6415798447,3232220.7687079,9.5861386138614,0,0
44.210421816434,-5.3169297886728,4.3905690569057,1841004.8321405,-5187.6415798447,3232220.7687079,9.5905690569057,0,0
44.210422010553,-5.3183103440716,4.39499949995,1841004.8321405,-5187.6415798447,3232220.7687079,9.59499949995,0,0
44.210422204672,-5.3196908994705,4.3994299429943,1841004.8321405,-5187.6415798447,3232220.7687079,9.5994299429943,0,0
44.210422398792,-5.3210714548694,4.4038603860386,1841004.8321405,-5187.6415798447,3232220.7687079,9.6038603860386,0,0
44.210422592911,-5.3224520102682,4.4082908290829,1841004.8321405,-5187.6415798447,3232220.7687079,9.6082908290829,0,0
44.21042278703,-5.3238325656671,4.4127212721272,1841004.8321405,-5187.6415798447,3232220.7687079,9.6127212721272,0,0
44.210422981149,-5.325213121066,4.4171517151715,1841004.8321405,-5187.6415798447,3232220.7687079,9.6171517151715,0,0
44.210423175269,-5.3265936764648,4.4215821582158,1841004.8321405,-5187.6415798447,3232220.7687079,9.6215821582158,0,0
44.210423369388,-5.3279742318637,4.4260126012601,1841004.8321405,-5187.6415798447,3232220.7687079,9.6260126012601,0,0
44.210423563507,-5.3293547872626,4.4304430443044,1841004.8321405,-5187.6415798447,3232220.7687079,9.6304430443044,0,0
44.210423757627,-5.3307353426614,4.4348734873487,1841004.8321405,-5187.6415798447,3232220.7687079,9.6348734873487,0,0
44.210423951746,-5.3321158980603,4.439303930393,1841004.8321405,-5187.6415798447,3232220.7687079,9.639303930393,0,0
44.210424145865,-5.3334964534591,4.4437343734373,1841004.8321405,-5187.6415798447,3232220.7687079,9.6437343734373,0,0
44.210424339984,-5.334877008858,4.4481648164816,1841004.8321405,-5187.6415798447,3232220.7687079,9.6481648164816,0,0
44.210424534104,-5.3362575642569,4.452595259526,1841004.8321405,-5187.6415798447,3232220.7687079,9.652595259526,0,0
44.210424728223,-5.3376381196557,4.4570257025703,1841004.8321405,-5187.6415798447,3232220.7687079,9.6570257025703,0,0
44.210424922342,-5.3390186750546,4.4614561456146,1841004.8321405,-5187.6415798447,3232220.7687079,9.6614561456146,0,0
44.210425116461,-5.3403992304535,4.4658865886589,1841004.8321405,-5187.6415798447,3232220.7687079,9.6658865886589,0,0
44.210425310581,-5.3417797858523,4.4703170317032,1841004.8321405,-5187.6415798447,3232220.7687079,9.6703170317032,0,0
44.2104255047,-5.3431603412512,4.4747474747475,1841004.8321405,-5187.6415798447,3232220.7687079,9.6747474747475,0,0
44.210425698819,-5.3445408966501,4.4791779177918,1841004.8321405,-5187.6415798447,3232220.7687079,9.6791779177918,0,0
44.210425892939,-5.3459214520489,4.4836083608361,1841004.8321405,-5187.6415798447,3232220.7687079,9.6836083608361,0,0
44.210426087058,-5.3473020074478,4.4880388038804,1841004.8321405,-5187.6415798447,3232220.7687079,9.6880388038804,0,0
44.210426281177,-5.3486825628467,4.4924692469247,1841004.8321405,-5187.6415798447,3232220.7687079,9.6924692469247,0,0
44.210426475296,-5.3500631182455,4.496899689969,1841004.8321405,-5187.6415798447,3232220.7687079,9.696899689969,0,0
44.210426669416,-5.3514436736444,4.5013301330133,1841004.8321405,-5187.6415798447,3232220.7687079,9.7013301330133,0,0
44.210426863535,-5.3528242290432,4.5057605760576,1841004.8321405,-5187.6415798447,3232220.7687079,9.7057605760576,0,0
44.210427057654,-5.3542047844421,4.5101910191019,1841004.8321405,-5187.6415798447,3232220.7687079,9.7101910191019,0,0
44.210427251773,-5.355585339841,4.5146214621462,1841004.8321405,-5187.6415798447,3232220.7687079,9.7146214621462,0,0
44.210427445893,-5.3569658952398,4.5190519051905,1841004.8321405,-5187.6415798447,3232220.7687079,9.7190519051905,0,0
44.210427640012,-5.3583464506387,4.5234823482348,1841004.8321405,-5187.6415798447,3232220.7687079,9.7234823482348,0,0
44.210427834131,-5.3597270060376,4.5279127912791,1841004.8321405,-5187.6415798447,3232220.7687079,9.7279127912791,0,0
44.21042802825,-5.3611075614364,4.5323432343234,1841004.8321405,-5187.6415798447,3232220.7687079,9.7323432343234,0,0
44.21042822237,-5.3624881168353,4.5367736773677,1841004.8321405,-5187.6415798447,3232220.7687079,9.7367736773677,0,0
44.210428416489,-5.3638686722342,4.541204120412,1841004.8321405,-5187.6415798447,3232220.7687079,9.741204120412,0,0
44.210428610608,-5.365249227633,4.5456345634563,1841004.8321405,-5187.6415798447,3232220.7687079,9.7456345634563,0,0
44.210428804728,-5.3666297830319,4.5500650065006,1841004.8321405,-5187.6415798447,3232220.7687079,9.7500650065007,0,0
44.210428998847,-5.3680103384308,4.554495449545,1841004.8321405,-5187.6415798447,3232220.7687079,9.754495449545,0,0
44.210429195577,-5.3693908995418,4.5589258925893,1861745.4637769,-27179.495797896,3171824.71938,9.7589258925893,0,0
44.210429392961,-5.3707714620826,4.5633563356336,1861745.4637769,-27179.495797896,3171824.71938,9.7633563356336,0,0
44.210429590345,-5.3721520246234,4.5677867786779,1861745.4637769,-27179.495797896,3171824.71938,9.7677867786779,0,0
44.210429787729,-5.3735325871643,4.5722172217222,1861745.4637769,-27179.495797896,3171824.71938,9.7722172217222,0,0
44.210429985113,-5.3749131497051,4.5766476647665,1861745.4637769,-27179.495797896,3171824.71938,9.7766476647665,0,0
44.210430182497,-5.3762937122459,4.5810781078108,1861745.4637769,-27179.495797896,3171824.71938,9.7810781078108,0,0
44.210430379881,-5.3776742747868,4.5855085508551,1861745.4637769,-27179.495797896,3171824.71938,9.7855085508551,0,0
44.210430577265,-5.3790548373276,4.5899389938994,1861745.4637769,-27179.495797896,3171824.71938,9.7899389938994,0,0
44.210430774649,-5.3804353998684,4.5943694369437,1861745.4637769,-27179.495797896,3171824.71938,9.7943694369437,0,0
44.210430972033,-5.3818159624093,4.598799879988,1861745.4637769,-27179.495797896,3171824.71938,9.798799879988,0,0
44.210431169417,-5.3831965249501,4.6032303230323,1861745.4637769,-27179.495797896,3171824.71938,9.8032303230323,0,0
44.210431366801,-5.3845770874909,4.6076607660766,1861745.4637769,-27179.495797896,3171824.71938,9.8076607660766,0,0
44.210431564185,-5.3859576500318,4.6120912091209,1861745.4637769,-27179.495797896,3171824.71938,9.8120912091209,0,0
44.210431761569,-5.3873382125726,4.6165216521652,1861745.4637769,-27179.495797896,3171824.71938,9.8165216521652,0,0
44.210431958953,-5.3887187751134,4.6209520952095,1861745.4637769,-27179.495797896,3171824.71938,9.8209520952095,0,0
44.210432156337,-5.3900993376543,4.6253825382538,1861745.4637769,-27179.495797896,3171824.71938,9.8253825382538,0,0
44.210432353721,-5.3914799001951,4.6298129812981,1861745.4637769,-27179.495797896,3171824.71938,9.8298129812981,0,0
44.210432551105,-5.3928604627359,4.6342434243424,1861745.4637769,-27179.495797896,3171824.71938,9.8342434243424,0,0
44.210432748489,-5.3942410252768,4.6386738673867,1861745.4637769,-27179.495797896,3171824.71938,9.8386738673867,0,0
44.210432945873,-5.3956215878176,4.643104310431,1861745.4637769,-27179.495797896,3171824.71938,9.843104310431,0,0
44.210433143257,-5.3970021503585,4.6475347534753,1861745.4637769,-27179.495797896,3171824.71938,9.8475347534753,0,0
44.210433340641,-5.3983827128993,4.6519651965197,1861745.4637769,-27179.495797896,3171824.71938,9.8519651965197,0,0
44.210433538025,-5.3997632754401,4.656395639564,1861745.4637769,-27179.495797896,3171824.71938,9.856395639564,0,0
44.210433737153,-5.4011438339257,4.6608260826083,1889432.1684576,116.30751714613,3136097.4906596,9.8608260826083,0,0
44.210433937699,-5.4025243891088,4.6652565256526,1889432.1684576,116.30751714613,3136097.4906596,9.8652565256526,0,0
44.210434138246,-5.403904944292,4.6696869686969,1889432.1684576,116.30751714613,3136097.4906596,9.8696869686969,0,0
44.210434338793,-5.4052854994752,4.6741174117412,1889432.1684576,116.30751714613,3136097.4906596,9.8741174117412,0,0
44.21043453934,-5.4066660546584,4.6785478547855,1889432.1684576,116.30751714613,3136097.4906596,9.8785478547855,0,0
44.210434739886,-5.4080466098416,4.6829782978298,1889432.1684576,116.30751714613,3136097.4906596,9.8829782978298,0,0
44.210434940433,-5.4094271650248,4.6874087408741,1889432.1684576,116.30751714613,3136097.4906596,9.8874087408741,0,0
44.21043514098,-5.410807720208,4.6918391839184,1889432.1684576,116.30751714613,3136097.4906596,9.8918391839184,0,0
44.210435341527,-5.4121882753912,4.6962696269627,1889432.1684576,116.30751714613,3136097.4906596,9.8962696269627,0,0
44.210435542073,-5.4135688305744,4.700700070007,1889432.1684576,116.30751714613,3136097.4906596,9.900700070007,0,0
44.21043574262,-5.4149493857576,4.7051305130513,1889432.1684576,116.30751714613,3136097.4906596,9.9051305130513,0,0
44.210435943167,-5.4163299409408,4.7095609560956,1889432.1684576,116.30751714613,3136097.4906596,9.9095609560956,0,0
44.210436143713,-5.417710496124,4.7139913991399,1889432.1684576,116.30751714613,3136097.4906596,9.9139913991399,0,0
44.21043634426,-5.4190910513071,4.7184218421842,1889432.1684576,116.30751714613,3136097.4906596,9.9184218421842,0,0
44.210436544807,-5.4204716064903,4.7228522852285,1889432.1684576,116.30751714613,3136097.4906596,9.9228522852285,0,0
44.210436745354,-5.4218521616735,4.7272827282728,1889432.1684576,116.30751714613,3136097.4906596,9.9272827282728,0,0
44.2104369459,-5.4232327168567,4.7317131713171,1889432.1684576,116.30751714613,3136097.4906596,9.9317131713171,0,0
44.210437146447,-5.4246132720399,4.7361436143614,1889432.1684576,116.30751714613,3136097.4906596,9.9361436143614,0,0
44.210437346994,-5.4259938272231,4.7405740574057,1889432.1684576,116.30751714613,3136097.4906596,9.9405740574057,0,0
44.210437547541,-5.4273743824063,4.74500450045,1889432.1684576,116.30751714613,3136097.4906596,9.94500450045,0,0
44.210437748087,-5.4287549375895,4.7494349434943,1889432.1684576,116.30751714613,3136097.4906596,9.9494349434943,0,0
44.210437948634,-5.4301354927727,4.7538653865387,1889432.1684576,116.30751714613,3136097.4906596,9.9538653865387,0,0
44.210438149181,-5.4315160479559,4.758295829583,1889432.1684576,116.30751714613,3136097.4906596,9.958295829583,0,0
44.210438349728,-5.4328966031391,4.7627262726273,1889432.1684576,116.30751714613,3136097.4906596,9.9627262726273,0,0
44.210438550274,-5.4342771583223,4.7671567156716,1889432.1684576,116.30751714613,3136097.4906596,9.9671567156716,0,0
44.210438750821,-5.4356577135054,4.7715871587159,1889432.1684576,116.30751714613,3136097.4906596,9.9715871587159,0,0
44.210438951368,-5.4370382686886,4.7760176017602,1889432.1684576,116.30751714613,3136097.4906596,9.9760176017602,0,0
44.210439151915,-5.4384188238718,4.7804480448045,1889432.1684576,116.30751714613,3136097.4906596,9.9804480448045,0,0
44.210439352461,-5.439799379055,4.7848784878488,1889432.1684576,116.30751714613,3136097.4906596,9.9848784878488,0,0
44.210439553008,-5.4411799342382,4.7893089308931,1889432.1684576,116.30751714613,3136097.4906596,9.9893089308931,0,0
44.210439753555,-5.4425604894214,4.7937393739374,1889432.1684576,116.30751714613,3136097.4906596,9.9937393739374,0,0
44.210439954102,-5.4439410446046,4.7981698169817,1889432.1684576,116.30751714613,3136097.4906596,9.9981698169817,0,0
44.210440154648,-5.4453215997878,4.802600260026,1889432.1684576,116.30751714613,3136097.4906596,10.002600260026,0,0
44.210440355195,-5.446702154971,4.8070307030703,1889432.1684576,116.30751714613,3136097.4906596,10.00703070307,0,0
44.210440555742,-5.4480827101542,4.8114611461146,1889432.1684576,116.30751714613,3136097.4906596,10.011461146115,0,0
44.210440756289,-5.4494632653374,4.8158915891589,1889432.1684576,116.30751714613,3136097.4906596,10.015891589159,0,0
44.210440956835,-5.4508438205206,4.8203220322032,1889432.1684576,116.30751714613,3136097.4906596,10.020322032203,0,0
44.210441157382,-5.4522243757038,4.8247524752475,1889432.1684576,116.30751714613,3136097.4906596,10.024752475248,0,0
44.210441357929,-5.4536049308869,4.8291829182918,1889432.1684576,116.30751714613,3136097.4906596,10.029182918292,0,0
44.210441558476,-5.4549854860701,4.8336133613361,1889432.1684576,116.30751714613,3136097.4906596,10.033613361336,0,0
44.210441759022,-5.4563660412533,4.8380438043804,1889432.1684576,116.30751714613,3136097.4906596,10.03804380438,0,0
44.210441959569,-5.4577465964365,4.8424742474247,1889432.1684576,116.30751714613,3136097.4906596,10.042474247425,0,0
44.210442160116,-5.4591271516197,4.846904690469,1889432.1684576,116.30751714613,3136097.4906596,10.046904690469,0,0
44.210442360663,-5.4605077068029,4.8513351335134,1889432.1684576,116.30751714613,3136097.4906596,10.051335133513,0,0
44.210442561209,-5.4618882619861,4.8557655765577,1889432.1684576,116.30751714613,3136097.4906596,10.055765576558,0,0
44.210442761756,-5.4632688171693,4.860196019602,1889432.1684576,116.30751714613,3136097.4906596,10.060196019602,0,0
44.210442962303,-5.4646493723525,4.8646264626463,1889432.1684576,116.30751714613,3136097.4906596,10.064626462646,0,0
44.21044316285,-5.4660299275357,4.8690569056906,1889432.1684576,116.30751714613,3136097.4906596,10.069056905691,0,0
44.210443363396,-5.4674104827189,4.8734873487349,1889432.1684576,116.30751714613,3136097.4906596,10.073487348735,0,0
44.210443563943,-5.4687910379021,4.8779177917792,1889432.1684576,116.30751714613,3136097.4906596,10.077917791779,0,0
44.21044376449,-5.4701715930852,4.8823482348235,1889432.1684576,116.30751714613,3136097.4906596,10.082348234823,0,0
44.210443965037,-5.4715521482684,4.8867786778678,1889432.1684576,116.30751714613,3136097.4906596,10.086778677868,0,0
44.210444165583,-5.4729327034516,4.8912091209121,1889432.1684576,116.30751714613,3136097.4906596,10.091209120912,0,0
44.21044436613,-5.4743132586348,4.8956395639564,1889432.1684576,116.30751714613,3136097.4906596,10.095639563956,0,0
44.210444566677,-5.475693813818,4.9000700070007,1889432.1684576,116.30751714613,3136097.4906596,10.100070007001,0,0
44.210444767224,-5.4770743690012,4.904500450045,1889432.1684576,116.30751714613,3136097.4906596,10.104500450045,0,0
44.21044496777,-5.4784549241844,4.9089308930893,1889432.1684576,116.30751714613,3136097.4906596,10.108930893089,0,0
44.210445168317,-5.4798354793676,4.9133613361336,1889432.1684576,116.30751714613,3136097.4906596,10.113361336134,0,0
44.210445368864,-5.4812160345508,4.9177917791779,1889432.1684576,116.30751714613,3136097.4906596,10.117791779178,0,0
44.210445569411,-5.482596589734,4.9222222222222,1889432.1684576,116.30751714613,3136097.4906596,10.122222222222,0,0
44.210445769957,-5.4839771449172,4.9266526652665,1889432.1684576,116.30751714613,3136097.4906596,10.126652665267,0,0
44.210445970504,-5.4853577001004,4.9310831083108,1889432.1684576,116.30751714613,3136097.4906596,10.131083108311,0,0
44.210446171051,-5.4867382552835,4.9355135513551,1889432.1684576,116.30751714613,3136097.4906596,10.135513551355,0,0
44.210446371598,-5.4881188104667,4.9399439943994,1889432.1684576,116.30751714613,3136097.4906596,10.139943994399,0,0
44.210446572144,-5.4894993656499,4.9443744374437,1889432.1684576,116.30751714613,3136097.4906596,10.144374437444,0,0
44.210446772691,-5.4908799208331,4.948804880488,1889432.1684576,116.30751714613,3136097.4906596,10.148804880488,0,0
44.210446973238,-5.4922604760163,4.9532353235324,1889432.1684576,116.30751714613,3136097.4906596,10.153235323532,0,0
44.210447173785,-5.4936410311995,4.9576657665767,1889432.1684576,116.30751714613,3136097.4906596,10.157665766577,0,0
44.210447374331,-5.4950215863827,4.962096209621,1889432.1684576,116.30751714613,3136097.4906596,10.162096209621,0,0
44.210447574878,-5.4964021415659,4.9665266526653,1889432.1684576,116.30751714613,3136097.4906596,10.166526652665,0,0
44.210447775425,-5.4977826967491,4.9709570957096,1889432.1684576,116.30751714613,3136097.4906596,10.17095709571,0,0
44.210447975972,-5.4991632519323,4.9753875387539,1889432.1684576,116.30751714613,3136097.4906596,10.175387538754,0,0
44.210448176518,-5.5005438071155,4.9798179817982,1889432.1684576,116.30751714613,3136097.4906596,10.179817981798,0,0
44.210448377065,-5.5019243622987,4.9842484248425,1889432.1684576,116.30751714613,3136097.4906596,10.184248424842,0,0
44.210448577612,-5.5033049174818,4.9886788678868,1889432.1684576,116.30751714613,3136097.4906596,10.188678867887,0,0
44.210448778159,-5.504685472665,4.9931093109311,1889432.1684576,116.30751714613,3136097.4906596,10.193109310931,0,0
44.210448984362,-5.5060660325339,4.9975397539754,1963084.0955165,-10352.35029903,3132387.5006342,10.197539753975,0,0
44.21044919089,-5.507446592672,5.0019701970197,1963084.0955165,-10352.35029903,3132387.5006342,10.20197019702,0,0
44.210449397419,-5.5088271528102,5.006400640064,1963084.0955165,-10352.35029903,3132387.5006342,10.206400640064,0,0
44.210449603948,-5.5102077129483,5.0108310831083,1963084.0955165,-10352.35029903,3132387.5006342,10.210831083108,0,0
44.210449810476,-5.5115882730865,5.0152615261526,1963084.0955165,-10352.35029903,3132387.5006342,10.215261526153,0,0
44.210450017005,-5.5129688332247,5.0196919691969,1963084.0955165,-10352.35029903,3132387.5006342,10.219691969197,0,0
44.210450223533,-5.5143493933628,5.0241224122412,1963084.0955165,-10352.35029903,3132387.5006342,10.224122412241,0,0
44.210450430062,-5.515729953501,5.0285528552855,1963084.0955165,-10352.35029903,3132387.5006342,10.228552855286,0,0
44.21045063659,-5.5171105136392,5.0329832983298,1963084.0955165,-10352.35029903,3132387.5006342,10.23298329833,0,0
44.210450843119,-5.5184910737773,5.0374137413741,1963084.0955165,-10352.35029903,3132387.5006342,10.237413741374,0,0
44.210451049647,-5.5198716339155,5.0418441844184,1963084.0955165,-10352.35029903,3132387.5006342,10.241844184418,0,0
44.210451256176,-5.5212521940536,5.0462746274627,1963084.0955165,-10352.35029903,3132387.5006342,10.246274627463,0,0
44.210451462704,-5.5226327541918,5.050705070507,1963084.0955165,-10352.35029903,3132387.5006342,10.250705070507,0,0
44.210451669233,-5.52401331433,5.0551355135514,1963084.0955165,-10352.35029903,3132387.5006342,10.255135513551,0,0
44.210451875761,-5.5253938744681,5.0595659565957,1963084.0955165,-10352.35029903,3132387.5006342,10.259565956596,0,0
44.21045208229,-5.5267744346063,5.06399639964,1963084.0955165,-10352.35029903,3132387.5006342,10.26399639964,0,0
44.210452288818,-5.5281549947445,5.0684268426843,1963084.0955165,-10352.35029903,3132387.5006342,10.268426842684,0,0
44.210452495347,-5.5295355548826,5.0728572857286,1963084.0955165,-10352.35029903,3132387.5006342,10.272857285729,0,0
44.210452701875,-5.5309161150208,5.0772877287729,1963084.0955165,-10352.35029903,3132387.5006342,10.277287728773,0,0
44.210452908404,-5.532296675159,5.0817181718172,1963084.0955165,-10352.35029903,3132387.5006342,10.281718171817,0,0
44.210453114933,-5.5336772352971,5.0861486148615,1963084.0955165,-10352.35029903,3132387.5006342,10.286148614861,0,0
44.210453321461,-5.5350577954353,5.0905790579058,1963084.0955165,-10352.35029903,3132387.5006342,10.290579057906,0,0
44.21045352799,-5.5364383555734,5.0950095009501,1963084.0955165,-10352.35029903,3132387.5006342,10.29500950095,0,0
44.210453734518,-5.5378189157116,5.0994399439944,1963084.0955165,-10352.35029903,3132387.5006342,10.299439943994,0,0
44.210453941047,-5.5391994758498,5.1038703870387,1963084.0955165,-10352.35029903,3132387.5006342,10.303870387039,0,0
44.210454147575,-5.5405800359879,5.108300830083,1963084.0955165,-10352.35029903,3132387.5006342,10.308300830083,0,0
44.210454354104,-5.5419605961261,5.1127312731273,1963084.0955165,-10352.35029903,3132387.5006342,10.312731273127,0,0
44.210454560632,-5.5433411562643,5.1171617161716,1963084.0955165,-10352.35029903,3132387.5006342,10.317161716172,0,0
44.210454767161,-5.5447217164024,5.1215921592159,1963084.0955165,-10352.35029903,3132387.5006342,10.321592159216,0,0
44.210454973689,-5.5461022765406,5.1260226022602,1963084.0955165,-10352.35029903,3132387.5006342,10.32602260226,0,0
44.210455180218,-5.5474828366788,5.1304530453045,1963084.0955165,-10352.35029903,3132387.5006342,10.330453045305,0,0
44.210455386746,-5.5488633968169,5.1348834883488,1963084.0955165,-10352.35029903,3132387.5006342,10.334883488349,0,0
44.210455593275,-5.5502439569551,5.1393139313931,1963084.0955165,-10352.35029903,3132387.5006342,10.339313931393,0,0
44.210455799803,-5.5516245170932,5.1437443744374,1963084.0955165,-10352.35029903,3132387.5006342,10.343744374437,0,0
44.210456006332,-5.5530050772314,5.1481748174817,1963084.0955165,-10352.35029903,3132387.5006342,10.348174817482,0,0
44.210456212861,-5.5543856373696,5.1526052605261,1963084.0955165,-10352.35029903,3132387.5006342,10.352605260526,0,0
44.210456419389,-5.5557661975077,5.1570357035704,1963084.0955165,-10352.35029903,3132387.5006342,10.35703570357,0,0
44.210456625918,-5.5571467576459,5.1614661466147,1963084.0955165,-10352.35029903,3132387.5006342,10.361466146615,0,0
44.210456832446,-5.5585273177841,5.165896589659,1963084.0955165,-10352.35029903,3132387.5006342,10.365896589659,0,0
44.210457038975,-5.5599078779222,5.1703270327033,1963084.0955165,-10352.35029903,3132387.5006342,10.370327032703,0,0
44.210457245503,-5.5612884380604,5.1747574757476,1963084.0955165,-10352.35029903,3132387.5006342,10.374757475748,0,0
44.210457452032,-5.5626689981985,5.1791879187919,1963084.0955165,-10352.35029903,3132387.5006342,10.379187918792,0,0
44.21045765856,-5.5640495583367,5.1836183618362,1963084.0955165,-10352.35029903,3132387.5006342,10.383618361836,0,0
44.210457865089,-5.5654301184749,5.1880488048805,1963084.0955165,-10352.35029903,3132387.5006342,10.38804880488,0,0
44.210458071617,-5.566810678613,5.1924792479248,1963084.0955165,-10352.35029903,3132387.5006342,10.392479247925,0,0
44.210458278146,-5.5681912387512,5.1969096909691,1963084.0955165,-10352.35029903,3132387.5006342,10.396909690969,0,0
44.210458484674,-5.5695717988894,5.2013401340134,1963084.0955165,-10352.35029903,3132387.5006342,10.401340134013,0,0
44.210458691203,-5.5709523590275,5.2057705770577,1963084.0955165,-10352.35029903,3132387.5006342,10.405770577058,0,0
44.210458897731,-5.5723329191657,5.210201020102,1963084.0955165,-10352.35029903,3132387.5006342,10.410201020102,0,0
44.21045910426,-5.5737134793039,5.2146314631463,1963084.0955165,-10352.35029903,3132387.5006342,10.414631463146,0,0
44.210459310789,-5.575094039442,5.2190619061906,1963084.0955165,-10352.35029903,3132387.5006342,10.419061906191,0,0
44.210459517317,-5.5764745995802,5.2234923492349,1963084.0955165,-10352.35029903,3132387.5006342,10.423492349235,0,0
44.210459723846,-5.5778551597183,5.2279227922792,1963084.0955165,-10352.35029903,3132387.5006342,10.427922792279,0,0
44.210459930374,-5.5792357198565,5.2323532353235,1963084.0955165,-10352.35029903,3132387.5006342,10.432353235324,0,0
44.210460136903,-5.5806162799947,5.2367836783678,1963084.0955165,-10352.35029903,3132387.5006342,10.436783678368,0,0
44.210460342849,-5.5819968381785,5.2412141214121,1926409.9003755,12433.470861879,3060860.1648572,10.441214121412,0,0
44.210460548353,-5.5833773948731,5.2456445644564,1926409.9003755,12433.470861879,3060860.1648572,10.445644564456,0,0
44.210460753857,-5.5847579515678,5.2500750075008,1926409.9003755,12433.470861879,3060860.1648572,10.450075007501,0,0
44.21046095936,-5.5861385082624,5.2545054505451,1926409.9003755,12433.470861879,3060860.1648572,10.454505450545,0,0
44.210461164864,-5.587519064957,5.2589358935894,1926409.9003755,12433.470861879,3060860.1648572,10.458935893589,0,0
44.210461370367,-5.5888996216516,5.2633663366337,1926409.9003755,12433.470861879,3060860.1648572,10.463366336634,0,0
44.210461575871,-5.5902801783463,5.267796779678,1926409.9003755,12433.470861879,3060860.1648572,10.467796779678,0,0
44.210461781375,-5.5916607350409,5.2722272227223,1926409.9003755,12433.470861879,3060860.1648572,10.472227222722,0,0
44.210461986878,-5.5930412917355,5.2766576657666,1926409.9003755,12433.470861879,3060860.1648572,10.476657665767,0,0
44.210462192382,-5.5944218484301,5.2810881088109,1926409.9003755,12433.470861879,3060860.1648572,10.481088108811,0,0
44.210462397885,-5.5958024051248,5.2855185518552,1926409.9003755,12433.470861879,3060860.1648572,10.485518551855,0,0
44.210462603389,-5.5971829618194,5.2899489948995,1926409.9003755,12433.470861879,3060860.1648572,10.489948994899,0,0
44.210462808892,-5.598563518514,5.2943794379438,1926409.9003755,12433.470861879,3060860.1648572,10.494379437944,0,0
44.210463014396,-5.5999440752086,5.2988098809881,1926409.9003755,12433.470861879,3060860.1648572,10.498809880988,0,0
44.2104632199,-5.6013246319033,5.3032403240324,1926409.9003755,12433.470861879,3060860.1648572,10.503240324032,0,0
44.210463425403,-5.6027051885979,5.3076707670767,1926409.9003755,12433.470861879,3060860.1648572,10.507670767077,0,0
44.210463630907,-5.6040857452925,5.312101210121,1926409.9003755,12433.470861879,3060860.1648572,10.512101210121,0,0
44.21046383641,-5.6054663019871,5.3165316531653,1926409.9003755,12433.470861879,3060860.1648572,10.516531653165,0,0
44.210464041914,-5.6068468586818,5.3209620962096,1926409.9003755,12433.470861879,3060860.1648572,10.52096209621,0,0
44.210464247418,-5.6082274153764,5.3253925392539,1926409.9003755,12433.470861879,3060860.1648572,10.525392539254,0,0
44.210464452921,-5.609607972071,5.3298229822982,1926409.9003755,12433.470861879,3060860.1648572,10.529822982298,0,0
44.210464658425,-5.6109885287656,5.3342534253425,1926409.9003755,12433.470861879,3060860.1648572,10.534253425343,0,0
44.210464863928,-5.6123690854603,5.3386838683868,1926409.9003755,12433.470861879,3060860.1648572,10.538683868387,0,0
44.210465069432,-5.6137496421549,5.3431143114311,1926409.9003755,12433.470861879,3060860.1648572,10.543114311431,0,0
44.210465274936,-5.6151301988495,5.3475447544754,1926409.9003755,12433.470861879,3060860.1648572,10.547544754475,0,0
44.210465480439,-5.6165107555441,5.3519751975198,1926409.9003755,12433.470861879,3060860.1648572,10.55197519752,0,0
44.210465685943,-5.6178913122388,5.3564056405641,1926409.9003755,12433.470861879,3060860.1648572,10.556405640564,0,0
44.210465891446,-5.6192718689334,5.3608360836084,1926409.9003755,12433.470861879,3060860.1648572,10.560836083608,0,0
44.21046609695,-5.620652425628,5.3652665266527,1926409.9003755,12433.470861879,3060860.1648572,10.565266526653,0,0
44.210466302453,-5.6220329823226,5.369696969697,1926409.9003755,12433.470861879,3060860.1648572,10.569696969697,0,0
44.210466507957,-5.6234135390173,5.3741274127413,1926409.9003755,12433.470861879,3060860.1648572,10.574127412741,0,0
44.210466713461,-5.6247940957119,5.3785578557856,1926409.9003755,12433.470861879,3060860.1648572,10.578557855786,0,0
44.210466918964,-5.6261746524065,5.3829882988299,1926409.9003755,12433.470861879,3060860.1648572,10.58298829883,0,0
44.210467124468,-5.6275552091011,5.3874187418742,1926409.9003755,12433.470861879,3060860.1648572,10.587418741874,0,0
44.210467329971,-5.6289357657958,5.3918491849185,1926409.9003755,12433.470861879,3060860.1648572,10.591849184918,0,0
44.210467535475,-5.6303163224904,5.3962796279628,1926409.9003755,12433.470861879,3060860.1648572,10.596279627963,0,0
44.210467740979,-5.631696879185,5.4007100710071,1926409.9003755,12433.470861879,3060860.1648572,10.600710071007,0,0
44.210467946482,-5.6330774358796,5.4051405140514,1926409.9003755,12433.470861879,3060860.1648572,10.605140514051,0,0
44.210468151986,-5.6344579925743,5.4095709570957,1926409.9003755,12433.470861879,3060860.1648572,10.609570957096,0,0
44.210468357489,-5.6358385492689,5.41400140014,1926409.9003755,12433.470861879,3060860.1648572,10.61400140014,0,0
44.210468562993,-5.6372191059635,5.4184318431843,1926409.9003755,12433.470861879,3060860.1648572,10.618431843184,0,0
44.210468768496,-5.6385996626582,5.4228622862286,1926409.9003755,12433.470861879,3060860.1648572,10.622862286229,0,0
44.210468974,-5.6399802193528,5.4272927292729,1926409.9003755,12433.470861879,3060860.1648572,10.627292729273,0,0
44.210469179504,-5.6413607760474,5.4317231723172,1926409.9003755,12433.470861879,3060860.1648572,10.631723172317,0,0
44.210469385007,-5.642741332742,5.4361536153615,1926409.9003755,12433.470861879,3060860.1648572,10.636153615362,0,0
44.210469590511,-5.6441218894367,5.4405840584058,1926409.9003755,12433.470861879,3060860.1648572,10.640584058406,0,0
44.210469796014,-5.6455024461313,5.4450145014501,1926409.9003755,12433.470861879,3060860.1648572,10.64501450145,0,0
44.210470001518,-5.6468830028259,5.4494449444944,1926409.9003755,12433.470861879,3060860.1648572,10.649444944494,0,0
44.210470207022,-5.6482635595205,5.4538753875388,1926409.9003755,12433.470861879,3060860.1648572,10.653875387539,0,0
44.210470412525,-5.6496441162152,5.4583058305831,1926409.9003755,12433.470861879,3060860.1648572,10.658305830583,0,0
44.210470618029,-5.6510246729098,5.4627362736274,1926409.9003755,12433.470861879,3060860.1648572,10.662736273627,0,0
44.210470823532,-5.6524052296044,5.4671667166717,1926409.9003755,12433.470861879,3060860.1648572,10.667166716672,0,0
44.210471033184,-5.6537857842334,5.471597159716,2011897.0254578,23278.070308947,3084514.0785607,10.671597159716,0,0
44.210471244886,-5.6551663378414,5.4760276027603,2011897.0254578,23278.070308947,3084514.0785607,10.67602760276,0,0
44.210471456589,-5.6565468914494,5.4804580458046,2011897.0254578,23278.070308947,3084514.0785607,10.680458045805,0,0
44.210471668291,-5.6579274450575,5.4848884888489,2011897.0254578,23278.070308947,3084514.0785607,10.684888488849,0,0
44.210471879993,-5.6593079986655,5.4893189318932,2011897.0254578,23278.070308947,3084514.0785607,10.689318931893,0,0
44.210472091695,-5.6606885522736,5.4937493749375,2011897.0254578,23278.070308947,3084514.0785607,10.693749374937,0,0
44.210472303397,-5.6620691058816,5.4981798179818,2011897.0254578,23278.070308947,3084514.0785607,10.698179817982,0,0
44.210472515099,-5.6634496594896,5.5026102610261,2011897.0254578,23278.070308947,3084514.0785607,10.702610261026,0,0
44.210472726801,-5.6648302130977,5.5070407040704,2011897.0254578,23278.070308947,3084514.0785607,10.70704070407,0,0
44.210472938504,-5.6662107667057,5.5114711471147,2011897.0254578,23278.070308947,3084514.0785607,10.711471147115,0,0
44.210473150206,-5.6675913203138,5.515901590159,2011897.0254578,23278.070308947,3084514.0785607,10.715901590159,0,0
44.210473361908,-5.6689718739218,5.5203320332033,2011897.0254578,23278.070308947,3084514.0785607,10.720332033203,0,0
44.21047357361,-5.6703524275298,5.5247624762476,2011897.0254578,23278.070308947,3084514.0785607,10.724762476248,0,0
44.210473785312,-5.6717329811379,5.5291929192919,2011897.0254578,23278.070308947,3084514.0785607,10.729192919292,0,0
44.210473997014,-5.6731135347459,5.5336233623362,2011897.0254578,23278.070308947,3084514.0785607,10.733623362336,0,0
44.210474208716,-5.6744940883539,5.5380538053805,2011897.0254578,23278.070308947,3084514.0785607,10.738053805381,0,0
44.210474420419,-5.675874641962,5.5424842484248,2011897.0254578,23278.070308947,3084514.0785607,10.742484248425,0,0
44.210474632121,-5.67725519557,5.5469146914691,2011897.0254578,23278.070308947,3084514.0785607,10.746914691469,0,0
44.210474843823,-5.6786357491781,5.5513451345134,2011897.0254578,23278.070308947,3084514.0785607,10.751345134513,0,0
44.210475055525,-5.6800163027861,5.5557755775578,2011897.0254578,23278.070308947,3084514.0785607,10.755775577558,0,0
44.210475267227,-5.6813968563941,5.5602060206021,2011897.0254578,23278.070308947,3084514.0785607,10.760206020602,0,0
44.210475478929,-5.6827774100022,5.5646364636464,2011897.0254578,23278.070308947,3084514.0785607,10.764636463646,0,0
44.210475690631,-5.6841579636102,5.5690669066907,2011897.0254578,23278.070308947,3084514.0785607,10.769066906691,0,0
44.210475902334,-5.6855385172183,5.573497349735,2011897.0254578,23278.070308947,3084514.0785607,10.773497349735,0,0
44.210476114036,-5.6869190708263,5.5779277927793,2011897.0254578,23278.070308947,3084514.0785607,10.777927792779,0,0
44.210476325738,-5.6882996244343,5.5823582358236,2011897.0254578,23278.070308947,3084514.0785607,10.782358235824,0,0
44.21047653744,-5.6896801780424,5.5867886788679,2011897.0254578,23278.070308947,3084514.0785607,10.786788678868,0,0
44.210476749142,-5.6910607316504,5.5912191219122,2011897.0254578,23278.070308947,3084514.0785607,10.791219121912,0,0
44.210476960844,-5.6924412852584,5.5956495649565,2011897.0254578,23278.070308947,3084514.0785607,10.795649564956,0,0
44.210477172546,-5.6938218388665,5.6000800080008,2011897.0254578,23278.070308947,3084514.0785607,10.800080008001,0,0
44.210477384249,-5.6952023924745,5.6045104510451,2011897.0254578,23278.070308947,3084514.0785607,10.804510451045,0,0
44.210477595951,-5.6965829460826,5.6089408940894,2011897.0254578,23278.070308947,3084514.0785607,10.808940894089,0,0
44.210477807653,-5.6979634996906,5.6133713371337,2011897.0254578,23278.070308947,3084514.0785607,10.813371337134,0,0
44.210478019355,-5.6993440532986,5.617801780178,2011897.0254578,23278.070308947,3084514.0785607,10.817801780178,0,0
44.210478231057,-5.7007246069067,5.6222322232223,2011897.0254578,23278.070308947,3084514.0785607,10.822232223222,0,0
44.210478442759,-5.7021051605147,5.6266626662666,2011897.0254578,23278.070308947,3084514.0785607,10.826662666267,0,0
44.210478654461,-5.7034857141228,5.6310931093109,2011897.0254578,23278.070308947,3084514.0785607,10.831093109311,0,0
44.210478866164,-5.7048662677308,5.6355235523552,2011897.0254578,23278.070308947,3084514.0785607,10.835523552355,0,0
44.210479077866,-5.7062468213388,5.6399539953995,2011897.0254578,23278.070308947,3084514.0785607,10.8399539954,0,0
44.21047928952,-5.7076273772776,5.6443844384438,1987450.10574,-4884.0413836616,3015747.3934536,10.844384438444,0,0
44.2104795011,-5.7090079367842,5.6488148814881,1987450.10574,-4884.0413836616,3015747.3934536,10.848814881488,0,0
44.21047971268,-5.7103884962909,5.6532453245325,1987450.10574,-4884.0413836616,3015747.3934536,10.853245324532,0,0
44.210479924261,-5.7117690557976,5.6576757675768,1987450.10574,-4884.0413836616,3015747.3934536,10.857675767577,0,0
44.210480135841,-5.7131496153042,5.6621062106211,1987450.10574,-4884.0413836616,3015747.3934536,10.862106210621,0,0
44.210480347422,-5.7145301748109,5.6665366536654,1987450.10574,-4884.0413836616,3015747.3934536,10.866536653665,0,0
44.210480559002,-5.7159107343175,5.6709670967097,1987450.10574,-4884.0413836616,3015747.3934536,10.87096709671,0,0
44.210480770582,-5.7172912938242,5.675397539754,1987450.10574,-4884.0413836616,3015747.3934536,10.875397539754,0,0
44.210480982163,-5.7186718533309,5.6798279827983,1987450.10574,-4884.0413836616,3015747.3934536,10.879827982798,0,0
44.210481193743,-5.7200524128375,5.6842584258426,1987450.10574,-4884.0413836616,3015747.3934536,10.884258425843,0,0
44.210481405323,-5.7214329723442,5.6886888688869,1987450.10574,-4884.0413836616,3015747.3934536,10.888688868887,0,0
44.210481616904,-5.7228135318508,5.6931193119312,1987450.10574,-4884.0413836616,3015747.3934536,10.893119311931,0,0
44.210481828484,-5.7241940913575,5.6975497549755,1987450.10574,-4884.0413836616,3015747.3934536,10.897549754975,0,0
44.210482040064,-5.7255746508641,5.7019801980198,1987450.10574,-4884.0413836616,3015747.3934536,10.90198019802,0,0
44.210482251645,-5.7269552103708,5.7064106410641,1987450.10574,-4884.0413836616,3015747.3934536,10.906410641064,0,0
44.210482463225,-5.7283357698775,5.7108410841084,1987450.10574,-4884.0413836616,3015747.3934536,10.910841084108,0,0
44.210482674805,-5.7297163293841,5.7152715271527,1987450.10574,-4884.0413836616,3015747.3934536,10.915271527153,0,0
44.210482886386,-5.7310968888908,5.719701970197,1987450.10574,-4884.0413836616,3015747.3934536,10.919701970197,0,0
44.210483097966,-5.7324774483974,5.7241324132413,1987450.10574,-4884.0413836616,3015747.3934536,10.924132413241,0,0
44.210483309547,-5.7338580079041,5.7285628562856,1987450.10574,-4884.0413836616,3015747.3934536,10.928562856286,0,0
44.210483521127,-5.7352385674108,5.7329932993299,1987450.10574,-4884.0413836616,3015747.3934536,10.93299329933,0,0
44.210483732707,-5.7366191269174,5.7374237423742,1987450.10574,-4884.0413836616,3015747.3934536,10.937423742374,0,0
44.210483944288,-5.7379996864241,5.7418541854185,1987450.10574,-4884.0413836616,3015747.3934536,10.941854185419,0,0
44.210484155868,-5.7393802459307,5.7462846284628,1987450.10574,-4884.0413836616,3015747.3934536,10.946284628463,0,0
44.210484367448,-5.7407608054374,5.7507150715072,1987450.10574,-4884.0413836616,3015747.3934536,10.950715071507,0,0
44.210484579029,-5.742141364944,5.7551455145515,1987450.10574,-4884.0413836616,3015747.3934536,10.955145514551,0,0
44.210484790609,-5.7435219244507,5.7595759575958,1987450.10574,-4884.0413836616,3015747.3934536,10.959575957596,0,0
44.210485002189,-5.7449024839574,5.7640064006401,1987450.10574,-4884.0413836616,3015747.3934536,10.96400640064,0,0
44.21048521377,-5.746283043464,5.7684368436844,1987450.10574,-4884.0413836616,3015747.3934536,10.968436843684,0,0
44.21048542535,-5.7476636029707,5.7728672867287,1987450.10574,-4884.0413836616,3015747.3934536,10.972867286729,0,0
44.21048563693,-5.7490441624773,5.777297729773,1987450.10574,-4884.0413836616,3015747.3934536,10.977297729773,0,0
44.210485848511,-5.750424721984,5.7817281728173,1987450.10574,-4884.0413836616,3015747.3934536,10.981728172817,0,0
44.210486060091,-5.7518052814907,5.7861586158616,1987450.10574,-4884.0413836616,3015747.3934536,10.986158615862,0,0
44.210486271672,-5.7531858409973,5.7905890589059,1987450.10574,-4884.0413836616,3015747.3934536,10.990589058906,0,0
44.210486483252,-5.754566400504,5.7950195019502,1987450.10574,-4884.0413836616,3015747.3934536,10.99501950195,0,0
44.210486694832,-5.7559469600106,5.7994499449945,1987450.10574,-4884.0413836616,3015747.3934536,10.999449944994,0,0
44.210486906413,-5.7573275195173,5.8038803880388,1987450.10574,-4884.0413836616,3015747.3934536,11.003880388039,0,0
44.210487117993,-5.758708079024,5.8083108310831,1987450.10574,-4884.0413836616,3015747.3934536,11.008310831083,0,0
44.210487329573,-5.7600886385306,5.8127412741274,1987450.10574,-4884.0413836616,3015747.3934536,11.012741274127,0,0
44.210487541154,-5.7614691980373,5.8171717171717,1987450.10574,-4884.0413836616,3015747.3934536,11.017171717172,0,0
44.210487752734,-5.7628497575439,5.821602160216,1987450.10574,-4884.0413836616,3015747.3934536,11.021602160216,0,0
44.210487964314,-5.7642303170506,5.8260326032603,1987450.10574,-4884.0413836616,3015747.3934536,11.02603260326,0,0
44.210488175895,-5.7656108765572,5.8304630463046,1987450.10574,-4884.0413836616,3015747.3934536,11.030463046305,0,0
44.210488387475,-5.7669914360639,5.8348934893489,1987450.10574,-4884.0413836616,3015747.3934536,11.034893489349,0,0
44.210488599056,-5.7683719955706,5.8393239323932,1987450.10574,-4884.0413836616,3015747.3934536,11.039323932393,0,0
44.210488810636,-5.7697525550772,5.8437543754375,1987450.10574,-4884.0413836616,3015747.3934536,11.043754375438,0,0
44.210489022216,-5.7711331145839,5.8481848184818,1987450.10574,-4884.0413836616,3015747.3934536,11.048184818482,0,0
44.210489233797,-5.7725136740905,5.8526152615262,1987450.10574,-4884.0413836616,3015747.3934536,11.052615261526,0,0
44.210489445377,-5.7738942335972,5.8570457045705,1987450.10574,-4884.0413836616,3015747.3934536,11.05704570457,0,0
44.210489656957,-5.7752747931039,5.8614761476148,1987450.10574,-4884.0413836616,3015747.3934536,11.061476147615,0,0
44.210489868538,-5.7766553526105,5.8659065906591,1987450.10574,-4884.0413836616,3015747.3934536,11.065906590659,0,0
44.210490080118,-5.7780359121172,5.8703370337034,1987450.10574,-4884.0413836616,3015747.3934536,11.070337033703,0,0
44.210490291698,-5.7794164716238,5.8747674767477,1987450.10574,-4884.0413836616,3015747.3934536,11.074767476748,0,0
44.210490503279,-5.7807970311305,5.879197919792,1987450.10574,-4884.0413836616,3015747.3934536,11.079197919792,0,0
44.210490714859,-5.7821775906371,5.8836283628363,1987450.10574,-4884.0413836616,3015747.3934536,11.083628362836,0,0
44.210490926439,-5.7835581501438,5.8880588058806,1987450.10574,-4884.0413836616,3015747.3934536,11.088058805881,0,0
44.21049113802,-5.7849387096505,5.8924892489249,1987450.10574,-4884.0413836616,3015747.3934536,11.092489248925,0,0
44.2104913496,-5.7863192691571,5.8969196919692,1987450.10574,-4884.0413836616,3015747.3934536,11.096919691969,0,0
44.210491561181,-5.7876998286638,5.9013501350135,1987450.10574,-4884.0413836616,3015747.3934536,11.101350135014,0,0
44.210491772761,-5.7890803881704,5.9057805780578,1987450.10574,-4884.0413836616,3015747.3934536,11.105780578058,0,0
44.210491984341,-5.7904609476771,5.9102110211021,1987450.10574,-4884.0413836616,3015747.3934536,11.110211021102,0,0
44.210492195922,-5.7918415071838,5.9146414641464,1987450.10574,-4884.0413836616,3015747.3934536,11.114641464146,0,0
44.210492407502,-5.7932220666904,5.9190719071907,1987450.10574,-4884.0413836616,3015747.3934536,11.119071907191,0,0
44.210492619082,-5.7946026261971,5.923502350235,1987450.10574,-4884.0413836616,3015747.3934536,11.123502350235,0,0
44.210492830663,-5.7959831857037,5.9279327932793,1987450.10574,-4884.0413836616,3015747.3934536,11.127932793279,0,0
44.210493042243,-5.7973637452104,5.9323632363236,1987450.10574,-4884.0413836616,3015747.3934536,11.132363236324,0,0
44.210493253823,-5.798744304717,5.9367936793679,1987450.10574,-4884.0413836616,3015747.3934536,11.136793679368,0,0
44.210493465404,-5.8001248642237,5.9412241224122,1987450.10574,-4884.0413836616,3015747.3934536,11.141224122412,0,0
44.210493676984,-5.8015054237304,5.9456545654565,1987450.10574,-4884.0413836616,3015747.3934536,11.145654565457,0,0
44.210493888564,-5.802885983237,5.9500850085008,1987450.10574,-4884.0413836616,3015747.3934536,11.150085008501,0,0
44.210494100145,-5.8042665427437,5.9545154515452,1987450.10574,-4884.0413836616,3015747.3934536,11.154515451545,0,0
44.210494311725,-5.8056471022503,5.9589458945895,1987450.10574,-4884.0413836616,3015747.3934536,11.158945894589,0,0
44.210494523306,-5.807027661757,5.9633763376338,1987450.10574,-4884.0413836616,3015747.3934536,11.163376337634,0,0
44.210494734886,-5.8084082212637,5.9678067806781,1987450.10574,-4884.0413836616,3015747.3934536,11.167806780678,0,0
44.210494946466,-5.8097887807703,5.9722372237224,1987450.10574,-4884.0413836616,3015747.3934536,11.172237223722,0,0
44.210495158047,-5.811169340277,5.9766676667667,1987450.10574,-4884.0413836616,3015747.3934536,11.176667666767,0,0
44.210495369627,-5.8125498997836,5.981098109811,1987450.10574,-4884.0413836616,3015747.3934536,11.181098109811,0,0
44.210495581207,-5.8139304592903,5.9855285528553,1987450.10574,-4884.0413836616,3015747.3934536,11.185528552855,0,0
44.210495792788,-5.8153110187969,5.9899589958996,1987450.10574,-4884.0413836616,3015747.3934536,11.1899589959,0,0
44.210496004368,-5.8166915783036,5.9943894389439,1987450.10574,-4884.0413836616,3015747.3934536,11.194389438944,0,0
44.210496215948,-5.8180721378103,5.9988198819882,1987450.10574,-4884.0413836616,3015747.3934536,11.198819881988,0,0
44.210496427529,-5.8194526973169,6.0032503250325,1987450.10574,-4884.0413836616,3015747.3934536,11.203250325033,0,0
44.210496639109,-5.8208332568236,6.0076807680768,1987450.10574,-4884.0413836616,3015747.3934536,11.207680768077,0,0
44.210496850689,-5.8222138163302,6.0121112111211,1987450.10574,-4884.0413836616,3015747.3934536,11.212111211121,0,0
44.21049706227,-5.8235943758369,6.0165416541654,1987450.10574,-4884.0413836616,3015747.3934536,11.216541654165,0,0
44.21049727385,-5.8249749353436,6.0209720972097,1987450.10574,-4884.0413836616,3015747.3934536,11.22097209721,0,0
44.210497485431,-5.8263554948502,6.025402540254,1987450.10574,-4884.0413836616,3015747.3934536,11.225402540254,0,0
44.210497697011,-5.8277360543569,6.0298329832983,1987450.10574,-4884.0413836616,3015747.3934536,11.229832983298,0,0
44.210497908591,-5.8291166138635,6.0342634263426,1987450.10574,-4884.0413836616,3015747.3934536,11.234263426343,0,0
44.210498120172,-5.8304971733702,6.0386938693869,1987450.10574,-4884.0413836616,3015747.3934536,11.238693869387,0,0
44.210498331752,-5.8318777328768,6.0431243124312,1987450.10574,-4884.0413836616,3015747.3934536,11.243124312431,0,0
44.210498543332,-5.8332582923835,6.0475547554755,1987450.10574,-4884.0413836616,3015747.3934536,11.247554755476,0,0
44.210498754913,-5.8346388518902,6.0519851985199,1987450.10574,-4884.0413836616,3015747.3934536,11.25198519852,0,0
44.210498966493,-5.8360194113968,6.0564156415642,1987450.10574,-4884.0413836616,3015747.3934536,11.256415641564,0,0
44.210499178073,-5.8373999709035,6.0608460846085,1987450.10574,-4884.0413836616,3015747.3934536,11.260846084608,0,0
44.210499391436,-5.8387805290768,6.0652765276528,2064391.820179,7377.2379411707,3024387.4257599,11.265276527653,0,0
44.210499608932,-5.8401610841564,6.0697069706971,2064391.820179,7377.2379411707,3024387.4257599,11.269706970697,0,0
44.210499826428,-5.8415416392361,6.0741374137414,2064391.820179,7377.2379411707,3024387.4257599,11.274137413741,0,0
44.210500043924,-5.8429221943158,6.0785678567857,2064391.820179,7377.2379411707,3024387.4257599,11.278567856786,0,0
44.21050026142,-5.8443027493955,6.08299829983,2064391.820179,7377.2379411707,3024387.4257599,11.28299829983,0,0
44.210500478916,-5.8456833044752,6.0874287428743,2064391.820179,7377.2379411707,3024387.4257599,11.287428742874,0,0
44.210500696412,-5.8470638595548,6.0918591859186,2064391.820179,7377.2379411707,3024387.4257599,11.291859185919,0,0
44.210500913908,-5.8484444146345,6.0962896289629,2064391.820179,7377.2379411707,3024387.4257599,11.296289628963,0,0
44.210501131404,-5.8498249697142,6.1007200720072,2064391.820179,7377.2379411707,3024387.4257599,11.300720072007,0,0
44.2105013489,-5.8512055247939,6.1051505150515,2064391.820179,7377.2379411707,3024387.4257599,11.305150515052,0,0
44.210501566397,-5.8525860798735,6.1095809580958,2064391.820179,7377.2379411707,3024387.4257599,11.309580958096,0,0
44.210501783893,-5.8539666349532,6.1140114011401,2064391.820179,7377.2379411707,3024387.4257599,11.31401140114,0,0
44.210502001389,-5.8553471900329,6.1184418441844,2064391.820179,7377.2379411707,3024387.4257599,11.318441844184,0,0
44.210502218885,-5.8567277451126,6.1228722872287,2064391.820179,7377.2379411707,3024387.4257599,11.322872287229,0,0
44.210502436381,-5.8581083001922,6.127302730273,2064391.820179,7377.2379411707,3024387.4257599,11.327302730273,0,0
44.210502653877,-5.8594888552719,6.1317331733173,2064391.820179,7377.2379411707,3024387.4257599,11.331733173317,0,0
44.210502871373,-5.8608694103516,6.1361636163616,2064391.820179,7377.2379411707,3024387.4257599,11.336163616362,0,0
44.210503088869,-5.8622499654313,6.1405940594059,2064391.820179,7377.2379411707,3024387.4257599,11.340594059406,0,0
44.210503306365,-5.863630520511,6.1450245024502,2064391.820179,7377.2379411707,3024387.4257599,11.34502450245,0,0
44.210503523861,-5.8650110755906,6.1494549454945,2064391.820179,7377.2379411707,3024387.4257599,11.349454945495,0,0
44.210503741357,-5.8663916306703,6.1538853885389,2064391.820179,7377.2379411707,3024387.4257599,11.353885388539,0,0
44.210503958854,-5.86777218575,6.1583158315832,2064391.820179,7377.2379411707,3024387.4257599,11.358315831583,0,0
44.21050417635,-5.8691527408297,6.1627462746275,2064391.820179,7377.2379411707,3024387.4257599,11.362746274627,0,0
44.210504393846,-5.8705332959093,6.1671767176718,2064391.820179,7377.2379411707,3024387.4257599,11.367176717672,0,0
44.210504611342,-5.871913850989,6.1716071607161,2064391.820179,7377.2379411707,3024387.4257599,11.371607160716,0,0
44.210504828838,-5.8732944060687,6.1760376037604,2064391.820179,7377.2379411707,3024387.4257599,11.37603760376,0,0
44.210505046334,-5.8746749611484,6.1804680468047,2064391.820179,7377.2379411707,3024387.4257599,11.380468046805,0,0
44.21050526383,-5.8760555162281,6.184898489849,2064391.820179,7377.2379411707,3024387.4257599,11.384898489849,0,0
44.210505481326,-5.8774360713077,6.1893289328933,2064391.820179,7377.2379411707,3024387.4257599,11.389328932893,0,0
44.210505698822,-5.8788166263874,6.1937593759376,2064391.820179,7377.2379411707,3024387.4257599,11.393759375938,0,0
44.210505916318,-5.8801971814671,6.1981898189819,2064391.820179,7377.2379411707,3024387.4257599,11.398189818982,0,0
44.210506133814,-5.8815777365468,6.2026202620262,2064391.820179,7377.2379411707,3024387.4257599,11.402620262026,0,0
44.210506351311,-5.8829582916264,6.2070507050705,2064391.820179,7377.2379411707,3024387.4257599,11.407050705071,0,0
44.210506568807,-5.8843388467061,6.2114811481148,2064391.820179,7377.2379411707,3024387.4257599,11.411481148115,0,0
44.210506786303,-5.8857194017858,6.2159115911591,2064391.820179,7377.2379411707,3024387.4257599,11.415911591159,0,0
44.210507003799,-5.8870999568655,6.2203420342034,2064391.820179,7377.2379411707,3024387.4257599,11.420342034203,0,0
44.210507221295,-5.8884805119451,6.2247724772477,2064391.820179,7377.2379411707,3024387.4257599,11.424772477248,0,0
44.210507438791,-5.8898610670248,6.229202920292,2064391.820179,7377.2379411707,3024387.4257599,11.429202920292,0,0
44.210507656287,-5.8912416221045,6.2336333633363,2064391.820179,7377.2379411707,3024387.4257599,11.433633363336,0,0
44.210507873783,-5.8926221771842,6.2380638063806,2064391.820179,7377.2379411707,3024387.4257599,11.438063806381,0,0
44.210508091279,-5.8940027322639,6.2424942494249,2064391.820179,7377.2379411707,3024387.4257599,11.442494249425,0,0
44.210508308775,-5.8953832873435,6.2469246924692,2064391.820179,7377.2379411707,3024387.4257599,11.446924692469,0,0
44.210508526272,-5.8967638424232,6.2513551355136,2064391.820179,7377.2379411707,3024387.4257599,11.451355135514,0,0
44.210508743768,-5.8981443975029,6.2557855785579,2064391.820179,7377.2379411707,3024387.4257599,11.455785578558,0,0
44.210508961264,-5.8995249525826,6.2602160216022,2064391.820179,7377.2379411707,3024387.4257599,11.460216021602,0,0
44.21050917876,-5.9009055076622,6.2646464646465,2064391.820179,7377.2379411707,3024387.4257599,11.464646464646,0,0
44.210509396256,-5.9022860627419,6.2690769076908,2064391.820179,7377.2379411707,3024387.4257599,11.469076907691,0,0
44.210509613752,-5.9036666178216,6.2735073507351,2064391.820179,7377.2379411707,3024387.4257599,11.473507350735,0,0
44.210509831248,-5.9050471729013,6.2779377937794,2064391.820179,7377.2379411707,3024387.4257599,11.477937793779,0,0
44.210510048744,-5.906427727981,6.2823682368237,2064391.820179,7377.2379411707,3024387.4257599,11.482368236824,0,0
44.21051026624,-5.9078082830606,6.286798679868,2064391.820179,7377.2379411707,3024387.4257599,11.486798679868,0,0
44.210510483736,-5.9091888381403,6.2912291229123,2064391.820179,7377.2379411707,3024387.4257599,11.491229122912,0,0
44.210510701232,-5.91056939322,6.2956595659566,2064391.820179,7377.2379411707,3024387.4257599,11.495659565957,0,0
44.210510918729,-5.9119499482997,6.3000900090009,2064391.820179,7377.2379411707,3024387.4257599,11.500090009001,0,0
44.210511136225,-5.9133305033793,6.3045204520452,2064391.820179,7377.2379411707,3024387.4257599,11.504520452045,0,0
44.210511353721,-5.914711058459,6.3089508950895,2064391.820179,7377.2379411707,3024387.4257599,11.50895089509,0,0
44.210511571217,-5.9160916135387,6.3133813381338,2064391.820179,7377.2379411707,3024387.4257599,11.513381338134,0,0
44.210511788713,-5.9174721686184,6.3178117811781,2064391.820179,7377.2379411707,3024387.4257599,11.517811781178,0,0
44.210512006209,-5.918852723698,6.3222422242224,2064391.820179,7377.2379411707,3024387.4257599,11.522242224222,0,0
44.210512223705,-5.9202332787777,6.3266726672667,2064391.820179,7377.2379411707,3024387.4257599,11.526672667267,0,0
44.210512441201,-5.9216138338574,6.331103110311,2064391.820179,7377.2379411707,3024387.4257599,11.531103110311,0,0
44.210512658697,-5.9229943889371,6.3355335533553,2064391.820179,7377.2379411707,3024387.4257599,11.535533553355,0,0
44.210512876193,-5.9243749440168,6.3399639963996,2064391.820179,7377.2379411707,3024387.4257599,11.5399639964,0,0
44.21051309369,-5.9257554990964,6.3443944394439,2064391.820179,7377.2379411707,3024387.4257599,11.544394439444,0,0
44.210513311186,-5.9271360541761,6.3488248824882,2064391.820179,7377.2379411707,3024387.4257599,11.548824882488,0,0
44.210513528682,-5.9285166092558,6.3532553255326,2064391.820179,7377.2379411707,3024387.4257599,11.553255325533,0,0
44.210513746178,-5.9298971643355,6.3576857685769,2064391.820179,7377.2379411707,3024387.4257599,11.557685768577,0,0
44.210513963674,-5.9312777194151,6.3621162116212,2064391.820179,7377.2379411707,3024387.4257599,11.562116211621,0,0
44.21051418117,-5.9326582744948,6.3665466546655,2064391.820179,7377.2379411707,3024387.4257599,11.566546654665,0,0
44.210514398666,-5.9340388295745,6.3709770977098,2064391.820179,7377.2379411707,3024387.4257599,11.57097709771,0,0
44.210514616162,-5.9354193846542,6.3754075407541,2064391.820179,7377.2379411707,3024387.4257599,11.575407540754,0,0
44.210514833658,-5.9367999397339,6.3798379837984,2064391.820179,7377.2379411707,3024387.4257599,11.579837983798,0,0
44.210515051154,-5.9381804948135,6.3842684268427,2064391.820179,7377.2379411707,3024387.4257599,11.584268426843,0,0
44.21051526865,-5.9395610498932,6.388698869887,2064391.820179,7377.2379411707,3024387.4257599,11.588698869887,0,0
44.210515486147,-5.9409416049729,6.3931293129313,2064391.820179,7377.2379411707,3024387.4257599,11.593129312931,0,0
44.210515703643,-5.9423221600526,6.3975597559756,2064391.820179,7377.2379411707,3024387.4257599,11.597559755976,0,0
44.210515921139,-5.9437027151322,6.4019901990199,2064391.820179,7377.2379411707,3024387.4257599,11.60199019902,0,0
44.210516138635,-5.9450832702119,6.4064206420642,2064391.820179,7377.2379411707,3024387.4257599,11.606420642064,0,0
44.210516356131,-5.9464638252916,6.4108510851085,2064391.820179,7377.2379411707,3024387.4257599,11.610851085109,0,0
44.210516573627,-5.9478443803713,6.4152815281528,2064391.820179,7377.2379411707,3024387.4257599,11.615281528153,0,0
44.210516791123,-5.949224935451,6.4197119711971,2064391.820179,7377.2379411707,3024387.4257599,11.619711971197,0,0
44.210517008619,-5.9506054905306,6.4241424142414,2064391.820179,7377.2379411707,3024387.4257599,11.624142414241,0,0
44.210517226115,-5.9519860456103,6.4285728572857,2064391.820179,7377.2379411707,3024387.4257599,11.628572857286,0,0
44.210517443611,-5.95336660069,6.43300330033,2064391.820179,7377.2379411707,3024387.4257599,11.63300330033,0,0
44.210517661108,-5.9547471557697,6.4374337433743,2064391.820179,7377.2379411707,3024387.4257599,11.637433743374,0,0
44.210517878604,-5.9561277108493,6.4418641864186,2064391.820179,7377.2379411707,3024387.4257599,11.641864186419,0,0
44.2105180961,-5.957508265929,6.4462946294629,2064391.820179,7377.2379411707,3024387.4257599,11.646294629463,0,0
44.210518313596,-5.9588888210087,6.4507250725072,2064391.820179,7377.2379411707,3024387.4257599,11.650725072507,0,0
44.210518531092,-5.9602693760884,6.4551555155516,2064391.820179,7377.2379411707,3024387.4257599,11.655155515552,0,0
44.210518748588,-5.961649931168,6.4595859585959,2064391.820179,7377.2379411707,3024387.4257599,11.659585958596,0,0
44.210518966526,-5.9630304891377,6.4640164016402,2053578.7250678,-16349.475860693,2958546.2945546,11.66401640164,0,0
44.210519184912,-5.9644110500316,6.4684468446845,2053578.7250678,-16349.475860693,2958546.2945546,11.668446844684,0,0
44.210519403297,-5.9657916109255,6.4728772877288,2053578.7250678,-16349.475860693,2958546.2945546,11.672877287729,0,0
44.210519621682,-5.9671721718194,6.4773077307731,2053578.7250678,-16349.475860693,2958546.2945546,11.677307730773,0,0
44.210519840068,-5.9685527327133,6.4817381738174,2053578.7250678,-16349.475860693,2958546.2945546,11.681738173817,0,0
44.210520058453,-5.9699332936072,6.4861686168617,2053578.7250678,-16349.475860693,2958546.2945546,11.686168616862,0,0
44.210520276839,-5.9713138545011,6.490599059906,2053578.7250678,-16349.475860693,2958546.2945546,11.690599059906,0,0
44.210520495224,-5.972694415395,6.4950295029503,2053578.7250678,-16349.475860693,2958546.2945546,11.69502950295,0,0
44.21052071361,-5.9740749762889,6.4994599459946,2053578.7250678,-16349.475860693,2958546.2945546,11.699459945995,0,0
44.210520931995,-5.9754555371829,6.5038903890389,2053578.7250678,-16349.475860693,2958546.2945546,11.703890389039,0,0
44.21052115038,-5.9768360980768,6.5083208320832,2053578.7250678,-16349.475860693,2958546.2945546,11.708320832083,0,0
44.210521368766,-5.9782166589707,6.5127512751275,2053578.7250678,-16349.475860693,2958546.2945546,11.712751275128,0,0
44.210521587151,-5.9795972198646,6.5171817181718,2053578.7250678,-16349.475860693,2958546.2945546,11.717181718172,0,0
44.210521805537,-5.9809777807585,6.5216121612161,2053578.7250678,-16349.475860693,2958546.2945546,11.721612161216,0,0
44.210522023922,-5.9823583416524,6.5260426042604,2053578.7250678,-16349.475860693,2958546.2945546,11.72604260426,0,0
44.210522242308,-5.9837389025463,6.5304730473047,2053578.7250678,-16349.475860693,2958546.2945546,11.730473047305,0,0
44.210522460693,-5.9851194634402,6.534903490349,2053578.7250678,-16349.475860693,2958546.2945546,11.734903490349,0,0
44.210522679078,-5.9865000243341,6.5393339333933,2053578.7250678,-16349.475860693,2958546.2945546,11.739333933393,0,0
44.210522897464,-5.987880585228,6.5437643764376,2053578.7250678,-16349.475860693,2958546.2945546,11.743764376438,0,0
44.210523115849,-5.9892611461219,6.5481948194819,2053578.7250678,-16349.475860693,2958546.2945546,11.748194819482,0,0
44.210523334235,-5.9906417070158,6.5526252625263,2053578.7250678,-16349.475860693,2958546.2945546,11.752625262526,0,0
44.21052355262,-5.9920222679097,6.5570557055706,2053578.7250678,-16349.475860693,2958546.2945546,11.757055705571,0,0
44.210523771006,-5.9934028288036,6.5614861486149,2053578.7250678,-16349.475860693,2958546.2945546,11.761486148615,0,0
44.210523989391,-5.9947833896975,6.5659165916592,2053578.7250678,-16349.475860693,2958546.2945546,11.765916591659,0,0
44.210524207776,-5.9961639505914,6.5703470347035,2053578.7250678,-16349.475860693,2958546.2945546,11.770347034703,0,0
44.210524426162,-5.9975445114853,6.5747774777478,2053578.7250678,-16349.475860693,2958546.2945546,11.774777477748,0,0
44.210524644547,-5.9989250723792,6.5792079207921,2053578.7250678,-16349.475860693,2958546.2945546,11.779207920792,0,0
44.210524862933,-6.0003056332731,6.5836383638364,2053578.7250678,-16349.475860693,2958546.2945546,11.783638363836,0,0
44.210525081318,-6.001686194167,6.5880688068807,2053578.7250678,-16349.475860693,2958546.2945546,11.788068806881,0,0
44.210525299704,-6.0030667550609,6.592499249925,2053578.7250678,-16349.475860693,2958546.2945546,11.792499249925,0,0
44.210525518089,-6.0044473159548,6.5969296929693,2053578.7250678,-16349.475860693,2958546.2945546,11.796929692969,0,0
44.210525736474,-6.0058278768487,6.6013601360136,2053578.7250678,-16349.475860693,2958546.2945546,11.801360136014,0,0
44.21052595486,-6.0072084377426,6.6057905790579,2053578.7250678,-16349.475860693,2958546.2945546,11.805790579058,0,0
44.210526173245,-6.0085889986365,6.6102210221022,2053578.7250678,-16349.475860693,2958546.2945546,11.810221022102,0,0
44.210526391631,-6.0099695595304,6.6146514651465,2053578.7250678,-16349.475860693,2958546.2945546,11.814651465147,0,0
44.210526610016,-6.0113501204243,6.6190819081908,2053578.7250678,-16349.475860693,2958546.2945546,11.819081908191,0,0
44.210526828401,-6.0127306813182,6.6235123512351,2053578.7250678,-16349.475860693,2958546.2945546,11.823512351235,0,0
44.210527046787,-6.0141112422121,6.6279427942794,2053578.7250678,-16349.475860693,2958546.2945546,11.827942794279,0,0
44.210527265172,-6.015491803106,6.6323732373237,2053578.7250678,-16349.475860693,2958546.2945546,11.832373237324,0,0
44.210527483558,-6.0168723639999,6.636803680368,2053578.7250678,-16349.475860693,2958546.2945546,11.836803680368,0,0
44.210527701943,-6.0182529248938,6.6412341234123,2053578.7250678,-16349.475860693,2958546.2945546,11.841234123412,0,0
44.210527920329,-6.0196334857878,6.6456645664566,2053578.7250678,-16349.475860693,2958546.2945546,11.845664566457,0,0
44.210528138714,-6.0210140466817,6.650095009501,2053578.7250678,-16349.475860693,2958546.2945546,11.850095009501,0,0
44.210528357099,-6.0223946075756,6.6545254525453,2053578.7250678,-16349.475860693,2958546.2945546,11.854525452545,0,0
44.210528575485,-6.0237751684695,6.6589558955896,2053578.7250678,-16349.475860693,2958546.2945546,11.85895589559,0,0
44.21052879387,-6.0251557293634,6.6633863386339,2053578.7250678,-16349.475860693,2958546.2945546,11.863386338634,0,0
44.210529012256,-6.0265362902573,6.6678167816782,2053578.7250678,-16349.475860693,2958546.2945546,11.867816781678,0,0
44.210529230641,-6.0279168511512,6.6722472247225,2053578.7250678,-16349.475860693,2958546.2945546,11.872247224722,0,0
44.210529449027,-6.0292974120451,6.6766776677668,2053578.7250678,-16349.475860693,2958546.2945546,11.876677667767,0,0
44.210529667412,-6.030677972939,6.6811081108111,2053578.7250678,-16349.475860693,2958546.2945546,11.881108110811,0,0
44.210529885797,-6.0320585338329,6.6855385538554,2053578.7250678,-16349.475860693,2958546.2945546,11.885538553855,0,0
44.210530104183,-6.0334390947268,6.6899689968997,2053578.7250678,-16349.475860693,2958546.2945546,11.8899689969,0,0
44.210530322568,-6.0348196556207,6.694399439944,2053578.7250678,-16349.475860693,2958546.2945546,11.894399439944,0,0
44.210530540954,-6.0362002165146,6.6988298829883,2053578.7250678,-16349.475860693,2958546.2945546,11.898829882988,0,0
44.210530759339,-6.0375807774085,6.7032603260326,2053578.7250678,-16349.475860693,2958546.2945546,11.903260326033,0,0
44.210530977725,-6.0389613383024,6.7076907690769,2053578.7250678,-16349.475860693,2958546.2945546,11.907690769077,0,0
44.21053119611,-6.0403418991963,6.7121212121212,2053578.7250678,-16349.475860693,2958546.2945546,11.912121212121,0,0
44.210531414495,-6.0417224600902,6.7165516551655,2053578.7250678,-16349.475860693,2958546.2945546,11.916551655166,0,0
44.210531632881,-6.0431030209841,6.7209820982098,2053578.7250678,-16349.475860693,2958546.2945546,11.92098209821,0,0
44.210531851266,-6.044483581878,6.7254125412541,2053578.7250678,-16349.475860693,2958546.2945546,11.925412541254,0,0
44.210532069652,-6.0458641427719,6.7298429842984,2053578.7250678,-16349.475860693,2958546.2945546,11.929842984298,0,0
44.210532290224,-6.0472447017996,6.7342734273427,2117137.3148326,-5288.6013617127,2958622.821962,11.934273427343,0,0
44.210532513684,-6.048625258362,6.738703870387,2117137.3148326,-5288.6013617127,2958622.821962,11.938703870387,0,0
44.210532737144,-6.0500058149245,6.7431343134313,2117137.3148326,-5288.6013617127,2958622.821962,11.943134313431,0,0
44.210532960604,-6.0513863714869,6.7475647564756,2117137.3148326,-5288.6013617127,2958622.821962,11.947564756476,0,0
44.210533184064,-6.0527669280493,6.75199519952,2117137.3148326,-5288.6013617127,2958622.821962,11.95199519952,0,0
44.210533407525,-6.0541474846117,6.7564256425643,2117137.3148326,-5288.6013617127,2958622.821962,11.956425642564,0,0
44.210533630985,-6.0555280411741,6.7608560856086,2117137.3148326,-5288.6013617127,2958622.821962,11.960856085609,0,0
44.210533854445,-6.0569085977366,6.7652865286529,2117137.3148326,-5288.6013617127,2958622.821962,11.965286528653,0,0
44.210534077905,-6.058289154299,6.7697169716972,2117137.3148326,-5288.6013617127,2958622.821962,11.969716971697,0,0
44.210534301365,-6.0596697108614,6.7741474147415,2117137.3148326,-5288.6013617127,2958622.821962,11.974147414741,0,0
44.210534524825,-6.0610502674238,6.7785778577858,2117137.3148326,-5288.6013617127,2958622.821962,11.978577857786,0,0
44.210534748286,-6.0624308239863,6.7830083008301,2117137.3148326,-5288.6013617127,2958622.821962,11.98300830083,0,0
44.210534971746,-6.0638113805487,6.7874387438744,2117137.3148326,-5288.6013617127,2958622.821962,11.987438743874,0,0
44.210535195206,-6.0651919371111,6.7918691869187,2117137.3148326,-5288.6013617127,2958622.821962,11.991869186919,0,0
44.210535418666,-6.0665724936735,6.796299629963,2117137.3148326,-5288.6013617127,2958622.821962,11.996299629963,0,0
44.210535642126,-6.0679530502359,6.8007300730073,2117137.3148326,-5288.6013617127,2958622.821962,12.000730073007,0,0
44.210535865587,-6.0693336067984,6.8051605160516,2117137.3148326,-5288.6013617127,2958622.821962,12.005160516052,0,0
44.210536089047,-6.0707141633608,6.8095909590959,2117137.3148326,-5288.6013617127,2958622.821962,12.009590959096,0,0
44.210536312507,-6.0720947199232,6.8140214021402,2117137.3148326,-5288.6013617127,2958622.821962,12.01402140214,0,0
44.210536535967,-6.0734752764856,6.8184518451845,2117137.3148326,-5288.6013617127,2958622.821962,12.018451845185,0,0
44.210536759427,-6.0748558330481,6.8228822882288,2117137.3148326,-5288.6013617127,2958622.821962,12.022882288229,0,0
44.210536982887,-6.0762363896105,6.8273127312731,2117137.3148326,-5288.6013617127,2958622.821962,12.027312731273,0,0
44.210537206348,-6.0776169461729,6.8317431743174,2117137.3148326,-5288.6013617127,2958622.821962,12.031743174317,0,0
44.210537429808,-6.0789975027353,6.8361736173617,2117137.3148326,-5288.6013617127,2958622.821962,12.036173617362,0,0
44.210537653268,-6.0803780592977,6.840604060406,2117137.3148326,-5288.6013617127,2958622.821962,12.040604060406,0,0
44.210537876728,-6.0817586158602,6.8450345034503,2117137.3148326,-5288.6013617127,2958622.821962,12.04503450345,0,0
44.210538100188,-6.0831391724226,6.8494649464946,2117137.3148326,-5288.6013617127,2958622.821962,12.049464946495,0,0
44.210538323649,-6.084519728985,6.853895389539,2117137.3148326,-5288.6013617127,2958622.821962,12.053895389539,0,0
44.210538547109,-6.0859002855474,6.8583258325833,2117137.3148326,-5288.6013617127,2958622.821962,12.058325832583,0,0
44.210538770569,-6.0872808421099,6.8627562756276,2117137.3148326,-5288.6013617127,2958622.821962,12.062756275628,0,0
44.210538994029,-6.0886613986723,6.8671867186719,2117137.3148326,-5288.6013617127,2958622.821962,12.067186718672,0,0
44.210539217489,-6.0900419552347,6.8716171617162,2117137.3148326,-5288.6013617127,2958622.821962,12.071617161716,0,0
44.210539440949,-6.0914225117971,6.8760476047605,2117137.3148326,-5288.6013617127,2958622.821962,12.07604760476,0,0
44.21053966441,-6.0928030683596,6.8804780478048,2117137.3148326,-5288.6013617127,2958622.821962,12.080478047805,0,0
44.21053988787,-6.094183624922,6.8849084908491,2117137.3148326,-5288.6013617127,2958622.821962,12.084908490849,0,0
44.21054011133,-6.0955641814844,6.8893389338934,2117137.3148326,-5288.6013617127,2958622.821962,12.089338933893,0,0
44.21054033479,-6.0969447380468,6.8937693769377,2117137.3148326,-5288.6013617127,2958622.821962,12.093769376938,0,0
44.21054055825,-6.0983252946092,6.898199819982,2117137.3148326,-5288.6013617127,2958622.821962,12.098199819982,0,0
44.210540781711,-6.0997058511717,6.9026302630263,2117137.3148326,-5288.6013617127,2958622.821962,12.102630263026,0,0
44.210541005171,-6.1010864077341,6.9070607060706,2117137.3148326,-5288.6013617127,2958622.821962,12.107060706071,0,0
44.210541228631,-6.1024669642965,6.9114911491149,2117137.3148326,-5288.6013617127,2958622.821962,12.111491149115,0,0
44.210541452091,-6.1038475208589,6.9159215921592,2117137.3148326,-5288.6013617127,2958622.821962,12.115921592159,0,0
44.210541675551,-6.1052280774214,6.9203520352035,2117137.3148326,-5288.6013617127,2958622.821962,12.120352035204,0,0
44.210541899011,-6.1066086339838,6.9247824782478,2117137.3148326,-5288.6013617127,2958622.821962,12.124782478248,0,0
44.210542122472,-6.1079891905462,6.9292129212921,2117137.3148326,-5288.6013617127,2958622.821962,12.129212921292,0,0
44.210542345932,-6.1093697471086,6.9336433643364,2117137.3148326,-5288.6013617127,2958622.821962,12.133643364336,0,0
44.210542569392,-6.110750303671,6.9380738073807,2117137.3148326,-5288.6013617127,2958622.821962,12.138073807381,0,0
44.210542792852,-6.1121308602335,6.942504250425,2117137.3148326,-5288.6013617127,2958622.821962,12.142504250425,0,0
44.210543016312,-6.1135114167959,6.9469346934693,2117137.3148326,-5288.6013617127,2958622.821962,12.146934693469,0,0
44.210543239773,-6.1148919733583,6.9513651365137,2117137.3148326,-5288.6013617127,2958622.821962,12.151365136514,0,0
44.210543463233,-6.1162725299207,6.955795579558,2117137.3148326,-5288.6013617127,2958622.821962,12.155795579558,0,0
44.210543686693,-6.1176530864832,6.9602260226023,2117137.3148326,-5288.6013617127,2958622.821962,12.160226022602,0,0
44.210543910153,-6.1190336430456,6.9646564656466,2117137.3148326,-5288.6013617127,2958622.821962,12.164656465647,0,0
44.210544133613,-6.120414199608,6.9690869086909,2117137.3148326,-5288.6013617127,2958622.821962,12.169086908691,0,0
44.210544357073,-6.1217947561704,6.9735173517352,2117137.3148326,-5288.6013617127,2958622.821962,12.173517351735,0,0
44.210544580534,-6.1231753127328,6.9779477947795,2117137.3148326,-5288.6013617127,2958622.821962,12.177947794779,0,0
44.210544803994,-6.1245558692953,6.9823782378238,2117137.3148326,-5288.6013617127,2958622.821962,12.182378237824,0,0
44.210545027454,-6.1259364258577,6.9868086808681,2117137.3148326,-5288.6013617127,2958622.821962,12.186808680868,0,0
44.210545250914,-6.1273169824201,6.9912391239124,2117137.3148326,-5288.6013617127,2958622.821962,12.191239123912,0,0
44.210545474374,-6.1286975389825,6.9956695669567,2117137.3148326,-5288.6013617127,2958622.821962,12.195669566957,0,0
44.210545697835,-6.130078095545,7.000100010001,2117137.3148326,-5288.6013617127,2958622.821962,12.200100010001,0,0
44.210545921295,-6.1314586521074,7.0045304530453,2117137.3148326,-5288.6013617127,2958622.821962,12.204530453045,0,0
44.210546144755,-6.1328392086698,7.0089608960896,2117137.3148326,-5288.6013617127,2958622.821962,12.20896089609,0,0
44.210546368215,-6.1342197652322,7.0133913391339,2117137.3148326,-5288.6013617127,2958622.821962,12.213391339134,0,0
44.210546591675,-6.1356003217946,7.0178217821782,2117137.3148326,-5288.6013617127,2958622.821962,12.217821782178,0,0
44.210546815135,-6.1369808783571,7.0222522252225,2117137.3148326,-5288.6013617127,2958622.821962,12.222252225223,0,0
44.210547038596,-6.1383614349195,7.0266826682668,2117137.3148326,-5288.6013617127,2958622.821962,12.226682668267,0,0
44.210547262056,-6.1397419914819,7.0311131113111,2117137.3148326,-5288.6013617127,2958622.821962,12.231113111311,0,0
44.210547485516,-6.1411225480443,7.0355435543554,2117137.3148326,-5288.6013617127,2958622.821962,12.235543554355,0,0
44.210547708976,-6.1425031046068,7.0399739973997,2117137.3148326,-5288.6013617127,2958622.821962,12.2399739974,0,0
44.210547932436,-6.1438836611692,7.044404440444,2117137.3148326,-5288.6013617127,2958622.821962,12.244404440444,0,0
44.210548155897,-6.1452642177316,7.0488348834883,2117137.3148326,-5288.6013617127,2958622.821962,12.248834883488,0,0
44.210548379357,-6.146644774294,7.0532653265327,2117137.3148326,-5288.6013617127,2958622.821962,12.253265326533,0,0
44.210548602817,-6.1480253308565,7.057695769577,2117137.3148326,-5288.6013617127,2958622.821962,12.257695769577,0,0
44.210548826277,-6.1494058874189,7.0621262126213,2117137.3148326,-5288.6013617127,2958622.821962,12.262126212621,0,0
44.210549049737,-6.1507864439813,7.0665566556656,2117137.3148326,-5288.6013617127,2958622.821962,12.266556655666,0,0
44.210549273197,-6.1521670005437,7.0709870987099,2117137.3148326,-5288.6013617127,2958622.821962,12.27098709871,0,0
44.210549496658,-6.1535475571061,7.0754175417542,2117137.3148326,-5288.6013617127,2958622.821962,12.275417541754,0,0
44.210549720118,-6.1549281136686,7.0798479847985,2117137.3148326,-5288.6013617127,2958622.821962,12.279847984798,0,0
44.210549943578,-6.156308670231,7.0842784278428,2117137.3148326,-5288.6013617127,2958622.821962,12.284278427843,0,0
44.210550167038,-6.1576892267934,7.0887088708871,2117137.3148326,-5288.6013617127,2958622.821962,12.288708870887,0,0
44.210550390498,-6.1590697833558,7.0931393139314,2117137.3148326,-5288.6013617127,2958622.821962,12.293139313931,0,0
44.210550613959,-6.1604503399183,7.0975697569757,2117137.3148326,-5288.6013617127,2958622.821962,12.297569756976,0,0
44.210550837419,-6.1618308964807,7.10200020002,2117137.3148326,-5288.6013617127,2958622.821962,12.30200020002,0,0
44.210551060879,-6.1632114530431,7.1064306430643,2117137.3148326,-5288.6013617127,2958622.821962,12.306430643064,0,0
44.210551284339,-6.1645920096055,7.1108610861086,2117137.3148326,-5288.6013617127,2958622.821962,12.310861086109,0,0
44.210551507799,-6.1659725661679,7.1152915291529,2117137.3148326,-5288.6013617127,2958622.821962,12.315291529153,0,0
44.210551731259,-6.1673531227304,7.1197219721972,2117137.3148326,-5288.6013617127,2958622.821962,12.319721972197,0,0
44.21055195472,-6.1687336792928,7.1241524152415,2117137.3148326,-5288.6013617127,2958622.821962,12.324152415242,0,0
44.21055217818,-6.1701142358552,7.1285828582858,2117137.3148326,-5288.6013617127,2958622.821962,12.328582858286,0,0
44.21055240164,-6.1714947924176,7.1330133013301,2117137.3148326,-5288.6013617127,2958622.821962,12.33301330133,0,0
44.2105526251,-6.1728753489801,7.1374437443744,2117137.3148326,-5288.6013617127,2958622.821962,12.337443744374,0,0
44.21055284856,-6.1742559055425,7.1418741874187,2117137.3148326,-5288.6013617127,2958622.821962,12.341874187419,0,0
44.210553072021,-6.1756364621049,7.146304630463,2117137.3148326,-5288.6013617127,2958622.821962,12.346304630463,0,0
44.210553295481,-6.1770170186673,7.1507350735073,2117137.3148326,-5288.6013617127,2958622.821962,12.350735073507,0,0
44.210553518941,-6.1783975752297,7.1551655165517,2117137.3148326,-5288.6013617127,2958622.821962,12.355165516552,0,0
44.210553742401,-6.1797781317922,7.159595959596,2117137.3148326,-5288.6013617127,2958622.821962,12.359595959596,0,0
44.210553965861,-6.1811586883546,7.1640264026403,2117137.3148326,-5288.6013617127,2958622.821962,12.36402640264,0,0
44.210554189321,-6.182539244917,7.1684568456846,2117137.3148326,-5288.6013617127,2958622.821962,12.368456845685,0,0
44.210554412782,-6.1839198014794,7.1728872887289,2117137.3148326,-5288.6013617127,2958622.821962,12.372887288729,0,0
44.210554636242,-6.1853003580419,7.1773177317732,2117137.3148326,-5288.6013617127,2958622.821962,12.377317731773,0,0
44.210554859702,-6.1866809146043,7.1817481748175,2117137.3148326,-5288.6013617127,2958622.821962,12.381748174817,0,0
44.210555083162,-6.1880614711667,7.1861786178618,2117137.3148326,-5288.6013617127,2958622.821962,12.386178617862,0,0
44.210555306622,-6.1894420277291,7.1906090609061,2117137.3148326,-5288.6013617127,2958622.821962,12.390609060906,0,0
44.210555530083,-6.1908225842916,7.1950395039504,2117137.3148326,-5288.6013617127,2958622.821962,12.39503950395,0,0
44.210555753543,-6.192203140854,7.1994699469947,2117137.3148326,-5288.6013617127,2958622.821962,12.399469946995,0,0
44.210555977003,-6.1935836974164,7.203900390039,2117137.3148326,-5288.6013617127,2958622.821962,12.403900390039,0,0
44.210556200463,-6.1949642539788,7.2083308330833,2117137.3148326,-5288.6013617127,2958622.821962,12.408330833083,0,0
44.210556423923,-6.1963448105412,7.2127612761276,2117137.3148326,-5288.6013617127,2958622.821962,12.412761276128,0,0
44.210556647383,-6.1977253671037,7.2171917191719,2117137.3148326,-5288.6013617127,2958622.821962,12.417191719172,0,0
44.210556870844,-6.1991059236661,7.2216221622162,2117137.3148326,-5288.6013617127,2958622.821962,12.421622162216,0,0
44.210557094304,-6.2004864802285,7.2260526052605,2117137.3148326,-5288.6013617127,2958622.821962,12.426052605261,0,0
44.210557317764,-6.2018670367909,7.2304830483048,2117137.3148326,-5288.6013617127,2958622.821962,12.430483048305,0,0
44.210557541224,-6.2032475933534,7.2349134913491,2117137.3148326,-5288.6013617127,2958622.821962,12.434913491349,0,0
44.210557764684,-6.2046281499158,7.2393439343934,2117137.3148326,-5288.6013617127,2958622.821962,12.439343934393,0,0
44.210557988144,-6.2060087064782,7.2437743774377,2117137.3148326,-5288.6013617127,2958622.821962,12.443774377438,0,0
44.210558211605,-6.2073892630406,7.248204820482,2117137.3148326,-5288.6013617127,2958622.821962,12.448204820482,0,0
44.210558435065,-6.208769819603,7.2526352635264,2117137.3148326,-5288.6013617127,2958622.821962,12.452635263526,0,0
44.210558658525,-6.2101503761655,7.2570657065707,2117137.3148326,-5288.6013617127,2958622.821962,12.457065706571,0,0
44.210558881985,-6.2115309327279,7.261496149615,2117137.3148326,-5288.6013617127,2958622.821962,12.461496149615,0,0
44.210559105445,-6.2129114892903,7.2659265926593,2117137.3148326,-5288.6013617127,2958622.821962,12.465926592659,0,0
44.210559328906,-6.2142920458527,7.2703570357036,2117137.3148326,-5288.6013617127,2958622.821962,12.470357035704,0,0
44.210559552366,-6.2156726024152,7.2747874787479,2117137.3148326,-5288.6013617127,2958622.821962,12.474787478748,0,0
44.210559775826,-6.2170531589776,7.2792179217922,2117137.3148326,-5288.6013617127,2958622.821962,12.479217921792,0,0
44.210559999286,-6.21843371554,7.2836483648365,2117137.3148326,-5288.6013617127,2958622.821962,12.483648364836,0,0
44.210560222746,-6.2198142721024,7.2880788078808,2117137.3148326,-5288.6013617127,2958622.821962,12.488078807881,0,0
44.210560446206,-6.2211948286648,7.2925092509251,2117137.3148326,-5288.6013617127,2958622.821962,12.492509250925,0,0
44.210560669667,-6.2225753852273,7.2969396939694,2117137.3148326,-5288.6013617127,2958622.821962,12.496939693969,0,0
44.210560893127,-6.2239559417897,7.3013701370137,2117137.3148326,-5288.6013617127,2958622.821962,12.501370137014,0,0
44.210561116587,-6.2253364983521,7.305800580058,2117137.3148326,-5288.6013617127,2958622.821962,12.505800580058,0,0
44.210561340047,-6.2267170549145,7.3102310231023,2117137.3148326,-5288.6013617127,2958622.821962,12.510231023102,0,0
44.210561563507,-6.228097611477,7.3146614661466,2117137.3148326,-5288.6013617127,2958622.821962,12.514661466147,0,0
44.210561786968,-6.2294781680394,7.3190919091909,2117137.3148326,-5288.6013617127,2958622.821962,12.519091909191,0,0
44.210562010428,-6.2308587246018,7.3235223522352,2117137.3148326,-5288.6013617127,2958622.821962,12.523522352235,0,0
44.210562233888,-6.2322392811642,7.3279527952795,2117137.3148326,-5288.6013617127,2958622.821962,12.52795279528,0,0
44.210562457348,-6.2336198377267,7.3323832383238,2117137.3148326,-5288.6013617127,2958622.821962,12.532383238324,0,0
44.210562680808,-6.2350003942891,7.3368136813681,2117137.3148326,-5288.6013617127,2958622.821962,12.536813681368,0,0
44.210562904268,-6.2363809508515,7.3412441244124,2117137.3148326,-5288.6013617127,2958622.821962,12.541244124412,0,0
44.210563127729,-6.2377615074139,7.3456745674567,2117137.3148326,-5288.6013617127,2958622.821962,12.545674567457,0,0
44.210563351189,-6.2391420639763,7.350105010501,2117137.3148326,-5288.6013617127,2958622.821962,12.550105010501,0,0
44.210563574649,-6.2405226205388,7.3545354535454,2117137.3148326,-5288.6013617127,2958622.821962,12.554535453545,0,0
44.210563798109,-6.2419031771012,7.3589658965897,2117137.3148326,-5288.6013617127,2958622.821962,12.55896589659,0,0
44.210564021569,-6.2432837336636,7.363396339634,2117137.3148326,-5288.6013617127,2958622.821962,12.563396339634,0,0
44.21056424503,-6.244664290226,7.3678267826783,2117137.3148326,-5288.6013617127,2958622.821962,12.567826782678,0,0
44.21056446849,-6.2460448467885,7.3722572257226,2117137.3148326,-5288.6013617127,2958622.821962,12.572257225723,0,0
44.21056469195,-6.2474254033509,7.3766876687669,2117137.3148326,-5288.6013617127,2958622.821962,12.576687668767,0,0
44.21056491541,-6.2488059599133,7.3811181118112,2117137.3148326,-5288.6013617127,2958622.821962,12.581118111811,0,0
44.21056513887,-6.2501865164757,7.3855485548555,2117137.3148326,-5288.6013617127,2958622.821962,12.585548554855,0,0
44.21056536233,-6.2515670730381,7.3899789978998,2117137.3148326,-5288.6013617127,2958622.821962,12.5899789979,0,0
44.210565585791,-6.2529476296006,7.3944094409441,2117137.3148326,-5288.6013617127,2958622.821962,12.594409440944,0,0
44.210565810281,-6.2543281899413,7.3988398839884,2116459.4559855,-22899.283211757,2906620.6268885,12.598839883988,0,0
44.210566035072,-6.2557087513826,7.4032703270327,2116459.4559855,-22899.283211757,2906620.6268885,12.603270327033,0,0
44.210566259862,-6.2570893128239,7.407700770077,2116459.4559855,-22899.283211757,2906620.6268885,12.607700770077,0,0
44.210566484653,-6.2584698742652,7.4121312131213,2116459.4559855,-22899.283211757,2906620.6268885,12.612131213121,0,0
44.210566709444,-6.2598504357065,7.4165616561656,2116459.4559855,-22899.283211757,2906620.6268885,12.616561656166,0,0
44.210566934234,-6.2612309971478,7.4209920992099,2116459.4559855,-22899.283211757,2906620.6268885,12.62099209921,0,0
44.210567159025,-6.2626115585891,7.4254225422542,2116459.4559855,-22899.283211757,2906620.6268885,12.625422542254,0,0
44.210567383815,-6.2639921200304,7.4298529852985,2116459.4559855,-22899.283211757,2906620.6268885,12.629852985299,0,0
44.210567608606,-6.2653726814717,7.4342834283428,2116459.4559855,-22899.283211757,2906620.6268885,12.634283428343,0,0
44.210567833397,-6.266753242913,7.4387138713871,2116459.4559855,-22899.283211757,2906620.6268885,12.638713871387,0,0
44.210568058187,-6.2681338043543,7.4431443144314,2116459.4559855,-22899.283211757,2906620.6268885,12.643144314431,0,0
44.210568282978,-6.2695143657955,7.4475747574757,2116459.4559855,-22899.283211757,2906620.6268885,12.647574757476,0,0
44.210568507768,-6.2708949272368,7.4520052005201,2116459.4559855,-22899.283211757,2906620.6268885,12.65200520052,0,0
44.210568732559,-6.2722754886781,7.4564356435644,2116459.4559855,-22899.283211757,2906620.6268885,12.656435643564,0,0
44.21056895735,-6.2736560501194,7.4608660866087,2116459.4559855,-22899.283211757,2906620.6268885,12.660866086609,0,0
44.21056918214,-6.2750366115607,7.465296529653,2116459.4559855,-22899.283211757,2906620.6268885,12.665296529653,0,0
44.210569406931,-6.276417173002,7.4697269726973,2116459.4559855,-22899.283211757,2906620.6268885,12.669726972697,0,0
44.210569631722,-6.2777977344433,7.4741574157416,2116459.4559855,-22899.283211757,2906620.6268885,12.674157415742,0,0
44.210569856512,-6.2791782958846,7.4785878587859,2116459.4559855,-22899.283211757,2906620.6268885,12.678587858786,0,0
44.210570081303,-6.2805588573259,7.4830183018302,2116459.4559855,-22899.283211757,2906620.6268885,12.68301830183,0,0
44.210570306093,-6.2819394187672,7.4874487448745,2116459.4559855,-22899.283211757,2906620.6268885,12.687448744874,0,0
44.210570530884,-6.2833199802085,7.4918791879188,2116459.4559855,-22899.283211757,2906620.6268885,12.691879187919,0,0
44.210570755675,-6.2847005416498,7.4963096309631,2116459.4559855,-22899.283211757,2906620.6268885,12.696309630963,0,0
44.210570980465,-6.2860811030911,7.5007400740074,2116459.4559855,-22899.283211757,2906620.6268885,12.700740074007,0,0
44.210571206484,-6.2874616631974,7.5051705170517,2163144.8558202,-11676.256377484,2895002.9055471,12.705170517052,0,0
44.210571435313,-6.2888422202503,7.509600960096,2163144.8558202,-11676.256377484,2895002.9055471,12.709600960096,0,0
44.210571664142,-6.2902227773033,7.5140314031403,2163144.8558202,-11676.256377484,2895002.9055471,12.71403140314,0,0
44.210571892971,-6.2916033343562,7.5184618461846,2163144.8558202,-11676.256377484,2895002.9055471,12.718461846185,0,0
44.2105721218,-6.2929838914091,7.5228922892289,2163144.8558202,-11676.256377484,2895002.9055471,12.722892289229,0,0
44.210572350629,-6.2943644484621,7.5273227322732,2163144.8558202,-11676.256377484,2895002.9055471,12.727322732273,0,0
44.210572579458,-6.295745005515,7.5317531753175,2163144.8558202,-11676.256377484,2895002.9055471,12.731753175318,0,0
44.210572808287,-6.2971255625679,7.5361836183618,2163144.8558202,-11676.256377484,2895002.9055471,12.736183618362,0,0
44.210573037116,-6.2985061196209,7.5406140614061,2163144.8558202,-11676.256377484,2895002.9055471,12.740614061406,0,0
44.210573265945,-6.2998866766738,7.5450445044504,2163144.8558202,-11676.256377484,2895002.9055471,12.74504450445,0,0
44.210573494774,-6.3012672337267,7.5494749474947,2163144.8558202,-11676.256377484,2895002.9055471,12.749474947495,0,0
44.210573723603,-6.3026477907797,7.5539053905391,2163144.8558202,-11676.256377484,2895002.9055471,12.753905390539,0,0
44.210573952432,-6.3040283478326,7.5583358335834,2163144.8558202,-11676.256377484,2895002.9055471,12.758335833583,0,0
44.210574181261,-6.3054089048855,7.5627662766277,2163144.8558202,-11676.256377484,2895002.9055471,12.762766276628,0,0
44.21057441009,-6.3067894619385,7.567196719672,2163144.8558202,-11676.256377484,2895002.9055471,12.767196719672,0,0
44.210574638919,-6.3081700189914,7.5716271627163,2163144.8558202,-11676.256377484,2895002.9055471,12.771627162716,0,0
44.210574867748,-6.3095505760443,7.5760576057606,2163144.8558202,-11676.256377484,2895002.9055471,12.776057605761,0,0
44.210575096577,-6.3109311330973,7.5804880488049,2163144.8558202,-11676.256377484,2895002.9055471,12.780488048805,0,0
44.210575325406,-6.3123116901502,7.5849184918492,2163144.8558202,-11676.256377484,2895002.9055471,12.784918491849,0,0
44.210575554235,-6.3136922472031,7.5893489348935,2163144.8558202,-11676.256377484,2895002.9055471,12.789348934893,0,0
44.210575783064,-6.3150728042561,7.5937793779378,2163144.8558202,-11676.256377484,2895002.9055471,12.793779377938,0,0
44.210576011893,-6.316453361309,7.5982098209821,2163144.8558202,-11676.256377484,2895002.9055471,12.798209820982,0,0
44.210576240722,-6.3178339183619,7.6026402640264,2163144.8558202,-11676.256377484,2895002.9055471,12.802640264026,0,0
44.210576469551,-6.3192144754149,7.6070707070707,2163144.8558202,-11676.256377484,2895002.9055471,12.807070707071,0,0
44.210576698379,-6.3205950324678,7.611501150115,2163144.8558202,-11676.256377484,2895002.9055471,12.811501150115,0,0
44.210576927208,-6.3219755895208,7.6159315931593,2163144.8558202,-11676.256377484,2895002.9055471,12.815931593159,0,0
44.210577156037,-6.3233561465737,7.6203620362036,2163144.8558202,-11676.256377484,2895002.9055471,12.820362036204,0,0
44.210577384866,-6.3247367036266,7.6247924792479,2163144.8558202,-11676.256377484,2895002.9055471,12.824792479248,0,0
44.210577613695,-6.3261172606796,7.6292229222922,2163144.8558202,-11676.256377484,2895002.9055471,12.829222922292,0,0
44.210577842524,-6.3274978177325,7.6336533653365,2163144.8558202,-11676.256377484,2895002.9055471,12.833653365337,0,0
44.210578071353,-6.3288783747854,7.6380838083808,2163144.8558202,-11676.256377484,2895002.9055471,12.838083808381,0,0
44.210578300182,-6.3302589318384,7.6425142514251,2163144.8558202,-11676.256377484,2895002.9055471,12.842514251425,0,0
44.210578529011,-6.3316394888913,7.6469446944694,2163144.8558202,-11676.256377484,2895002.9055471,12.846944694469,0,0
44.21057875784,-6.3330200459442,7.6513751375138,2163144.8558202,-11676.256377484,2895002.9055471,12.851375137514,0,0
44.210578986669,-6.3344006029972,7.6558055805581,2163144.8558202,-11676.256377484,2895002.9055471,12.855805580558,0,0
44.210579215498,-6.3357811600501,7.6602360236024,2163144.8558202,-11676.256377484,2895002.9055471,12.860236023602,0,0
44.210579444327,-6.337161717103,7.6646664666467,2163144.8558202,-11676.256377484,2895002.9055471,12.864666466647,0,0
44.210579673156,-6.338542274156,7.669096909691,2163144.8558202,-11676.256377484,2895002.9055471,12.869096909691,0,0
44.210579901985,-6.3399228312089,7.6735273527353,2163144.8558202,-11676.256377484,2895002.9055471,12.873527352735,0,0
44.210580130814,-6.3413033882618,7.6779577957796,2163144.8558202,-11676.256377484,2895002.9055471,12.87795779578,0,0
44.210580359643,-6.3426839453148,7.6823882388239,2163144.8558202,-11676.256377484,2895002.9055471,12.882388238824,0,0
44.210580588472,-6.3440645023677,7.6868186818682,2163144.8558202,-11676.256377484,2895002.9055471,12.886818681868,0,0
44.210580817301,-6.3454450594206,7.6912491249125,2163144.8558202,-11676.256377484,2895002.9055471,12.891249124912,0,0
44.21058104613,-6.3468256164736,7.6956795679568,2163144.8558202,-11676.256377484,2895002.9055471,12.895679567957,0,0
44.210581274959,-6.3482061735265,7.7001100110011,2163144.8558202,-11676.256377484,2895002.9055471,12.900110011001,0,0
44.210581503788,-6.3495867305794,7.7045404540454,2163144.8558202,-11676.256377484,2895002.9055471,12.904540454045,0,0
44.210581732617,-6.3509672876324,7.7089708970897,2163144.8558202,-11676.256377484,2895002.9055471,12.90897089709,0,0
44.210581961446,-6.3523478446853,7.713401340134,2163144.8558202,-11676.256377484,2895002.9055471,12.913401340134,0,0
44.210582190275,-6.3537284017382,7.7178317831783,2163144.8558202,-11676.256377484,2895002.9055471,12.917831783178,0,0
44.210582419104,-6.3551089587912,7.7222622262226,2163144.8558202,-11676.256377484,2895002.9055471,12.922262226223,0,0
44.210582647933,-6.3564895158441,7.7266926692669,2163144.8558202,-11676.256377484,2895002.9055471,12.926692669267,0,0
44.210582876762,-6.357870072897,7.7311231123112,2163144.8558202,-11676.256377484,2895002.9055471,12.931123112311,0,0
44.210583105591,-6.35925062995,7.7355535553555,2163144.8558202,-11676.256377484,2895002.9055471,12.935553555356,0,0
44.21058333442,-6.3606311870029,7.7399839983998,2163144.8558202,-11676.256377484,2895002.9055471,12.9399839984,0,0
44.210583563248,-6.3620117440558,7.7444144414441,2163144.8558202,-11676.256377484,2895002.9055471,12.944414441444,0,0
44.210583792077,-6.3633923011088,7.7488448844884,2163144.8558202,-11676.256377484,2895002.9055471,12.948844884488,0,0
44.210584020906,-6.3647728581617,7.7532753275328,2163144.8558202,-11676.256377484,2895002.9055471,12.953275327533,0,0
44.210584249735,-6.3661534152147,7.7577057705771,2163144.8558202,-11676.256377484,2895002.9055471,12.957705770577,0,0
44.210584478564,-6.3675339722676,7.7621362136214,2163144.8558202,-11676.256377484,2895002.9055471,12.962136213621,0,0
44.210584707393,-6.3689145293205,7.7665666566657,2163144.8558202,-11676.256377484,2895002.9055471,12.966566656666,0,0
44.210584936222,-6.3702950863735,7.77099709971,2163144.8558202,-11676.256377484,2895002.9055471,12.97099709971,0,0
44.210585165051,-6.3716756434264,7.7754275427543,2163144.8558202,-11676.256377484,2895002.9055471,12.975427542754,0,0
44.21058539388,-6.3730562004793,7.7798579857986,2163144.8558202,-11676.256377484,2895002.9055471,12.979857985799,0,0
44.210585622709,-6.3744367575323,7.7842884288429,2163144.8558202,-11676.256377484,2895002.9055471,12.984288428843,0,0
44.210585851538,-6.3758173145852,7.7887188718872,2163144.8558202,-11676.256377484,2895002.9055471,12.988718871887,0,0
44.210586080367,-6.3771978716381,7.7931493149315,2163144.8558202,-11676.256377484,2895002.9055471,12.993149314931,0,0
44.210586309196,-6.3785784286911,7.7975797579758,2163144.8558202,-11676.256377484,2895002.9055471,12.997579757976,0,0
44.210586538025,-6.379958985744,7.8020102010201,2163144.8558202,-11676.256377484,2895002.9055471,13.00201020102,0,0
44.210586766854,-6.3813395427969,7.8064406440644,2163144.8558202,-11676.256377484,2895002.9055471,13.006440644064,0,0
44.210586995683,-6.3827200998499,7.8108710871087,2163144.8558202,-11676.256377484,2895002.9055471,13.010871087109,0,0
44.210587224512,-6.3841006569028,7.815301530153,2163144.8558202,-11676.256377484,2895002.9055471,13.015301530153,0,0
44.210587453341,-6.3854812139557,7.8197319731973,2163144.8558202,-11676.256377484,2895002.9055471,13.019731973197,0,0
44.21058768217,-6.3868617710087,7.8241624162416,2163144.8558202,-11676.256377484,2895002.9055471,13.024162416242,0,0
44.210587910999,-6.3882423280616,7.8285928592859,2163144.8558202,-11676.256377484,2895002.9055471,13.028592859286,0,0
44.210588139828,-6.3896228851145,7.8330233023302,2163144.8558202,-11676.256377484,2895002.9055471,13.03302330233,0,0
44.210588368657,-6.3910034421675,7.8374537453745,2163144.8558202,-11676.256377484,2895002.9055471,13.037453745375,0,0
44.210588597486,-6.3923839992204,7.8418841884188,2163144.8558202,-11676.256377484,2895002.9055471,13.041884188419,0,0
44.210588826315,-6.3937645562733,7.8463146314631,2163144.8558202,-11676.256377484,2895002.9055471,13.046314631463,0,0
44.210589055144,-6.3951451133263,7.8507450745074,2163144.8558202,-11676.256377484,2895002.9055471,13.050745074507,0,0
44.210589283973,-6.3965256703792,7.8551755175518,2163144.8558202,-11676.256377484,2895002.9055471,13.055175517552,0,0
44.210589512802,-6.3979062274321,7.8596059605961,2163144.8558202,-11676.256377484,2895002.9055471,13.059605960596,0,0
44.210589741631,-6.3992867844851,7.8640364036404,2163144.8558202,-11676.256377484,2895002.9055471,13.06403640364,0,0
44.21058997046,-6.400667341538,7.8684668466847,2163144.8558202,-11676.256377484,2895002.9055471,13.068466846685,0,0
44.210590199288,-6.4020478985909,7.872897289729,2163144.8558202,-11676.256377484,2895002.9055471,13.072897289729,0,0
44.210590428117,-6.4034284556439,7.8773277327733,2163144.8558202,-11676.256377484,2895002.9055471,13.077327732773,0,0
44.210590656946,-6.4048090126968,7.8817581758176,2163144.8558202,-11676.256377484,2895002.9055471,13.081758175818,0,0
44.210590885775,-6.4061895697497,7.8861886188619,2163144.8558202,-11676.256377484,2895002.9055471,13.086188618862,0,0
44.210591114604,-6.4075701268027,7.8906190619062,2163144.8558202,-11676.256377484,2895002.9055471,13.090619061906,0,0
44.210591343433,-6.4089506838556,7.8950495049505,2163144.8558202,-11676.256377484,2895002.9055471,13.09504950495,0,0
44.210591572262,-6.4103312409086,7.8994799479948,2163144.8558202,-11676.256377484,2895002.9055471,13.099479947995,0,0
44.210591801091,-6.4117117979615,7.9039103910391,2163144.8558202,-11676.256377484,2895002.9055471,13.103910391039,0,0
44.21059202992,-6.4130923550144,7.9083408340834,2163144.8558202,-11676.256377484,2895002.9055471,13.108340834083,0,0
44.210592258749,-6.4144729120674,7.9127712771277,2163144.8558202,-11676.256377484,2895002.9055471,13.112771277128,0,0
44.210592487578,-6.4158534691203,7.917201720172,2163144.8558202,-11676.256377484,2895002.9055471,13.117201720172,0,0
44.210592716407,-6.4172340261732,7.9216321632163,2163144.8558202,-11676.256377484,2895002.9055471,13.121632163216,0,0
44.210592945236,-6.4186145832262,7.9260626062606,2163144.8558202,-11676.256377484,2895002.9055471,13.126062606261,0,0
44.210593174065,-6.4199951402791,7.9304930493049,2163144.8558202,-11676.256377484,2895002.9055471,13.130493049305,0,0
44.210593402894,-6.421375697332,7.9349234923492,2163144.8558202,-11676.256377484,2895002.9055471,13.134923492349,0,0
44.210593631723,-6.422756254385,7.9393539353935,2163144.8558202,-11676.256377484,2895002.9055471,13.139353935394,0,0
44.210593860552,-6.4241368114379,7.9437843784378,2163144.8558202,-11676.256377484,2895002.9055471,13.143784378438,0,0
44.210594089381,-6.4255173684908,7.9482148214821,2163144.8558202,-11676.256377484,2895002.9055471,13.148214821482,0,0
44.21059431821,-6.4268979255438,7.9526452645265,2163144.8558202,-11676.256377484,2895002.9055471,13.152645264526,0,0
44.210594547039,-6.4282784825967,7.9570757075708,2163144.8558202,-11676.256377484,2895002.9055471,13.157075707571,0,0
44.210594775868,-6.4296590396496,7.9615061506151,2163144.8558202,-11676.256377484,2895002.9055471,13.161506150615,0,0
44.210595004697,-6.4310395967026,7.9659365936594,2163144.8558202,-11676.256377484,2895002.9055471,13.165936593659,0,0
44.210595233526,-6.4324201537555,7.9703670367037,2163144.8558202,-11676.256377484,2895002.9055471,13.170367036704,0,0
44.210595462355,-6.4338007108084,7.974797479748,2163144.8558202,-11676.256377484,2895002.9055471,13.174797479748,0,0
44.210595691184,-6.4351812678614,7.9792279227923,2163144.8558202,-11676.256377484,2895002.9055471,13.179227922792,0,0
44.210595920013,-6.4365618249143,7.9836583658366,2163144.8558202,-11676.256377484,2895002.9055471,13.183658365837,0,0
44.210596148842,-6.4379423819672,7.9880888088809,2163144.8558202,-11676.256377484,2895002.9055471,13.188088808881,0,0
44.210596377671,-6.4393229390202,7.9925192519252,2163144.8558202,-11676.256377484,2895002.9055471,13.192519251925,0,0
44.2105966065,-6.4407034960731,7.9969496949695,2163144.8558202,-11676.256377484,2895002.9055471,13.196949694969,0,0
44.210596835329,-6.442084053126,8.0013801380138,2163144.8558202,-11676.256377484,2895002.9055471,13.201380138014,0,0
44.210597064157,-6.443464610179,8.0058105810581,2163144.8558202,-11676.256377484,2895002.9055471,13.205810581058,0,0
44.210597292986,-6.4448451672319,8.0102410241024,2163144.8558202,-11676.256377484,2895002.9055471,13.210241024102,0,0
44.210597521815,-6.4462257242848,8.0146714671467,2163144.8558202,-11676.256377484,2895002.9055471,13.214671467147,0,0
44.210597750644,-6.4476062813378,8.019101910191,2163144.8558202,-11676.256377484,2895002.9055471,13.219101910191,0,0
44.210597979473,-6.4489868383907,8.0235323532353,2163144.8558202,-11676.256377484,2895002.9055471,13.223532353235,0,0
44.210598208302,-6.4503673954436,8.0279627962796,2163144.8558202,-11676.256377484,2895002.9055471,13.22796279628,0,0
44.210598437131,-6.4517479524966,8.0323932393239,2163144.8558202,-11676.256377484,2895002.9055471,13.232393239324,0,0
44.21059866596,-6.4531285095495,8.0368236823682,2163144.8558202,-11676.256377484,2895002.9055471,13.236823682368,0,0
44.210598894789,-6.4545090666025,8.0412541254125,2163144.8558202,-11676.256377484,2895002.9055471,13.241254125413,0,0
44.210599123618,-6.4558896236554,8.0456845684568,2163144.8558202,-11676.256377484,2895002.9055471,13.245684568457,0,0
44.210599352447,-6.4572701807083,8.0501150115011,2163144.8558202,-11676.256377484,2895002.9055471,13.250115011501,0,0
44.210599581276,-6.4586507377613,8.0545454545455,2163144.8558202,-11676.256377484,2895002.9055471,13.254545454545,0,0
44.210599810105,-6.4600312948142,8.0589758975898,2163144.8558202,-11676.256377484,2895002.9055471,13.25897589759,0,0
44.210600038934,-6.4614118518671,8.0634063406341,2163144.8558202,-11676.256377484,2895002.9055471,13.263406340634,0,0
44.210600267763,-6.4627924089201,8.0678367836784,2163144.8558202,-11676.256377484,2895002.9055471,13.267836783678,0,0
44.210600496592,-6.464172965973,8.0722672267227,2163144.8558202,-11676.256377484,2895002.9055471,13.272267226723,0,0
44.210600725421,-6.4655535230259,8.076697669767,2163144.8558202,-11676.256377484,2895002.9055471,13.276697669767,0,0
44.21060095425,-6.4669340800789,8.0811281128113,2163144.8558202,-11676.256377484,2895002.9055471,13.281128112811,0,0
44.210601183079,-6.4683146371318,8.0855585558556,2163144.8558202,-11676.256377484,2895002.9055471,13.285558555856,0,0
44.210601411908,-6.4696951941847,8.0899889988999,2163144.8558202,-11676.256377484,2895002.9055471,13.2899889989,0,0
44.210601640737,-6.4710757512377,8.0944194419442,2163144.8558202,-11676.256377484,2895002.9055471,13.294419441944,0,0
44.210601869566,-6.4724563082906,8.0988498849885,2163144.8558202,-11676.256377484,2895002.9055471,13.298849884988,0,0
44.210602098395,-6.4738368653435,8.1032803280328,2163144.8558202,-11676.256377484,2895002.9055471,13.303280328033,0,0
44.210602327224,-6.4752174223965,8.1077107710771,2163144.8558202,-11676.256377484,2895002.9055471,13.307710771077,0,0
44.210602556053,-6.4765979794494,8.1121412141214,2163144.8558202,-11676.256377484,2895002.9055471,13.312141214121,0,0
44.210602784882,-6.4779785365023,8.1165716571657,2163144.8558202,-11676.256377484,2895002.9055471,13.316571657166,0,0
44.210603013711,-6.4793590935553,8.12100210021,2163144.8558202,-11676.256377484,2895002.9055471,13.32100210021,0,0
44.21060324254,-6.4807396506082,8.1254325432543,2163144.8558202,-11676.256377484,2895002.9055471,13.325432543254,0,0
44.210603471369,-6.4821202076611,8.1298629862986,2163144.8558202,-11676.256377484,2895002.9055471,13.329862986299,0,0
44.210603700197,-6.4835007647141,8.1342934293429,2163144.8558202,-11676.256377484,2895002.9055471,13.334293429343,0,0
44.210603929026,-6.484881321767,8.1387238723872,2163144.8558202,-11676.256377484,2895002.9055471,13.338723872387,0,0
44.210604157855,-6.4862618788199,8.1431543154315,2163144.8558202,-11676.256377484,2895002.9055471,13.343154315432,0,0
44.210604386684,-6.4876424358729,8.1475847584758,2163144.8558202,-11676.256377484,2895002.9055471,13.347584758476,0,0
44.210604615513,-6.4890229929258,8.1520152015202,2163144.8558202,-11676.256377484,2895002.9055471,13.35201520152,0,0
44.210604844342,-6.4904035499787,8.1564456445645,2163144.8558202,-11676.256377484,2895002.9055471,13.356445644564,0,0
44.210605073171,-6.4917841070317,8.1608760876088,2163144.8558202,-11676.256377484,2895002.9055471,13.360876087609,0,0
44.210605302,-6.4931646640846,8.1653065306531,2163144.8558202,-11676.256377484,2895002.9055471,13.365306530653,0,0
44.210605530829,-6.4945452211375,8.1697369736974,2163144.8558202,-11676.256377484,2895002.9055471,13.369736973697,0,0
44.210605759658,-6.4959257781905,8.1741674167417,2163144.8558202,-11676.256377484,2895002.9055471,13.374167416742,0,0
44.210605988487,-6.4973063352434,8.178597859786,2163144.8558202,-11676.256377484,2895002.9055471,13.378597859786,0,0
44.210606217316,-6.4986868922964,8.1830283028303,2163144.8558202,-11676.256377484,2895002.9055471,13.38302830283,0,0
44.210606446145,-6.5000674493493,8.1874587458746,2163144.8558202,-11676.256377484,2895002.9055471,13.387458745875,0,0
44.210606674974,-6.5014480064022,8.1918891889189,2163144.8558202,-11676.256377484,2895002.9055471,13.391889188919,0,0
44.210606903803,-6.5028285634552,8.1963196319632,2163144.8558202,-11676.256377484,2895002.9055471,13.396319631963,0,0
44.210607132632,-6.5042091205081,8.2007500750075,2163144.8558202,-11676.256377484,2895002.9055471,13.400750075008,0,0
44.210607361461,-6.505589677561,8.2051805180518,2163144.8558202,-11676.256377484,2895002.9055471,13.405180518052,0,0
44.21060759029,-6.506970234614,8.2096109610961,2163144.8558202,-11676.256377484,2895002.9055471,13.409610961096,0,0
44.210607819119,-6.5083507916669,8.2140414041404,2163144.8558202,-11676.256377484,2895002.9055471,13.41404140414,0,0
44.210608047948,-6.5097313487198,8.2184718471847,2163144.8558202,-11676.256377484,2895002.9055471,13.418471847185,0,0
44.210608276777,-6.5111119057728,8.222902290229,2163144.8558202,-11676.256377484,2895002.9055471,13.422902290229,0,0
44.210608505606,-6.5124924628257,8.2273327332733,2163144.8558202,-11676.256377484,2895002.9055471,13.427332733273,0,0
44.210608734435,-6.5138730198786,8.2317631763176,2163144.8558202,-11676.256377484,2895002.9055471,13.431763176318,0,0
44.210608963264,-6.5152535769316,8.2361936193619,2163144.8558202,-11676.256377484,2895002.9055471,13.436193619362,0,0
44.210609192093,-6.5166341339845,8.2406240624062,2163144.8558202,-11676.256377484,2895002.9055471,13.440624062406,0,0
44.210609420922,-6.5180146910374,8.2450545054505,2163144.8558202,-11676.256377484,2895002.9055471,13.445054505451,0,0
44.210609649751,-6.5193952480904,8.2494849484948,2163144.8558202,-11676.256377484,2895002.9055471,13.449484948495,0,0
44.21060987858,-6.5207758051433,8.2539153915392,2163144.8558202,-11676.256377484,2895002.9055471,13.453915391539,0,0
44.210610107409,-6.5221563621962,8.2583458345835,2163144.8558202,-11676.256377484,2895002.9055471,13.458345834583,0,0
44.210610336238,-6.5235369192492,8.2627762776278,2163144.8558202,-11676.256377484,2895002.9055471,13.462776277628,0,0
44.210610565066,-6.5249174763021,8.2672067206721,2163144.8558202,-11676.256377484,2895002.9055471,13.467206720672,0,0
44.210610793895,-6.526298033355,8.2716371637164,2163144.8558202,-11676.256377484,2895002.9055471,13.471637163716,0,0
44.210611022724,-6.527678590408,8.2760676067607,2163144.8558202,-11676.256377484,2895002.9055471,13.476067606761,0,0
44.210611251553,-6.5290591474609,8.280498049805,2163144.8558202,-11676.256377484,2895002.9055471,13.480498049805,0,0
44.210611480382,-6.5304397045138,8.2849284928493,2163144.8558202,-11676.256377484,2895002.9055471,13.484928492849,0,0
44.210611709211,-6.5318202615668,8.2893589358936,2163144.8558202,-11676.256377484,2895002.9055471,13.489358935894,0,0
44.21061193804,-6.5332008186197,8.2937893789379,2163144.8558202,-11676.256377484,2895002.9055471,13.493789378938,0,0
44.210612166869,-6.5345813756726,8.2982198219822,2163144.8558202,-11676.256377484,2895002.9055471,13.498219821982,0,0
44.210612395698,-6.5359619327256,8.3026502650265,2163144.8558202,-11676.256377484,2895002.9055471,13.502650265027,0,0
44.210612624527,-6.5373424897785,8.3070807080708,2163144.8558202,-11676.256377484,2895002.9055471,13.507080708071,0,0
44.210612853356,-6.5387230468315,8.3115111511151,2163144.8558202,-11676.256377484,2895002.9055471,13.511511151115,0,0
44.210613082185,-6.5401036038844,8.3159415941594,2163144.8558202,-11676.256377484,2895002.9055471,13.515941594159,0,0
44.210613311014,-6.5414841609373,8.3203720372037,2163144.8558202,-11676.256377484,2895002.9055471,13.520372037204,0,0
44.210613539843,-6.5428647179903,8.324802480248,2163144.8558202,-11676.256377484,2895002.9055471,13.524802480248,0,0
44.210613768672,-6.5442452750432,8.3292329232923,2163144.8558202,-11676.256377484,2895002.9055471,13.529232923292,0,0
44.210613997501,-6.5456258320961,8.3336633663366,2163144.8558202,-11676.256377484,2895002.9055471,13.533663366337,0,0
44.21061422633,-6.5470063891491,8.3380938093809,2163144.8558202,-11676.256377484,2895002.9055471,13.538093809381,0,0
44.210614456458,-6.5483869489418,8.3425242524252,2178818.5406228,-25948.979390194,2862223.6849208,13.542524252425,0,0
44.210614687412,-6.5497675104746,8.3469546954695,2178818.5406228,-25948.979390194,2862223.6849208,13.54695469547,0,0
44.210614918797,-6.5511480713765,8.3513851385139,2207929.4454008,-13576.315441881,2847050.4078305,13.551385138514,0,0
44.21061515248,-6.5525286289159,8.3558155815582,2207929.4454008,-13576.315441881,2847050.4078305,13.555815581558,0,0
44.210615386163,-6.5539091864552,8.3602460246025,2207929.4454008,-13576.315441881,2847050.4078305,13.560246024602,0,0
44.210615619846,-6.5552897439945,8.3646764676468,2207929.4454008,-13576.315441881,2847050.4078305,13.564676467647,0,0
44.210615853529,-6.5566703015339,8.3691069106911,2207929.4454008,-13576.315441881,2847050.4078305,13.569106910691,0,0
44.210616087211,-6.5580508590732,8.3735373537354,2207929.4454008,-13576.315441881,2847050.4078305,13.573537353735,0,0
44.210616320894,-6.5594314166126,8.3779677967797,2207929.4454008,-13576.315441881,2847050.4078305,13.57796779678,0,0
44.210616554577,-6.5608119741519,8.382398239824,2207929.4454008,-13576.315441881,2847050.4078305,13.582398239824,0,0
44.21061678826,-6.5621925316913,8.3868286828683,2207929.4454008,-13576.315441881,2847050.4078305,13.586828682868,0,0
44.210617021943,-6.5635730892306,8.3912591259126,2207929.4454008,-13576.315441881,2847050.4078305,13.591259125913,0,0
44.210617255626,-6.5649536467699,8.3956895689569,2207929.4454008,-13576.315441881,2847050.4078305,13.595689568957,0,0
44.210617489309,-6.5663342043093,8.4001200120012,2207929.4454008,-13576.315441881,2847050.4078305,13.600120012001,0,0
44.210617722992,-6.5677147618486,8.4045504550455,2207929.4454008,-13576.315441881,2847050.4078305,13.604550455046,0,0
44.210617956675,-6.569095319388,8.4089808980898,2207929.4454008,-13576.315441881,2847050.4078305,13.60898089809,0,0
44.210618190358,-6.5704758769273,8.4134113411341,2207929.4454008,-13576.315441881,2847050.4078305,13.613411341134,0,0
44.210618424041,-6.5718564344667,8.4178417841784,2207929.4454008,-13576.315441881,2847050.4078305,13.617841784178,0,0
44.210618657724,-6.573236992006,8.4222722272227,2207929.4454008,-13576.315441881,2847050.4078305,13.622272227223,0,0
44.210618891406,-6.5746175495453,8.426702670267,2207929.4454008,-13576.315441881,2847050.4078305,13.626702670267,0,0
44.210619125089,-6.5759981070847,8.4311331133113,2207929.4454008,-13576.315441881,2847050.4078305,13.631133113311,0,0
44.210619358772,-6.577378664624,8.4355635563556,2207929.4454008,-13576.315441881,2847050.4078305,13.635563556356,0,0
44.210619592455,-6.5787592221634,8.4399939993999,2207929.4454008,-13576.315441881,2847050.4078305,13.6399939994,0,0
44.210619826138,-6.5801397797027,8.4444244424442,2207929.4454008,-13576.315441881,2847050.4078305,13.644424442444,0,0
44.210620059821,-6.5815203372421,8.4488548854885,2207929.4454008,-13576.315441881,2847050.4078305,13.648854885489,0,0
44.210620293504,-6.5829008947814,8.4532853285329,2207929.4454008,-13576.315441881,2847050.4078305,13.653285328533,0,0
44.210620527187,-6.5842814523207,8.4577157715772,2207929.4454008,-13576.315441881,2847050.4078305,13.657715771577,0,0
44.21062076087,-6.5856620098601,8.4621462146215,2207929.4454008,-13576.315441881,2847050.4078305,13.662146214621,0,0
44.210620994553,-6.5870425673994,8.4665766576658,2207929.4454008,-13576.315441881,2847050.4078305,13.666576657666,0,0
44.210621228236,-6.5884231249388,8.4710071007101,2207929.4454008,-13576.315441881,2847050.4078305,13.67100710071,0,0
44.210621461919,-6.5898036824781,8.4754375437544,2207929.4454008,-13576.315441881,2847050.4078305,13.675437543754,0,0
44.210621695601,-6.5911842400175,8.4798679867987,2207929.4454008,-13576.315441881,2847050.4078305,13.679867986799,0,0
44.210621929284,-6.5925647975568,8.484298429843,2207929.4454008,-13576.315441881,2847050.4078305,13.684298429843,0,0
44.210622162967,-6.5939453550961,8.4887288728873,2207929.4454008,-13576.315441881,2847050.4078305,13.688728872887,0,0
44.210622396599,-6.5953259126286,8.4931593159316,2199889.0095011,11398.186385065,2835446.1686553,13.693159315932,0,0
44.210622629949,-6.5967064701229,8.4975897589759,2199889.0095011,11398.186385065,2835446.1686553,13.697589758976,0,0
44.210622863299,-6.5980870276172,8.5020202020202,2199889.0095011,11398.186385065,2835446.1686553,13.70202020202,0,0
44.210623096648,-6.5994675851115,8.5064506450645,2199889.0095011,11398.186385065,2835446.1686553,13.706450645065,0,0
44.210623329998,-6.6008481426058,8.5108810881088,2199889.0095011,11398.186385065,2835446.1686553,13.710881088109,0,0
44.210623563347,-6.6022287001001,8.5153115311531,2199889.0095011,11398.186385065,2835446.1686553,13.715311531153,0,0
44.210623796697,-6.6036092575944,8.5197419741974,2199889.0095011,11398.186385065,2835446.1686553,13.719741974197,0,0
44.210624030047,-6.6049898150887,8.5241724172417,2199889.0095011,11398.186385065,2835446.1686553,13.724172417242,0,0
44.210624263396,-6.606370372583,8.528602860286,2199889.0095011,11398.186385065,2835446.1686553,13.728602860286,0,0
44.210624496746,-6.6077509300773,8.5330333033303,2199889.0095011,11398.186385065,2835446.1686553,13.73303330333,0,0
44.210624730096,-6.6091314875716,8.5374637463746,2199889.0095011,11398.186385065,2835446.1686553,13.737463746375,0,0
44.210624963445,-6.6105120450659,8.5418941894189,2199889.0095011,11398.186385065,2835446.1686553,13.741894189419,0,0
44.210625196795,-6.6118926025602,8.5463246324632,2199889.0095011,11398.186385065,2835446.1686553,13.746324632463,0,0
44.210625430145,-6.6132731600545,8.5507550755075,2199889.0095011,11398.186385065,2835446.1686553,13.750755075508,0,0
44.210625663494,-6.6146537175488,8.5551855185519,2199889.0095011,11398.186385065,2835446.1686553,13.755185518552,0,0
44.210625896844,-6.6160342750431,8.5596159615962,2199889.0095011,11398.186385065,2835446.1686553,13.759615961596,0,0
44.210626130194,-6.6174148325374,8.5640464046405,2199889.0095011,11398.186385065,2835446.1686553,13.76404640464,0,0
44.210626363543,-6.6187953900318,8.5684768476848,2199889.0095011,11398.186385065,2835446.1686553,13.768476847685,0,0
44.210626596893,-6.6201759475261,8.5729072907291,2199889.0095011,11398.186385065,2835446.1686553,13.772907290729,0,0
44.210626830243,-6.6215565050204,8.5773377337734,2199889.0095011,11398.186385065,2835446.1686553,13.777337733773,0,0
44.210627063592,-6.6229370625147,8.5817681768177,2199889.0095011,11398.186385065,2835446.1686553,13.781768176818,0,0
44.210627296942,-6.624317620009,8.586198619862,2199889.0095011,11398.186385065,2835446.1686553,13.786198619862,0,0
44.210627530291,-6.6256981775033,8.5906290629063,2199889.0095011,11398.186385065,2835446.1686553,13.790629062906,0,0
44.210627763641,-6.6270787349976,8.5950595059506,2199889.0095011,11398.186385065,2835446.1686553,13.795059505951,0,0
44.210627996991,-6.6284592924919,8.5994899489949,2199889.0095011,11398.186385065,2835446.1686553,13.799489948995,0,0
44.21062823034,-6.6298398499862,8.6039203920392,2199889.0095011,11398.186385065,2835446.1686553,13.803920392039,0,0
44.21062846369,-6.6312204074805,8.6083508350835,2199889.0095011,11398.186385065,2835446.1686553,13.808350835084,0,0
44.21062869704,-6.6326009649748,8.6127812781278,2199889.0095011,11398.186385065,2835446.1686553,13.812781278128,0,0
44.210628930389,-6.6339815224691,8.6172117211721,2199889.0095011,11398.186385065,2835446.1686553,13.817211721172,0,0
44.210629163739,-6.6353620799634,8.6216421642164,2199889.0095011,11398.186385065,2835446.1686553,13.821642164216,0,0
44.210629397089,-6.6367426374577,8.6260726072607,2199889.0095011,11398.186385065,2835446.1686553,13.826072607261,0,0
44.210629630438,-6.638123194952,8.630503050305,2199889.0095011,11398.186385065,2835446.1686553,13.830503050305,0,0
44.210629863788,-6.6395037524463,8.6349334933493,2199889.0095011,11398.186385065,2835446.1686553,13.834933493349,0,0
44.210630097138,-6.6408843099406,8.6393639363936,2199889.0095011,11398.186385065,2835446.1686553,13.839363936394,0,0
44.210630330487,-6.6422648674349,8.6437943794379,2199889.0095011,11398.186385065,2835446.1686553,13.843794379438,0,0
44.210630563837,-6.6436454249292,8.6482248224822,2199889.0095011,11398.186385065,2835446.1686553,13.848224822482,0,0
44.210630797187,-6.6450259824235,8.6526552655266,2199889.0095011,11398.186385065,2835446.1686553,13.852655265527,0,0
44.210631030536,-6.6464065399178,8.6570857085709,2199889.0095011,11398.186385065,2835446.1686553,13.857085708571,0,0
44.210631263886,-6.6477870974121,8.6615161516152,2199889.0095011,11398.186385065,2835446.1686553,13.861516151615,0,0
44.210631497235,-6.6491676549064,8.6659465946595,2199889.0095011,11398.186385065,2835446.1686553,13.865946594659,0,0
44.210631730585,-6.6505482124007,8.6703770377038,2199889.0095011,11398.186385065,2835446.1686553,13.870377037704,0,0
44.210631963935,-6.651928769895,8.6748074807481,2199889.0095011,11398.186385065,2835446.1686553,13.874807480748,0,0
44.210632197284,-6.6533093273893,8.6792379237924,2199889.0095011,11398.186385065,2835446.1686553,13.879237923792,0,0
44.210632430634,-6.6546898848837,8.6836683668367,2199889.0095011,11398.186385065,2835446.1686553,13.883668366837,0,0
44.210632663984,-6.656070442378,8.688098809881,2199889.0095011,11398.186385065,2835446.1686553,13.888098809881,0,0
44.210632897333,-6.6574509998723,8.6925292529253,2199889.0095011,11398.186385065,2835446.1686553,13.892529252925,0,0
44.210633130683,-6.6588315573666,8.6969596959696,2199889.0095011,11398.186385065,2835446.1686553,13.89695969597,0,0
44.210633364033,-6.6602121148609,8.7013901390139,2199889.0095011,11398.186385065,2835446.1686553,13.901390139014,0,0
44.210633597382,-6.6615926723552,8.7058205820582,2199889.0095011,11398.186385065,2835446.1686553,13.905820582058,0,0
44.210633830732,-6.6629732298495,8.7102510251025,2199889.0095011,11398.186385065,2835446.1686553,13.910251025103,0,0
44.210634064082,-6.6643537873438,8.7146814681468,2199889.0095011,11398.186385065,2835446.1686553,13.914681468147,0,0
44.210634297431,-6.6657343448381,8.7191119111911,2199889.0095011,11398.186385065,2835446.1686553,13.919111911191,0,0
44.210634530781,-6.6671149023324,8.7235423542354,2199889.0095011,11398.186385065,2835446.1686553,13.923542354235,0,0
44.210634764131,-6.6684954598267,8.7279727972797,2199889.0095011,11398.186385065,2835446.1686553,13.92797279728,0,0
44.21063499748,-6.669876017321,8.732403240324,2199889.0095011,11398.186385065,2835446.1686553,13.932403240324,0,0
44.21063523083,-6.6712565748153,8.7368336833683,2199889.0095011,11398.186385065,2835446.1686553,13.936833683368,0,0
44.210635464179,-6.6726371323096,8.7412641264126,2199889.0095011,11398.186385065,2835446.1686553,13.941264126413,0,0
44.210635697529,-6.6740176898039,8.7456945694569,2199889.0095011,11398.186385065,2835446.1686553,13.945694569457,0,0
44.210635930879,-6.6753982472982,8.7501250125013,2199889.0095011,11398.186385065,2835446.1686553,13.950125012501,0,0
44.210636164228,-6.6767788047925,8.7545554555456,2199889.0095011,11398.186385065,2835446.1686553,13.954555455546,0,0
44.210636397578,-6.6781593622868,8.7589858985899,2199889.0095011,11398.186385065,2835446.1686553,13.95898589859,0,0
44.210636630928,-6.6795399197811,8.7634163416342,2199889.0095011,11398.186385065,2835446.1686553,13.963416341634,0,0
44.210636864277,-6.6809204772754,8.7678467846785,2199889.0095011,11398.186385065,2835446.1686553,13.967846784678,0,0
44.210637097627,-6.6823010347697,8.7722772277228,2199889.0095011,11398.186385065,2835446.1686553,13.972277227723,0,0
44.210637330977,-6.683681592264,8.7767076707671,2199889.0095011,11398.186385065,2835446.1686553,13.976707670767,0,0
44.210637564326,-6.6850621497583,8.7811381138114,2199889.0095011,11398.186385065,2835446.1686553,13.981138113811,0,0
44.210637797676,-6.6864427072526,8.7855685568557,2199889.0095011,11398.186385065,2835446.1686553,13.985568556856,0,0
44.210638031026,-6.6878232647469,8.7899989999,2199889.0095011,11398.186385065,2835446.1686553,13.9899989999,0,0
44.210638264375,-6.6892038222412,8.7944294429443,2199889.0095011,11398.186385065,2835446.1686553,13.994429442944,0,0
44.210638497725,-6.6905843797355,8.7988598859886,2199889.0095011,11398.186385065,2835446.1686553,13.998859885989,0,0
44.210638731075,-6.6919649372298,8.8032903290329,2199889.0095011,11398.186385065,2835446.1686553,14.003290329033,0,0
44.210638964424,-6.6933454947242,8.8077207720772,2199889.0095011,11398.186385065,2835446.1686553,14.007720772077,0,0
44.210639197774,-6.6947260522185,8.8121512151215,2199889.0095011,11398.186385065,2835446.1686553,14.012151215122,0,0
44.210639431123,-6.6961066097128,8.8165816581658,2199889.0095011,11398.186385065,2835446.1686553,14.016581658166,0,0
44.210639664473,-6.6974871672071,8.8210121012101,2199889.0095011,11398.186385065,2835446.1686553,14.02101210121,0,0
44.210639897823,-6.6988677247014,8.8254425442544,2199889.0095011,11398.186385065,2835446.1686553,14.025442544254,0,0
44.210640131172,-6.7002482821957,8.8298729872987,2199889.0095011,11398.186385065,2835446.1686553,14.029872987299,0,0
44.210640364522,-6.70162883969,8.834303430343,2199889.0095011,11398.186385065,2835446.1686553,14.034303430343,0,0
44.210640597872,-6.7030093971843,8.8387338733873,2199889.0095011,11398.186385065,2835446.1686553,14.038733873387,0,0
44.210640831221,-6.7043899546786,8.8431643164316,2199889.0095011,11398.186385065,2835446.1686553,14.043164316432,0,0
44.210641064571,-6.7057705121729,8.8475947594759,2199889.0095011,11398.186385065,2835446.1686553,14.047594759476,0,0
44.210641297921,-6.7071510696672,8.8520252025203,2199889.0095011,11398.186385065,2835446.1686553,14.05202520252,0,0
44.21064153127,-6.7085316271615,8.8564556455646,2199889.0095011,11398.186385065,2835446.1686553,14.056455645565,0,0
44.21064176462,-6.7099121846558,8.8608860886089,2199889.0095011,11398.186385065,2835446.1686553,14.060886088609,0,0
44.21064199797,-6.7112927421501,8.8653165316532,2199889.0095011,11398.186385065,2835446.1686553,14.065316531653,0,0
44.210642231319,-6.7126732996444,8.8697469746975,2199889.0095011,11398.186385065,2835446.1686553,14.069746974697,0,0
44.210642464669,-6.7140538571387,8.8741774177418,2199889.0095011,11398.186385065,2835446.1686553,14.074177417742,0,0
44.210642698019,-6.715434414633,8.8786078607861,2199889.0095011,11398.186385065,2835446.1686553,14.078607860786,0,0
44.210642931368,-6.7168149721273,8.8830383038304,2199889.0095011,11398.186385065,2835446.1686553,14.08303830383,0,0
44.210643164718,-6.7181955296216,8.8874687468747,2199889.0095011,11398.186385065,2835446.1686553,14.087468746875,0,0
44.210643398067,-6.7195760871159,8.891899189919,2199889.0095011,11398.186385065,2835446.1686553,14.091899189919,0,0
44.210643631417,-6.7209566446102,8.8963296329633,2199889.0095011,11398.186385065,2835446.1686553,14.096329632963,0,0
44.210643864767,-6.7223372021045,8.9007600760076,2199889.0095011,11398.186385065,2835446.1686553,14.100760076008,0,0
44.210644098116,-6.7237177595988,8.9051905190519,2199889.0095011,11398.186385065,2835446.1686553,14.105190519052,0,0
44.210644331466,-6.7250983170931,8.9096209620962,2199889.0095011,11398.186385065,2835446.1686553,14.109620962096,0,0
44.210644564816,-6.7264788745874,8.9140514051405,2199889.0095011,11398.186385065,2835446.1686553,14.114051405141,0,0
44.210644798165,-6.7278594320817,8.9184818481848,2199889.0095011,11398.186385065,2835446.1686553,14.118481848185,0,0
44.210645031515,-6.729239989576,8.9229122912291,2199889.0095011,11398.186385065,2835446.1686553,14.122912291229,0,0
44.210645264865,-6.7306205470704,8.9273427342734,2199889.0095011,11398.186385065,2835446.1686553,14.127342734273,0,0
44.210645498214,-6.7320011045647,8.9317731773177,2199889.0095011,11398.186385065,2835446.1686553,14.131773177318,0,0
44.210645731564,-6.733381662059,8.936203620362,2199889.0095011,11398.186385065,2835446.1686553,14.136203620362,0,0
44.210645964914,-6.7347622195533,8.9406340634063,2199889.0095011,11398.186385065,2835446.1686553,14.140634063406,0,0
44.210646198263,-6.7361427770476,8.9450645064506,2199889.0095011,11398.186385065,2835446.1686553,14.145064506451,0,0
44.210646431613,-6.7375233345419,8.9494949494949,2199889.0095011,11398.186385065,2835446.1686553,14.149494949495,0,0
44.210646664963,-6.7389038920362,8.9539253925393,2199889.0095011,11398.186385065,2835446.1686553,14.153925392539,0,0
44.210646898312,-6.7402844495305,8.9583558355836,2199889.0095011,11398.186385065,2835446.1686553,14.158355835584,0,0
44.210647131662,-6.7416650070248,8.9627862786279,2199889.0095011,11398.186385065,2835446.1686553,14.162786278628,0,0
44.210647365012,-6.7430455645191,8.9672167216722,2199889.0095011,11398.186385065,2835446.1686553,14.167216721672,0,0
44.210647598361,-6.7444261220134,8.9716471647165,2199889.0095011,11398.186385065,2835446.1686553,14.171647164716,0,0
44.210647831711,-6.7458066795077,8.9760776077608,2199889.0095011,11398.186385065,2835446.1686553,14.176077607761,0,0
44.21064806506,-6.747187237002,8.9805080508051,2199889.0095011,11398.186385065,2835446.1686553,14.180508050805,0,0
44.21064829841,-6.7485677944963,8.9849384938494,2199889.0095011,11398.186385065,2835446.1686553,14.184938493849,0,0
44.21064853176,-6.7499483519906,8.9893689368937,2199889.0095011,11398.186385065,2835446.1686553,14.189368936894,0,0
44.210648765109,-6.7513289094849,8.993799379938,2199889.0095011,11398.186385065,2835446.1686553,14.193799379938,0,0
44.210648998459,-6.7527094669792,8.9982298229823,2199889.0095011,11398.186385065,2835446.1686553,14.198229822982,0,0
44.210649231809,-6.7540900244735,9.0026602660266,2199889.0095011,11398.186385065,2835446.1686553,14.202660266027,0,0
44.210649465158,-6.7554705819678,9.0070907090709,2199889.0095011,11398.186385065,2835446.1686553,14.207090709071,0,0
44.210649698508,-6.7568511394621,9.0115211521152,2199889.0095011,11398.186385065,2835446.1686553,14.211521152115,0,0
44.210649931858,-6.7582316969564,9.0159515951595,2199889.0095011,11398.186385065,2835446.1686553,14.21595159516,0,0
44.210650165207,-6.7596122544507,9.0203820382038,2199889.0095011,11398.186385065,2835446.1686553,14.220382038204,0,0
44.210650398557,-6.760992811945,9.0248124812481,2199889.0095011,11398.186385065,2835446.1686553,14.224812481248,0,0
44.210650631907,-6.7623733694393,9.0292429242924,2199889.0095011,11398.186385065,2835446.1686553,14.229242924292,0,0
44.210650865256,-6.7637539269336,9.0336733673367,2199889.0095011,11398.186385065,2835446.1686553,14.233673367337,0,0
44.210651098606,-6.7651344844279,9.038103810381,2199889.0095011,11398.186385065,2835446.1686553,14.238103810381,0,0
44.210651331956,-6.7665150419222,9.0425342534253,2199889.0095011,11398.186385065,2835446.1686553,14.242534253425,0,0
44.210651565305,-6.7678955994166,9.0469646964696,2199889.0095011,11398.186385065,2835446.1686553,14.24696469647,0,0
44.210651798655,-6.7692761569109,9.051395139514,2199889.0095011,11398.186385065,2835446.1686553,14.251395139514,0,0
44.210652032004,-6.7706567144052,9.0558255825583,2199889.0095011,11398.186385065,2835446.1686553,14.255825582558,0,0
44.210652265354,-6.7720372718995,9.0602560256026,2199889.0095011,11398.186385065,2835446.1686553,14.260256025603,0,0
44.210652498704,-6.7734178293938,9.0646864686469,2199889.0095011,11398.186385065,2835446.1686553,14.264686468647,0,0
44.210652732053,-6.7747983868881,9.0691169116912,2199889.0095011,11398.186385065,2835446.1686553,14.269116911691,0,0
44.210652965403,-6.7761789443824,9.0735473547355,2199889.0095011,11398.186385065,2835446.1686553,14.273547354735,0,0
44.210653198753,-6.7775595018767,9.0779777977798,2199889.0095011,11398.186385065,2835446.1686553,14.27797779778,0,0
44.210653432102,-6.778940059371,9.0824082408241,2199889.0095011,11398.186385065,2835446.1686553,14.282408240824,0,0
44.210653665452,-6.7803206168653,9.0868386838684,2199889.0095011,11398.186385065,2835446.1686553,14.286838683868,0,0
44.210653898802,-6.7817011743596,9.0912691269127,2199889.0095011,11398.186385065,2835446.1686553,14.291269126913,0,0
44.210654132151,-6.7830817318539,9.095699569957,2199889.0095011,11398.186385065,2835446.1686553,14.295699569957,0,0
44.210654365501,-6.7844622893482,9.1001300130013,2199889.0095011,11398.186385065,2835446.1686553,14.300130013001,0,0
44.210654598851,-6.7858428468425,9.1045604560456,2199889.0095011,11398.186385065,2835446.1686553,14.304560456046,0,0
44.2106548322,-6.7872234043368,9.1089908990899,2199889.0095011,11398.186385065,2835446.1686553,14.30899089909,0,0
44.21065506555,-6.7886039618311,9.1134213421342,2199889.0095011,11398.186385065,2835446.1686553,14.313421342134,0,0
44.2106552989,-6.7899845193254,9.1178517851785,2199889.0095011,11398.186385065,2835446.1686553,14.317851785179,0,0
44.210655532249,-6.7913650768197,9.1222822282228,2199889.0095011,11398.186385065,2835446.1686553,14.322282228223,0,0
44.210655765599,-6.792745634314,9.1267126712671,2199889.0095011,11398.186385065,2835446.1686553,14.326712671267,0,0
44.210655998948,-6.7941261918083,9.1311431143114,2199889.0095011,11398.186385065,2835446.1686553,14.331143114311,0,0
44.210656232298,-6.7955067493026,9.1355735573557,2199889.0095011,11398.186385065,2835446.1686553,14.335573557356,0,0
44.210656465648,-6.7968873067969,9.1400040004,2199889.0095011,11398.186385065,2835446.1686553,14.3400040004,0,0
44.210656698997,-6.7982678642912,9.1444344434443,2199889.0095011,11398.186385065,2835446.1686553,14.344434443444,0,0
44.210656932347,-6.7996484217855,9.1488648864886,2199889.0095011,11398.186385065,2835446.1686553,14.348864886489,0,0
44.210657165697,-6.8010289792798,9.153295329533,2199889.0095011,11398.186385065,2835446.1686553,14.353295329533,0,0
44.210657399046,-6.8024095367741,9.1577257725773,2199889.0095011,11398.186385065,2835446.1686553,14.357725772577,0,0
44.210657632396,-6.8037900942684,9.1621562156216,2199889.0095011,11398.186385065,2835446.1686553,14.362156215622,0,0
44.210657865746,-6.8051706517628,9.1665866586659,2199889.0095011,11398.186385065,2835446.1686553,14.366586658666,0,0
44.210658099095,-6.8065512092571,9.1710171017102,2199889.0095011,11398.186385065,2835446.1686553,14.37101710171,0,0
44.210658332445,-6.8079317667514,9.1754475447545,2199889.0095011,11398.186385065,2835446.1686553,14.375447544754,0,0
44.210658565795,-6.8093123242457,9.1798779877988,2199889.0095011,11398.186385065,2835446.1686553,14.379877987799,0,0
44.210658799144,-6.81069288174,9.1843084308431,2199889.0095011,11398.186385065,2835446.1686553,14.384308430843,0,0
44.210659032494,-6.8120734392343,9.1887388738874,2199889.0095011,11398.186385065,2835446.1686553,14.388738873887,0,0
44.210659265844,-6.8134539967286,9.1931693169317,2199889.0095011,11398.186385065,2835446.1686553,14.393169316932,0,0
44.210659499193,-6.8148345542229,9.197599759976,2199889.0095011,11398.186385065,2835446.1686553,14.397599759976,0,0
44.210659732543,-6.8162151117172,9.2020302030203,2199889.0095011,11398.186385065,2835446.1686553,14.40203020302,0,0
44.210659965892,-6.8175956692115,9.2064606460646,2199889.0095011,11398.186385065,2835446.1686553,14.406460646065,0,0
44.210660199242,-6.8189762267058,9.2108910891089,2199889.0095011,11398.186385065,2835446.1686553,14.410891089109,0,0
44.210660432592,-6.8203567842001,9.2153215321532,2199889.0095011,11398.186385065,2835446.1686553,14.415321532153,0,0
44.210660665941,-6.8217373416944,9.2197519751975,2199889.0095011,11398.186385065,2835446.1686553,14.419751975198,0,0
44.210660899291,-6.8231178991887,9.2241824182418,2199889.0095011,11398.186385065,2835446.1686553,14.424182418242,0,0
44.210661132641,-6.824498456683,9.2286128612861,2199889.0095011,11398.186385065,2835446.1686553,14.428612861286,0,0
44.21066136599,-6.8258790141773,9.2330433043304,2199889.0095011,11398.186385065,2835446.1686553,14.43304330433,0,0
44.21066159934,-6.8272595716716,9.2374737473747,2199889.0095011,11398.186385065,2835446.1686553,14.437473747375,0,0
44.21066183269,-6.8286401291659,9.241904190419,2199889.0095011,11398.186385065,2835446.1686553,14.441904190419,0,0
44.210662066039,-6.8300206866602,9.2463346334633,2199889.0095011,11398.186385065,2835446.1686553,14.446334633463,0,0
44.210662299389,-6.8314012441545,9.2507650765077,2199889.0095011,11398.186385065,2835446.1686553,14.450765076508,0,0
44.210662532739,-6.8327818016488,9.255195519552,2199889.0095011,11398.186385065,2835446.1686553,14.455195519552,0,0
44.210662766088,-6.8341623591431,9.2596259625963,2199889.0095011,11398.186385065,2835446.1686553,14.459625962596,0,0
44.210663001698,-6.8355429143147,9.2640564056406,2236954.4300992,19156.637867752,2826903.25537,14.464056405641,0,0
44.210663238236,-6.8369234685323,9.2684868486849,2236954.4300992,19156.637867752,2826903.25537,14.468486848685,0,0
44.210663474773,-6.83830402275,9.2729172917292,2236954.4300992,19156.637867752,2826903.25537,14.472917291729,0,0
44.210663711311,-6.8396845769676,9.2773477347735,2236954.4300992,19156.637867752,2826903.25537,14.477347734773,0,0
44.210663947849,-6.8410651311852,9.2817781778178,2236954.4300992,19156.637867752,2826903.25537,14.481778177818,0,0
44.210664184386,-6.8424456854028,9.2862086208621,2236954.4300992,19156.637867752,2826903.25537,14.486208620862,0,0
44.210664420924,-6.8438262396204,9.2906390639064,2236954.4300992,19156.637867752,2826903.25537,14.490639063906,0,0
44.210664657462,-6.8452067938381,9.2950695069507,2236954.4300992,19156.637867752,2826903.25537,14.495069506951,0,0
44.210664894,-6.8465873480557,9.299499949995,2236954.4300992,19156.637867752,2826903.25537,14.499499949995,0,0
44.210665130537,-6.8479679022733,9.3039303930393,2236954.4300992,19156.637867752,2826903.25537,14.503930393039,0,0
44.210665367075,-6.8493484564909,9.3083608360836,2236954.4300992,19156.637867752,2826903.25537,14.508360836084,0,0
44.210665603613,-6.8507290107086,9.3127912791279,2236954.4300992,19156.637867752,2826903.25537,14.512791279128,0,0
44.210665840151,-6.8521095649262,9.3172217221722,2236954.4300992,19156.637867752,2826903.25537,14.517221722172,0,0
44.210666076688,-6.8534901191438,9.3216521652165,2236954.4300992,19156.637867752,2826903.25537,14.521652165217,0,0
44.210666313676,-6.8548706748447,9.3260826082608,2239474.6833959,6983.5630017678,2796194.0374473,14.526082608261,0,0
44.210666551233,-6.8562512324199,9.3305130513051,2239474.6833959,6983.5630017678,2796194.0374473,14.530513051305,0,0
44.21066678879,-6.8576317899952,9.3349434943494,2239474.6833959,6983.5630017678,2796194.0374473,14.534943494349,0,0
44.210667026346,-6.8590123475705,9.3393739373937,2239474.6833959,6983.5630017678,2796194.0374473,14.539373937394,0,0
44.210667263903,-6.8603929051457,9.343804380438,2239474.6833959,6983.5630017678,2796194.0374473,14.543804380438,0,0
44.21066750146,-6.861773462721,9.3482348234823,2239474.6833959,6983.5630017678,2796194.0374473,14.548234823482,0,0
44.210667739016,-6.8631540202963,9.3526652665267,2239474.6833959,6983.5630017678,2796194.0374473,14.552665266527,0,0
44.210667976573,-6.8645345778715,9.357095709571,2239474.6833959,6983.5630017678,2796194.0374473,14.557095709571,0,0
44.21066821413,-6.8659151354468,9.3615261526153,2239474.6833959,6983.5630017678,2796194.0374473,14.561526152615,0,0
44.210668451686,-6.8672956930221,9.3659565956596,2239474.6833959,6983.5630017678,2796194.0374473,14.56595659566,0,0
44.210668689243,-6.8686762505973,9.3703870387039,2239474.6833959,6983.5630017678,2796194.0374473,14.570387038704,0,0
44.2106689268,-6.8700568081726,9.3748174817482,2239474.6833959,6983.5630017678,2796194.0374473,14.574817481748,0,0
44.210669164356,-6.8714373657479,9.3792479247925,2239474.6833959,6983.5630017678,2796194.0374473,14.579247924792,0,0
44.210669401913,-6.8728179233231,9.3836783678368,2239474.6833959,6983.5630017678,2796194.0374473,14.583678367837,0,0
44.21066963947,-6.8741984808984,9.3881088108811,2239474.6833959,6983.5630017678,2796194.0374473,14.588108810881,0,0
44.210669877026,-6.8755790384737,9.3925392539254,2239474.6833959,6983.5630017678,2796194.0374473,14.592539253925,0,0
44.210670114583,-6.8769595960489,9.3969696969697,2239474.6833959,6983.5630017678,2796194.0374473,14.59696969697,0,0
44.21067035214,-6.8783401536242,9.401400140014,2239474.6833959,6983.5630017678,2796194.0374473,14.601400140014,0,0
44.210670589696,-6.8797207111995,9.4058305830583,2239474.6833959,6983.5630017678,2796194.0374473,14.605830583058,0,0
44.210670827253,-6.8811012687747,9.4102610261026,2239474.6833959,6983.5630017678,2796194.0374473,14.610261026103,0,0
44.21067106481,-6.88248182635,9.4146914691469,2239474.6833959,6983.5630017678,2796194.0374473,14.614691469147,0,0
44.210671302367,-6.8838623839253,9.4191219121912,2239474.6833959,6983.5630017678,2796194.0374473,14.619121912191,0,0
44.210671539923,-6.8852429415005,9.4235523552355,2239474.6833959,6983.5630017678,2796194.0374473,14.623552355236,0,0
44.21067177748,-6.8866234990758,9.4279827982798,2239474.6833959,6983.5630017678,2796194.0374473,14.62798279828,0,0
44.210672015037,-6.8880040566511,9.4324132413241,2239474.6833959,6983.5630017678,2796194.0374473,14.632413241324,0,0
44.210672252593,-6.8893846142263,9.4368436843684,2239474.6833959,6983.5630017678,2796194.0374473,14.636843684368,0,0
44.21067249015,-6.8907651718016,9.4412741274127,2239474.6833959,6983.5630017678,2796194.0374473,14.641274127413,0,0
44.210672727707,-6.8921457293769,9.445704570457,2239474.6833959,6983.5630017678,2796194.0374473,14.645704570457,0,0
44.210672965263,-6.8935262869521,9.4501350135013,2239474.6833959,6983.5630017678,2796194.0374473,14.650135013501,0,0
44.21067320282,-6.8949068445274,9.4545654565457,2239474.6833959,6983.5630017678,2796194.0374473,14.654565456546,0,0
44.210673440377,-6.8962874021027,9.45899589959,2239474.6833959,6983.5630017678,2796194.0374473,14.65899589959,0,0
44.210673677933,-6.8976679596779,9.4634263426343,2239474.6833959,6983.5630017678,2796194.0374473,14.663426342634,0,0
44.21067391549,-6.8990485172532,9.4678567856786,2239474.6833959,6983.5630017678,2796194.0374473,14.667856785679,0,0
44.210674153047,-6.9004290748285,9.4722872287229,2239474.6833959,6983.5630017678,2796194.0374473,14.672287228723,0,0
44.210674390603,-6.9018096324037,9.4767176717672,2239474.6833959,6983.5630017678,2796194.0374473,14.676717671767,0,0
44.21067462816,-6.903190189979,9.4811481148115,2239474.6833959,6983.5630017678,2796194.0374473,14.681148114811,0,0
44.210674865717,-6.9045707475543,9.4855785578558,2239474.6833959,6983.5630017678,2796194.0374473,14.685578557856,0,0
44.210675103273,-6.9059513051295,9.4900090009001,2239474.6833959,6983.5630017678,2796194.0374473,14.6900090009,0,0
44.21067534083,-6.9073318627048,9.4944394439444,2239474.6833959,6983.5630017678,2796194.0374473,14.694439443944,0,0
44.210675578387,-6.9087124202801,9.4988698869887,2239474.6833959,6983.5630017678,2796194.0374473,14.698869886989,0,0
44.210675815943,-6.9100929778553,9.503300330033,2239474.6833959,6983.5630017678,2796194.0374473,14.703300330033,0,0
44.2106760535,-6.9114735354306,9.5077307730773,2239474.6833959,6983.5630017678,2796194.0374473,14.707730773077,0,0
44.210676291057,-6.9128540930059,9.5121612161216,2239474.6833959,6983.5630017678,2796194.0374473,14.712161216122,0,0
44.210676528614,-6.9142346505811,9.5165916591659,2239474.6833959,6983.5630017678,2796194.0374473,14.716591659166,0,0
44.21067676617,-6.9156152081564,9.5210221022102,2239474.6833959,6983.5630017678,2796194.0374473,14.72102210221,0,0
44.210677003727,-6.9169957657317,9.5254525452545,2239474.6833959,6983.5630017678,2796194.0374473,14.725452545255,0,0
44.210677241284,-6.918376323307,9.5298829882988,2239474.6833959,6983.5630017678,2796194.0374473,14.729882988299,0,0
44.21067747884,-6.9197568808822,9.5343134313431,2239474.6833959,6983.5630017678,2796194.0374473,14.734313431343,0,0
44.210677716397,-6.9211374384575,9.5387438743874,2239474.6833959,6983.5630017678,2796194.0374473,14.738743874387,0,0
44.210677953954,-6.9225179960328,9.5431743174317,2239474.6833959,6983.5630017678,2796194.0374473,14.743174317432,0,0
44.21067819151,-6.923898553608,9.547604760476,2239474.6833959,6983.5630017678,2796194.0374473,14.747604760476,0,0
44.210678429067,-6.9252791111833,9.5520352035204,2239474.6833959,6983.5630017678,2796194.0374473,14.75203520352,0,0
44.210678666624,-6.9266596687586,9.5564656465647,2239474.6833959,6983.5630017678,2796194.0374473,14.756465646565,0,0
44.21067890418,-6.9280402263338,9.560896089609,2239474.6833959,6983.5630017678,2796194.0374473,14.760896089609,0,0
44.210679141737,-6.9294207839091,9.5653265326533,2239474.6833959,6983.5630017678,2796194.0374473,14.765326532653,0,0
44.210679379294,-6.9308013414844,9.5697569756976,2239474.6833959,6983.5630017678,2796194.0374473,14.769756975698,0,0
44.21067961685,-6.9321818990596,9.5741874187419,2239474.6833959,6983.5630017678,2796194.0374473,14.774187418742,0,0
44.210679854407,-6.9335624566349,9.5786178617862,2239474.6833959,6983.5630017678,2796194.0374473,14.778617861786,0,0
44.210680091964,-6.9349430142102,9.5830483048305,2239474.6833959,6983.5630017678,2796194.0374473,14.78304830483,0,0
44.21068032952,-6.9363235717854,9.5874787478748,2239474.6833959,6983.5630017678,2796194.0374473,14.787478747875,0,0
44.210680567077,-6.9377041293607,9.5919091909191,2239474.6833959,6983.5630017678,2796194.0374473,14.791909190919,0,0
44.210680804634,-6.939084686936,9.5963396339634,2239474.6833959,6983.5630017678,2796194.0374473,14.796339633963,0,0
44.210681042191,-6.9404652445112,9.6007700770077,2239474.6833959,6983.5630017678,2796194.0374473,14.800770077008,0,0
44.210681279747,-6.9418458020865,9.605200520052,2239474.6833959,6983.5630017678,2796194.0374473,14.805200520052,0,0
44.210681517304,-6.9432263596618,9.6096309630963,2239474.6833959,6983.5630017678,2796194.0374473,14.809630963096,0,0
44.210681754861,-6.944606917237,9.6140614061406,2239474.6833959,6983.5630017678,2796194.0374473,14.814061406141,0,0
44.210681992417,-6.9459874748123,9.6184918491849,2239474.6833959,6983.5630017678,2796194.0374473,14.818491849185,0,0
44.210682229974,-6.9473680323876,9.6229222922292,2239474.6833959,6983.5630017678,2796194.0374473,14.822922292229,0,0
44.210682467531,-6.9487485899628,9.6273527352735,2239474.6833959,6983.5630017678,2796194.0374473,14.827352735274,0,0
44.210682705087,-6.9501291475381,9.6317831783178,2239474.6833959,6983.5630017678,2796194.0374473,14.831783178318,0,0
44.210682942644,-6.9515097051134,9.6362136213621,2239474.6833959,6983.5630017678,2796194.0374473,14.836213621362,0,0
44.210683180201,-6.9528902626886,9.6406440644064,2239474.6833959,6983.5630017678,2796194.0374473,14.840644064406,0,0
44.210683417757,-6.9542708202639,9.6450745074507,2239474.6833959,6983.5630017678,2796194.0374473,14.845074507451,0,0
44.210683655314,-6.9556513778392,9.6495049504951,2239474.6833959,6983.5630017678,2796194.0374473,14.849504950495,0,0
44.210683892871,-6.9570319354144,9.6539353935394,2239474.6833959,6983.5630017678,2796194.0374473,14.853935393539,0,0
44.210684130427,-6.9584124929897,9.6583658365837,2239474.6833959,6983.5630017678,2796194.0374473,14.858365836584,0,0
44.210684367984,-6.959793050565,9.662796279628,2239474.6833959,6983.5630017678,2796194.0374473,14.862796279628,0,0
44.210684605541,-6.9611736081402,9.6672267226723,2239474.6833959,6983.5630017678,2796194.0374473,14.867226722672,0,0
44.210684843097,-6.9625541657155,9.6716571657166,2239474.6833959,6983.5630017678,2796194.0374473,14.871657165717,0,0
44.210685080654,-6.9639347232908,9.6760876087609,2239474.6833959,6983.5630017678,2796194.0374473,14.876087608761,0,0
44.210685318211,-6.965315280866,9.6805180518052,2239474.6833959,6983.5630017678,2796194.0374473,14.880518051805,0,0
44.210685555767,-6.9666958384413,9.6849484948495,2239474.6833959,6983.5630017678,2796194.0374473,14.884948494849,0,0
44.210685793324,-6.9680763960166,9.6893789378938,2239474.6833959,6983.5630017678,2796194.0374473,14.889378937894,0,0
44.210686030881,-6.9694569535918,9.6938093809381,2239474.6833959,6983.5630017678,2796194.0374473,14.893809380938,0,0
44.210686268438,-6.9708375111671,9.6982398239824,2239474.6833959,6983.5630017678,2796194.0374473,14.898239823982,0,0
44.210686505994,-6.9722180687424,9.7026702670267,2239474.6833959,6983.5630017678,2796194.0374473,14.902670267027,0,0
44.210686743551,-6.9735986263176,9.707100710071,2239474.6833959,6983.5630017678,2796194.0374473,14.907100710071,0,0
44.210686981108,-6.9749791838929,9.7115311531153,2239474.6833959,6983.5630017678,2796194.0374473,14.911531153115,0,0
44.210687218664,-6.9763597414682,9.7159615961596,2239474.6833959,6983.5630017678,2796194.0374473,14.91596159616,0,0
44.210687456221,-6.9777402990434,9.7203920392039,2239474.6833959,6983.5630017678,2796194.0374473,14.920392039204,0,0
44.210687693778,-6.9791208566187,9.7248224822482,2239474.6833959,6983.5630017678,2796194.0374473,14.924822482248,0,0
44.210687931334,-6.980501414194,9.7292529252925,2239474.6833959,6983.5630017678,2796194.0374473,14.929252925293,0,0
44.210688168891,-6.9818819717692,9.7336833683368,2239474.6833959,6983.5630017678,2796194.0374473,14.933683368337,0,0
44.210688406448,-6.9832625293445,9.7381138113811,2239474.6833959,6983.5630017678,2796194.0374473,14.938113811381,0,0
44.210688644004,-6.9846430869198,9.7425442544254,2239474.6833959,6983.5630017678,2796194.0374473,14.942544254425,0,0
44.210688881561,-6.986023644495,9.7469746974697,2239474.6833959,6983.5630017678,2796194.0374473,14.94697469747,0,0
44.210689119118,-6.9874042020703,9.7514051405141,2239474.6833959,6983.5630017678,2796194.0374473,14.951405140514,0,0
44.210689356674,-6.9887847596456,9.7558355835584,2239474.6833959,6983.5630017678,2796194.0374473,14.955835583558,0,0
44.210689594231,-6.9901653172208,9.7602660266027,2239474.6833959,6983.5630017678,2796194.0374473,14.960266026603,0,0
44.210689831788,-6.9915458747961,9.764696469647,2239474.6833959,6983.5630017678,2796194.0374473,14.964696469647,0,0
44.210690069344,-6.9929264323714,9.7691269126913,2239474.6833959,6983.5630017678,2796194.0374473,14.969126912691,0,0
44.210690306901,-6.9943069899466,9.7735573557356,2239474.6833959,6983.5630017678,2796194.0374473,14.973557355736,0,0
44.210690544458,-6.9956875475219,9.7779877987799,2239474.6833959,6983.5630017678,2796194.0374473,14.97798779878,0,0
44.210690782014,-6.9970681050972,9.7824182418242,2239474.6833959,6983.5630017678,2796194.0374473,14.982418241824,0,0
44.210691019571,-6.9984486626724,9.7868486848685,2239474.6833959,6983.5630017678,2796194.0374473,14.986848684868,0,0
44.210691257128,-6.9998292202477,9.7912791279128,2239474.6833959,6983.5630017678,2796194.0374473,14.991279127913,0,0
44.210691494685,-7.001209777823,9.7957095709571,2239474.6833959,6983.5630017678,2796194.0374473,14.995709570957,0,0
44.210691732241,-7.0025903353982,9.8001400140014,2239474.6833959,6983.5630017678,2796194.0374473,15.000140014001,0,0
44.210691969798,-7.0039708929735,9.8045704570457,2239474.6833959,6983.5630017678,2796194.0374473,15.004570457046,0,0
44.210692207355,-7.0053514505488,9.80900090009,2239474.6833959,6983.5630017678,2796194.0374473,15.00900090009,0,0
44.210692444911,-7.0067320081241,9.8134313431343,2239474.6833959,6983.5630017678,2796194.0374473,15.013431343134,0,0
44.210692682468,-7.0081125656993,9.8178617861786,2239474.6833959,6983.5630017678,2796194.0374473,15.017861786179,0,0
44.210692920025,-7.0094931232746,9.8222922292229,2239474.6833959,6983.5630017678,2796194.0374473,15.022292229223,0,0
44.210693157581,-7.0108736808499,9.8267226722672,2239474.6833959,6983.5630017678,2796194.0374473,15.026722672267,0,0
44.210693395138,-7.0122542384251,9.8311531153115,2239474.6833959,6983.5630017678,2796194.0374473,15.031153115312,0,0
44.210693632695,-7.0136347960004,9.8355835583558,2239474.6833959,6983.5630017678,2796194.0374473,15.035583558356,0,0
44.210693870251,-7.0150153535757,9.8400140014001,2239474.6833959,6983.5630017678,2796194.0374473,15.0400140014,0,0
44.210694107808,-7.0163959111509,9.8444444444444,2239474.6833959,6983.5630017678,2796194.0374473,15.044444444444,0,0
44.210694345365,-7.0177764687262,9.8488748874887,2239474.6833959,6983.5630017678,2796194.0374473,15.048874887489,0,0
44.210694582921,-7.0191570263015,9.8533053305331,2239474.6833959,6983.5630017678,2796194.0374473,15.053305330533,0,0
44.210694820478,-7.0205375838767,9.8577357735774,2239474.6833959,6983.5630017678,2796194.0374473,15.057735773577,0,0
44.210695058035,-7.021918141452,9.8621662166217,2239474.6833959,6983.5630017678,2796194.0374473,15.062166216622,0,0
44.210695295591,-7.0232986990273,9.866596659666,2239474.6833959,6983.5630017678,2796194.0374473,15.066596659666,0,0
44.210695533148,-7.0246792566025,9.8710271027103,2239474.6833959,6983.5630017678,2796194.0374473,15.07102710271,0,0
44.210695770705,-7.0260598141778,9.8754575457546,2239474.6833959,6983.5630017678,2796194.0374473,15.075457545755,0,0
44.210696008261,-7.0274403717531,9.8798879887989,2239474.6833959,6983.5630017678,2796194.0374473,15.079887988799,0,0
44.210696245818,-7.0288209293283,9.8843184318432,2239474.6833959,6983.5630017678,2796194.0374473,15.084318431843,0,0
44.210696483375,-7.0302014869036,9.8887488748875,2239474.6833959,6983.5630017678,2796194.0374473,15.088748874887,0,0
44.210696720932,-7.0315820444789,9.8931793179318,2239474.6833959,6983.5630017678,2796194.0374473,15.093179317932,0,0
44.210696958488,-7.0329626020541,9.8976097609761,2239474.6833959,6983.5630017678,2796194.0374473,15.097609760976,0,0
44.210697196045,-7.0343431596294,9.9020402040204,2239474.6833959,6983.5630017678,2796194.0374473,15.10204020402,0,0
44.210697433602,-7.0357237172047,9.9064706470647,2239474.6833959,6983.5630017678,2796194.0374473,15.106470647065,0,0
44.210697671158,-7.0371042747799,9.910901090109,2239474.6833959,6983.5630017678,2796194.0374473,15.110901090109,0,0
44.210697908715,-7.0384848323552,9.9153315331533,2239474.6833959,6983.5630017678,2796194.0374473,15.115331533153,0,0
44.210698146272,-7.0398653899305,9.9197619761976,2239474.6833959,6983.5630017678,2796194.0374473,15.119761976198,0,0
44.210698383828,-7.0412459475057,9.9241924192419,2239474.6833959,6983.5630017678,2796194.0374473,15.124192419242,0,0
44.210698621385,-7.042626505081,9.9286228622862,2239474.6833959,6983.5630017678,2796194.0374473,15.128622862286,0,0
44.210698858942,-7.0440070626563,9.9330533053305,2239474.6833959,6983.5630017678,2796194.0374473,15.133053305331,0,0
44.210699096498,-7.0453876202315,9.9374837483748,2239474.6833959,6983.5630017678,2796194.0374473,15.137483748375,0,0
44.210699334055,-7.0467681778068,9.9419141914191,2239474.6833959,6983.5630017678,2796194.0374473,15.141914191419,0,0
44.210699571612,-7.0481487353821,9.9463446344634,2239474.6833959,6983.5630017678,2796194.0374473,15.146344634463,0,0
44.210699809168,-7.0495292929573,9.9507750775077,2239474.6833959,6983.5630017678,2796194.0374473,15.150775077508,0,0
44.210700046725,-7.0509098505326,9.9552055205521,2239474.6833959,6983.5630017678,2796194.0374473,15.155205520552,0,0
44.210700284282,-7.0522904081079,9.9596359635964,2239474.6833959,6983.5630017678,2796194.0374473,15.159635963596,0,0
44.210700521838,-7.0536709656831,9.9640664066407,2239474.6833959,6983.5630017678,2796194.0374473,15.164066406641,0,0
44.210700759395,-7.0550515232584,9.968496849685,2239474.6833959,6983.5630017678,2796194.0374473,15.168496849685,0,0
44.210700996952,-7.0564320808337,9.9729272927293,2239474.6833959,6983.5630017678,2796194.0374473,15.172927292729,0,0
44.210701234508,-7.0578126384089,9.9773577357736,2239474.6833959,6983.5630017678,2796194.0374473,15.177357735774,0,0
44.210701472065,-7.0591931959842,9.9817881788179,2239474.6833959,6983.5630017678,2796194.0374473,15.181788178818,0,0
44.210701709622,-7.0605737535595,9.9862186218622,2239474.6833959,6983.5630017678,2796194.0374473,15.186218621862,0,0
44.210701947179,-7.0619543111347,9.9906490649065,2239474.6833959,6983.5630017678,2796194.0374473,15.190649064906,0,0
44.210702184735,-7.06333486871,9.9950795079508,2239474.6833959,6983.5630017678,2796194.0374473,15.195079507951,0,0
44.210702422292,-7.0647154262853,9.9995099509951,2239474.6833959,6983.5630017678,2796194.0374473,15.199509950995,0,0
44.210702659849,-7.0660959838605,10.003940394039,2239474.6833959,6983.5630017678,2796194.0374473,15.203940394039,0,0
44.210702897405,-7.0674765414358,10.008370837084,2239474.6833959,6983.5630017678,2796194.0374473,15.208370837084,0,0
44.210703134962,-7.0688570990111,10.012801280128,2239474.6833959,6983.5630017678,2796194.0374473,15.212801280128,0,0
44.210703372519,-7.0702376565863,10.017231723172,2239474.6833959,6983.5630017678,2796194.0374473,15.217231723172,0,0
44.210703610075,-7.0716182141616,10.021662166217,2239474.6833959,6983.5630017678,2796194.0374473,15.221662166217,0,0
44.210703847632,-7.0729987717369,10.026092609261,2239474.6833959,6983.5630017678,2796194.0374473,15.226092609261,0,0
44.210704085189,-7.0743793293121,10.030523052305,2239474.6833959,6983.5630017678,2796194.0374473,15.230523052305,0,0
44.210704322745,-7.0757598868874,10.03495349535,2239474.6833959,6983.5630017678,2796194.0374473,15.23495349535,0,0
44.210704560302,-7.0771404444627,10.039383938394,2239474.6833959,6983.5630017678,2796194.0374473,15.239383938394,0,0
44.210704797859,-7.0785210020379,10.043814381438,2239474.6833959,6983.5630017678,2796194.0374473,15.243814381438,0,0
44.210705035415,-7.0799015596132,10.048244824482,2239474.6833959,6983.5630017678,2796194.0374473,15.248244824482,0,0
44.210705272972,-7.0812821171885,10.052675267527,2239474.6833959,6983.5630017678,2796194.0374473,15.252675267527,0,0
44.210705510529,-7.0826626747637,10.057105710571,2239474.6833959,6983.5630017678,2796194.0374473,15.257105710571,0,0
44.210705748085,-7.084043232339,10.061536153615,2239474.6833959,6983.5630017678,2796194.0374473,15.261536153615,0,0
44.210705985642,-7.0854237899143,10.06596659666,2239474.6833959,6983.5630017678,2796194.0374473,15.26596659666,0,0
44.210706223199,-7.0868043474895,10.070397039704,2239474.6833959,6983.5630017678,2796194.0374473,15.270397039704,0,0
44.210706460755,-7.0881849050648,10.074827482748,2239474.6833959,6983.5630017678,2796194.0374473,15.274827482748,0,0
44.210706698312,-7.0895654626401,10.079257925793,2239474.6833959,6983.5630017678,2796194.0374473,15.279257925793,0,0
44.210706935869,-7.0909460202153,10.083688368837,2239474.6833959,6983.5630017678,2796194.0374473,15.283688368837,0,0
44.210707173426,-7.0923265777906,10.088118811881,2239474.6833959,6983.5630017678,2796194.0374473,15.288118811881,0,0
44.210707410982,-7.0937071353659,10.092549254925,2239474.6833959,6983.5630017678,2796194.0374473,15.292549254925,0,0
44.210707648539,-7.0950876929412,10.09697969797,2239474.6833959,6983.5630017678,2796194.0374473,15.29697969797,0,0
44.210707886096,-7.0964682505164,10.101410141014,2239474.6833959,6983.5630017678,2796194.0374473,15.301410141014,0,0
44.210708123652,-7.0978488080917,10.105840584058,2239474.6833959,6983.5630017678,2796194.0374473,15.305840584058,0,0
44.210708361209,-7.099229365667,10.110271027103,2239474.6833959,6983.5630017678,2796194.0374473,15.310271027103,0,0
44.210708598766,-7.1006099232422,10.114701470147,2239474.6833959,6983.5630017678,2796194.0374473,15.314701470147,0,0
44.210708836322,-7.1019904808175,10.119131913191,2239474.6833959,6983.5630017678,2796194.0374473,15.319131913191,0,0
44.210709073879,-7.1033710383928,10.123562356236,2239474.6833959,6983.5630017678,2796194.0374473,15.323562356236,0,0
44.210709311436,-7.104751595968,10.12799279928,2239474.6833959,6983.5630017678,2796194.0374473,15.32799279928,0,0
44.210709548992,-7.1061321535433,10.132423242324,2239474.6833959,6983.5630017678,2796194.0374473,15.332423242324,0,0
44.210709786549,-7.1075127111186,10.136853685369,2239474.6833959,6983.5630017678,2796194.0374473,15.336853685369,0,0
44.210710024106,-7.1088932686938,10.141284128413,2239474.6833959,6983.5630017678,2796194.0374473,15.341284128413,0,0
44.210710261662,-7.1102738262691,10.145714571457,2239474.6833959,6983.5630017678,2796194.0374473,15.345714571457,0,0
44.210710499219,-7.1116543838444,10.150145014501,2239474.6833959,6983.5630017678,2796194.0374473,15.350145014501,0,0
44.210710736776,-7.1130349414196,10.154575457546,2239474.6833959,6983.5630017678,2796194.0374473,15.354575457546,0,0
44.210710974332,-7.1144154989949,10.15900590059,2239474.6833959,6983.5630017678,2796194.0374473,15.35900590059,0,0
44.210711211889,-7.1157960565702,10.163436343634,2239474.6833959,6983.5630017678,2796194.0374473,15.363436343634,0,0
44.210711449446,-7.1171766141454,10.167866786679,2239474.6833959,6983.5630017678,2796194.0374473,15.367866786679,0,0
44.210711687002,-7.1185571717207,10.172297229723,2239474.6833959,6983.5630017678,2796194.0374473,15.372297229723,0,0
44.210711924559,-7.119937729296,10.176727672767,2239474.6833959,6983.5630017678,2796194.0374473,15.376727672767,0,0
44.210712162116,-7.1213182868712,10.181158115812,2239474.6833959,6983.5630017678,2796194.0374473,15.381158115812,0,0
44.210712399673,-7.1226988444465,10.185588558856,2239474.6833959,6983.5630017678,2796194.0374473,15.385588558856,0,0
44.210712637229,-7.1240794020218,10.1900190019,2239474.6833959,6983.5630017678,2796194.0374473,15.3900190019,0,0
44.210712874786,-7.125459959597,10.194449444944,2239474.6833959,6983.5630017678,2796194.0374473,15.394449444944,0,0
44.210713112343,-7.1268405171723,10.198879887989,2239474.6833959,6983.5630017678,2796194.0374473,15.398879887989,0,0
44.210713349899,-7.1282210747476,10.203310331033,2239474.6833959,6983.5630017678,2796194.0374473,15.403310331033,0,0
44.210713587456,-7.1296016323228,10.207740774077,2239474.6833959,6983.5630017678,2796194.0374473,15.407740774077,0,0
44.210713825013,-7.1309821898981,10.212171217122,2239474.6833959,6983.5630017678,2796194.0374473,15.412171217122,0,0
44.210714063902,-7.1323627460295,10.216601660166,2267220.6409061,13230.442371821,2787533.7595196,15.416601660166,0,0
44.210714303906,-7.1337433009538,10.22103210321,2267220.6409061,13230.442371821,2787533.7595196,15.42103210321,0,0
44.210714543909,-7.1351238558781,10.225462546255,2267220.6409061,13230.442371821,2787533.7595196,15.425462546255,0,0
44.210714783913,-7.1365044108025,10.229892989299,2267220.6409061,13230.442371821,2787533.7595196,15.429892989299,0,0
44.210715023916,-7.1378849657268,10.234323432343,2267220.6409061,13230.442371821,2787533.7595196,15.434323432343,0,0
44.210715263919,-7.1392655206511,10.238753875388,2267220.6409061,13230.442371821,2787533.7595196,15.438753875388,0,0
44.210715503923,-7.1406460755754,10.243184318432,2267220.6409061,13230.442371821,2787533.7595196,15.443184318432,0,0
44.210715743926,-7.1420266304998,10.247614761476,2267220.6409061,13230.442371821,2787533.7595196,15.447614761476,0,0
44.21071598393,-7.1434071854241,10.25204520452,2267220.6409061,13230.442371821,2787533.7595196,15.45204520452,0,0
44.210716223933,-7.1447877403484,10.256475647565,2267220.6409061,13230.442371821,2787533.7595196,15.456475647565,0,0
44.210716463937,-7.1461682952728,10.260906090609,2267220.6409061,13230.442371821,2787533.7595196,15.460906090609,0,0
44.21071670394,-7.1475488501971,10.265336533653,2267220.6409061,13230.442371821,2787533.7595196,15.465336533653,0,0
44.210716943944,-7.1489294051214,10.269766976698,2267220.6409061,13230.442371821,2787533.7595196,15.469766976698,0,0
44.210717183947,-7.1503099600457,10.274197419742,2267220.6409061,13230.442371821,2787533.7595196,15.474197419742,0,0
44.210717423951,-7.1516905149701,10.278627862786,2267220.6409061,13230.442371821,2787533.7595196,15.478627862786,0,0
44.210717663954,-7.1530710698944,10.283058305831,2267220.6409061,13230.442371821,2787533.7595196,15.483058305831,0,0
44.210717903958,-7.1544516248187,10.287488748875,2267220.6409061,13230.442371821,2787533.7595196,15.487488748875,0,0
44.210718143961,-7.1558321797431,10.291919191919,2267220.6409061,13230.442371821,2787533.7595196,15.491919191919,0,0
44.210718383965,-7.1572127346674,10.296349634963,2267220.6409061,13230.442371821,2787533.7595196,15.496349634963,0,0
44.210718623968,-7.1585932895917,10.300780078008,2267220.6409061,13230.442371821,2787533.7595196,15.500780078008,0,0
44.210718863972,-7.1599738445161,10.305210521052,2267220.6409061,13230.442371821,2787533.7595196,15.505210521052,0,0
44.210719103975,-7.1613543994404,10.309640964096,2267220.6409061,13230.442371821,2787533.7595196,15.509640964096,0,0
44.210719343979,-7.1627349543647,10.314071407141,2267220.6409061,13230.442371821,2787533.7595196,15.514071407141,0,0
44.210719583982,-7.164115509289,10.318501850185,2267220.6409061,13230.442371821,2787533.7595196,15.518501850185,0,0
44.210719823986,-7.1654960642134,10.322932293229,2267220.6409061,13230.442371821,2787533.7595196,15.522932293229,0,0
44.210720063989,-7.1668766191377,10.327362736274,2267220.6409061,13230.442371821,2787533.7595196,15.527362736274,0,0
44.210720303993,-7.168257174062,10.331793179318,2267220.6409061,13230.442371821,2787533.7595196,15.531793179318,0,0
44.210720543996,-7.1696377289864,10.336223622362,2267220.6409061,13230.442371821,2787533.7595196,15.536223622362,0,0
44.210720784,-7.1710182839107,10.340654065407,2267220.6409061,13230.442371821,2787533.7595196,15.540654065407,0,0
44.210721024003,-7.172398838835,10.345084508451,2267220.6409061,13230.442371821,2787533.7595196,15.545084508451,0,0
44.210721264007,-7.1737793937593,10.349514951495,2267220.6409061,13230.442371821,2787533.7595196,15.549514951495,0,0
44.21072150401,-7.1751599486837,10.353945394539,2267220.6409061,13230.442371821,2787533.7595196,15.553945394539,0,0
44.210721744014,-7.176540503608,10.358375837584,2267220.6409061,13230.442371821,2787533.7595196,15.558375837584,0,0
44.210721984017,-7.1779210585323,10.362806280628,2267220.6409061,13230.442371821,2787533.7595196,15.562806280628,0,0
44.210722224021,-7.1793016134567,10.367236723672,2267220.6409061,13230.442371821,2787533.7595196,15.567236723672,0,0
44.210722464024,-7.180682168381,10.371667166717,2267220.6409061,13230.442371821,2787533.7595196,15.571667166717,0,0
44.210722704028,-7.1820627233053,10.376097609761,2267220.6409061,13230.442371821,2787533.7595196,15.576097609761,0,0
44.210722944031,-7.1834432782296,10.380528052805,2267220.6409061,13230.442371821,2787533.7595196,15.580528052805,0,0
44.210723184035,-7.184823833154,10.38495849585,2267220.6409061,13230.442371821,2787533.7595196,15.58495849585,0,0
44.210723424038,-7.1862043880783,10.389388938894,2267220.6409061,13230.442371821,2787533.7595196,15.589388938894,0,0
44.210723664042,-7.1875849430026,10.393819381938,2267220.6409061,13230.442371821,2787533.7595196,15.593819381938,0,0
44.210723904618,-7.1889654993455,10.398249824982,2274343.9112139,2858.831139747,2761549.8656849,15.598249824982,0,0
44.210724145882,-7.1903460573934,10.402680268027,2274343.9112139,2858.831139747,2761549.8656849,15.602680268027,0,0
44.210724387146,-7.1917266154412,10.407110711071,2274343.9112139,2858.831139747,2761549.8656849,15.607110711071,0,0
44.210724628411,-7.193107173489,10.411541154115,2274343.9112139,2858.831139747,2761549.8656849,15.611541154115,0,0
44.210724869675,-7.1944877315369,10.41597159716,2274343.9112139,2858.831139747,2761549.8656849,15.61597159716,0,0
44.210725110939,-7.1958682895847,10.420402040204,2274343.9112139,2858.831139747,2761549.8656849,15.620402040204,0,0
44.210725352204,-7.1972488476325,10.424832483248,2274343.9112139,2858.831139747,2761549.8656849,15.624832483248,0,0
44.210725593468,-7.1986294056804,10.429262926293,2274343.9112139,2858.831139747,2761549.8656849,15.629262926293,0,0
44.210725834732,-7.2000099637282,10.433693369337,2274343.9112139,2858.831139747,2761549.8656849,15.633693369337,0,0
44.210726075997,-7.201390521776,10.438123812381,2274343.9112139,2858.831139747,2761549.8656849,15.638123812381,0,0
44.210726317261,-7.2027710798238,10.442554255426,2274343.9112139,2858.831139747,2761549.8656849,15.642554255426,0,0
44.210726558525,-7.2041516378717,10.44698469847,2274343.9112139,2858.831139747,2761549.8656849,15.64698469847,0,0
44.210726799789,-7.2055321959195,10.451415141514,2274343.9112139,2858.831139747,2761549.8656849,15.651415141514,0,0
44.210727041054,-7.2069127539673,10.455845584558,2274343.9112139,2858.831139747,2761549.8656849,15.655845584558,0,0
44.210727282318,-7.2082933120152,10.460276027603,2274343.9112139,2858.831139747,2761549.8656849,15.660276027603,0,0
44.210727523582,-7.209673870063,10.464706470647,2274343.9112139,2858.831139747,2761549.8656849,15.664706470647,0,0
44.210727764847,-7.2110544281108,10.469136913691,2274343.9112139,2858.831139747,2761549.8656849,15.669136913691,0,0
44.210728006111,-7.2124349861587,10.473567356736,2274343.9112139,2858.831139747,2761549.8656849,15.673567356736,0,0
44.210728247375,-7.2138155442065,10.47799779978,2274343.9112139,2858.831139747,2761549.8656849,15.67799779978,0,0
44.21072848864,-7.2151961022543,10.482428242824,2274343.9112139,2858.831139747,2761549.8656849,15.682428242824,0,0
44.210728729904,-7.2165766603022,10.486858685869,2274343.9112139,2858.831139747,2761549.8656849,15.686858685869,0,0
44.210728971168,-7.21795721835,10.491289128913,2274343.9112139,2858.831139747,2761549.8656849,15.691289128913,0,0
44.210729212432,-7.2193377763978,10.495719571957,2274343.9112139,2858.831139747,2761549.8656849,15.695719571957,0,0
44.210729453697,-7.2207183344456,10.500150015001,2274343.9112139,2858.831139747,2761549.8656849,15.700150015001,0,0
44.210729694961,-7.2220988924935,10.504580458046,2274343.9112139,2858.831139747,2761549.8656849,15.704580458046,0,0
44.210729936225,-7.2234794505413,10.50901090109,2274343.9112139,2858.831139747,2761549.8656849,15.70901090109,0,0
44.21073017749,-7.2248600085891,10.513441344134,2274343.9112139,2858.831139747,2761549.8656849,15.713441344134,0,0
44.210730418754,-7.226240566637,10.517871787179,2274343.9112139,2858.831139747,2761549.8656849,15.717871787179,0,0
44.210730660018,-7.2276211246848,10.522302230223,2274343.9112139,2858.831139747,2761549.8656849,15.722302230223,0,0
44.210730901283,-7.2290016827326,10.526732673267,2274343.9112139,2858.831139747,2761549.8656849,15.726732673267,0,0
44.210731142547,-7.2303822407805,10.531163116312,2274343.9112139,2858.831139747,2761549.8656849,15.731163116312,0,0
44.210731383811,-7.2317627988283,10.535593559356,2274343.9112139,2858.831139747,2761549.8656849,15.735593559356,0,0
44.210731625075,-7.2331433568761,10.5400240024,2274343.9112139,2858.831139747,2761549.8656849,15.7400240024,0,0
44.21073186634,-7.234523914924,10.544454445445,2274343.9112139,2858.831139747,2761549.8656849,15.744454445445,0,0
44.210732107604,-7.2359044729718,10.548884888489,2274343.9112139,2858.831139747,2761549.8656849,15.748884888489,0,0
44.210732348868,-7.2372850310196,10.553315331533,2274343.9112139,2858.831139747,2761549.8656849,15.753315331533,0,0
44.210732590133,-7.2386655890674,10.557745774577,2274343.9112139,2858.831139747,2761549.8656849,15.757745774577,0,0
44.210732831397,-7.2400461471153,10.562176217622,2274343.9112139,2858.831139747,2761549.8656849,15.762176217622,0,0
44.210733072661,-7.2414267051631,10.566606660666,2274343.9112139,2858.831139747,2761549.8656849,15.766606660666,0,0
44.210733313926,-7.2428072632109,10.57103710371,2274343.9112139,2858.831139747,2761549.8656849,15.77103710371,0,0
44.21073355519,-7.2441878212588,10.575467546755,2274343.9112139,2858.831139747,2761549.8656849,15.775467546755,0,0
44.210733796454,-7.2455683793066,10.579897989799,2274343.9112139,2858.831139747,2761549.8656849,15.779897989799,0,0
44.210734037718,-7.2469489373544,10.584328432843,2274343.9112139,2858.831139747,2761549.8656849,15.784328432843,0,0
44.210734278983,-7.2483294954023,10.588758875888,2274343.9112139,2858.831139747,2761549.8656849,15.788758875888,0,0
44.210734520247,-7.2497100534501,10.593189318932,2274343.9112139,2858.831139747,2761549.8656849,15.793189318932,0,0
44.210734761511,-7.2510906114979,10.597619761976,2274343.9112139,2858.831139747,2761549.8656849,15.797619761976,0,0
44.210735002776,-7.2524711695458,10.602050205021,2274343.9112139,2858.831139747,2761549.8656849,15.80205020502,0,0
44.21073524404,-7.2538517275936,10.606480648065,2274343.9112139,2858.831139747,2761549.8656849,15.806480648065,0,0
44.210735485304,-7.2552322856414,10.610911091109,2274343.9112139,2858.831139747,2761549.8656849,15.810911091109,0,0
44.210735726569,-7.2566128436892,10.615341534153,2274343.9112139,2858.831139747,2761549.8656849,15.815341534153,0,0
44.210735967833,-7.2579934017371,10.619771977198,2274343.9112139,2858.831139747,2761549.8656849,15.819771977198,0,0
44.210736209097,-7.2593739597849,10.624202420242,2274343.9112139,2858.831139747,2761549.8656849,15.824202420242,0,0
44.210736450361,-7.2607545178327,10.628632863286,2274343.9112139,2858.831139747,2761549.8656849,15.828632863286,0,0
44.210736691626,-7.2621350758806,10.633063306331,2274343.9112139,2858.831139747,2761549.8656849,15.833063306331,0,0
44.21073693289,-7.2635156339284,10.637493749375,2274343.9112139,2858.831139747,2761549.8656849,15.837493749375,0,0
44.210737174154,-7.2648961919762,10.641924192419,2274343.9112139,2858.831139747,2761549.8656849,15.841924192419,0,0
44.210737415419,-7.2662767500241,10.646354635464,2274343.9112139,2858.831139747,2761549.8656849,15.846354635464,0,0
44.210737656683,-7.2676573080719,10.650785078508,2274343.9112139,2858.831139747,2761549.8656849,15.850785078508,0,0
44.210737897947,-7.2690378661197,10.655215521552,2274343.9112139,2858.831139747,2761549.8656849,15.855215521552,0,0
44.210738139212,-7.2704184241676,10.659645964596,2274343.9112139,2858.831139747,2761549.8656849,15.859645964596,0,0
44.210738380476,-7.2717989822154,10.664076407641,2274343.9112139,2858.831139747,2761549.8656849,15.864076407641,0,0
44.21073862174,-7.2731795402632,10.668506850685,2274343.9112139,2858.831139747,2761549.8656849,15.868506850685,0,0
44.210738863004,-7.274560098311,10.672937293729,2274343.9112139,2858.831139747,2761549.8656849,15.872937293729,0,0
44.210739104269,-7.2759406563589,10.677367736774,2274343.9112139,2858.831139747,2761549.8656849,15.877367736774,0,0
44.210739345533,-7.2773212144067,10.681798179818,2274343.9112139,2858.831139747,2761549.8656849,15.881798179818,0,0
44.210739586797,-7.2787017724545,10.686228622862,2274343.9112139,2858.831139747,2761549.8656849,15.886228622862,0,0
44.210739828062,-7.2800823305024,10.690659065907,2274343.9112139,2858.831139747,2761549.8656849,15.890659065907,0,0
44.210740069326,-7.2814628885502,10.695089508951,2274343.9112139,2858.831139747,2761549.8656849,15.895089508951,0,0
44.21074031059,-7.282843446598,10.699519951995,2274343.9112139,2858.831139747,2761549.8656849,15.899519951995,0,0
44.210740551854,-7.2842240046459,10.70395039504,2274343.9112139,2858.831139747,2761549.8656849,15.90395039504,0,0
44.210740793119,-7.2856045626937,10.708380838084,2274343.9112139,2858.831139747,2761549.8656849,15.908380838084,0,0
44.210741034383,-7.2869851207415,10.712811281128,2274343.9112139,2858.831139747,2761549.8656849,15.912811281128,0,0
44.210741275647,-7.2883656787894,10.717241724172,2274343.9112139,2858.831139747,2761549.8656849,15.917241724172,0,0
44.210741516912,-7.2897462368372,10.721672167217,2274343.9112139,2858.831139747,2761549.8656849,15.921672167217,0,0
44.210741758176,-7.291126794885,10.726102610261,2274343.9112139,2858.831139747,2761549.8656849,15.926102610261,0,0
44.21074199944,-7.2925073529328,10.730533053305,2274343.9112139,2858.831139747,2761549.8656849,15.930533053305,0,0
44.210742240705,-7.2938879109807,10.73496349635,2274343.9112139,2858.831139747,2761549.8656849,15.93496349635,0,0
44.210742481969,-7.2952684690285,10.739393939394,2274343.9112139,2858.831139747,2761549.8656849,15.939393939394,0,0
44.210742723233,-7.2966490270763,10.743824382438,2274343.9112139,2858.831139747,2761549.8656849,15.943824382438,0,0
44.210742964497,-7.2980295851242,10.748254825483,2274343.9112139,2858.831139747,2761549.8656849,15.948254825483,0,0
44.210743205762,-7.299410143172,10.752685268527,2274343.9112139,2858.831139747,2761549.8656849,15.952685268527,0,0
44.210743447026,-7.3007907012198,10.757115711571,2274343.9112139,2858.831139747,2761549.8656849,15.957115711571,0,0
44.21074368829,-7.3021712592677,10.761546154615,2274343.9112139,2858.831139747,2761549.8656849,15.961546154615,0,0
44.210743929555,-7.3035518173155,10.76597659766,2274343.9112139,2858.831139747,2761549.8656849,15.96597659766,0,0
44.210744170819,-7.3049323753633,10.770407040704,2274343.9112139,2858.831139747,2761549.8656849,15.970407040704,0,0
44.210744412083,-7.3063129334112,10.774837483748,2274343.9112139,2858.831139747,2761549.8656849,15.974837483748,0,0
44.210744653348,-7.307693491459,10.779267926793,2274343.9112139,2858.831139747,2761549.8656849,15.979267926793,0,0
44.210744894612,-7.3090740495068,10.783698369837,2274343.9112139,2858.831139747,2761549.8656849,15.983698369837,0,0
44.210745135876,-7.3104546075546,10.788128812881,2274343.9112139,2858.831139747,2761549.8656849,15.988128812881,0,0
44.21074537714,-7.3118351656025,10.792559255926,2274343.9112139,2858.831139747,2761549.8656849,15.992559255926,0,0
44.210745618405,-7.3132157236503,10.79698969897,2274343.9112139,2858.831139747,2761549.8656849,15.99698969897,0,0
44.210745859669,-7.3145962816981,10.801420142014,2274343.9112139,2858.831139747,2761549.8656849,16.001420142014,0,0
44.210746100933,-7.315976839746,10.805850585059,2274343.9112139,2858.831139747,2761549.8656849,16.005850585059,0,0
44.210746342198,-7.3173573977938,10.810281028103,2274343.9112139,2858.831139747,2761549.8656849,16.010281028103,0,0
44.210746583462,-7.3187379558416,10.814711471147,2274343.9112139,2858.831139747,2761549.8656849,16.014711471147,0,0
44.210746824726,-7.3201185138895,10.819141914191,2274343.9112139,2858.831139747,2761549.8656849,16.019141914191,0,0
44.210747065991,-7.3214990719373,10.823572357236,2274343.9112139,2858.831139747,2761549.8656849,16.023572357236,0,0
44.210747307255,-7.3228796299851,10.82800280028,2274343.9112139,2858.831139747,2761549.8656849,16.02800280028,0,0
44.210747548519,-7.324260188033,10.832433243324,2274343.9112139,2858.831139747,2761549.8656849,16.032433243324,0,0
44.210747789783,-7.3256407460808,10.836863686369,2274343.9112139,2858.831139747,2761549.8656849,16.036863686369,0,0
44.210748031048,-7.3270213041286,10.841294129413,2274343.9112139,2858.831139747,2761549.8656849,16.041294129413,0,0
44.210748272312,-7.3284018621764,10.845724572457,2274343.9112139,2858.831139747,2761549.8656849,16.045724572457,0,0
44.210748513576,-7.3297824202243,10.850155015502,2274343.9112139,2858.831139747,2761549.8656849,16.050155015502,0,0
44.210748754841,-7.3311629782721,10.854585458546,2274343.9112139,2858.831139747,2761549.8656849,16.054585458546,0,0
44.210748996105,-7.3325435363199,10.85901590159,2274343.9112139,2858.831139747,2761549.8656849,16.05901590159,0,0
44.210749237369,-7.3339240943678,10.863446344634,2274343.9112139,2858.831139747,2761549.8656849,16.063446344634,0,0
44.210749478634,-7.3353046524156,10.867876787679,2274343.9112139,2858.831139747,2761549.8656849,16.067876787679,0,0
44.210749719898,-7.3366852104634,10.872307230723,2274343.9112139,2858.831139747,2761549.8656849,16.072307230723,0,0
44.210749961162,-7.3380657685113,10.876737673767,2274343.9112139,2858.831139747,2761549.8656849,16.076737673767,0,0
44.210750202426,-7.3394463265591,10.881168116812,2274343.9112139,2858.831139747,2761549.8656849,16.081168116812,0,0
44.210750443691,-7.3408268846069,10.885598559856,2274343.9112139,2858.831139747,2761549.8656849,16.085598559856,0,0
44.210750684955,-7.3422074426548,10.8900290029,2274343.9112139,2858.831139747,2761549.8656849,16.0900290029,0,0
44.210750926219,-7.3435880007026,10.894459445945,2274343.9112139,2858.831139747,2761549.8656849,16.094459445945,0,0
44.210751167484,-7.3449685587504,10.898889888989,2274343.9112139,2858.831139747,2761549.8656849,16.098889888989,0,0
44.210751408748,-7.3463491167982,10.903320332033,2274343.9112139,2858.831139747,2761549.8656849,16.103320332033,0,0
44.210751650012,-7.3477296748461,10.907750775078,2274343.9112139,2858.831139747,2761549.8656849,16.107750775078,0,0
44.210751891277,-7.3491102328939,10.912181218122,2274343.9112139,2858.831139747,2761549.8656849,16.112181218122,0,0
44.210752132541,-7.3504907909417,10.916611661166,2274343.9112139,2858.831139747,2761549.8656849,16.116611661166,0,0
44.210752373805,-7.3518713489896,10.92104210421,2274343.9112139,2858.831139747,2761549.8656849,16.12104210421,0,0
44.210752615069,-7.3532519070374,10.925472547255,2274343.9112139,2858.831139747,2761549.8656849,16.125472547255,0,0
44.210752856334,-7.3546324650852,10.929902990299,2274343.9112139,2858.831139747,2761549.8656849,16.129902990299,0,0
44.210753097598,-7.3560130231331,10.934333433343,2274343.9112139,2858.831139747,2761549.8656849,16.134333433343,0,0
44.210753338862,-7.3573935811809,10.938763876388,2274343.9112139,2858.831139747,2761549.8656849,16.138763876388,0,0
44.210753580127,-7.3587741392287,10.943194319432,2274343.9112139,2858.831139747,2761549.8656849,16.143194319432,0,0
44.210753821391,-7.3601546972766,10.947624762476,2274343.9112139,2858.831139747,2761549.8656849,16.147624762476,0,0
44.210754062655,-7.3615352553244,10.952055205521,2274343.9112139,2858.831139747,2761549.8656849,16.152055205521,0,0
44.21075430392,-7.3629158133722,10.956485648565,2274343.9112139,2858.831139747,2761549.8656849,16.156485648565,0,0
44.210754545184,-7.36429637142,10.960916091609,2274343.9112139,2858.831139747,2761549.8656849,16.160916091609,0,0
44.210754786448,-7.3656769294679,10.965346534653,2274343.9112139,2858.831139747,2761549.8656849,16.165346534653,0,0
44.210755027712,-7.3670574875157,10.969776977698,2274343.9112139,2858.831139747,2761549.8656849,16.169776977698,0,0
44.210755268977,-7.3684380455635,10.974207420742,2274343.9112139,2858.831139747,2761549.8656849,16.174207420742,0,0
44.210755510241,-7.3698186036114,10.978637863786,2274343.9112139,2858.831139747,2761549.8656849,16.178637863786,0,0
44.210755751505,-7.3711991616592,10.983068306831,2274343.9112139,2858.831139747,2761549.8656849,16.183068306831,0,0
44.21075599277,-7.372579719707,10.987498749875,2274343.9112139,2858.831139747,2761549.8656849,16.187498749875,0,0
44.210756234034,-7.3739602777549,10.991929192919,2274343.9112139,2858.831139747,2761549.8656849,16.191929192919,0,0
44.210756475298,-7.3753408358027,10.996359635964,2274343.9112139,2858.831139747,2761549.8656849,16.196359635964,0,0
44.210756716563,-7.3767213938505,11.000790079008,2274343.9112139,2858.831139747,2761549.8656849,16.200790079008,0,0
44.210756957827,-7.3781019518984,11.005220522052,2274343.9112139,2858.831139747,2761549.8656849,16.205220522052,0,0
44.210757199091,-7.3794825099462,11.009650965097,2274343.9112139,2858.831139747,2761549.8656849,16.209650965097,0,0
44.210757440355,-7.380863067994,11.014081408141,2274343.9112139,2858.831139747,2761549.8656849,16.214081408141,0,0
44.21075768162,-7.3822436260418,11.018511851185,2274343.9112139,2858.831139747,2761549.8656849,16.218511851185,0,0
44.210757922884,-7.3836241840897,11.022942294229,2274343.9112139,2858.831139747,2761549.8656849,16.222942294229,0,0
44.210758164148,-7.3850047421375,11.027372737274,2274343.9112139,2858.831139747,2761549.8656849,16.227372737274,0,0
44.210758405413,-7.3863853001853,11.031803180318,2274343.9112139,2858.831139747,2761549.8656849,16.231803180318,0,0
44.210758646677,-7.3877658582332,11.036233623362,2274343.9112139,2858.831139747,2761549.8656849,16.236233623362,0,0
44.210758887941,-7.389146416281,11.040664066407,2274343.9112139,2858.831139747,2761549.8656849,16.240664066407,0,0
44.210759129205,-7.3905269743288,11.045094509451,2274343.9112139,2858.831139747,2761549.8656849,16.245094509451,0,0
44.21075937047,-7.3919075323767,11.049524952495,2274343.9112139,2858.831139747,2761549.8656849,16.249524952495,0,0
44.210759611734,-7.3932880904245,11.05395539554,2274343.9112139,2858.831139747,2761549.8656849,16.25395539554,0,0
44.210759852998,-7.3946686484723,11.058385838584,2274343.9112139,2858.831139747,2761549.8656849,16.258385838584,0,0
44.210760094263,-7.3960492065202,11.062816281628,2274343.9112139,2858.831139747,2761549.8656849,16.262816281628,0,0
44.210760335527,-7.397429764568,11.067246724672,2274343.9112139,2858.831139747,2761549.8656849,16.267246724672,0,0
44.210760576791,-7.3988103226158,11.071677167717,2274343.9112139,2858.831139747,2761549.8656849,16.271677167717,0,0
44.210760818056,-7.4001908806636,11.076107610761,2274343.9112139,2858.831139747,2761549.8656849,16.276107610761,0,0
44.21076105932,-7.4015714387115,11.080538053805,2274343.9112139,2858.831139747,2761549.8656849,16.280538053805,0,0
44.210761300584,-7.4029519967593,11.08496849685,2274343.9112139,2858.831139747,2761549.8656849,16.28496849685,0,0
44.210761541848,-7.4043325548071,11.089398939894,2274343.9112139,2858.831139747,2761549.8656849,16.289398939894,0,0
44.210761783113,-7.405713112855,11.093829382938,2274343.9112139,2858.831139747,2761549.8656849,16.293829382938,0,0
44.210762024377,-7.4070936709028,11.098259825983,2274343.9112139,2858.831139747,2761549.8656849,16.298259825983,0,0
44.210762265641,-7.4084742289506,11.102690269027,2274343.9112139,2858.831139747,2761549.8656849,16.302690269027,0,0
44.210762506906,-7.4098547869985,11.107120712071,2274343.9112139,2858.831139747,2761549.8656849,16.307120712071,0,0
44.21076274817,-7.4112353450463,11.111551155116,2274343.9112139,2858.831139747,2761549.8656849,16.311551155116,0,0
44.210762989434,-7.4126159030941,11.11598159816,2274343.9112139,2858.831139747,2761549.8656849,16.31598159816,0,0
44.210763230699,-7.413996461142,11.120412041204,2274343.9112139,2858.831139747,2761549.8656849,16.320412041204,0,0
44.210763471963,-7.4153770191898,11.124842484248,2274343.9112139,2858.831139747,2761549.8656849,16.324842484248,0,0
44.210763713227,-7.4167575772376,11.129272927293,2274343.9112139,2858.831139747,2761549.8656849,16.329272927293,0,0
44.210763954491,-7.4181381352854,11.133703370337,2274343.9112139,2858.831139747,2761549.8656849,16.333703370337,0,0
44.210764195756,-7.4195186933333,11.138133813381,2274343.9112139,2858.831139747,2761549.8656849,16.338133813381,0,0
44.21076443702,-7.4208992513811,11.142564256426,2274343.9112139,2858.831139747,2761549.8656849,16.342564256426,0,0
44.210764678284,-7.4222798094289,11.14699469947,2274343.9112139,2858.831139747,2761549.8656849,16.34699469947,0,0
44.210764919549,-7.4236603674768,11.151425142514,2274343.9112139,2858.831139747,2761549.8656849,16.351425142514,0,0
44.210765160813,-7.4250409255246,11.155855585559,2274343.9112139,2858.831139747,2761549.8656849,16.355855585559,0,0
44.210765402077,-7.4264214835724,11.160286028603,2274343.9112139,2858.831139747,2761549.8656849,16.360286028603,0,0
44.210765643342,-7.4278020416203,11.164716471647,2274343.9112139,2858.831139747,2761549.8656849,16.364716471647,0,0
44.210765884606,-7.4291825996681,11.169146914691,2274343.9112139,2858.831139747,2761549.8656849,16.369146914691,0,0
44.21076612587,-7.4305631577159,11.173577357736,2274343.9112139,2858.831139747,2761549.8656849,16.373577357736,0,0
44.210766367134,-7.4319437157638,11.17800780078,2274343.9112139,2858.831139747,2761549.8656849,16.37800780078,0,0
44.210766608399,-7.4333242738116,11.182438243824,2274343.9112139,2858.831139747,2761549.8656849,16.382438243824,0,0
44.210766849663,-7.4347048318594,11.186868686869,2274343.9112139,2858.831139747,2761549.8656849,16.386868686869,0,0
44.210767090927,-7.4360853899072,11.191299129913,2274343.9112139,2858.831139747,2761549.8656849,16.391299129913,0,0
44.210767332192,-7.4374659479551,11.195729572957,2274343.9112139,2858.831139747,2761549.8656849,16.395729572957,0,0
44.210767573456,-7.4388465060029,11.200160016002,2274343.9112139,2858.831139747,2761549.8656849,16.400160016002,0,0
44.21076781472,-7.4402270640507,11.204590459046,2274343.9112139,2858.831139747,2761549.8656849,16.404590459046,0,0
44.210768055985,-7.4416076220986,11.20902090209,2274343.9112139,2858.831139747,2761549.8656849,16.40902090209,0,0
44.210768297249,-7.4429881801464,11.213451345135,2274343.9112139,2858.831139747,2761549.8656849,16.413451345135,0,0
44.210768538513,-7.4443687381942,11.217881788179,2274343.9112139,2858.831139747,2761549.8656849,16.417881788179,0,0
44.210768779777,-7.4457492962421,11.222312231223,2274343.9112139,2858.831139747,2761549.8656849,16.422312231223,0,0
44.210769021672,-7.4471298535463,11.226742674267,2297844.7123157,9306.8930996764,2752933.3983912,16.426742674267,0,0
44.210769265043,-7.4485104091076,11.231173117312,2297844.7123157,9306.8930996764,2752933.3983912,16.431173117312,0,0
44.210769508413,-7.4498909646688,11.235603560356,2297844.7123157,9306.8930996764,2752933.3983912,16.435603560356,0,0
44.210769751784,-7.45127152023,11.2400340034,2297844.7123157,9306.8930996764,2752933.3983912,16.4400340034,0,0
44.210769995155,-7.4526520757913,11.244464446445,2297844.7123157,9306.8930996764,2752933.3983912,16.444464446445,0,0
44.210770238526,-7.4540326313525,11.248894889489,2297844.7123157,9306.8930996764,2752933.3983912,16.448894889489,0,0
44.210770481897,-7.4554131869137,11.253325332533,2297844.7123157,9306.8930996764,2752933.3983912,16.453325332533,0,0
44.210770725268,-7.456793742475,11.257755775578,2297844.7123157,9306.8930996764,2752933.3983912,16.457755775578,0,0
44.210770968639,-7.4581742980362,11.262186218622,2297844.7123157,9306.8930996764,2752933.3983912,16.462186218622,0,0
44.210771212009,-7.4595548535974,11.266616661666,2297844.7123157,9306.8930996764,2752933.3983912,16.466616661666,0,0
44.21077145538,-7.4609354091587,11.27104710471,2297844.7123157,9306.8930996764,2752933.3983912,16.47104710471,0,0
44.210771698751,-7.4623159647199,11.275477547755,2297844.7123157,9306.8930996764,2752933.3983912,16.475477547755,0,0
44.210771942122,-7.4636965202811,11.279907990799,2297844.7123157,9306.8930996764,2752933.3983912,16.479907990799,0,0
44.210772185493,-7.4650770758424,11.284338433843,2297844.7123157,9306.8930996764,2752933.3983912,16.484338433843,0,0
44.210772428864,-7.4664576314036,11.288768876888,2297844.7123157,9306.8930996764,2752933.3983912,16.488768876888,0,0
44.210772672235,-7.4678381869649,11.293199319932,2297844.7123157,9306.8930996764,2752933.3983912,16.493199319932,0,0
44.210772915605,-7.4692187425261,11.297629762976,2297844.7123157,9306.8930996764,2752933.3983912,16.497629762976,0,0
44.210773158976,-7.4705992980873,11.302060206021,2297844.7123157,9306.8930996764,2752933.3983912,16.502060206021,0,0
44.210773402347,-7.4719798536486,11.306490649065,2297844.7123157,9306.8930996764,2752933.3983912,16.506490649065,0,0
44.210773645718,-7.4733604092098,11.310921092109,2297844.7123157,9306.8930996764,2752933.3983912,16.510921092109,0,0
44.210773889089,-7.474740964771,11.315351535154,2297844.7123157,9306.8930996764,2752933.3983912,16.515351535154,0,0
44.21077413246,-7.4761215203323,11.319781978198,2297844.7123157,9306.8930996764,2752933.3983912,16.519781978198,0,0
44.210774375831,-7.4775020758935,11.324212421242,2297844.7123157,9306.8930996764,2752933.3983912,16.524212421242,0,0
44.210774619201,-7.4788826314547,11.328642864286,2297844.7123157,9306.8930996764,2752933.3983912,16.528642864286,0,0
44.210774862572,-7.480263187016,11.333073307331,2297844.7123157,9306.8930996764,2752933.3983912,16.533073307331,0,0
44.210775105943,-7.4816437425772,11.337503750375,2297844.7123157,9306.8930996764,2752933.3983912,16.537503750375,0,0
44.210775349314,-7.4830242981384,11.341934193419,2297844.7123157,9306.8930996764,2752933.3983912,16.541934193419,0,0
44.210775592685,-7.4844048536997,11.346364636464,2297844.7123157,9306.8930996764,2752933.3983912,16.546364636464,0,0
44.210775836056,-7.4857854092609,11.350795079508,2297844.7123157,9306.8930996764,2752933.3983912,16.550795079508,0,0
44.210776079427,-7.4871659648222,11.355225522552,2297844.7123157,9306.8930996764,2752933.3983912,16.555225522552,0,0
44.210776322797,-7.4885465203834,11.359655965597,2297844.7123157,9306.8930996764,2752933.3983912,16.559655965597,0,0
44.210776566168,-7.4899270759446,11.364086408641,2297844.7123157,9306.8930996764,2752933.3983912,16.564086408641,0,0
44.210776809539,-7.4913076315059,11.368516851685,2297844.7123157,9306.8930996764,2752933.3983912,16.568516851685,0,0
44.21077705291,-7.4926881870671,11.372947294729,2297844.7123157,9306.8930996764,2752933.3983912,16.572947294729,0,0
44.210777296281,-7.4940687426283,11.377377737774,2297844.7123157,9306.8930996764,2752933.3983912,16.577377737774,0,0
44.210777539652,-7.4954492981896,11.381808180818,2297844.7123157,9306.8930996764,2752933.3983912,16.581808180818,0,0
44.210777783023,-7.4968298537508,11.386238623862,2297844.7123157,9306.8930996764,2752933.3983912,16.586238623862,0,0
44.210778026393,-7.498210409312,11.390669066907,2297844.7123157,9306.8930996764,2752933.3983912,16.590669066907,0,0
44.210778269764,-7.4995909648733,11.395099509951,2297844.7123157,9306.8930996764,2752933.3983912,16.595099509951,0,0
44.210778513135,-7.5009715204345,11.399529952995,2297844.7123157,9306.8930996764,2752933.3983912,16.599529952995,0,0
44.210778756506,-7.5023520759957,11.40396039604,2297844.7123157,9306.8930996764,2752933.3983912,16.60396039604,0,0
44.210778999877,-7.503732631557,11.408390839084,2297844.7123157,9306.8930996764,2752933.3983912,16.608390839084,0,0
44.210779243248,-7.5051131871182,11.412821282128,2297844.7123157,9306.8930996764,2752933.3983912,16.612821282128,0,0
44.210779486619,-7.5064937426795,11.417251725173,2297844.7123157,9306.8930996764,2752933.3983912,16.617251725173,0,0
44.210779729989,-7.5078742982407,11.421682168217,2297844.7123157,9306.8930996764,2752933.3983912,16.621682168217,0,0
44.21077997336,-7.5092548538019,11.426112611261,2297844.7123157,9306.8930996764,2752933.3983912,16.626112611261,0,0
44.210780216731,-7.5106354093632,11.430543054305,2297844.7123157,9306.8930996764,2752933.3983912,16.630543054305,0,0
44.210780460102,-7.5120159649244,11.43497349735,2297844.7123157,9306.8930996764,2752933.3983912,16.63497349735,0,0
44.210780703473,-7.5133965204856,11.439403940394,2297844.7123157,9306.8930996764,2752933.3983912,16.639403940394,0,0
44.210780946844,-7.5147770760469,11.443834383438,2297844.7123157,9306.8930996764,2752933.3983912,16.643834383438,0,0
44.210781190215,-7.5161576316081,11.448264826483,2297844.7123157,9306.8930996764,2752933.3983912,16.648264826483,0,0
44.210781433586,-7.5175381871693,11.452695269527,2297844.7123157,9306.8930996764,2752933.3983912,16.652695269527,0,0
44.210781676956,-7.5189187427306,11.457125712571,2297844.7123157,9306.8930996764,2752933.3983912,16.657125712571,0,0
44.210781920327,-7.5202992982918,11.461556155616,2297844.7123157,9306.8930996764,2752933.3983912,16.661556155616,0,0
44.210782163698,-7.521679853853,11.46598659866,2297844.7123157,9306.8930996764,2752933.3983912,16.66598659866,0,0
44.210782407069,-7.5230604094143,11.470417041704,2297844.7123157,9306.8930996764,2752933.3983912,16.670417041704,0,0
44.21078265044,-7.5244409649755,11.474847484748,2297844.7123157,9306.8930996764,2752933.3983912,16.674847484748,0,0
44.210782893811,-7.5258215205368,11.479277927793,2297844.7123157,9306.8930996764,2752933.3983912,16.679277927793,0,0
44.210783137182,-7.527202076098,11.483708370837,2297844.7123157,9306.8930996764,2752933.3983912,16.683708370837,0,0
44.210783380552,-7.5285826316592,11.488138813881,2297844.7123157,9306.8930996764,2752933.3983912,16.688138813881,0,0
44.210783623923,-7.5299631872205,11.492569256926,2297844.7123157,9306.8930996764,2752933.3983912,16.692569256926,0,0
44.210783867294,-7.5313437427817,11.49699969997,2297844.7123157,9306.8930996764,2752933.3983912,16.69699969997,0,0
44.210784110665,-7.5327242983429,11.501430143014,2297844.7123157,9306.8930996764,2752933.3983912,16.701430143014,0,0
44.210784354036,-7.5341048539042,11.505860586059,2297844.7123157,9306.8930996764,2752933.3983912,16.705860586059,0,0
44.210784597407,-7.5354854094654,11.510291029103,2297844.7123157,9306.8930996764,2752933.3983912,16.710291029103,0,0
44.210784840778,-7.5368659650266,11.514721472147,2297844.7123157,9306.8930996764,2752933.3983912,16.714721472147,0,0
44.210785084148,-7.5382465205879,11.519151915192,2297844.7123157,9306.8930996764,2752933.3983912,16.719151915192,0,0
44.210785327519,-7.5396270761491,11.523582358236,2297844.7123157,9306.8930996764,2752933.3983912,16.723582358236,0,0
44.21078557089,-7.5410076317103,11.52801280128,2297844.7123157,9306.8930996764,2752933.3983912,16.72801280128,0,0
44.21078581438,-7.5423881875351,11.532443244324,2307115.1156833,-74.513220909081,2732797.4750867,16.732443244324,0,0
44.210786059027,-7.5437687459303,11.536873687369,2307115.1156833,-74.513220909081,2732797.4750867,16.736873687369,0,0
44.210786303675,-7.5451493043255,11.541304130413,2307115.1156833,-74.513220909081,2732797.4750867,16.741304130413,0,0
44.210786548322,-7.5465298627207,11.545734573457,2307115.1156833,-74.513220909081,2732797.4750867,16.745734573457,0,0
44.21078679297,-7.5479104211159,11.550165016502,2307115.1156833,-74.513220909081,2732797.4750867,16.750165016502,0,0
44.210787037617,-7.5492909795111,11.554595459546,2307115.1156833,-74.513220909081,2732797.4750867,16.754595459546,0,0
44.210787282264,-7.5506715379063,11.55902590259,2307115.1156833,-74.513220909081,2732797.4750867,16.75902590259,0,0
44.210787526912,-7.5520520963015,11.563456345635,2307115.1156833,-74.513220909081,2732797.4750867,16.763456345635,0,0
44.210787771559,-7.5534326546967,11.567886788679,2307115.1156833,-74.513220909081,2732797.4750867,16.767886788679,0,0
44.210788016207,-7.5548132130919,11.572317231723,2307115.1156833,-74.513220909081,2732797.4750867,16.772317231723,0,0
44.210788260854,-7.5561937714871,11.576747674767,2307115.1156833,-74.513220909081,2732797.4750867,16.776747674767,0,0
44.210788505502,-7.5575743298823,11.581178117812,2307115.1156833,-74.513220909081,2732797.4750867,16.781178117812,0,0
44.210788750149,-7.5589548882775,11.585608560856,2307115.1156833,-74.513220909081,2732797.4750867,16.785608560856,0,0
44.210788994797,-7.5603354466727,11.5900390039,2307115.1156833,-74.513220909081,2732797.4750867,16.7900390039,0,0
44.210789239444,-7.5617160050679,11.594469446945,2307115.1156833,-74.513220909081,2732797.4750867,16.794469446945,0,0
44.210789484092,-7.5630965634631,11.598899889989,2307115.1156833,-74.513220909081,2732797.4750867,16.798899889989,0,0
44.210789728739,-7.5644771218583,11.603330333033,2307115.1156833,-74.513220909081,2732797.4750867,16.803330333033,0,0
44.210789973387,-7.5658576802535,11.607760776078,2307115.1156833,-74.513220909081,2732797.4750867,16.807760776078,0,0
44.210790218034,-7.5672382386487,11.612191219122,2307115.1156833,-74.513220909081,2732797.4750867,16.812191219122,0,0
44.210790462681,-7.5686187970439,11.616621662166,2307115.1156833,-74.513220909081,2732797.4750867,16.816621662166,0,0
44.210790707329,-7.5699993554391,11.621052105211,2307115.1156833,-74.513220909081,2732797.4750867,16.821052105211,0,0
44.210790951976,-7.5713799138343,11.625482548255,2307115.1156833,-74.513220909081,2732797.4750867,16.825482548255,0,0
44.210791196624,-7.5727604722295,11.629912991299,2307115.1156833,-74.513220909081,2732797.4750867,16.829912991299,0,0
44.210791441271,-7.5741410306247,11.634343434343,2307115.1156833,-74.513220909081,2732797.4750867,16.834343434343,0,0
44.210791685919,-7.5755215890199,11.638773877388,2307115.1156833,-74.513220909081,2732797.4750867,16.838773877388,0,0
44.210791930566,-7.5769021474151,11.643204320432,2307115.1156833,-74.513220909081,2732797.4750867,16.843204320432,0,0
44.210792175214,-7.5782827058103,11.647634763476,2307115.1156833,-74.513220909081,2732797.4750867,16.847634763476,0,0
44.210792419861,-7.5796632642055,11.652065206521,2307115.1156833,-74.513220909081,2732797.4750867,16.852065206521,0,0
44.210792664509,-7.5810438226007,11.656495649565,2307115.1156833,-74.513220909081,2732797.4750867,16.856495649565,0,0
44.210792909156,-7.5824243809959,11.660926092609,2307115.1156833,-74.513220909081,2732797.4750867,16.860926092609,0,0
44.210793153804,-7.5838049393911,11.665356535654,2307115.1156833,-74.513220909081,2732797.4750867,16.865356535654,0,0
44.210793398451,-7.5851854977863,11.669786978698,2307115.1156833,-74.513220909081,2732797.4750867,16.869786978698,0,0
44.210793643099,-7.5865660561815,11.674217421742,2307115.1156833,-74.513220909081,2732797.4750867,16.874217421742,0,0
44.210793887746,-7.5879466145767,11.678647864786,2307115.1156833,-74.513220909081,2732797.4750867,16.878647864786,0,0
44.210794132393,-7.5893271729719,11.683078307831,2307115.1156833,-74.513220909081,2732797.4750867,16.883078307831,0,0
44.210794377041,-7.5907077313671,11.687508750875,2307115.1156833,-74.513220909081,2732797.4750867,16.887508750875,0,0
44.210794621688,-7.5920882897623,11.691939193919,2307115.1156833,-74.513220909081,2732797.4750867,16.891939193919,0,0
44.210794866336,-7.5934688481575,11.696369636964,2307115.1156833,-74.513220909081,2732797.4750867,16.896369636964,0,0
44.210795110983,-7.5948494065527,11.700800080008,2307115.1156833,-74.513220909081,2732797.4750867,16.900800080008,0,0
44.210795355631,-7.5962299649479,11.705230523052,2307115.1156833,-74.513220909081,2732797.4750867,16.905230523052,0,0
44.210795600278,-7.5976105233431,11.709660966097,2307115.1156833,-74.513220909081,2732797.4750867,16.909660966097,0,0
44.210795844926,-7.5989910817383,11.714091409141,2307115.1156833,-74.513220909081,2732797.4750867,16.914091409141,0,0
44.210796089573,-7.6003716401335,11.718521852185,2307115.1156833,-74.513220909081,2732797.4750867,16.918521852185,0,0
44.210796334221,-7.6017521985287,11.72295229523,2307115.1156833,-74.513220909081,2732797.4750867,16.92295229523,0,0
44.210796578868,-7.6031327569239,11.727382738274,2307115.1156833,-74.513220909081,2732797.4750867,16.927382738274,0,0
44.210796823516,-7.6045133153191,11.731813181318,2307115.1156833,-74.513220909081,2732797.4750867,16.931813181318,0,0
44.210797068163,-7.6058938737143,11.736243624362,2307115.1156833,-74.513220909081,2732797.4750867,16.936243624362,0,0
44.21079731281,-7.6072744321095,11.740674067407,2307115.1156833,-74.513220909081,2732797.4750867,16.940674067407,0,0
44.210797557458,-7.6086549905047,11.745104510451,2307115.1156833,-74.513220909081,2732797.4750867,16.945104510451,0,0
44.210797802105,-7.6100355488999,11.749534953495,2307115.1156833,-74.513220909081,2732797.4750867,16.949534953495,0,0
44.210798046753,-7.6114161072951,11.75396539654,2307115.1156833,-74.513220909081,2732797.4750867,16.95396539654,0,0
44.2107982914,-7.6127966656903,11.758395839584,2307115.1156833,-74.513220909081,2732797.4750867,16.958395839584,0,0
44.210798536048,-7.6141772240855,11.762826282628,2307115.1156833,-74.513220909081,2732797.4750867,16.962826282628,0,0
44.210798780695,-7.6155577824807,11.767256725673,2307115.1156833,-74.513220909081,2732797.4750867,16.967256725673,0,0
44.210799025343,-7.6169383408759,11.771687168717,2307115.1156833,-74.513220909081,2732797.4750867,16.971687168717,0,0
44.21079926999,-7.6183188992711,11.776117611761,2307115.1156833,-74.513220909081,2732797.4750867,16.976117611761,0,0
44.210799514638,-7.6196994576663,11.780548054805,2307115.1156833,-74.513220909081,2732797.4750867,16.980548054805,0,0
44.210799759285,-7.6210800160615,11.78497849785,2307115.1156833,-74.513220909081,2732797.4750867,16.98497849785,0,0
44.210800003933,-7.6224605744567,11.789408940894,2307115.1156833,-74.513220909081,2732797.4750867,16.989408940894,0,0
44.21080024858,-7.6238411328519,11.793839383938,2307115.1156833,-74.513220909081,2732797.4750867,16.993839383938,0,0
44.210800493228,-7.6252216912471,11.798269826983,2307115.1156833,-74.513220909081,2732797.4750867,16.998269826983,0,0
44.210800737875,-7.6266022496423,11.802700270027,2307115.1156833,-74.513220909081,2732797.4750867,17.002700270027,0,0
44.210800982522,-7.6279828080375,11.807130713071,2307115.1156833,-74.513220909081,2732797.4750867,17.007130713071,0,0
44.21080122717,-7.6293633664327,11.811561156116,2307115.1156833,-74.513220909081,2732797.4750867,17.011561156116,0,0
44.210801471817,-7.6307439248279,11.81599159916,2307115.1156833,-74.513220909081,2732797.4750867,17.01599159916,0,0
44.210801716465,-7.6321244832231,11.820422042204,2307115.1156833,-74.513220909081,2732797.4750867,17.020422042204,0,0
44.210801961112,-7.6335050416183,11.824852485249,2307115.1156833,-74.513220909081,2732797.4750867,17.024852485249,0,0
44.21080220576,-7.6348856000135,11.829282928293,2307115.1156833,-74.513220909081,2732797.4750867,17.029282928293,0,0
44.210802450407,-7.6362661584087,11.833713371337,2307115.1156833,-74.513220909081,2732797.4750867,17.033713371337,0,0
44.210802695055,-7.6376467168039,11.838143814381,2307115.1156833,-74.513220909081,2732797.4750867,17.038143814381,0,0
44.210802939702,-7.639027275199,11.842574257426,2307115.1156833,-74.513220909081,2732797.4750867,17.042574257426,0,0
44.21080318435,-7.6404078335942,11.84700470047,2307115.1156833,-74.513220909081,2732797.4750867,17.04700470047,0,0
44.210803428997,-7.6417883919894,11.851435143514,2307115.1156833,-74.513220909081,2732797.4750867,17.051435143514,0,0
44.210803673645,-7.6431689503846,11.855865586559,2307115.1156833,-74.513220909081,2732797.4750867,17.055865586559,0,0
44.210803918292,-7.6445495087798,11.860296029603,2307115.1156833,-74.513220909081,2732797.4750867,17.060296029603,0,0
44.210804162939,-7.645930067175,11.864726472647,2307115.1156833,-74.513220909081,2732797.4750867,17.064726472647,0,0
44.210804407587,-7.6473106255702,11.869156915692,2307115.1156833,-74.513220909081,2732797.4750867,17.069156915692,0,0
44.210804652234,-7.6486911839654,11.873587358736,2307115.1156833,-74.513220909081,2732797.4750867,17.073587358736,0,0
44.210804896882,-7.6500717423606,11.87801780178,2307115.1156833,-74.513220909081,2732797.4750867,17.07801780178,0,0
44.210805141529,-7.6514523007558,11.882448244824,2307115.1156833,-74.513220909081,2732797.4750867,17.082448244824,0,0
44.210805386177,-7.652832859151,11.886878687869,2307115.1156833,-74.513220909081,2732797.4750867,17.086878687869,0,0
44.210805630824,-7.6542134175462,11.891309130913,2307115.1156833,-74.513220909081,2732797.4750867,17.091309130913,0,0
44.210805875472,-7.6555939759414,11.895739573957,2307115.1156833,-74.513220909081,2732797.4750867,17.095739573957,0,0
44.210806120119,-7.6569745343366,11.900170017002,2307115.1156833,-74.513220909081,2732797.4750867,17.100170017002,0,0
44.210806364767,-7.6583550927318,11.904600460046,2307115.1156833,-74.513220909081,2732797.4750867,17.104600460046,0,0
44.210806609414,-7.659735651127,11.90903090309,2307115.1156833,-74.513220909081,2732797.4750867,17.10903090309,0,0
44.210806854062,-7.6611162095222,11.913461346135,2307115.1156833,-74.513220909081,2732797.4750867,17.113461346135,0,0
44.210807098709,-7.6624967679174,11.917891789179,2307115.1156833,-74.513220909081,2732797.4750867,17.117891789179,0,0
44.210807343357,-7.6638773263126,11.922322232223,2307115.1156833,-74.513220909081,2732797.4750867,17.122322232223,0,0
44.210807588004,-7.6652578847078,11.926752675268,2307115.1156833,-74.513220909081,2732797.4750867,17.126752675268,0,0
44.210807832651,-7.666638443103,11.931183118312,2307115.1156833,-74.513220909081,2732797.4750867,17.131183118312,0,0
44.210808077299,-7.6680190014982,11.935613561356,2307115.1156833,-74.513220909081,2732797.4750867,17.135613561356,0,0
44.210808321946,-7.6693995598934,11.9400440044,2307115.1156833,-74.513220909081,2732797.4750867,17.1400440044,0,0
44.210808566594,-7.6707801182886,11.944474447445,2307115.1156833,-74.513220909081,2732797.4750867,17.144474447445,0,0
44.210808811241,-7.6721606766838,11.948904890489,2307115.1156833,-74.513220909081,2732797.4750867,17.148904890489,0,0
44.210809055889,-7.673541235079,11.953335333533,2307115.1156833,-74.513220909081,2732797.4750867,17.153335333533,0,0
44.210809300536,-7.6749217934742,11.957765776578,2307115.1156833,-74.513220909081,2732797.4750867,17.157765776578,0,0
44.210809545184,-7.6763023518694,11.962196219622,2307115.1156833,-74.513220909081,2732797.4750867,17.162196219622,0,0
44.210809789831,-7.6776829102646,11.966626662666,2307115.1156833,-74.513220909081,2732797.4750867,17.166626662666,0,0
44.210810034479,-7.6790634686598,11.971057105711,2307115.1156833,-74.513220909081,2732797.4750867,17.171057105711,0,0
44.210810279126,-7.680444027055,11.975487548755,2307115.1156833,-74.513220909081,2732797.4750867,17.175487548755,0,0
44.210810523774,-7.6818245854502,11.979917991799,2307115.1156833,-74.513220909081,2732797.4750867,17.179917991799,0,0
44.210810768421,-7.6832051438454,11.984348434843,2307115.1156833,-74.513220909081,2732797.4750867,17.184348434843,0,0
44.210811013068,-7.6845857022406,11.988778877888,2307115.1156833,-74.513220909081,2732797.4750867,17.188778877888,0,0
44.210811257716,-7.6859662606358,11.993209320932,2307115.1156833,-74.513220909081,2732797.4750867,17.193209320932,0,0
44.210811502363,-7.687346819031,11.997639763976,2307115.1156833,-74.513220909081,2732797.4750867,17.197639763976,0,0
44.210811747011,-7.6887273774262,12.002070207021,2307115.1156833,-74.513220909081,2732797.4750867,17.202070207021,0,0
44.210811991658,-7.6901079358214,12.006500650065,2307115.1156833,-74.513220909081,2732797.4750867,17.206500650065,0,0
44.210812236306,-7.6914884942166,12.010931093109,2307115.1156833,-74.513220909081,2732797.4750867,17.210931093109,0,0
44.210812480953,-7.6928690526118,12.015361536154,2307115.1156833,-74.513220909081,2732797.4750867,17.215361536154,0,0
44.210812725601,-7.694249611007,12.019791979198,2307115.1156833,-74.513220909081,2732797.4750867,17.219791979198,0,0
44.210812970248,-7.6956301694022,12.024222422242,2307115.1156833,-74.513220909081,2732797.4750867,17.224222422242,0,0
44.210813214896,-7.6970107277974,12.028652865287,2307115.1156833,-74.513220909081,2732797.4750867,17.228652865287,0,0
44.210813459543,-7.6983912861926,12.033083308331,2307115.1156833,-74.513220909081,2732797.4750867,17.233083308331,0,0
44.210813704191,-7.6997718445878,12.037513751375,2307115.1156833,-74.513220909081,2732797.4750867,17.237513751375,0,0
44.210813948838,-7.701152402983,12.041944194419,2307115.1156833,-74.513220909081,2732797.4750867,17.241944194419,0,0
44.210814193485,-7.7025329613782,12.046374637464,2307115.1156833,-74.513220909081,2732797.4750867,17.246374637464,0,0
44.210814438133,-7.7039135197734,12.050805080508,2307115.1156833,-74.513220909081,2732797.4750867,17.250805080508,0,0
44.21081468278,-7.7052940781686,12.055235523552,2307115.1156833,-74.513220909081,2732797.4750867,17.255235523552,0,0
44.210814927428,-7.7066746365638,12.059665966597,2307115.1156833,-74.513220909081,2732797.4750867,17.259665966597,0,0
44.210815172075,-7.708055194959,12.064096409641,2307115.1156833,-74.513220909081,2732797.4750867,17.264096409641,0,0
44.210815416723,-7.7094357533542,12.068526852685,2307115.1156833,-74.513220909081,2732797.4750867,17.268526852685,0,0
44.21081566137,-7.7108163117494,12.07295729573,2307115.1156833,-74.513220909081,2732797.4750867,17.27295729573,0,0
44.210815906018,-7.7121968701446,12.077387738774,2307115.1156833,-74.513220909081,2732797.4750867,17.277387738774,0,0
44.210816150665,-7.7135774285398,12.081818181818,2307115.1156833,-74.513220909081,2732797.4750867,17.281818181818,0,0
44.210816395313,-7.714957986935,12.086248624862,2307115.1156833,-74.513220909081,2732797.4750867,17.286248624862,0,0
44.21081663996,-7.7163385453302,12.090679067907,2307115.1156833,-74.513220909081,2732797.4750867,17.290679067907,0,0
44.210816884608,-7.7177191037254,12.095109510951,2307115.1156833,-74.513220909081,2732797.4750867,17.295109510951,0,0
44.210817129255,-7.7190996621206,12.099539953995,2307115.1156833,-74.513220909081,2732797.4750867,17.299539953995,0,0
44.210817373903,-7.7204802205158,12.10397039704,2307115.1156833,-74.513220909081,2732797.4750867,17.30397039704,0,0
44.21081761855,-7.721860778911,12.108400840084,2307115.1156833,-74.513220909081,2732797.4750867,17.308400840084,0,0
44.210817863197,-7.7232413373062,12.112831283128,2307115.1156833,-74.513220909081,2732797.4750867,17.312831283128,0,0
44.210818107845,-7.7246218957014,12.117261726173,2307115.1156833,-74.513220909081,2732797.4750867,17.317261726173,0,0
44.210818352492,-7.7260024540966,12.121692169217,2307115.1156833,-74.513220909081,2732797.4750867,17.321692169217,0,0
44.21081859714,-7.7273830124918,12.126122612261,2307115.1156833,-74.513220909081,2732797.4750867,17.326122612261,0,0
44.210818841787,-7.728763570887,12.130553055306,2307115.1156833,-74.513220909081,2732797.4750867,17.330553055306,0,0
44.210819086435,-7.7301441292822,12.13498349835,2307115.1156833,-74.513220909081,2732797.4750867,17.33498349835,0,0
44.210819331082,-7.7315246876774,12.139413941394,2307115.1156833,-74.513220909081,2732797.4750867,17.339413941394,0,0
44.21081957573,-7.7329052460726,12.143844384438,2307115.1156833,-74.513220909081,2732797.4750867,17.343844384438,0,0
44.210819820377,-7.7342858044678,12.148274827483,2307115.1156833,-74.513220909081,2732797.4750867,17.348274827483,0,0
44.210820065025,-7.735666362863,12.152705270527,2307115.1156833,-74.513220909081,2732797.4750867,17.352705270527,0,0
44.210820309672,-7.7370469212582,12.157135713571,2307115.1156833,-74.513220909081,2732797.4750867,17.357135713571,0,0
44.21082055432,-7.7384274796534,12.161566156616,2307115.1156833,-74.513220909081,2732797.4750867,17.361566156616,0,0
44.210820798967,-7.7398080380486,12.16599659966,2307115.1156833,-74.513220909081,2732797.4750867,17.36599659966,0,0
44.210821043614,-7.7411885964438,12.170427042704,2307115.1156833,-74.513220909081,2732797.4750867,17.370427042704,0,0
44.210821288262,-7.742569154839,12.174857485749,2307115.1156833,-74.513220909081,2732797.4750867,17.374857485749,0,0
44.210821532909,-7.7439497132342,12.179287928793,2307115.1156833,-74.513220909081,2732797.4750867,17.379287928793,0,0
44.210821777557,-7.7453302716294,12.183718371837,2307115.1156833,-74.513220909081,2732797.4750867,17.383718371837,0,0
44.210822022204,-7.7467108300246,12.188148814881,2307115.1156833,-74.513220909081,2732797.4750867,17.388148814881,0,0
44.210822266852,-7.7480913884198,12.192579257926,2307115.1156833,-74.513220909081,2732797.4750867,17.392579257926,0,0
44.210822511499,-7.749471946815,12.19700970097,2307115.1156833,-74.513220909081,2732797.4750867,17.39700970097,0,0
44.210822756147,-7.7508525052102,12.201440144014,2307115.1156833,-74.513220909081,2732797.4750867,17.401440144014,0,0
44.210823000794,-7.7522330636054,12.205870587059,2307115.1156833,-74.513220909081,2732797.4750867,17.405870587059,0,0
44.210823245442,-7.7536136220006,12.210301030103,2307115.1156833,-74.513220909081,2732797.4750867,17.410301030103,0,0
44.210823490089,-7.7549941803958,12.214731473147,2307115.1156833,-74.513220909081,2732797.4750867,17.414731473147,0,0
44.210823734737,-7.756374738791,12.219161916192,2307115.1156833,-74.513220909081,2732797.4750867,17.419161916192,0,0
44.210823979384,-7.7577552971862,12.223592359236,2307115.1156833,-74.513220909081,2732797.4750867,17.423592359236,0,0
44.210824224032,-7.7591358555814,12.22802280228,2307115.1156833,-74.513220909081,2732797.4750867,17.42802280228,0,0
44.210824468679,-7.7605164139766,12.232453245325,2307115.1156833,-74.513220909081,2732797.4750867,17.432453245325,0,0
44.210824713326,-7.7618969723718,12.236883688369,2307115.1156833,-74.513220909081,2732797.4750867,17.436883688369,0,0
44.210824957974,-7.763277530767,12.241314131413,2307115.1156833,-74.513220909081,2732797.4750867,17.441314131413,0,0
44.210825202621,-7.7646580891622,12.245744574457,2307115.1156833,-74.513220909081,2732797.4750867,17.445744574457,0,0
44.210825447269,-7.7660386475574,12.250175017502,2307115.1156833,-74.513220909081,2732797.4750867,17.450175017502,0,0
44.210825691916,-7.7674192059526,12.254605460546,2307115.1156833,-74.513220909081,2732797.4750867,17.454605460546,0,0
44.210825936564,-7.7687997643478,12.25903590359,2307115.1156833,-74.513220909081,2732797.4750867,17.45903590359,0,0
44.210826181211,-7.770180322743,12.263466346635,2307115.1156833,-74.513220909081,2732797.4750867,17.463466346635,0,0
44.210826425859,-7.7715608811382,12.267896789679,2307115.1156833,-74.513220909081,2732797.4750867,17.467896789679,0,0
44.210826670506,-7.7729414395334,12.272327232723,2307115.1156833,-74.513220909081,2732797.4750867,17.472327232723,0,0
44.210826915154,-7.7743219979286,12.276757675768,2307115.1156833,-74.513220909081,2732797.4750867,17.476757675768,0,0
44.210827159801,-7.7757025563238,12.281188118812,2307115.1156833,-74.513220909081,2732797.4750867,17.481188118812,0,0
44.210827404449,-7.777083114719,12.285618561856,2307115.1156833,-74.513220909081,2732797.4750867,17.485618561856,0,0
44.210827649096,-7.7784636731142,12.2900490049,2307115.1156833,-74.513220909081,2732797.4750867,17.4900490049,0,0
44.210827893743,-7.7798442315094,12.294479447945,2307115.1156833,-74.513220909081,2732797.4750867,17.494479447945,0,0
44.210828138391,-7.7812247899046,12.298909890989,2307115.1156833,-74.513220909081,2732797.4750867,17.498909890989,0,0
44.210828383038,-7.7826053482998,12.303340334033,2307115.1156833,-74.513220909081,2732797.4750867,17.503340334033,0,0
44.210828627686,-7.783985906695,12.307770777078,2307115.1156833,-74.513220909081,2732797.4750867,17.507770777078,0,0
44.210828872333,-7.7853664650902,12.312201220122,2307115.1156833,-74.513220909081,2732797.4750867,17.512201220122,0,0
44.210829116981,-7.7867470234854,12.316631663166,2307115.1156833,-74.513220909081,2732797.4750867,17.516631663166,0,0
44.210829362212,-7.7881275811114,12.321062106211,2329044.6916013,7680.189957,2724433.6084158,17.521062106211,0,0
44.210829608834,-7.7895081369048,12.325492549255,2329044.6916013,7680.189957,2724433.6084158,17.525492549255,0,0
44.210829855455,-7.7908886926982,12.329922992299,2329044.6916013,7680.189957,2724433.6084158,17.529922992299,0,0
44.210830102077,-7.7922692484916,12.334353435344,2329044.6916013,7680.189957,2724433.6084158,17.534353435344,0,0
44.210830348699,-7.7936498042851,12.338783878388,2329044.6916013,7680.189957,2724433.6084158,17.538783878388,0,0
44.210830595321,-7.7950303600785,12.343214321432,2329044.6916013,7680.189957,2724433.6084158,17.543214321432,0,0
44.210830841943,-7.7964109158719,12.347644764476,2329044.6916013,7680.189957,2724433.6084158,17.547644764476,0,0
44.210831088564,-7.7977914716653,12.352075207521,2329044.6916013,7680.189957,2724433.6084158,17.552075207521,0,0
44.210831335186,-7.7991720274587,12.356505650565,2329044.6916013,7680.189957,2724433.6084158,17.556505650565,0,0
44.210831581808,-7.8005525832521,12.360936093609,2329044.6916013,7680.189957,2724433.6084158,17.560936093609,0,0
44.21083182843,-7.8019331390455,12.365366536654,2329044.6916013,7680.189957,2724433.6084158,17.565366536654,0,0
44.210832075052,-7.8033136948389,12.369796979698,2329044.6916013,7680.189957,2724433.6084158,17.569796979698,0,0
44.210832321673,-7.8046942506323,12.374227422742,2329044.6916013,7680.189957,2724433.6084158,17.574227422742,0,0
44.210832568295,-7.8060748064257,12.378657865787,2329044.6916013,7680.189957,2724433.6084158,17.578657865787,0,0
44.210832814917,-7.8074553622191,12.383088308831,2329044.6916013,7680.189957,2724433.6084158,17.583088308831,0,0
44.210833061539,-7.8088359180125,12.387518751875,2329044.6916013,7680.189957,2724433.6084158,17.587518751875,0,0
44.210833308161,-7.8102164738059,12.391949194919,2329044.6916013,7680.189957,2724433.6084158,17.591949194919,0,0
44.210833554782,-7.8115970295993,12.396379637964,2329044.6916013,7680.189957,2724433.6084158,17.596379637964,0,0
44.210833801404,-7.8129775853927,12.400810081008,2329044.6916013,7680.189957,2724433.6084158,17.600810081008,0,0
44.210834048026,-7.8143581411862,12.405240524052,2329044.6916013,7680.189957,2724433.6084158,17.605240524052,0,0
44.210834294648,-7.8157386969796,12.409670967097,2329044.6916013,7680.189957,2724433.6084158,17.609670967097,0,0
44.21083454127,-7.817119252773,12.414101410141,2329044.6916013,7680.189957,2724433.6084158,17.614101410141,0,0
44.210834787891,-7.8184998085664,12.418531853185,2329044.6916013,7680.189957,2724433.6084158,17.618531853185,0,0
44.210835034513,-7.8198803643598,12.42296229623,2329044.6916013,7680.189957,2724433.6084158,17.62296229623,0,0
44.210835281135,-7.8212609201532,12.427392739274,2329044.6916013,7680.189957,2724433.6084158,17.627392739274,0,0
44.210835527757,-7.8226414759466,12.431823182318,2329044.6916013,7680.189957,2724433.6084158,17.631823182318,0,0
44.210835774379,-7.82402203174,12.436253625363,2329044.6916013,7680.189957,2724433.6084158,17.636253625363,0,0
44.210836021,-7.8254025875334,12.440684068407,2329044.6916013,7680.189957,2724433.6084158,17.640684068407,0,0
44.210836267622,-7.8267831433268,12.445114511451,2329044.6916013,7680.189957,2724433.6084158,17.645114511451,0,0
44.210836514244,-7.8281636991202,12.449544954495,2329044.6916013,7680.189957,2724433.6084158,17.649544954495,0,0
44.210836760866,-7.8295442549136,12.45397539754,2329044.6916013,7680.189957,2724433.6084158,17.65397539754,0,0
44.210837007488,-7.830924810707,12.458405840584,2329044.6916013,7680.189957,2724433.6084158,17.658405840584,0,0
44.210837254109,-7.8323053665004,12.462836283628,2329044.6916013,7680.189957,2724433.6084158,17.662836283628,0,0
44.210837500731,-7.8336859222938,12.467266726673,2329044.6916013,7680.189957,2724433.6084158,17.667266726673,0,0
44.210837747353,-7.8350664780873,12.471697169717,2329044.6916013,7680.189957,2724433.6084158,17.671697169717,0,0
44.210837993975,-7.8364470338807,12.476127612761,2329044.6916013,7680.189957,2724433.6084158,17.676127612761,0,0
44.210838240597,-7.8378275896741,12.480558055806,2329044.6916013,7680.189957,2724433.6084158,17.680558055806,0,0
44.210838487218,-7.8392081454675,12.48498849885,2329044.6916013,7680.189957,2724433.6084158,17.68498849885,0,0
44.21083873384,-7.8405887012609,12.489418941894,2329044.6916013,7680.189957,2724433.6084158,17.689418941894,0,0
44.210838980462,-7.8419692570543,12.493849384938,2329044.6916013,7680.189957,2724433.6084158,17.693849384938,0,0
44.210839227084,-7.8433498128477,12.498279827983,2329044.6916013,7680.189957,2724433.6084158,17.698279827983,0,0
44.210839473706,-7.8447303686411,12.502710271027,2329044.6916013,7680.189957,2724433.6084158,17.702710271027,0,0
44.210839720327,-7.8461109244345,12.507140714071,2329044.6916013,7680.189957,2724433.6084158,17.707140714071,0,0
44.210839966949,-7.8474914802279,12.511571157116,2329044.6916013,7680.189957,2724433.6084158,17.711571157116,0,0
44.210840213571,-7.8488720360213,12.51600160016,2329044.6916013,7680.189957,2724433.6084158,17.71600160016,0,0
44.210840460193,-7.8502525918147,12.520432043204,2329044.6916013,7680.189957,2724433.6084158,17.720432043204,0,0
44.210840706815,-7.8516331476081,12.524862486249,2329044.6916013,7680.189957,2724433.6084158,17.724862486249,0,0
44.210840953436,-7.8530137034015,12.529292929293,2329044.6916013,7680.189957,2724433.6084158,17.729292929293,0,0
44.210841200058,-7.854394259195,12.533723372337,2329044.6916013,7680.189957,2724433.6084158,17.733723372337,0,0
44.21084144668,-7.8557748149884,12.538153815382,2329044.6916013,7680.189957,2724433.6084158,17.738153815382,0,0
44.210841693302,-7.8571553707818,12.542584258426,2329044.6916013,7680.189957,2724433.6084158,17.742584258426,0,0
44.210841939923,-7.8585359265752,12.54701470147,2329044.6916013,7680.189957,2724433.6084158,17.74701470147,0,0
44.210842186545,-7.8599164823686,12.551445144514,2329044.6916013,7680.189957,2724433.6084158,17.751445144514,0,0
44.210842433167,-7.861297038162,12.555875587559,2329044.6916013,7680.189957,2724433.6084158,17.755875587559,0,0
44.210842679789,-7.8626775939554,12.560306030603,2329044.6916013,7680.189957,2724433.6084158,17.760306030603,0,0
44.210842926411,-7.8640581497488,12.564736473647,2329044.6916013,7680.189957,2724433.6084158,17.764736473647,0,0
44.210843173032,-7.8654387055422,12.569166916692,2329044.6916013,7680.189957,2724433.6084158,17.769166916692,0,0
44.210843419654,-7.8668192613356,12.573597359736,2329044.6916013,7680.189957,2724433.6084158,17.773597359736,0,0
44.210843666276,-7.868199817129,12.57802780278,2329044.6916013,7680.189957,2724433.6084158,17.77802780278,0,0
44.210843912898,-7.8695803729224,12.582458245825,2329044.6916013,7680.189957,2724433.6084158,17.782458245825,0,0
44.21084415952,-7.8709609287158,12.586888688869,2329044.6916013,7680.189957,2724433.6084158,17.786888688869,0,0
44.210844406141,-7.8723414845092,12.591319131913,2329044.6916013,7680.189957,2724433.6084158,17.791319131913,0,0
44.210844652763,-7.8737220403026,12.595749574957,2329044.6916013,7680.189957,2724433.6084158,17.795749574957,0,0
44.210844899385,-7.875102596096,12.600180018002,2329044.6916013,7680.189957,2724433.6084158,17.800180018002,0,0
44.210845146007,-7.8764831518895,12.604610461046,2329044.6916013,7680.189957,2724433.6084158,17.804610461046,0,0
44.210845392629,-7.8778637076829,12.60904090409,2329044.6916013,7680.189957,2724433.6084158,17.80904090409,0,0
44.21084563925,-7.8792442634763,12.613471347135,2329044.6916013,7680.189957,2724433.6084158,17.813471347135,0,0
44.210845885872,-7.8806248192697,12.617901790179,2329044.6916013,7680.189957,2724433.6084158,17.817901790179,0,0
44.210846132494,-7.8820053750631,12.622332233223,2329044.6916013,7680.189957,2724433.6084158,17.822332233223,0,0
44.210846379116,-7.8833859308565,12.626762676268,2329044.6916013,7680.189957,2724433.6084158,17.826762676268,0,0
44.210846625738,-7.8847664866499,12.631193119312,2329044.6916013,7680.189957,2724433.6084158,17.831193119312,0,0
44.210846872359,-7.8861470424433,12.635623562356,2329044.6916013,7680.189957,2724433.6084158,17.835623562356,0,0
44.210847118981,-7.8875275982367,12.640054005401,2329044.6916013,7680.189957,2724433.6084158,17.840054005401,0,0
44.210847365603,-7.8889081540301,12.644484448445,2329044.6916013,7680.189957,2724433.6084158,17.844484448445,0,0
44.210847612225,-7.8902887098235,12.648914891489,2329044.6916013,7680.189957,2724433.6084158,17.848914891489,0,0
44.210847858847,-7.8916692656169,12.653345334533,2329044.6916013,7680.189957,2724433.6084158,17.853345334533,0,0
44.210848105468,-7.8930498214103,12.657775777578,2329044.6916013,7680.189957,2724433.6084158,17.857775777578,0,0
44.21084835209,-7.8944303772037,12.662206220622,2329044.6916013,7680.189957,2724433.6084158,17.862206220622,0,0
44.210848598712,-7.8958109329972,12.666636663666,2329044.6916013,7680.189957,2724433.6084158,17.866636663666,0,0
44.210848845334,-7.8971914887906,12.671067106711,2329044.6916013,7680.189957,2724433.6084158,17.871067106711,0,0
44.210849091956,-7.898572044584,12.675497549755,2329044.6916013,7680.189957,2724433.6084158,17.875497549755,0,0
44.210849338577,-7.8999526003774,12.679927992799,2329044.6916013,7680.189957,2724433.6084158,17.879927992799,0,0
44.210849585199,-7.9013331561708,12.684358435844,2329044.6916013,7680.189957,2724433.6084158,17.884358435844,0,0
44.210849831821,-7.9027137119642,12.688788878888,2329044.6916013,7680.189957,2724433.6084158,17.888788878888,0,0
44.210850078443,-7.9040942677576,12.693219321932,2329044.6916013,7680.189957,2724433.6084158,17.893219321932,0,0
44.210850325065,-7.905474823551,12.697649764976,2329044.6916013,7680.189957,2724433.6084158,17.897649764976,0,0
44.210850571686,-7.9068553793444,12.702080208021,2329044.6916013,7680.189957,2724433.6084158,17.902080208021,0,0
44.210850818308,-7.9082359351378,12.706510651065,2329044.6916013,7680.189957,2724433.6084158,17.906510651065,0,0
44.21085106493,-7.9096164909312,12.710941094109,2329044.6916013,7680.189957,2724433.6084158,17.910941094109,0,0
44.210851311552,-7.9109970467246,12.715371537154,2329044.6916013,7680.189957,2724433.6084158,17.915371537154,0,0
44.210851558174,-7.912377602518,12.719801980198,2329044.6916013,7680.189957,2724433.6084158,17.919801980198,0,0
44.210851804795,-7.9137581583114,12.724232423242,2329044.6916013,7680.189957,2724433.6084158,17.924232423242,0,0
44.210852051417,-7.9151387141048,12.728662866287,2329044.6916013,7680.189957,2724433.6084158,17.928662866287,0,0
44.210852298039,-7.9165192698983,12.733093309331,2329044.6916013,7680.189957,2724433.6084158,17.933093309331,0,0
44.210852544661,-7.9178998256917,12.737523752375,2329044.6916013,7680.189957,2724433.6084158,17.937523752375,0,0
44.210852791661,-7.9192803825024,12.74195419542,2334354.6924407,-1099.8522523665,2705648.9696007,17.94195419542,0,0
44.210853039208,-7.9206609407775,12.746384638464,2334354.6924407,-1099.8522523665,2705648.9696007,17.946384638464,0,0
44.210853286754,-7.9220414990525,12.750815081508,2334354.6924407,-1099.8522523665,2705648.9696007,17.950815081508,0,0
44.2108535343,-7.9234220573276,12.755245524552,2334354.6924407,-1099.8522523665,2705648.9696007,17.955245524552,0,0
44.210853781846,-7.9248026156027,12.759675967597,2334354.6924407,-1099.8522523665,2705648.9696007,17.959675967597,0,0
44.210854029392,-7.9261831738777,12.764106410641,2334354.6924407,-1099.8522523665,2705648.9696007,17.964106410641,0,0
44.210854276938,-7.9275637321528,12.768536853685,2334354.6924407,-1099.8522523665,2705648.9696007,17.968536853685,0,0
44.210854524484,-7.9289442904279,12.77296729673,2334354.6924407,-1099.8522523665,2705648.9696007,17.97296729673,0,0
44.21085477203,-7.9303248487029,12.777397739774,2334354.6924407,-1099.8522523665,2705648.9696007,17.977397739774,0,0
44.210855019576,-7.931705406978,12.781828182818,2334354.6924407,-1099.8522523665,2705648.9696007,17.981828182818,0,0
44.210855267122,-7.9330859652531,12.786258625863,2334354.6924407,-1099.8522523665,2705648.9696007,17.986258625863,0,0
44.210855514668,-7.9344665235281,12.790689068907,2334354.6924407,-1099.8522523665,2705648.9696007,17.990689068907,0,0
44.210855762214,-7.9358470818032,12.795119511951,2334354.6924407,-1099.8522523665,2705648.9696007,17.995119511951,0,0
44.210856009761,-7.9372276400782,12.799549954995,2334354.6924407,-1099.8522523665,2705648.9696007,17.999549954995,0,0
44.210856257307,-7.9386081983533,12.80398039804,2334354.6924407,-1099.8522523665,2705648.9696007,18.00398039804,0,0
44.210856504853,-7.9399887566284,12.808410841084,2334354.6924407,-1099.8522523665,2705648.9696007,18.008410841084,0,0
44.210856752399,-7.9413693149034,12.812841284128,2334354.6924407,-1099.8522523665,2705648.9696007,18.012841284128,0,0
44.210856999945,-7.9427498731785,12.817271727173,2334354.6924407,-1099.8522523665,2705648.9696007,18.017271727173,0,0
44.210857247491,-7.9441304314536,12.821702170217,2334354.6924407,-1099.8522523665,2705648.9696007,18.021702170217,0,0
44.210857495037,-7.9455109897286,12.826132613261,2334354.6924407,-1099.8522523665,2705648.9696007,18.026132613261,0,0
44.210857742583,-7.9468915480037,12.830563056306,2334354.6924407,-1099.8522523665,2705648.9696007,18.030563056306,0,0
44.210857990129,-7.9482721062788,12.83499349935,2334354.6924407,-1099.8522523665,2705648.9696007,18.03499349935,0,0
44.210858237675,-7.9496526645538,12.839423942394,2334354.6924407,-1099.8522523665,2705648.9696007,18.039423942394,0,0
44.210858485221,-7.9510332228289,12.843854385439,2334354.6924407,-1099.8522523665,2705648.9696007,18.043854385439,0,0
44.210858732767,-7.952413781104,12.848284828483,2334354.6924407,-1099.8522523665,2705648.9696007,18.048284828483,0,0
44.210858980313,-7.953794339379,12.852715271527,2334354.6924407,-1099.8522523665,2705648.9696007,18.052715271527,0,0
44.21085922786,-7.9551748976541,12.857145714571,2334354.6924407,-1099.8522523665,2705648.9696007,18.057145714571,0,0
44.210859475406,-7.9565554559291,12.861576157616,2334354.6924407,-1099.8522523665,2705648.9696007,18.061576157616,0,0
44.210859722952,-7.9579360142042,12.86600660066,2334354.6924407,-1099.8522523665,2705648.9696007,18.06600660066,0,0
44.210859970498,-7.9593165724793,12.870437043704,2334354.6924407,-1099.8522523665,2705648.9696007,18.070437043704,0,0
44.210860218044,-7.9606971307543,12.874867486749,2334354.6924407,-1099.8522523665,2705648.9696007,18.074867486749,0,0
44.21086046559,-7.9620776890294,12.879297929793,2334354.6924407,-1099.8522523665,2705648.9696007,18.079297929793,0,0
44.210860713136,-7.9634582473045,12.883728372837,2334354.6924407,-1099.8522523665,2705648.9696007,18.083728372837,0,0
44.210860960682,-7.9648388055795,12.888158815882,2334354.6924407,-1099.8522523665,2705648.9696007,18.088158815882,0,0
44.210861208228,-7.9662193638546,12.892589258926,2334354.6924407,-1099.8522523665,2705648.9696007,18.092589258926,0,0
44.210861455774,-7.9675999221297,12.89701970197,2334354.6924407,-1099.8522523665,2705648.9696007,18.09701970197,0,0
44.21086170332,-7.9689804804047,12.901450145015,2334354.6924407,-1099.8522523665,2705648.9696007,18.101450145014,0,0
44.210861950866,-7.9703610386798,12.905880588059,2334354.6924407,-1099.8522523665,2705648.9696007,18.105880588059,0,0
44.210862198413,-7.9717415969549,12.910311031103,2334354.6924407,-1099.8522523665,2705648.9696007,18.110311031103,0,0
44.210862445959,-7.9731221552299,12.914741474147,2334354.6924407,-1099.8522523665,2705648.9696007,18.114741474147,0,0
44.210862693505,-7.974502713505,12.919171917192,2334354.6924407,-1099.8522523665,2705648.9696007,18.119171917192,0,0
44.210862941051,-7.97588327178,12.923602360236,2334354.6924407,-1099.8522523665,2705648.9696007,18.123602360236,0,0
44.210863188597,-7.9772638300551,12.92803280328,2334354.6924407,-1099.8522523665,2705648.9696007,18.12803280328,0,0
44.210863436143,-7.9786443883302,12.932463246325,2334354.6924407,-1099.8522523665,2705648.9696007,18.132463246325,0,0
44.210863683689,-7.9800249466052,12.936893689369,2334354.6924407,-1099.8522523665,2705648.9696007,18.136893689369,0,0
44.210863931235,-7.9814055048803,12.941324132413,2334354.6924407,-1099.8522523665,2705648.9696007,18.141324132413,0,0
44.210864178781,-7.9827860631554,12.945754575458,2334354.6924407,-1099.8522523665,2705648.9696007,18.145754575458,0,0
44.210864426327,-7.9841666214304,12.950185018502,2334354.6924407,-1099.8522523665,2705648.9696007,18.150185018502,0,0
44.210864673873,-7.9855471797055,12.954615461546,2334354.6924407,-1099.8522523665,2705648.9696007,18.154615461546,0,0
44.210864921419,-7.9869277379806,12.95904590459,2334354.6924407,-1099.8522523665,2705648.9696007,18.15904590459,0,0
44.210865168966,-7.9883082962556,12.963476347635,2334354.6924407,-1099.8522523665,2705648.9696007,18.163476347635,0,0
44.210865416512,-7.9896888545307,12.967906790679,2334354.6924407,-1099.8522523665,2705648.9696007,18.167906790679,0,0
44.210865664058,-7.9910694128058,12.972337233723,2334354.6924407,-1099.8522523665,2705648.9696007,18.172337233723,0,0
44.210865911604,-7.9924499710808,12.976767676768,2334354.6924407,-1099.8522523665,2705648.9696007,18.176767676768,0,0
44.21086615915,-7.9938305293559,12.981198119812,2334354.6924407,-1099.8522523665,2705648.9696007,18.181198119812,0,0
44.210866406696,-7.9952110876309,12.985628562856,2334354.6924407,-1099.8522523665,2705648.9696007,18.185628562856,0,0
44.210866654242,-7.996591645906,12.990059005901,2334354.6924407,-1099.8522523665,2705648.9696007,18.190059005901,0,0
44.210866901788,-7.9979722041811,12.994489448945,2334354.6924407,-1099.8522523665,2705648.9696007,18.194489448945,0,0
44.210867149334,-7.9993527624561,12.998919891989,2334354.6924407,-1099.8522523665,2705648.9696007,18.198919891989,0,0
44.21086739688,-8.0007333207312,13.003350335034,2334354.6924407,-1099.8522523665,2705648.9696007,18.203350335034,0,0
44.210867644426,-8.0021138790063,13.007780778078,2334354.6924407,-1099.8522523665,2705648.9696007,18.207780778078,0,0
44.210867891972,-8.0034944372813,13.012211221122,2334354.6924407,-1099.8522523665,2705648.9696007,18.212211221122,0,0
44.210868139519,-8.0048749955564,13.016641664166,2334354.6924407,-1099.8522523665,2705648.9696007,18.216641664166,0,0
44.210868387065,-8.0062555538315,13.021072107211,2334354.6924407,-1099.8522523665,2705648.9696007,18.221072107211,0,0
44.210868634611,-8.0076361121065,13.025502550255,2334354.6924407,-1099.8522523665,2705648.9696007,18.225502550255,0,0
44.210868882157,-8.0090166703816,13.029932993299,2334354.6924407,-1099.8522523665,2705648.9696007,18.229932993299,0,0
44.210869129703,-8.0103972286566,13.034363436344,2334354.6924407,-1099.8522523665,2705648.9696007,18.234363436344,0,0
44.210869377249,-8.0117777869317,13.038793879388,2334354.6924407,-1099.8522523665,2705648.9696007,18.238793879388,0,0
44.210869624795,-8.0131583452068,13.043224322432,2334354.6924407,-1099.8522523665,2705648.9696007,18.243224322432,0,0
44.210869872341,-8.0145389034818,13.047654765477,2334354.6924407,-1099.8522523665,2705648.9696007,18.247654765477,0,0
44.210870119887,-8.0159194617569,13.052085208521,2334354.6924407,-1099.8522523665,2705648.9696007,18.252085208521,0,0
44.210870367433,-8.017300020032,13.056515651565,2334354.6924407,-1099.8522523665,2705648.9696007,18.256515651565,0,0
44.210870614979,-8.018680578307,13.060946094609,2334354.6924407,-1099.8522523665,2705648.9696007,18.260946094609,0,0
44.210870862525,-8.0200611365821,13.065376537654,2334354.6924407,-1099.8522523665,2705648.9696007,18.265376537654,0,0
44.210871110072,-8.0214416948572,13.069806980698,2334354.6924407,-1099.8522523665,2705648.9696007,18.269806980698,0,0
44.210871357618,-8.0228222531322,13.074237423742,2334354.6924407,-1099.8522523665,2705648.9696007,18.274237423742,0,0
44.210871605164,-8.0242028114073,13.078667866787,2334354.6924407,-1099.8522523665,2705648.9696007,18.278667866787,0,0
44.21087185271,-8.0255833696824,13.083098309831,2334354.6924407,-1099.8522523665,2705648.9696007,18.283098309831,0,0
44.210872100256,-8.0269639279574,13.087528752875,2334354.6924407,-1099.8522523665,2705648.9696007,18.287528752875,0,0
44.210872347802,-8.0283444862325,13.09195919592,2334354.6924407,-1099.8522523665,2705648.9696007,18.29195919592,0,0
44.210872595348,-8.0297250445075,13.096389638964,2334354.6924407,-1099.8522523665,2705648.9696007,18.296389638964,0,0
44.210872842894,-8.0311056027826,13.100820082008,2334354.6924407,-1099.8522523665,2705648.9696007,18.300820082008,0,0
44.21087309044,-8.0324861610577,13.105250525053,2334354.6924407,-1099.8522523665,2705648.9696007,18.305250525053,0,0
44.210873337986,-8.0338667193327,13.109680968097,2334354.6924407,-1099.8522523665,2705648.9696007,18.309680968097,0,0
44.210873585532,-8.0352472776078,13.114111411141,2334354.6924407,-1099.8522523665,2705648.9696007,18.314111411141,0,0
44.210873833078,-8.0366278358829,13.118541854185,2334354.6924407,-1099.8522523665,2705648.9696007,18.318541854185,0,0
44.210874080625,-8.0380083941579,13.12297229723,2334354.6924407,-1099.8522523665,2705648.9696007,18.32297229723,0,0
44.210874328171,-8.039388952433,13.127402740274,2334354.6924407,-1099.8522523665,2705648.9696007,18.327402740274,0,0
44.210874575717,-8.0407695107081,13.131833183318,2334354.6924407,-1099.8522523665,2705648.9696007,18.331833183318,0,0
44.210874823263,-8.0421500689831,13.136263626363,2334354.6924407,-1099.8522523665,2705648.9696007,18.336263626363,0,0
44.210875070809,-8.0435306272582,13.140694069407,2334354.6924407,-1099.8522523665,2705648.9696007,18.340694069407,0,0
44.210875318355,-8.0449111855333,13.145124512451,2334354.6924407,-1099.8522523665,2705648.9696007,18.345124512451,0,0
44.210875565901,-8.0462917438083,13.149554955496,2334354.6924407,-1099.8522523665,2705648.9696007,18.349554955496,0,0
44.210875813447,-8.0476723020834,13.15398539854,2334354.6924407,-1099.8522523665,2705648.9696007,18.35398539854,0,0
44.210876060993,-8.0490528603584,13.158415841584,2334354.6924407,-1099.8522523665,2705648.9696007,18.358415841584,0,0
44.210876308539,-8.0504334186335,13.162846284628,2334354.6924407,-1099.8522523665,2705648.9696007,18.362846284628,0,0
44.210876556085,-8.0518139769086,13.167276727673,2334354.6924407,-1099.8522523665,2705648.9696007,18.367276727673,0,0
44.210876803631,-8.0531945351836,13.171707170717,2334354.6924407,-1099.8522523665,2705648.9696007,18.371707170717,0,0
44.210877051177,-8.0545750934587,13.176137613761,2334354.6924407,-1099.8522523665,2705648.9696007,18.376137613761,0,0
44.210877298724,-8.0559556517338,13.180568056806,2334354.6924407,-1099.8522523665,2705648.9696007,18.380568056806,0,0
44.21087754627,-8.0573362100088,13.18499849985,2334354.6924407,-1099.8522523665,2705648.9696007,18.38499849985,0,0
44.210877793816,-8.0587167682839,13.189428942894,2334354.6924407,-1099.8522523665,2705648.9696007,18.389428942894,0,0
44.210878041362,-8.060097326559,13.193859385939,2334354.6924407,-1099.8522523665,2705648.9696007,18.393859385939,0,0
44.210878288908,-8.061477884834,13.198289828983,2334354.6924407,-1099.8522523665,2705648.9696007,18.398289828983,0,0
44.210878536454,-8.0628584431091,13.202720272027,2334354.6924407,-1099.8522523665,2705648.9696007,18.402720272027,0,0
44.210878784,-8.0642390013842,13.207150715072,2334354.6924407,-1099.8522523665,2705648.9696007,18.407150715072,0,0
44.210879031546,-8.0656195596592,13.211581158116,2334354.6924407,-1099.8522523665,2705648.9696007,18.411581158116,0,0
44.210879279092,-8.0670001179343,13.21601160116,2334354.6924407,-1099.8522523665,2705648.9696007,18.41601160116,0,0
44.210879526638,-8.0683806762093,13.220442044204,2334354.6924407,-1099.8522523665,2705648.9696007,18.420442044204,0,0
44.210879774184,-8.0697612344844,13.224872487249,2334354.6924407,-1099.8522523665,2705648.9696007,18.424872487249,0,0
44.21088002173,-8.0711417927595,13.229302930293,2334354.6924407,-1099.8522523665,2705648.9696007,18.429302930293,0,0
44.210880269277,-8.0725223510345,13.233733373337,2334354.6924407,-1099.8522523665,2705648.9696007,18.433733373337,0,0
44.210880516823,-8.0739029093096,13.238163816382,2334354.6924407,-1099.8522523665,2705648.9696007,18.438163816382,0,0
44.210880764369,-8.0752834675847,13.242594259426,2334354.6924407,-1099.8522523665,2705648.9696007,18.442594259426,0,0
44.210881011915,-8.0766640258597,13.24702470247,2334354.6924407,-1099.8522523665,2705648.9696007,18.44702470247,0,0
44.210881259461,-8.0780445841348,13.251455145515,2334354.6924407,-1099.8522523665,2705648.9696007,18.451455145515,0,0
44.210881507007,-8.0794251424099,13.255885588559,2334354.6924407,-1099.8522523665,2705648.9696007,18.455885588559,0,0
44.210881754553,-8.0808057006849,13.260316031603,2334354.6924407,-1099.8522523665,2705648.9696007,18.460316031603,0,0
44.210882002099,-8.08218625896,13.264746474647,2334354.6924407,-1099.8522523665,2705648.9696007,18.464746474647,0,0
44.210882249645,-8.0835668172351,13.269176917692,2334354.6924407,-1099.8522523665,2705648.9696007,18.469176917692,0,0
44.210882497191,-8.0849473755101,13.273607360736,2334354.6924407,-1099.8522523665,2705648.9696007,18.473607360736,0,0
44.210882744737,-8.0863279337852,13.27803780378,2334354.6924407,-1099.8522523665,2705648.9696007,18.47803780378,0,0
44.210882992283,-8.0877084920602,13.282468246825,2334354.6924407,-1099.8522523665,2705648.9696007,18.482468246825,0,0
44.21088323983,-8.0890890503353,13.286898689869,2334354.6924407,-1099.8522523665,2705648.9696007,18.486898689869,0,0
44.210883487376,-8.0904696086104,13.291329132913,2334354.6924407,-1099.8522523665,2705648.9696007,18.491329132913,0,0
44.210883734922,-8.0918501668854,13.295759575958,2334354.6924407,-1099.8522523665,2705648.9696007,18.495759575958,0,0
44.210883982468,-8.0932307251605,13.300190019002,2334354.6924407,-1099.8522523665,2705648.9696007,18.500190019002,0,0
44.210884230014,-8.0946112834356,13.304620462046,2334354.6924407,-1099.8522523665,2705648.9696007,18.504620462046,0,0
44.21088447756,-8.0959918417106,13.309050905091,2334354.6924407,-1099.8522523665,2705648.9696007,18.509050905091,0,0
44.210884725106,-8.0973723999857,13.313481348135,2334354.6924407,-1099.8522523665,2705648.9696007,18.513481348135,0,0
44.210884972652,-8.0987529582608,13.317911791179,2334354.6924407,-1099.8522523665,2705648.9696007,18.517911791179,0,0
44.210885220198,-8.1001335165358,13.322342234223,2334354.6924407,-1099.8522523665,2705648.9696007,18.522342234223,0,0
44.210885467744,-8.1015140748109,13.326772677268,2334354.6924407,-1099.8522523665,2705648.9696007,18.526772677268,0,0
44.21088571529,-8.1028946330859,13.331203120312,2334354.6924407,-1099.8522523665,2705648.9696007,18.531203120312,0,0
44.210885962836,-8.104275191361,13.335633563356,2334354.6924407,-1099.8522523665,2705648.9696007,18.535633563356,0,0
44.210886210383,-8.1056557496361,13.340064006401,2334354.6924407,-1099.8522523665,2705648.9696007,18.540064006401,0,0
44.210886457929,-8.1070363079111,13.344494449445,2334354.6924407,-1099.8522523665,2705648.9696007,18.544494449445,0,0
44.210886705475,-8.1084168661862,13.348924892489,2334354.6924407,-1099.8522523665,2705648.9696007,18.548924892489,0,0
44.210886953021,-8.1097974244613,13.353355335534,2334354.6924407,-1099.8522523665,2705648.9696007,18.553355335534,0,0
44.210887200567,-8.1111779827363,13.357785778578,2334354.6924407,-1099.8522523665,2705648.9696007,18.557785778578,0,0
44.210887448113,-8.1125585410114,13.362216221622,2334354.6924407,-1099.8522523665,2705648.9696007,18.562216221622,0,0
44.210887695659,-8.1139390992865,13.366646664666,2334354.6924407,-1099.8522523665,2705648.9696007,18.566646664666,0,0
44.210887943205,-8.1153196575615,13.371077107711,2334354.6924407,-1099.8522523665,2705648.9696007,18.571077107711,0,0
44.210888190751,-8.1167002158366,13.375507550755,2334354.6924407,-1099.8522523665,2705648.9696007,18.575507550755,0,0
44.210888438297,-8.1180807741117,13.379937993799,2334354.6924407,-1099.8522523665,2705648.9696007,18.579937993799,0,0
44.210888685843,-8.1194613323867,13.384368436844,2334354.6924407,-1099.8522523665,2705648.9696007,18.584368436844,0,0
44.210888933389,-8.1208418906618,13.388798879888,2334354.6924407,-1099.8522523665,2705648.9696007,18.588798879888,0,0
44.210889180936,-8.1222224489368,13.393229322932,2334354.6924407,-1099.8522523665,2705648.9696007,18.593229322932,0,0
44.210889428482,-8.1236030072119,13.397659765977,2334354.6924407,-1099.8522523665,2705648.9696007,18.597659765977,0,0
44.210889676028,-8.124983565487,13.402090209021,2334354.6924407,-1099.8522523665,2705648.9696007,18.602090209021,0,0
44.210889923574,-8.126364123762,13.406520652065,2334354.6924407,-1099.8522523665,2705648.9696007,18.606520652065,0,0
44.21089017112,-8.1277446820371,13.41095109511,2334354.6924407,-1099.8522523665,2705648.9696007,18.61095109511,0,0
44.210890418666,-8.1291252403122,13.415381538154,2334354.6924407,-1099.8522523665,2705648.9696007,18.615381538154,0,0
44.210890666212,-8.1305057985872,13.419811981198,2334354.6924407,-1099.8522523665,2705648.9696007,18.619811981198,0,0
44.210890913758,-8.1318863568623,13.424242424242,2334354.6924407,-1099.8522523665,2705648.9696007,18.624242424242,0,0
44.210891161304,-8.1332669151374,13.428672867287,2334354.6924407,-1099.8522523665,2705648.9696007,18.628672867287,0,0
44.21089140885,-8.1346474734124,13.433103310331,2334354.6924407,-1099.8522523665,2705648.9696007,18.633103310331,0,0
44.210891656396,-8.1360280316875,13.437533753375,2334354.6924407,-1099.8522523665,2705648.9696007,18.637533753375,0,0
44.210891903942,-8.1374085899626,13.44196419642,2334354.6924407,-1099.8522523665,2705648.9696007,18.64196419642,0,0
44.210892151489,-8.1387891482376,13.446394639464,2334354.6924407,-1099.8522523665,2705648.9696007,18.646394639464,0,0
44.210892399035,-8.1401697065127,13.450825082508,2334354.6924407,-1099.8522523665,2705648.9696007,18.650825082508,0,0
44.210892646581,-8.1415502647877,13.455255525553,2334354.6924407,-1099.8522523665,2705648.9696007,18.655255525553,0,0
44.210892894127,-8.1429308230628,13.459685968597,2334354.6924407,-1099.8522523665,2705648.9696007,18.659685968597,0,0
44.210893141673,-8.1443113813379,13.464116411641,2334354.6924407,-1099.8522523665,2705648.9696007,18.664116411641,0,0
44.210893389219,-8.1456919396129,13.468546854685,2334354.6924407,-1099.8522523665,2705648.9696007,18.668546854685,0,0
44.210893636765,-8.147072497888,13.47297729773,2334354.6924407,-1099.8522523665,2705648.9696007,18.67297729773,0,0
44.210893884311,-8.1484530561631,13.477407740774,2334354.6924407,-1099.8522523665,2705648.9696007,18.677407740774,0,0
44.210894132914,-8.1498336131478,13.481838183818,2353325.5446337,4691.2778324425,2699477.9535583,18.681838183818,0,0
44.21089438214,-8.1512141693719,13.486268626863,2353325.5446337,4691.2778324425,2699477.9535583,18.686268626863,0,0
44.210894631365,-8.1525947255961,13.490699069907,2353325.5446337,4691.2778324425,2699477.9535583,18.690699069907,0,0
44.210894880591,-8.1539752818203,13.495129512951,2353325.5446337,4691.2778324425,2699477.9535583,18.695129512951,0,0
44.210895129817,-8.1553558380445,13.499559955996,2353325.5446337,4691.2778324425,2699477.9535583,18.699559955996,0,0
44.210895379042,-8.1567363942687,13.50399039904,2353325.5446337,4691.2778324425,2699477.9535583,18.70399039904,0,0
44.210895628268,-8.1581169504929,13.508420842084,2353325.5446337,4691.2778324425,2699477.9535583,18.708420842084,0,0
44.210895877494,-8.1594975067171,13.512851285129,2353325.5446337,4691.2778324425,2699477.9535583,18.712851285129,0,0
44.21089612672,-8.1608780629413,13.517281728173,2353325.5446337,4691.2778324425,2699477.9535583,18.717281728173,0,0
44.210896375945,-8.1622586191654,13.521712171217,2353325.5446337,4691.2778324425,2699477.9535583,18.721712171217,0,0
44.210896625171,-8.1636391753896,13.526142614261,2353325.5446337,4691.2778324425,2699477.9535583,18.726142614261,0,0
44.210896874397,-8.1650197316138,13.530573057306,2353325.5446337,4691.2778324425,2699477.9535583,18.730573057306,0,0
44.210897123622,-8.166400287838,13.53500350035,2353325.5446337,4691.2778324425,2699477.9535583,18.73500350035,0,0
44.210897372848,-8.1677808440622,13.539433943394,2353325.5446337,4691.2778324425,2699477.9535583,18.739433943394,0,0
44.210897622074,-8.1691614002864,13.543864386439,2353325.5446337,4691.2778324425,2699477.9535583,18.743864386439,0,0
44.210897871299,-8.1705419565106,13.548294829483,2353325.5446337,4691.2778324425,2699477.9535583,18.748294829483,0,0
44.210898120525,-8.1719225127348,13.552725272527,2353325.5446337,4691.2778324425,2699477.9535583,18.752725272527,0,0
44.210898369751,-8.173303068959,13.557155715572,2353325.5446337,4691.2778324425,2699477.9535583,18.757155715572,0,0
44.210898618977,-8.1746836251831,13.561586158616,2353325.5446337,4691.2778324425,2699477.9535583,18.761586158616,0,0
44.210898868202,-8.1760641814073,13.56601660166,2353325.5446337,4691.2778324425,2699477.9535583,18.76601660166,0,0
44.210899117428,-8.1774447376315,13.570447044704,2353325.5446337,4691.2778324425,2699477.9535583,18.770447044704,0,0
44.210899366654,-8.1788252938557,13.574877487749,2353325.5446337,4691.2778324425,2699477.9535583,18.774877487749,0,0
44.210899615879,-8.1802058500799,13.579307930793,2353325.5446337,4691.2778324425,2699477.9535583,18.779307930793,0,0
44.210899865105,-8.1815864063041,13.583738373837,2353325.5446337,4691.2778324425,2699477.9535583,18.783738373837,0,0
44.210900114331,-8.1829669625283,13.588168816882,2353325.5446337,4691.2778324425,2699477.9535583,18.788168816882,0,0
44.210900363556,-8.1843475187525,13.592599259926,2353325.5446337,4691.2778324425,2699477.9535583,18.792599259926,0,0
44.210900612782,-8.1857280749767,13.59702970297,2353325.5446337,4691.2778324425,2699477.9535583,18.79702970297,0,0
44.210900862008,-8.1871086312009,13.601460146015,2353325.5446337,4691.2778324425,2699477.9535583,18.801460146015,0,0
44.210901111234,-8.188489187425,13.605890589059,2353325.5446337,4691.2778324425,2699477.9535583,18.805890589059,0,0
44.210901360459,-8.1898697436492,13.610321032103,2353325.5446337,4691.2778324425,2699477.9535583,18.810321032103,0,0
44.210901609685,-8.1912502998734,13.614751475148,2353325.5446337,4691.2778324425,2699477.9535583,18.814751475148,0,0
44.210901858911,-8.1926308560976,13.619181918192,2353325.5446337,4691.2778324425,2699477.9535583,18.819181918192,0,0
44.210902108136,-8.1940114123218,13.623612361236,2353325.5446337,4691.2778324425,2699477.9535583,18.823612361236,0,0
44.210902357362,-8.195391968546,13.62804280428,2353325.5446337,4691.2778324425,2699477.9535583,18.82804280428,0,0
44.210902606588,-8.1967725247702,13.632473247325,2353325.5446337,4691.2778324425,2699477.9535583,18.832473247325,0,0
44.210902855813,-8.1981530809944,13.636903690369,2353325.5446337,4691.2778324425,2699477.9535583,18.836903690369,0,0
44.210903105039,-8.1995336372185,13.641334133413,2353325.5446337,4691.2778324425,2699477.9535583,18.841334133413,0,0
44.210903354265,-8.2009141934427,13.645764576458,2353325.5446337,4691.2778324425,2699477.9535583,18.845764576458,0,0
44.210903603491,-8.2022947496669,13.650195019502,2353325.5446337,4691.2778324425,2699477.9535583,18.850195019502,0,0
44.210903852716,-8.2036753058911,13.654625462546,2353325.5446337,4691.2778324425,2699477.9535583,18.854625462546,0,0
44.210904101942,-8.2050558621153,13.659055905591,2353325.5446337,4691.2778324425,2699477.9535583,18.859055905591,0,0
44.210904351168,-8.2064364183395,13.663486348635,2353325.5446337,4691.2778324425,2699477.9535583,18.863486348635,0,0
44.210904600393,-8.2078169745637,13.667916791679,2353325.5446337,4691.2778324425,2699477.9535583,18.867916791679,0,0
44.210904849619,-8.2091975307879,13.672347234723,2353325.5446337,4691.2778324425,2699477.9535583,18.872347234723,0,0
44.210905098845,-8.2105780870121,13.676777677768,2353325.5446337,4691.2778324425,2699477.9535583,18.876777677768,0,0
44.21090534807,-8.2119586432362,13.681208120812,2353325.5446337,4691.2778324425,2699477.9535583,18.881208120812,0,0
44.210905597296,-8.2133391994604,13.685638563856,2353325.5446337,4691.2778324425,2699477.9535583,18.885638563856,0,0
44.210905846522,-8.2147197556846,13.690069006901,2353325.5446337,4691.2778324425,2699477.9535583,18.890069006901,0,0
44.210906095748,-8.2161003119088,13.694499449945,2353325.5446337,4691.2778324425,2699477.9535583,18.894499449945,0,0
44.210906344973,-8.217480868133,13.698929892989,2353325.5446337,4691.2778324425,2699477.9535583,18.898929892989,0,0
44.210906594199,-8.2188614243572,13.703360336034,2353325.5446337,4691.2778324425,2699477.9535583,18.903360336034,0,0
44.210906843425,-8.2202419805814,13.707790779078,2353325.5446337,4691.2778324425,2699477.9535583,18.907790779078,0,0
44.21090709265,-8.2216225368056,13.712221222122,2353325.5446337,4691.2778324425,2699477.9535583,18.912221222122,0,0
44.210907341876,-8.2230030930298,13.716651665167,2353325.5446337,4691.2778324425,2699477.9535583,18.916651665167,0,0
44.210907591102,-8.2243836492539,13.721082108211,2353325.5446337,4691.2778324425,2699477.9535583,18.921082108211,0,0
44.210907840327,-8.2257642054781,13.725512551255,2353325.5446337,4691.2778324425,2699477.9535583,18.925512551255,0,0
44.210908089553,-8.2271447617023,13.729942994299,2353325.5446337,4691.2778324425,2699477.9535583,18.929942994299,0,0
44.210908338779,-8.2285253179265,13.734373437344,2353325.5446337,4691.2778324425,2699477.9535583,18.934373437344,0,0
44.210908588005,-8.2299058741507,13.738803880388,2353325.5446337,4691.2778324425,2699477.9535583,18.938803880388,0,0
44.21090883723,-8.2312864303749,13.743234323432,2353325.5446337,4691.2778324425,2699477.9535583,18.943234323432,0,0
44.210909086456,-8.2326669865991,13.747664766477,2353325.5446337,4691.2778324425,2699477.9535583,18.947664766477,0,0
44.210909335682,-8.2340475428233,13.752095209521,2353325.5446337,4691.2778324425,2699477.9535583,18.952095209521,0,0
44.210909584907,-8.2354280990475,13.756525652565,2353325.5446337,4691.2778324425,2699477.9535583,18.956525652565,0,0
44.210909834133,-8.2368086552716,13.76095609561,2353325.5446337,4691.2778324425,2699477.9535583,18.96095609561,0,0
44.210910083359,-8.2381892114958,13.765386538654,2353325.5446337,4691.2778324425,2699477.9535583,18.965386538654,0,0
44.210910332584,-8.23956976772,13.769816981698,2353325.5446337,4691.2778324425,2699477.9535583,18.969816981698,0,0
44.21091058181,-8.2409503239442,13.774247424742,2353325.5446337,4691.2778324425,2699477.9535583,18.974247424742,0,0
44.210910831036,-8.2423308801684,13.778677867787,2353325.5446337,4691.2778324425,2699477.9535583,18.978677867787,0,0
44.210911080261,-8.2437114363926,13.783108310831,2353325.5446337,4691.2778324425,2699477.9535583,18.983108310831,0,0
44.210911329487,-8.2450919926168,13.787538753875,2353325.5446337,4691.2778324425,2699477.9535583,18.987538753875,0,0
44.210911578713,-8.246472548841,13.79196919692,2353325.5446337,4691.2778324425,2699477.9535583,18.99196919692,0,0
44.210911827939,-8.2478531050652,13.796399639964,2353325.5446337,4691.2778324425,2699477.9535583,18.996399639964,0,0
44.210912077164,-8.2492336612893,13.800830083008,2353325.5446337,4691.2778324425,2699477.9535583,19.000830083008,0,0
44.21091232639,-8.2506142175135,13.805260526053,2353325.5446337,4691.2778324425,2699477.9535583,19.005260526053,0,0
44.210912575616,-8.2519947737377,13.809690969097,2353325.5446337,4691.2778324425,2699477.9535583,19.009690969097,0,0
44.210912824841,-8.2533753299619,13.814121412141,2353325.5446337,4691.2778324425,2699477.9535583,19.014121412141,0,0
44.210913074067,-8.2547558861861,13.818551855186,2353325.5446337,4691.2778324425,2699477.9535583,19.018551855186,0,0
44.210913323293,-8.2561364424103,13.82298229823,2353325.5446337,4691.2778324425,2699477.9535583,19.02298229823,0,0
44.210913572518,-8.2575169986345,13.827412741274,2353325.5446337,4691.2778324425,2699477.9535583,19.027412741274,0,0
44.210913821744,-8.2588975548587,13.831843184318,2353325.5446337,4691.2778324425,2699477.9535583,19.031843184318,0,0
44.21091407097,-8.2602781110829,13.836273627363,2353325.5446337,4691.2778324425,2699477.9535583,19.036273627363,0,0
44.210914320196,-8.261658667307,13.840704070407,2353325.5446337,4691.2778324425,2699477.9535583,19.040704070407,0,0
44.210914569421,-8.2630392235312,13.845134513451,2353325.5446337,4691.2778324425,2699477.9535583,19.045134513451,0,0
44.210914818647,-8.2644197797554,13.849564956496,2353325.5446337,4691.2778324425,2699477.9535583,19.049564956496,0,0
44.210915067873,-8.2658003359796,13.85399539954,2353325.5446337,4691.2778324425,2699477.9535583,19.05399539954,0,0
44.210915317098,-8.2671808922038,13.858425842584,2353325.5446337,4691.2778324425,2699477.9535583,19.058425842584,0,0
44.210915566324,-8.268561448428,13.862856285629,2353325.5446337,4691.2778324425,2699477.9535583,19.062856285629,0,0
44.21091581555,-8.2699420046522,13.867286728673,2353325.5446337,4691.2778324425,2699477.9535583,19.067286728673,0,0
44.210916064775,-8.2713225608764,13.871717171717,2353325.5446337,4691.2778324425,2699477.9535583,19.071717171717,0,0
44.210916314001,-8.2727031171006,13.876147614761,2353325.5446337,4691.2778324425,2699477.9535583,19.076147614761,0,0
44.210916563227,-8.2740836733247,13.880578057806,2353325.5446337,4691.2778324425,2699477.9535583,19.080578057806,0,0
44.210916812453,-8.2754642295489,13.88500850085,2353325.5446337,4691.2778324425,2699477.9535583,19.08500850085,0,0
44.210917061678,-8.2768447857731,13.889438943894,2353325.5446337,4691.2778324425,2699477.9535583,19.089438943894,0,0
44.210917310904,-8.2782253419973,13.893869386939,2353325.5446337,4691.2778324425,2699477.9535583,19.093869386939,0,0
44.21091756013,-8.2796058982215,13.898299829983,2353325.5446337,4691.2778324425,2699477.9535583,19.098299829983,0,0
44.210917809355,-8.2809864544457,13.902730273027,2353325.5446337,4691.2778324425,2699477.9535583,19.102730273027,0,0
44.210918058581,-8.2823670106699,13.907160716072,2353325.5446337,4691.2778324425,2699477.9535583,19.107160716072,0,0
44.210918307807,-8.2837475668941,13.911591159116,2353325.5446337,4691.2778324425,2699477.9535583,19.111591159116,0,0
44.210918557032,-8.2851281231183,13.91602160216,2353325.5446337,4691.2778324425,2699477.9535583,19.11602160216,0,0
44.210918806258,-8.2865086793424,13.920452045205,2353325.5446337,4691.2778324425,2699477.9535583,19.120452045205,0,0
44.210919055484,-8.2878892355666,13.924882488249,2353325.5446337,4691.2778324425,2699477.9535583,19.124882488249,0,0
44.21091930471,-8.2892697917908,13.929312931293,2353325.5446337,4691.2778324425,2699477.9535583,19.129312931293,0,0
44.210919553935,-8.290650348015,13.933743374337,2353325.5446337,4691.2778324425,2699477.9535583,19.133743374337,0,0
44.210919803161,-8.2920309042392,13.938173817382,2353325.5446337,4691.2778324425,2699477.9535583,19.138173817382,0,0
44.210920052387,-8.2934114604634,13.942604260426,2353325.5446337,4691.2778324425,2699477.9535583,19.142604260426,0,0
44.210920301612,-8.2947920166876,13.94703470347,2353325.5446337,4691.2778324425,2699477.9535583,19.14703470347,0,0
44.210920550838,-8.2961725729118,13.951465146515,2353325.5446337,4691.2778324425,2699477.9535583,19.151465146515,0,0
44.210920800064,-8.297553129136,13.955895589559,2353325.5446337,4691.2778324425,2699477.9535583,19.155895589559,0,0
44.210921049289,-8.2989336853601,13.960326032603,2353325.5446337,4691.2778324425,2699477.9535583,19.160326032603,0,0
44.210921298515,-8.3003142415843,13.964756475648,2353325.5446337,4691.2778324425,2699477.9535583,19.164756475648,0,0
44.210921547741,-8.3016947978085,13.969186918692,2353325.5446337,4691.2778324425,2699477.9535583,19.169186918692,0,0
44.210921796967,-8.3030753540327,13.973617361736,2353325.5446337,4691.2778324425,2699477.9535583,19.173617361736,0,0
44.210922046192,-8.3044559102569,13.97804780478,2353325.5446337,4691.2778324425,2699477.9535583,19.17804780478,0,0
44.210922295418,-8.3058364664811,13.982478247825,2353325.5446337,4691.2778324425,2699477.9535583,19.182478247825,0,0
44.210922544644,-8.3072170227053,13.986908690869,2353325.5446337,4691.2778324425,2699477.9535583,19.186908690869,0,0
44.210922793869,-8.3085975789295,13.991339133913,2353325.5446337,4691.2778324425,2699477.9535583,19.191339133913,0,0
44.210923043095,-8.3099781351537,13.995769576958,2353325.5446337,4691.2778324425,2699477.9535583,19.195769576958,0,0
44.210923292321,-8.3113586913778,14.000200020002,2353325.5446337,4691.2778324425,2699477.9535583,19.200200020002,0,0
44.210923541546,-8.312739247602,14.004630463046,2353325.5446337,4691.2778324425,2699477.9535583,19.204630463046,0,0
44.210923790772,-8.3141198038262,14.009060906091,2353325.5446337,4691.2778324425,2699477.9535583,19.209060906091,0,0
44.210924039998,-8.3155003600504,14.013491349135,2353325.5446337,4691.2778324425,2699477.9535583,19.213491349135,0,0
44.210924289274,-8.3168809164004,14.017921792179,2358203.2400404,-2342.8841868168,2683275.3480724,19.217921792179,0,0
44.21092453932,-8.3182614746891,14.022352235224,2358203.2400404,-2342.8841868168,2683275.3480724,19.222352235224,0,0
44.210924789367,-8.3196420329779,14.026782678268,2358203.2400404,-2342.8841868168,2683275.3480724,19.226782678268,0,0
44.210925039414,-8.3210225912667,14.031213121312,2358203.2400404,-2342.8841868168,2683275.3480724,19.231213121312,0,0
44.21092528946,-8.3224031495555,14.035643564356,2358203.2400404,-2342.8841868168,2683275.3480724,19.235643564356,0,0
44.210925539507,-8.3237837078443,14.040074007401,2358203.2400404,-2342.8841868168,2683275.3480724,19.240074007401,0,0
44.210925789554,-8.325164266133,14.044504450445,2358203.2400404,-2342.8841868168,2683275.3480724,19.244504450445,0,0
44.2109260396,-8.3265448244218,14.048934893489,2358203.2400404,-2342.8841868168,2683275.3480724,19.248934893489,0,0
44.210926289647,-8.3279253827106,14.053365336534,2358203.2400404,-2342.8841868168,2683275.3480724,19.253365336534,0,0
44.210926539694,-8.3293059409994,14.057795779578,2358203.2400404,-2342.8841868168,2683275.3480724,19.257795779578,0,0
44.210926789741,-8.3306864992881,14.062226222622,2358203.2400404,-2342.8841868168,2683275.3480724,19.262226222622,0,0
44.210927039787,-8.3320670575769,14.066656665667,2358203.2400404,-2342.8841868168,2683275.3480724,19.266656665667,0,0
44.210927289834,-8.3334476158657,14.071087108711,2358203.2400404,-2342.8841868168,2683275.3480724,19.271087108711,0,0
44.210927539881,-8.3348281741545,14.075517551755,2358203.2400404,-2342.8841868168,2683275.3480724,19.275517551755,0,0
44.210927789927,-8.3362087324432,14.079947994799,2358203.2400404,-2342.8841868168,2683275.3480724,19.279947994799,0,0
44.210928039974,-8.337589290732,14.084378437844,2358203.2400404,-2342.8841868168,2683275.3480724,19.284378437844,0,0
44.210928290021,-8.3389698490208,14.088808880888,2358203.2400404,-2342.8841868168,2683275.3480724,19.288808880888,0,0
44.210928540068,-8.3403504073096,14.093239323932,2358203.2400404,-2342.8841868168,2683275.3480724,19.293239323932,0,0
44.210928790114,-8.3417309655983,14.097669766977,2358203.2400404,-2342.8841868168,2683275.3480724,19.297669766977,0,0
44.210929040161,-8.3431115238871,14.102100210021,2358203.2400404,-2342.8841868168,2683275.3480724,19.302100210021,0,0
44.210929290208,-8.3444920821759,14.106530653065,2358203.2400404,-2342.8841868168,2683275.3480724,19.306530653065,0,0
44.210929540254,-8.3458726404647,14.11096109611,2358203.2400404,-2342.8841868168,2683275.3480724,19.31096109611,0,0
44.210929790301,-8.3472531987535,14.115391539154,2358203.2400404,-2342.8841868168,2683275.3480724,19.315391539154,0,0
44.210930040348,-8.3486337570422,14.119821982198,2358203.2400404,-2342.8841868168,2683275.3480724,19.319821982198,0,0
44.210930290394,-8.350014315331,14.124252425243,2358203.2400404,-2342.8841868168,2683275.3480724,19.324252425243,0,0
44.210930540441,-8.3513948736198,14.128682868287,2358203.2400404,-2342.8841868168,2683275.3480724,19.328682868287,0,0
44.210930790488,-8.3527754319086,14.133113311331,2358203.2400404,-2342.8841868168,2683275.3480724,19.333113311331,0,0
44.210931040535,-8.3541559901973,14.137543754375,2358203.2400404,-2342.8841868168,2683275.3480724,19.337543754375,0,0
44.210931290581,-8.3555365484861,14.14197419742,2358203.2400404,-2342.8841868168,2683275.3480724,19.34197419742,0,0
44.210931540628,-8.3569171067749,14.146404640464,2358203.2400404,-2342.8841868168,2683275.3480724,19.346404640464,0,0
44.210931790675,-8.3582976650637,14.150835083508,2358203.2400404,-2342.8841868168,2683275.3480724,19.350835083508,0,0
44.210932040721,-8.3596782233524,14.155265526553,2358203.2400404,-2342.8841868168,2683275.3480724,19.355265526553,0,0
44.210932290768,-8.3610587816412,14.159695969597,2358203.2400404,-2342.8841868168,2683275.3480724,19.359695969597,0,0
44.210932540815,-8.36243933993,14.164126412641,2358203.2400404,-2342.8841868168,2683275.3480724,19.364126412641,0,0
44.210932790862,-8.3638198982188,14.168556855686,2358203.2400404,-2342.8841868168,2683275.3480724,19.368556855686,0,0
44.210933040908,-8.3652004565076,14.17298729873,2358203.2400404,-2342.8841868168,2683275.3480724,19.37298729873,0,0
44.210933290955,-8.3665810147963,14.177417741774,2358203.2400404,-2342.8841868168,2683275.3480724,19.377417741774,0,0
44.210933541002,-8.3679615730851,14.181848184818,2358203.2400404,-2342.8841868168,2683275.3480724,19.381848184818,0,0
44.210933791048,-8.3693421313739,14.186278627863,2358203.2400404,-2342.8841868168,2683275.3480724,19.386278627863,0,0
44.210934041095,-8.3707226896627,14.190709070907,2358203.2400404,-2342.8841868168,2683275.3480724,19.390709070907,0,0
44.210934291142,-8.3721032479514,14.195139513951,2358203.2400404,-2342.8841868168,2683275.3480724,19.395139513951,0,0
44.210934541189,-8.3734838062402,14.199569956996,2358203.2400404,-2342.8841868168,2683275.3480724,19.399569956996,0,0
44.210934791235,-8.374864364529,14.20400040004,2358203.2400404,-2342.8841868168,2683275.3480724,19.40400040004,0,0
44.210935041282,-8.3762449228178,14.208430843084,2358203.2400404,-2342.8841868168,2683275.3480724,19.408430843084,0,0
44.210935291329,-8.3776254811065,14.212861286129,2358203.2400404,-2342.8841868168,2683275.3480724,19.412861286129,0,0
44.210935541375,-8.3790060393953,14.217291729173,2358203.2400404,-2342.8841868168,2683275.3480724,19.417291729173,0,0
44.210935791422,-8.3803865976841,14.221722172217,2358203.2400404,-2342.8841868168,2683275.3480724,19.421722172217,0,0
44.210936041469,-8.3817671559729,14.226152615262,2358203.2400404,-2342.8841868168,2683275.3480724,19.426152615262,0,0
44.210936291515,-8.3831477142617,14.230583058306,2358203.2400404,-2342.8841868168,2683275.3480724,19.430583058306,0,0
44.210936541562,-8.3845282725504,14.23501350135,2358203.2400404,-2342.8841868168,2683275.3480724,19.43501350135,0,0
44.210936791609,-8.3859088308392,14.239443944394,2358203.2400404,-2342.8841868168,2683275.3480724,19.439443944394,0,0
44.210937041656,-8.387289389128,14.243874387439,2358203.2400404,-2342.8841868168,2683275.3480724,19.443874387439,0,0
44.210937291702,-8.3886699474168,14.248304830483,2358203.2400404,-2342.8841868168,2683275.3480724,19.448304830483,0,0
44.210937541749,-8.3900505057055,14.252735273527,2358203.2400404,-2342.8841868168,2683275.3480724,19.452735273527,0,0
44.210937791796,-8.3914310639943,14.257165716572,2358203.2400404,-2342.8841868168,2683275.3480724,19.457165716572,0,0
44.210938041842,-8.3928116222831,14.261596159616,2358203.2400404,-2342.8841868168,2683275.3480724,19.461596159616,0,0
44.210938291889,-8.3941921805719,14.26602660266,2358203.2400404,-2342.8841868168,2683275.3480724,19.46602660266,0,0
44.210938541936,-8.3955727388606,14.270457045705,2358203.2400404,-2342.8841868168,2683275.3480724,19.470457045705,0,0
44.210938791983,-8.3969532971494,14.274887488749,2358203.2400404,-2342.8841868168,2683275.3480724,19.474887488749,0,0
44.210939042029,-8.3983338554382,14.279317931793,2358203.2400404,-2342.8841868168,2683275.3480724,19.479317931793,0,0
44.210939292076,-8.399714413727,14.283748374837,2358203.2400404,-2342.8841868168,2683275.3480724,19.483748374837,0,0
44.210939542123,-8.4010949720158,14.288178817882,2358203.2400404,-2342.8841868168,2683275.3480724,19.488178817882,0,0
44.210939792169,-8.4024755303045,14.292609260926,2358203.2400404,-2342.8841868168,2683275.3480724,19.492609260926,0,0
44.210940042216,-8.4038560885933,14.29703970397,2358203.2400404,-2342.8841868168,2683275.3480724,19.49703970397,0,0
44.210940292263,-8.4052366468821,14.301470147015,2358203.2400404,-2342.8841868168,2683275.3480724,19.501470147015,0,0
44.210940542309,-8.4066172051709,14.305900590059,2358203.2400404,-2342.8841868168,2683275.3480724,19.505900590059,0,0
44.210940792356,-8.4079977634596,14.310331033103,2358203.2400404,-2342.8841868168,2683275.3480724,19.510331033103,0,0
44.210941042403,-8.4093783217484,14.314761476148,2358203.2400404,-2342.8841868168,2683275.3480724,19.514761476148,0,0
44.21094129245,-8.4107588800372,14.319191919192,2358203.2400404,-2342.8841868168,2683275.3480724,19.519191919192,0,0
44.210941542496,-8.412139438326,14.323622362236,2358203.2400404,-2342.8841868168,2683275.3480724,19.523622362236,0,0
44.210941792543,-8.4135199966147,14.328052805281,2358203.2400404,-2342.8841868168,2683275.3480724,19.528052805281,0,0
44.21094204259,-8.4149005549035,14.332483248325,2358203.2400404,-2342.8841868168,2683275.3480724,19.532483248325,0,0
44.210942292636,-8.4162811131923,14.336913691369,2358203.2400404,-2342.8841868168,2683275.3480724,19.536913691369,0,0
44.210942542683,-8.4176616714811,14.341344134413,2358203.2400404,-2342.8841868168,2683275.3480724,19.541344134413,0,0
44.21094279273,-8.4190422297699,14.345774577458,2358203.2400404,-2342.8841868168,2683275.3480724,19.545774577458,0,0
44.210943042777,-8.4204227880586,14.350205020502,2358203.2400404,-2342.8841868168,2683275.3480724,19.550205020502,0,0
44.210943292823,-8.4218033463474,14.354635463546,2358203.2400404,-2342.8841868168,2683275.3480724,19.554635463546,0,0
44.21094354287,-8.4231839046362,14.359065906591,2358203.2400404,-2342.8841868168,2683275.3480724,19.559065906591,0,0
44.210943792917,-8.424564462925,14.363496349635,2358203.2400404,-2342.8841868168,2683275.3480724,19.563496349635,0,0
44.210944042963,-8.4259450212137,14.367926792679,2358203.2400404,-2342.8841868168,2683275.3480724,19.567926792679,0,0
44.21094429301,-8.4273255795025,14.372357235724,2358203.2400404,-2342.8841868168,2683275.3480724,19.572357235724,0,0
44.210944543057,-8.4287061377913,14.376787678768,2358203.2400404,-2342.8841868168,2683275.3480724,19.576787678768,0,0
44.210944793104,-8.4300866960801,14.381218121812,2358203.2400404,-2342.8841868168,2683275.3480724,19.581218121812,0,0
44.21094504315,-8.4314672543688,14.385648564856,2358203.2400404,-2342.8841868168,2683275.3480724,19.585648564856,0,0
44.210945293197,-8.4328478126576,14.390079007901,2358203.2400404,-2342.8841868168,2683275.3480724,19.590079007901,0,0
44.210945543244,-8.4342283709464,14.394509450945,2358203.2400404,-2342.8841868168,2683275.3480724,19.594509450945,0,0
44.21094579329,-8.4356089292352,14.398939893989,2358203.2400404,-2342.8841868168,2683275.3480724,19.598939893989,0,0
44.210946043337,-8.4369894875239,14.403370337034,2358203.2400404,-2342.8841868168,2683275.3480724,19.603370337034,0,0
44.210946293384,-8.4383700458127,14.407800780078,2358203.2400404,-2342.8841868168,2683275.3480724,19.607800780078,0,0
44.21094654343,-8.4397506041015,14.412231223122,2358203.2400404,-2342.8841868168,2683275.3480724,19.612231223122,0,0
44.210946793477,-8.4411311623903,14.416661666167,2358203.2400404,-2342.8841868168,2683275.3480724,19.616661666167,0,0
44.210947043524,-8.4425117206791,14.421092109211,2358203.2400404,-2342.8841868168,2683275.3480724,19.621092109211,0,0
44.210947293571,-8.4438922789678,14.425522552255,2358203.2400404,-2342.8841868168,2683275.3480724,19.625522552255,0,0
44.210947543617,-8.4452728372566,14.4299529953,2358203.2400404,-2342.8841868168,2683275.3480724,19.6299529953,0,0
44.210947793664,-8.4466533955454,14.434383438344,2358203.2400404,-2342.8841868168,2683275.3480724,19.634383438344,0,0
44.210948043711,-8.4480339538342,14.438813881388,2358203.2400404,-2342.8841868168,2683275.3480724,19.638813881388,0,0
44.210948293757,-8.4494145121229,14.443244324432,2358203.2400404,-2342.8841868168,2683275.3480724,19.643244324432,0,0
44.210948543804,-8.4507950704117,14.447674767477,2358203.2400404,-2342.8841868168,2683275.3480724,19.647674767477,0,0
44.210948793851,-8.4521756287005,14.452105210521,2358203.2400404,-2342.8841868168,2683275.3480724,19.652105210521,0,0
44.210949043898,-8.4535561869893,14.456535653565,2358203.2400404,-2342.8841868168,2683275.3480724,19.656535653565,0,0
44.210949293944,-8.454936745278,14.46096609661,2358203.2400404,-2342.8841868168,2683275.3480724,19.66096609661,0,0
44.210949543991,-8.4563173035668,14.465396539654,2358203.2400404,-2342.8841868168,2683275.3480724,19.665396539654,0,0
44.210949794038,-8.4576978618556,14.469826982698,2358203.2400404,-2342.8841868168,2683275.3480724,19.669826982698,0,0
44.210950044084,-8.4590784201444,14.474257425743,2358203.2400404,-2342.8841868168,2683275.3480724,19.674257425743,0,0
44.210950294131,-8.4604589784332,14.478687868787,2358203.2400404,-2342.8841868168,2683275.3480724,19.678687868787,0,0
44.210950544178,-8.4618395367219,14.483118311831,2358203.2400404,-2342.8841868168,2683275.3480724,19.683118311831,0,0
44.210950794224,-8.4632200950107,14.487548754875,2358203.2400404,-2342.8841868168,2683275.3480724,19.687548754875,0,0
44.210951044271,-8.4646006532995,14.49197919792,2358203.2400404,-2342.8841868168,2683275.3480724,19.69197919792,0,0
44.210951294318,-8.4659812115883,14.496409640964,2358203.2400404,-2342.8841868168,2683275.3480724,19.696409640964,0,0
44.210951544365,-8.467361769877,14.500840084008,2358203.2400404,-2342.8841868168,2683275.3480724,19.700840084008,0,0
44.210951794411,-8.4687423281658,14.505270527053,2358203.2400404,-2342.8841868168,2683275.3480724,19.705270527053,0,0
44.210952044458,-8.4701228864546,14.509700970097,2358203.2400404,-2342.8841868168,2683275.3480724,19.709700970097,0,0
44.210952294505,-8.4715034447434,14.514131413141,2358203.2400404,-2342.8841868168,2683275.3480724,19.714131413141,0,0
44.210952544551,-8.4728840030321,14.518561856186,2358203.2400404,-2342.8841868168,2683275.3480724,19.718561856186,0,0
44.210952794598,-8.4742645613209,14.52299229923,2358203.2400404,-2342.8841868168,2683275.3480724,19.72299229923,0,0
44.210953044645,-8.4756451196097,14.527422742274,2358203.2400404,-2342.8841868168,2683275.3480724,19.727422742274,0,0
44.210953294692,-8.4770256778985,14.531853185319,2358203.2400404,-2342.8841868168,2683275.3480724,19.731853185319,0,0
44.210953544738,-8.4784062361873,14.536283628363,2358203.2400404,-2342.8841868168,2683275.3480724,19.736283628363,0,0
44.210953794785,-8.479786794476,14.540714071407,2358203.2400404,-2342.8841868168,2683275.3480724,19.740714071407,0,0
44.210954044832,-8.4811673527648,14.545144514451,2358203.2400404,-2342.8841868168,2683275.3480724,19.745144514451,0,0
44.210954294878,-8.4825479110536,14.549574957496,2358203.2400404,-2342.8841868168,2683275.3480724,19.749574957496,0,0
44.210954544925,-8.4839284693424,14.55400540054,2358203.2400404,-2342.8841868168,2683275.3480724,19.75400540054,0,0
44.210954794972,-8.4853090276311,14.558435843584,2358203.2400404,-2342.8841868168,2683275.3480724,19.758435843584,0,0
44.210955045018,-8.4866895859199,14.562866286629,2358203.2400404,-2342.8841868168,2683275.3480724,19.762866286629,0,0
44.210955295065,-8.4880701442087,14.567296729673,2358203.2400404,-2342.8841868168,2683275.3480724,19.767296729673,0,0
44.210955545112,-8.4894507024975,14.571727172717,2358203.2400404,-2342.8841868168,2683275.3480724,19.771727172717,0,0
44.210955795159,-8.4908312607862,14.576157615762,2358203.2400404,-2342.8841868168,2683275.3480724,19.776157615762,0,0
44.210956045205,-8.492211819075,14.580588058806,2358203.2400404,-2342.8841868168,2683275.3480724,19.780588058806,0,0
44.210956295252,-8.4935923773638,14.58501850185,2358203.2400404,-2342.8841868168,2683275.3480724,19.78501850185,0,0
44.210956545299,-8.4949729356526,14.589448944894,2358203.2400404,-2342.8841868168,2683275.3480724,19.789448944894,0,0
44.210956795345,-8.4963534939413,14.593879387939,2358203.2400404,-2342.8841868168,2683275.3480724,19.793879387939,0,0
44.210957045392,-8.4977340522301,14.598309830983,2358203.2400404,-2342.8841868168,2683275.3480724,19.798309830983,0,0
44.210957295439,-8.4991146105189,14.602740274027,2358203.2400404,-2342.8841868168,2683275.3480724,19.802740274027,0,0
44.210957545486,-8.5004951688077,14.607170717072,2358203.2400404,-2342.8841868168,2683275.3480724,19.807170717072,0,0
44.210957795532,-8.5018757270965,14.611601160116,2358203.2400404,-2342.8841868168,2683275.3480724,19.811601160116,0,0
44.210958045579,-8.5032562853852,14.61603160316,2358203.2400404,-2342.8841868168,2683275.3480724,19.81603160316,0,0
44.210958295626,-8.504636843674,14.620462046205,2358203.2400404,-2342.8841868168,2683275.3480724,19.820462046205,0,0
44.210958545672,-8.5060174019628,14.624892489249,2358203.2400404,-2342.8841868168,2683275.3480724,19.824892489249,0,0
44.210958795719,-8.5073979602516,14.629322932293,2358203.2400404,-2342.8841868168,2683275.3480724,19.829322932293,0,0
44.210959045766,-8.5087785185403,14.633753375338,2358203.2400404,-2342.8841868168,2683275.3480724,19.833753375338,0,0
44.210959295813,-8.5101590768291,14.638183818382,2358203.2400404,-2342.8841868168,2683275.3480724,19.838183818382,0,0
44.210959545859,-8.5115396351179,14.642614261426,2358203.2400404,-2342.8841868168,2683275.3480724,19.842614261426,0,0
44.210959795906,-8.5129201934067,14.64704470447,2358203.2400404,-2342.8841868168,2683275.3480724,19.84704470447,0,0
44.210960045953,-8.5143007516954,14.651475147515,2358203.2400404,-2342.8841868168,2683275.3480724,19.851475147515,0,0
44.210960295999,-8.5156813099842,14.655905590559,2358203.2400404,-2342.8841868168,2683275.3480724,19.855905590559,0,0
44.210960546046,-8.517061868273,14.660336033603,2358203.2400404,-2342.8841868168,2683275.3480724,19.860336033603,0,0
44.210960796093,-8.5184424265618,14.664766476648,2358203.2400404,-2342.8841868168,2683275.3480724,19.864766476648,0,0
44.210961046139,-8.5198229848506,14.669196919692,2358203.2400404,-2342.8841868168,2683275.3480724,19.869196919692,0,0
44.210961296186,-8.5212035431393,14.673627362736,2358203.2400404,-2342.8841868168,2683275.3480724,19.873627362736,0,0
44.210961546233,-8.5225841014281,14.678057805781,2358203.2400404,-2342.8841868168,2683275.3480724,19.878057805781,0,0
44.21096179628,-8.5239646597169,14.682488248825,2358203.2400404,-2342.8841868168,2683275.3480724,19.882488248825,0,0
44.210962046326,-8.5253452180057,14.686918691869,2358203.2400404,-2342.8841868168,2683275.3480724,19.886918691869,0,0
44.210962297736,-8.5267257746235,14.691349134913,2373907.242753,2372.139639668,2677347.1438032,19.891349134913,0,0
44.210962549195,-8.5281063311807,14.695779577958,2373907.242753,2372.139639668,2677347.1438032,19.895779577958,0,0
44.210962800654,-8.529486887738,14.700210021002,2373907.242753,2372.139639668,2677347.1438032,19.900210021002,0,0
44.210963052113,-8.5308674442952,14.704640464046,2373907.242753,2372.139639668,2677347.1438032,19.904640464046,0,0
44.210963303571,-8.5322480008525,14.709070907091,2373907.242753,2372.139639668,2677347.1438032,19.909070907091,0,0
44.21096355503,-8.5336285574097,14.713501350135,2373907.242753,2372.139639668,2677347.1438032,19.913501350135,0,0
44.210963806489,-8.535009113967,14.717931793179,2373907.242753,2372.139639668,2677347.1438032,19.917931793179,0,0
44.210964057948,-8.5363896705242,14.722362236224,2373907.242753,2372.139639668,2677347.1438032,19.922362236224,0,0
44.210964309407,-8.5377702270815,14.726792679268,2373907.242753,2372.139639668,2677347.1438032,19.926792679268,0,0
44.210964560866,-8.5391507836388,14.731223122312,2373907.242753,2372.139639668,2677347.1438032,19.931223122312,0,0
44.210964812325,-8.540531340196,14.735653565357,2373907.242753,2372.139639668,2677347.1438032,19.935653565357,0,0
44.210965063784,-8.5419118967533,14.740084008401,2373907.242753,2372.139639668,2677347.1438032,19.940084008401,0,0
44.210965315243,-8.5432924533105,14.744514451445,2373907.242753,2372.139639668,2677347.1438032,19.944514451445,0,0
44.210965566702,-8.5446730098678,14.748944894489,2373907.242753,2372.139639668,2677347.1438032,19.948944894489,0,0
44.210965818161,-8.546053566425,14.753375337534,2373907.242753,2372.139639668,2677347.1438032,19.953375337534,0,0
44.21096606962,-8.5474341229823,14.757805780578,2373907.242753,2372.139639668,2677347.1438032,19.957805780578,0,0
44.210966321078,-8.5488146795395,14.762236223622,2373907.242753,2372.139639668,2677347.1438032,19.962236223622,0,0
44.210966572537,-8.5501952360968,14.766666666667,2373907.242753,2372.139639668,2677347.1438032,19.966666666667,0,0
44.210966823996,-8.551575792654,14.771097109711,2373907.242753,2372.139639668,2677347.1438032,19.971097109711,0,0
44.210967075455,-8.5529563492113,14.775527552755,2373907.242753,2372.139639668,2677347.1438032,19.975527552755,0,0
44.210967326914,-8.5543369057685,14.7799579958,2373907.242753,2372.139639668,2677347.1438032,19.9799579958,0,0
44.210967578373,-8.5557174623258,14.784388438844,2373907.242753,2372.139639668,2677347.1438032,19.984388438844,0,0
44.210967829832,-8.5570980188831,14.788818881888,2373907.242753,2372.139639668,2677347.1438032,19.988818881888,0,0
44.210968081291,-8.5584785754403,14.793249324932,2373907.242753,2372.139639668,2677347.1438032,19.993249324932,0,0
44.21096833275,-8.5598591319976,14.797679767977,2373907.242753,2372.139639668,2677347.1438032,19.997679767977,0,0
44.210968584209,-8.5612396885548,14.802110211021,2373907.242753,2372.139639668,2677347.1438032,20.002110211021,0,0
44.210968835668,-8.5626202451121,14.806540654065,2373907.242753,2372.139639668,2677347.1438032,20.006540654065,0,0
44.210969087127,-8.5640008016693,14.81097109711,2373907.242753,2372.139639668,2677347.1438032,20.01097109711,0,0
44.210969338585,-8.5653813582266,14.815401540154,2373907.242753,2372.139639668,2677347.1438032,20.015401540154,0,0
44.210969590044,-8.5667619147838,14.819831983198,2373907.242753,2372.139639668,2677347.1438032,20.019831983198,0,0
44.210969841503,-8.5681424713411,14.824262426243,2373907.242753,2372.139639668,2677347.1438032,20.024262426243,0,0
44.210970092962,-8.5695230278983,14.828692869287,2373907.242753,2372.139639668,2677347.1438032,20.028692869287,0,0
44.210970344421,-8.5709035844556,14.833123312331,2373907.242753,2372.139639668,2677347.1438032,20.033123312331,0,0
44.21097059588,-8.5722841410128,14.837553755376,2373907.242753,2372.139639668,2677347.1438032,20.037553755376,0,0
44.210970847339,-8.5736646975701,14.84198419842,2373907.242753,2372.139639668,2677347.1438032,20.04198419842,0,0
44.210971098798,-8.5750452541274,14.846414641464,2373907.242753,2372.139639668,2677347.1438032,20.046414641464,0,0
44.210971350257,-8.5764258106846,14.850845084508,2373907.242753,2372.139639668,2677347.1438032,20.050845084508,0,0
44.210971601716,-8.5778063672419,14.855275527553,2373907.242753,2372.139639668,2677347.1438032,20.055275527553,0,0
44.210971853175,-8.5791869237991,14.859705970597,2373907.242753,2372.139639668,2677347.1438032,20.059705970597,0,0
44.210972104634,-8.5805674803564,14.864136413641,2373907.242753,2372.139639668,2677347.1438032,20.064136413641,0,0
44.210972356092,-8.5819480369136,14.868566856686,2373907.242753,2372.139639668,2677347.1438032,20.068566856686,0,0
44.210972607551,-8.5833285934709,14.87299729973,2373907.242753,2372.139639668,2677347.1438032,20.07299729973,0,0
44.21097285901,-8.5847091500281,14.877427742774,2373907.242753,2372.139639668,2677347.1438032,20.077427742774,0,0
44.210973110469,-8.5860897065854,14.881858185819,2373907.242753,2372.139639668,2677347.1438032,20.081858185819,0,0
44.210973361928,-8.5874702631426,14.886288628863,2373907.242753,2372.139639668,2677347.1438032,20.086288628863,0,0
44.210973613387,-8.5888508196999,14.890719071907,2373907.242753,2372.139639668,2677347.1438032,20.090719071907,0,0
44.210973864846,-8.5902313762571,14.895149514951,2373907.242753,2372.139639668,2677347.1438032,20.095149514951,0,0
44.210974116305,-8.5916119328144,14.899579957996,2373907.242753,2372.139639668,2677347.1438032,20.099579957996,0,0
44.210974367764,-8.5929924893716,14.90401040104,2373907.242753,2372.139639668,2677347.1438032,20.10401040104,0,0
44.210974619223,-8.5943730459289,14.908440844084,2373907.242753,2372.139639668,2677347.1438032,20.108440844084,0,0
44.210974870682,-8.5957536024862,14.912871287129,2373907.242753,2372.139639668,2677347.1438032,20.112871287129,0,0
44.210975122141,-8.5971341590434,14.917301730173,2373907.242753,2372.139639668,2677347.1438032,20.117301730173,0,0
44.210975373599,-8.5985147156007,14.921732173217,2373907.242753,2372.139639668,2677347.1438032,20.121732173217,0,0
44.210975625058,-8.5998952721579,14.926162616262,2373907.242753,2372.139639668,2677347.1438032,20.126162616262,0,0
44.210975876517,-8.6012758287152,14.930593059306,2373907.242753,2372.139639668,2677347.1438032,20.130593059306,0,0
44.210976127976,-8.6026563852724,14.93502350235,2373907.242753,2372.139639668,2677347.1438032,20.13502350235,0,0
44.210976379435,-8.6040369418297,14.939453945395,2373907.242753,2372.139639668,2677347.1438032,20.139453945395,0,0
44.210976630894,-8.6054174983869,14.943884388439,2373907.242753,2372.139639668,2677347.1438032,20.143884388439,0,0
44.210976882353,-8.6067980549442,14.948314831483,2373907.242753,2372.139639668,2677347.1438032,20.148314831483,0,0
44.210977133812,-8.6081786115014,14.952745274527,2373907.242753,2372.139639668,2677347.1438032,20.152745274527,0,0
44.210977385271,-8.6095591680587,14.957175717572,2373907.242753,2372.139639668,2677347.1438032,20.157175717572,0,0
44.21097763673,-8.6109397246159,14.961606160616,2373907.242753,2372.139639668,2677347.1438032,20.161606160616,0,0
44.210977888189,-8.6123202811732,14.96603660366,2373907.242753,2372.139639668,2677347.1438032,20.16603660366,0,0
44.210978139648,-8.6137008377305,14.970467046705,2373907.242753,2372.139639668,2677347.1438032,20.170467046705,0,0
44.210978391106,-8.6150813942877,14.974897489749,2373907.242753,2372.139639668,2677347.1438032,20.174897489749,0,0
44.210978642565,-8.616461950845,14.979327932793,2373907.242753,2372.139639668,2677347.1438032,20.179327932793,0,0
44.210978894024,-8.6178425074022,14.983758375838,2373907.242753,2372.139639668,2677347.1438032,20.183758375838,0,0
44.210979145483,-8.6192230639595,14.988188818882,2373907.242753,2372.139639668,2677347.1438032,20.188188818882,0,0
44.210979396942,-8.6206036205167,14.992619261926,2373907.242753,2372.139639668,2677347.1438032,20.192619261926,0,0
44.210979648401,-8.621984177074,14.99704970497,2373907.242753,2372.139639668,2677347.1438032,20.19704970497,0,0
44.21097989986,-8.6233647336312,15.001480148015,2373907.242753,2372.139639668,2677347.1438032,20.201480148015,0,0
44.210980151319,-8.6247452901885,15.005910591059,2373907.242753,2372.139639668,2677347.1438032,20.205910591059,0,0
44.210980402778,-8.6261258467457,15.010341034103,2373907.242753,2372.139639668,2677347.1438032,20.210341034103,0,0
44.210980654237,-8.627506403303,15.014771477148,2373907.242753,2372.139639668,2677347.1438032,20.214771477148,0,0
44.210980905696,-8.6288869598602,15.019201920192,2373907.242753,2372.139639668,2677347.1438032,20.219201920192,0,0
44.210981157155,-8.6302675164175,15.023632363236,2373907.242753,2372.139639668,2677347.1438032,20.223632363236,0,0
44.210981408613,-8.6316480729748,15.028062806281,2373907.242753,2372.139639668,2677347.1438032,20.228062806281,0,0
44.210981660072,-8.633028629532,15.032493249325,2373907.242753,2372.139639668,2677347.1438032,20.232493249325,0,0
44.210981911531,-8.6344091860893,15.036923692369,2373907.242753,2372.139639668,2677347.1438032,20.236923692369,0,0
44.21098216299,-8.6357897426465,15.041354135414,2373907.242753,2372.139639668,2677347.1438032,20.241354135414,0,0
44.210982414449,-8.6371702992038,15.045784578458,2373907.242753,2372.139639668,2677347.1438032,20.245784578458,0,0
44.210982665908,-8.638550855761,15.050215021502,2373907.242753,2372.139639668,2677347.1438032,20.250215021502,0,0
44.210982917367,-8.6399314123183,15.054645464546,2373907.242753,2372.139639668,2677347.1438032,20.254645464546,0,0
44.210983168826,-8.6413119688755,15.059075907591,2373907.242753,2372.139639668,2677347.1438032,20.259075907591,0,0
44.210983420285,-8.6426925254328,15.063506350635,2373907.242753,2372.139639668,2677347.1438032,20.263506350635,0,0
44.210983671744,-8.64407308199,15.067936793679,2373907.242753,2372.139639668,2677347.1438032,20.267936793679,0,0
44.210983923203,-8.6454536385473,15.072367236724,2373907.242753,2372.139639668,2677347.1438032,20.272367236724,0,0
44.210984174662,-8.6468341951045,15.076797679768,2373907.242753,2372.139639668,2677347.1438032,20.276797679768,0,0
44.21098442612,-8.6482147516618,15.081228122812,2373907.242753,2372.139639668,2677347.1438032,20.281228122812,0,0
44.210984677579,-8.649595308219,15.085658565857,2373907.242753,2372.139639668,2677347.1438032,20.285658565857,0,0
44.210984929038,-8.6509758647763,15.090089008901,2373907.242753,2372.139639668,2677347.1438032,20.290089008901,0,0
44.210985180497,-8.6523564213336,15.094519451945,2373907.242753,2372.139639668,2677347.1438032,20.294519451945,0,0
44.210985431956,-8.6537369778908,15.098949894989,2373907.242753,2372.139639668,2677347.1438032,20.298949894989,0,0
44.210985683415,-8.6551175344481,15.103380338034,2373907.242753,2372.139639668,2677347.1438032,20.303380338034,0,0
44.210985934874,-8.6564980910053,15.107810781078,2373907.242753,2372.139639668,2677347.1438032,20.307810781078,0,0
44.210986186333,-8.6578786475626,15.112241224122,2373907.242753,2372.139639668,2677347.1438032,20.312241224122,0,0
44.210986437792,-8.6592592041198,15.116671667167,2373907.242753,2372.139639668,2677347.1438032,20.316671667167,0,0
44.210986689251,-8.6606397606771,15.121102110211,2373907.242753,2372.139639668,2677347.1438032,20.321102110211,0,0
44.21098694071,-8.6620203172343,15.125532553255,2373907.242753,2372.139639668,2677347.1438032,20.325532553255,0,0
44.210987192169,-8.6634008737916,15.1299629963,2373907.242753,2372.139639668,2677347.1438032,20.3299629963,0,0
44.210987443627,-8.6647814303488,15.134393439344,2373907.242753,2372.139639668,2677347.1438032,20.334393439344,0,0
44.210987695086,-8.6661619869061,15.138823882388,2373907.242753,2372.139639668,2677347.1438032,20.338823882388,0,0
44.210987946545,-8.6675425434633,15.143254325433,2373907.242753,2372.139639668,2677347.1438032,20.343254325433,0,0
44.210988198004,-8.6689231000206,15.147684768477,2373907.242753,2372.139639668,2677347.1438032,20.347684768477,0,0
44.210988449463,-8.6703036565779,15.152115211521,2373907.242753,2372.139639668,2677347.1438032,20.352115211521,0,0
44.210988700922,-8.6716842131351,15.156545654565,2373907.242753,2372.139639668,2677347.1438032,20.356545654565,0,0
44.210988952381,-8.6730647696924,15.16097609761,2373907.242753,2372.139639668,2677347.1438032,20.36097609761,0,0
44.21098920384,-8.6744453262496,15.165406540654,2373907.242753,2372.139639668,2677347.1438032,20.365406540654,0,0
44.210989455299,-8.6758258828069,15.169836983698,2373907.242753,2372.139639668,2677347.1438032,20.369836983698,0,0
44.210989706758,-8.6772064393641,15.174267426743,2373907.242753,2372.139639668,2677347.1438032,20.374267426743,0,0
44.210989958217,-8.6785869959214,15.178697869787,2373907.242753,2372.139639668,2677347.1438032,20.378697869787,0,0
44.210990209676,-8.6799675524786,15.183128312831,2373907.242753,2372.139639668,2677347.1438032,20.383128312831,0,0
44.210990461134,-8.6813481090359,15.187558755876,2373907.242753,2372.139639668,2677347.1438032,20.387558755876,0,0
44.210990712593,-8.6827286655931,15.19198919892,2373907.242753,2372.139639668,2677347.1438032,20.39198919892,0,0
44.210990964052,-8.6841092221504,15.196419641964,2373907.242753,2372.139639668,2677347.1438032,20.396419641964,0,0
44.210991215511,-8.6854897787076,15.200850085009,2373907.242753,2372.139639668,2677347.1438032,20.400850085008,0,0
44.21099146697,-8.6868703352649,15.205280528053,2373907.242753,2372.139639668,2677347.1438032,20.405280528053,0,0
44.210991718429,-8.6882508918222,15.209710971097,2373907.242753,2372.139639668,2677347.1438032,20.409710971097,0,0
44.210991969888,-8.6896314483794,15.214141414141,2373907.242753,2372.139639668,2677347.1438032,20.414141414141,0,0
44.210992221347,-8.6910120049367,15.218571857186,2373907.242753,2372.139639668,2677347.1438032,20.418571857186,0,0
44.210992472806,-8.6923925614939,15.22300230023,2373907.242753,2372.139639668,2677347.1438032,20.42300230023,0,0
44.210992724265,-8.6937731180512,15.227432743274,2373907.242753,2372.139639668,2677347.1438032,20.427432743274,0,0
44.210992975724,-8.6951536746084,15.231863186319,2373907.242753,2372.139639668,2677347.1438032,20.431863186319,0,0
44.210993227183,-8.6965342311657,15.236293629363,2373907.242753,2372.139639668,2677347.1438032,20.436293629363,0,0
44.210993478641,-8.6979147877229,15.240724072407,2373907.242753,2372.139639668,2677347.1438032,20.440724072407,0,0
44.2109937301,-8.6992953442802,15.245154515452,2373907.242753,2372.139639668,2677347.1438032,20.445154515452,0,0
44.210993981559,-8.7006759008374,15.249584958496,2373907.242753,2372.139639668,2677347.1438032,20.449584958496,0,0
44.210994233018,-8.7020564573947,15.25401540154,2373907.242753,2372.139639668,2677347.1438032,20.45401540154,0,0
44.210994484477,-8.7034370139519,15.258445844584,2373907.242753,2372.139639668,2677347.1438032,20.458445844584,0,0
44.210994735936,-8.7048175705092,15.262876287629,2373907.242753,2372.139639668,2677347.1438032,20.462876287629,0,0
44.210994987395,-8.7061981270664,15.267306730673,2373907.242753,2372.139639668,2677347.1438032,20.467306730673,0,0
44.210995238854,-8.7075786836237,15.271737173717,2373907.242753,2372.139639668,2677347.1438032,20.471737173717,0,0
44.210995490313,-8.708959240181,15.276167616762,2373907.242753,2372.139639668,2677347.1438032,20.476167616762,0,0
44.210995741772,-8.7103397967382,15.280598059806,2373907.242753,2372.139639668,2677347.1438032,20.480598059806,0,0
44.210995993231,-8.7117203532955,15.28502850285,2373907.242753,2372.139639668,2677347.1438032,20.48502850285,0,0
44.21099624469,-8.7131009098527,15.289458945895,2373907.242753,2372.139639668,2677347.1438032,20.489458945895,0,0
44.210996496148,-8.71448146641,15.293889388939,2373907.242753,2372.139639668,2677347.1438032,20.493889388939,0,0
44.210996747607,-8.7158620229672,15.298319831983,2373907.242753,2372.139639668,2677347.1438032,20.498319831983,0,0
44.210996999066,-8.7172425795245,15.302750275028,2373907.242753,2372.139639668,2677347.1438032,20.502750275028,0,0
44.210997250525,-8.7186231360817,15.307180718072,2373907.242753,2372.139639668,2677347.1438032,20.507180718072,0,0
44.210997501984,-8.720003692639,15.311611161116,2373907.242753,2372.139639668,2677347.1438032,20.511611161116,0,0
44.210997753443,-8.7213842491962,15.31604160416,2373907.242753,2372.139639668,2677347.1438032,20.51604160416,0,0
44.210998004902,-8.7227648057535,15.320472047205,2373907.242753,2372.139639668,2677347.1438032,20.520472047205,0,0
44.210998256361,-8.7241453623107,15.324902490249,2373907.242753,2372.139639668,2677347.1438032,20.524902490249,0,0
44.21099850782,-8.725525918868,15.329332933293,2373907.242753,2372.139639668,2677347.1438032,20.529332933293,0,0
44.210998759279,-8.7269064754253,15.333763376338,2373907.242753,2372.139639668,2677347.1438032,20.533763376338,0,0
44.210999010738,-8.7282870319825,15.338193819382,2373907.242753,2372.139639668,2677347.1438032,20.538193819382,0,0
44.210999262197,-8.7296675885398,15.342624262426,2373907.242753,2372.139639668,2677347.1438032,20.542624262426,0,0
44.210999513655,-8.731048145097,15.347054705471,2373907.242753,2372.139639668,2677347.1438032,20.547054705471,0,0
44.210999765114,-8.7324287016543,15.351485148515,2373907.242753,2372.139639668,2677347.1438032,20.551485148515,0,0
44.211000017082,-8.7338092593743,15.355915591559,2378776.5976897,-3182.2102198476,2663839.052824,20.555915591559,0,0
44.211000269289,-8.7351898176432,15.360346034603,2378776.5976897,-3182.2102198476,2663839.052824,20.560346034603,0,0
44.211000521497,-8.7365703759121,15.364776477648,2378776.5976897,-3182.2102198476,2663839.052824,20.564776477648,0,0
44.211000773704,-8.7379509341811,15.369206920692,2378776.5976897,-3182.2102198476,2663839.052824,20.569206920692,0,0
44.211001025912,-8.73933149245,15.373637363736,2378776.5976897,-3182.2102198476,2663839.052824,20.573637363736,0,0
44.211001278119,-8.7407120507189,15.378067806781,2378776.5976897,-3182.2102198476,2663839.052824,20.578067806781,0,0
44.211001530327,-8.7420926089878,15.382498249825,2378776.5976897,-3182.2102198476,2663839.052824,20.582498249825,0,0
44.211001782534,-8.7434731672568,15.386928692869,2378776.5976897,-3182.2102198476,2663839.052824,20.586928692869,0,0
44.211002034742,-8.7448537255257,15.391359135914,2378776.5976897,-3182.2102198476,2663839.052824,20.591359135914,0,0
44.211002286949,-8.7462342837946,15.395789578958,2378776.5976897,-3182.2102198476,2663839.052824,20.595789578958,0,0
44.211002539157,-8.7476148420636,15.400220022002,2378776.5976897,-3182.2102198476,2663839.052824,20.600220022002,0,0
44.211002791364,-8.7489954003325,15.404650465047,2378776.5976897,-3182.2102198476,2663839.052824,20.604650465047,0,0
44.211003043572,-8.7503759586014,15.409080908091,2378776.5976897,-3182.2102198476,2663839.052824,20.609080908091,0,0
44.21100329578,-8.7517565168703,15.413511351135,2378776.5976897,-3182.2102198476,2663839.052824,20.613511351135,0,0
44.211003547987,-8.7531370751393,15.417941794179,2378776.5976897,-3182.2102198476,2663839.052824,20.617941794179,0,0
44.211003800195,-8.7545176334082,15.422372237224,2378776.5976897,-3182.2102198476,2663839.052824,20.622372237224,0,0
44.211004052402,-8.7558981916771,15.426802680268,2378776.5976897,-3182.2102198476,2663839.052824,20.626802680268,0,0
44.21100430461,-8.7572787499461,15.431233123312,2378776.5976897,-3182.2102198476,2663839.052824,20.631233123312,0,0
44.211004556817,-8.758659308215,15.435663566357,2378776.5976897,-3182.2102198476,2663839.052824,20.635663566357,0,0
44.211004809025,-8.7600398664839,15.440094009401,2378776.5976897,-3182.2102198476,2663839.052824,20.640094009401,0,0
44.211005061232,-8.7614204247529,15.444524452445,2378776.5976897,-3182.2102198476,2663839.052824,20.644524452445,0,0
44.21100531344,-8.7628009830218,15.44895489549,2378776.5976897,-3182.2102198476,2663839.052824,20.64895489549,0,0
44.211005565647,-8.7641815412907,15.453385338534,2378776.5976897,-3182.2102198476,2663839.052824,20.653385338534,0,0
44.211005817855,-8.7655620995596,15.457815781578,2378776.5976897,-3182.2102198476,2663839.052824,20.657815781578,0,0
44.211006070062,-8.7669426578286,15.462246224622,2378776.5976897,-3182.2102198476,2663839.052824,20.662246224622,0,0
44.21100632227,-8.7683232160975,15.466676667667,2378776.5976897,-3182.2102198476,2663839.052824,20.666676667667,0,0
44.211006574477,-8.7697037743664,15.471107110711,2378776.5976897,-3182.2102198476,2663839.052824,20.671107110711,0,0
44.211006826685,-8.7710843326354,15.475537553755,2378776.5976897,-3182.2102198476,2663839.052824,20.675537553755,0,0
44.211007078892,-8.7724648909043,15.4799679968,2378776.5976897,-3182.2102198476,2663839.052824,20.6799679968,0,0
44.2110073311,-8.7738454491732,15.484398439844,2378776.5976897,-3182.2102198476,2663839.052824,20.684398439844,0,0
44.211007583307,-8.7752260074421,15.488828882888,2378776.5976897,-3182.2102198476,2663839.052824,20.688828882888,0,0
44.211007835515,-8.7766065657111,15.493259325933,2378776.5976897,-3182.2102198476,2663839.052824,20.693259325933,0,0
44.211008087722,-8.77798712398,15.497689768977,2378776.5976897,-3182.2102198476,2663839.052824,20.697689768977,0,0
44.21100833993,-8.7793676822489,15.502120212021,2378776.5976897,-3182.2102198476,2663839.052824,20.702120212021,0,0
44.211008592137,-8.7807482405179,15.506550655066,2378776.5976897,-3182.2102198476,2663839.052824,20.706550655066,0,0
44.211008844345,-8.7821287987868,15.51098109811,2378776.5976897,-3182.2102198476,2663839.052824,20.71098109811,0,0
44.211009096552,-8.7835093570557,15.515411541154,2378776.5976897,-3182.2102198476,2663839.052824,20.715411541154,0,0
44.21100934876,-8.7848899153247,15.519841984198,2378776.5976897,-3182.2102198476,2663839.052824,20.719841984198,0,0
44.211009600967,-8.7862704735936,15.524272427243,2378776.5976897,-3182.2102198476,2663839.052824,20.724272427243,0,0
44.211009853175,-8.7876510318625,15.528702870287,2378776.5976897,-3182.2102198476,2663839.052824,20.728702870287,0,0
44.211010105382,-8.7890315901314,15.533133313331,2378776.5976897,-3182.2102198476,2663839.052824,20.733133313331,0,0
44.21101035759,-8.7904121484004,15.537563756376,2378776.5976897,-3182.2102198476,2663839.052824,20.737563756376,0,0
44.211010609797,-8.7917927066693,15.54199419942,2378776.5976897,-3182.2102198476,2663839.052824,20.74199419942,0,0
44.211010862005,-8.7931732649382,15.546424642464,2378776.5976897,-3182.2102198476,2663839.052824,20.746424642464,0,0
44.211011114213,-8.7945538232072,15.550855085509,2378776.5976897,-3182.2102198476,2663839.052824,20.750855085509,0,0
44.21101136642,-8.7959343814761,15.555285528553,2378776.5976897,-3182.2102198476,2663839.052824,20.755285528553,0,0
44.211011618628,-8.797314939745,15.559715971597,2378776.5976897,-3182.2102198476,2663839.052824,20.759715971597,0,0
44.211011870835,-8.7986954980139,15.564146414641,2378776.5976897,-3182.2102198476,2663839.052824,20.764146414641,0,0
44.211012123043,-8.8000760562829,15.568576857686,2378776.5976897,-3182.2102198476,2663839.052824,20.768576857686,0,0
44.21101237525,-8.8014566145518,15.57300730073,2378776.5976897,-3182.2102198476,2663839.052824,20.77300730073,0,0
44.211012627458,-8.8028371728207,15.577437743774,2378776.5976897,-3182.2102198476,2663839.052824,20.777437743774,0,0
44.211012879665,-8.8042177310897,15.581868186819,2378776.5976897,-3182.2102198476,2663839.052824,20.781868186819,0,0
44.211013131873,-8.8055982893586,15.586298629863,2378776.5976897,-3182.2102198476,2663839.052824,20.786298629863,0,0
44.21101338408,-8.8069788476275,15.590729072907,2378776.5976897,-3182.2102198476,2663839.052824,20.790729072907,0,0
44.211013636288,-8.8083594058965,15.595159515952,2378776.5976897,-3182.2102198476,2663839.052824,20.795159515952,0,0
44.211013888495,-8.8097399641654,15.599589958996,2378776.5976897,-3182.2102198476,2663839.052824,20.799589958996,0,0
44.211014140703,-8.8111205224343,15.60402040204,2378776.5976897,-3182.2102198476,2663839.052824,20.80402040204,0,0
44.21101439291,-8.8125010807032,15.608450845085,2378776.5976897,-3182.2102198476,2663839.052824,20.808450845085,0,0
44.211014645118,-8.8138816389722,15.612881288129,2378776.5976897,-3182.2102198476,2663839.052824,20.812881288129,0,0
44.211014897325,-8.8152621972411,15.617311731173,2378776.5976897,-3182.2102198476,2663839.052824,20.817311731173,0,0
44.211015149533,-8.81664275551,15.621742174217,2378776.5976897,-3182.2102198476,2663839.052824,20.821742174217,0,0
44.21101540174,-8.818023313779,15.626172617262,2378776.5976897,-3182.2102198476,2663839.052824,20.826172617262,0,0
44.211015653948,-8.8194038720479,15.630603060306,2378776.5976897,-3182.2102198476,2663839.052824,20.830603060306,0,0
44.211015906155,-8.8207844303168,15.63503350335,2378776.5976897,-3182.2102198476,2663839.052824,20.83503350335,0,0
44.211016158363,-8.8221649885857,15.639463946395,2378776.5976897,-3182.2102198476,2663839.052824,20.839463946395,0,0
44.21101641057,-8.8235455468547,15.643894389439,2378776.5976897,-3182.2102198476,2663839.052824,20.843894389439,0,0
44.211016662778,-8.8249261051236,15.648324832483,2378776.5976897,-3182.2102198476,2663839.052824,20.848324832483,0,0
44.211016914985,-8.8263066633925,15.652755275528,2378776.5976897,-3182.2102198476,2663839.052824,20.852755275528,0,0
44.211017167193,-8.8276872216615,15.657185718572,2378776.5976897,-3182.2102198476,2663839.052824,20.857185718572,0,0
44.2110174194,-8.8290677799304,15.661616161616,2378776.5976897,-3182.2102198476,2663839.052824,20.861616161616,0,0
44.211017671608,-8.8304483381993,15.66604660466,2378776.5976897,-3182.2102198476,2663839.052824,20.86604660466,0,0
44.211017923815,-8.8318288964682,15.670477047705,2378776.5976897,-3182.2102198476,2663839.052824,20.870477047705,0,0
44.211018176023,-8.8332094547372,15.674907490749,2378776.5976897,-3182.2102198476,2663839.052824,20.874907490749,0,0
44.21101842823,-8.8345900130061,15.679337933793,2378776.5976897,-3182.2102198476,2663839.052824,20.879337933793,0,0
44.211018680438,-8.835970571275,15.683768376838,2378776.5976897,-3182.2102198476,2663839.052824,20.883768376838,0,0
44.211018932646,-8.837351129544,15.688198819882,2378776.5976897,-3182.2102198476,2663839.052824,20.888198819882,0,0
44.211019184853,-8.8387316878129,15.692629262926,2378776.5976897,-3182.2102198476,2663839.052824,20.892629262926,0,0
44.211019437061,-8.8401122460818,15.697059705971,2378776.5976897,-3182.2102198476,2663839.052824,20.897059705971,0,0
44.211019689268,-8.8414928043508,15.701490149015,2378776.5976897,-3182.2102198476,2663839.052824,20.901490149015,0,0
44.211019941476,-8.8428733626197,15.705920592059,2378776.5976897,-3182.2102198476,2663839.052824,20.905920592059,0,0
44.211020193683,-8.8442539208886,15.710351035104,2378776.5976897,-3182.2102198476,2663839.052824,20.910351035104,0,0
44.211020445891,-8.8456344791575,15.714781478148,2378776.5976897,-3182.2102198476,2663839.052824,20.914781478148,0,0
44.211020698098,-8.8470150374265,15.719211921192,2378776.5976897,-3182.2102198476,2663839.052824,20.919211921192,0,0
44.211020950306,-8.8483955956954,15.723642364236,2378776.5976897,-3182.2102198476,2663839.052824,20.923642364236,0,0
44.211021202513,-8.8497761539643,15.728072807281,2378776.5976897,-3182.2102198476,2663839.052824,20.928072807281,0,0
44.211021454721,-8.8511567122333,15.732503250325,2378776.5976897,-3182.2102198476,2663839.052824,20.932503250325,0,0
44.211021706928,-8.8525372705022,15.736933693369,2378776.5976897,-3182.2102198476,2663839.052824,20.936933693369,0,0
44.211021959136,-8.8539178287711,15.741364136414,2378776.5976897,-3182.2102198476,2663839.052824,20.941364136414,0,0
44.211022211343,-8.85529838704,15.745794579458,2378776.5976897,-3182.2102198476,2663839.052824,20.945794579458,0,0
44.211022463551,-8.856678945309,15.750225022502,2378776.5976897,-3182.2102198476,2663839.052824,20.950225022502,0,0
44.211022715758,-8.8580595035779,15.754655465547,2378776.5976897,-3182.2102198476,2663839.052824,20.954655465547,0,0
44.211022967966,-8.8594400618468,15.759085908591,2378776.5976897,-3182.2102198476,2663839.052824,20.959085908591,0,0
44.211023220173,-8.8608206201158,15.763516351635,2378776.5976897,-3182.2102198476,2663839.052824,20.963516351635,0,0
44.211023472381,-8.8622011783847,15.767946794679,2378776.5976897,-3182.2102198476,2663839.052824,20.967946794679,0,0
44.211023724588,-8.8635817366536,15.772377237724,2378776.5976897,-3182.2102198476,2663839.052824,20.972377237724,0,0
44.211023976796,-8.8649622949226,15.776807680768,2378776.5976897,-3182.2102198476,2663839.052824,20.976807680768,0,0
44.211024229003,-8.8663428531915,15.781238123812,2378776.5976897,-3182.2102198476,2663839.052824,20.981238123812,0,0
44.211024481211,-8.8677234114604,15.785668566857,2378776.5976897,-3182.2102198476,2663839.052824,20.985668566857,0,0
44.211024733418,-8.8691039697293,15.790099009901,2378776.5976897,-3182.2102198476,2663839.052824,20.990099009901,0,0
44.211024985626,-8.8704845279983,15.794529452945,2378776.5976897,-3182.2102198476,2663839.052824,20.994529452945,0,0
44.211025237833,-8.8718650862672,15.79895989599,2378776.5976897,-3182.2102198476,2663839.052824,20.99895989599,0,0
44.211025490041,-8.8732456445361,15.803390339034,2378776.5976897,-3182.2102198476,2663839.052824,21.003390339034,0,0
44.211025742248,-8.8746262028051,15.807820782078,2378776.5976897,-3182.2102198476,2663839.052824,21.007820782078,0,0
44.211025994456,-8.876006761074,15.812251225123,2378776.5976897,-3182.2102198476,2663839.052824,21.012251225123,0,0
44.211026246663,-8.8773873193429,15.816681668167,2378776.5976897,-3182.2102198476,2663839.052824,21.016681668167,0,0
44.211026498871,-8.8787678776118,15.821112111211,2378776.5976897,-3182.2102198476,2663839.052824,21.021112111211,0,0
44.211026751079,-8.8801484358808,15.825542554255,2378776.5976897,-3182.2102198476,2663839.052824,21.025542554255,0,0
44.211027003286,-8.8815289941497,15.8299729973,2378776.5976897,-3182.2102198476,2663839.052824,21.0299729973,0,0
44.211027255494,-8.8829095524186,15.834403440344,2378776.5976897,-3182.2102198476,2663839.052824,21.034403440344,0,0
44.211027507701,-8.8842901106876,15.838833883388,2378776.5976897,-3182.2102198476,2663839.052824,21.038833883388,0,0
44.211027759909,-8.8856706689565,15.843264326433,2378776.5976897,-3182.2102198476,2663839.052824,21.043264326433,0,0
44.211028012116,-8.8870512272254,15.847694769477,2378776.5976897,-3182.2102198476,2663839.052824,21.047694769477,0,0
44.211028264324,-8.8884317854944,15.852125212521,2378776.5976897,-3182.2102198476,2663839.052824,21.052125212521,0,0
44.211028516531,-8.8898123437633,15.856555655566,2378776.5976897,-3182.2102198476,2663839.052824,21.056555655566,0,0
44.211028768739,-8.8911929020322,15.86098609861,2378776.5976897,-3182.2102198476,2663839.052824,21.06098609861,0,0
44.211029020946,-8.8925734603011,15.865416541654,2378776.5976897,-3182.2102198476,2663839.052824,21.065416541654,0,0
44.211029273154,-8.8939540185701,15.869846984698,2378776.5976897,-3182.2102198476,2663839.052824,21.069846984698,0,0
44.211029525361,-8.895334576839,15.874277427743,2378776.5976897,-3182.2102198476,2663839.052824,21.074277427743,0,0
44.211029777569,-8.8967151351079,15.878707870787,2378776.5976897,-3182.2102198476,2663839.052824,21.078707870787,0,0
44.211030029776,-8.8980956933769,15.883138313831,2378776.5976897,-3182.2102198476,2663839.052824,21.083138313831,0,0
44.211030281984,-8.8994762516458,15.887568756876,2378776.5976897,-3182.2102198476,2663839.052824,21.087568756876,0,0
44.211030534191,-8.9008568099147,15.89199919992,2378776.5976897,-3182.2102198476,2663839.052824,21.09199919992,0,0
44.211030786399,-8.9022373681836,15.896429642964,2378776.5976897,-3182.2102198476,2663839.052824,21.096429642964,0,0
44.211031038606,-8.9036179264526,15.900860086009,2378776.5976897,-3182.2102198476,2663839.052824,21.100860086009,0,0
44.211031290814,-8.9049984847215,15.905290529053,2378776.5976897,-3182.2102198476,2663839.052824,21.105290529053,0,0
44.211031543021,-8.9063790429904,15.909720972097,2378776.5976897,-3182.2102198476,2663839.052824,21.109720972097,0,0
44.211031795229,-8.9077596012594,15.914151415142,2378776.5976897,-3182.2102198476,2663839.052824,21.114151415142,0,0
44.211032047436,-8.9091401595283,15.918581858186,2378776.5976897,-3182.2102198476,2663839.052824,21.118581858186,0,0
44.211032299644,-8.9105207177972,15.92301230123,2378776.5976897,-3182.2102198476,2663839.052824,21.12301230123,0,0
44.211032551851,-8.9119012760661,15.927442744274,2378776.5976897,-3182.2102198476,2663839.052824,21.127442744274,0,0
44.211032804059,-8.9132818343351,15.931873187319,2378776.5976897,-3182.2102198476,2663839.052824,21.131873187319,0,0
44.211033057223,-8.9146623915262,15.936303630363,2392805.1144756,196.26943725364,2658683.8120429,21.136303630363,0,0
44.211033310689,-8.9160429483783,15.940734073407,2392805.1144756,196.26943725364,2658683.8120429,21.140734073407,0,0
44.211033564154,-8.9174235052305,15.945164516452,2392805.1144756,196.26943725364,2658683.8120429,21.145164516452,0,0
44.211033817619,-8.9188040620826,15.949594959496,2392805.1144756,196.26943725364,2658683.8120429,21.149594959496,0,0
44.211034071085,-8.9201846189347,15.95402540254,2392805.1144756,196.26943725364,2658683.8120429,21.15402540254,0,0
44.21103432455,-8.9215651757869,15.958455845585,2392805.1144756,196.26943725364,2658683.8120429,21.158455845585,0,0
44.211034578015,-8.922945732639,15.962886288629,2392805.1144756,196.26943725364,2658683.8120429,21.162886288629,0,0
44.211034831481,-8.9243262894912,15.967316731673,2392805.1144756,196.26943725364,2658683.8120429,21.167316731673,0,0
44.211035084946,-8.9257068463433,15.971747174717,2392805.1144756,196.26943725364,2658683.8120429,21.171747174717,0,0
44.211035338411,-8.9270874031954,15.976177617762,2392805.1144756,196.26943725364,2658683.8120429,21.176177617762,0,0
44.211035591876,-8.9284679600476,15.980608060806,2392805.1144756,196.26943725364,2658683.8120429,21.180608060806,0,0
44.211035845342,-8.9298485168997,15.98503850385,2392805.1144756,196.26943725364,2658683.8120429,21.18503850385,0,0
44.211036098807,-8.9312290737519,15.989468946895,2392805.1144756,196.26943725364,2658683.8120429,21.189468946895,0,0
44.211036352272,-8.932609630604,15.993899389939,2392805.1144756,196.26943725364,2658683.8120429,21.193899389939,0,0
44.211036605738,-8.9339901874561,15.998329832983,2392805.1144756,196.26943725364,2658683.8120429,21.198329832983,0,0
44.211036859203,-8.9353707443083,16.002760276028,2392805.1144756,196.26943725364,2658683.8120429,21.202760276028,0,0
44.211037112668,-8.9367513011604,16.007190719072,2392805.1144756,196.26943725364,2658683.8120429,21.207190719072,0,0
44.211037366134,-8.9381318580126,16.011621162116,2392805.1144756,196.26943725364,2658683.8120429,21.211621162116,0,0
44.211037619599,-8.9395124148647,16.016051605161,2392805.1144756,196.26943725364,2658683.8120429,21.216051605161,0,0
44.211037873064,-8.9408929717168,16.020482048205,2392805.1144756,196.26943725364,2658683.8120429,21.220482048205,0,0
44.21103812653,-8.942273528569,16.024912491249,2392805.1144756,196.26943725364,2658683.8120429,21.224912491249,0,0
44.211038379995,-8.9436540854211,16.029342934293,2392805.1144756,196.26943725364,2658683.8120429,21.229342934293,0,0
44.21103863346,-8.9450346422733,16.033773377338,2392805.1144756,196.26943725364,2658683.8120429,21.233773377338,0,0
44.211038886926,-8.9464151991254,16.038203820382,2392805.1144756,196.26943725364,2658683.8120429,21.238203820382,0,0
44.211039140391,-8.9477957559775,16.042634263426,2392805.1144756,196.26943725364,2658683.8120429,21.242634263426,0,0
44.211039393856,-8.9491763128297,16.047064706471,2392805.1144756,196.26943725364,2658683.8120429,21.247064706471,0,0
44.211039647321,-8.9505568696818,16.051495149515,2392805.1144756,196.26943725364,2658683.8120429,21.251495149515,0,0
44.211039900787,-8.951937426534,16.055925592559,2392805.1144756,196.26943725364,2658683.8120429,21.255925592559,0,0
44.211040154252,-8.9533179833861,16.060356035604,2392805.1144756,196.26943725364,2658683.8120429,21.260356035604,0,0
44.211040407717,-8.9546985402382,16.064786478648,2392805.1144756,196.26943725364,2658683.8120429,21.264786478648,0,0
44.211040661183,-8.9560790970904,16.069216921692,2392805.1144756,196.26943725364,2658683.8120429,21.269216921692,0,0
44.211040914648,-8.9574596539425,16.073647364736,2392805.1144756,196.26943725364,2658683.8120429,21.273647364736,0,0
44.211041168113,-8.9588402107946,16.078077807781,2392805.1144756,196.26943725364,2658683.8120429,21.278077807781,0,0
44.211041421579,-8.9602207676468,16.082508250825,2392805.1144756,196.26943725364,2658683.8120429,21.282508250825,0,0
44.211041675044,-8.9616013244989,16.086938693869,2392805.1144756,196.26943725364,2658683.8120429,21.286938693869,0,0
44.211041928509,-8.9629818813511,16.091369136914,2392805.1144756,196.26943725364,2658683.8120429,21.291369136914,0,0
44.211042181975,-8.9643624382032,16.095799579958,2392805.1144756,196.26943725364,2658683.8120429,21.295799579958,0,0
44.21104243544,-8.9657429950553,16.100230023002,2392805.1144756,196.26943725364,2658683.8120429,21.300230023002,0,0
44.211042688905,-8.9671235519075,16.104660466047,2392805.1144756,196.26943725364,2658683.8120429,21.304660466047,0,0
44.211042942371,-8.9685041087596,16.109090909091,2392805.1144756,196.26943725364,2658683.8120429,21.309090909091,0,0
44.211043195836,-8.9698846656118,16.113521352135,2392805.1144756,196.26943725364,2658683.8120429,21.313521352135,0,0
44.211043449301,-8.9712652224639,16.11795179518,2392805.1144756,196.26943725364,2658683.8120429,21.31795179518,0,0
44.211043702767,-8.972645779316,16.122382238224,2392805.1144756,196.26943725364,2658683.8120429,21.322382238224,0,0
44.211043956232,-8.9740263361682,16.126812681268,2392805.1144756,196.26943725364,2658683.8120429,21.326812681268,0,0
44.211044209697,-8.9754068930203,16.131243124312,2392805.1144756,196.26943725364,2658683.8120429,21.331243124312,0,0
44.211044463162,-8.9767874498725,16.135673567357,2392805.1144756,196.26943725364,2658683.8120429,21.335673567357,0,0
44.211044716628,-8.9781680067246,16.140104010401,2392805.1144756,196.26943725364,2658683.8120429,21.340104010401,0,0
44.211044970093,-8.9795485635767,16.144534453445,2392805.1144756,196.26943725364,2658683.8120429,21.344534453445,0,0
44.211045223558,-8.9809291204289,16.14896489649,2392805.1144756,196.26943725364,2658683.8120429,21.34896489649,0,0
44.211045477024,-8.982309677281,16.153395339534,2392805.1144756,196.26943725364,2658683.8120429,21.353395339534,0,0
44.211045730489,-8.9836902341332,16.157825782578,2392805.1144756,196.26943725364,2658683.8120429,21.357825782578,0,0
44.211045983954,-8.9850707909853,16.162256225623,2392805.1144756,196.26943725364,2658683.8120429,21.362256225623,0,0
44.21104623742,-8.9864513478374,16.166686668667,2392805.1144756,196.26943725364,2658683.8120429,21.366686668667,0,0
44.211046490885,-8.9878319046896,16.171117111711,2392805.1144756,196.26943725364,2658683.8120429,21.371117111711,0,0
44.21104674435,-8.9892124615417,16.175547554755,2392805.1144756,196.26943725364,2658683.8120429,21.375547554755,0,0
44.211046997816,-8.9905930183939,16.1799779978,2392805.1144756,196.26943725364,2658683.8120429,21.3799779978,0,0
44.211047251281,-8.991973575246,16.184408440844,2392805.1144756,196.26943725364,2658683.8120429,21.384408440844,0,0
44.211047504746,-8.9933541320981,16.188838883888,2392805.1144756,196.26943725364,2658683.8120429,21.388838883888,0,0
44.211047758212,-8.9947346889503,16.193269326933,2392805.1144756,196.26943725364,2658683.8120429,21.393269326933,0,0
44.211048011677,-8.9961152458024,16.197699769977,2392805.1144756,196.26943725364,2658683.8120429,21.397699769977,0,0
44.211048265142,-8.9974958026546,16.202130213021,2392805.1144756,196.26943725364,2658683.8120429,21.402130213021,0,0
44.211048518607,-8.9988763595067,16.206560656066,2392805.1144756,196.26943725364,2658683.8120429,21.406560656066,0,0
44.211048772073,-9.0002569163588,16.21099109911,2392805.1144756,196.26943725364,2658683.8120429,21.41099109911,0,0
44.211049025538,-9.001637473211,16.215421542154,2392805.1144756,196.26943725364,2658683.8120429,21.415421542154,0,0
44.211049279003,-9.0030180300631,16.219851985199,2392805.1144756,196.26943725364,2658683.8120429,21.419851985199,0,0
44.211049532469,-9.0043985869153,16.224282428243,2392805.1144756,196.26943725364,2658683.8120429,21.424282428243,0,0
44.211049785934,-9.0057791437674,16.228712871287,2392805.1144756,196.26943725364,2658683.8120429,21.428712871287,0,0
44.211050039399,-9.0071597006195,16.233143314331,2392805.1144756,196.26943725364,2658683.8120429,21.433143314331,0,0
44.211050292865,-9.0085402574717,16.237573757376,2392805.1144756,196.26943725364,2658683.8120429,21.437573757376,0,0
44.21105054633,-9.0099208143238,16.24200420042,2392805.1144756,196.26943725364,2658683.8120429,21.44200420042,0,0
44.211050799795,-9.0113013711759,16.246434643464,2392805.1144756,196.26943725364,2658683.8120429,21.446434643464,0,0
44.211051053261,-9.0126819280281,16.250865086509,2392805.1144756,196.26943725364,2658683.8120429,21.450865086509,0,0
44.211051306726,-9.0140624848802,16.255295529553,2392805.1144756,196.26943725364,2658683.8120429,21.455295529553,0,0
44.211051560191,-9.0154430417324,16.259725972597,2392805.1144756,196.26943725364,2658683.8120429,21.459725972597,0,0
44.211051813657,-9.0168235985845,16.264156415642,2392805.1144756,196.26943725364,2658683.8120429,21.464156415642,0,0
44.211052067122,-9.0182041554366,16.268586858686,2392805.1144756,196.26943725364,2658683.8120429,21.468586858686,0,0
44.211052320587,-9.0195847122888,16.27301730173,2392805.1144756,196.26943725364,2658683.8120429,21.47301730173,0,0
44.211052574053,-9.0209652691409,16.277447744774,2392805.1144756,196.26943725364,2658683.8120429,21.477447744774,0,0
44.211052827518,-9.0223458259931,16.281878187819,2392805.1144756,196.26943725364,2658683.8120429,21.481878187819,0,0
44.211053080983,-9.0237263828452,16.286308630863,2392805.1144756,196.26943725364,2658683.8120429,21.486308630863,0,0
44.211053334448,-9.0251069396973,16.290739073907,2392805.1144756,196.26943725364,2658683.8120429,21.490739073907,0,0
44.211053587914,-9.0264874965495,16.295169516952,2392805.1144756,196.26943725364,2658683.8120429,21.495169516952,0,0
44.211053841379,-9.0278680534016,16.299599959996,2392805.1144756,196.26943725364,2658683.8120429,21.499599959996,0,0
44.211054094844,-9.0292486102538,16.30403040304,2392805.1144756,196.26943725364,2658683.8120429,21.50403040304,0,0
44.21105434831,-9.0306291671059,16.308460846085,2392805.1144756,196.26943725364,2658683.8120429,21.508460846085,0,0
44.211054601775,-9.032009723958,16.312891289129,2392805.1144756,196.26943725364,2658683.8120429,21.512891289129,0,0
44.21105485524,-9.0333902808102,16.317321732173,2392805.1144756,196.26943725364,2658683.8120429,21.517321732173,0,0
44.211055108706,-9.0347708376623,16.321752175218,2392805.1144756,196.26943725364,2658683.8120429,21.521752175218,0,0
44.211055362171,-9.0361513945145,16.326182618262,2392805.1144756,196.26943725364,2658683.8120429,21.526182618262,0,0
44.211055615636,-9.0375319513666,16.330613061306,2392805.1144756,196.26943725364,2658683.8120429,21.530613061306,0,0
44.211055869102,-9.0389125082187,16.33504350435,2392805.1144756,196.26943725364,2658683.8120429,21.53504350435,0,0
44.211056122567,-9.0402930650709,16.339473947395,2392805.1144756,196.26943725364,2658683.8120429,21.539473947395,0,0
44.211056376032,-9.041673621923,16.343904390439,2392805.1144756,196.26943725364,2658683.8120429,21.543904390439,0,0
44.211056629498,-9.0430541787752,16.348334833483,2392805.1144756,196.26943725364,2658683.8120429,21.548334833483,0,0
44.211056882963,-9.0444347356273,16.352765276528,2392805.1144756,196.26943725364,2658683.8120429,21.552765276528,0,0
44.211057136428,-9.0458152924794,16.357195719572,2392805.1144756,196.26943725364,2658683.8120429,21.557195719572,0,0
44.211057389894,-9.0471958493316,16.361626162616,2392805.1144756,196.26943725364,2658683.8120429,21.561626162616,0,0
44.211057643359,-9.0485764061837,16.366056605661,2392805.1144756,196.26943725364,2658683.8120429,21.566056605661,0,0
44.211057896824,-9.0499569630359,16.370487048705,2392805.1144756,196.26943725364,2658683.8120429,21.570487048705,0,0
44.211058150289,-9.051337519888,16.374917491749,2392805.1144756,196.26943725364,2658683.8120429,21.574917491749,0,0
44.211058403755,-9.0527180767401,16.379347934793,2392805.1144756,196.26943725364,2658683.8120429,21.579347934793,0,0
44.21105865722,-9.0540986335923,16.383778377838,2392805.1144756,196.26943725364,2658683.8120429,21.583778377838,0,0
44.211058910685,-9.0554791904444,16.388208820882,2392805.1144756,196.26943725364,2658683.8120429,21.588208820882,0,0
44.211059164151,-9.0568597472966,16.392639263926,2392805.1144756,196.26943725364,2658683.8120429,21.592639263926,0,0
44.211059417616,-9.0582403041487,16.397069706971,2392805.1144756,196.26943725364,2658683.8120429,21.597069706971,0,0
44.211059671081,-9.0596208610008,16.401500150015,2392805.1144756,196.26943725364,2658683.8120429,21.601500150015,0,0
44.211059924547,-9.061001417853,16.405930593059,2392805.1144756,196.26943725364,2658683.8120429,21.605930593059,0,0
44.211060178012,-9.0623819747051,16.410361036104,2392805.1144756,196.26943725364,2658683.8120429,21.610361036104,0,0
44.211060431477,-9.0637625315573,16.414791479148,2392805.1144756,196.26943725364,2658683.8120429,21.614791479148,0,0
44.211060684943,-9.0651430884094,16.419221922192,2392805.1144756,196.26943725364,2658683.8120429,21.619221922192,0,0
44.211060938408,-9.0665236452615,16.423652365237,2392805.1144756,196.26943725364,2658683.8120429,21.623652365237,0,0
44.211061191873,-9.0679042021137,16.428082808281,2392805.1144756,196.26943725364,2658683.8120429,21.628082808281,0,0
44.211061445339,-9.0692847589658,16.432513251325,2392805.1144756,196.26943725364,2658683.8120429,21.632513251325,0,0
44.211061698804,-9.070665315818,16.436943694369,2392805.1144756,196.26943725364,2658683.8120429,21.636943694369,0,0
44.211061952269,-9.0720458726701,16.441374137414,2392805.1144756,196.26943725364,2658683.8120429,21.641374137414,0,0
44.211062205734,-9.0734264295222,16.445804580458,2392805.1144756,196.26943725364,2658683.8120429,21.645804580458,0,0
44.2110624592,-9.0748069863744,16.450235023502,2392805.1144756,196.26943725364,2658683.8120429,21.650235023502,0,0
44.211062712665,-9.0761875432265,16.454665466547,2392805.1144756,196.26943725364,2658683.8120429,21.654665466547,0,0
44.21106296613,-9.0775681000786,16.459095909591,2392805.1144756,196.26943725364,2658683.8120429,21.659095909591,0,0
44.211063219596,-9.0789486569308,16.463526352635,2392805.1144756,196.26943725364,2658683.8120429,21.663526352635,0,0
44.211063473061,-9.0803292137829,16.46795679568,2392805.1144756,196.26943725364,2658683.8120429,21.66795679568,0,0
44.211063726526,-9.0817097706351,16.472387238724,2392805.1144756,196.26943725364,2658683.8120429,21.672387238724,0,0
44.211063979992,-9.0830903274872,16.476817681768,2392805.1144756,196.26943725364,2658683.8120429,21.676817681768,0,0
44.211064233457,-9.0844708843393,16.481248124812,2392805.1144756,196.26943725364,2658683.8120429,21.681248124812,0,0
44.211064486922,-9.0858514411915,16.485678567857,2392805.1144756,196.26943725364,2658683.8120429,21.685678567857,0,0
44.211064740388,-9.0872319980436,16.490109010901,2392805.1144756,196.26943725364,2658683.8120429,21.690109010901,0,0
44.211064993853,-9.0886125548958,16.494539453945,2392805.1144756,196.26943725364,2658683.8120429,21.694539453945,0,0
44.211065247318,-9.0899931117479,16.49896989699,2392805.1144756,196.26943725364,2658683.8120429,21.69896989699,0,0
44.211065500784,-9.0913736686,16.503400340034,2392805.1144756,196.26943725364,2658683.8120429,21.703400340034,0,0
44.211065754249,-9.0927542254522,16.507830783078,2392805.1144756,196.26943725364,2658683.8120429,21.707830783078,0,0
44.211066007714,-9.0941347823043,16.512261226123,2392805.1144756,196.26943725364,2658683.8120429,21.712261226123,0,0
44.21106626118,-9.0955153391565,16.516691669167,2392805.1144756,196.26943725364,2658683.8120429,21.716691669167,0,0
44.211066514645,-9.0968958960086,16.521122112211,2392805.1144756,196.26943725364,2658683.8120429,21.721122112211,0,0
44.21106676811,-9.0982764528607,16.525552555256,2392805.1144756,196.26943725364,2658683.8120429,21.725552555256,0,0
44.211067021575,-9.0996570097129,16.5299829983,2392805.1144756,196.26943725364,2658683.8120429,21.7299829983,0,0
44.211067275041,-9.101037566565,16.534413441344,2392805.1144756,196.26943725364,2658683.8120429,21.734413441344,0,0
44.211067528506,-9.1024181234172,16.538843884388,2392805.1144756,196.26943725364,2658683.8120429,21.738843884388,0,0
44.211067781971,-9.1037986802693,16.543274327433,2392805.1144756,196.26943725364,2658683.8120429,21.743274327433,0,0
44.211068035437,-9.1051792371214,16.547704770477,2392805.1144756,196.26943725364,2658683.8120429,21.747704770477,0,0
44.211068288902,-9.1065597939736,16.552135213521,2392805.1144756,196.26943725364,2658683.8120429,21.752135213521,0,0
44.211068542367,-9.1079403508257,16.556565656566,2392805.1144756,196.26943725364,2658683.8120429,21.756565656566,0,0
44.211068795833,-9.1093209076779,16.56099609961,2392805.1144756,196.26943725364,2658683.8120429,21.76099609961,0,0
44.211069049298,-9.11070146453,16.565426542654,2392805.1144756,196.26943725364,2658683.8120429,21.765426542654,0,0
44.211069302763,-9.1120820213821,16.569856985699,2392805.1144756,196.26943725364,2658683.8120429,21.769856985699,0,0
44.211069556229,-9.1134625782343,16.574287428743,2392805.1144756,196.26943725364,2658683.8120429,21.774287428743,0,0
44.211069809694,-9.1148431350864,16.578717871787,2392805.1144756,196.26943725364,2658683.8120429,21.778717871787,0,0
44.211070063159,-9.1162236919386,16.583148314831,2392805.1144756,196.26943725364,2658683.8120429,21.783148314831,0,0
44.211070316625,-9.1176042487907,16.587578757876,2392805.1144756,196.26943725364,2658683.8120429,21.787578757876,0,0
44.21107057009,-9.1189848056428,16.59200920092,2392805.1144756,196.26943725364,2658683.8120429,21.79200920092,0,0
44.211070823555,-9.120365362495,16.596439643964,2392805.1144756,196.26943725364,2658683.8120429,21.796439643964,0,0
44.21107107702,-9.1217459193471,16.600870087009,2392805.1144756,196.26943725364,2658683.8120429,21.800870087009,0,0
44.211071330486,-9.1231264761993,16.605300530053,2392805.1144756,196.26943725364,2658683.8120429,21.805300530053,0,0
44.211071583951,-9.1245070330514,16.609730973097,2392805.1144756,196.26943725364,2658683.8120429,21.809730973097,0,0
44.211071837416,-9.1258875899035,16.614161416142,2392805.1144756,196.26943725364,2658683.8120429,21.814161416142,0,0
44.211072090882,-9.1272681467557,16.618591859186,2392805.1144756,196.26943725364,2658683.8120429,21.818591859186,0,0
44.211072344347,-9.1286487036078,16.62302230223,2392805.1144756,196.26943725364,2658683.8120429,21.82302230223,0,0
44.211072597812,-9.13002926046,16.627452745275,2392805.1144756,196.26943725364,2658683.8120429,21.827452745275,0,0
44.211072851278,-9.1314098173121,16.631883188319,2392805.1144756,196.26943725364,2658683.8120429,21.831883188319,0,0
44.211073104743,-9.1327903741642,16.636313631363,2392805.1144756,196.26943725364,2658683.8120429,21.836313631363,0,0
44.211073358208,-9.1341709310164,16.640744074407,2392805.1144756,196.26943725364,2658683.8120429,21.840744074407,0,0
44.211073611674,-9.1355514878685,16.645174517452,2392805.1144756,196.26943725364,2658683.8120429,21.845174517452,0,0
44.211073865139,-9.1369320447207,16.649604960496,2392805.1144756,196.26943725364,2658683.8120429,21.849604960496,0,0
44.211074118604,-9.1383126015728,16.65403540354,2392805.1144756,196.26943725364,2658683.8120429,21.85403540354,0,0
44.21107437207,-9.1396931584249,16.658465846585,2392805.1144756,196.26943725364,2658683.8120429,21.858465846585,0,0
44.211074625535,-9.1410737152771,16.662896289629,2392805.1144756,196.26943725364,2658683.8120429,21.862896289629,0,0
44.211074879,-9.1424542721292,16.667326732673,2392805.1144756,196.26943725364,2658683.8120429,21.867326732673,0,0
44.211075132466,-9.1438348289813,16.671757175718,2392805.1144756,196.26943725364,2658683.8120429,21.871757175718,0,0
44.211075385931,-9.1452153858335,16.676187618762,2392805.1144756,196.26943725364,2658683.8120429,21.876187618762,0,0
44.211075639396,-9.1465959426856,16.680618061806,2392805.1144756,196.26943725364,2658683.8120429,21.880618061806,0,0
44.211075892861,-9.1479764995378,16.68504850485,2392805.1144756,196.26943725364,2658683.8120429,21.88504850485,0,0
44.211076146327,-9.1493570563899,16.689478947895,2392805.1144756,196.26943725364,2658683.8120429,21.889478947895,0,0
44.211076399792,-9.150737613242,16.693909390939,2392805.1144756,196.26943725364,2658683.8120429,21.893909390939,0,0
44.211076653257,-9.1521181700942,16.698339833983,2392805.1144756,196.26943725364,2658683.8120429,21.898339833983,0,0
44.211076906723,-9.1534987269463,16.702770277028,2392805.1144756,196.26943725364,2658683.8120429,21.902770277028,0,0
44.211077160188,-9.1548792837985,16.707200720072,2392805.1144756,196.26943725364,2658683.8120429,21.907200720072,0,0
44.211077413653,-9.1562598406506,16.711631163116,2392805.1144756,196.26943725364,2658683.8120429,21.911631163116,0,0
44.211077667119,-9.1576403975027,16.716061606161,2392805.1144756,196.26943725364,2658683.8120429,21.916061606161,0,0
44.211077920584,-9.1590209543549,16.720492049205,2392805.1144756,196.26943725364,2658683.8120429,21.920492049205,0,0
44.211078174049,-9.160401511207,16.724922492249,2392805.1144756,196.26943725364,2658683.8120429,21.924922492249,0,0
44.211078427515,-9.1617820680592,16.729352935294,2392805.1144756,196.26943725364,2658683.8120429,21.929352935294,0,0
44.21107868098,-9.1631626249113,16.733783378338,2392805.1144756,196.26943725364,2658683.8120429,21.933783378338,0,0
44.211078934445,-9.1645431817634,16.738213821382,2392805.1144756,196.26943725364,2658683.8120429,21.938213821382,0,0
44.211079187911,-9.1659237386156,16.742644264426,2392805.1144756,196.26943725364,2658683.8120429,21.942644264426,0,0
44.211079441376,-9.1673042954677,16.747074707471,2392805.1144756,196.26943725364,2658683.8120429,21.947074707471,0,0
44.211079694841,-9.1686848523199,16.751505150515,2392805.1144756,196.26943725364,2658683.8120429,21.951505150515,0,0
44.211079948307,-9.170065409172,16.755935593559,2392805.1144756,196.26943725364,2658683.8120429,21.955935593559,0,0
44.211080201772,-9.1714459660241,16.760366036604,2392805.1144756,196.26943725364,2658683.8120429,21.960366036604,0,0
44.211080455237,-9.1728265228763,16.764796479648,2392805.1144756,196.26943725364,2658683.8120429,21.964796479648,0,0
44.211080708702,-9.1742070797284,16.769226922692,2392805.1144756,196.26943725364,2658683.8120429,21.969226922692,0,0
44.211080962168,-9.1755876365806,16.773657365737,2392805.1144756,196.26943725364,2658683.8120429,21.973657365737,0,0
44.211081215633,-9.1769681934327,16.778087808781,2392805.1144756,196.26943725364,2658683.8120429,21.978087808781,0,0
44.211081469098,-9.1783487502848,16.782518251825,2392805.1144756,196.26943725364,2658683.8120429,21.982518251825,0,0
44.211081722807,-9.1797293076675,16.786948694869,2396217.105339,-3583.332091921,2646991.3979489,21.986948694869,0,0
44.211081976856,-9.1811098657942,16.791379137914,2396217.105339,-3583.332091921,2646991.3979489,21.991379137914,0,0
44.211082230905,-9.1824904239208,16.795809580958,2396217.105339,-3583.332091921,2646991.3979489,21.995809580958,0,0
44.211082484954,-9.1838709820475,16.800240024002,2396217.105339,-3583.332091921,2646991.3979489,22.000240024002,0,0
44.211082739003,-9.1852515401741,16.804670467047,2396217.105339,-3583.332091921,2646991.3979489,22.004670467047,0,0
44.211082993053,-9.1866320983008,16.809100910091,2396217.105339,-3583.332091921,2646991.3979489,22.009100910091,0,0
44.211083247102,-9.1880126564274,16.813531353135,2396217.105339,-3583.332091921,2646991.3979489,22.013531353135,0,0
44.211083501151,-9.1893932145541,16.81796179618,2396217.105339,-3583.332091921,2646991.3979489,22.01796179618,0,0
44.2110837552,-9.1907737726807,16.822392239224,2396217.105339,-3583.332091921,2646991.3979489,22.022392239224,0,0
44.211084009249,-9.1921543308074,16.826822682268,2396217.105339,-3583.332091921,2646991.3979489,22.026822682268,0,0
44.211084263298,-9.193534888934,16.831253125313,2396217.105339,-3583.332091921,2646991.3979489,22.031253125313,0,0
44.211084517348,-9.1949154470607,16.835683568357,2396217.105339,-3583.332091921,2646991.3979489,22.035683568357,0,0
44.211084771397,-9.1962960051873,16.840114011401,2396217.105339,-3583.332091921,2646991.3979489,22.040114011401,0,0
44.211085025446,-9.197676563314,16.844544454445,2396217.105339,-3583.332091921,2646991.3979489,22.044544454445,0,0
44.211085279495,-9.1990571214407,16.84897489749,2396217.105339,-3583.332091921,2646991.3979489,22.04897489749,0,0
44.211085533544,-9.2004376795673,16.853405340534,2396217.105339,-3583.332091921,2646991.3979489,22.053405340534,0,0
44.211085787593,-9.201818237694,16.857835783578,2396217.105339,-3583.332091921,2646991.3979489,22.057835783578,0,0
44.211086041643,-9.2031987958206,16.862266226623,2396217.105339,-3583.332091921,2646991.3979489,22.062266226623,0,0
44.211086295692,-9.2045793539473,16.866696669667,2396217.105339,-3583.332091921,2646991.3979489,22.066696669667,0,0
44.211086549741,-9.2059599120739,16.871127112711,2396217.105339,-3583.332091921,2646991.3979489,22.071127112711,0,0
44.21108680379,-9.2073404702006,16.875557555756,2396217.105339,-3583.332091921,2646991.3979489,22.075557555756,0,0
44.211087057839,-9.2087210283272,16.8799879988,2396217.105339,-3583.332091921,2646991.3979489,22.0799879988,0,0
44.211087311888,-9.2101015864539,16.884418441844,2396217.105339,-3583.332091921,2646991.3979489,22.084418441844,0,0
44.211087565938,-9.2114821445805,16.888848884888,2396217.105339,-3583.332091921,2646991.3979489,22.088848884888,0,0
44.211087819987,-9.2128627027072,16.893279327933,2396217.105339,-3583.332091921,2646991.3979489,22.093279327933,0,0
44.211088074036,-9.2142432608338,16.897709770977,2396217.105339,-3583.332091921,2646991.3979489,22.097709770977,0,0
44.211088328085,-9.2156238189605,16.902140214021,2396217.105339,-3583.332091921,2646991.3979489,22.102140214021,0,0
44.211088582134,-9.2170043770871,16.906570657066,2396217.105339,-3583.332091921,2646991.3979489,22.106570657066,0,0
44.211088836183,-9.2183849352138,16.91100110011,2396217.105339,-3583.332091921,2646991.3979489,22.11100110011,0,0
44.211089090232,-9.2197654933404,16.915431543154,2396217.105339,-3583.332091921,2646991.3979489,22.115431543154,0,0
44.211089344282,-9.2211460514671,16.919861986199,2396217.105339,-3583.332091921,2646991.3979489,22.119861986199,0,0
44.211089598331,-9.2225266095937,16.924292429243,2396217.105339,-3583.332091921,2646991.3979489,22.124292429243,0,0
44.21108985238,-9.2239071677204,16.928722872287,2396217.105339,-3583.332091921,2646991.3979489,22.128722872287,0,0
44.211090106429,-9.225287725847,16.933153315332,2396217.105339,-3583.332091921,2646991.3979489,22.133153315332,0,0
44.211090360478,-9.2266682839737,16.937583758376,2396217.105339,-3583.332091921,2646991.3979489,22.137583758376,0,0
44.211090614527,-9.2280488421004,16.94201420142,2396217.105339,-3583.332091921,2646991.3979489,22.14201420142,0,0
44.211090868577,-9.229429400227,16.946444644464,2396217.105339,-3583.332091921,2646991.3979489,22.146444644464,0,0
44.211091122626,-9.2308099583537,16.950875087509,2396217.105339,-3583.332091921,2646991.3979489,22.150875087509,0,0
44.211091376675,-9.2321905164803,16.955305530553,2396217.105339,-3583.332091921,2646991.3979489,22.155305530553,0,0
44.211091630724,-9.233571074607,16.959735973597,2396217.105339,-3583.332091921,2646991.3979489,22.159735973597,0,0
44.211091884773,-9.2349516327336,16.964166416642,2396217.105339,-3583.332091921,2646991.3979489,22.164166416642,0,0
44.211092138822,-9.2363321908603,16.968596859686,2396217.105339,-3583.332091921,2646991.3979489,22.168596859686,0,0
44.211092392872,-9.2377127489869,16.97302730273,2396217.105339,-3583.332091921,2646991.3979489,22.17302730273,0,0
44.211092646921,-9.2390933071136,16.977457745775,2396217.105339,-3583.332091921,2646991.3979489,22.177457745775,0,0
44.21109290097,-9.2404738652402,16.981888188819,2396217.105339,-3583.332091921,2646991.3979489,22.181888188819,0,0
44.211093155019,-9.2418544233669,16.986318631863,2396217.105339,-3583.332091921,2646991.3979489,22.186318631863,0,0
44.211093409068,-9.2432349814935,16.990749074907,2396217.105339,-3583.332091921,2646991.3979489,22.190749074907,0,0
44.211093663117,-9.2446155396202,16.995179517952,2396217.105339,-3583.332091921,2646991.3979489,22.195179517952,0,0
44.211093917167,-9.2459960977468,16.999609960996,2396217.105339,-3583.332091921,2646991.3979489,22.199609960996,0,0
44.211094171216,-9.2473766558735,17.00404040404,2396217.105339,-3583.332091921,2646991.3979489,22.20404040404,0,0
44.211094425265,-9.2487572140001,17.008470847085,2396217.105339,-3583.332091921,2646991.3979489,22.208470847085,0,0
44.211094679314,-9.2501377721268,17.012901290129,2396217.105339,-3583.332091921,2646991.3979489,22.212901290129,0,0
44.211094933363,-9.2515183302534,17.017331733173,2396217.105339,-3583.332091921,2646991.3979489,22.217331733173,0,0
44.211095187412,-9.2528988883801,17.021762176218,2396217.105339,-3583.332091921,2646991.3979489,22.221762176218,0,0
44.211095441462,-9.2542794465068,17.026192619262,2396217.105339,-3583.332091921,2646991.3979489,22.226192619262,0,0
44.211095695511,-9.2556600046334,17.030623062306,2396217.105339,-3583.332091921,2646991.3979489,22.230623062306,0,0
44.21109594956,-9.2570405627601,17.035053505351,2396217.105339,-3583.332091921,2646991.3979489,22.235053505351,0,0
44.211096203609,-9.2584211208867,17.039483948395,2396217.105339,-3583.332091921,2646991.3979489,22.239483948395,0,0
44.211096457658,-9.2598016790134,17.043914391439,2396217.105339,-3583.332091921,2646991.3979489,22.243914391439,0,0
44.211096711707,-9.26118223714,17.048344834483,2396217.105339,-3583.332091921,2646991.3979489,22.248344834483,0,0
44.211096965757,-9.2625627952667,17.052775277528,2396217.105339,-3583.332091921,2646991.3979489,22.252775277528,0,0
44.211097219806,-9.2639433533933,17.057205720572,2396217.105339,-3583.332091921,2646991.3979489,22.257205720572,0,0
44.211097473855,-9.26532391152,17.061636163616,2396217.105339,-3583.332091921,2646991.3979489,22.261636163616,0,0
44.211097727904,-9.2667044696466,17.066066606661,2396217.105339,-3583.332091921,2646991.3979489,22.266066606661,0,0
44.211097981953,-9.2680850277733,17.070497049705,2396217.105339,-3583.332091921,2646991.3979489,22.270497049705,0,0
44.211098236002,-9.2694655858999,17.074927492749,2396217.105339,-3583.332091921,2646991.3979489,22.274927492749,0,0
44.211098490052,-9.2708461440266,17.079357935794,2396217.105339,-3583.332091921,2646991.3979489,22.279357935794,0,0
44.211098744101,-9.2722267021532,17.083788378838,2396217.105339,-3583.332091921,2646991.3979489,22.283788378838,0,0
44.21109899815,-9.2736072602799,17.088218821882,2396217.105339,-3583.332091921,2646991.3979489,22.288218821882,0,0
44.211099252199,-9.2749878184065,17.092649264926,2396217.105339,-3583.332091921,2646991.3979489,22.292649264926,0,0
44.211099506248,-9.2763683765332,17.097079707971,2396217.105339,-3583.332091921,2646991.3979489,22.297079707971,0,0
44.211099760297,-9.2777489346598,17.101510151015,2396217.105339,-3583.332091921,2646991.3979489,22.301510151015,0,0
44.211100014347,-9.2791294927865,17.105940594059,2396217.105339,-3583.332091921,2646991.3979489,22.305940594059,0,0
44.211100268396,-9.2805100509132,17.110371037104,2396217.105339,-3583.332091921,2646991.3979489,22.310371037104,0,0
44.211100522445,-9.2818906090398,17.114801480148,2396217.105339,-3583.332091921,2646991.3979489,22.314801480148,0,0
44.211100776494,-9.2832711671665,17.119231923192,2396217.105339,-3583.332091921,2646991.3979489,22.319231923192,0,0
44.211101030543,-9.2846517252931,17.123662366237,2396217.105339,-3583.332091921,2646991.3979489,22.323662366237,0,0
44.211101284592,-9.2860322834198,17.128092809281,2396217.105339,-3583.332091921,2646991.3979489,22.328092809281,0,0
44.211101538642,-9.2874128415464,17.132523252325,2396217.105339,-3583.332091921,2646991.3979489,22.332523252325,0,0
44.211101792691,-9.2887933996731,17.13695369537,2396217.105339,-3583.332091921,2646991.3979489,22.33695369537,0,0
44.21110204674,-9.2901739577997,17.141384138414,2396217.105339,-3583.332091921,2646991.3979489,22.341384138414,0,0
44.211102300789,-9.2915545159264,17.145814581458,2396217.105339,-3583.332091921,2646991.3979489,22.345814581458,0,0
44.211102554838,-9.292935074053,17.150245024502,2396217.105339,-3583.332091921,2646991.3979489,22.350245024502,0,0
44.211102808887,-9.2943156321797,17.154675467547,2396217.105339,-3583.332091921,2646991.3979489,22.354675467547,0,0
44.211103062936,-9.2956961903063,17.159105910591,2396217.105339,-3583.332091921,2646991.3979489,22.359105910591,0,0
44.211103316986,-9.297076748433,17.163536353635,2396217.105339,-3583.332091921,2646991.3979489,22.363536353635,0,0
44.211103571035,-9.2984573065596,17.16796679668,2396217.105339,-3583.332091921,2646991.3979489,22.36796679668,0,0
44.211103825084,-9.2998378646863,17.172397239724,2396217.105339,-3583.332091921,2646991.3979489,22.372397239724,0,0
44.211104079133,-9.3012184228129,17.176827682768,2396217.105339,-3583.332091921,2646991.3979489,22.376827682768,0,0
44.211104333182,-9.3025989809396,17.181258125813,2396217.105339,-3583.332091921,2646991.3979489,22.381258125813,0,0
44.211104587231,-9.3039795390662,17.185688568857,2396217.105339,-3583.332091921,2646991.3979489,22.385688568857,0,0
44.211104842302,-9.3053600963618,17.190119011901,2409846.3072056,-2453.8298746535,2644385.9697628,22.390119011901,0,0
44.211105097509,-9.3067406535462,17.194549454945,2409846.3072056,-2453.8298746535,2644385.9697628,22.394549454945,0,0
44.211105352716,-9.3081212107305,17.19897989799,2409846.3072056,-2453.8298746535,2644385.9697628,22.39897989799,0,0
44.211105607924,-9.3095017679149,17.203410341034,2409846.3072056,-2453.8298746535,2644385.9697628,22.403410341034,0,0
44.211105863131,-9.3108823250992,17.207840784078,2409846.3072056,-2453.8298746535,2644385.9697628,22.407840784078,0,0
44.211106118338,-9.3122628822836,17.212271227123,2409846.3072056,-2453.8298746535,2644385.9697628,22.412271227123,0,0
44.211106373545,-9.3136434394679,17.216701670167,2409846.3072056,-2453.8298746535,2644385.9697628,22.416701670167,0,0
44.211106628752,-9.3150239966523,17.221132113211,2409846.3072056,-2453.8298746535,2644385.9697628,22.421132113211,0,0
44.211106883959,-9.3164045538367,17.225562556256,2409846.3072056,-2453.8298746535,2644385.9697628,22.425562556256,0,0
44.211107139167,-9.317785111021,17.2299929993,2409846.3072056,-2453.8298746535,2644385.9697628,22.4299929993,0,0
44.211107394374,-9.3191656682054,17.234423442344,2409846.3072056,-2453.8298746535,2644385.9697628,22.434423442344,0,0
44.211107649581,-9.3205462253897,17.238853885389,2409846.3072056,-2453.8298746535,2644385.9697628,22.438853885389,0,0
44.211107904788,-9.3219267825741,17.243284328433,2409846.3072056,-2453.8298746535,2644385.9697628,22.443284328433,0,0
44.211108159995,-9.3233073397585,17.247714771477,2409846.3072056,-2453.8298746535,2644385.9697628,22.447714771477,0,0
44.211108415202,-9.3246878969428,17.252145214521,2409846.3072056,-2453.8298746535,2644385.9697628,22.452145214521,0,0
44.21110867041,-9.3260684541272,17.256575657566,2409846.3072056,-2453.8298746535,2644385.9697628,22.456575657566,0,0
44.211108925617,-9.3274490113115,17.26100610061,2409846.3072056,-2453.8298746535,2644385.9697628,22.46100610061,0,0
44.211109180824,-9.3288295684959,17.265436543654,2409846.3072056,-2453.8298746535,2644385.9697628,22.465436543654,0,0
44.211109436031,-9.3302101256802,17.269866986699,2409846.3072056,-2453.8298746535,2644385.9697628,22.469866986699,0,0
44.211109691238,-9.3315906828646,17.274297429743,2409846.3072056,-2453.8298746535,2644385.9697628,22.474297429743,0,0
44.211109946446,-9.332971240049,17.278727872787,2409846.3072056,-2453.8298746535,2644385.9697628,22.478727872787,0,0
44.211110201653,-9.3343517972333,17.283158315832,2409846.3072056,-2453.8298746535,2644385.9697628,22.483158315832,0,0
44.21111045686,-9.3357323544177,17.287588758876,2409846.3072056,-2453.8298746535,2644385.9697628,22.487588758876,0,0
44.211110712067,-9.337112911602,17.29201920192,2409846.3072056,-2453.8298746535,2644385.9697628,22.49201920192,0,0
44.211110967274,-9.3384934687864,17.296449644964,2409846.3072056,-2453.8298746535,2644385.9697628,22.496449644964,0,0
44.211111222481,-9.3398740259707,17.300880088009,2409846.3072056,-2453.8298746535,2644385.9697628,22.500880088009,0,0
44.211111477689,-9.3412545831551,17.305310531053,2409846.3072056,-2453.8298746535,2644385.9697628,22.505310531053,0,0
44.211111732896,-9.3426351403395,17.309740974097,2409846.3072056,-2453.8298746535,2644385.9697628,22.509740974097,0,0
44.211111988103,-9.3440156975238,17.314171417142,2409846.3072056,-2453.8298746535,2644385.9697628,22.514171417142,0,0
44.21111224331,-9.3453962547082,17.318601860186,2409846.3072056,-2453.8298746535,2644385.9697628,22.518601860186,0,0
44.211112498517,-9.3467768118925,17.32303230323,2409846.3072056,-2453.8298746535,2644385.9697628,22.52303230323,0,0
44.211112753724,-9.3481573690769,17.327462746275,2409846.3072056,-2453.8298746535,2644385.9697628,22.527462746275,0,0
44.211113008932,-9.3495379262613,17.331893189319,2409846.3072056,-2453.8298746535,2644385.9697628,22.531893189319,0,0
44.211113264139,-9.3509184834456,17.336323632363,2409846.3072056,-2453.8298746535,2644385.9697628,22.536323632363,0,0
44.211113519346,-9.35229904063,17.340754075408,2409846.3072056,-2453.8298746535,2644385.9697628,22.540754075408,0,0
44.211113774553,-9.3536795978143,17.345184518452,2409846.3072056,-2453.8298746535,2644385.9697628,22.545184518452,0,0
44.21111402976,-9.3550601549987,17.349614961496,2409846.3072056,-2453.8298746535,2644385.9697628,22.549614961496,0,0
44.211114284968,-9.356440712183,17.35404540454,2409846.3072056,-2453.8298746535,2644385.9697628,22.55404540454,0,0
44.211114540175,-9.3578212693674,17.358475847585,2409846.3072056,-2453.8298746535,2644385.9697628,22.558475847585,0,0
44.211114795382,-9.3592018265518,17.362906290629,2409846.3072056,-2453.8298746535,2644385.9697628,22.562906290629,0,0
44.211115050589,-9.3605823837361,17.367336733673,2409846.3072056,-2453.8298746535,2644385.9697628,22.567336733673,0,0
44.211115305796,-9.3619629409205,17.371767176718,2409846.3072056,-2453.8298746535,2644385.9697628,22.571767176718,0,0
44.211115561003,-9.3633434981048,17.376197619762,2409846.3072056,-2453.8298746535,2644385.9697628,22.576197619762,0,0
44.211115816211,-9.3647240552892,17.380628062806,2409846.3072056,-2453.8298746535,2644385.9697628,22.580628062806,0,0
44.211116071418,-9.3661046124735,17.385058505851,2409846.3072056,-2453.8298746535,2644385.9697628,22.585058505851,0,0
44.211116326625,-9.3674851696579,17.389488948895,2409846.3072056,-2453.8298746535,2644385.9697628,22.589488948895,0,0
44.211116581832,-9.3688657268423,17.393919391939,2409846.3072056,-2453.8298746535,2644385.9697628,22.593919391939,0,0
44.211116837039,-9.3702462840266,17.398349834983,2409846.3072056,-2453.8298746535,2644385.9697628,22.598349834983,0,0
44.211117092246,-9.371626841211,17.402780278028,2409846.3072056,-2453.8298746535,2644385.9697628,22.602780278028,0,0
44.211117347454,-9.3730073983953,17.407210721072,2409846.3072056,-2453.8298746535,2644385.9697628,22.607210721072,0,0
44.211117602661,-9.3743879555797,17.411641164116,2409846.3072056,-2453.8298746535,2644385.9697628,22.611641164116,0,0
44.211117857868,-9.3757685127641,17.416071607161,2409846.3072056,-2453.8298746535,2644385.9697628,22.616071607161,0,0
44.211118113075,-9.3771490699484,17.420502050205,2409846.3072056,-2453.8298746535,2644385.9697628,22.620502050205,0,0
44.211118368282,-9.3785296271328,17.424932493249,2409846.3072056,-2453.8298746535,2644385.9697628,22.624932493249,0,0
44.21111862349,-9.3799101843171,17.429362936294,2409846.3072056,-2453.8298746535,2644385.9697628,22.629362936294,0,0
44.211118878697,-9.3812907415015,17.433793379338,2409846.3072056,-2453.8298746535,2644385.9697628,22.633793379338,0,0
44.211119133904,-9.3826712986858,17.438223822382,2409846.3072056,-2453.8298746535,2644385.9697628,22.638223822382,0,0
44.211119389111,-9.3840518558702,17.442654265427,2409846.3072056,-2453.8298746535,2644385.9697628,22.642654265427,0,0
44.211119644318,-9.3854324130546,17.447084708471,2409846.3072056,-2453.8298746535,2644385.9697628,22.647084708471,0,0
44.211119899525,-9.3868129702389,17.451515151515,2409846.3072056,-2453.8298746535,2644385.9697628,22.651515151515,0,0
44.211120154733,-9.3881935274233,17.455945594559,2409846.3072056,-2453.8298746535,2644385.9697628,22.655945594559,0,0
44.21112040994,-9.3895740846076,17.460376037604,2409846.3072056,-2453.8298746535,2644385.9697628,22.660376037604,0,0
44.211120665147,-9.390954641792,17.464806480648,2409846.3072056,-2453.8298746535,2644385.9697628,22.664806480648,0,0
44.211120920354,-9.3923351989763,17.469236923692,2409846.3072056,-2453.8298746535,2644385.9697628,22.669236923692,0,0
44.211121175561,-9.3937157561607,17.473667366737,2409846.3072056,-2453.8298746535,2644385.9697628,22.673667366737,0,0
44.211121430768,-9.3950963133451,17.478097809781,2409846.3072056,-2453.8298746535,2644385.9697628,22.678097809781,0,0
44.211121685976,-9.3964768705294,17.482528252825,2409846.3072056,-2453.8298746535,2644385.9697628,22.682528252825,0,0
44.211121941183,-9.3978574277138,17.48695869587,2409846.3072056,-2453.8298746535,2644385.9697628,22.68695869587,0,0
44.21112219639,-9.3992379848981,17.491389138914,2409846.3072056,-2453.8298746535,2644385.9697628,22.691389138914,0,0
44.211122451597,-9.4006185420825,17.495819581958,2409846.3072056,-2453.8298746535,2644385.9697628,22.695819581958,0,0
44.211122706804,-9.4019990992669,17.500250025002,2409846.3072056,-2453.8298746535,2644385.9697628,22.700250025002,0,0
44.211122962012,-9.4033796564512,17.504680468047,2409846.3072056,-2453.8298746535,2644385.9697628,22.704680468047,0,0
44.211123217219,-9.4047602136356,17.509110911091,2409846.3072056,-2453.8298746535,2644385.9697628,22.709110911091,0,0
44.211123472426,-9.4061407708199,17.513541354135,2409846.3072056,-2453.8298746535,2644385.9697628,22.713541354135,0,0
44.211123727633,-9.4075213280043,17.51797179718,2409846.3072056,-2453.8298746535,2644385.9697628,22.71797179718,0,0
44.21112398284,-9.4089018851886,17.522402240224,2409846.3072056,-2453.8298746535,2644385.9697628,22.722402240224,0,0
44.211124238047,-9.410282442373,17.526832683268,2409846.3072056,-2453.8298746535,2644385.9697628,22.726832683268,0,0
44.211124493255,-9.4116629995574,17.531263126313,2409846.3072056,-2453.8298746535,2644385.9697628,22.731263126313,0,0
44.211124748462,-9.4130435567417,17.535693569357,2409846.3072056,-2453.8298746535,2644385.9697628,22.735693569357,0,0
44.211125003669,-9.4144241139261,17.540124012401,2409846.3072056,-2453.8298746535,2644385.9697628,22.740124012401,0,0
44.211125258876,-9.4158046711104,17.544554455446,2409846.3072056,-2453.8298746535,2644385.9697628,22.744554455446,0,0
44.211125514083,-9.4171852282948,17.54898489849,2409846.3072056,-2453.8298746535,2644385.9697628,22.74898489849,0,0
44.21112576929,-9.4185657854791,17.553415341534,2409846.3072056,-2453.8298746535,2644385.9697628,22.753415341534,0,0
44.211126024498,-9.4199463426635,17.557845784578,2409846.3072056,-2453.8298746535,2644385.9697628,22.757845784578,0,0
44.211126279705,-9.4213268998479,17.562276227623,2409846.3072056,-2453.8298746535,2644385.9697628,22.762276227623,0,0
44.211126534912,-9.4227074570322,17.566706670667,2409846.3072056,-2453.8298746535,2644385.9697628,22.766706670667,0,0
44.211126790119,-9.4240880142166,17.571137113711,2409846.3072056,-2453.8298746535,2644385.9697628,22.771137113711,0,0
44.211127045326,-9.4254685714009,17.575567556756,2409846.3072056,-2453.8298746535,2644385.9697628,22.775567556756,0,0
44.211127300534,-9.4268491285853,17.5799979998,2409846.3072056,-2453.8298746535,2644385.9697628,22.7799979998,0,0
44.211127555741,-9.4282296857697,17.584428442844,2409846.3072056,-2453.8298746535,2644385.9697628,22.784428442844,0,0
44.211127810948,-9.429610242954,17.588858885889,2409846.3072056,-2453.8298746535,2644385.9697628,22.788858885889,0,0
44.211128066155,-9.4309908001384,17.593289328933,2409846.3072056,-2453.8298746535,2644385.9697628,22.793289328933,0,0
44.211128321362,-9.4323713573227,17.597719771977,2409846.3072056,-2453.8298746535,2644385.9697628,22.797719771977,0,0
44.211128576569,-9.4337519145071,17.602150215021,2409846.3072056,-2453.8298746535,2644385.9697628,22.802150215021,0,0
44.211128831777,-9.4351324716914,17.606580658066,2409846.3072056,-2453.8298746535,2644385.9697628,22.806580658066,0,0
44.211129086984,-9.4365130288758,17.61101110111,2409846.3072056,-2453.8298746535,2644385.9697628,22.81101110111,0,0
44.211129342191,-9.4378935860602,17.615441544154,2409846.3072056,-2453.8298746535,2644385.9697628,22.815441544154,0,0
44.211129597398,-9.4392741432445,17.619871987199,2409846.3072056,-2453.8298746535,2644385.9697628,22.819871987199,0,0
44.211129852605,-9.4406547004289,17.624302430243,2409846.3072056,-2453.8298746535,2644385.9697628,22.824302430243,0,0
44.211130107812,-9.4420352576132,17.628732873287,2409846.3072056,-2453.8298746535,2644385.9697628,22.828732873287,0,0
44.21113036302,-9.4434158147976,17.633163316332,2409846.3072056,-2453.8298746535,2644385.9697628,22.833163316332,0,0
44.211130618227,-9.4447963719819,17.637593759376,2409846.3072056,-2453.8298746535,2644385.9697628,22.837593759376,0,0
44.211130873434,-9.4461769291663,17.64202420242,2409846.3072056,-2453.8298746535,2644385.9697628,22.84202420242,0,0
44.211131128641,-9.4475574863507,17.646454645465,2409846.3072056,-2453.8298746535,2644385.9697628,22.846454645465,0,0
44.211131383848,-9.448938043535,17.650885088509,2409846.3072056,-2453.8298746535,2644385.9697628,22.850885088509,0,0
44.211131639056,-9.4503186007194,17.655315531553,2409846.3072056,-2453.8298746535,2644385.9697628,22.855315531553,0,0
44.211131894263,-9.4516991579037,17.659745974597,2409846.3072056,-2453.8298746535,2644385.9697628,22.859745974597,0,0
44.21113214947,-9.4530797150881,17.664176417642,2409846.3072056,-2453.8298746535,2644385.9697628,22.864176417642,0,0
44.211132404677,-9.4544602722725,17.668606860686,2409846.3072056,-2453.8298746535,2644385.9697628,22.868606860686,0,0
44.211132659884,-9.4558408294568,17.67303730373,2409846.3072056,-2453.8298746535,2644385.9697628,22.87303730373,0,0
44.211132915091,-9.4572213866412,17.677467746775,2409846.3072056,-2453.8298746535,2644385.9697628,22.877467746775,0,0
44.211133170299,-9.4586019438255,17.681898189819,2409846.3072056,-2453.8298746535,2644385.9697628,22.881898189819,0,0
44.211133425506,-9.4599825010099,17.686328632863,2409846.3072056,-2453.8298746535,2644385.9697628,22.886328632863,0,0
44.211133680713,-9.4613630581942,17.690759075908,2409846.3072056,-2453.8298746535,2644385.9697628,22.890759075908,0,0
44.21113393592,-9.4627436153786,17.695189518952,2409846.3072056,-2453.8298746535,2644385.9697628,22.895189518952,0,0
44.211134191127,-9.464124172563,17.699619961996,2409846.3072056,-2453.8298746535,2644385.9697628,22.899619961996,0,0
44.211134446334,-9.4655047297473,17.704050405041,2409846.3072056,-2453.8298746535,2644385.9697628,22.904050405041,0,0
44.211134701542,-9.4668852869317,17.708480848085,2409846.3072056,-2453.8298746535,2644385.9697628,22.908480848085,0,0
44.211134956749,-9.468265844116,17.712911291129,2409846.3072056,-2453.8298746535,2644385.9697628,22.912911291129,0,0
44.211135211956,-9.4696464013004,17.717341734173,2409846.3072056,-2453.8298746535,2644385.9697628,22.917341734173,0,0
44.211135467163,-9.4710269584847,17.721772177218,2409846.3072056,-2453.8298746535,2644385.9697628,22.921772177218,0,0
44.21113572237,-9.4724075156691,17.726202620262,2409846.3072056,-2453.8298746535,2644385.9697628,22.926202620262,0,0
44.211135977578,-9.4737880728535,17.730633063306,2409846.3072056,-2453.8298746535,2644385.9697628,22.930633063306,0,0
44.211136232785,-9.4751686300378,17.735063506351,2409846.3072056,-2453.8298746535,2644385.9697628,22.935063506351,0,0
44.211136487992,-9.4765491872222,17.739493949395,2409846.3072056,-2453.8298746535,2644385.9697628,22.939493949395,0,0
44.211136743199,-9.4779297444065,17.743924392439,2409846.3072056,-2453.8298746535,2644385.9697628,22.943924392439,0,0
44.211136998406,-9.4793103015909,17.748354835484,2409846.3072056,-2453.8298746535,2644385.9697628,22.948354835484,0,0
44.211137253613,-9.4806908587753,17.752785278528,2409846.3072056,-2453.8298746535,2644385.9697628,22.952785278528,0,0
44.211137508821,-9.4820714159596,17.757215721572,2409846.3072056,-2453.8298746535,2644385.9697628,22.957215721572,0,0
44.211137764028,-9.483451973144,17.761646164616,2409846.3072056,-2453.8298746535,2644385.9697628,22.961646164616,0,0
44.211138019235,-9.4848325303283,17.766076607661,2409846.3072056,-2453.8298746535,2644385.9697628,22.966076607661,0,0
44.211138274442,-9.4862130875127,17.770507050705,2409846.3072056,-2453.8298746535,2644385.9697628,22.970507050705,0,0
44.211138529649,-9.487593644697,17.774937493749,2409846.3072056,-2453.8298746535,2644385.9697628,22.974937493749,0,0
44.211138784857,-9.4889742018814,17.779367936794,2409846.3072056,-2453.8298746535,2644385.9697628,22.979367936794,0,0
44.211139040064,-9.4903547590658,17.783798379838,2409846.3072056,-2453.8298746535,2644385.9697628,22.983798379838,0,0
44.211139295271,-9.4917353162501,17.788228822882,2409846.3072056,-2453.8298746535,2644385.9697628,22.988228822882,0,0
44.211139550478,-9.4931158734345,17.792659265927,2409846.3072056,-2453.8298746535,2644385.9697628,22.992659265927,0,0
44.211139805685,-9.4944964306188,17.797089708971,2409846.3072056,-2453.8298746535,2644385.9697628,22.997089708971,0,0
44.211140060892,-9.4958769878032,17.801520152015,2409846.3072056,-2453.8298746535,2644385.9697628,23.001520152015,0,0
44.2111403161,-9.4972575449876,17.80595059506,2409846.3072056,-2453.8298746535,2644385.9697628,23.00595059506,0,0
44.211140571307,-9.4986381021719,17.810381038104,2409846.3072056,-2453.8298746535,2644385.9697628,23.010381038104,0,0
44.211140826514,-9.5000186593563,17.814811481148,2409846.3072056,-2453.8298746535,2644385.9697628,23.014811481148,0,0
44.211141081721,-9.5013992165406,17.819241924192,2409846.3072056,-2453.8298746535,2644385.9697628,23.019241924192,0,0
44.211141336928,-9.502779773725,17.823672367237,2409846.3072056,-2453.8298746535,2644385.9697628,23.023672367237,0,0
44.211141592135,-9.5041603309093,17.828102810281,2409846.3072056,-2453.8298746535,2644385.9697628,23.028102810281,0,0
44.211141847343,-9.5055408880937,17.832533253325,2409846.3072056,-2453.8298746535,2644385.9697628,23.032533253325,0,0
44.21114210255,-9.5069214452781,17.83696369637,2409846.3072056,-2453.8298746535,2644385.9697628,23.03696369637,0,0
44.211142357757,-9.5083020024624,17.841394139414,2409846.3072056,-2453.8298746535,2644385.9697628,23.041394139414,0,0
44.211142612964,-9.5096825596468,17.845824582458,2409846.3072056,-2453.8298746535,2644385.9697628,23.045824582458,0,0
44.211142868171,-9.5110631168311,17.850255025503,2409846.3072056,-2453.8298746535,2644385.9697628,23.050255025503,0,0
44.211143123379,-9.5124436740155,17.854685468547,2409846.3072056,-2453.8298746535,2644385.9697628,23.054685468547,0,0
44.211143378586,-9.5138242311998,17.859115911591,2409846.3072056,-2453.8298746535,2644385.9697628,23.059115911591,0,0
44.211143633793,-9.5152047883842,17.863546354635,2409846.3072056,-2453.8298746535,2644385.9697628,23.063546354635,0,0
44.211143889,-9.5165853455686,17.86797679768,2409846.3072056,-2453.8298746535,2644385.9697628,23.06797679768,0,0
44.211144144207,-9.5179659027529,17.872407240724,2409846.3072056,-2453.8298746535,2644385.9697628,23.072407240724,0,0
44.211144399414,-9.5193464599373,17.876837683768,2409846.3072056,-2453.8298746535,2644385.9697628,23.076837683768,0,0
44.211144654622,-9.5207270171216,17.881268126813,2409846.3072056,-2453.8298746535,2644385.9697628,23.081268126813,0,0
44.211144909829,-9.522107574306,17.885698569857,2409846.3072056,-2453.8298746535,2644385.9697628,23.085698569857,0,0
44.211145165036,-9.5234881314904,17.890129012901,2409846.3072056,-2453.8298746535,2644385.9697628,23.090129012901,0,0
44.211145420243,-9.5248686886747,17.894559455946,2409846.3072056,-2453.8298746535,2644385.9697628,23.094559455946,0,0
44.21114567545,-9.5262492458591,17.89898989899,2409846.3072056,-2453.8298746535,2644385.9697628,23.09898989899,0,0
44.211145930657,-9.5276298030434,17.903420342034,2409846.3072056,-2453.8298746535,2644385.9697628,23.103420342034,0,0
44.211146185865,-9.5290103602278,17.907850785079,2409846.3072056,-2453.8298746535,2644385.9697628,23.107850785079,0,0
44.211146441072,-9.5303909174121,17.912281228123,2409846.3072056,-2453.8298746535,2644385.9697628,23.112281228123,0,0
44.211146696279,-9.5317714745965,17.916711671167,2409846.3072056,-2453.8298746535,2644385.9697628,23.116711671167,0,0
44.211146951486,-9.5331520317809,17.921142114211,2409846.3072056,-2453.8298746535,2644385.9697628,23.121142114211,0,0
44.211147206693,-9.5345325889652,17.925572557256,2409846.3072056,-2453.8298746535,2644385.9697628,23.125572557256,0,0
44.211147461901,-9.5359131461496,17.9300030003,2409846.3072056,-2453.8298746535,2644385.9697628,23.1300030003,0,0
44.211147717108,-9.5372937033339,17.934433443344,2409846.3072056,-2453.8298746535,2644385.9697628,23.134433443344,0,0
44.211147972315,-9.5386742605183,17.938863886389,2409846.3072056,-2453.8298746535,2644385.9697628,23.138863886389,0,0
44.211148227522,-9.5400548177026,17.943294329433,2409846.3072056,-2453.8298746535,2644385.9697628,23.143294329433,0,0
44.211148482729,-9.541435374887,17.947724772477,2409846.3072056,-2453.8298746535,2644385.9697628,23.147724772477,0,0
44.211148737936,-9.5428159320714,17.952155215522,2409846.3072056,-2453.8298746535,2644385.9697628,23.152155215522,0,0
44.211148993144,-9.5441964892557,17.956585658566,2409846.3072056,-2453.8298746535,2644385.9697628,23.156585658566,0,0
44.211149248351,-9.5455770464401,17.96101610161,2409846.3072056,-2453.8298746535,2644385.9697628,23.16101610161,0,0
44.211149503558,-9.5469576036244,17.965446544654,2409846.3072056,-2453.8298746535,2644385.9697628,23.165446544654,0,0
44.211149758765,-9.5483381608088,17.969876987699,2409846.3072056,-2453.8298746535,2644385.9697628,23.169876987699,0,0
44.211150013972,-9.5497187179932,17.974307430743,2409846.3072056,-2453.8298746535,2644385.9697628,23.174307430743,0,0
44.211150269179,-9.5510992751775,17.978737873787,2409846.3072056,-2453.8298746535,2644385.9697628,23.178737873787,0,0
44.211150524387,-9.5524798323619,17.983168316832,2409846.3072056,-2453.8298746535,2644385.9697628,23.183168316832,0,0
44.211150779594,-9.5538603895462,17.987598759876,2409846.3072056,-2453.8298746535,2644385.9697628,23.187598759876,0,0
44.211151034801,-9.5552409467306,17.99202920292,2409846.3072056,-2453.8298746535,2644385.9697628,23.19202920292,0,0
44.211151290008,-9.5566215039149,17.996459645965,2409846.3072056,-2453.8298746535,2644385.9697628,23.196459645965,0,0
44.211151545215,-9.5580020610993,18.000890089009,2409846.3072056,-2453.8298746535,2644385.9697628,23.200890089009,0,0
44.211151800423,-9.5593826182837,18.005320532053,2409846.3072056,-2453.8298746535,2644385.9697628,23.205320532053,0,0
44.21115205563,-9.560763175468,18.009750975098,2409846.3072056,-2453.8298746535,2644385.9697628,23.209750975098,0,0
44.211152310837,-9.5621437326524,18.014181418142,2409846.3072056,-2453.8298746535,2644385.9697628,23.214181418142,0,0
44.211152566044,-9.5635242898367,18.018611861186,2409846.3072056,-2453.8298746535,2644385.9697628,23.218611861186,0,0
44.211152821251,-9.5649048470211,18.02304230423,2409846.3072056,-2453.8298746535,2644385.9697628,23.22304230423,0,0
44.211153076458,-9.5662854042054,18.027472747275,2409846.3072056,-2453.8298746535,2644385.9697628,23.227472747275,0,0
44.211153331666,-9.5676659613898,18.031903190319,2409846.3072056,-2453.8298746535,2644385.9697628,23.231903190319,0,0
44.211153586873,-9.5690465185742,18.036333633363,2409846.3072056,-2453.8298746535,2644385.9697628,23.236333633363,0,0
44.21115384208,-9.5704270757585,18.040764076408,2409846.3072056,-2453.8298746535,2644385.9697628,23.240764076408,0,0
44.211154097287,-9.5718076329429,18.045194519452,2409846.3072056,-2453.8298746535,2644385.9697628,23.245194519452,0,0
44.211154352494,-9.5731881901272,18.049624962496,2409846.3072056,-2453.8298746535,2644385.9697628,23.249624962496,0,0
44.211154607701,-9.5745687473116,18.054055405541,2409846.3072056,-2453.8298746535,2644385.9697628,23.254055405541,0,0
44.211154862909,-9.575949304496,18.058485848585,2409846.3072056,-2453.8298746535,2644385.9697628,23.258485848585,0,0
44.211155118116,-9.5773298616803,18.062916291629,2409846.3072056,-2453.8298746535,2644385.9697628,23.262916291629,0,0
44.211155373323,-9.5787104188647,18.067346734673,2409846.3072056,-2453.8298746535,2644385.9697628,23.267346734673,0,0
44.21115562853,-9.580090976049,18.071777177718,2409846.3072056,-2453.8298746535,2644385.9697628,23.271777177718,0,0
44.211155883737,-9.5814715332334,18.076207620762,2409846.3072056,-2453.8298746535,2644385.9697628,23.276207620762,0,0
44.211156138945,-9.5828520904177,18.080638063806,2409846.3072056,-2453.8298746535,2644385.9697628,23.280638063806,0,0
44.211156394152,-9.5842326476021,18.085068506851,2409846.3072056,-2453.8298746535,2644385.9697628,23.285068506851,0,0
44.211156649359,-9.5856132047865,18.089498949895,2409846.3072056,-2453.8298746535,2644385.9697628,23.289498949895,0,0
44.211156904566,-9.5869937619708,18.093929392939,2409846.3072056,-2453.8298746535,2644385.9697628,23.293929392939,0,0
44.211157159773,-9.5883743191552,18.098359835984,2409846.3072056,-2453.8298746535,2644385.9697628,23.298359835984,0,0
44.21115741498,-9.5897548763395,18.102790279028,2409846.3072056,-2453.8298746535,2644385.9697628,23.302790279028,0,0
44.211157670188,-9.5911354335239,18.107220722072,2409846.3072056,-2453.8298746535,2644385.9697628,23.307220722072,0,0
44.211157925395,-9.5925159907082,18.111651165117,2409846.3072056,-2453.8298746535,2644385.9697628,23.311651165117,0,0
44.211158180602,-9.5938965478926,18.116081608161,2409846.3072056,-2453.8298746535,2644385.9697628,23.316081608161,0,0
44.211158435809,-9.595277105077,18.120512051205,2409846.3072056,-2453.8298746535,2644385.9697628,23.320512051205,0,0
44.211158691016,-9.5966576622613,18.124942494249,2409846.3072056,-2453.8298746535,2644385.9697628,23.324942494249,0,0
44.211158946223,-9.5980382194457,18.129372937294,2409846.3072056,-2453.8298746535,2644385.9697628,23.329372937294,0,0
44.211159201431,-9.59941877663,18.133803380338,2409846.3072056,-2453.8298746535,2644385.9697628,23.333803380338,0,0
44.211159456638,-9.6007993338144,18.138233823382,2409846.3072056,-2453.8298746535,2644385.9697628,23.338233823382,0,0
44.211159711845,-9.6021798909988,18.142664266427,2409846.3072056,-2453.8298746535,2644385.9697628,23.342664266427,0,0
44.211159967052,-9.6035604481831,18.147094709471,2409846.3072056,-2453.8298746535,2644385.9697628,23.347094709471,0,0
44.211160222259,-9.6049410053675,18.151525152515,2409846.3072056,-2453.8298746535,2644385.9697628,23.351525152515,0,0
44.211160477467,-9.6063215625518,18.15595559556,2409846.3072056,-2453.8298746535,2644385.9697628,23.35595559556,0,0
44.211160732674,-9.6077021197362,18.160386038604,2409846.3072056,-2453.8298746535,2644385.9697628,23.360386038604,0,0
44.211160987881,-9.6090826769205,18.164816481648,2409846.3072056,-2453.8298746535,2644385.9697628,23.364816481648,0,0
44.211161243088,-9.6104632341049,18.169246924692,2409846.3072056,-2453.8298746535,2644385.9697628,23.369246924692,0,0
44.211161498295,-9.6118437912893,18.173677367737,2409846.3072056,-2453.8298746535,2644385.9697628,23.373677367737,0,0
44.211161753502,-9.6132243484736,18.178107810781,2409846.3072056,-2453.8298746535,2644385.9697628,23.378107810781,0,0
44.21116200871,-9.614604905658,18.182538253825,2409846.3072056,-2453.8298746535,2644385.9697628,23.382538253825,0,0
44.211162263917,-9.6159854628423,18.18696869687,2409846.3072056,-2453.8298746535,2644385.9697628,23.38696869687,0,0
44.211162519124,-9.6173660200267,18.191399139914,2409846.3072056,-2453.8298746535,2644385.9697628,23.391399139914,0,0
44.211162774331,-9.6187465772111,18.195829582958,2409846.3072056,-2453.8298746535,2644385.9697628,23.395829582958,0,0
44.211163029538,-9.6201271343954,18.200260026003,2409846.3072056,-2453.8298746535,2644385.9697628,23.400260026003,0,0
44.211163284745,-9.6215076915798,18.204690469047,2409846.3072056,-2453.8298746535,2644385.9697628,23.404690469047,0,0
44.211163539953,-9.6228882487641,18.209120912091,2409846.3072056,-2453.8298746535,2644385.9697628,23.409120912091,0,0
44.21116379516,-9.6242688059485,18.213551355136,2409846.3072056,-2453.8298746535,2644385.9697628,23.413551355136,0,0
44.211164050367,-9.6256493631328,18.21798179818,2409846.3072056,-2453.8298746535,2644385.9697628,23.41798179818,0,0
44.211164305574,-9.6270299203172,18.222412241224,2409846.3072056,-2453.8298746535,2644385.9697628,23.422412241224,0,0
44.211164560781,-9.6284104775016,18.226842684268,2409846.3072056,-2453.8298746535,2644385.9697628,23.426842684268,0,0
44.211164815989,-9.6297910346859,18.231273127313,2409846.3072056,-2453.8298746535,2644385.9697628,23.431273127313,0,0
44.211165071196,-9.6311715918703,18.235703570357,2409846.3072056,-2453.8298746535,2644385.9697628,23.435703570357,0,0
44.211165326403,-9.6325521490546,18.240134013401,2409846.3072056,-2453.8298746535,2644385.9697628,23.440134013401,0,0
44.21116558161,-9.633932706239,18.244564456446,2409846.3072056,-2453.8298746535,2644385.9697628,23.444564456446,0,0
44.211165836817,-9.6353132634233,18.24899489949,2409846.3072056,-2453.8298746535,2644385.9697628,23.44899489949,0,0
44.211166092024,-9.6366938206077,18.253425342534,2409846.3072056,-2453.8298746535,2644385.9697628,23.453425342534,0,0
44.211166347232,-9.6380743777921,18.257855785579,2409846.3072056,-2453.8298746535,2644385.9697628,23.457855785579,0,0
44.211166602439,-9.6394549349764,18.262286228623,2409846.3072056,-2453.8298746535,2644385.9697628,23.462286228623,0,0
44.211166857646,-9.6408354921608,18.266716671667,2409846.3072056,-2453.8298746535,2644385.9697628,23.466716671667,0,0
44.211167112853,-9.6422160493451,18.271147114711,2409846.3072056,-2453.8298746535,2644385.9697628,23.471147114711,0,0
44.21116736806,-9.6435966065295,18.275577557756,2409846.3072056,-2453.8298746535,2644385.9697628,23.475577557756,0,0
44.211167623267,-9.6449771637139,18.2800080008,2409846.3072056,-2453.8298746535,2644385.9697628,23.4800080008,0,0
44.211167878475,-9.6463577208982,18.284438443844,2409846.3072056,-2453.8298746535,2644385.9697628,23.484438443844,0,0
44.211168133682,-9.6477382780826,18.288868886889,2409846.3072056,-2453.8298746535,2644385.9697628,23.488868886889,0,0
44.211168388889,-9.6491188352669,18.293299329933,2409846.3072056,-2453.8298746535,2644385.9697628,23.493299329933,0,0
44.211168644096,-9.6504993924513,18.297729772977,2409846.3072056,-2453.8298746535,2644385.9697628,23.497729772977,0,0
44.211168899303,-9.6518799496356,18.302160216022,2409846.3072056,-2453.8298746535,2644385.9697628,23.502160216022,0,0
44.211169154511,-9.65326050682,18.306590659066,2409846.3072056,-2453.8298746535,2644385.9697628,23.506590659066,0,0
44.211169409718,-9.6546410640044,18.31102110211,2409846.3072056,-2453.8298746535,2644385.9697628,23.51102110211,0,0
44.211169664925,-9.6560216211887,18.315451545155,2409846.3072056,-2453.8298746535,2644385.9697628,23.515451545155,0,0
44.211169920132,-9.6574021783731,18.319881988199,2409846.3072056,-2453.8298746535,2644385.9697628,23.519881988199,0,0
44.211170175339,-9.6587827355574,18.324312431243,2409846.3072056,-2453.8298746535,2644385.9697628,23.524312431243,0,0
44.211170430561,-9.660163293029,18.328742874287,2405159.7724999,-7196.2998913478,2628350.8934722,23.528742874287,0,0
44.21117068582,-9.6615438512805,18.333173317332,2405159.7724999,-7196.2998913478,2628350.8934722,23.533173317332,0,0
44.21117094108,-9.662924409532,18.337603760376,2405159.7724999,-7196.2998913478,2628350.8934722,23.537603760376,0,0
44.21117119634,-9.6643049677835,18.34203420342,2405159.7724999,-7196.2998913478,2628350.8934722,23.54203420342,0,0
44.2111714516,-9.665685526035,18.346464646465,2405159.7724999,-7196.2998913478,2628350.8934722,23.546464646465,0,0
44.211171706859,-9.6670660842865,18.350895089509,2405159.7724999,-7196.2998913478,2628350.8934722,23.550895089509,0,0
44.211171962119,-9.668446642538,18.355325532553,2405159.7724999,-7196.2998913478,2628350.8934722,23.555325532553,0,0
44.211172217379,-9.6698272007895,18.359755975598,2405159.7724999,-7196.2998913478,2628350.8934722,23.559755975598,0,0
44.211172472639,-9.671207759041,18.364186418642,2405159.7724999,-7196.2998913478,2628350.8934722,23.564186418642,0,0
44.211172727899,-9.6725883172925,18.368616861686,2405159.7724999,-7196.2998913478,2628350.8934722,23.568616861686,0,0
44.211172983158,-9.673968875544,18.37304730473,2405159.7724999,-7196.2998913478,2628350.8934722,23.57304730473,0,0
44.211173238418,-9.6753494337955,18.377477747775,2405159.7724999,-7196.2998913478,2628350.8934722,23.577477747775,0,0
44.211173493678,-9.6767299920469,18.381908190819,2405159.7724999,-7196.2998913478,2628350.8934722,23.581908190819,0,0
44.211173748938,-9.6781105502984,18.386338633863,2405159.7724999,-7196.2998913478,2628350.8934722,23.586338633863,0,0
44.211174004197,-9.6794911085499,18.390769076908,2405159.7724999,-7196.2998913478,2628350.8934722,23.590769076908,0,0
44.211174259457,-9.6808716668014,18.395199519952,2405159.7724999,-7196.2998913478,2628350.8934722,23.595199519952,0,0
44.211174514717,-9.6822522250529,18.399629962996,2405159.7724999,-7196.2998913478,2628350.8934722,23.599629962996,0,0
44.211174769977,-9.6836327833044,18.404060406041,2405159.7724999,-7196.2998913478,2628350.8934722,23.604060406041,0,0
44.211175025237,-9.6850133415559,18.408490849085,2405159.7724999,-7196.2998913478,2628350.8934722,23.608490849085,0,0
44.211175280496,-9.6863938998074,18.412921292129,2405159.7724999,-7196.2998913478,2628350.8934722,23.612921292129,0,0
44.211175535756,-9.6877744580589,18.417351735174,2405159.7724999,-7196.2998913478,2628350.8934722,23.617351735174,0,0
44.211175791016,-9.6891550163104,18.421782178218,2405159.7724999,-7196.2998913478,2628350.8934722,23.621782178218,0,0
44.211176046276,-9.6905355745619,18.426212621262,2405159.7724999,-7196.2998913478,2628350.8934722,23.626212621262,0,0
44.211176301535,-9.6919161328134,18.430643064306,2405159.7724999,-7196.2998913478,2628350.8934722,23.630643064306,0,0
44.211176556795,-9.6932966910649,18.435073507351,2405159.7724999,-7196.2998913478,2628350.8934722,23.635073507351,0,0
44.211176812055,-9.6946772493164,18.439503950395,2405159.7724999,-7196.2998913478,2628350.8934722,23.639503950395,0,0
44.211177067315,-9.6960578075678,18.443934393439,2405159.7724999,-7196.2998913478,2628350.8934722,23.643934393439,0,0
44.211177323818,-9.697438365288,18.448364836484,2423014.9206021,-4992.3531943819,2633892.1463415,23.648364836484,0,0
44.211177580357,-9.6988189229933,18.452795279528,2423014.9206021,-4992.3531943819,2633892.1463415,23.652795279528,0,0
44.211177836895,-9.7001994806986,18.457225722572,2423014.9206021,-4992.3531943819,2633892.1463415,23.657225722572,0,0
44.211178093434,-9.7015800384039,18.461656165617,2423014.9206021,-4992.3531943819,2633892.1463415,23.661656165617,0,0
44.211178349972,-9.7029605961092,18.466086608661,2423014.9206021,-4992.3531943819,2633892.1463415,23.666086608661,0,0
44.211178606511,-9.7043411538145,18.470517051705,2423014.9206021,-4992.3531943819,2633892.1463415,23.670517051705,0,0
44.211178863049,-9.7057217115198,18.474947494749,2423014.9206021,-4992.3531943819,2633892.1463415,23.674947494749,0,0
44.211179119587,-9.707102269225,18.479377937794,2423014.9206021,-4992.3531943819,2633892.1463415,23.679377937794,0,0
44.211179376126,-9.7084828269303,18.483808380838,2423014.9206021,-4992.3531943819,2633892.1463415,23.683808380838,0,0
44.211179632664,-9.7098633846356,18.488238823882,2423014.9206021,-4992.3531943819,2633892.1463415,23.688238823882,0,0
44.211179889203,-9.7112439423409,18.492669266927,2423014.9206021,-4992.3531943819,2633892.1463415,23.692669266927,0,0
44.211180145741,-9.7126245000462,18.497099709971,2423014.9206021,-4992.3531943819,2633892.1463415,23.697099709971,0,0
44.21118040228,-9.7140050577515,18.501530153015,2423014.9206021,-4992.3531943819,2633892.1463415,23.701530153015,0,0
44.211180658818,-9.7153856154568,18.50596059606,2423014.9206021,-4992.3531943819,2633892.1463415,23.70596059606,0,0
44.211180915356,-9.7167661731621,18.510391039104,2423014.9206021,-4992.3531943819,2633892.1463415,23.710391039104,0,0
44.211181171895,-9.7181467308674,18.514821482148,2423014.9206021,-4992.3531943819,2633892.1463415,23.714821482148,0,0
44.211181428433,-9.7195272885727,18.519251925193,2423014.9206021,-4992.3531943819,2633892.1463415,23.719251925193,0,0
44.211181684972,-9.720907846278,18.523682368237,2423014.9206021,-4992.3531943819,2633892.1463415,23.723682368237,0,0
44.21118194151,-9.7222884039833,18.528112811281,2423014.9206021,-4992.3531943819,2633892.1463415,23.728112811281,0,0
44.211182198049,-9.7236689616886,18.532543254325,2423014.9206021,-4992.3531943819,2633892.1463415,23.732543254325,0,0
44.211182454587,-9.7250495193939,18.53697369737,2423014.9206021,-4992.3531943819,2633892.1463415,23.73697369737,0,0
44.211182711125,-9.7264300770992,18.541404140414,2423014.9206021,-4992.3531943819,2633892.1463415,23.741404140414,0,0
44.211182967664,-9.7278106348045,18.545834583458,2423014.9206021,-4992.3531943819,2633892.1463415,23.745834583458,0,0
44.211183224202,-9.7291911925098,18.550265026503,2423014.9206021,-4992.3531943819,2633892.1463415,23.750265026503,0,0
44.211183480741,-9.7305717502151,18.554695469547,2423014.9206021,-4992.3531943819,2633892.1463415,23.754695469547,0,0
44.211183737279,-9.7319523079204,18.559125912591,2423014.9206021,-4992.3531943819,2633892.1463415,23.759125912591,0,0
44.211183993818,-9.7333328656257,18.563556355636,2423014.9206021,-4992.3531943819,2633892.1463415,23.763556355636,0,0
44.211184250356,-9.7347134233309,18.56798679868,2423014.9206021,-4992.3531943819,2633892.1463415,23.76798679868,0,0
44.211184506894,-9.7360939810362,18.572417241724,2423014.9206021,-4992.3531943819,2633892.1463415,23.772417241724,0,0
44.211184763433,-9.7374745387415,18.576847684768,2423014.9206021,-4992.3531943819,2633892.1463415,23.776847684768,0,0
44.211185019971,-9.7388550964468,18.581278127813,2423014.9206021,-4992.3531943819,2633892.1463415,23.781278127813,0,0
44.21118527651,-9.7402356541521,18.585708570857,2423014.9206021,-4992.3531943819,2633892.1463415,23.785708570857,0,0
44.211185533048,-9.7416162118574,18.590139013901,2423014.9206021,-4992.3531943819,2633892.1463415,23.790139013901,0,0
44.211185789587,-9.7429967695627,18.594569456946,2423014.9206021,-4992.3531943819,2633892.1463415,23.794569456946,0,0
44.211186046125,-9.744377327268,18.59899989999,2423014.9206021,-4992.3531943819,2633892.1463415,23.79899989999,0,0
44.211186302664,-9.7457578849733,18.603430343034,2423014.9206021,-4992.3531943819,2633892.1463415,23.803430343034,0,0
44.211186559202,-9.7471384426786,18.607860786079,2423014.9206021,-4992.3531943819,2633892.1463415,23.807860786079,0,0
44.21118681574,-9.7485190003839,18.612291229123,2423014.9206021,-4992.3531943819,2633892.1463415,23.812291229123,0,0
44.211187072279,-9.7498995580892,18.616721672167,2423014.9206021,-4992.3531943819,2633892.1463415,23.816721672167,0,0
44.211187328817,-9.7512801157945,18.621152115212,2423014.9206021,-4992.3531943819,2633892.1463415,23.821152115212,0,0
44.211187585356,-9.7526606734998,18.625582558256,2423014.9206021,-4992.3531943819,2633892.1463415,23.825582558256,0,0
44.211187841894,-9.7540412312051,18.6300130013,2423014.9206021,-4992.3531943819,2633892.1463415,23.8300130013,0,0
44.211188098433,-9.7554217889104,18.634443444344,2423014.9206021,-4992.3531943819,2633892.1463415,23.834443444344,0,0
44.211188354971,-9.7568023466157,18.638873887389,2423014.9206021,-4992.3531943819,2633892.1463415,23.838873887389,0,0
44.211188611509,-9.758182904321,18.643304330433,2423014.9206021,-4992.3531943819,2633892.1463415,23.843304330433,0,0
44.211188868048,-9.7595634620263,18.647734773477,2423014.9206021,-4992.3531943819,2633892.1463415,23.847734773477,0,0
44.211189124586,-9.7609440197316,18.652165216522,2423014.9206021,-4992.3531943819,2633892.1463415,23.852165216522,0,0
44.211189381125,-9.7623245774368,18.656595659566,2423014.9206021,-4992.3531943819,2633892.1463415,23.856595659566,0,0
44.211189637663,-9.7637051351421,18.66102610261,2423014.9206021,-4992.3531943819,2633892.1463415,23.86102610261,0,0
44.211189894202,-9.7650856928474,18.665456545655,2423014.9206021,-4992.3531943819,2633892.1463415,23.865456545655,0,0
44.21119015074,-9.7664662505527,18.669886988699,2423014.9206021,-4992.3531943819,2633892.1463415,23.869886988699,0,0
44.211190407278,-9.767846808258,18.674317431743,2423014.9206021,-4992.3531943819,2633892.1463415,23.874317431743,0,0
44.211190663817,-9.7692273659633,18.678747874787,2423014.9206021,-4992.3531943819,2633892.1463415,23.878747874787,0,0
44.211190920355,-9.7706079236686,18.683178317832,2423014.9206021,-4992.3531943819,2633892.1463415,23.883178317832,0,0
44.211191176894,-9.7719884813739,18.687608760876,2423014.9206021,-4992.3531943819,2633892.1463415,23.887608760876,0,0
44.211191433432,-9.7733690390792,18.69203920392,2423014.9206021,-4992.3531943819,2633892.1463415,23.89203920392,0,0
44.211191689971,-9.7747495967845,18.696469646965,2423014.9206021,-4992.3531943819,2633892.1463415,23.896469646965,0,0
44.211191946509,-9.7761301544898,18.700900090009,2423014.9206021,-4992.3531943819,2633892.1463415,23.900900090009,0,0
44.211192203047,-9.7775107121951,18.705330533053,2423014.9206021,-4992.3531943819,2633892.1463415,23.905330533053,0,0
44.211192459586,-9.7788912699004,18.709760976098,2423014.9206021,-4992.3531943819,2633892.1463415,23.909760976098,0,0
44.211192716124,-9.7802718276057,18.714191419142,2423014.9206021,-4992.3531943819,2633892.1463415,23.914191419142,0,0
44.211192972663,-9.781652385311,18.718621862186,2423014.9206021,-4992.3531943819,2633892.1463415,23.918621862186,0,0
44.211193229201,-9.7830329430163,18.723052305231,2423014.9206021,-4992.3531943819,2633892.1463415,23.923052305231,0,0
44.21119348574,-9.7844135007216,18.727482748275,2423014.9206021,-4992.3531943819,2633892.1463415,23.927482748275,0,0
44.211193742278,-9.7857940584269,18.731913191319,2423014.9206021,-4992.3531943819,2633892.1463415,23.931913191319,0,0
44.211193998816,-9.7871746161322,18.736343634363,2423014.9206021,-4992.3531943819,2633892.1463415,23.936343634363,0,0
44.211194255355,-9.7885551738375,18.740774077408,2423014.9206021,-4992.3531943819,2633892.1463415,23.940774077408,0,0
44.211194511893,-9.7899357315428,18.745204520452,2423014.9206021,-4992.3531943819,2633892.1463415,23.945204520452,0,0
44.211194768432,-9.791316289248,18.749634963496,2423014.9206021,-4992.3531943819,2633892.1463415,23.949634963496,0,0
44.21119502497,-9.7926968469533,18.754065406541,2423014.9206021,-4992.3531943819,2633892.1463415,23.954065406541,0,0
44.211195281509,-9.7940774046586,18.758495849585,2423014.9206021,-4992.3531943819,2633892.1463415,23.958495849585,0,0
44.211195538047,-9.7954579623639,18.762926292629,2423014.9206021,-4992.3531943819,2633892.1463415,23.962926292629,0,0
44.211195794585,-9.7968385200692,18.767356735674,2423014.9206021,-4992.3531943819,2633892.1463415,23.967356735674,0,0
44.211196050998,-9.7982190777216,18.771787178718,2414198.6777116,2435.5267743203,2623572.5676051,23.971787178718,0,0
44.211196307107,-9.7995996352463,18.776217621762,2414198.6777116,2435.5267743203,2623572.5676051,23.976217621762,0,0
44.211196563216,-9.8009801927709,18.780648064806,2414198.6777116,2435.5267743203,2623572.5676051,23.980648064806,0,0
44.211196819325,-9.8023607502956,18.785078507851,2414198.6777116,2435.5267743203,2623572.5676051,23.985078507851,0,0
44.211197075434,-9.8037413078202,18.789508950895,2414198.6777116,2435.5267743203,2623572.5676051,23.989508950895,0,0
44.211197331543,-9.8051218653449,18.793939393939,2414198.6777116,2435.5267743203,2623572.5676051,23.993939393939,0,0
44.211197587652,-9.8065024228695,18.798369836984,2414198.6777116,2435.5267743203,2623572.5676051,23.998369836984,0,0
44.211197843761,-9.8078829803942,18.802800280028,2414198.6777116,2435.5267743203,2623572.5676051,24.002800280028,0,0
44.21119809987,-9.8092635379188,18.807230723072,2414198.6777116,2435.5267743203,2623572.5676051,24.007230723072,0,0
44.211198355979,-9.8106440954435,18.811661166117,2414198.6777116,2435.5267743203,2623572.5676051,24.011661166117,0,0
44.211198612088,-9.8120246529681,18.816091609161,2414198.6777116,2435.5267743203,2623572.5676051,24.016091609161,0,0
44.211198868197,-9.8134052104928,18.820522052205,2414198.6777116,2435.5267743203,2623572.5676051,24.020522052205,0,0
44.211199124306,-9.8147857680174,18.82495249525,2414198.6777116,2435.5267743203,2623572.5676051,24.02495249525,0,0
44.211199380415,-9.8161663255421,18.829382938294,2414198.6777116,2435.5267743203,2623572.5676051,24.029382938294,0,0
44.211199636524,-9.8175468830667,18.833813381338,2414198.6777116,2435.5267743203,2623572.5676051,24.033813381338,0,0
44.211199892633,-9.8189274405914,18.838243824382,2414198.6777116,2435.5267743203,2623572.5676051,24.038243824382,0,0
44.211200148742,-9.820307998116,18.842674267427,2414198.6777116,2435.5267743203,2623572.5676051,24.042674267427,0,0
44.211200404851,-9.8216885556407,18.847104710471,2414198.6777116,2435.5267743203,2623572.5676051,24.047104710471,0,0
44.21120066096,-9.8230691131653,18.851535153515,2414198.6777116,2435.5267743203,2623572.5676051,24.051535153515,0,0
44.211200917069,-9.82444967069,18.85596559656,2414198.6777116,2435.5267743203,2623572.5676051,24.05596559656,0,0
44.211201173178,-9.8258302282146,18.860396039604,2414198.6777116,2435.5267743203,2623572.5676051,24.060396039604,0,0
44.211201429287,-9.8272107857393,18.864826482648,2414198.6777116,2435.5267743203,2623572.5676051,24.064826482648,0,0
44.211201685396,-9.8285913432639,18.869256925693,2414198.6777116,2435.5267743203,2623572.5676051,24.069256925693,0,0
44.211201941505,-9.8299719007886,18.873687368737,2414198.6777116,2435.5267743203,2623572.5676051,24.073687368737,0,0
44.211202197614,-9.8313524583132,18.878117811781,2414198.6777116,2435.5267743203,2623572.5676051,24.078117811781,0,0
44.211202453723,-9.8327330158379,18.882548254825,2414198.6777116,2435.5267743203,2623572.5676051,24.082548254825,0,0
44.211202709832,-9.8341135733625,18.88697869787,2414198.6777116,2435.5267743203,2623572.5676051,24.08697869787,0,0
44.211202965941,-9.8354941308872,18.891409140914,2414198.6777116,2435.5267743203,2623572.5676051,24.091409140914,0,0
44.21120322205,-9.8368746884118,18.895839583958,2414198.6777116,2435.5267743203,2623572.5676051,24.095839583958,0,0
44.211203478159,-9.8382552459364,18.900270027003,2414198.6777116,2435.5267743203,2623572.5676051,24.100270027003,0,0
44.211203734268,-9.8396358034611,18.904700470047,2414198.6777116,2435.5267743203,2623572.5676051,24.104700470047,0,0
44.211203990377,-9.8410163609857,18.909130913091,2414198.6777116,2435.5267743203,2623572.5676051,24.109130913091,0,0
44.211204246486,-9.8423969185104,18.913561356136,2414198.6777116,2435.5267743203,2623572.5676051,24.113561356136,0,0
44.211204502595,-9.843777476035,18.91799179918,2414198.6777116,2435.5267743203,2623572.5676051,24.11799179918,0,0
44.211204758704,-9.8451580335597,18.922422242224,2414198.6777116,2435.5267743203,2623572.5676051,24.122422242224,0,0
44.211205014813,-9.8465385910843,18.926852685269,2414198.6777116,2435.5267743203,2623572.5676051,24.126852685269,0,0
44.211205270922,-9.847919148609,18.931283128313,2414198.6777116,2435.5267743203,2623572.5676051,24.131283128313,0,0
44.211205527031,-9.8492997061336,18.935713571357,2414198.6777116,2435.5267743203,2623572.5676051,24.135713571357,0,0
44.21120578314,-9.8506802636583,18.940144014401,2414198.6777116,2435.5267743203,2623572.5676051,24.140144014401,0,0
44.211206039249,-9.8520608211829,18.944574457446,2414198.6777116,2435.5267743203,2623572.5676051,24.144574457446,0,0
44.211206295358,-9.8534413787076,18.94900490049,2414198.6777116,2435.5267743203,2623572.5676051,24.14900490049,0,0
44.211206551467,-9.8548219362322,18.953435343534,2414198.6777116,2435.5267743203,2623572.5676051,24.153435343534,0,0
44.211206807576,-9.8562024937569,18.957865786579,2414198.6777116,2435.5267743203,2623572.5676051,24.157865786579,0,0
44.211207063685,-9.8575830512815,18.962296229623,2414198.6777116,2435.5267743203,2623572.5676051,24.162296229623,0,0
44.211207319794,-9.8589636088062,18.966726672667,2414198.6777116,2435.5267743203,2623572.5676051,24.166726672667,0,0
44.211207575903,-9.8603441663308,18.971157115712,2414198.6777116,2435.5267743203,2623572.5676051,24.171157115712,0,0
44.211207832012,-9.8617247238555,18.975587558756,2414198.6777116,2435.5267743203,2623572.5676051,24.175587558756,0,0
44.211208088121,-9.8631052813801,18.9800180018,2414198.6777116,2435.5267743203,2623572.5676051,24.1800180018,0,0
44.21120834423,-9.8644858389048,18.984448444844,2414198.6777116,2435.5267743203,2623572.5676051,24.184448444844,0,0
44.211208600339,-9.8658663964294,18.988878887889,2414198.6777116,2435.5267743203,2623572.5676051,24.188878887889,0,0
44.211208856448,-9.8672469539541,18.993309330933,2414198.6777116,2435.5267743203,2623572.5676051,24.193309330933,0,0
44.211209112557,-9.8686275114787,18.997739773977,2414198.6777116,2435.5267743203,2623572.5676051,24.197739773977,0,0
44.211209368666,-9.8700080690034,19.002170217022,2414198.6777116,2435.5267743203,2623572.5676051,24.202170217022,0,0
44.211209624775,-9.871388626528,19.006600660066,2414198.6777116,2435.5267743203,2623572.5676051,24.206600660066,0,0
44.211209880884,-9.8727691840527,19.01103110311,2414198.6777116,2435.5267743203,2623572.5676051,24.21103110311,0,0
44.211210136993,-9.8741497415773,19.015461546155,2414198.6777116,2435.5267743203,2623572.5676051,24.215461546155,0,0
44.211210393102,-9.875530299102,19.019891989199,2414198.6777116,2435.5267743203,2623572.5676051,24.219891989199,0,0
44.21121064921,-9.8769108566266,19.024322432243,2414198.6777116,2435.5267743203,2623572.5676051,24.224322432243,0,0
44.211210905319,-9.8782914141512,19.028752875288,2414198.6777116,2435.5267743203,2623572.5676051,24.228752875288,0,0
44.211211161428,-9.8796719716759,19.033183318332,2414198.6777116,2435.5267743203,2623572.5676051,24.233183318332,0,0
44.211211417537,-9.8810525292005,19.037613761376,2414198.6777116,2435.5267743203,2623572.5676051,24.237613761376,0,0
44.211211673646,-9.8824330867252,19.04204420442,2414198.6777116,2435.5267743203,2623572.5676051,24.24204420442,0,0
44.211211929755,-9.8838136442498,19.046474647465,2414198.6777116,2435.5267743203,2623572.5676051,24.246474647465,0,0
44.211212185864,-9.8851942017745,19.050905090509,2414198.6777116,2435.5267743203,2623572.5676051,24.250905090509,0,0
44.211212441973,-9.8865747592991,19.055335533553,2414198.6777116,2435.5267743203,2623572.5676051,24.255335533553,0,0
44.211212698082,-9.8879553168238,19.059765976598,2414198.6777116,2435.5267743203,2623572.5676051,24.259765976598,0,0
44.211212954191,-9.8893358743484,19.064196419642,2414198.6777116,2435.5267743203,2623572.5676051,24.264196419642,0,0
44.2112132103,-9.8907164318731,19.068626862686,2414198.6777116,2435.5267743203,2623572.5676051,24.268626862686,0,0
44.211213466409,-9.8920969893977,19.073057305731,2414198.6777116,2435.5267743203,2623572.5676051,24.273057305731,0,0
44.211213722518,-9.8934775469224,19.077487748775,2414198.6777116,2435.5267743203,2623572.5676051,24.277487748775,0,0
44.211213978627,-9.894858104447,19.081918191819,2414198.6777116,2435.5267743203,2623572.5676051,24.281918191819,0,0
44.211214234736,-9.8962386619717,19.086348634863,2414198.6777116,2435.5267743203,2623572.5676051,24.286348634863,0,0
44.211214490845,-9.8976192194963,19.090779077908,2414198.6777116,2435.5267743203,2623572.5676051,24.290779077908,0,0
44.211214746954,-9.898999777021,19.095209520952,2414198.6777116,2435.5267743203,2623572.5676051,24.295209520952,0,0
44.211215003063,-9.9003803345456,19.099639963996,2414198.6777116,2435.5267743203,2623572.5676051,24.299639963996,0,0
44.211215259172,-9.9017608920703,19.104070407041,2414198.6777116,2435.5267743203,2623572.5676051,24.304070407041,0,0
44.211215515281,-9.9031414495949,19.108500850085,2414198.6777116,2435.5267743203,2623572.5676051,24.308500850085,0,0
44.21121577139,-9.9045220071196,19.112931293129,2414198.6777116,2435.5267743203,2623572.5676051,24.312931293129,0,0
44.211216027499,-9.9059025646442,19.117361736174,2414198.6777116,2435.5267743203,2623572.5676051,24.317361736174,0,0
44.211216283608,-9.9072831221689,19.121792179218,2414198.6777116,2435.5267743203,2623572.5676051,24.321792179218,0,0
44.211216539717,-9.9086636796935,19.126222622262,2414198.6777116,2435.5267743203,2623572.5676051,24.326222622262,0,0
44.211216795826,-9.9100442372182,19.130653065307,2414198.6777116,2435.5267743203,2623572.5676051,24.330653065307,0,0
44.211217051935,-9.9114247947428,19.135083508351,2414198.6777116,2435.5267743203,2623572.5676051,24.335083508351,0,0
44.211217308044,-9.9128053522675,19.139513951395,2414198.6777116,2435.5267743203,2623572.5676051,24.339513951395,0,0
44.211217564153,-9.9141859097921,19.143944394439,2414198.6777116,2435.5267743203,2623572.5676051,24.343944394439,0,0
44.211217820262,-9.9155664673168,19.148374837484,2414198.6777116,2435.5267743203,2623572.5676051,24.348374837484,0,0
44.211218076371,-9.9169470248414,19.152805280528,2414198.6777116,2435.5267743203,2623572.5676051,24.352805280528,0,0
44.21121833248,-9.918327582366,19.157235723572,2414198.6777116,2435.5267743203,2623572.5676051,24.357235723572,0,0
44.211218588589,-9.9197081398907,19.161666166617,2414198.6777116,2435.5267743203,2623572.5676051,24.361666166617,0,0
44.211218844698,-9.9210886974153,19.166096609661,2414198.6777116,2435.5267743203,2623572.5676051,24.366096609661,0,0
44.211219100807,-9.92246925494,19.170527052705,2414198.6777116,2435.5267743203,2623572.5676051,24.370527052705,0,0
44.211219356916,-9.9238498124646,19.17495749575,2414198.6777116,2435.5267743203,2623572.5676051,24.37495749575,0,0
44.211219613025,-9.9252303699893,19.179387938794,2414198.6777116,2435.5267743203,2623572.5676051,24.379387938794,0,0
44.211219869134,-9.9266109275139,19.183818381838,2414198.6777116,2435.5267743203,2623572.5676051,24.383818381838,0,0
44.211220125243,-9.9279914850386,19.188248824882,2414198.6777116,2435.5267743203,2623572.5676051,24.388248824882,0,0
44.211220381352,-9.9293720425632,19.192679267927,2414198.6777116,2435.5267743203,2623572.5676051,24.392679267927,0,0
44.211220637461,-9.9307526000879,19.197109710971,2414198.6777116,2435.5267743203,2623572.5676051,24.397109710971,0,0
44.21122089357,-9.9321331576125,19.201540154015,2414198.6777116,2435.5267743203,2623572.5676051,24.401540154015,0,0
44.211221149679,-9.9335137151372,19.20597059706,2414198.6777116,2435.5267743203,2623572.5676051,24.40597059706,0,0
44.211221405788,-9.9348942726618,19.210401040104,2414198.6777116,2435.5267743203,2623572.5676051,24.410401040104,0,0
44.211221661897,-9.9362748301865,19.214831483148,2414198.6777116,2435.5267743203,2623572.5676051,24.414831483148,0,0
44.211221918006,-9.9376553877111,19.219261926193,2414198.6777116,2435.5267743203,2623572.5676051,24.419261926193,0,0
44.211222174115,-9.9390359452358,19.223692369237,2414198.6777116,2435.5267743203,2623572.5676051,24.423692369237,0,0
44.211222430224,-9.9404165027604,19.228122812281,2414198.6777116,2435.5267743203,2623572.5676051,24.428122812281,0,0
44.211222686333,-9.9417970602851,19.232553255326,2414198.6777116,2435.5267743203,2623572.5676051,24.432553255326,0,0
44.211222942442,-9.9431776178097,19.23698369837,2414198.6777116,2435.5267743203,2623572.5676051,24.43698369837,0,0
44.211223198551,-9.9445581753344,19.241414141414,2414198.6777116,2435.5267743203,2623572.5676051,24.441414141414,0,0
44.21122345466,-9.945938732859,19.245844584458,2414198.6777116,2435.5267743203,2623572.5676051,24.445844584458,0,0
44.211223710769,-9.9473192903837,19.250275027503,2414198.6777116,2435.5267743203,2623572.5676051,24.450275027503,0,0
44.211223966878,-9.9486998479083,19.254705470547,2414198.6777116,2435.5267743203,2623572.5676051,24.454705470547,0,0
44.211224222987,-9.950080405433,19.259135913591,2414198.6777116,2435.5267743203,2623572.5676051,24.459135913591,0,0
44.211224479096,-9.9514609629576,19.263566356636,2414198.6777116,2435.5267743203,2623572.5676051,24.463566356636,0,0
44.211224735205,-9.9528415204823,19.26799679968,2414198.6777116,2435.5267743203,2623572.5676051,24.46799679968,0,0
44.211224991314,-9.9542220780069,19.272427242724,2414198.6777116,2435.5267743203,2623572.5676051,24.472427242724,0,0
44.211225247423,-9.9556026355316,19.276857685769,2414198.6777116,2435.5267743203,2623572.5676051,24.476857685769,0,0
44.211225503532,-9.9569831930562,19.281288128813,2414198.6777116,2435.5267743203,2623572.5676051,24.481288128813,0,0
44.211225759641,-9.9583637505808,19.285718571857,2414198.6777116,2435.5267743203,2623572.5676051,24.485718571857,0,0
44.21122601575,-9.9597443081055,19.290149014901,2414198.6777116,2435.5267743203,2623572.5676051,24.490149014901,0,0
44.211226271859,-9.9611248656301,19.294579457946,2414198.6777116,2435.5267743203,2623572.5676051,24.494579457946,0,0
44.211226527968,-9.9625054231548,19.29900990099,2414198.6777116,2435.5267743203,2623572.5676051,24.49900990099,0,0
44.211226784077,-9.9638859806794,19.303440344034,2414198.6777116,2435.5267743203,2623572.5676051,24.503440344034,0,0
44.211227040186,-9.9652665382041,19.307870787079,2414198.6777116,2435.5267743203,2623572.5676051,24.507870787079,0,0
44.211227296295,-9.9666470957287,19.312301230123,2414198.6777116,2435.5267743203,2623572.5676051,24.512301230123,0,0
44.211227552404,-9.9680276532534,19.316731673167,2414198.6777116,2435.5267743203,2623572.5676051,24.516731673167,0,0
44.211227808513,-9.969408210778,19.321162116212,2414198.6777116,2435.5267743203,2623572.5676051,24.521162116212,0,0
44.211228064622,-9.9707887683027,19.325592559256,2414198.6777116,2435.5267743203,2623572.5676051,24.525592559256,0,0
44.211228320731,-9.9721693258273,19.3300230023,2414198.6777116,2435.5267743203,2623572.5676051,24.5300230023,0,0
44.21122857684,-9.973549883352,19.334453445345,2414198.6777116,2435.5267743203,2623572.5676051,24.534453445345,0,0
44.211228832949,-9.9749304408766,19.338883888389,2414198.6777116,2435.5267743203,2623572.5676051,24.538883888389,0,0
44.211229089058,-9.9763109984013,19.343314331433,2414198.6777116,2435.5267743203,2623572.5676051,24.543314331433,0,0
44.211229345167,-9.9776915559259,19.347744774477,2414198.6777116,2435.5267743203,2623572.5676051,24.547744774477,0,0
44.211229601276,-9.9790721134506,19.352175217522,2414198.6777116,2435.5267743203,2623572.5676051,24.552175217522,0,0
44.211229857385,-9.9804526709752,19.356605660566,2414198.6777116,2435.5267743203,2623572.5676051,24.556605660566,0,0
44.211230113494,-9.9818332284999,19.36103610361,2414198.6777116,2435.5267743203,2623572.5676051,24.56103610361,0,0
44.211230369603,-9.9832137860245,19.365466546655,2414198.6777116,2435.5267743203,2623572.5676051,24.565466546655,0,0
44.211230625712,-9.9845943435492,19.369896989699,2414198.6777116,2435.5267743203,2623572.5676051,24.569896989699,0,0
44.211230881821,-9.9859749010738,19.374327432743,2414198.6777116,2435.5267743203,2623572.5676051,24.574327432743,0,0
44.21123113793,-9.9873554585985,19.378757875788,2414198.6777116,2435.5267743203,2623572.5676051,24.578757875788,0,0
44.211231394039,-9.9887360161231,19.383188318832,2414198.6777116,2435.5267743203,2623572.5676051,24.583188318832,0,0
44.211231650148,-9.9901165736478,19.387618761876,2414198.6777116,2435.5267743203,2623572.5676051,24.587618761876,0,0
44.211231906257,-9.9914971311724,19.39204920492,2414198.6777116,2435.5267743203,2623572.5676051,24.59204920492,0,0
44.211232162365,-9.9928776886971,19.396479647965,2414198.6777116,2435.5267743203,2623572.5676051,24.596479647965,0,0
44.211232418474,-9.9942582462217,19.400910091009,2414198.6777116,2435.5267743203,2623572.5676051,24.600910091009,0,0
44.211232674583,-9.9956388037464,19.405340534053,2414198.6777116,2435.5267743203,2623572.5676051,24.605340534053,0,0
44.211232930692,-9.997019361271,19.409770977098,2414198.6777116,2435.5267743203,2623572.5676051,24.609770977098,0,0
44.211233186801,-9.9983999187956,19.414201420142,2414198.6777116,2435.5267743203,2623572.5676051,24.614201420142,0,0
44.21123344291,-9.9997804763203,19.418631863186,2414198.6777116,2435.5267743203,2623572.5676051,24.618631863186,0,0
44.211233699019,-10.001161033845,19.423062306231,2414198.6777116,2435.5267743203,2623572.5676051,24.623062306231,0,0
44.211233955128,-10.00254159137,19.427492749275,2414198.6777116,2435.5267743203,2623572.5676051,24.627492749275,0,0
44.211234211237,-10.003922148894,19.431923192319,2414198.6777116,2435.5267743203,2623572.5676051,24.631923192319,0,0
44.211234467346,-10.005302706419,19.436353635364,2414198.6777116,2435.5267743203,2623572.5676051,24.636353635364,0,0
44.211234723455,-10.006683263944,19.440784078408,2414198.6777116,2435.5267743203,2623572.5676051,24.640784078408,0,0
44.211234979564,-10.008063821468,19.445214521452,2414198.6777116,2435.5267743203,2623572.5676051,24.645214521452,0,0
44.211235235673,-10.009444378993,19.449644964496,2414198.6777116,2435.5267743203,2623572.5676051,24.649644964496,0,0
44.211235491782,-10.010824936517,19.454075407541,2414198.6777116,2435.5267743203,2623572.5676051,24.654075407541,0,0
44.211235747891,-10.012205494042,19.458505850585,2414198.6777116,2435.5267743203,2623572.5676051,24.658505850585,0,0
44.211236004,-10.013586051567,19.462936293629,2414198.6777116,2435.5267743203,2623572.5676051,24.662936293629,0,0
44.211236260109,-10.014966609091,19.467366736674,2414198.6777116,2435.5267743203,2623572.5676051,24.667366736674,0,0
44.211236516218,-10.016347166616,19.471797179718,2414198.6777116,2435.5267743203,2623572.5676051,24.671797179718,0,0
44.211236772327,-10.017727724141,19.476227622762,2414198.6777116,2435.5267743203,2623572.5676051,24.676227622762,0,0
44.211237028436,-10.019108281665,19.480658065807,2414198.6777116,2435.5267743203,2623572.5676051,24.680658065807,0,0
44.211237284545,-10.02048883919,19.485088508851,2414198.6777116,2435.5267743203,2623572.5676051,24.685088508851,0,0
44.211237540654,-10.021869396715,19.489518951895,2414198.6777116,2435.5267743203,2623572.5676051,24.689518951895,0,0
44.211237796763,-10.023249954239,19.493949394939,2414198.6777116,2435.5267743203,2623572.5676051,24.693949394939,0,0
44.211238052872,-10.024630511764,19.498379837984,2414198.6777116,2435.5267743203,2623572.5676051,24.698379837984,0,0
44.211238308981,-10.026011069289,19.502810281028,2414198.6777116,2435.5267743203,2623572.5676051,24.702810281028,0,0
44.21123856509,-10.027391626813,19.507240724072,2414198.6777116,2435.5267743203,2623572.5676051,24.707240724072,0,0
44.211238821199,-10.028772184338,19.511671167117,2414198.6777116,2435.5267743203,2623572.5676051,24.711671167117,0,0
44.211239077308,-10.030152741863,19.516101610161,2414198.6777116,2435.5267743203,2623572.5676051,24.716101610161,0,0
44.211239333417,-10.031533299387,19.520532053205,2414198.6777116,2435.5267743203,2623572.5676051,24.720532053205,0,0
44.211239589526,-10.032913856912,19.52496249625,2414198.6777116,2435.5267743203,2623572.5676051,24.72496249625,0,0
44.211239845635,-10.034294414437,19.529392939294,2414198.6777116,2435.5267743203,2623572.5676051,24.729392939294,0,0
44.211240101744,-10.035674971961,19.533823382338,2414198.6777116,2435.5267743203,2623572.5676051,24.733823382338,0,0
44.211240357853,-10.037055529486,19.538253825383,2414198.6777116,2435.5267743203,2623572.5676051,24.738253825383,0,0
44.211240613962,-10.03843608701,19.542684268427,2414198.6777116,2435.5267743203,2623572.5676051,24.742684268427,0,0
44.211240870071,-10.039816644535,19.547114711471,2414198.6777116,2435.5267743203,2623572.5676051,24.747114711471,0,0
44.21124112618,-10.04119720206,19.551545154515,2414198.6777116,2435.5267743203,2623572.5676051,24.751545154515,0,0
44.211241382289,-10.042577759584,19.55597559756,2414198.6777116,2435.5267743203,2623572.5676051,24.75597559756,0,0
44.211241638398,-10.043958317109,19.560406040604,2414198.6777116,2435.5267743203,2623572.5676051,24.760406040604,0,0
44.211241894507,-10.045338874634,19.564836483648,2414198.6777116,2435.5267743203,2623572.5676051,24.764836483648,0,0
44.211242150616,-10.046719432158,19.569266926693,2414198.6777116,2435.5267743203,2623572.5676051,24.769266926693,0,0
44.211242407722,-10.048099988607,19.573697369737,2428036.5942895,6407.1772812823,2623423.8989277,24.773697369737,0,0
44.21124266494,-10.049480544933,19.578127812781,2428036.5942895,6407.1772812823,2623423.8989277,24.778127812781,0,0
44.211242922158,-10.05086110126,19.582558255826,2428036.5942895,6407.1772812823,2623423.8989277,24.782558255826,0,0
44.211243179376,-10.052241657586,19.58698869887,2428036.5942895,6407.1772812823,2623423.8989277,24.78698869887,0,0
44.211243436595,-10.053622213913,19.591419141914,2428036.5942895,6407.1772812823,2623423.8989277,24.791419141914,0,0
44.211243693813,-10.055002770239,19.595849584958,2428036.5942895,6407.1772812823,2623423.8989277,24.795849584958,0,0
44.211243951031,-10.056383326566,19.600280028003,2428036.5942895,6407.1772812823,2623423.8989277,24.800280028003,0,0
44.211244208249,-10.057763882893,19.604710471047,2428036.5942895,6407.1772812823,2623423.8989277,24.804710471047,0,0
44.211244465468,-10.059144439219,19.609140914091,2428036.5942895,6407.1772812823,2623423.8989277,24.809140914091,0,0
44.211244722686,-10.060524995546,19.613571357136,2428036.5942895,6407.1772812823,2623423.8989277,24.813571357136,0,0
44.211244979904,-10.061905551872,19.61800180018,2428036.5942895,6407.1772812823,2623423.8989277,24.81800180018,0,0
44.211245237122,-10.063286108199,19.622432243224,2428036.5942895,6407.1772812823,2623423.8989277,24.822432243224,0,0
44.211245494341,-10.064666664525,19.626862686269,2428036.5942895,6407.1772812823,2623423.8989277,24.826862686269,0,0
44.211245751559,-10.066047220852,19.631293129313,2428036.5942895,6407.1772812823,2623423.8989277,24.831293129313,0,0
44.211246008777,-10.067427777179,19.635723572357,2428036.5942895,6407.1772812823,2623423.8989277,24.835723572357,0,0
44.211246265995,-10.068808333505,19.640154015402,2428036.5942895,6407.1772812823,2623423.8989277,24.840154015402,0,0
44.211246523214,-10.070188889832,19.644584458446,2428036.5942895,6407.1772812823,2623423.8989277,24.844584458446,0,0
44.211246780432,-10.071569446158,19.64901490149,2428036.5942895,6407.1772812823,2623423.8989277,24.84901490149,0,0
44.21124703765,-10.072950002485,19.653445344534,2428036.5942895,6407.1772812823,2623423.8989277,24.853445344534,0,0
44.211247294868,-10.074330558811,19.657875787579,2428036.5942895,6407.1772812823,2623423.8989277,24.857875787579,0,0
44.211247552087,-10.075711115138,19.662306230623,2428036.5942895,6407.1772812823,2623423.8989277,24.862306230623,0,0
44.211247809305,-10.077091671464,19.666736673667,2428036.5942895,6407.1772812823,2623423.8989277,24.866736673667,0,0
44.211248066523,-10.078472227791,19.671167116712,2428036.5942895,6407.1772812823,2623423.8989277,24.871167116712,0,0
44.211248323742,-10.079852784118,19.675597559756,2428036.5942895,6407.1772812823,2623423.8989277,24.875597559756,0,0
44.21124858096,-10.081233340444,19.6800280028,2428036.5942895,6407.1772812823,2623423.8989277,24.8800280028,0,0
44.211248838178,-10.082613896771,19.684458445845,2428036.5942895,6407.1772812823,2623423.8989277,24.884458445845,0,0
44.211249095396,-10.083994453097,19.688888888889,2428036.5942895,6407.1772812823,2623423.8989277,24.888888888889,0,0
44.211249352615,-10.085375009424,19.693319331933,2428036.5942895,6407.1772812823,2623423.8989277,24.893319331933,0,0
44.211249609833,-10.08675556575,19.697749774977,2428036.5942895,6407.1772812823,2623423.8989277,24.897749774977,0,0
44.211249867051,-10.088136122077,19.702180218022,2428036.5942895,6407.1772812823,2623423.8989277,24.902180218022,0,0
44.211250124269,-10.089516678403,19.706610661066,2428036.5942895,6407.1772812823,2623423.8989277,24.906610661066,0,0
44.211250381488,-10.09089723473,19.71104110411,2428036.5942895,6407.1772812823,2623423.8989277,24.91104110411,0,0
44.211250638706,-10.092277791057,19.715471547155,2428036.5942895,6407.1772812823,2623423.8989277,24.915471547155,0,0
44.211250895924,-10.093658347383,19.719901990199,2428036.5942895,6407.1772812823,2623423.8989277,24.919901990199,0,0
44.211251153142,-10.09503890371,19.724332433243,2428036.5942895,6407.1772812823,2623423.8989277,24.924332433243,0,0
44.211251410361,-10.096419460036,19.728762876288,2428036.5942895,6407.1772812823,2623423.8989277,24.928762876288,0,0
44.211251667579,-10.097800016363,19.733193319332,2428036.5942895,6407.1772812823,2623423.8989277,24.933193319332,0,0
44.211251924797,-10.099180572689,19.737623762376,2428036.5942895,6407.1772812823,2623423.8989277,24.937623762376,0,0
44.211252182015,-10.100561129016,19.742054205421,2428036.5942895,6407.1772812823,2623423.8989277,24.942054205421,0,0
44.211252439234,-10.101941685342,19.746484648465,2428036.5942895,6407.1772812823,2623423.8989277,24.946484648465,0,0
44.211252696452,-10.103322241669,19.750915091509,2428036.5942895,6407.1772812823,2623423.8989277,24.950915091509,0,0
44.21125295367,-10.104702797996,19.755345534553,2428036.5942895,6407.1772812823,2623423.8989277,24.955345534553,0,0
44.211253210888,-10.106083354322,19.759775977598,2428036.5942895,6407.1772812823,2623423.8989277,24.959775977598,0,0
44.211253468107,-10.107463910649,19.764206420642,2428036.5942895,6407.1772812823,2623423.8989277,24.964206420642,0,0
44.211253725325,-10.108844466975,19.768636863686,2428036.5942895,6407.1772812823,2623423.8989277,24.968636863686,0,0
44.211253982543,-10.110225023302,19.773067306731,2428036.5942895,6407.1772812823,2623423.8989277,24.973067306731,0,0
44.211254239762,-10.111605579628,19.777497749775,2428036.5942895,6407.1772812823,2623423.8989277,24.977497749775,0,0
44.21125449698,-10.112986135955,19.781928192819,2428036.5942895,6407.1772812823,2623423.8989277,24.981928192819,0,0
44.211254754198,-10.114366692282,19.786358635864,2428036.5942895,6407.1772812823,2623423.8989277,24.986358635864,0,0
44.211255011416,-10.115747248608,19.790789078908,2428036.5942895,6407.1772812823,2623423.8989277,24.990789078908,0,0
44.211255268635,-10.117127804935,19.795219521952,2428036.5942895,6407.1772812823,2623423.8989277,24.995219521952,0,0
44.211255525853,-10.118508361261,19.799649964996,2428036.5942895,6407.1772812823,2623423.8989277,24.999649964996,0,0
44.211255783071,-10.119888917588,19.804080408041,2428036.5942895,6407.1772812823,2623423.8989277,25.004080408041,0,0
44.211256040289,-10.121269473914,19.808510851085,2428036.5942895,6407.1772812823,2623423.8989277,25.008510851085,0,0
44.211256297508,-10.122650030241,19.812941294129,2428036.5942895,6407.1772812823,2623423.8989277,25.012941294129,0,0
44.211256554726,-10.124030586567,19.817371737174,2428036.5942895,6407.1772812823,2623423.8989277,25.017371737174,0,0
44.211256812075,-10.125411143307,19.821802180218,2429971.646461,1906.2405161207,2615058.5694536,25.021802180218,0,0
44.211257069671,-10.126791700821,19.826232623262,2429971.646461,1906.2405161207,2615058.5694536,25.026232623262,0,0
44.211257327266,-10.128172258335,19.830663066307,2429971.646461,1906.2405161207,2615058.5694536,25.030663066307,0,0
44.211257584862,-10.129552815849,19.835093509351,2429971.646461,1906.2405161207,2615058.5694536,25.035093509351,0,0
44.211257842458,-10.130933373363,19.839523952395,2429971.646461,1906.2405161207,2615058.5694536,25.039523952395,0,0
44.211258100053,-10.132313930877,19.84395439544,2429971.646461,1906.2405161207,2615058.5694536,25.04395439544,0,0
44.211258357649,-10.133694488391,19.848384838484,2429971.646461,1906.2405161207,2615058.5694536,25.048384838484,0,0
44.211258615244,-10.135075045905,19.852815281528,2429971.646461,1906.2405161207,2615058.5694536,25.052815281528,0,0
44.21125887284,-10.136455603419,19.857245724572,2429971.646461,1906.2405161207,2615058.5694536,25.057245724572,0,0
44.211259130435,-10.137836160933,19.861676167617,2429971.646461,1906.2405161207,2615058.5694536,25.061676167617,0,0
44.211259388031,-10.139216718446,19.866106610661,2429971.646461,1906.2405161207,2615058.5694536,25.066106610661,0,0
44.211259645626,-10.14059727596,19.870537053705,2429971.646461,1906.2405161207,2615058.5694536,25.070537053705,0,0
44.211259903222,-10.141977833474,19.87496749675,2429971.646461,1906.2405161207,2615058.5694536,25.07496749675,0,0
44.211260160818,-10.143358390988,19.879397939794,2429971.646461,1906.2405161207,2615058.5694536,25.079397939794,0,0
44.211260418413,-10.144738948502,19.883828382838,2429971.646461,1906.2405161207,2615058.5694536,25.083828382838,0,0
44.211260676009,-10.146119506016,19.888258825883,2429971.646461,1906.2405161207,2615058.5694536,25.088258825883,0,0
44.211260933604,-10.14750006353,19.892689268927,2429971.646461,1906.2405161207,2615058.5694536,25.092689268927,0,0
44.2112611912,-10.148880621044,19.897119711971,2429971.646461,1906.2405161207,2615058.5694536,25.097119711971,0,0
44.211261448795,-10.150261178558,19.901550155015,2429971.646461,1906.2405161207,2615058.5694536,25.101550155015,0,0
44.211261706391,-10.151641736072,19.90598059806,2429971.646461,1906.2405161207,2615058.5694536,25.10598059806,0,0
44.211261963986,-10.153022293586,19.910411041104,2429971.646461,1906.2405161207,2615058.5694536,25.110411041104,0,0
44.211262221582,-10.1544028511,19.914841484148,2429971.646461,1906.2405161207,2615058.5694536,25.114841484148,0,0
44.211262479178,-10.155783408614,19.919271927193,2429971.646461,1906.2405161207,2615058.5694536,25.119271927193,0,0
44.211262736773,-10.157163966128,19.923702370237,2429971.646461,1906.2405161207,2615058.5694536,25.123702370237,0,0
44.211262994369,-10.158544523642,19.928132813281,2429971.646461,1906.2405161207,2615058.5694536,25.128132813281,0,0
44.211263251964,-10.159925081156,19.932563256326,2429971.646461,1906.2405161207,2615058.5694536,25.132563256326,0,0
44.21126350956,-10.16130563867,19.93699369937,2429971.646461,1906.2405161207,2615058.5694536,25.13699369937,0,0
44.211263767155,-10.162686196184,19.941424142414,2429971.646461,1906.2405161207,2615058.5694536,25.141424142414,0,0
44.211264024751,-10.164066753698,19.945854585459,2429971.646461,1906.2405161207,2615058.5694536,25.145854585459,0,0
44.211264282346,-10.165447311212,19.950285028503,2429971.646461,1906.2405161207,2615058.5694536,25.150285028503,0,0
44.211264539942,-10.166827868726,19.954715471547,2429971.646461,1906.2405161207,2615058.5694536,25.154715471547,0,0
44.211264797538,-10.16820842624,19.959145914591,2429971.646461,1906.2405161207,2615058.5694536,25.159145914591,0,0
44.211265055133,-10.169588983753,19.963576357636,2429971.646461,1906.2405161207,2615058.5694536,25.163576357636,0,0
44.211265312729,-10.170969541267,19.96800680068,2429971.646461,1906.2405161207,2615058.5694536,25.16800680068,0,0
44.211265570324,-10.172350098781,19.972437243724,2429971.646461,1906.2405161207,2615058.5694536,25.172437243724,0,0
44.21126582792,-10.173730656295,19.976867686769,2429971.646461,1906.2405161207,2615058.5694536,25.176867686769,0,0
44.211266085515,-10.175111213809,19.981298129813,2429971.646461,1906.2405161207,2615058.5694536,25.181298129813,0,0
44.211266343111,-10.176491771323,19.985728572857,2429971.646461,1906.2405161207,2615058.5694536,25.185728572857,0,0
44.211266600706,-10.177872328837,19.990159015902,2429971.646461,1906.2405161207,2615058.5694536,25.190159015902,0,0
44.211266858302,-10.179252886351,19.994589458946,2429971.646461,1906.2405161207,2615058.5694536,25.194589458946,0,0
44.211267115897,-10.180633443865,19.99901990199,2429971.646461,1906.2405161207,2615058.5694536,25.19901990199,0,0
44.211267373493,-10.182014001379,20.003450345035,2429971.646461,1906.2405161207,2615058.5694536,25.203450345035,0,0
44.211267631089,-10.183394558893,20.007880788079,2429971.646461,1906.2405161207,2615058.5694536,25.207880788079,0,0
44.211267888684,-10.184775116407,20.012311231123,2429971.646461,1906.2405161207,2615058.5694536,25.212311231123,0,0
44.21126814628,-10.186155673921,20.016741674167,2429971.646461,1906.2405161207,2615058.5694536,25.216741674167,0,0
44.211268403875,-10.187536231435,20.021172117212,2429971.646461,1906.2405161207,2615058.5694536,25.221172117212,0,0
44.211268661471,-10.188916788949,20.025602560256,2429971.646461,1906.2405161207,2615058.5694536,25.225602560256,0,0
44.211268919066,-10.190297346463,20.0300330033,2429971.646461,1906.2405161207,2615058.5694536,25.2300330033,0,0
44.211269176662,-10.191677903977,20.034463446345,2429971.646461,1906.2405161207,2615058.5694536,25.234463446345,0,0
44.211269434257,-10.193058461491,20.038893889389,2429971.646461,1906.2405161207,2615058.5694536,25.238893889389,0,0
44.211269691853,-10.194439019005,20.043324332433,2429971.646461,1906.2405161207,2615058.5694536,25.243324332433,0,0
44.211269949449,-10.195819576519,20.047754775478,2429971.646461,1906.2405161207,2615058.5694536,25.247754775478,0,0
44.211270207044,-10.197200134033,20.052185218522,2429971.646461,1906.2405161207,2615058.5694536,25.252185218522,0,0
44.21127046464,-10.198580691546,20.056615661566,2429971.646461,1906.2405161207,2615058.5694536,25.256615661566,0,0
44.211270722235,-10.19996124906,20.06104610461,2429971.646461,1906.2405161207,2615058.5694536,25.26104610461,0,0
44.211270979831,-10.201341806574,20.065476547655,2429971.646461,1906.2405161207,2615058.5694536,25.265476547655,0,0
44.211271237426,-10.202722364088,20.069906990699,2429971.646461,1906.2405161207,2615058.5694536,25.269906990699,0,0
44.211271495022,-10.204102921602,20.074337433743,2429971.646461,1906.2405161207,2615058.5694536,25.274337433743,0,0
44.211271752617,-10.205483479116,20.078767876788,2429971.646461,1906.2405161207,2615058.5694536,25.278767876788,0,0
44.211272010213,-10.20686403663,20.083198319832,2429971.646461,1906.2405161207,2615058.5694536,25.283198319832,0,0
44.211272267809,-10.208244594144,20.087628762876,2429971.646461,1906.2405161207,2615058.5694536,25.287628762876,0,0
44.211272525404,-10.209625151658,20.092059205921,2429971.646461,1906.2405161207,2615058.5694536,25.292059205921,0,0
44.211272783,-10.211005709172,20.096489648965,2429971.646461,1906.2405161207,2615058.5694536,25.296489648965,0,0
44.211273040595,-10.212386266686,20.100920092009,2429971.646461,1906.2405161207,2615058.5694536,25.300920092009,0,0
44.211273298191,-10.2137668242,20.105350535054,2429971.646461,1906.2405161207,2615058.5694536,25.305350535054,0,0
44.211273555786,-10.215147381714,20.109780978098,2429971.646461,1906.2405161207,2615058.5694536,25.309780978098,0,0
44.211273813382,-10.216527939228,20.114211421142,2429971.646461,1906.2405161207,2615058.5694536,25.314211421142,0,0
44.211274070977,-10.217908496742,20.118641864186,2429971.646461,1906.2405161207,2615058.5694536,25.318641864186,0,0
44.211274328573,-10.219289054256,20.123072307231,2429971.646461,1906.2405161207,2615058.5694536,25.323072307231,0,0
44.211274586169,-10.22066961177,20.127502750275,2429971.646461,1906.2405161207,2615058.5694536,25.327502750275,0,0
44.211274843764,-10.222050169284,20.131933193319,2429971.646461,1906.2405161207,2615058.5694536,25.331933193319,0,0
44.21127510136,-10.223430726798,20.136363636364,2429971.646461,1906.2405161207,2615058.5694536,25.336363636364,0,0
44.211275358955,-10.224811284312,20.140794079408,2429971.646461,1906.2405161207,2615058.5694536,25.340794079408,0,0
44.211275616551,-10.226191841826,20.145224522452,2429971.646461,1906.2405161207,2615058.5694536,25.345224522452,0,0
44.211275874146,-10.22757239934,20.149654965497,2429971.646461,1906.2405161207,2615058.5694536,25.349654965497,0,0
44.211276131742,-10.228952956853,20.154085408541,2429971.646461,1906.2405161207,2615058.5694536,25.354085408541,0,0
44.211276389337,-10.230333514367,20.158515851585,2429971.646461,1906.2405161207,2615058.5694536,25.358515851585,0,0
44.211276646933,-10.231714071881,20.162946294629,2429971.646461,1906.2405161207,2615058.5694536,25.362946294629,0,0
44.211276904529,-10.233094629395,20.167376737674,2429971.646461,1906.2405161207,2615058.5694536,25.367376737674,0,0
44.211277162124,-10.234475186909,20.171807180718,2429971.646461,1906.2405161207,2615058.5694536,25.371807180718,0,0
44.21127741972,-10.235855744423,20.176237623762,2429971.646461,1906.2405161207,2615058.5694536,25.376237623762,0,0
44.211277677315,-10.237236301937,20.180668066807,2429971.646461,1906.2405161207,2615058.5694536,25.380668066807,0,0
44.211277934911,-10.238616859451,20.185098509851,2429971.646461,1906.2405161207,2615058.5694536,25.385098509851,0,0
44.211278192506,-10.239997416965,20.189528952895,2429971.646461,1906.2405161207,2615058.5694536,25.389528952895,0,0
44.211278450102,-10.241377974479,20.19395939594,2429971.646461,1906.2405161207,2615058.5694536,25.39395939594,0,0
44.211278707697,-10.242758531993,20.198389838984,2429971.646461,1906.2405161207,2615058.5694536,25.398389838984,0,0
44.211278965293,-10.244139089507,20.202820282028,2429971.646461,1906.2405161207,2615058.5694536,25.402820282028,0,0
44.211279222888,-10.245519647021,20.207250725073,2429971.646461,1906.2405161207,2615058.5694536,25.407250725073,0,0
44.211279480484,-10.246900204535,20.211681168117,2429971.646461,1906.2405161207,2615058.5694536,25.411681168117,0,0
44.21127973808,-10.248280762049,20.216111611161,2429971.646461,1906.2405161207,2615058.5694536,25.416111611161,0,0
44.211279995675,-10.249661319563,20.220542054205,2429971.646461,1906.2405161207,2615058.5694536,25.420542054205,0,0
44.211280253271,-10.251041877077,20.22497249725,2429971.646461,1906.2405161207,2615058.5694536,25.42497249725,0,0
44.211280510866,-10.252422434591,20.229402940294,2429971.646461,1906.2405161207,2615058.5694536,25.429402940294,0,0
44.211280768462,-10.253802992105,20.233833383338,2429971.646461,1906.2405161207,2615058.5694536,25.433833383338,0,0
44.211281026057,-10.255183549619,20.238263826383,2429971.646461,1906.2405161207,2615058.5694536,25.438263826383,0,0
44.211281283653,-10.256564107133,20.242694269427,2429971.646461,1906.2405161207,2615058.5694536,25.442694269427,0,0
44.211281541248,-10.257944664647,20.247124712471,2429971.646461,1906.2405161207,2615058.5694536,25.447124712471,0,0
44.211281798844,-10.25932522216,20.251555155516,2429971.646461,1906.2405161207,2615058.5694536,25.451555155516,0,0
44.21128205644,-10.260705779674,20.25598559856,2429971.646461,1906.2405161207,2615058.5694536,25.45598559856,0,0
44.211282314035,-10.262086337188,20.260416041604,2429971.646461,1906.2405161207,2615058.5694536,25.460416041604,0,0
44.211282571631,-10.263466894702,20.264846484648,2429971.646461,1906.2405161207,2615058.5694536,25.464846484648,0,0
44.211282829226,-10.264847452216,20.269276927693,2429971.646461,1906.2405161207,2615058.5694536,25.469276927693,0,0
44.211283086822,-10.26622800973,20.273707370737,2429971.646461,1906.2405161207,2615058.5694536,25.473707370737,0,0
44.211283344417,-10.267608567244,20.278137813781,2429971.646461,1906.2405161207,2615058.5694536,25.478137813781,0,0
44.211283602013,-10.268989124758,20.282568256826,2429971.646461,1906.2405161207,2615058.5694536,25.482568256826,0,0
44.211283859608,-10.270369682272,20.28699869987,2429971.646461,1906.2405161207,2615058.5694536,25.48699869987,0,0
44.211284117204,-10.271750239786,20.291429142914,2429971.646461,1906.2405161207,2615058.5694536,25.491429142914,0,0
44.2112843748,-10.2731307973,20.295859585959,2429971.646461,1906.2405161207,2615058.5694536,25.495859585959,0,0
44.211284632395,-10.274511354814,20.300290029003,2429971.646461,1906.2405161207,2615058.5694536,25.500290029003,0,0
44.211284889991,-10.275891912328,20.304720472047,2429971.646461,1906.2405161207,2615058.5694536,25.504720472047,0,0
44.211285147586,-10.277272469842,20.309150915092,2429971.646461,1906.2405161207,2615058.5694536,25.509150915092,0,0
44.211285405182,-10.278653027356,20.313581358136,2429971.646461,1906.2405161207,2615058.5694536,25.513581358136,0,0
44.211285662777,-10.28003358487,20.31801180118,2429971.646461,1906.2405161207,2615058.5694536,25.51801180118,0,0
44.211285920373,-10.281414142384,20.322442244224,2429971.646461,1906.2405161207,2615058.5694536,25.522442244224,0,0
44.211286177968,-10.282794699898,20.326872687269,2429971.646461,1906.2405161207,2615058.5694536,25.526872687269,0,0
44.211286435564,-10.284175257412,20.331303130313,2429971.646461,1906.2405161207,2615058.5694536,25.531303130313,0,0
44.21128669316,-10.285555814926,20.335733573357,2429971.646461,1906.2405161207,2615058.5694536,25.535733573357,0,0
44.211286950755,-10.28693637244,20.340164016402,2429971.646461,1906.2405161207,2615058.5694536,25.540164016402,0,0
44.211287208351,-10.288316929953,20.344594459446,2429971.646461,1906.2405161207,2615058.5694536,25.544594459446,0,0
44.211287465946,-10.289697487467,20.34902490249,2429971.646461,1906.2405161207,2615058.5694536,25.54902490249,0,0
44.211287723542,-10.291078044981,20.353455345535,2429971.646461,1906.2405161207,2615058.5694536,25.553455345535,0,0
44.211287981137,-10.292458602495,20.357885788579,2429971.646461,1906.2405161207,2615058.5694536,25.557885788579,0,0
44.211288238733,-10.293839160009,20.362316231623,2429971.646461,1906.2405161207,2615058.5694536,25.562316231623,0,0
44.211288496328,-10.295219717523,20.366746674667,2429971.646461,1906.2405161207,2615058.5694536,25.566746674667,0,0
44.211288753924,-10.296600275037,20.371177117712,2429971.646461,1906.2405161207,2615058.5694536,25.571177117712,0,0
44.21128901152,-10.297980832551,20.375607560756,2429971.646461,1906.2405161207,2615058.5694536,25.575607560756,0,0
44.211289269115,-10.299361390065,20.3800380038,2429971.646461,1906.2405161207,2615058.5694536,25.5800380038,0,0
44.211289526711,-10.300741947579,20.384468446845,2429971.646461,1906.2405161207,2615058.5694536,25.584468446845,0,0
44.211289784306,-10.302122505093,20.388898889889,2429971.646461,1906.2405161207,2615058.5694536,25.588898889889,0,0
44.211290041902,-10.303503062607,20.393329332933,2429971.646461,1906.2405161207,2615058.5694536,25.593329332933,0,0
44.211290299497,-10.304883620121,20.397759775978,2429971.646461,1906.2405161207,2615058.5694536,25.597759775978,0,0
44.211290557093,-10.306264177635,20.402190219022,2429971.646461,1906.2405161207,2615058.5694536,25.602190219022,0,0
44.211290814688,-10.307644735149,20.406620662066,2429971.646461,1906.2405161207,2615058.5694536,25.606620662066,0,0
44.211291072284,-10.309025292663,20.411051105111,2429971.646461,1906.2405161207,2615058.5694536,25.611051105111,0,0
44.21129132988,-10.310405850177,20.415481548155,2429971.646461,1906.2405161207,2615058.5694536,25.615481548155,0,0
44.211291587475,-10.311786407691,20.419911991199,2429971.646461,1906.2405161207,2615058.5694536,25.619911991199,0,0
44.211291845071,-10.313166965205,20.424342434243,2429971.646461,1906.2405161207,2615058.5694536,25.624342434243,0,0
44.211292102666,-10.314547522719,20.428772877288,2429971.646461,1906.2405161207,2615058.5694536,25.628772877288,0,0
44.211292360262,-10.315928080233,20.433203320332,2429971.646461,1906.2405161207,2615058.5694536,25.633203320332,0,0
44.211292617857,-10.317308637747,20.437633763376,2429971.646461,1906.2405161207,2615058.5694536,25.637633763376,0,0
44.211292875453,-10.31868919526,20.442064206421,2429971.646461,1906.2405161207,2615058.5694536,25.642064206421,0,0
44.211293133048,-10.320069752774,20.446494649465,2429971.646461,1906.2405161207,2615058.5694536,25.646494649465,0,0
44.211293390644,-10.321450310288,20.450925092509,2429971.646461,1906.2405161207,2615058.5694536,25.650925092509,0,0
44.211293648239,-10.322830867802,20.455355535554,2429971.646461,1906.2405161207,2615058.5694536,25.655355535554,0,0
44.211293905835,-10.324211425316,20.459785978598,2429971.646461,1906.2405161207,2615058.5694536,25.659785978598,0,0
44.211294163431,-10.32559198283,20.464216421642,2429971.646461,1906.2405161207,2615058.5694536,25.664216421642,0,0
44.211294421026,-10.326972540344,20.468646864686,2429971.646461,1906.2405161207,2615058.5694536,25.668646864686,0,0
44.211294678622,-10.328353097858,20.473077307731,2429971.646461,1906.2405161207,2615058.5694536,25.673077307731,0,0
44.211294936217,-10.329733655372,20.477507750775,2429971.646461,1906.2405161207,2615058.5694536,25.677507750775,0,0
44.211295193813,-10.331114212886,20.481938193819,2429971.646461,1906.2405161207,2615058.5694536,25.681938193819,0,0
44.211295451408,-10.3324947704,20.486368636864,2429971.646461,1906.2405161207,2615058.5694536,25.686368636864,0,0
44.211295709004,-10.333875327914,20.490799079908,2429971.646461,1906.2405161207,2615058.5694536,25.690799079908,0,0
44.211295966599,-10.335255885428,20.495229522952,2429971.646461,1906.2405161207,2615058.5694536,25.695229522952,0,0
44.211296224195,-10.336636442942,20.499659965997,2429971.646461,1906.2405161207,2615058.5694536,25.699659965997,0,0
44.211296481791,-10.338017000456,20.504090409041,2429971.646461,1906.2405161207,2615058.5694536,25.704090409041,0,0
44.211296739386,-10.33939755797,20.508520852085,2429971.646461,1906.2405161207,2615058.5694536,25.708520852085,0,0
44.211296996982,-10.340778115484,20.51295129513,2429971.646461,1906.2405161207,2615058.5694536,25.71295129513,0,0
44.211297254577,-10.342158672998,20.517381738174,2429971.646461,1906.2405161207,2615058.5694536,25.717381738174,0,0
44.211297512173,-10.343539230512,20.521812181218,2429971.646461,1906.2405161207,2615058.5694536,25.721812181218,0,0
44.211297769768,-10.344919788026,20.526242624262,2429971.646461,1906.2405161207,2615058.5694536,25.726242624262,0,0
44.211298027364,-10.34630034554,20.530673067307,2429971.646461,1906.2405161207,2615058.5694536,25.730673067307,0,0
44.211298284959,-10.347680903054,20.535103510351,2429971.646461,1906.2405161207,2615058.5694536,25.735103510351,0,0
44.211298542555,-10.349061460567,20.539533953395,2429971.646461,1906.2405161207,2615058.5694536,25.739533953395,0,0
44.211298800151,-10.350442018081,20.54396439644,2429971.646461,1906.2405161207,2615058.5694536,25.74396439644,0,0
44.211299057746,-10.351822575595,20.548394839484,2429971.646461,1906.2405161207,2615058.5694536,25.748394839484,0,0
44.211299315342,-10.353203133109,20.552825282528,2429971.646461,1906.2405161207,2615058.5694536,25.752825282528,0,0
44.211299572937,-10.354583690623,20.557255725573,2429971.646461,1906.2405161207,2615058.5694536,25.757255725573,0,0
44.211299830533,-10.355964248137,20.561686168617,2429971.646461,1906.2405161207,2615058.5694536,25.761686168617,0,0
44.211300088128,-10.357344805651,20.566116611661,2429971.646461,1906.2405161207,2615058.5694536,25.766116611661,0,0
44.211300345724,-10.358725363165,20.570547054705,2429971.646461,1906.2405161207,2615058.5694536,25.770547054705,0,0
44.211300603319,-10.360105920679,20.57497749775,2429971.646461,1906.2405161207,2615058.5694536,25.77497749775,0,0
44.211300860915,-10.361486478193,20.579407940794,2429971.646461,1906.2405161207,2615058.5694536,25.779407940794,0,0
44.211301118511,-10.362867035707,20.583838383838,2429971.646461,1906.2405161207,2615058.5694536,25.783838383838,0,0
44.211301376106,-10.364247593221,20.588268826883,2429971.646461,1906.2405161207,2615058.5694536,25.788268826883,0,0
44.211301633702,-10.365628150735,20.592699269927,2429971.646461,1906.2405161207,2615058.5694536,25.792699269927,0,0
44.211301891297,-10.367008708249,20.597129712971,2429971.646461,1906.2405161207,2615058.5694536,25.797129712971,0,0
44.211302148893,-10.368389265763,20.601560156016,2429971.646461,1906.2405161207,2615058.5694536,25.801560156016,0,0
44.211302406488,-10.369769823277,20.60599059906,2429971.646461,1906.2405161207,2615058.5694536,25.80599059906,0,0
44.211302664084,-10.371150380791,20.610421042104,2429971.646461,1906.2405161207,2615058.5694536,25.810421042104,0,0
44.211302921679,-10.372530938305,20.614851485149,2429971.646461,1906.2405161207,2615058.5694536,25.814851485149,0,0
44.211303179275,-10.373911495819,20.619281928193,2429971.646461,1906.2405161207,2615058.5694536,25.819281928193,0,0
44.211303436871,-10.375292053333,20.623712371237,2429971.646461,1906.2405161207,2615058.5694536,25.823712371237,0,0
44.211303694466,-10.376672610847,20.628142814281,2429971.646461,1906.2405161207,2615058.5694536,25.828142814281,0,0
44.211303952062,-10.37805316836,20.632573257326,2429971.646461,1906.2405161207,2615058.5694536,25.832573257326,0,0
44.211304209657,-10.379433725874,20.63700370037,2429971.646461,1906.2405161207,2615058.5694536,25.83700370037,0,0
44.211304467253,-10.380814283388,20.641434143414,2429971.646461,1906.2405161207,2615058.5694536,25.841434143414,0,0
44.211304724848,-10.382194840902,20.645864586459,2429971.646461,1906.2405161207,2615058.5694536,25.845864586459,0,0
44.211304982444,-10.383575398416,20.650295029503,2429971.646461,1906.2405161207,2615058.5694536,25.850295029503,0,0
44.211305240039,-10.38495595593,20.654725472547,2429971.646461,1906.2405161207,2615058.5694536,25.854725472547,0,0
44.211305497635,-10.386336513444,20.659155915592,2429971.646461,1906.2405161207,2615058.5694536,25.859155915592,0,0
44.211305755231,-10.387717070958,20.663586358636,2429971.646461,1906.2405161207,2615058.5694536,25.863586358636,0,0
44.211306012826,-10.389097628472,20.66801680168,2429971.646461,1906.2405161207,2615058.5694536,25.86801680168,0,0
44.211306270422,-10.390478185986,20.672447244724,2429971.646461,1906.2405161207,2615058.5694536,25.872447244724,0,0
44.211306528017,-10.3918587435,20.676877687769,2429971.646461,1906.2405161207,2615058.5694536,25.876877687769,0,0
44.211306785613,-10.393239301014,20.681308130813,2429971.646461,1906.2405161207,2615058.5694536,25.881308130813,0,0
44.211307043208,-10.394619858528,20.685738573857,2429971.646461,1906.2405161207,2615058.5694536,25.885738573857,0,0
44.211307300804,-10.396000416042,20.690169016902,2429971.646461,1906.2405161207,2615058.5694536,25.890169016902,0,0
44.211307558399,-10.397380973556,20.694599459946,2429971.646461,1906.2405161207,2615058.5694536,25.894599459946,0,0
44.211307815995,-10.39876153107,20.69902990299,2429971.646461,1906.2405161207,2615058.5694536,25.89902990299,0,0
44.21130807359,-10.400142088584,20.703460346035,2429971.646461,1906.2405161207,2615058.5694536,25.903460346035,0,0
44.211308331186,-10.401522646098,20.707890789079,2429971.646461,1906.2405161207,2615058.5694536,25.907890789079,0,0
44.211308588782,-10.402903203612,20.712321232123,2429971.646461,1906.2405161207,2615058.5694536,25.912321232123,0,0
44.211308846377,-10.404283761126,20.716751675168,2429971.646461,1906.2405161207,2615058.5694536,25.916751675168,0,0
44.211309103973,-10.40566431864,20.721182118212,2429971.646461,1906.2405161207,2615058.5694536,25.921182118212,0,0
44.211309361568,-10.407044876154,20.725612561256,2429971.646461,1906.2405161207,2615058.5694536,25.925612561256,0,0
44.211309619164,-10.408425433667,20.7300430043,2429971.646461,1906.2405161207,2615058.5694536,25.9300430043,0,0
44.211309876759,-10.409805991181,20.734473447345,2429971.646461,1906.2405161207,2615058.5694536,25.934473447345,0,0
44.211310134355,-10.411186548695,20.738903890389,2429971.646461,1906.2405161207,2615058.5694536,25.938903890389,0,0
44.21131039195,-10.412567106209,20.743334333433,2429971.646461,1906.2405161207,2615058.5694536,25.943334333433,0,0
44.211310649546,-10.413947663723,20.747764776478,2429971.646461,1906.2405161207,2615058.5694536,25.947764776478,0,0
44.211310907142,-10.415328221237,20.752195219522,2429971.646461,1906.2405161207,2615058.5694536,25.952195219522,0,0
44.211311164737,-10.416708778751,20.756625662566,2429971.646461,1906.2405161207,2615058.5694536,25.956625662566,0,0
44.211311422333,-10.418089336265,20.761056105611,2429971.646461,1906.2405161207,2615058.5694536,25.961056105611,0,0
44.211311679928,-10.419469893779,20.765486548655,2429971.646461,1906.2405161207,2615058.5694536,25.965486548655,0,0
44.211311937524,-10.420850451293,20.769916991699,2429971.646461,1906.2405161207,2615058.5694536,25.969916991699,0,0
44.211312195119,-10.422231008807,20.774347434743,2429971.646461,1906.2405161207,2615058.5694536,25.974347434743,0,0
44.211312452715,-10.423611566321,20.778777877788,2429971.646461,1906.2405161207,2615058.5694536,25.978777877788,0,0
44.21131271031,-10.424992123835,20.783208320832,2429971.646461,1906.2405161207,2615058.5694536,25.983208320832,0,0
44.211312967906,-10.426372681349,20.787638763876,2429971.646461,1906.2405161207,2615058.5694536,25.987638763876,0,0
44.211313225502,-10.427753238863,20.792069206921,2429971.646461,1906.2405161207,2615058.5694536,25.992069206921,0,0
44.211313483097,-10.429133796377,20.796499649965,2429971.646461,1906.2405161207,2615058.5694536,25.996499649965,0,0
44.211313740693,-10.430514353891,20.800930093009,2429971.646461,1906.2405161207,2615058.5694536,26.000930093009,0,0
44.211313998288,-10.431894911405,20.805360536054,2429971.646461,1906.2405161207,2615058.5694536,26.005360536054,0,0
44.211314255884,-10.433275468919,20.809790979098,2429971.646461,1906.2405161207,2615058.5694536,26.009790979098,0,0
44.211314513479,-10.434656026433,20.814221422142,2429971.646461,1906.2405161207,2615058.5694536,26.014221422142,0,0
44.211314771075,-10.436036583947,20.818651865187,2429971.646461,1906.2405161207,2615058.5694536,26.018651865187,0,0
44.21131502867,-10.437417141461,20.823082308231,2429971.646461,1906.2405161207,2615058.5694536,26.023082308231,0,0
44.211315286266,-10.438797698974,20.827512751275,2429971.646461,1906.2405161207,2615058.5694536,26.027512751275,0,0
44.211315543862,-10.440178256488,20.831943194319,2429971.646461,1906.2405161207,2615058.5694536,26.031943194319,0,0
44.211315801457,-10.441558814002,20.836373637364,2429971.646461,1906.2405161207,2615058.5694536,26.036373637364,0,0
44.211316059053,-10.442939371516,20.840804080408,2429971.646461,1906.2405161207,2615058.5694536,26.040804080408,0,0
44.211316316648,-10.44431992903,20.845234523452,2429971.646461,1906.2405161207,2615058.5694536,26.045234523452,0,0
44.211316574244,-10.445700486544,20.849664966497,2429971.646461,1906.2405161207,2615058.5694536,26.049664966497,0,0
44.211316831839,-10.447081044058,20.854095409541,2429971.646461,1906.2405161207,2615058.5694536,26.054095409541,0,0
44.211317089435,-10.448461601572,20.858525852585,2429971.646461,1906.2405161207,2615058.5694536,26.058525852585,0,0
44.21131734703,-10.449842159086,20.86295629563,2429971.646461,1906.2405161207,2615058.5694536,26.06295629563,0,0
44.211317604626,-10.4512227166,20.867386738674,2429971.646461,1906.2405161207,2615058.5694536,26.067386738674,0,0
44.211317862222,-10.452603274114,20.871817181718,2429971.646461,1906.2405161207,2615058.5694536,26.071817181718,0,0
44.211318119817,-10.453983831628,20.876247624762,2429971.646461,1906.2405161207,2615058.5694536,26.076247624762,0,0
44.211318377413,-10.455364389142,20.880678067807,2429971.646461,1906.2405161207,2615058.5694536,26.080678067807,0,0
44.211318635008,-10.456744946656,20.885108510851,2429971.646461,1906.2405161207,2615058.5694536,26.085108510851,0,0
44.211318892604,-10.45812550417,20.889538953895,2429971.646461,1906.2405161207,2615058.5694536,26.089538953895,0,0
44.211319150199,-10.459506061684,20.89396939694,2429971.646461,1906.2405161207,2615058.5694536,26.09396939694,0,0
44.211319407795,-10.460886619198,20.898399839984,2429971.646461,1906.2405161207,2615058.5694536,26.098399839984,0,0
44.21131966539,-10.462267176712,20.902830283028,2429971.646461,1906.2405161207,2615058.5694536,26.102830283028,0,0
44.211319922986,-10.463647734226,20.907260726073,2429971.646461,1906.2405161207,2615058.5694536,26.107260726073,0,0
44.211320180582,-10.46502829174,20.911691169117,2429971.646461,1906.2405161207,2615058.5694536,26.111691169117,0,0
44.211320438177,-10.466408849254,20.916121612161,2429971.646461,1906.2405161207,2615058.5694536,26.116121612161,0,0
44.211320695773,-10.467789406767,20.920552055206,2429971.646461,1906.2405161207,2615058.5694536,26.120552055206,0,0
44.211320953368,-10.469169964281,20.92498249825,2429971.646461,1906.2405161207,2615058.5694536,26.12498249825,0,0
44.211321210964,-10.470550521795,20.929412941294,2429971.646461,1906.2405161207,2615058.5694536,26.129412941294,0,0
44.211321468559,-10.471931079309,20.933843384338,2429971.646461,1906.2405161207,2615058.5694536,26.133843384338,0,0
44.211321726155,-10.473311636823,20.938273827383,2429971.646461,1906.2405161207,2615058.5694536,26.138273827383,0,0
44.21132198375,-10.474692194337,20.942704270427,2429971.646461,1906.2405161207,2615058.5694536,26.142704270427,0,0
44.211322241346,-10.476072751851,20.947134713471,2429971.646461,1906.2405161207,2615058.5694536,26.147134713471,0,0
44.211322498941,-10.477453309365,20.951565156516,2429971.646461,1906.2405161207,2615058.5694536,26.151565156516,0,0
44.211322756537,-10.478833866879,20.95599559956,2429971.646461,1906.2405161207,2615058.5694536,26.15599559956,0,0
44.211323014133,-10.480214424393,20.960426042604,2429971.646461,1906.2405161207,2615058.5694536,26.160426042604,0,0
44.211323271728,-10.481594981907,20.964856485649,2429971.646461,1906.2405161207,2615058.5694536,26.164856485649,0,0
44.211323529324,-10.482975539421,20.969286928693,2429971.646461,1906.2405161207,2615058.5694536,26.169286928693,0,0
44.211323786919,-10.484356096935,20.973717371737,2429971.646461,1906.2405161207,2615058.5694536,26.173717371737,0,0
44.211324044515,-10.485736654449,20.978147814781,2429971.646461,1906.2405161207,2615058.5694536,26.178147814781,0,0
44.211324302118,-10.487117211951,20.982578257826,2437554.1389537,5781.8110067841,2612642.1427028,26.182578257826,0,0
44.211324560384,-10.488497768392,20.98700870087,2437554.1389537,5781.8110067841,2612642.1427028,26.18700870087,0,0
44.211324818649,-10.489878324834,20.991439143914,2437554.1389537,5781.8110067841,2612642.1427028,26.191439143914,0,0
44.211325076915,-10.491258881276,20.995869586959,2437554.1389537,5781.8110067841,2612642.1427028,26.195869586959,0,0
44.21132533518,-10.492639437717,21.000300030003,2437554.1389537,5781.8110067841,2612642.1427028,26.200300030003,0,0
44.211325593446,-10.494019994159,21.004730473047,2437554.1389537,5781.8110067841,2612642.1427028,26.204730473047,0,0
44.211325851711,-10.495400550601,21.009160916092,2437554.1389537,5781.8110067841,2612642.1427028,26.209160916092,0,0
44.211326109977,-10.496781107043,21.013591359136,2437554.1389537,5781.8110067841,2612642.1427028,26.213591359136,0,0
44.211326368242,-10.498161663484,21.01802180218,2437554.1389537,5781.8110067841,2612642.1427028,26.21802180218,0,0
44.211326626508,-10.499542219926,21.022452245225,2437554.1389537,5781.8110067841,2612642.1427028,26.222452245225,0,0
44.211326884773,-10.500922776368,21.026882688269,2437554.1389537,5781.8110067841,2612642.1427028,26.226882688269,0,0
44.211327143039,-10.502303332809,21.031313131313,2437554.1389537,5781.8110067841,2612642.1427028,26.231313131313,0,0
44.211327401305,-10.503683889251,21.035743574357,2437554.1389537,5781.8110067841,2612642.1427028,26.235743574357,0,0
44.21132765957,-10.505064445693,21.040174017402,2437554.1389537,5781.8110067841,2612642.1427028,26.240174017402,0,0
44.211327917836,-10.506445002134,21.044604460446,2437554.1389537,5781.8110067841,2612642.1427028,26.244604460446,0,0
44.211328176101,-10.507825558576,21.04903490349,2437554.1389537,5781.8110067841,2612642.1427028,26.24903490349,0,0
44.211328434367,-10.509206115018,21.053465346535,2437554.1389537,5781.8110067841,2612642.1427028,26.253465346535,0,0
44.211328692632,-10.51058667146,21.057895789579,2437554.1389537,5781.8110067841,2612642.1427028,26.257895789579,0,0
44.211328950898,-10.511967227901,21.062326232623,2437554.1389537,5781.8110067841,2612642.1427028,26.262326232623,0,0
44.211329209163,-10.513347784343,21.066756675668,2437554.1389537,5781.8110067841,2612642.1427028,26.266756675668,0,0
44.211329467429,-10.514728340785,21.071187118712,2437554.1389537,5781.8110067841,2612642.1427028,26.271187118712,0,0
44.211329725695,-10.516108897226,21.075617561756,2437554.1389537,5781.8110067841,2612642.1427028,26.275617561756,0,0
44.21132998396,-10.517489453668,21.0800480048,2437554.1389537,5781.8110067841,2612642.1427028,26.2800480048,0,0
44.211330242226,-10.51887001011,21.084478447845,2437554.1389537,5781.8110067841,2612642.1427028,26.284478447845,0,0
44.211330500491,-10.520250566551,21.088908890889,2437554.1389537,5781.8110067841,2612642.1427028,26.288908890889,0,0
44.211330758757,-10.521631122993,21.093339333933,2437554.1389537,5781.8110067841,2612642.1427028,26.293339333933,0,0
44.211331017022,-10.523011679435,21.097769776978,2437554.1389537,5781.8110067841,2612642.1427028,26.297769776978,0,0
44.211331275288,-10.524392235877,21.102200220022,2437554.1389537,5781.8110067841,2612642.1427028,26.302200220022,0,0
44.211331533553,-10.525772792318,21.106630663066,2437554.1389537,5781.8110067841,2612642.1427028,26.306630663066,0,0
44.211331791819,-10.52715334876,21.111061106111,2437554.1389537,5781.8110067841,2612642.1427028,26.311061106111,0,0
44.211332050084,-10.528533905202,21.115491549155,2437554.1389537,5781.8110067841,2612642.1427028,26.315491549155,0,0
44.21133230835,-10.529914461643,21.119921992199,2437554.1389537,5781.8110067841,2612642.1427028,26.319921992199,0,0
44.211332566616,-10.531295018085,21.124352435244,2437554.1389537,5781.8110067841,2612642.1427028,26.324352435244,0,0
44.211332824881,-10.532675574527,21.128782878288,2437554.1389537,5781.8110067841,2612642.1427028,26.328782878288,0,0
44.211333083147,-10.534056130968,21.133213321332,2437554.1389537,5781.8110067841,2612642.1427028,26.333213321332,0,0
44.211333341412,-10.53543668741,21.137643764376,2437554.1389537,5781.8110067841,2612642.1427028,26.337643764376,0,0
44.211333599678,-10.536817243852,21.142074207421,2437554.1389537,5781.8110067841,2612642.1427028,26.342074207421,0,0
44.211333857943,-10.538197800293,21.146504650465,2437554.1389537,5781.8110067841,2612642.1427028,26.346504650465,0,0
44.211334116209,-10.539578356735,21.150935093509,2437554.1389537,5781.8110067841,2612642.1427028,26.350935093509,0,0
44.211334374474,-10.540958913177,21.155365536554,2437554.1389537,5781.8110067841,2612642.1427028,26.355365536554,0,0
44.21133463274,-10.542339469619,21.159795979598,2437554.1389537,5781.8110067841,2612642.1427028,26.359795979598,0,0
44.211334891005,-10.54372002606,21.164226422642,2437554.1389537,5781.8110067841,2612642.1427028,26.364226422642,0,0
44.211335149563,-10.545100583246,21.168656865687,2440361.90989,2018.1323925072,2605559.3571302,26.368656865687,0,0
44.211335408241,-10.546481140741,21.173087308731,2440361.90989,2018.1323925072,2605559.3571302,26.373087308731,0,0
44.21133566692,-10.547861698236,21.177517751775,2440361.90989,2018.1323925072,2605559.3571302,26.377517751775,0,0
44.211335925598,-10.54924225573,21.181948194819,2440361.90989,2018.1323925072,2605559.3571302,26.381948194819,0,0
44.211336184277,-10.550622813225,21.186378637864,2440361.90989,2018.1323925072,2605559.3571302,26.386378637864,0,0
44.211336442955,-10.552003370719,21.190809080908,2440361.90989,2018.1323925072,2605559.3571302,26.390809080908,0,0
44.211336701633,-10.553383928214,21.195239523952,2440361.90989,2018.1323925072,2605559.3571302,26.395239523952,0,0
44.211336960312,-10.554764485708,21.199669966997,2440361.90989,2018.1323925072,2605559.3571302,26.399669966997,0,0
44.21133721899,-10.556145043203,21.204100410041,2440361.90989,2018.1323925072,2605559.3571302,26.404100410041,0,0
44.211337477669,-10.557525600697,21.208530853085,2440361.90989,2018.1323925072,2605559.3571302,26.408530853085,0,0
44.211337736347,-10.558906158192,21.21296129613,2440361.90989,2018.1323925072,2605559.3571302,26.41296129613,0,0
44.211337995025,-10.560286715686,21.217391739174,2440361.90989,2018.1323925072,2605559.3571302,26.417391739174,0,0
44.211338253704,-10.561667273181,21.221822182218,2440361.90989,2018.1323925072,2605559.3571302,26.421822182218,0,0
44.211338512382,-10.563047830675,21.226252625263,2440361.90989,2018.1323925072,2605559.3571302,26.426252625263,0,0
44.211338771061,-10.56442838817,21.230683068307,2440361.90989,2018.1323925072,2605559.3571302,26.430683068307,0,0
44.211339029739,-10.565808945664,21.235113511351,2440361.90989,2018.1323925072,2605559.3571302,26.435113511351,0,0
44.211339288417,-10.567189503159,21.239543954395,2440361.90989,2018.1323925072,2605559.3571302,26.439543954395,0,0
44.211339547096,-10.568570060653,21.24397439744,2440361.90989,2018.1323925072,2605559.3571302,26.44397439744,0,0
44.211339805774,-10.569950618148,21.248404840484,2440361.90989,2018.1323925072,2605559.3571302,26.448404840484,0,0
44.211340064453,-10.571331175643,21.252835283528,2440361.90989,2018.1323925072,2605559.3571302,26.452835283528,0,0
44.211340323131,-10.572711733137,21.257265726573,2440361.90989,2018.1323925072,2605559.3571302,26.457265726573,0,0
44.211340581809,-10.574092290632,21.261696169617,2440361.90989,2018.1323925072,2605559.3571302,26.461696169617,0,0
44.211340840488,-10.575472848126,21.266126612661,2440361.90989,2018.1323925072,2605559.3571302,26.466126612661,0,0
44.211341099166,-10.576853405621,21.270557055706,2440361.90989,2018.1323925072,2605559.3571302,26.470557055706,0,0
44.211341357845,-10.578233963115,21.27498749875,2440361.90989,2018.1323925072,2605559.3571302,26.47498749875,0,0
44.211341616523,-10.57961452061,21.279417941794,2440361.90989,2018.1323925072,2605559.3571302,26.479417941794,0,0
44.211341875201,-10.580995078104,21.283848384838,2440361.90989,2018.1323925072,2605559.3571302,26.483848384838,0,0
44.21134213388,-10.582375635599,21.288278827883,2440361.90989,2018.1323925072,2605559.3571302,26.488278827883,0,0
44.211342392558,-10.583756193093,21.292709270927,2440361.90989,2018.1323925072,2605559.3571302,26.492709270927,0,0
44.211342651237,-10.585136750588,21.297139713971,2440361.90989,2018.1323925072,2605559.3571302,26.497139713971,0,0
44.211342909915,-10.586517308082,21.301570157016,2440361.90989,2018.1323925072,2605559.3571302,26.501570157016,0,0
44.211343168593,-10.587897865577,21.30600060006,2440361.90989,2018.1323925072,2605559.3571302,26.50600060006,0,0
44.211343427272,-10.589278423071,21.310431043104,2440361.90989,2018.1323925072,2605559.3571302,26.510431043104,0,0
44.21134368595,-10.590658980566,21.314861486149,2440361.90989,2018.1323925072,2605559.3571302,26.514861486149,0,0
44.211343944629,-10.592039538061,21.319291929193,2440361.90989,2018.1323925072,2605559.3571302,26.519291929193,0,0
44.211344203307,-10.593420095555,21.323722372237,2440361.90989,2018.1323925072,2605559.3571302,26.523722372237,0,0
44.211344461985,-10.59480065305,21.328152815282,2440361.90989,2018.1323925072,2605559.3571302,26.528152815282,0,0
44.211344720664,-10.596181210544,21.332583258326,2440361.90989,2018.1323925072,2605559.3571302,26.532583258326,0,0
44.211344979342,-10.597561768039,21.33701370137,2440361.90989,2018.1323925072,2605559.3571302,26.53701370137,0,0
44.211345238021,-10.598942325533,21.341444144414,2440361.90989,2018.1323925072,2605559.3571302,26.541444144414,0,0
44.211345496699,-10.600322883028,21.345874587459,2440361.90989,2018.1323925072,2605559.3571302,26.545874587459,0,0
44.211345755377,-10.601703440522,21.350305030503,2440361.90989,2018.1323925072,2605559.3571302,26.550305030503,0,0
44.211346014056,-10.603083998017,21.354735473547,2440361.90989,2018.1323925072,2605559.3571302,26.554735473547,0,0
44.211346272734,-10.604464555511,21.359165916592,2440361.90989,2018.1323925072,2605559.3571302,26.559165916592,0,0
44.211346531413,-10.605845113006,21.363596359636,2440361.90989,2018.1323925072,2605559.3571302,26.563596359636,0,0
44.211346790091,-10.6072256705,21.36802680268,2440361.90989,2018.1323925072,2605559.3571302,26.56802680268,0,0
44.211347048769,-10.608606227995,21.372457245725,2440361.90989,2018.1323925072,2605559.3571302,26.572457245725,0,0
44.211347307448,-10.609986785489,21.376887688769,2440361.90989,2018.1323925072,2605559.3571302,26.576887688769,0,0
44.211347566126,-10.611367342984,21.381318131813,2440361.90989,2018.1323925072,2605559.3571302,26.581318131813,0,0
44.211347824805,-10.612747900479,21.385748574857,2440361.90989,2018.1323925072,2605559.3571302,26.585748574857,0,0
44.211348083483,-10.614128457973,21.390179017902,2440361.90989,2018.1323925072,2605559.3571302,26.590179017902,0,0
44.211348342162,-10.615509015468,21.394609460946,2440361.90989,2018.1323925072,2605559.3571302,26.594609460946,0,0
44.21134860084,-10.616889572962,21.39903990399,2440361.90989,2018.1323925072,2605559.3571302,26.59903990399,0,0
44.211348859518,-10.618270130457,21.403470347035,2440361.90989,2018.1323925072,2605559.3571302,26.603470347035,0,0
44.211349118197,-10.619650687951,21.407900790079,2440361.90989,2018.1323925072,2605559.3571302,26.607900790079,0,0
44.211349376875,-10.621031245446,21.412331233123,2440361.90989,2018.1323925072,2605559.3571302,26.612331233123,0,0
44.211349635554,-10.62241180294,21.416761676168,2440361.90989,2018.1323925072,2605559.3571302,26.616761676168,0,0
44.211349894232,-10.623792360435,21.421192119212,2440361.90989,2018.1323925072,2605559.3571302,26.621192119212,0,0
44.21135015291,-10.625172917929,21.425622562256,2440361.90989,2018.1323925072,2605559.3571302,26.625622562256,0,0
44.211350411589,-10.626553475424,21.430053005301,2440361.90989,2018.1323925072,2605559.3571302,26.630053005301,0,0
44.211350670267,-10.627934032918,21.434483448345,2440361.90989,2018.1323925072,2605559.3571302,26.634483448345,0,0
44.211350928946,-10.629314590413,21.438913891389,2440361.90989,2018.1323925072,2605559.3571302,26.638913891389,0,0
44.211351187624,-10.630695147907,21.443344334433,2440361.90989,2018.1323925072,2605559.3571302,26.643344334433,0,0
44.211351446302,-10.632075705402,21.447774777478,2440361.90989,2018.1323925072,2605559.3571302,26.647774777478,0,0
44.211351704981,-10.633456262896,21.452205220522,2440361.90989,2018.1323925072,2605559.3571302,26.652205220522,0,0
44.211351963659,-10.634836820391,21.456635663566,2440361.90989,2018.1323925072,2605559.3571302,26.656635663566,0,0
44.211352222338,-10.636217377886,21.461066106611,2440361.90989,2018.1323925072,2605559.3571302,26.661066106611,0,0
44.211352481016,-10.63759793538,21.465496549655,2440361.90989,2018.1323925072,2605559.3571302,26.665496549655,0,0
44.211352739694,-10.638978492875,21.469926992699,2440361.90989,2018.1323925072,2605559.3571302,26.669926992699,0,0
44.211352998373,-10.640359050369,21.474357435744,2440361.90989,2018.1323925072,2605559.3571302,26.674357435744,0,0
44.211353257051,-10.641739607864,21.478787878788,2440361.90989,2018.1323925072,2605559.3571302,26.678787878788,0,0
44.21135351573,-10.643120165358,21.483218321832,2440361.90989,2018.1323925072,2605559.3571302,26.683218321832,0,0
44.211353774408,-10.644500722853,21.487648764876,2440361.90989,2018.1323925072,2605559.3571302,26.687648764876,0,0
44.211354033086,-10.645881280347,21.492079207921,2440361.90989,2018.1323925072,2605559.3571302,26.692079207921,0,0
44.211354291765,-10.647261837842,21.496509650965,2440361.90989,2018.1323925072,2605559.3571302,26.696509650965,0,0
44.211354550443,-10.648642395336,21.500940094009,2440361.90989,2018.1323925072,2605559.3571302,26.700940094009,0,0
44.211354809122,-10.650022952831,21.505370537054,2440361.90989,2018.1323925072,2605559.3571302,26.705370537054,0,0
44.2113550678,-10.651403510325,21.509800980098,2440361.90989,2018.1323925072,2605559.3571302,26.709800980098,0,0
44.211355326478,-10.65278406782,21.514231423142,2440361.90989,2018.1323925072,2605559.3571302,26.714231423142,0,0
44.211355585157,-10.654164625314,21.518661866187,2440361.90989,2018.1323925072,2605559.3571302,26.718661866187,0,0
44.211355843835,-10.655545182809,21.523092309231,2440361.90989,2018.1323925072,2605559.3571302,26.723092309231,0,0
44.211356102514,-10.656925740304,21.527522752275,2440361.90989,2018.1323925072,2605559.3571302,26.727522752275,0,0
44.211356361192,-10.658306297798,21.53195319532,2440361.90989,2018.1323925072,2605559.3571302,26.73195319532,0,0
44.21135661987,-10.659686855293,21.536383638364,2440361.90989,2018.1323925072,2605559.3571302,26.736383638364,0,0
44.211356878549,-10.661067412787,21.540814081408,2440361.90989,2018.1323925072,2605559.3571302,26.740814081408,0,0
44.211357137227,-10.662447970282,21.545244524452,2440361.90989,2018.1323925072,2605559.3571302,26.745244524452,0,0
44.211357395906,-10.663828527776,21.549674967497,2440361.90989,2018.1323925072,2605559.3571302,26.749674967497,0,0
44.211357654584,-10.665209085271,21.554105410541,2440361.90989,2018.1323925072,2605559.3571302,26.754105410541,0,0
44.211357913262,-10.666589642765,21.558535853585,2440361.90989,2018.1323925072,2605559.3571302,26.758535853585,0,0
44.211358171941,-10.66797020026,21.56296629663,2440361.90989,2018.1323925072,2605559.3571302,26.76296629663,0,0
44.211358430619,-10.669350757754,21.567396739674,2440361.90989,2018.1323925072,2605559.3571302,26.767396739674,0,0
44.211358689298,-10.670731315249,21.571827182718,2440361.90989,2018.1323925072,2605559.3571302,26.771827182718,0,0
44.211358947976,-10.672111872743,21.576257625763,2440361.90989,2018.1323925072,2605559.3571302,26.776257625763,0,0
44.211359206654,-10.673492430238,21.580688068807,2440361.90989,2018.1323925072,2605559.3571302,26.780688068807,0,0
44.211359465333,-10.674872987732,21.585118511851,2440361.90989,2018.1323925072,2605559.3571302,26.785118511851,0,0
44.211359724011,-10.676253545227,21.589548954895,2440361.90989,2018.1323925072,2605559.3571302,26.789548954895,0,0
44.21135998269,-10.677634102722,21.59397939794,2440361.90989,2018.1323925072,2605559.3571302,26.79397939794,0,0
44.211360241368,-10.679014660216,21.598409840984,2440361.90989,2018.1323925072,2605559.3571302,26.798409840984,0,0
44.211360500046,-10.680395217711,21.602840284028,2440361.90989,2018.1323925072,2605559.3571302,26.802840284028,0,0
44.211360758725,-10.681775775205,21.607270727073,2440361.90989,2018.1323925072,2605559.3571302,26.807270727073,0,0
44.211361017403,-10.6831563327,21.611701170117,2440361.90989,2018.1323925072,2605559.3571302,26.811701170117,0,0
44.211361276082,-10.684536890194,21.616131613161,2440361.90989,2018.1323925072,2605559.3571302,26.816131613161,0,0
44.21136153476,-10.685917447689,21.620562056206,2440361.90989,2018.1323925072,2605559.3571302,26.820562056206,0,0
44.211361793438,-10.687298005183,21.62499249925,2440361.90989,2018.1323925072,2605559.3571302,26.82499249925,0,0
44.211362052117,-10.688678562678,21.629422942294,2440361.90989,2018.1323925072,2605559.3571302,26.829422942294,0,0
44.211362310795,-10.690059120172,21.633853385339,2440361.90989,2018.1323925072,2605559.3571302,26.833853385339,0,0
44.211362569474,-10.691439677667,21.638283828383,2440361.90989,2018.1323925072,2605559.3571302,26.838283828383,0,0
44.211362828152,-10.692820235161,21.642714271427,2440361.90989,2018.1323925072,2605559.3571302,26.842714271427,0,0
44.21136308683,-10.694200792656,21.647144714471,2440361.90989,2018.1323925072,2605559.3571302,26.847144714471,0,0
44.211363345509,-10.69558135015,21.651575157516,2440361.90989,2018.1323925072,2605559.3571302,26.851575157516,0,0
44.211363604187,-10.696961907645,21.65600560056,2440361.90989,2018.1323925072,2605559.3571302,26.85600560056,0,0
44.211363862866,-10.698342465139,21.660436043604,2440361.90989,2018.1323925072,2605559.3571302,26.860436043604,0,0
44.211364121544,-10.699723022634,21.664866486649,2440361.90989,2018.1323925072,2605559.3571302,26.864866486649,0,0
44.211364380222,-10.701103580129,21.669296929693,2440361.90989,2018.1323925072,2605559.3571302,26.869296929693,0,0
44.211364638901,-10.702484137623,21.673727372737,2440361.90989,2018.1323925072,2605559.3571302,26.873727372737,0,0
44.211364897579,-10.703864695118,21.678157815782,2440361.90989,2018.1323925072,2605559.3571302,26.878157815782,0,0
44.211365156258,-10.705245252612,21.682588258826,2440361.90989,2018.1323925072,2605559.3571302,26.882588258826,0,0
44.211365414936,-10.706625810107,21.68701870187,2440361.90989,2018.1323925072,2605559.3571302,26.88701870187,0,0
44.211365673615,-10.708006367601,21.691449144914,2440361.90989,2018.1323925072,2605559.3571302,26.891449144914,0,0
44.211365932293,-10.709386925096,21.695879587959,2440361.90989,2018.1323925072,2605559.3571302,26.895879587959,0,0
44.211366190971,-10.71076748259,21.700310031003,2440361.90989,2018.1323925072,2605559.3571302,26.900310031003,0,0
44.21136644965,-10.712148040085,21.704740474047,2440361.90989,2018.1323925072,2605559.3571302,26.904740474047,0,0
44.211366708328,-10.713528597579,21.709170917092,2440361.90989,2018.1323925072,2605559.3571302,26.909170917092,0,0
44.211366967007,-10.714909155074,21.713601360136,2440361.90989,2018.1323925072,2605559.3571302,26.913601360136,0,0
44.211367225685,-10.716289712568,21.71803180318,2440361.90989,2018.1323925072,2605559.3571302,26.91803180318,0,0
44.211367484363,-10.717670270063,21.722462246225,2440361.90989,2018.1323925072,2605559.3571302,26.922462246225,0,0
44.211367743042,-10.719050827557,21.726892689269,2440361.90989,2018.1323925072,2605559.3571302,26.926892689269,0,0
44.21136800172,-10.720431385052,21.731323132313,2440361.90989,2018.1323925072,2605559.3571302,26.931323132313,0,0
44.211368260399,-10.721811942547,21.735753575358,2440361.90989,2018.1323925072,2605559.3571302,26.935753575358,0,0
44.211368519077,-10.723192500041,21.740184018402,2440361.90989,2018.1323925072,2605559.3571302,26.940184018402,0,0
44.211368777755,-10.724573057536,21.744614461446,2440361.90989,2018.1323925072,2605559.3571302,26.944614461446,0,0
44.211369036434,-10.72595361503,21.74904490449,2440361.90989,2018.1323925072,2605559.3571302,26.94904490449,0,0
44.211369295112,-10.727334172525,21.753475347535,2440361.90989,2018.1323925072,2605559.3571302,26.953475347535,0,0
44.211369553791,-10.728714730019,21.757905790579,2440361.90989,2018.1323925072,2605559.3571302,26.957905790579,0,0
44.211369812469,-10.730095287514,21.762336233623,2440361.90989,2018.1323925072,2605559.3571302,26.962336233623,0,0
44.211370071147,-10.731475845008,21.766766676668,2440361.90989,2018.1323925072,2605559.3571302,26.966766676668,0,0
44.211370329826,-10.732856402503,21.771197119712,2440361.90989,2018.1323925072,2605559.3571302,26.971197119712,0,0
44.211370588504,-10.734236959997,21.775627562756,2440361.90989,2018.1323925072,2605559.3571302,26.975627562756,0,0
44.211370847183,-10.735617517492,21.780058005801,2440361.90989,2018.1323925072,2605559.3571302,26.980058005801,0,0
44.211371105861,-10.736998074986,21.784488448845,2440361.90989,2018.1323925072,2605559.3571302,26.984488448845,0,0
44.211371364539,-10.738378632481,21.788918891889,2440361.90989,2018.1323925072,2605559.3571302,26.988918891889,0,0
44.211371623218,-10.739759189975,21.793349334933,2440361.90989,2018.1323925072,2605559.3571302,26.993349334933,0,0
44.211371881896,-10.74113974747,21.797779777978,2440361.90989,2018.1323925072,2605559.3571302,26.997779777978,0,0
44.211372140575,-10.742520304965,21.802210221022,2440361.90989,2018.1323925072,2605559.3571302,27.002210221022,0,0
44.211372399253,-10.743900862459,21.806640664066,2440361.90989,2018.1323925072,2605559.3571302,27.006640664066,0,0
44.211372657931,-10.745281419954,21.811071107111,2440361.90989,2018.1323925072,2605559.3571302,27.011071107111,0,0
44.21137291661,-10.746661977448,21.815501550155,2440361.90989,2018.1323925072,2605559.3571302,27.015501550155,0,0
44.211373175288,-10.748042534943,21.819931993199,2440361.90989,2018.1323925072,2605559.3571302,27.019931993199,0,0
44.211373433967,-10.749423092437,21.824362436244,2440361.90989,2018.1323925072,2605559.3571302,27.024362436244,0,0
44.211373692645,-10.750803649932,21.828792879288,2440361.90989,2018.1323925072,2605559.3571302,27.028792879288,0,0
44.211373951323,-10.752184207426,21.833223322332,2440361.90989,2018.1323925072,2605559.3571302,27.033223322332,0,0
44.211374210002,-10.753564764921,21.837653765377,2440361.90989,2018.1323925072,2605559.3571302,27.037653765377,0,0
44.21137446868,-10.754945322415,21.842084208421,2440361.90989,2018.1323925072,2605559.3571302,27.042084208421,0,0
44.211374727359,-10.75632587991,21.846514651465,2440361.90989,2018.1323925072,2605559.3571302,27.046514651465,0,0
44.211374986037,-10.757706437404,21.850945094509,2440361.90989,2018.1323925072,2605559.3571302,27.050945094509,0,0
44.211375244715,-10.759086994899,21.855375537554,2440361.90989,2018.1323925072,2605559.3571302,27.055375537554,0,0
44.211375503394,-10.760467552393,21.859805980598,2440361.90989,2018.1323925072,2605559.3571302,27.059805980598,0,0
44.211375762072,-10.761848109888,21.864236423642,2440361.90989,2018.1323925072,2605559.3571302,27.064236423642,0,0
44.211376020751,-10.763228667383,21.868666866687,2440361.90989,2018.1323925072,2605559.3571302,27.068666866687,0,0
44.211376279429,-10.764609224877,21.873097309731,2440361.90989,2018.1323925072,2605559.3571302,27.073097309731,0,0
44.211376538107,-10.765989782372,21.877527752775,2440361.90989,2018.1323925072,2605559.3571302,27.077527752775,0,0
44.211376796786,-10.767370339866,21.88195819582,2440361.90989,2018.1323925072,2605559.3571302,27.08195819582,0,0
44.211377055464,-10.768750897361,21.886388638864,2440361.90989,2018.1323925072,2605559.3571302,27.086388638864,0,0
44.211377314143,-10.770131454855,21.890819081908,2440361.90989,2018.1323925072,2605559.3571302,27.090819081908,0,0
44.211377572821,-10.77151201235,21.895249524952,2440361.90989,2018.1323925072,2605559.3571302,27.095249524952,0,0
44.211377831499,-10.772892569844,21.899679967997,2440361.90989,2018.1323925072,2605559.3571302,27.099679967997,0,0
44.211378090178,-10.774273127339,21.904110411041,2440361.90989,2018.1323925072,2605559.3571302,27.104110411041,0,0
44.211378348856,-10.775653684833,21.908540854085,2440361.90989,2018.1323925072,2605559.3571302,27.108540854085,0,0
44.211378607535,-10.777034242328,21.91297129713,2440361.90989,2018.1323925072,2605559.3571302,27.11297129713,0,0
44.211378866213,-10.778414799822,21.917401740174,2440361.90989,2018.1323925072,2605559.3571302,27.117401740174,0,0
44.211379124891,-10.779795357317,21.921832183218,2440361.90989,2018.1323925072,2605559.3571302,27.121832183218,0,0
44.21137938357,-10.781175914811,21.926262626263,2440361.90989,2018.1323925072,2605559.3571302,27.126262626263,0,0
44.211379642248,-10.782556472306,21.930693069307,2440361.90989,2018.1323925072,2605559.3571302,27.130693069307,0,0
44.211379900927,-10.7839370298,21.935123512351,2440361.90989,2018.1323925072,2605559.3571302,27.135123512351,0,0
44.211380159605,-10.785317587295,21.939553955396,2440361.90989,2018.1323925072,2605559.3571302,27.139553955396,0,0
44.211380418283,-10.78669814479,21.94398439844,2440361.90989,2018.1323925072,2605559.3571302,27.14398439844,0,0
44.211380676962,-10.788078702284,21.948414841484,2440361.90989,2018.1323925072,2605559.3571302,27.148414841484,0,0
44.21138093564,-10.789459259779,21.952845284528,2440361.90989,2018.1323925072,2605559.3571302,27.152845284528,0,0
44.211381194319,-10.790839817273,21.957275727573,2440361.90989,2018.1323925072,2605559.3571302,27.157275727573,0,0
44.211381452997,-10.792220374768,21.961706170617,2440361.90989,2018.1323925072,2605559.3571302,27.161706170617,0,0
44.211381711675,-10.793600932262,21.966136613661,2440361.90989,2018.1323925072,2605559.3571302,27.166136613661,0,0
44.211381970354,-10.794981489757,21.970567056706,2440361.90989,2018.1323925072,2605559.3571302,27.170567056706,0,0
44.211382229032,-10.796362047251,21.97499749975,2440361.90989,2018.1323925072,2605559.3571302,27.17499749975,0,0
44.211382487711,-10.797742604746,21.979427942794,2440361.90989,2018.1323925072,2605559.3571302,27.179427942794,0,0
44.211382746389,-10.79912316224,21.983858385839,2440361.90989,2018.1323925072,2605559.3571302,27.183858385839,0,0
44.211383005067,-10.800503719735,21.988288828883,2440361.90989,2018.1323925072,2605559.3571302,27.188288828883,0,0
44.211383263746,-10.801884277229,21.992719271927,2440361.90989,2018.1323925072,2605559.3571302,27.192719271927,0,0
44.211383522424,-10.803264834724,21.997149714971,2440361.90989,2018.1323925072,2605559.3571302,27.197149714971,0,0
44.211383781103,-10.804645392218,22.001580158016,2440361.90989,2018.1323925072,2605559.3571302,27.201580158016,0,0
44.211384039781,-10.806025949713,22.00601060106,2440361.90989,2018.1323925072,2605559.3571302,27.20601060106,0,0
44.21138429846,-10.807406507208,22.010441044104,2440361.90989,2018.1323925072,2605559.3571302,27.210441044104,0,0
44.211384557138,-10.808787064702,22.014871487149,2440361.90989,2018.1323925072,2605559.3571302,27.214871487149,0,0
44.211384815816,-10.810167622197,22.019301930193,2440361.90989,2018.1323925072,2605559.3571302,27.219301930193,0,0
44.211385074495,-10.811548179691,22.023732373237,2440361.90989,2018.1323925072,2605559.3571302,27.223732373237,0,0
44.211385333173,-10.812928737186,22.028162816282,2440361.90989,2018.1323925072,2605559.3571302,27.228162816282,0,0
44.211385591852,-10.81430929468,22.032593259326,2440361.90989,2018.1323925072,2605559.3571302,27.232593259326,0,0
44.21138585053,-10.815689852175,22.03702370237,2440361.90989,2018.1323925072,2605559.3571302,27.23702370237,0,0
44.211386109208,-10.817070409669,22.041454145415,2440361.90989,2018.1323925072,2605559.3571302,27.241454145415,0,0
44.211386367887,-10.818450967164,22.045884588459,2440361.90989,2018.1323925072,2605559.3571302,27.245884588459,0,0
44.211386626565,-10.819831524658,22.050315031503,2440361.90989,2018.1323925072,2605559.3571302,27.250315031503,0,0
44.211386885244,-10.821212082153,22.054745474547,2440361.90989,2018.1323925072,2605559.3571302,27.254745474547,0,0
44.211387143922,-10.822592639647,22.059175917592,2440361.90989,2018.1323925072,2605559.3571302,27.259175917592,0,0
44.2113874026,-10.823973197142,22.063606360636,2440361.90989,2018.1323925072,2605559.3571302,27.263606360636,0,0
44.211387661279,-10.825353754636,22.06803680368,2440361.90989,2018.1323925072,2605559.3571302,27.26803680368,0,0
44.211387919957,-10.826734312131,22.072467246725,2440361.90989,2018.1323925072,2605559.3571302,27.272467246725,0,0
44.211388178636,-10.828114869626,22.076897689769,2440361.90989,2018.1323925072,2605559.3571302,27.276897689769,0,0
44.211388437314,-10.82949542712,22.081328132813,2440361.90989,2018.1323925072,2605559.3571302,27.281328132813,0,0
44.211388695992,-10.830875984615,22.085758575858,2440361.90989,2018.1323925072,2605559.3571302,27.285758575858,0,0
44.211388954671,-10.832256542109,22.090189018902,2440361.90989,2018.1323925072,2605559.3571302,27.290189018902,0,0
44.211389213349,-10.833637099604,22.094619461946,2440361.90989,2018.1323925072,2605559.3571302,27.294619461946,0,0
44.211389472028,-10.835017657098,22.09904990499,2440361.90989,2018.1323925072,2605559.3571302,27.29904990499,0,0
44.211389730706,-10.836398214593,22.103480348035,2440361.90989,2018.1323925072,2605559.3571302,27.303480348035,0,0
44.211389989384,-10.837778772087,22.107910791079,2440361.90989,2018.1323925072,2605559.3571302,27.307910791079,0,0
44.211390248063,-10.839159329582,22.112341234123,2440361.90989,2018.1323925072,2605559.3571302,27.312341234123,0,0
44.211390506741,-10.840539887076,22.116771677168,2440361.90989,2018.1323925072,2605559.3571302,27.316771677168,0,0
44.21139076542,-10.841920444571,22.121202120212,2440361.90989,2018.1323925072,2605559.3571302,27.321202120212,0,0
44.211391024098,-10.843301002065,22.125632563256,2440361.90989,2018.1323925072,2605559.3571302,27.325632563256,0,0
44.211391282776,-10.84468155956,22.130063006301,2440361.90989,2018.1323925072,2605559.3571302,27.330063006301,0,0
44.211391541455,-10.846062117054,22.134493449345,2440361.90989,2018.1323925072,2605559.3571302,27.334493449345,0,0
44.211391800133,-10.847442674549,22.138923892389,2440361.90989,2018.1323925072,2605559.3571302,27.338923892389,0,0
44.211392058812,-10.848823232043,22.143354335434,2440361.90989,2018.1323925072,2605559.3571302,27.343354335434,0,0
44.21139231749,-10.850203789538,22.147784778478,2440361.90989,2018.1323925072,2605559.3571302,27.347784778478,0,0
44.211392576168,-10.851584347033,22.152215221522,2440361.90989,2018.1323925072,2605559.3571302,27.352215221522,0,0
44.211392834847,-10.852964904527,22.156645664566,2440361.90989,2018.1323925072,2605559.3571302,27.356645664566,0,0
44.211393093525,-10.854345462022,22.161076107611,2440361.90989,2018.1323925072,2605559.3571302,27.361076107611,0,0
44.211393352204,-10.855726019516,22.165506550655,2440361.90989,2018.1323925072,2605559.3571302,27.365506550655,0,0
44.211393610882,-10.857106577011,22.169936993699,2440361.90989,2018.1323925072,2605559.3571302,27.369936993699,0,0
44.21139386956,-10.858487134505,22.174367436744,2440361.90989,2018.1323925072,2605559.3571302,27.374367436744,0,0
44.211394128239,-10.859867692,22.178797879788,2440361.90989,2018.1323925072,2605559.3571302,27.378797879788,0,0
44.211394386917,-10.861248249494,22.183228322832,2440361.90989,2018.1323925072,2605559.3571302,27.383228322832,0,0
44.211394645596,-10.862628806989,22.187658765877,2440361.90989,2018.1323925072,2605559.3571302,27.387658765877,0,0
44.211394904274,-10.864009364483,22.192089208921,2440361.90989,2018.1323925072,2605559.3571302,27.392089208921,0,0
44.211395162952,-10.865389921978,22.196519651965,2440361.90989,2018.1323925072,2605559.3571302,27.396519651965,0,0
44.211395421631,-10.866770479472,22.200950095009,2440361.90989,2018.1323925072,2605559.3571302,27.400950095009,0,0
44.211395680309,-10.868151036967,22.205380538054,2440361.90989,2018.1323925072,2605559.3571302,27.405380538054,0,0
44.211395938988,-10.869531594461,22.209810981098,2440361.90989,2018.1323925072,2605559.3571302,27.409810981098,0,0
44.211396197666,-10.870912151956,22.214241424142,2440361.90989,2018.1323925072,2605559.3571302,27.414241424142,0,0
44.211396456344,-10.872292709451,22.218671867187,2440361.90989,2018.1323925072,2605559.3571302,27.418671867187,0,0
44.211396715023,-10.873673266945,22.223102310231,2440361.90989,2018.1323925072,2605559.3571302,27.423102310231,0,0
44.211396973701,-10.87505382444,22.227532753275,2440361.90989,2018.1323925072,2605559.3571302,27.427532753275,0,0
44.21139723238,-10.876434381934,22.23196319632,2440361.90989,2018.1323925072,2605559.3571302,27.43196319632,0,0
44.211397491058,-10.877814939429,22.236393639364,2440361.90989,2018.1323925072,2605559.3571302,27.436393639364,0,0
44.211397749736,-10.879195496923,22.240824082408,2440361.90989,2018.1323925072,2605559.3571302,27.440824082408,0,0
44.211398008415,-10.880576054418,22.245254525453,2440361.90989,2018.1323925072,2605559.3571302,27.445254525453,0,0
44.211398267093,-10.881956611912,22.249684968497,2440361.90989,2018.1323925072,2605559.3571302,27.449684968497,0,0
44.211398525772,-10.883337169407,22.254115411541,2440361.90989,2018.1323925072,2605559.3571302,27.454115411541,0,0
44.21139878445,-10.884717726901,22.258545854585,2440361.90989,2018.1323925072,2605559.3571302,27.458545854585,0,0
44.211399043128,-10.886098284396,22.26297629763,2440361.90989,2018.1323925072,2605559.3571302,27.46297629763,0,0
44.211399301807,-10.88747884189,22.267406740674,2440361.90989,2018.1323925072,2605559.3571302,27.467406740674,0,0
44.211399560485,-10.888859399385,22.271837183718,2440361.90989,2018.1323925072,2605559.3571302,27.471837183718,0,0
44.211399819164,-10.890239956879,22.276267626763,2440361.90989,2018.1323925072,2605559.3571302,27.476267626763,0,0
44.211400077842,-10.891620514374,22.280698069807,2440361.90989,2018.1323925072,2605559.3571302,27.480698069807,0,0
44.21140033652,-10.893001071869,22.285128512851,2440361.90989,2018.1323925072,2605559.3571302,27.485128512851,0,0
44.211400595199,-10.894381629363,22.289558955896,2440361.90989,2018.1323925072,2605559.3571302,27.489558955896,0,0
44.211400853877,-10.895762186858,22.29398939894,2440361.90989,2018.1323925072,2605559.3571302,27.49398939894,0,0
44.211401112556,-10.897142744352,22.298419841984,2440361.90989,2018.1323925072,2605559.3571302,27.498419841984,0,0
44.211401371234,-10.898523301847,22.302850285029,2440361.90989,2018.1323925072,2605559.3571302,27.502850285029,0,0
44.211401629913,-10.899903859341,22.307280728073,2440361.90989,2018.1323925072,2605559.3571302,27.507280728073,0,0
44.211401888591,-10.901284416836,22.311711171117,2440361.90989,2018.1323925072,2605559.3571302,27.511711171117,0,0
44.211402147269,-10.90266497433,22.316141614161,2440361.90989,2018.1323925072,2605559.3571302,27.516141614161,0,0
44.211402405948,-10.904045531825,22.320572057206,2440361.90989,2018.1323925072,2605559.3571302,27.520572057206,0,0
44.211402664626,-10.905426089319,22.32500250025,2440361.90989,2018.1323925072,2605559.3571302,27.52500250025,0,0
44.211402923305,-10.906806646814,22.329432943294,2440361.90989,2018.1323925072,2605559.3571302,27.529432943294,0,0
44.211403181983,-10.908187204308,22.333863386339,2440361.90989,2018.1323925072,2605559.3571302,27.533863386339,0,0
44.211403440661,-10.909567761803,22.338293829383,2440361.90989,2018.1323925072,2605559.3571302,27.538293829383,0,0
44.21140369934,-10.910948319297,22.342724272427,2440361.90989,2018.1323925072,2605559.3571302,27.542724272427,0,0
44.211403958018,-10.912328876792,22.347154715472,2440361.90989,2018.1323925072,2605559.3571302,27.547154715472,0,0
44.211404216697,-10.913709434286,22.351585158516,2440361.90989,2018.1323925072,2605559.3571302,27.551585158516,0,0
44.211404475375,-10.915089991781,22.35601560156,2440361.90989,2018.1323925072,2605559.3571302,27.55601560156,0,0
44.211404734053,-10.916470549276,22.360446044604,2440361.90989,2018.1323925072,2605559.3571302,27.560446044604,0,0
44.211404992732,-10.91785110677,22.364876487649,2440361.90989,2018.1323925072,2605559.3571302,27.564876487649,0,0
44.21140525141,-10.919231664265,22.369306930693,2440361.90989,2018.1323925072,2605559.3571302,27.569306930693,0,0
44.211405510089,-10.920612221759,22.373737373737,2440361.90989,2018.1323925072,2605559.3571302,27.573737373737,0,0
44.211405768767,-10.921992779254,22.378167816782,2440361.90989,2018.1323925072,2605559.3571302,27.578167816782,0,0
44.211406027445,-10.923373336748,22.382598259826,2440361.90989,2018.1323925072,2605559.3571302,27.582598259826,0,0
44.211406286124,-10.924753894243,22.38702870287,2440361.90989,2018.1323925072,2605559.3571302,27.58702870287,0,0
44.211406544802,-10.926134451737,22.391459145915,2440361.90989,2018.1323925072,2605559.3571302,27.591459145915,0,0
44.211406803481,-10.927515009232,22.395889588959,2440361.90989,2018.1323925072,2605559.3571302,27.595889588959,0,0
44.211407062159,-10.928895566726,22.400320032003,2440361.90989,2018.1323925072,2605559.3571302,27.600320032003,0,0
44.211407320837,-10.930276124221,22.404750475048,2440361.90989,2018.1323925072,2605559.3571302,27.604750475048,0,0
44.211407579516,-10.931656681715,22.409180918092,2440361.90989,2018.1323925072,2605559.3571302,27.609180918092,0,0
44.211407838194,-10.93303723921,22.413611361136,2440361.90989,2018.1323925072,2605559.3571302,27.613611361136,0,0
44.211408096873,-10.934417796704,22.41804180418,2440361.90989,2018.1323925072,2605559.3571302,27.61804180418,0,0
44.211408355551,-10.935798354199,22.422472247225,2440361.90989,2018.1323925072,2605559.3571302,27.622472247225,0,0
44.211408614229,-10.937178911694,22.426902690269,2440361.90989,2018.1323925072,2605559.3571302,27.626902690269,0,0
44.211408872908,-10.938559469188,22.431333133313,2440361.90989,2018.1323925072,2605559.3571302,27.631333133313,0,0
44.211409131586,-10.939940026683,22.435763576358,2440361.90989,2018.1323925072,2605559.3571302,27.635763576358,0,0
44.211409390265,-10.941320584177,22.440194019402,2440361.90989,2018.1323925072,2605559.3571302,27.640194019402,0,0
44.211409648943,-10.942701141672,22.444624462446,2440361.90989,2018.1323925072,2605559.3571302,27.644624462446,0,0
44.211409907621,-10.944081699166,22.449054905491,2440361.90989,2018.1323925072,2605559.3571302,27.649054905491,0,0
44.2114101663,-10.945462256661,22.453485348535,2440361.90989,2018.1323925072,2605559.3571302,27.653485348535,0,0
44.211410424978,-10.946842814155,22.457915791579,2440361.90989,2018.1323925072,2605559.3571302,27.657915791579,0,0
44.211410683657,-10.94822337165,22.462346234623,2440361.90989,2018.1323925072,2605559.3571302,27.662346234623,0,0
44.211410942335,-10.949603929144,22.466776677668,2440361.90989,2018.1323925072,2605559.3571302,27.666776677668,0,0
44.211411201013,-10.950984486639,22.471207120712,2440361.90989,2018.1323925072,2605559.3571302,27.671207120712,0,0
44.211411459692,-10.952365044133,22.475637563756,2440361.90989,2018.1323925072,2605559.3571302,27.675637563756,0,0
44.21141171837,-10.953745601628,22.480068006801,2440361.90989,2018.1323925072,2605559.3571302,27.680068006801,0,0
44.211411977049,-10.955126159122,22.484498449845,2440361.90989,2018.1323925072,2605559.3571302,27.684498449845,0,0
44.211412235727,-10.956506716617,22.488928892889,2440361.90989,2018.1323925072,2605559.3571302,27.688928892889,0,0
44.211412494405,-10.957887274112,22.493359335934,2440361.90989,2018.1323925072,2605559.3571302,27.693359335934,0,0
44.211412753084,-10.959267831606,22.497789778978,2440361.90989,2018.1323925072,2605559.3571302,27.697789778978,0,0
44.211413011762,-10.960648389101,22.502220222022,2440361.90989,2018.1323925072,2605559.3571302,27.702220222022,0,0
44.211413270441,-10.962028946595,22.506650665067,2440361.90989,2018.1323925072,2605559.3571302,27.706650665067,0,0
44.211413529119,-10.96340950409,22.511081108111,2440361.90989,2018.1323925072,2605559.3571302,27.711081108111,0,0
44.211413787797,-10.964790061584,22.515511551155,2440361.90989,2018.1323925072,2605559.3571302,27.715511551155,0,0
44.211414046476,-10.966170619079,22.519941994199,2440361.90989,2018.1323925072,2605559.3571302,27.719941994199,0,0
44.211414305154,-10.967551176573,22.524372437244,2440361.90989,2018.1323925072,2605559.3571302,27.724372437244,0,0
44.211414563833,-10.968931734068,22.528802880288,2440361.90989,2018.1323925072,2605559.3571302,27.728802880288,0,0
44.211414822511,-10.970312291562,22.533233323332,2440361.90989,2018.1323925072,2605559.3571302,27.733233323332,0,0
44.211415081189,-10.971692849057,22.537663766377,2440361.90989,2018.1323925072,2605559.3571302,27.737663766377,0,0
44.211415339868,-10.973073406551,22.542094209421,2440361.90989,2018.1323925072,2605559.3571302,27.742094209421,0,0
44.211415598546,-10.974453964046,22.546524652465,2440361.90989,2018.1323925072,2605559.3571302,27.746524652465,0,0
44.211415857225,-10.97583452154,22.55095509551,2440361.90989,2018.1323925072,2605559.3571302,27.75095509551,0,0
44.211416115903,-10.977215079035,22.555385538554,2440361.90989,2018.1323925072,2605559.3571302,27.755385538554,0,0
44.211416374581,-10.97859563653,22.559815981598,2440361.90989,2018.1323925072,2605559.3571302,27.759815981598,0,0
44.21141663326,-10.979976194024,22.564246424642,2440361.90989,2018.1323925072,2605559.3571302,27.764246424642,0,0
44.211416892311,-10.98135675107,22.568676867687,2448064.4095112,4302.2599231789,2603164.3158026,27.768676867687,0,0
44.211417151669,-10.982737307748,22.573107310731,2448064.4095112,4302.2599231789,2603164.3158026,27.773107310731,0,0
44.211417411026,-10.984117864426,22.577537753775,2448064.4095112,4302.2599231789,2603164.3158026,27.777537753775,0,0
44.211417670384,-10.985498421105,22.58196819682,2448064.4095112,4302.2599231789,2603164.3158026,27.78196819682,0,0
44.211417929741,-10.986878977783,22.586398639864,2448064.4095112,4302.2599231789,2603164.3158026,27.786398639864,0,0
44.211418189099,-10.988259534461,22.590829082908,2448064.4095112,4302.2599231789,2603164.3158026,27.790829082908,0,0
44.211418448456,-10.98964009114,22.595259525953,2448064.4095112,4302.2599231789,2603164.3158026,27.795259525953,0,0
44.211418707813,-10.991020647818,22.599689968997,2448064.4095112,4302.2599231789,2603164.3158026,27.799689968997,0,0
44.211418967171,-10.992401204496,22.604120412041,2448064.4095112,4302.2599231789,2603164.3158026,27.804120412041,0,0
44.211419226528,-10.993781761174,22.608550855086,2448064.4095112,4302.2599231789,2603164.3158026,27.808550855086,0,0
44.211419485886,-10.995162317853,22.61298129813,2448064.4095112,4302.2599231789,2603164.3158026,27.81298129813,0,0
44.211419745243,-10.996542874531,22.617411741174,2448064.4095112,4302.2599231789,2603164.3158026,27.817411741174,0,0
44.2114200046,-10.997923431209,22.621842184218,2448064.4095112,4302.2599231789,2603164.3158026,27.821842184218,0,0
44.211420263958,-10.999303987887,22.626272627263,2448064.4095112,4302.2599231789,2603164.3158026,27.826272627263,0,0
44.211420523315,-11.000684544566,22.630703070307,2448064.4095112,4302.2599231789,2603164.3158026,27.830703070307,0,0
44.211420782673,-11.002065101244,22.635133513351,2448064.4095112,4302.2599231789,2603164.3158026,27.835133513351,0,0
44.21142104203,-11.003445657922,22.639563956396,2448064.4095112,4302.2599231789,2603164.3158026,27.839563956396,0,0
44.211421301388,-11.004826214601,22.64399439944,2448064.4095112,4302.2599231789,2603164.3158026,27.84399439944,0,0
44.211421560745,-11.006206771279,22.648424842484,2448064.4095112,4302.2599231789,2603164.3158026,27.848424842484,0,0
44.211421820102,-11.007587327957,22.652855285529,2448064.4095112,4302.2599231789,2603164.3158026,27.852855285529,0,0
44.21142207946,-11.008967884635,22.657285728573,2448064.4095112,4302.2599231789,2603164.3158026,27.857285728573,0,0
44.211422338817,-11.010348441314,22.661716171617,2448064.4095112,4302.2599231789,2603164.3158026,27.861716171617,0,0
44.211422598175,-11.011728997992,22.666146614661,2448064.4095112,4302.2599231789,2603164.3158026,27.866146614661,0,0
44.211422857532,-11.01310955467,22.670577057706,2448064.4095112,4302.2599231789,2603164.3158026,27.870577057706,0,0
44.211423116889,-11.014490111348,22.67500750075,2448064.4095112,4302.2599231789,2603164.3158026,27.87500750075,0,0
44.211423376247,-11.015870668027,22.679437943794,2448064.4095112,4302.2599231789,2603164.3158026,27.879437943794,0,0
44.211423635604,-11.017251224705,22.683868386839,2448064.4095112,4302.2599231789,2603164.3158026,27.883868386839,0,0
44.211423894962,-11.018631781383,22.688298829883,2448064.4095112,4302.2599231789,2603164.3158026,27.888298829883,0,0
44.211424154319,-11.020012338061,22.692729272927,2448064.4095112,4302.2599231789,2603164.3158026,27.892729272927,0,0
44.211424413677,-11.02139289474,22.697159715972,2448064.4095112,4302.2599231789,2603164.3158026,27.897159715972,0,0
44.211424673034,-11.022773451418,22.701590159016,2448064.4095112,4302.2599231789,2603164.3158026,27.901590159016,0,0
44.211424932391,-11.024154008096,22.70602060206,2448064.4095112,4302.2599231789,2603164.3158026,27.90602060206,0,0
44.211425191749,-11.025534564775,22.710451045105,2448064.4095112,4302.2599231789,2603164.3158026,27.910451045105,0,0
44.211425451106,-11.026915121453,22.714881488149,2448064.4095112,4302.2599231789,2603164.3158026,27.914881488149,0,0
44.211425710464,-11.028295678131,22.719311931193,2448064.4095112,4302.2599231789,2603164.3158026,27.919311931193,0,0
44.211425969821,-11.029676234809,22.723742374237,2448064.4095112,4302.2599231789,2603164.3158026,27.923742374237,0,0
44.211426229178,-11.031056791488,22.728172817282,2448064.4095112,4302.2599231789,2603164.3158026,27.928172817282,0,0
44.211426488536,-11.032437348166,22.732603260326,2448064.4095112,4302.2599231789,2603164.3158026,27.932603260326,0,0
44.211426747893,-11.033817904844,22.73703370337,2448064.4095112,4302.2599231789,2603164.3158026,27.93703370337,0,0
44.211427007251,-11.035198461522,22.741464146415,2448064.4095112,4302.2599231789,2603164.3158026,27.941464146415,0,0
44.211427266608,-11.036579018201,22.745894589459,2448064.4095112,4302.2599231789,2603164.3158026,27.945894589459,0,0
44.211427525965,-11.037959574879,22.750325032503,2448064.4095112,4302.2599231789,2603164.3158026,27.950325032503,0,0
44.211427785323,-11.039340131557,22.754755475548,2448064.4095112,4302.2599231789,2603164.3158026,27.954755475548,0,0
44.21142804468,-11.040720688236,22.759185918592,2448064.4095112,4302.2599231789,2603164.3158026,27.959185918592,0,0
44.211428304038,-11.042101244914,22.763616361636,2448064.4095112,4302.2599231789,2603164.3158026,27.963616361636,0,0
44.211428563395,-11.043481801592,22.76804680468,2448064.4095112,4302.2599231789,2603164.3158026,27.96804680468,0,0
44.211428822753,-11.04486235827,22.772477247725,2448064.4095112,4302.2599231789,2603164.3158026,27.972477247725,0,0
44.21142908211,-11.046242914949,22.776907690769,2448064.4095112,4302.2599231789,2603164.3158026,27.976907690769,0,0
44.211429341467,-11.047623471627,22.781338133813,2448064.4095112,4302.2599231789,2603164.3158026,27.981338133813,0,0
44.211429600825,-11.049004028305,22.785768576858,2448064.4095112,4302.2599231789,2603164.3158026,27.985768576858,0,0
44.211429860182,-11.050384584983,22.790199019902,2448064.4095112,4302.2599231789,2603164.3158026,27.990199019902,0,0
44.21143011954,-11.051765141662,22.794629462946,2448064.4095112,4302.2599231789,2603164.3158026,27.994629462946,0,0
44.211430378897,-11.05314569834,22.799059905991,2448064.4095112,4302.2599231789,2603164.3158026,27.999059905991,0,0
44.211430638254,-11.054526255018,22.803490349035,2448064.4095112,4302.2599231789,2603164.3158026,28.003490349035,0,0
44.211430897612,-11.055906811697,22.807920792079,2448064.4095112,4302.2599231789,2603164.3158026,28.007920792079,0,0
44.211431156969,-11.057287368375,22.812351235124,2448064.4095112,4302.2599231789,2603164.3158026,28.012351235124,0,0
44.211431416327,-11.058667925053,22.816781678168,2448064.4095112,4302.2599231789,2603164.3158026,28.016781678168,0,0
44.211431675684,-11.060048481731,22.821212121212,2448064.4095112,4302.2599231789,2603164.3158026,28.021212121212,0,0
44.211431935042,-11.06142903841,22.825642564256,2448064.4095112,4302.2599231789,2603164.3158026,28.025642564256,0,0
44.211432194573,-11.062809595585,22.830073007301,2449774.5874262,920.65690353131,2595992.1006651,28.030073007301,0,0
44.211432454258,-11.0641901532,22.834503450345,2449774.5874262,920.65690353131,2595992.1006651,28.034503450345,0,0
44.211432713943,-11.065570710815,22.838933893389,2449774.5874262,920.65690353131,2595992.1006651,28.038933893389,0,0
44.211432973628,-11.06695126843,22.843364336434,2449774.5874262,920.65690353131,2595992.1006651,28.043364336434,0,0
44.211433233313,-11.068331826045,22.847794779478,2449774.5874262,920.65690353131,2595992.1006651,28.047794779478,0,0
44.211433492998,-11.06971238366,22.852225222522,2449774.5874262,920.65690353131,2595992.1006651,28.052225222522,0,0
44.211433752683,-11.071092941274,22.856655665567,2449774.5874262,920.65690353131,2595992.1006651,28.056655665567,0,0
44.211434012368,-11.072473498889,22.861086108611,2449774.5874262,920.65690353131,2595992.1006651,28.061086108611,0,0
44.211434272053,-11.073854056504,22.865516551655,2449774.5874262,920.65690353131,2595992.1006651,28.065516551655,0,0
44.211434531738,-11.075234614119,22.869946994699,2449774.5874262,920.65690353131,2595992.1006651,28.069946994699,0,0
44.211434791423,-11.076615171734,22.874377437744,2449774.5874262,920.65690353131,2595992.1006651,28.074377437744,0,0
44.211435051108,-11.077995729349,22.878807880788,2449774.5874262,920.65690353131,2595992.1006651,28.078807880788,0,0
44.211435310793,-11.079376286964,22.883238323832,2449774.5874262,920.65690353131,2595992.1006651,28.083238323832,0,0
44.211435570478,-11.080756844578,22.887668766877,2449774.5874262,920.65690353131,2595992.1006651,28.087668766877,0,0
44.211435830163,-11.082137402193,22.892099209921,2449774.5874262,920.65690353131,2595992.1006651,28.092099209921,0,0
44.211436089848,-11.083517959808,22.896529652965,2449774.5874262,920.65690353131,2595992.1006651,28.096529652965,0,0
44.211436349533,-11.084898517423,22.90096009601,2449774.5874262,920.65690353131,2595992.1006651,28.10096009601,0,0
44.211436609218,-11.086279075038,22.905390539054,2449774.5874262,920.65690353131,2595992.1006651,28.105390539054,0,0
44.211436868903,-11.087659632653,22.909820982098,2449774.5874262,920.65690353131,2595992.1006651,28.109820982098,0,0
44.211437128588,-11.089040190268,22.914251425143,2449774.5874262,920.65690353131,2595992.1006651,28.114251425143,0,0
44.211437388273,-11.090420747882,22.918681868187,2449774.5874262,920.65690353131,2595992.1006651,28.118681868187,0,0
44.211437647957,-11.091801305497,22.923112311231,2449774.5874262,920.65690353131,2595992.1006651,28.123112311231,0,0
44.211437907642,-11.093181863112,22.927542754275,2449774.5874262,920.65690353131,2595992.1006651,28.127542754275,0,0
44.211438167327,-11.094562420727,22.93197319732,2449774.5874262,920.65690353131,2595992.1006651,28.13197319732,0,0
44.211438427012,-11.095942978342,22.936403640364,2449774.5874262,920.65690353131,2595992.1006651,28.136403640364,0,0
44.211438686697,-11.097323535957,22.940834083408,2449774.5874262,920.65690353131,2595992.1006651,28.140834083408,0,0
44.211438946382,-11.098704093571,22.945264526453,2449774.5874262,920.65690353131,2595992.1006651,28.145264526453,0,0
44.211439206067,-11.100084651186,22.949694969497,2449774.5874262,920.65690353131,2595992.1006651,28.149694969497,0,0
44.211439465752,-11.101465208801,22.954125412541,2449774.5874262,920.65690353131,2595992.1006651,28.154125412541,0,0
44.211439725437,-11.102845766416,22.958555855586,2449774.5874262,920.65690353131,2595992.1006651,28.158555855586,0,0
44.211439985122,-11.104226324031,22.96298629863,2449774.5874262,920.65690353131,2595992.1006651,28.16298629863,0,0
44.211440244807,-11.105606881646,22.967416741674,2449774.5874262,920.65690353131,2595992.1006651,28.167416741674,0,0
44.211440504492,-11.106987439261,22.971847184718,2449774.5874262,920.65690353131,2595992.1006651,28.171847184718,0,0
44.211440764177,-11.108367996875,22.976277627763,2449774.5874262,920.65690353131,2595992.1006651,28.176277627763,0,0
44.211441023862,-11.10974855449,22.980708070807,2449774.5874262,920.65690353131,2595992.1006651,28.180708070807,0,0
44.211441283547,-11.111129112105,22.985138513851,2449774.5874262,920.65690353131,2595992.1006651,28.185138513851,0,0
44.211441543232,-11.11250966972,22.989568956896,2449774.5874262,920.65690353131,2595992.1006651,28.189568956896,0,0
44.211441802917,-11.113890227335,22.99399939994,2449774.5874262,920.65690353131,2595992.1006651,28.19399939994,0,0
44.211442062602,-11.11527078495,22.998429842984,2449774.5874262,920.65690353131,2595992.1006651,28.198429842984,0,0
44.211442322287,-11.116651342564,23.002860286029,2449774.5874262,920.65690353131,2595992.1006651,28.202860286029,0,0
44.211442581972,-11.118031900179,23.007290729073,2449774.5874262,920.65690353131,2595992.1006651,28.207290729073,0,0
44.211442841657,-11.119412457794,23.011721172117,2449774.5874262,920.65690353131,2595992.1006651,28.211721172117,0,0
44.211443101342,-11.120793015409,23.016151615162,2449774.5874262,920.65690353131,2595992.1006651,28.216151615162,0,0
44.211443361027,-11.122173573024,23.020582058206,2449774.5874262,920.65690353131,2595992.1006651,28.220582058206,0,0
44.211443620712,-11.123554130639,23.02501250125,2449774.5874262,920.65690353131,2595992.1006651,28.22501250125,0,0
44.211443880397,-11.124934688254,23.029442944294,2449774.5874262,920.65690353131,2595992.1006651,28.229442944294,0,0
44.211444140082,-11.126315245868,23.033873387339,2449774.5874262,920.65690353131,2595992.1006651,28.233873387339,0,0
44.211444399767,-11.127695803483,23.038303830383,2449774.5874262,920.65690353131,2595992.1006651,28.238303830383,0,0
44.211444659452,-11.129076361098,23.042734273427,2449774.5874262,920.65690353131,2595992.1006651,28.242734273427,0,0
44.211444919137,-11.130456918713,23.047164716472,2449774.5874262,920.65690353131,2595992.1006651,28.247164716472,0,0
44.211445178822,-11.131837476328,23.051595159516,2449774.5874262,920.65690353131,2595992.1006651,28.251595159516,0,0
44.211445438507,-11.133218033943,23.05602560256,2449774.5874262,920.65690353131,2595992.1006651,28.25602560256,0,0
44.211445698192,-11.134598591558,23.060456045605,2449774.5874262,920.65690353131,2595992.1006651,28.260456045605,0,0
44.211445957877,-11.135979149172,23.064886488649,2449774.5874262,920.65690353131,2595992.1006651,28.264886488649,0,0
44.211446217562,-11.137359706787,23.069316931693,2449774.5874262,920.65690353131,2595992.1006651,28.269316931693,0,0
44.211446477247,-11.138740264402,23.073747374737,2449774.5874262,920.65690353131,2595992.1006651,28.273747374737,0,0
44.211446736932,-11.140120822017,23.078177817782,2449774.5874262,920.65690353131,2595992.1006651,28.278177817782,0,0
44.211446996617,-11.141501379632,23.082608260826,2449774.5874262,920.65690353131,2595992.1006651,28.282608260826,0,0
44.211447256302,-11.142881937247,23.08703870387,2449774.5874262,920.65690353131,2595992.1006651,28.28703870387,0,0
44.211447515987,-11.144262494861,23.091469146915,2449774.5874262,920.65690353131,2595992.1006651,28.291469146915,0,0
44.211447775672,-11.145643052476,23.095899589959,2449774.5874262,920.65690353131,2595992.1006651,28.295899589959,0,0
44.211448035357,-11.147023610091,23.100330033003,2449774.5874262,920.65690353131,2595992.1006651,28.300330033003,0,0
44.211448295042,-11.148404167706,23.104760476048,2449774.5874262,920.65690353131,2595992.1006651,28.304760476048,0,0
44.211448554727,-11.149784725321,23.109190919092,2449774.5874262,920.65690353131,2595992.1006651,28.309190919092,0,0
44.211448814412,-11.151165282936,23.113621362136,2449774.5874262,920.65690353131,2595992.1006651,28.313621362136,0,0
44.211449074097,-11.152545840551,23.118051805181,2449774.5874262,920.65690353131,2595992.1006651,28.318051805181,0,0
44.211449333782,-11.153926398165,23.122482248225,2449774.5874262,920.65690353131,2595992.1006651,28.322482248225,0,0
44.211449593467,-11.15530695578,23.126912691269,2449774.5874262,920.65690353131,2595992.1006651,28.326912691269,0,0
44.211449853151,-11.156687513395,23.131343134313,2449774.5874262,920.65690353131,2595992.1006651,28.331343134313,0,0
44.211450112836,-11.15806807101,23.135773577358,2449774.5874262,920.65690353131,2595992.1006651,28.335773577358,0,0
44.211450372521,-11.159448628625,23.140204020402,2449774.5874262,920.65690353131,2595992.1006651,28.340204020402,0,0
44.211450632206,-11.16082918624,23.144634463446,2449774.5874262,920.65690353131,2595992.1006651,28.344634463446,0,0
44.211450891891,-11.162209743855,23.149064906491,2449774.5874262,920.65690353131,2595992.1006651,28.349064906491,0,0
44.211451151576,-11.163590301469,23.153495349535,2449774.5874262,920.65690353131,2595992.1006651,28.353495349535,0,0
44.211451411261,-11.164970859084,23.157925792579,2449774.5874262,920.65690353131,2595992.1006651,28.357925792579,0,0
44.211451670946,-11.166351416699,23.162356235624,2449774.5874262,920.65690353131,2595992.1006651,28.362356235624,0,0
44.211451930631,-11.167731974314,23.166786678668,2449774.5874262,920.65690353131,2595992.1006651,28.366786678668,0,0
44.211452190316,-11.169112531929,23.171217121712,2449774.5874262,920.65690353131,2595992.1006651,28.371217121712,0,0
44.211452450001,-11.170493089544,23.175647564756,2449774.5874262,920.65690353131,2595992.1006651,28.375647564756,0,0
44.211452709686,-11.171873647158,23.180078007801,2449774.5874262,920.65690353131,2595992.1006651,28.380078007801,0,0
44.211452969371,-11.173254204773,23.184508450845,2449774.5874262,920.65690353131,2595992.1006651,28.384508450845,0,0
44.211453229056,-11.174634762388,23.188938893889,2449774.5874262,920.65690353131,2595992.1006651,28.388938893889,0,0
44.211453488741,-11.176015320003,23.193369336934,2449774.5874262,920.65690353131,2595992.1006651,28.393369336934,0,0
44.211453748426,-11.177395877618,23.197799779978,2449774.5874262,920.65690353131,2595992.1006651,28.397799779978,0,0
44.211454008111,-11.178776435233,23.202230223022,2449774.5874262,920.65690353131,2595992.1006651,28.402230223022,0,0
44.211454267796,-11.180156992848,23.206660666067,2449774.5874262,920.65690353131,2595992.1006651,28.406660666067,0,0
44.211454527481,-11.181537550462,23.211091109111,2449774.5874262,920.65690353131,2595992.1006651,28.411091109111,0,0
44.211454787166,-11.182918108077,23.215521552155,2449774.5874262,920.65690353131,2595992.1006651,28.415521552155,0,0
44.211455046851,-11.184298665692,23.2199519952,2449774.5874262,920.65690353131,2595992.1006651,28.4199519952,0,0
44.211455306536,-11.185679223307,23.224382438244,2449774.5874262,920.65690353131,2595992.1006651,28.424382438244,0,0
44.211455566221,-11.187059780922,23.228812881288,2449774.5874262,920.65690353131,2595992.1006651,28.428812881288,0,0
44.211455825906,-11.188440338537,23.233243324332,2449774.5874262,920.65690353131,2595992.1006651,28.433243324332,0,0
44.211456085591,-11.189820896152,23.237673767377,2449774.5874262,920.65690353131,2595992.1006651,28.437673767377,0,0
44.211456345276,-11.191201453766,23.242104210421,2449774.5874262,920.65690353131,2595992.1006651,28.442104210421,0,0
44.211456604961,-11.192582011381,23.246534653465,2449774.5874262,920.65690353131,2595992.1006651,28.446534653465,0,0
44.211456864646,-11.193962568996,23.25096509651,2449774.5874262,920.65690353131,2595992.1006651,28.45096509651,0,0
44.211457124331,-11.195343126611,23.255395539554,2449774.5874262,920.65690353131,2595992.1006651,28.455395539554,0,0
44.211457384016,-11.196723684226,23.259825982598,2449774.5874262,920.65690353131,2595992.1006651,28.459825982598,0,0
44.211457643701,-11.198104241841,23.264256425643,2449774.5874262,920.65690353131,2595992.1006651,28.464256425643,0,0
44.211457903386,-11.199484799455,23.268686868687,2449774.5874262,920.65690353131,2595992.1006651,28.468686868687,0,0
44.211458163071,-11.20086535707,23.273117311731,2449774.5874262,920.65690353131,2595992.1006651,28.473117311731,0,0
44.211458422756,-11.202245914685,23.277547754775,2449774.5874262,920.65690353131,2595992.1006651,28.477547754775,0,0
44.211458682441,-11.2036264723,23.28197819782,2449774.5874262,920.65690353131,2595992.1006651,28.48197819782,0,0
44.211458942126,-11.205007029915,23.286408640864,2449774.5874262,920.65690353131,2595992.1006651,28.486408640864,0,0
44.211459201811,-11.20638758753,23.290839083908,2449774.5874262,920.65690353131,2595992.1006651,28.490839083908,0,0
44.211459461496,-11.207768145145,23.295269526953,2449774.5874262,920.65690353131,2595992.1006651,28.495269526953,0,0
44.211459721181,-11.209148702759,23.299699969997,2449774.5874262,920.65690353131,2595992.1006651,28.499699969997,0,0
44.211459980866,-11.210529260374,23.304130413041,2449774.5874262,920.65690353131,2595992.1006651,28.504130413041,0,0
44.211460240551,-11.211909817989,23.308560856086,2449774.5874262,920.65690353131,2595992.1006651,28.508560856086,0,0
44.211460500236,-11.213290375604,23.31299129913,2449774.5874262,920.65690353131,2595992.1006651,28.51299129913,0,0
44.211460759921,-11.214670933219,23.317421742174,2449774.5874262,920.65690353131,2595992.1006651,28.517421742174,0,0
44.211461019606,-11.216051490834,23.321852185219,2449774.5874262,920.65690353131,2595992.1006651,28.521852185219,0,0
44.211461279291,-11.217432048448,23.326282628263,2449774.5874262,920.65690353131,2595992.1006651,28.526282628263,0,0
44.211461538976,-11.218812606063,23.330713071307,2449774.5874262,920.65690353131,2595992.1006651,28.530713071307,0,0
44.21146179866,-11.220193163678,23.335143514351,2449774.5874262,920.65690353131,2595992.1006651,28.535143514351,0,0
44.211462058345,-11.221573721293,23.339573957396,2449774.5874262,920.65690353131,2595992.1006651,28.539573957396,0,0
44.21146231803,-11.222954278908,23.34400440044,2449774.5874262,920.65690353131,2595992.1006651,28.54400440044,0,0
44.211462577715,-11.224334836523,23.348434843484,2449774.5874262,920.65690353131,2595992.1006651,28.548434843484,0,0
44.2114628374,-11.225715394138,23.352865286529,2449774.5874262,920.65690353131,2595992.1006651,28.552865286529,0,0
44.211463097085,-11.227095951752,23.357295729573,2449774.5874262,920.65690353131,2595992.1006651,28.557295729573,0,0
44.21146335677,-11.228476509367,23.361726172617,2449774.5874262,920.65690353131,2595992.1006651,28.561726172617,0,0
44.211463616455,-11.229857066982,23.366156615662,2449774.5874262,920.65690353131,2595992.1006651,28.566156615662,0,0
44.21146387614,-11.231237624597,23.370587058706,2449774.5874262,920.65690353131,2595992.1006651,28.570587058706,0,0
44.211464135825,-11.232618182212,23.37501750175,2449774.5874262,920.65690353131,2595992.1006651,28.57501750175,0,0
44.21146439551,-11.233998739827,23.379447944794,2449774.5874262,920.65690353131,2595992.1006651,28.579447944794,0,0
44.211464655195,-11.235379297442,23.383878387839,2449774.5874262,920.65690353131,2595992.1006651,28.583878387839,0,0
44.21146491488,-11.236759855056,23.388308830883,2449774.5874262,920.65690353131,2595992.1006651,28.588308830883,0,0
44.211465174565,-11.238140412671,23.392739273927,2449774.5874262,920.65690353131,2595992.1006651,28.592739273927,0,0
44.21146543425,-11.239520970286,23.397169716972,2449774.5874262,920.65690353131,2595992.1006651,28.597169716972,0,0
44.211465693935,-11.240901527901,23.401600160016,2449774.5874262,920.65690353131,2595992.1006651,28.601600160016,0,0
44.21146595362,-11.242282085516,23.40603060306,2449774.5874262,920.65690353131,2595992.1006651,28.60603060306,0,0
44.211466213305,-11.243662643131,23.410461046105,2449774.5874262,920.65690353131,2595992.1006651,28.610461046105,0,0
44.21146647299,-11.245043200745,23.414891489149,2449774.5874262,920.65690353131,2595992.1006651,28.614891489149,0,0
44.211466732675,-11.24642375836,23.419321932193,2449774.5874262,920.65690353131,2595992.1006651,28.619321932193,0,0
44.21146699236,-11.247804315975,23.423752375238,2449774.5874262,920.65690353131,2595992.1006651,28.623752375238,0,0
44.211467252045,-11.24918487359,23.428182818282,2449774.5874262,920.65690353131,2595992.1006651,28.628182818282,0,0
44.21146751173,-11.250565431205,23.432613261326,2449774.5874262,920.65690353131,2595992.1006651,28.632613261326,0,0
44.211467771415,-11.25194598882,23.43704370437,2449774.5874262,920.65690353131,2595992.1006651,28.63704370437,0,0
44.2114680311,-11.253326546435,23.441474147415,2449774.5874262,920.65690353131,2595992.1006651,28.641474147415,0,0
44.211468290785,-11.254707104049,23.445904590459,2449774.5874262,920.65690353131,2595992.1006651,28.645904590459,0,0
44.21146855047,-11.256087661664,23.450335033503,2449774.5874262,920.65690353131,2595992.1006651,28.650335033503,0,0
44.211468810155,-11.257468219279,23.454765476548,2449774.5874262,920.65690353131,2595992.1006651,28.654765476548,0,0
44.21146906984,-11.258848776894,23.459195919592,2449774.5874262,920.65690353131,2595992.1006651,28.659195919592,0,0
44.211469329525,-11.260229334509,23.463626362636,2449774.5874262,920.65690353131,2595992.1006651,28.663626362636,0,0
44.21146958921,-11.261609892124,23.468056805681,2449774.5874262,920.65690353131,2595992.1006651,28.668056805681,0,0
44.211469848895,-11.262990449739,23.472487248725,2449774.5874262,920.65690353131,2595992.1006651,28.672487248725,0,0
44.21147010858,-11.264371007353,23.476917691769,2449774.5874262,920.65690353131,2595992.1006651,28.676917691769,0,0
44.211470368265,-11.265751564968,23.481348134813,2449774.5874262,920.65690353131,2595992.1006651,28.681348134813,0,0
44.21147062795,-11.267132122583,23.485778577858,2449774.5874262,920.65690353131,2595992.1006651,28.685778577858,0,0
44.211470887635,-11.268512680198,23.490209020902,2449774.5874262,920.65690353131,2595992.1006651,28.690209020902,0,0
44.21147114732,-11.269893237813,23.494639463946,2449774.5874262,920.65690353131,2595992.1006651,28.694639463946,0,0
44.211471407005,-11.271273795428,23.499069906991,2449774.5874262,920.65690353131,2595992.1006651,28.699069906991,0,0
44.21147166669,-11.272654353042,23.503500350035,2449774.5874262,920.65690353131,2595992.1006651,28.703500350035,0,0
44.211471926375,-11.274034910657,23.507930793079,2449774.5874262,920.65690353131,2595992.1006651,28.707930793079,0,0
44.21147218606,-11.275415468272,23.512361236124,2449774.5874262,920.65690353131,2595992.1006651,28.712361236124,0,0
44.211472445745,-11.276796025887,23.516791679168,2449774.5874262,920.65690353131,2595992.1006651,28.716791679168,0,0
44.21147270543,-11.278176583502,23.521222122212,2449774.5874262,920.65690353131,2595992.1006651,28.721222122212,0,0
44.211472965115,-11.279557141117,23.525652565257,2449774.5874262,920.65690353131,2595992.1006651,28.725652565257,0,0
44.2114732248,-11.280937698732,23.530083008301,2449774.5874262,920.65690353131,2595992.1006651,28.730083008301,0,0
44.211473484485,-11.282318256346,23.534513451345,2449774.5874262,920.65690353131,2595992.1006651,28.734513451345,0,0
44.21147374417,-11.283698813961,23.538943894389,2449774.5874262,920.65690353131,2595992.1006651,28.738943894389,0,0
44.211474003854,-11.285079371576,23.543374337434,2449774.5874262,920.65690353131,2595992.1006651,28.743374337434,0,0
44.211474263539,-11.286459929191,23.547804780478,2449774.5874262,920.65690353131,2595992.1006651,28.747804780478,0,0
44.211474523224,-11.287840486806,23.552235223522,2449774.5874262,920.65690353131,2595992.1006651,28.752235223522,0,0
44.211474782909,-11.289221044421,23.556665666567,2449774.5874262,920.65690353131,2595992.1006651,28.756665666567,0,0
44.211475042594,-11.290601602036,23.561096109611,2449774.5874262,920.65690353131,2595992.1006651,28.761096109611,0,0
44.211475302279,-11.29198215965,23.565526552655,2449774.5874262,920.65690353131,2595992.1006651,28.765526552655,0,0
44.211475561964,-11.293362717265,23.5699569957,2449774.5874262,920.65690353131,2595992.1006651,28.7699569957,0,0
44.211475821649,-11.29474327488,23.574387438744,2449774.5874262,920.65690353131,2595992.1006651,28.774387438744,0,0
44.211476081334,-11.296123832495,23.578817881788,2449774.5874262,920.65690353131,2595992.1006651,28.778817881788,0,0
44.211476341019,-11.29750439011,23.583248324832,2449774.5874262,920.65690353131,2595992.1006651,28.783248324832,0,0
44.211476600704,-11.298884947725,23.587678767877,2449774.5874262,920.65690353131,2595992.1006651,28.787678767877,0,0
44.211476860389,-11.300265505339,23.592109210921,2449774.5874262,920.65690353131,2595992.1006651,28.792109210921,0,0
44.211477120074,-11.301646062954,23.596539653965,2449774.5874262,920.65690353131,2595992.1006651,28.796539653965,0,0
44.211477379759,-11.303026620569,23.60097009701,2449774.5874262,920.65690353131,2595992.1006651,28.80097009701,0,0
44.211477639444,-11.304407178184,23.605400540054,2449774.5874262,920.65690353131,2595992.1006651,28.805400540054,0,0
44.211477899129,-11.305787735799,23.609830983098,2449774.5874262,920.65690353131,2595992.1006651,28.809830983098,0,0
44.211478158814,-11.307168293414,23.614261426143,2449774.5874262,920.65690353131,2595992.1006651,28.814261426143,0,0
44.211478418499,-11.308548851029,23.618691869187,2449774.5874262,920.65690353131,2595992.1006651,28.818691869187,0,0
44.211478678184,-11.309929408643,23.623122312231,2449774.5874262,920.65690353131,2595992.1006651,28.823122312231,0,0
44.211478937869,-11.311309966258,23.627552755276,2449774.5874262,920.65690353131,2595992.1006651,28.827552755276,0,0
44.211479197554,-11.312690523873,23.63198319832,2449774.5874262,920.65690353131,2595992.1006651,28.83198319832,0,0
44.211479457239,-11.314071081488,23.636413641364,2449774.5874262,920.65690353131,2595992.1006651,28.836413641364,0,0
44.211479716924,-11.315451639103,23.640844084408,2449774.5874262,920.65690353131,2595992.1006651,28.840844084408,0,0
44.211479976609,-11.316832196718,23.645274527453,2449774.5874262,920.65690353131,2595992.1006651,28.845274527453,0,0
44.211480236294,-11.318212754332,23.649704970497,2449774.5874262,920.65690353131,2595992.1006651,28.849704970497,0,0
44.211480495979,-11.319593311947,23.654135413541,2449774.5874262,920.65690353131,2595992.1006651,28.854135413541,0,0
44.211480755664,-11.320973869562,23.658565856586,2449774.5874262,920.65690353131,2595992.1006651,28.858565856586,0,0
44.211481015349,-11.322354427177,23.66299629963,2449774.5874262,920.65690353131,2595992.1006651,28.86299629963,0,0
44.211481275034,-11.323734984792,23.667426742674,2449774.5874262,920.65690353131,2595992.1006651,28.867426742674,0,0
44.211481534719,-11.325115542407,23.671857185719,2449774.5874262,920.65690353131,2595992.1006651,28.871857185719,0,0
44.211481794404,-11.326496100022,23.676287628763,2449774.5874262,920.65690353131,2595992.1006651,28.876287628763,0,0
44.211482054089,-11.327876657636,23.680718071807,2449774.5874262,920.65690353131,2595992.1006651,28.880718071807,0,0
44.211482313774,-11.329257215251,23.685148514851,2449774.5874262,920.65690353131,2595992.1006651,28.885148514851,0,0
44.211482573459,-11.330637772866,23.689578957896,2449774.5874262,920.65690353131,2595992.1006651,28.889578957896,0,0
44.211482833144,-11.332018330481,23.69400940094,2449774.5874262,920.65690353131,2595992.1006651,28.89400940094,0,0
44.211483092829,-11.333398888096,23.698439843984,2449774.5874262,920.65690353131,2595992.1006651,28.898439843984,0,0
44.211483352514,-11.334779445711,23.702870287029,2449774.5874262,920.65690353131,2595992.1006651,28.902870287029,0,0
44.211483612199,-11.336160003326,23.707300730073,2449774.5874262,920.65690353131,2595992.1006651,28.907300730073,0,0
44.211483871884,-11.33754056094,23.711731173117,2449774.5874262,920.65690353131,2595992.1006651,28.911731173117,0,0
44.211484131569,-11.338921118555,23.716161616162,2449774.5874262,920.65690353131,2595992.1006651,28.916161616162,0,0
44.211484391254,-11.34030167617,23.720592059206,2449774.5874262,920.65690353131,2595992.1006651,28.920592059206,0,0
44.211484650939,-11.341682233785,23.72502250225,2449774.5874262,920.65690353131,2595992.1006651,28.92502250225,0,0
44.211484910624,-11.3430627914,23.729452945295,2449774.5874262,920.65690353131,2595992.1006651,28.929452945295,0,0
44.211485170309,-11.344443349015,23.733883388339,2449774.5874262,920.65690353131,2595992.1006651,28.933883388339,0,0
44.211485429994,-11.345823906629,23.738313831383,2449774.5874262,920.65690353131,2595992.1006651,28.938313831383,0,0
44.211485689679,-11.347204464244,23.742744274427,2449774.5874262,920.65690353131,2595992.1006651,28.942744274427,0,0
44.211485949363,-11.348585021859,23.747174717472,2449774.5874262,920.65690353131,2595992.1006651,28.947174717472,0,0
44.211486209048,-11.349965579474,23.751605160516,2449774.5874262,920.65690353131,2595992.1006651,28.951605160516,0,0
44.211486468733,-11.351346137089,23.75603560356,2449774.5874262,920.65690353131,2595992.1006651,28.95603560356,0,0
44.211486728418,-11.352726694704,23.760466046605,2449774.5874262,920.65690353131,2595992.1006651,28.960466046605,0,0
44.211486988103,-11.354107252319,23.764896489649,2449774.5874262,920.65690353131,2595992.1006651,28.964896489649,0,0
44.211487247788,-11.355487809933,23.769326932693,2449774.5874262,920.65690353131,2595992.1006651,28.969326932693,0,0
44.211487507473,-11.356868367548,23.773757375738,2449774.5874262,920.65690353131,2595992.1006651,28.973757375738,0,0
44.211487767158,-11.358248925163,23.778187818782,2449774.5874262,920.65690353131,2595992.1006651,28.978187818782,0,0
44.211488026843,-11.359629482778,23.782618261826,2449774.5874262,920.65690353131,2595992.1006651,28.982618261826,0,0
44.211488286528,-11.361010040393,23.78704870487,2449774.5874262,920.65690353131,2595992.1006651,28.98704870487,0,0
44.211488546213,-11.362390598008,23.791479147915,2449774.5874262,920.65690353131,2595992.1006651,28.991479147915,0,0
44.211488805898,-11.363771155623,23.795909590959,2449774.5874262,920.65690353131,2595992.1006651,28.995909590959,0,0
44.211489065583,-11.365151713237,23.800340034003,2449774.5874262,920.65690353131,2595992.1006651,29.000340034003,0,0
44.211489325268,-11.366532270852,23.804770477048,2449774.5874262,920.65690353131,2595992.1006651,29.004770477048,0,0
44.211489584953,-11.367912828467,23.809200920092,2449774.5874262,920.65690353131,2595992.1006651,29.009200920092,0,0
44.211489844638,-11.369293386082,23.813631363136,2449774.5874262,920.65690353131,2595992.1006651,29.013631363136,0,0
44.211490104323,-11.370673943697,23.818061806181,2449774.5874262,920.65690353131,2595992.1006651,29.018061806181,0,0
44.211490364008,-11.372054501312,23.822492249225,2449774.5874262,920.65690353131,2595992.1006651,29.022492249225,0,0
44.211490623693,-11.373435058926,23.826922692269,2449774.5874262,920.65690353131,2595992.1006651,29.026922692269,0,0
44.211490883378,-11.374815616541,23.831353135314,2449774.5874262,920.65690353131,2595992.1006651,29.031353135314,0,0
44.211491143063,-11.376196174156,23.835783578358,2449774.5874262,920.65690353131,2595992.1006651,29.035783578358,0,0
44.211491402748,-11.377576731771,23.840214021402,2449774.5874262,920.65690353131,2595992.1006651,29.040214021402,0,0
44.211491662433,-11.378957289386,23.844644464446,2449774.5874262,920.65690353131,2595992.1006651,29.044644464446,0,0
44.211491922118,-11.380337847001,23.849074907491,2449774.5874262,920.65690353131,2595992.1006651,29.049074907491,0,0
44.211492181803,-11.381718404616,23.853505350535,2449774.5874262,920.65690353131,2595992.1006651,29.053505350535,0,0
44.211492441488,-11.38309896223,23.857935793579,2449774.5874262,920.65690353131,2595992.1006651,29.057935793579,0,0
44.211492701173,-11.384479519845,23.862366236624,2449774.5874262,920.65690353131,2595992.1006651,29.062366236624,0,0
44.211492960858,-11.38586007746,23.866796679668,2449774.5874262,920.65690353131,2595992.1006651,29.066796679668,0,0
44.211493220543,-11.387240635075,23.871227122712,2449774.5874262,920.65690353131,2595992.1006651,29.071227122712,0,0
44.211493480228,-11.38862119269,23.875657565757,2449774.5874262,920.65690353131,2595992.1006651,29.075657565757,0,0
44.211493739913,-11.390001750305,23.880088008801,2449774.5874262,920.65690353131,2595992.1006651,29.080088008801,0,0
44.211493999598,-11.39138230792,23.884518451845,2449774.5874262,920.65690353131,2595992.1006651,29.084518451845,0,0
44.211494259283,-11.392762865534,23.888948894889,2449774.5874262,920.65690353131,2595992.1006651,29.088948894889,0,0
44.211494518968,-11.394143423149,23.893379337934,2449774.5874262,920.65690353131,2595992.1006651,29.093379337934,0,0
44.211494778653,-11.395523980764,23.897809780978,2449774.5874262,920.65690353131,2595992.1006651,29.097809780978,0,0
44.211495038338,-11.396904538379,23.902240224022,2449774.5874262,920.65690353131,2595992.1006651,29.102240224022,0,0
44.211495298023,-11.398285095994,23.906670667067,2449774.5874262,920.65690353131,2595992.1006651,29.106670667067,0,0
44.211495557708,-11.399665653609,23.911101110111,2449774.5874262,920.65690353131,2595992.1006651,29.111101110111,0,0
44.211495817393,-11.401046211223,23.915531553155,2449774.5874262,920.65690353131,2595992.1006651,29.115531553155,0,0
44.211496077078,-11.402426768838,23.9199619962,2449774.5874262,920.65690353131,2595992.1006651,29.1199619962,0,0
44.211496336763,-11.403807326453,23.924392439244,2449774.5874262,920.65690353131,2595992.1006651,29.124392439244,0,0
44.211496596448,-11.405187884068,23.928822882288,2449774.5874262,920.65690353131,2595992.1006651,29.128822882288,0,0
44.211496856133,-11.406568441683,23.933253325333,2449774.5874262,920.65690353131,2595992.1006651,29.133253325333,0,0
44.211497115818,-11.407948999298,23.937683768377,2449774.5874262,920.65690353131,2595992.1006651,29.137683768377,0,0
44.211497375503,-11.409329556913,23.942114211421,2449774.5874262,920.65690353131,2595992.1006651,29.142114211421,0,0
44.211497635188,-11.410710114527,23.946544654465,2449774.5874262,920.65690353131,2595992.1006651,29.146544654465,0,0
44.211497894873,-11.412090672142,23.95097509751,2449774.5874262,920.65690353131,2595992.1006651,29.15097509751,0,0
44.211498154557,-11.413471229757,23.955405540554,2449774.5874262,920.65690353131,2595992.1006651,29.155405540554,0,0
44.211498414242,-11.414851787372,23.959835983598,2449774.5874262,920.65690353131,2595992.1006651,29.159835983598,0,0
44.211498673927,-11.416232344987,23.964266426643,2449774.5874262,920.65690353131,2595992.1006651,29.164266426643,0,0
44.211498933612,-11.417612902602,23.968696869687,2449774.5874262,920.65690353131,2595992.1006651,29.168696869687,0,0
44.211499193297,-11.418993460216,23.973127312731,2449774.5874262,920.65690353131,2595992.1006651,29.173127312731,0,0
44.211499452982,-11.420374017831,23.977557755776,2449774.5874262,920.65690353131,2595992.1006651,29.177557755776,0,0
44.211499712667,-11.421754575446,23.98198819882,2449774.5874262,920.65690353131,2595992.1006651,29.18198819882,0,0
44.211499972352,-11.423135133061,23.986418641864,2449774.5874262,920.65690353131,2595992.1006651,29.186418641864,0,0
44.211500232037,-11.424515690676,23.990849084908,2449774.5874262,920.65690353131,2595992.1006651,29.190849084908,0,0
44.211500491722,-11.425896248291,23.995279527953,2449774.5874262,920.65690353131,2595992.1006651,29.195279527953,0,0
44.211500751407,-11.427276805906,23.999709970997,2449774.5874262,920.65690353131,2595992.1006651,29.199709970997,0,0
44.211501011092,-11.42865736352,24.004140414041,2449774.5874262,920.65690353131,2595992.1006651,29.204140414041,0,0
44.211501270777,-11.430037921135,24.008570857086,2449774.5874262,920.65690353131,2595992.1006651,29.208570857086,0,0
44.211501530462,-11.43141847875,24.01300130013,2449774.5874262,920.65690353131,2595992.1006651,29.21300130013,0,0
44.211501790147,-11.432799036365,24.017431743174,2449774.5874262,920.65690353131,2595992.1006651,29.217431743174,0,0
44.211502049832,-11.43417959398,24.021862186219,2449774.5874262,920.65690353131,2595992.1006651,29.221862186219,0,0
44.211502309517,-11.435560151595,24.026292629263,2449774.5874262,920.65690353131,2595992.1006651,29.226292629263,0,0
44.211502569202,-11.43694070921,24.030723072307,2449774.5874262,920.65690353131,2595992.1006651,29.230723072307,0,0
44.211502828887,-11.438321266824,24.035153515352,2449774.5874262,920.65690353131,2595992.1006651,29.235153515352,0,0
44.211503088572,-11.439701824439,24.039583958396,2449774.5874262,920.65690353131,2595992.1006651,29.239583958396,0,0
44.211503348257,-11.441082382054,24.04401440144,2449774.5874262,920.65690353131,2595992.1006651,29.24401440144,0,0
44.211503607942,-11.442462939669,24.048444844484,2449774.5874262,920.65690353131,2595992.1006651,29.248444844484,0,0
44.211503867627,-11.443843497284,24.052875287529,2449774.5874262,920.65690353131,2595992.1006651,29.252875287529,0,0
44.211504127312,-11.445224054899,24.057305730573,2449774.5874262,920.65690353131,2595992.1006651,29.257305730573,0,0
44.211504386997,-11.446604612513,24.061736173617,2449774.5874262,920.65690353131,2595992.1006651,29.261736173617,0,0
44.211504646682,-11.447985170128,24.066166616662,2449774.5874262,920.65690353131,2595992.1006651,29.266166616662,0,0
44.211504906367,-11.449365727743,24.070597059706,2449774.5874262,920.65690353131,2595992.1006651,29.270597059706,0,0
44.211505166052,-11.450746285358,24.07502750275,2449774.5874262,920.65690353131,2595992.1006651,29.27502750275,0,0
44.211505425737,-11.452126842973,24.079457945795,2449774.5874262,920.65690353131,2595992.1006651,29.279457945795,0,0
44.211505685422,-11.453507400588,24.083888388839,2449774.5874262,920.65690353131,2595992.1006651,29.283888388839,0,0
44.211505945107,-11.454887958203,24.088318831883,2449774.5874262,920.65690353131,2595992.1006651,29.288318831883,0,0
44.211506204792,-11.456268515817,24.092749274927,2449774.5874262,920.65690353131,2595992.1006651,29.292749274927,0,0
44.211506464477,-11.457649073432,24.097179717972,2449774.5874262,920.65690353131,2595992.1006651,29.297179717972,0,0
44.211506724162,-11.459029631047,24.101610161016,2449774.5874262,920.65690353131,2595992.1006651,29.301610161016,0,0
44.211506983847,-11.460410188662,24.10604060406,2449774.5874262,920.65690353131,2595992.1006651,29.30604060406,0,0
44.211507243532,-11.461790746277,24.110471047105,2449774.5874262,920.65690353131,2595992.1006651,29.310471047105,0,0
44.211507503217,-11.463171303892,24.114901490149,2449774.5874262,920.65690353131,2595992.1006651,29.314901490149,0,0
44.211507762902,-11.464551861507,24.119331933193,2449774.5874262,920.65690353131,2595992.1006651,29.319331933193,0,0
44.211508022587,-11.465932419121,24.123762376238,2449774.5874262,920.65690353131,2595992.1006651,29.323762376238,0,0
44.211508282272,-11.467312976736,24.128192819282,2449774.5874262,920.65690353131,2595992.1006651,29.328192819282,0,0
44.211508541957,-11.468693534351,24.132623262326,2449774.5874262,920.65690353131,2595992.1006651,29.332623262326,0,0
44.211508801642,-11.470074091966,24.137053705371,2449774.5874262,920.65690353131,2595992.1006651,29.337053705371,0,0
44.211509061327,-11.471454649581,24.141484148415,2449774.5874262,920.65690353131,2595992.1006651,29.341484148415,0,0
44.211509321012,-11.472835207196,24.145914591459,2449774.5874262,920.65690353131,2595992.1006651,29.345914591459,0,0
44.211509580697,-11.47421576481,24.150345034503,2449774.5874262,920.65690353131,2595992.1006651,29.350345034503,0,0
44.211509840382,-11.475596322425,24.154775477548,2449774.5874262,920.65690353131,2595992.1006651,29.354775477548,0,0
44.211510100066,-11.47697688004,24.159205920592,2449774.5874262,920.65690353131,2595992.1006651,29.359205920592,0,0
44.211510359751,-11.478357437655,24.163636363636,2449774.5874262,920.65690353131,2595992.1006651,29.363636363636,0,0
44.211510619436,-11.47973799527,24.168066806681,2449774.5874262,920.65690353131,2595992.1006651,29.368066806681,0,0
44.211510879121,-11.481118552885,24.172497249725,2449774.5874262,920.65690353131,2595992.1006651,29.372497249725,0,0
44.211511138806,-11.4824991105,24.176927692769,2449774.5874262,920.65690353131,2595992.1006651,29.376927692769,0,0
44.211511398491,-11.483879668114,24.181358135814,2449774.5874262,920.65690353131,2595992.1006651,29.381358135814,0,0
44.211511658176,-11.485260225729,24.185788578858,2449774.5874262,920.65690353131,2595992.1006651,29.385788578858,0,0
44.211511917861,-11.486640783344,24.190219021902,2449774.5874262,920.65690353131,2595992.1006651,29.390219021902,0,0
44.211512177546,-11.488021340959,24.194649464946,2449774.5874262,920.65690353131,2595992.1006651,29.394649464946,0,0
44.211512437231,-11.489401898574,24.199079907991,2449774.5874262,920.65690353131,2595992.1006651,29.399079907991,0,0
44.211512696916,-11.490782456189,24.203510351035,2449774.5874262,920.65690353131,2595992.1006651,29.403510351035,0,0
44.211512956601,-11.492163013804,24.207940794079,2449774.5874262,920.65690353131,2595992.1006651,29.407940794079,0,0
44.211513216286,-11.493543571418,24.212371237124,2449774.5874262,920.65690353131,2595992.1006651,29.412371237124,0,0
44.211513475971,-11.494924129033,24.216801680168,2449774.5874262,920.65690353131,2595992.1006651,29.416801680168,0,0
44.211513735656,-11.496304686648,24.221232123212,2449774.5874262,920.65690353131,2595992.1006651,29.421232123212,0,0
44.211513995341,-11.497685244263,24.225662566257,2449774.5874262,920.65690353131,2595992.1006651,29.425662566257,0,0
44.211514255026,-11.499065801878,24.230093009301,2449774.5874262,920.65690353131,2595992.1006651,29.430093009301,0,0
44.211514514711,-11.500446359493,24.234523452345,2449774.5874262,920.65690353131,2595992.1006651,29.434523452345,0,0
44.211514774396,-11.501826917107,24.23895389539,2449774.5874262,920.65690353131,2595992.1006651,29.43895389539,0,0
44.211515034081,-11.503207474722,24.243384338434,2449774.5874262,920.65690353131,2595992.1006651,29.443384338434,0,0
44.211515293766,-11.504588032337,24.247814781478,2449774.5874262,920.65690353131,2595992.1006651,29.447814781478,0,0
44.211515553451,-11.505968589952,24.252245224522,2449774.5874262,920.65690353131,2595992.1006651,29.452245224522,0,0
44.211515813136,-11.507349147567,24.256675667567,2449774.5874262,920.65690353131,2595992.1006651,29.456675667567,0,0
44.211516072821,-11.508729705182,24.261106110611,2449774.5874262,920.65690353131,2595992.1006651,29.461106110611,0,0
44.211516332506,-11.510110262797,24.265536553655,2449774.5874262,920.65690353131,2595992.1006651,29.465536553655,0,0
44.211516592191,-11.511490820411,24.2699669967,2449774.5874262,920.65690353131,2595992.1006651,29.4699669967,0,0
44.211516851876,-11.512871378026,24.274397439744,2449774.5874262,920.65690353131,2595992.1006651,29.474397439744,0,0
44.211517111561,-11.514251935641,24.278827882788,2449774.5874262,920.65690353131,2595992.1006651,29.478827882788,0,0
44.211517371246,-11.515632493256,24.283258325833,2449774.5874262,920.65690353131,2595992.1006651,29.483258325833,0,0
44.211517630931,-11.517013050871,24.287688768877,2449774.5874262,920.65690353131,2595992.1006651,29.487688768877,0,0
44.211517890616,-11.518393608486,24.292119211921,2449774.5874262,920.65690353131,2595992.1006651,29.492119211921,0,0
44.211518150301,-11.5197741661,24.296549654965,2449774.5874262,920.65690353131,2595992.1006651,29.496549654965,0,0
44.211518409986,-11.521154723715,24.30098009801,2449774.5874262,920.65690353131,2595992.1006651,29.50098009801,0,0
44.211518669671,-11.52253528133,24.305410541054,2449774.5874262,920.65690353131,2595992.1006651,29.505410541054,0,0
44.211518929356,-11.523915838945,24.309840984098,2449774.5874262,920.65690353131,2595992.1006651,29.509840984098,0,0
44.211519189041,-11.52529639656,24.314271427143,2449774.5874262,920.65690353131,2595992.1006651,29.514271427143,0,0
44.211519448726,-11.526676954175,24.318701870187,2449774.5874262,920.65690353131,2595992.1006651,29.518701870187,0,0
44.211519708604,-11.528057511553,24.323132313231,2457509.8864324,3133.0902191939,2592582.1619245,29.523132313231,0,0
44.211519968998,-11.529438068305,24.327562756276,2457509.8864324,3133.0902191939,2592582.1619245,29.527562756276,0,0
44.211520229392,-11.530818625056,24.33199319932,2457509.8864324,3133.0902191939,2592582.1619245,29.53199319932,0,0
44.211520489785,-11.532199181807,24.336423642364,2457509.8864324,3133.0902191939,2592582.1619245,29.536423642364,0,0
44.211520750179,-11.533579738558,24.340854085409,2457509.8864324,3133.0902191939,2592582.1619245,29.540854085409,0,0
44.211521010573,-11.534960295309,24.345284528453,2457509.8864324,3133.0902191939,2592582.1619245,29.545284528453,0,0
44.211521270966,-11.53634085206,24.349714971497,2457509.8864324,3133.0902191939,2592582.1619245,29.549714971497,0,0
44.21152153136,-11.537721408811,24.354145414541,2457509.8864324,3133.0902191939,2592582.1619245,29.554145414541,0,0
44.211521791754,-11.539101965563,24.358575857586,2457509.8864324,3133.0902191939,2592582.1619245,29.558575857586,0,0
44.211522052147,-11.540482522314,24.36300630063,2457509.8864324,3133.0902191939,2592582.1619245,29.56300630063,0,0
44.211522312541,-11.541863079065,24.367436743674,2457509.8864324,3133.0902191939,2592582.1619245,29.567436743674,0,0
44.211522572934,-11.543243635816,24.371867186719,2457509.8864324,3133.0902191939,2592582.1619245,29.571867186719,0,0
44.211522833328,-11.544624192567,24.376297629763,2457509.8864324,3133.0902191939,2592582.1619245,29.576297629763,0,0
44.211523093722,-11.546004749318,24.380728072807,2457509.8864324,3133.0902191939,2592582.1619245,29.580728072807,0,0
44.211523354115,-11.547385306069,24.385158515852,2457509.8864324,3133.0902191939,2592582.1619245,29.585158515852,0,0
44.211523614509,-11.548765862821,24.389588958896,2457509.8864324,3133.0902191939,2592582.1619245,29.589588958896,0,0
44.211523874903,-11.550146419572,24.39401940194,2457509.8864324,3133.0902191939,2592582.1619245,29.59401940194,0,0
44.211524135296,-11.551526976323,24.398449844984,2457509.8864324,3133.0902191939,2592582.1619245,29.598449844984,0,0
44.21152439569,-11.552907533074,24.402880288029,2457509.8864324,3133.0902191939,2592582.1619245,29.602880288029,0,0
44.211524656083,-11.554288089825,24.407310731073,2457509.8864324,3133.0902191939,2592582.1619245,29.607310731073,0,0
44.211524916477,-11.555668646576,24.411741174117,2457509.8864324,3133.0902191939,2592582.1619245,29.611741174117,0,0
44.211525176871,-11.557049203327,24.416171617162,2457509.8864324,3133.0902191939,2592582.1619245,29.616171617162,0,0
44.211525437264,-11.558429760079,24.420602060206,2457509.8864324,3133.0902191939,2592582.1619245,29.620602060206,0,0
44.211525697658,-11.55981031683,24.42503250325,2457509.8864324,3133.0902191939,2592582.1619245,29.62503250325,0,0
44.211525958052,-11.561190873581,24.429462946295,2457509.8864324,3133.0902191939,2592582.1619245,29.629462946295,0,0
44.211526218445,-11.562571430332,24.433893389339,2457509.8864324,3133.0902191939,2592582.1619245,29.633893389339,0,0
44.211526478839,-11.563951987083,24.438323832383,2457509.8864324,3133.0902191939,2592582.1619245,29.638323832383,0,0
44.211526739233,-11.565332543834,24.442754275428,2457509.8864324,3133.0902191939,2592582.1619245,29.642754275428,0,0
44.211526999626,-11.566713100585,24.447184718472,2457509.8864324,3133.0902191939,2592582.1619245,29.647184718472,0,0
44.21152726002,-11.568093657337,24.451615161516,2457509.8864324,3133.0902191939,2592582.1619245,29.651615161516,0,0
44.211527520413,-11.569474214088,24.45604560456,2457509.8864324,3133.0902191939,2592582.1619245,29.65604560456,0,0
44.211527780807,-11.570854770839,24.460476047605,2457509.8864324,3133.0902191939,2592582.1619245,29.660476047605,0,0
44.211528041201,-11.57223532759,24.464906490649,2457509.8864324,3133.0902191939,2592582.1619245,29.664906490649,0,0
44.211528301594,-11.573615884341,24.469336933693,2457509.8864324,3133.0902191939,2592582.1619245,29.669336933693,0,0
44.211528561988,-11.574996441092,24.473767376738,2457509.8864324,3133.0902191939,2592582.1619245,29.673767376738,0,0
44.211528822382,-11.576376997843,24.478197819782,2457509.8864324,3133.0902191939,2592582.1619245,29.678197819782,0,0
44.211529082775,-11.577757554595,24.482628262826,2457509.8864324,3133.0902191939,2592582.1619245,29.682628262826,0,0
44.211529343169,-11.579138111346,24.487058705871,2457509.8864324,3133.0902191939,2592582.1619245,29.687058705871,0,0
44.211529603562,-11.580518668097,24.491489148915,2457509.8864324,3133.0902191939,2592582.1619245,29.691489148915,0,0
44.211529863956,-11.581899224848,24.495919591959,2457509.8864324,3133.0902191939,2592582.1619245,29.695919591959,0,0
44.21153012435,-11.583279781599,24.500350035003,2457509.8864324,3133.0902191939,2592582.1619245,29.700350035003,0,0
44.211530384743,-11.58466033835,24.504780478048,2457509.8864324,3133.0902191939,2592582.1619245,29.704780478048,0,0
44.211530645137,-11.586040895101,24.509210921092,2457509.8864324,3133.0902191939,2592582.1619245,29.709210921092,0,0
44.211530905531,-11.587421451852,24.513641364136,2457509.8864324,3133.0902191939,2592582.1619245,29.713641364136,0,0
44.211531165924,-11.588802008604,24.518071807181,2457509.8864324,3133.0902191939,2592582.1619245,29.718071807181,0,0
44.211531426318,-11.590182565355,24.522502250225,2457509.8864324,3133.0902191939,2592582.1619245,29.722502250225,0,0
44.211531686712,-11.591563122106,24.526932693269,2457509.8864324,3133.0902191939,2592582.1619245,29.726932693269,0,0
44.211531947105,-11.592943678857,24.531363136314,2457509.8864324,3133.0902191939,2592582.1619245,29.731363136314,0,0
44.211532207499,-11.594324235608,24.535793579358,2457509.8864324,3133.0902191939,2592582.1619245,29.735793579358,0,0
44.211532467892,-11.595704792359,24.540224022402,2457509.8864324,3133.0902191939,2592582.1619245,29.740224022402,0,0
44.211532728286,-11.59708534911,24.544654465447,2457509.8864324,3133.0902191939,2592582.1619245,29.744654465447,0,0
44.21153298868,-11.598465905862,24.549084908491,2457509.8864324,3133.0902191939,2592582.1619245,29.749084908491,0,0
44.211533249073,-11.599846462613,24.553515351535,2457509.8864324,3133.0902191939,2592582.1619245,29.753515351535,0,0
44.211533509467,-11.601227019364,24.557945794579,2457509.8864324,3133.0902191939,2592582.1619245,29.757945794579,0,0
44.211533769861,-11.602607576115,24.562376237624,2457509.8864324,3133.0902191939,2592582.1619245,29.762376237624,0,0
44.211534030254,-11.603988132866,24.566806680668,2457509.8864324,3133.0902191939,2592582.1619245,29.766806680668,0,0
44.211534290648,-11.605368689617,24.571237123712,2457509.8864324,3133.0902191939,2592582.1619245,29.771237123712,0,0
44.211534551041,-11.606749246368,24.575667566757,2457509.8864324,3133.0902191939,2592582.1619245,29.775667566757,0,0
44.211534811435,-11.60812980312,24.580098009801,2457509.8864324,3133.0902191939,2592582.1619245,29.780098009801,0,0
44.211535071829,-11.609510359871,24.584528452845,2457509.8864324,3133.0902191939,2592582.1619245,29.784528452845,0,0
44.211535332222,-11.610890916622,24.58895889589,2457509.8864324,3133.0902191939,2592582.1619245,29.78895889589,0,0
44.211535592616,-11.612271473373,24.593389338934,2457509.8864324,3133.0902191939,2592582.1619245,29.793389338934,0,0
44.21153585301,-11.613652030124,24.597819781978,2457509.8864324,3133.0902191939,2592582.1619245,29.797819781978,0,0
44.211536113403,-11.615032586875,24.602250225022,2457509.8864324,3133.0902191939,2592582.1619245,29.802250225022,0,0
44.211536373797,-11.616413143626,24.606680668067,2457509.8864324,3133.0902191939,2592582.1619245,29.806680668067,0,0
44.211536634191,-11.617793700378,24.611111111111,2457509.8864324,3133.0902191939,2592582.1619245,29.811111111111,0,0
44.211536894584,-11.619174257129,24.615541554155,2457509.8864324,3133.0902191939,2592582.1619245,29.815541554155,0,0
44.211537154978,-11.62055481388,24.6199719972,2457509.8864324,3133.0902191939,2592582.1619245,29.8199719972,0,0
44.211537415371,-11.621935370631,24.624402440244,2457509.8864324,3133.0902191939,2592582.1619245,29.824402440244,0,0
44.211537675765,-11.623315927382,24.628832883288,2457509.8864324,3133.0902191939,2592582.1619245,29.828832883288,0,0
44.211537936159,-11.624696484133,24.633263326333,2457509.8864324,3133.0902191939,2592582.1619245,29.833263326333,0,0
44.211538196552,-11.626077040884,24.637693769377,2457509.8864324,3133.0902191939,2592582.1619245,29.837693769377,0,0
44.211538456946,-11.627457597636,24.642124212421,2457509.8864324,3133.0902191939,2592582.1619245,29.842124212421,0,0
44.21153871734,-11.628838154387,24.646554655466,2457509.8864324,3133.0902191939,2592582.1619245,29.846554655466,0,0
44.211538977733,-11.630218711138,24.65098509851,2457509.8864324,3133.0902191939,2592582.1619245,29.85098509851,0,0
44.211539238127,-11.631599267889,24.655415541554,2457509.8864324,3133.0902191939,2592582.1619245,29.855415541554,0,0
44.21153949852,-11.63297982464,24.659845984598,2457509.8864324,3133.0902191939,2592582.1619245,29.859845984598,0,0
44.211539758914,-11.634360381391,24.664276427643,2457509.8864324,3133.0902191939,2592582.1619245,29.864276427643,0,0
44.211540019308,-11.635740938142,24.668706870687,2457509.8864324,3133.0902191939,2592582.1619245,29.868706870687,0,0
44.211540279701,-11.637121494894,24.673137313731,2457509.8864324,3133.0902191939,2592582.1619245,29.873137313731,0,0
44.211540540095,-11.638502051645,24.677567756776,2457509.8864324,3133.0902191939,2592582.1619245,29.877567756776,0,0
44.211540800489,-11.639882608396,24.68199819982,2457509.8864324,3133.0902191939,2592582.1619245,29.88199819982,0,0
44.211541060882,-11.641263165147,24.686428642864,2457509.8864324,3133.0902191939,2592582.1619245,29.886428642864,0,0
44.211541321276,-11.642643721898,24.690859085909,2457509.8864324,3133.0902191939,2592582.1619245,29.890859085909,0,0
44.21154158167,-11.644024278649,24.695289528953,2457509.8864324,3133.0902191939,2592582.1619245,29.895289528953,0,0
44.211541842063,-11.6454048354,24.699719971997,2457509.8864324,3133.0902191939,2592582.1619245,29.899719971997,0,0
44.211542102457,-11.646785392152,24.704150415042,2457509.8864324,3133.0902191939,2592582.1619245,29.904150415041,0,0
44.21154236285,-11.648165948903,24.708580858086,2457509.8864324,3133.0902191939,2592582.1619245,29.908580858086,0,0
44.211542623244,-11.649546505654,24.71301130113,2457509.8864324,3133.0902191939,2592582.1619245,29.91301130113,0,0
44.211542883638,-11.650927062405,24.717441744174,2457509.8864324,3133.0902191939,2592582.1619245,29.917441744174,0,0
44.211543144031,-11.652307619156,24.721872187219,2457509.8864324,3133.0902191939,2592582.1619245,29.921872187219,0,0
44.211543404425,-11.653688175907,24.726302630263,2457509.8864324,3133.0902191939,2592582.1619245,29.926302630263,0,0
44.211543664819,-11.655068732658,24.730733073307,2457509.8864324,3133.0902191939,2592582.1619245,29.930733073307,0,0
44.211543925212,-11.65644928941,24.735163516352,2457509.8864324,3133.0902191939,2592582.1619245,29.935163516352,0,0
44.211544185606,-11.657829846161,24.739593959396,2457509.8864324,3133.0902191939,2592582.1619245,29.939593959396,0,0
44.211544445999,-11.659210402912,24.74402440244,2457509.8864324,3133.0902191939,2592582.1619245,29.94402440244,0,0
44.211544706393,-11.660590959663,24.748454845485,2457509.8864324,3133.0902191939,2592582.1619245,29.948454845485,0,0
44.211544966787,-11.661971516414,24.752885288529,2457509.8864324,3133.0902191939,2592582.1619245,29.952885288529,0,0
44.21154522718,-11.663352073165,24.757315731573,2457509.8864324,3133.0902191939,2592582.1619245,29.957315731573,0,0
44.211545487574,-11.664732629916,24.761746174617,2457509.8864324,3133.0902191939,2592582.1619245,29.961746174617,0,0
44.211545747968,-11.666113186668,24.766176617662,2457509.8864324,3133.0902191939,2592582.1619245,29.966176617662,0,0
44.211546008361,-11.667493743419,24.770607060706,2457509.8864324,3133.0902191939,2592582.1619245,29.970607060706,0,0
44.211546268755,-11.66887430017,24.77503750375,2457509.8864324,3133.0902191939,2592582.1619245,29.97503750375,0,0
44.211546529149,-11.670254856921,24.779467946795,2457509.8864324,3133.0902191939,2592582.1619245,29.979467946795,0,0
44.211546789542,-11.671635413672,24.783898389839,2457509.8864324,3133.0902191939,2592582.1619245,29.983898389839,0,0
44.211547049936,-11.673015970423,24.788328832883,2457509.8864324,3133.0902191939,2592582.1619245,29.988328832883,0,0
44.211547310329,-11.674396527174,24.792759275928,2457509.8864324,3133.0902191939,2592582.1619245,29.992759275928,0,0
44.211547570723,-11.675777083926,24.797189718972,2457509.8864324,3133.0902191939,2592582.1619245,29.997189718972,0,0
44.211547831117,-11.677157640677,24.801620162016,2457509.8864324,3133.0902191939,2592582.1619245,30.001620162016,0,0
44.21154809189,-11.67853819808,24.806050605061,2461843.0133989,672.61336369022,2588686.5774316,30.006050605061,0,0
44.211548352734,-11.679918755604,24.810481048105,2461843.0133989,672.61336369022,2588686.5774316,30.010481048105,0,0
44.211548613577,-11.681299313128,24.814911491149,2461843.0133989,672.61336369022,2588686.5774316,30.014911491149,0,0
44.211548874421,-11.682679870651,24.819341934193,2461843.0133989,672.61336369022,2588686.5774316,30.019341934193,0,0
44.211549135264,-11.684060428175,24.823772377238,2461843.0133989,672.61336369022,2588686.5774316,30.023772377238,0,0
44.211549396108,-11.685440985698,24.828202820282,2461843.0133989,672.61336369022,2588686.5774316,30.028202820282,0,0
44.211549656951,-11.686821543222,24.832633263326,2461843.0133989,672.61336369022,2588686.5774316,30.032633263326,0,0
44.211549917795,-11.688202100746,24.837063706371,2461843.0133989,672.61336369022,2588686.5774316,30.037063706371,0,0
44.211550178638,-11.689582658269,24.841494149415,2461843.0133989,672.61336369022,2588686.5774316,30.041494149415,0,0
44.211550439482,-11.690963215793,24.845924592459,2461843.0133989,672.61336369022,2588686.5774316,30.045924592459,0,0
44.211550700325,-11.692343773317,24.850355035504,2461843.0133989,672.61336369022,2588686.5774316,30.050355035504,0,0
44.211550961168,-11.69372433084,24.854785478548,2461843.0133989,672.61336369022,2588686.5774316,30.054785478548,0,0
44.211551222012,-11.695104888364,24.859215921592,2461843.0133989,672.61336369022,2588686.5774316,30.059215921592,0,0
44.211551482855,-11.696485445887,24.863646364636,2461843.0133989,672.61336369022,2588686.5774316,30.063646364636,0,0
44.211551743699,-11.697866003411,24.868076807681,2461843.0133989,672.61336369022,2588686.5774316,30.068076807681,0,0
44.211552004542,-11.699246560935,24.872507250725,2461843.0133989,672.61336369022,2588686.5774316,30.072507250725,0,0
44.211552265386,-11.700627118458,24.876937693769,2461843.0133989,672.61336369022,2588686.5774316,30.076937693769,0,0
44.211552526229,-11.702007675982,24.881368136814,2461843.0133989,672.61336369022,2588686.5774316,30.081368136814,0,0
44.211552787073,-11.703388233505,24.885798579858,2461843.0133989,672.61336369022,2588686.5774316,30.085798579858,0,0
44.211553047916,-11.704768791029,24.890229022902,2461843.0133989,672.61336369022,2588686.5774316,30.090229022902,0,0
44.21155330876,-11.706149348553,24.894659465947,2461843.0133989,672.61336369022,2588686.5774316,30.094659465947,0,0
44.211553569603,-11.707529906076,24.899089908991,2461843.0133989,672.61336369022,2588686.5774316,30.099089908991,0,0
44.211553830447,-11.7089104636,24.903520352035,2461843.0133989,672.61336369022,2588686.5774316,30.103520352035,0,0
44.21155409129,-11.710291021123,24.90795079508,2461843.0133989,672.61336369022,2588686.5774316,30.10795079508,0,0
44.211554352134,-11.711671578647,24.912381238124,2461843.0133989,672.61336369022,2588686.5774316,30.112381238124,0,0
44.211554612977,-11.713052136171,24.916811681168,2461843.0133989,672.61336369022,2588686.5774316,30.116811681168,0,0
44.21155487382,-11.714432693694,24.921242124212,2461843.0133989,672.61336369022,2588686.5774316,30.121242124212,0,0
44.211555134664,-11.715813251218,24.925672567257,2461843.0133989,672.61336369022,2588686.5774316,30.125672567257,0,0
44.211555395507,-11.717193808742,24.930103010301,2461843.0133989,672.61336369022,2588686.5774316,30.130103010301,0,0
44.211555656351,-11.718574366265,24.934533453345,2461843.0133989,672.61336369022,2588686.5774316,30.134533453345,0,0
44.211555917194,-11.719954923789,24.93896389639,2461843.0133989,672.61336369022,2588686.5774316,30.13896389639,0,0
44.211556178038,-11.721335481312,24.943394339434,2461843.0133989,672.61336369022,2588686.5774316,30.143394339434,0,0
44.211556438881,-11.722716038836,24.947824782478,2461843.0133989,672.61336369022,2588686.5774316,30.147824782478,0,0
44.211556699725,-11.72409659636,24.952255225523,2461843.0133989,672.61336369022,2588686.5774316,30.152255225523,0,0
44.211556960568,-11.725477153883,24.956685668567,2461843.0133989,672.61336369022,2588686.5774316,30.156685668567,0,0
44.211557221412,-11.726857711407,24.961116111611,2461843.0133989,672.61336369022,2588686.5774316,30.161116111611,0,0
44.211557482255,-11.72823826893,24.965546554655,2461843.0133989,672.61336369022,2588686.5774316,30.165546554655,0,0
44.211557743099,-11.729618826454,24.9699769977,2461843.0133989,672.61336369022,2588686.5774316,30.1699769977,0,0
44.211558003942,-11.730999383978,24.974407440744,2461843.0133989,672.61336369022,2588686.5774316,30.174407440744,0,0
44.211558264786,-11.732379941501,24.978837883788,2461843.0133989,672.61336369022,2588686.5774316,30.178837883788,0,0
44.211558525629,-11.733760499025,24.983268326833,2461843.0133989,672.61336369022,2588686.5774316,30.183268326833,0,0
44.211558786472,-11.735141056548,24.987698769877,2461843.0133989,672.61336369022,2588686.5774316,30.187698769877,0,0
44.211559047316,-11.736521614072,24.992129212921,2461843.0133989,672.61336369022,2588686.5774316,30.192129212921,0,0
44.211559308159,-11.737902171596,24.996559655966,2461843.0133989,672.61336369022,2588686.5774316,30.196559655966,0,0
44.211559569003,-11.739282729119,25.00099009901,2461843.0133989,672.61336369022,2588686.5774316,30.20099009901,0,0
44.211559829846,-11.740663286643,25.005420542054,2461843.0133989,672.61336369022,2588686.5774316,30.205420542054,0,0
44.21156009069,-11.742043844167,25.009850985099,2461843.0133989,672.61336369022,2588686.5774316,30.209850985099,0,0
44.211560351533,-11.74342440169,25.014281428143,2461843.0133989,672.61336369022,2588686.5774316,30.214281428143,0,0
44.211560612377,-11.744804959214,25.018711871187,2461843.0133989,672.61336369022,2588686.5774316,30.218711871187,0,0
44.21156087322,-11.746185516737,25.023142314231,2461843.0133989,672.61336369022,2588686.5774316,30.223142314231,0,0
44.211561134064,-11.747566074261,25.027572757276,2461843.0133989,672.61336369022,2588686.5774316,30.227572757276,0,0
44.211561394907,-11.748946631785,25.03200320032,2461843.0133989,672.61336369022,2588686.5774316,30.23200320032,0,0
44.211561655751,-11.750327189308,25.036433643364,2461843.0133989,672.61336369022,2588686.5774316,30.236433643364,0,0
44.211561916594,-11.751707746832,25.040864086409,2461843.0133989,672.61336369022,2588686.5774316,30.240864086409,0,0
44.211562177437,-11.753088304355,25.045294529453,2461843.0133989,672.61336369022,2588686.5774316,30.245294529453,0,0
44.211562438281,-11.754468861879,25.049724972497,2461843.0133989,672.61336369022,2588686.5774316,30.249724972497,0,0
44.211562699124,-11.755849419403,25.054155415542,2461843.0133989,672.61336369022,2588686.5774316,30.254155415542,0,0
44.211562959968,-11.757229976926,25.058585858586,2461843.0133989,672.61336369022,2588686.5774316,30.258585858586,0,0
44.211563220811,-11.75861053445,25.06301630163,2461843.0133989,672.61336369022,2588686.5774316,30.26301630163,0,0
44.211563481655,-11.759991091973,25.067446744674,2461843.0133989,672.61336369022,2588686.5774316,30.267446744674,0,0
44.211563742498,-11.761371649497,25.071877187719,2461843.0133989,672.61336369022,2588686.5774316,30.271877187719,0,0
44.211564003342,-11.762752207021,25.076307630763,2461843.0133989,672.61336369022,2588686.5774316,30.276307630763,0,0
44.211564264185,-11.764132764544,25.080738073807,2461843.0133989,672.61336369022,2588686.5774316,30.280738073807,0,0
44.211564525029,-11.765513322068,25.085168516852,2461843.0133989,672.61336369022,2588686.5774316,30.285168516852,0,0
44.211564785872,-11.766893879592,25.089598959896,2461843.0133989,672.61336369022,2588686.5774316,30.289598959896,0,0
44.211565046716,-11.768274437115,25.09402940294,2461843.0133989,672.61336369022,2588686.5774316,30.29402940294,0,0
44.211565307559,-11.769654994639,25.098459845985,2461843.0133989,672.61336369022,2588686.5774316,30.298459845985,0,0
44.211565568403,-11.771035552162,25.102890289029,2461843.0133989,672.61336369022,2588686.5774316,30.302890289029,0,0
44.211565829246,-11.772416109686,25.107320732073,2461843.0133989,672.61336369022,2588686.5774316,30.307320732073,0,0
44.211566090089,-11.77379666721,25.111751175118,2461843.0133989,672.61336369022,2588686.5774316,30.311751175118,0,0
44.211566350933,-11.775177224733,25.116181618162,2461843.0133989,672.61336369022,2588686.5774316,30.316181618162,0,0
44.211566611776,-11.776557782257,25.120612061206,2461843.0133989,672.61336369022,2588686.5774316,30.320612061206,0,0
44.21156687262,-11.77793833978,25.12504250425,2461843.0133989,672.61336369022,2588686.5774316,30.32504250425,0,0
44.211567133463,-11.779318897304,25.129472947295,2461843.0133989,672.61336369022,2588686.5774316,30.329472947295,0,0
44.211567394307,-11.780699454828,25.133903390339,2461843.0133989,672.61336369022,2588686.5774316,30.333903390339,0,0
44.21156765515,-11.782080012351,25.138333833383,2461843.0133989,672.61336369022,2588686.5774316,30.338333833383,0,0
44.211567915994,-11.783460569875,25.142764276428,2461843.0133989,672.61336369022,2588686.5774316,30.342764276428,0,0
44.211568176837,-11.784841127398,25.147194719472,2461843.0133989,672.61336369022,2588686.5774316,30.347194719472,0,0
44.211568437681,-11.786221684922,25.151625162516,2461843.0133989,672.61336369022,2588686.5774316,30.351625162516,0,0
44.211568698524,-11.787602242446,25.156055605561,2461843.0133989,672.61336369022,2588686.5774316,30.356055605561,0,0
44.211568959368,-11.788982799969,25.160486048605,2461843.0133989,672.61336369022,2588686.5774316,30.360486048605,0,0
44.211569220211,-11.790363357493,25.164916491649,2461843.0133989,672.61336369022,2588686.5774316,30.364916491649,0,0
44.211569481054,-11.791743915017,25.169346934693,2461843.0133989,672.61336369022,2588686.5774316,30.369346934693,0,0
44.211569741898,-11.79312447254,25.173777377738,2461843.0133989,672.61336369022,2588686.5774316,30.373777377738,0,0
44.211570002741,-11.794505030064,25.178207820782,2461843.0133989,672.61336369022,2588686.5774316,30.378207820782,0,0
44.211570263585,-11.795885587587,25.182638263826,2461843.0133989,672.61336369022,2588686.5774316,30.382638263826,0,0
44.211570524428,-11.797266145111,25.187068706871,2461843.0133989,672.61336369022,2588686.5774316,30.387068706871,0,0
44.211570785272,-11.798646702635,25.191499149915,2461843.0133989,672.61336369022,2588686.5774316,30.391499149915,0,0
44.211571046115,-11.800027260158,25.195929592959,2461843.0133989,672.61336369022,2588686.5774316,30.395929592959,0,0
44.211571306959,-11.801407817682,25.200360036004,2461843.0133989,672.61336369022,2588686.5774316,30.400360036004,0,0
44.211571567802,-11.802788375205,25.204790479048,2461843.0133989,672.61336369022,2588686.5774316,30.404790479048,0,0
44.211571828646,-11.804168932729,25.209220922092,2461843.0133989,672.61336369022,2588686.5774316,30.409220922092,0,0
44.211572089489,-11.805549490253,25.213651365137,2461843.0133989,672.61336369022,2588686.5774316,30.413651365137,0,0
44.211572350333,-11.806930047776,25.218081808181,2461843.0133989,672.61336369022,2588686.5774316,30.418081808181,0,0
44.211572611176,-11.8083106053,25.222512251225,2461843.0133989,672.61336369022,2588686.5774316,30.422512251225,0,0
44.21157287202,-11.809691162823,25.226942694269,2461843.0133989,672.61336369022,2588686.5774316,30.426942694269,0,0
44.211573132863,-11.811071720347,25.231373137314,2461843.0133989,672.61336369022,2588686.5774316,30.431373137314,0,0
44.211573393706,-11.812452277871,25.235803580358,2461843.0133989,672.61336369022,2588686.5774316,30.435803580358,0,0
44.21157365455,-11.813832835394,25.240234023402,2461843.0133989,672.61336369022,2588686.5774316,30.440234023402,0,0
44.211573915393,-11.815213392918,25.244664466447,2461843.0133989,672.61336369022,2588686.5774316,30.444664466447,0,0
44.211574176237,-11.816593950442,25.249094909491,2461843.0133989,672.61336369022,2588686.5774316,30.449094909491,0,0
44.21157443708,-11.817974507965,25.253525352535,2461843.0133989,672.61336369022,2588686.5774316,30.453525352535,0,0
44.211574697924,-11.819355065489,25.25795579558,2461843.0133989,672.61336369022,2588686.5774316,30.45795579558,0,0
44.211574958767,-11.820735623012,25.262386238624,2461843.0133989,672.61336369022,2588686.5774316,30.462386238624,0,0
44.211575219611,-11.822116180536,25.266816681668,2461843.0133989,672.61336369022,2588686.5774316,30.466816681668,0,0
44.211575480454,-11.82349673806,25.271247124712,2461843.0133989,672.61336369022,2588686.5774316,30.471247124712,0,0
44.211575741298,-11.824877295583,25.275677567757,2461843.0133989,672.61336369022,2588686.5774316,30.475677567757,0,0
44.211576002141,-11.826257853107,25.280108010801,2461843.0133989,672.61336369022,2588686.5774316,30.480108010801,0,0
44.211576262985,-11.82763841063,25.284538453845,2461843.0133989,672.61336369022,2588686.5774316,30.484538453845,0,0
44.211576523828,-11.829018968154,25.28896889689,2461843.0133989,672.61336369022,2588686.5774316,30.48896889689,0,0
44.211576784672,-11.830399525678,25.293399339934,2461843.0133989,672.61336369022,2588686.5774316,30.493399339934,0,0
44.211577045515,-11.831780083201,25.297829782978,2461843.0133989,672.61336369022,2588686.5774316,30.497829782978,0,0
44.211577306358,-11.833160640725,25.302260226023,2461843.0133989,672.61336369022,2588686.5774316,30.502260226023,0,0
44.211577567202,-11.834541198248,25.306690669067,2461843.0133989,672.61336369022,2588686.5774316,30.506690669067,0,0
44.211577828045,-11.835921755772,25.311121112111,2461843.0133989,672.61336369022,2588686.5774316,30.511121112111,0,0
44.211578088889,-11.837302313296,25.315551555156,2461843.0133989,672.61336369022,2588686.5774316,30.515551555156,0,0
44.211578349732,-11.838682870819,25.3199819982,2461843.0133989,672.61336369022,2588686.5774316,30.5199819982,0,0
44.211578610576,-11.840063428343,25.324412441244,2461843.0133989,672.61336369022,2588686.5774316,30.524412441244,0,0
44.211578871419,-11.841443985867,25.328842884288,2461843.0133989,672.61336369022,2588686.5774316,30.528842884288,0,0
44.211579132263,-11.84282454339,25.333273327333,2461843.0133989,672.61336369022,2588686.5774316,30.533273327333,0,0
44.211579393106,-11.844205100914,25.337703770377,2461843.0133989,672.61336369022,2588686.5774316,30.537703770377,0,0
44.21157965395,-11.845585658437,25.342134213421,2461843.0133989,672.61336369022,2588686.5774316,30.542134213421,0,0
44.211579914793,-11.846966215961,25.346564656466,2461843.0133989,672.61336369022,2588686.5774316,30.546564656466,0,0
44.211580175637,-11.848346773485,25.35099509951,2461843.0133989,672.61336369022,2588686.5774316,30.55099509951,0,0
44.21158043648,-11.849727331008,25.355425542554,2461843.0133989,672.61336369022,2588686.5774316,30.555425542554,0,0
44.211580697323,-11.851107888532,25.359855985599,2461843.0133989,672.61336369022,2588686.5774316,30.559855985599,0,0
44.211580958167,-11.852488446055,25.364286428643,2461843.0133989,672.61336369022,2588686.5774316,30.564286428643,0,0
44.21158121901,-11.853869003579,25.368716871687,2461843.0133989,672.61336369022,2588686.5774316,30.568716871687,0,0
44.211581479854,-11.855249561103,25.373147314731,2461843.0133989,672.61336369022,2588686.5774316,30.573147314731,0,0
44.211581740697,-11.856630118626,25.377577757776,2461843.0133989,672.61336369022,2588686.5774316,30.577577757776,0,0
44.211582001541,-11.85801067615,25.38200820082,2461843.0133989,672.61336369022,2588686.5774316,30.58200820082,0,0
44.211582262384,-11.859391233673,25.386438643864,2461843.0133989,672.61336369022,2588686.5774316,30.586438643864,0,0
44.211582523228,-11.860771791197,25.390869086909,2461843.0133989,672.61336369022,2588686.5774316,30.590869086909,0,0
44.211582784071,-11.862152348721,25.395299529953,2461843.0133989,672.61336369022,2588686.5774316,30.595299529953,0,0
44.211583044915,-11.863532906244,25.399729972997,2461843.0133989,672.61336369022,2588686.5774316,30.599729972997,0,0
44.211583305758,-11.864913463768,25.404160416042,2461843.0133989,672.61336369022,2588686.5774316,30.604160416042,0,0
44.211583566602,-11.866294021291,25.408590859086,2461843.0133989,672.61336369022,2588686.5774316,30.608590859086,0,0
44.211583827445,-11.867674578815,25.41302130213,2461843.0133989,672.61336369022,2588686.5774316,30.61302130213,0,0
44.211584088289,-11.869055136339,25.417451745175,2461843.0133989,672.61336369022,2588686.5774316,30.617451745175,0,0
44.211584349132,-11.870435693862,25.421882188219,2461843.0133989,672.61336369022,2588686.5774316,30.621882188219,0,0
44.211584609975,-11.871816251386,25.426312631263,2461843.0133989,672.61336369022,2588686.5774316,30.626312631263,0,0
44.211584870819,-11.87319680891,25.430743074307,2461843.0133989,672.61336369022,2588686.5774316,30.630743074307,0,0
44.211585131662,-11.874577366433,25.435173517352,2461843.0133989,672.61336369022,2588686.5774316,30.635173517352,0,0
44.211585392506,-11.875957923957,25.439603960396,2461843.0133989,672.61336369022,2588686.5774316,30.639603960396,0,0
44.211585653349,-11.87733848148,25.44403440344,2461843.0133989,672.61336369022,2588686.5774316,30.64403440344,0,0
44.211585914193,-11.878719039004,25.448464846485,2461843.0133989,672.61336369022,2588686.5774316,30.648464846485,0,0
44.211586175036,-11.880099596528,25.452895289529,2461843.0133989,672.61336369022,2588686.5774316,30.652895289529,0,0
44.21158643588,-11.881480154051,25.457325732573,2461843.0133989,672.61336369022,2588686.5774316,30.657325732573,0,0
44.211586696723,-11.882860711575,25.461756175618,2461843.0133989,672.61336369022,2588686.5774316,30.661756175618,0,0
44.211586957567,-11.884241269098,25.466186618662,2461843.0133989,672.61336369022,2588686.5774316,30.666186618662,0,0
44.21158721841,-11.885621826622,25.470617061706,2461843.0133989,672.61336369022,2588686.5774316,30.670617061706,0,0
44.211587479254,-11.887002384146,25.47504750475,2461843.0133989,672.61336369022,2588686.5774316,30.67504750475,0,0
44.211587740097,-11.888382941669,25.479477947795,2461843.0133989,672.61336369022,2588686.5774316,30.679477947795,0,0
44.21158800094,-11.889763499193,25.483908390839,2461843.0133989,672.61336369022,2588686.5774316,30.683908390839,0,0
44.211588261784,-11.891144056716,25.488338833883,2461843.0133989,672.61336369022,2588686.5774316,30.688338833883,0,0
44.211588522627,-11.89252461424,25.492769276928,2461843.0133989,672.61336369022,2588686.5774316,30.692769276928,0,0
44.211588783471,-11.893905171764,25.497199719972,2461843.0133989,672.61336369022,2588686.5774316,30.697199719972,0,0
44.211589044314,-11.895285729287,25.501630163016,2461843.0133989,672.61336369022,2588686.5774316,30.701630163016,0,0
44.211589305158,-11.896666286811,25.506060606061,2461843.0133989,672.61336369022,2588686.5774316,30.706060606061,0,0
44.211589566001,-11.898046844335,25.510491049105,2461843.0133989,672.61336369022,2588686.5774316,30.710491049105,0,0
44.211589826845,-11.899427401858,25.514921492149,2461843.0133989,672.61336369022,2588686.5774316,30.714921492149,0,0
44.211590087688,-11.900807959382,25.519351935194,2461843.0133989,672.61336369022,2588686.5774316,30.719351935194,0,0
44.211590348532,-11.902188516905,25.523782378238,2461843.0133989,672.61336369022,2588686.5774316,30.723782378238,0,0
44.211590609375,-11.903569074429,25.528212821282,2461843.0133989,672.61336369022,2588686.5774316,30.728212821282,0,0
44.211590870219,-11.904949631953,25.532643264326,2461843.0133989,672.61336369022,2588686.5774316,30.732643264326,0,0
44.211591131062,-11.906330189476,25.537073707371,2461843.0133989,672.61336369022,2588686.5774316,30.737073707371,0,0
44.211591391906,-11.907710747,25.541504150415,2461843.0133989,672.61336369022,2588686.5774316,30.741504150415,0,0
44.211591652749,-11.909091304523,25.545934593459,2461843.0133989,672.61336369022,2588686.5774316,30.745934593459,0,0
44.211591913592,-11.910471862047,25.550365036504,2461843.0133989,672.61336369022,2588686.5774316,30.750365036504,0,0
44.211592174436,-11.911852419571,25.554795479548,2461843.0133989,672.61336369022,2588686.5774316,30.754795479548,0,0
44.211592435279,-11.913232977094,25.559225922592,2461843.0133989,672.61336369022,2588686.5774316,30.759225922592,0,0
44.211592696123,-11.914613534618,25.563656365637,2461843.0133989,672.61336369022,2588686.5774316,30.763656365637,0,0
44.211592956966,-11.915994092141,25.568086808681,2461843.0133989,672.61336369022,2588686.5774316,30.768086808681,0,0
44.21159321781,-11.917374649665,25.572517251725,2461843.0133989,672.61336369022,2588686.5774316,30.772517251725,0,0
44.211593478653,-11.918755207189,25.576947694769,2461843.0133989,672.61336369022,2588686.5774316,30.776947694769,0,0
44.211593739497,-11.920135764712,25.581378137814,2461843.0133989,672.61336369022,2588686.5774316,30.781378137814,0,0
44.21159400034,-11.921516322236,25.585808580858,2461843.0133989,672.61336369022,2588686.5774316,30.785808580858,0,0
44.211594261184,-11.92289687976,25.590239023902,2461843.0133989,672.61336369022,2588686.5774316,30.790239023902,0,0
44.211594522027,-11.924277437283,25.594669466947,2461843.0133989,672.61336369022,2588686.5774316,30.794669466947,0,0
44.211594782871,-11.925657994807,25.599099909991,2461843.0133989,672.61336369022,2588686.5774316,30.799099909991,0,0
44.211595043714,-11.92703855233,25.603530353035,2461843.0133989,672.61336369022,2588686.5774316,30.803530353035,0,0
44.211595304558,-11.928419109854,25.60796079608,2461843.0133989,672.61336369022,2588686.5774316,30.80796079608,0,0
44.211595565401,-11.929799667378,25.612391239124,2461843.0133989,672.61336369022,2588686.5774316,30.812391239124,0,0
44.211595826244,-11.931180224901,25.616821682168,2461843.0133989,672.61336369022,2588686.5774316,30.816821682168,0,0
44.211596087088,-11.932560782425,25.621252125213,2461843.0133989,672.61336369022,2588686.5774316,30.821252125213,0,0
44.211596347931,-11.933941339948,25.625682568257,2461843.0133989,672.61336369022,2588686.5774316,30.825682568257,0,0
44.211596608775,-11.935321897472,25.630113011301,2461843.0133989,672.61336369022,2588686.5774316,30.830113011301,0,0
44.211596869618,-11.936702454996,25.634543454345,2461843.0133989,672.61336369022,2588686.5774316,30.834543454345,0,0
44.211597130462,-11.938083012519,25.63897389739,2461843.0133989,672.61336369022,2588686.5774316,30.83897389739,0,0
44.211597391305,-11.939463570043,25.643404340434,2461843.0133989,672.61336369022,2588686.5774316,30.843404340434,0,0
44.211597652149,-11.940844127566,25.647834783478,2461843.0133989,672.61336369022,2588686.5774316,30.847834783478,0,0
44.211597912992,-11.94222468509,25.652265226523,2461843.0133989,672.61336369022,2588686.5774316,30.852265226523,0,0
44.211598173836,-11.943605242614,25.656695669567,2461843.0133989,672.61336369022,2588686.5774316,30.856695669567,0,0
44.211598434679,-11.944985800137,25.661126112611,2461843.0133989,672.61336369022,2588686.5774316,30.861126112611,0,0
44.211598695523,-11.946366357661,25.665556555656,2461843.0133989,672.61336369022,2588686.5774316,30.865556555656,0,0
44.211598956366,-11.947746915185,25.6699869987,2461843.0133989,672.61336369022,2588686.5774316,30.8699869987,0,0
44.211599217209,-11.949127472708,25.674417441744,2461843.0133989,672.61336369022,2588686.5774316,30.874417441744,0,0
44.211599478053,-11.950508030232,25.678847884788,2461843.0133989,672.61336369022,2588686.5774316,30.878847884788,0,0
44.211599738896,-11.951888587755,25.683278327833,2461843.0133989,672.61336369022,2588686.5774316,30.883278327833,0,0
44.21159999974,-11.953269145279,25.687708770877,2461843.0133989,672.61336369022,2588686.5774316,30.887708770877,0,0
44.211600260583,-11.954649702803,25.692139213921,2461843.0133989,672.61336369022,2588686.5774316,30.892139213921,0,0
44.211600521427,-11.956030260326,25.696569656966,2461843.0133989,672.61336369022,2588686.5774316,30.896569656966,0,0
44.21160078227,-11.95741081785,25.70100010001,2461843.0133989,672.61336369022,2588686.5774316,30.90100010001,0,0
44.211601043114,-11.958791375373,25.705430543054,2461843.0133989,672.61336369022,2588686.5774316,30.905430543054,0,0
44.211601303957,-11.960171932897,25.709860986099,2461843.0133989,672.61336369022,2588686.5774316,30.909860986099,0,0
44.211601564801,-11.961552490421,25.714291429143,2461843.0133989,672.61336369022,2588686.5774316,30.914291429143,0,0
44.211601825644,-11.962933047944,25.718721872187,2461843.0133989,672.61336369022,2588686.5774316,30.918721872187,0,0
44.211602086488,-11.964313605468,25.723152315232,2461843.0133989,672.61336369022,2588686.5774316,30.923152315232,0,0
44.211602347331,-11.965694162991,25.727582758276,2461843.0133989,672.61336369022,2588686.5774316,30.927582758276,0,0
44.211602608175,-11.967074720515,25.73201320132,2461843.0133989,672.61336369022,2588686.5774316,30.93201320132,0,0
44.211602869018,-11.968455278039,25.736443644364,2461843.0133989,672.61336369022,2588686.5774316,30.936443644364,0,0
44.211603129861,-11.969835835562,25.740874087409,2461843.0133989,672.61336369022,2588686.5774316,30.940874087409,0,0
44.211603390705,-11.971216393086,25.745304530453,2461843.0133989,672.61336369022,2588686.5774316,30.945304530453,0,0
44.211603651548,-11.97259695061,25.749734973497,2461843.0133989,672.61336369022,2588686.5774316,30.949734973497,0,0
44.211603912392,-11.973977508133,25.754165416542,2461843.0133989,672.61336369022,2588686.5774316,30.954165416542,0,0
44.211604173235,-11.975358065657,25.758595859586,2461843.0133989,672.61336369022,2588686.5774316,30.958595859586,0,0
44.211604434079,-11.97673862318,25.76302630263,2461843.0133989,672.61336369022,2588686.5774316,30.96302630263,0,0
44.211604694922,-11.978119180704,25.767456745675,2461843.0133989,672.61336369022,2588686.5774316,30.967456745675,0,0
44.211604955766,-11.979499738228,25.771887188719,2461843.0133989,672.61336369022,2588686.5774316,30.971887188719,0,0
44.211605216609,-11.980880295751,25.776317631763,2461843.0133989,672.61336369022,2588686.5774316,30.976317631763,0,0
44.211605477453,-11.982260853275,25.780748074807,2461843.0133989,672.61336369022,2588686.5774316,30.980748074807,0,0
44.211605738296,-11.983641410798,25.785178517852,2461843.0133989,672.61336369022,2588686.5774316,30.985178517852,0,0
44.21160599914,-11.985021968322,25.789608960896,2461843.0133989,672.61336369022,2588686.5774316,30.989608960896,0,0
44.211606259983,-11.986402525846,25.79403940394,2461843.0133989,672.61336369022,2588686.5774316,30.99403940394,0,0
44.211606520826,-11.987783083369,25.798469846985,2461843.0133989,672.61336369022,2588686.5774316,30.998469846985,0,0
44.21160678167,-11.989163640893,25.802900290029,2461843.0133989,672.61336369022,2588686.5774316,31.002900290029,0,0
44.211607042513,-11.990544198416,25.807330733073,2461843.0133989,672.61336369022,2588686.5774316,31.007330733073,0,0
44.211607303357,-11.99192475594,25.811761176118,2461843.0133989,672.61336369022,2588686.5774316,31.011761176118,0,0
44.2116075642,-11.993305313464,25.816191619162,2461843.0133989,672.61336369022,2588686.5774316,31.016191619162,0,0
44.211607825044,-11.994685870987,25.820622062206,2461843.0133989,672.61336369022,2588686.5774316,31.020622062206,0,0
44.211608085887,-11.996066428511,25.825052505251,2461843.0133989,672.61336369022,2588686.5774316,31.025052505251,0,0
44.211608346731,-11.997446986035,25.829482948295,2461843.0133989,672.61336369022,2588686.5774316,31.029482948295,0,0
44.211608607574,-11.998827543558,25.833913391339,2461843.0133989,672.61336369022,2588686.5774316,31.033913391339,0,0
44.211608868418,-12.000208101082,25.838343834383,2461843.0133989,672.61336369022,2588686.5774316,31.038343834383,0,0
44.211609129261,-12.001588658605,25.842774277428,2461843.0133989,672.61336369022,2588686.5774316,31.042774277428,0,0
44.211609390105,-12.002969216129,25.847204720472,2461843.0133989,672.61336369022,2588686.5774316,31.047204720472,0,0
44.211609650948,-12.004349773653,25.851635163516,2461843.0133989,672.61336369022,2588686.5774316,31.051635163516,0,0
44.211609911792,-12.005730331176,25.856065606561,2461843.0133989,672.61336369022,2588686.5774316,31.056065606561,0,0
44.211610172635,-12.0071108887,25.860496049605,2461843.0133989,672.61336369022,2588686.5774316,31.060496049605,0,0
44.211610433478,-12.008491446223,25.864926492649,2461843.0133989,672.61336369022,2588686.5774316,31.064926492649,0,0
44.211610694322,-12.009872003747,25.869356935694,2461843.0133989,672.61336369022,2588686.5774316,31.069356935694,0,0
44.211610955165,-12.011252561271,25.873787378738,2461843.0133989,672.61336369022,2588686.5774316,31.073787378738,0,0
44.211611216009,-12.012633118794,25.878217821782,2461843.0133989,672.61336369022,2588686.5774316,31.078217821782,0,0
44.211611476852,-12.014013676318,25.882648264826,2461843.0133989,672.61336369022,2588686.5774316,31.082648264826,0,0
44.211611737696,-12.015394233841,25.887078707871,2461843.0133989,672.61336369022,2588686.5774316,31.087078707871,0,0
44.211611998539,-12.016774791365,25.891509150915,2461843.0133989,672.61336369022,2588686.5774316,31.091509150915,0,0
44.211612259383,-12.018155348889,25.895939593959,2461843.0133989,672.61336369022,2588686.5774316,31.095939593959,0,0
44.211612520226,-12.019535906412,25.900370037004,2461843.0133989,672.61336369022,2588686.5774316,31.100370037004,0,0
44.21161278107,-12.020916463936,25.904800480048,2461843.0133989,672.61336369022,2588686.5774316,31.104800480048,0,0
44.211613041913,-12.02229702146,25.909230923092,2461843.0133989,672.61336369022,2588686.5774316,31.109230923092,0,0
44.211613302757,-12.023677578983,25.913661366137,2461843.0133989,672.61336369022,2588686.5774316,31.113661366137,0,0
44.2116135636,-12.025058136507,25.918091809181,2461843.0133989,672.61336369022,2588686.5774316,31.118091809181,0,0
44.211613824444,-12.02643869403,25.922522252225,2461843.0133989,672.61336369022,2588686.5774316,31.122522252225,0,0
44.211614085287,-12.027819251554,25.92695269527,2461843.0133989,672.61336369022,2588686.5774316,31.12695269527,0,0
44.21161434613,-12.029199809078,25.931383138314,2461843.0133989,672.61336369022,2588686.5774316,31.131383138314,0,0
44.211614606974,-12.030580366601,25.935813581358,2461843.0133989,672.61336369022,2588686.5774316,31.135813581358,0,0
44.211614867817,-12.031960924125,25.940244024402,2461843.0133989,672.61336369022,2588686.5774316,31.140244024402,0,0
44.211615128661,-12.033341481648,25.944674467447,2461843.0133989,672.61336369022,2588686.5774316,31.144674467447,0,0
44.211615389504,-12.034722039172,25.949104910491,2461843.0133989,672.61336369022,2588686.5774316,31.149104910491,0,0
44.211615650348,-12.036102596696,25.953535353535,2461843.0133989,672.61336369022,2588686.5774316,31.153535353535,0,0
44.211615911191,-12.037483154219,25.95796579658,2461843.0133989,672.61336369022,2588686.5774316,31.15796579658,0,0
44.211616172035,-12.038863711743,25.962396239624,2461843.0133989,672.61336369022,2588686.5774316,31.162396239624,0,0
44.211616432878,-12.040244269266,25.966826682668,2461843.0133989,672.61336369022,2588686.5774316,31.166826682668,0,0
44.211616693722,-12.04162482679,25.971257125713,2461843.0133989,672.61336369022,2588686.5774316,31.171257125713,0,0
44.211616954565,-12.043005384314,25.975687568757,2461843.0133989,672.61336369022,2588686.5774316,31.175687568757,0,0
44.211617215409,-12.044385941837,25.980118011801,2461843.0133989,672.61336369022,2588686.5774316,31.180118011801,0,0
44.211617476252,-12.045766499361,25.984548454845,2461843.0133989,672.61336369022,2588686.5774316,31.184548454845,0,0
44.211617737095,-12.047147056885,25.98897889789,2461843.0133989,672.61336369022,2588686.5774316,31.18897889789,0,0
44.211617997939,-12.048527614408,25.993409340934,2461843.0133989,672.61336369022,2588686.5774316,31.193409340934,0,0
44.211618258782,-12.049908171932,25.997839783978,2461843.0133989,672.61336369022,2588686.5774316,31.197839783978,0,0
44.211618519626,-12.051288729455,26.002270227023,2461843.0133989,672.61336369022,2588686.5774316,31.202270227023,0,0
44.211618780469,-12.052669286979,26.006700670067,2461843.0133989,672.61336369022,2588686.5774316,31.206700670067,0,0
44.211619041313,-12.054049844503,26.011131113111,2461843.0133989,672.61336369022,2588686.5774316,31.211131113111,0,0
44.211619302156,-12.055430402026,26.015561556156,2461843.0133989,672.61336369022,2588686.5774316,31.215561556156,0,0
44.211619563,-12.05681095955,26.0199919992,2461843.0133989,672.61336369022,2588686.5774316,31.2199919992,0,0
44.211619823843,-12.058191517073,26.024422442244,2461843.0133989,672.61336369022,2588686.5774316,31.224422442244,0,0
44.211620085023,-12.059572074257,26.028852885289,2467379.7285578,1785.2342522672,2587438.7839798,31.228852885289,0,0
44.211620346342,-12.060952631299,26.033283328333,2467379.7285578,1785.2342522672,2587438.7839798,31.233283328333,0,0
44.211620607661,-12.062333188342,26.037713771377,2467379.7285578,1785.2342522672,2587438.7839798,31.237713771377,0,0
44.21162086898,-12.063713745384,26.042144214421,2467379.7285578,1785.2342522672,2587438.7839798,31.242144214421,0,0
44.211621130299,-12.065094302427,26.046574657466,2467379.7285578,1785.2342522672,2587438.7839798,31.246574657466,0,0
44.211621391618,-12.066474859469,26.05100510051,2467379.7285578,1785.2342522672,2587438.7839798,31.25100510051,0,0
44.211621652937,-12.067855416511,26.055435543554,2467379.7285578,1785.2342522672,2587438.7839798,31.255435543554,0,0
44.211621914255,-12.069235973554,26.059865986599,2467379.7285578,1785.2342522672,2587438.7839798,31.259865986599,0,0
44.211622175574,-12.070616530596,26.064296429643,2467379.7285578,1785.2342522672,2587438.7839798,31.264296429643,0,0
44.211622436893,-12.071997087639,26.068726872687,2467379.7285578,1785.2342522672,2587438.7839798,31.268726872687,0,0
44.211622698212,-12.073377644681,26.073157315732,2467379.7285578,1785.2342522672,2587438.7839798,31.273157315732,0,0
44.211622959531,-12.074758201724,26.077587758776,2467379.7285578,1785.2342522672,2587438.7839798,31.277587758776,0,0
44.21162322085,-12.076138758766,26.08201820182,2467379.7285578,1785.2342522672,2587438.7839798,31.28201820182,0,0
44.211623482169,-12.077519315809,26.086448644864,2467379.7285578,1785.2342522672,2587438.7839798,31.286448644864,0,0
44.211623743488,-12.078899872851,26.090879087909,2467379.7285578,1785.2342522672,2587438.7839798,31.290879087909,0,0
44.211624004807,-12.080280429894,26.095309530953,2467379.7285578,1785.2342522672,2587438.7839798,31.295309530953,0,0
44.211624266126,-12.081660986936,26.099739973997,2467379.7285578,1785.2342522672,2587438.7839798,31.299739973997,0,0
44.211624527445,-12.083041543978,26.104170417042,2467379.7285578,1785.2342522672,2587438.7839798,31.304170417042,0,0
44.211624788764,-12.084422101021,26.108600860086,2467379.7285578,1785.2342522672,2587438.7839798,31.308600860086,0,0
44.211625050083,-12.085802658063,26.11303130313,2467379.7285578,1785.2342522672,2587438.7839798,31.31303130313,0,0
44.211625311402,-12.087183215106,26.117461746175,2467379.7285578,1785.2342522672,2587438.7839798,31.317461746175,0,0
44.211625572721,-12.088563772148,26.121892189219,2467379.7285578,1785.2342522672,2587438.7839798,31.321892189219,0,0
44.21162583404,-12.089944329191,26.126322632263,2467379.7285578,1785.2342522672,2587438.7839798,31.326322632263,0,0
44.211626095358,-12.091324886233,26.130753075308,2467379.7285578,1785.2342522672,2587438.7839798,31.330753075308,0,0
44.211626356677,-12.092705443276,26.135183518352,2467379.7285578,1785.2342522672,2587438.7839798,31.335183518352,0,0
44.211626617996,-12.094086000318,26.139613961396,2467379.7285578,1785.2342522672,2587438.7839798,31.339613961396,0,0
44.211626879315,-12.095466557361,26.14404440444,2467379.7285578,1785.2342522672,2587438.7839798,31.34404440444,0,0
44.211627140634,-12.096847114403,26.148474847485,2467379.7285578,1785.2342522672,2587438.7839798,31.348474847485,0,0
44.211627401953,-12.098227671445,26.152905290529,2467379.7285578,1785.2342522672,2587438.7839798,31.352905290529,0,0
44.211627663272,-12.099608228488,26.157335733573,2467379.7285578,1785.2342522672,2587438.7839798,31.357335733573,0,0
44.211627924591,-12.10098878553,26.161766176618,2467379.7285578,1785.2342522672,2587438.7839798,31.361766176618,0,0
44.21162818591,-12.102369342573,26.166196619662,2467379.7285578,1785.2342522672,2587438.7839798,31.366196619662,0,0
44.211628447229,-12.103749899615,26.170627062706,2467379.7285578,1785.2342522672,2587438.7839798,31.370627062706,0,0
44.211628708548,-12.105130456658,26.175057505751,2467379.7285578,1785.2342522672,2587438.7839798,31.375057505751,0,0
44.211628969867,-12.1065110137,26.179487948795,2467379.7285578,1785.2342522672,2587438.7839798,31.379487948795,0,0
44.211629231186,-12.107891570743,26.183918391839,2467379.7285578,1785.2342522672,2587438.7839798,31.383918391839,0,0
44.211629492505,-12.109272127785,26.188348834883,2467379.7285578,1785.2342522672,2587438.7839798,31.388348834883,0,0
44.211629753824,-12.110652684828,26.192779277928,2467379.7285578,1785.2342522672,2587438.7839798,31.392779277928,0,0
44.211630015143,-12.11203324187,26.197209720972,2467379.7285578,1785.2342522672,2587438.7839798,31.397209720972,0,0
44.211630276461,-12.113413798912,26.201640164016,2467379.7285578,1785.2342522672,2587438.7839798,31.401640164016,0,0
44.21163053778,-12.114794355955,26.206070607061,2467379.7285578,1785.2342522672,2587438.7839798,31.406070607061,0,0
44.211630799099,-12.116174912997,26.210501050105,2467379.7285578,1785.2342522672,2587438.7839798,31.410501050105,0,0
44.211631060418,-12.11755547004,26.214931493149,2467379.7285578,1785.2342522672,2587438.7839798,31.414931493149,0,0
44.211631321737,-12.118936027082,26.219361936194,2467379.7285578,1785.2342522672,2587438.7839798,31.419361936194,0,0
44.211631583056,-12.120316584125,26.223792379238,2467379.7285578,1785.2342522672,2587438.7839798,31.423792379238,0,0
44.211631844375,-12.121697141167,26.228222822282,2467379.7285578,1785.2342522672,2587438.7839798,31.428222822282,0,0
44.211632105694,-12.12307769821,26.232653265327,2467379.7285578,1785.2342522672,2587438.7839798,31.432653265327,0,0
44.211632367013,-12.124458255252,26.237083708371,2467379.7285578,1785.2342522672,2587438.7839798,31.437083708371,0,0
44.211632628332,-12.125838812295,26.241514151415,2467379.7285578,1785.2342522672,2587438.7839798,31.441514151415,0,0
44.211632889651,-12.127219369337,26.245944594459,2467379.7285578,1785.2342522672,2587438.7839798,31.445944594459,0,0
44.211633150968,-12.128599926512,26.250375037504,2464668.9135855,-537.86637408855,2579492.0402367,31.450375037504,0,0
44.211633412282,-12.129980484043,26.254805480548,2464668.9135855,-537.86637408855,2579492.0402367,31.454805480548,0,0
44.211633673596,-12.131361041575,26.259235923592,2464668.9135855,-537.86637408855,2579492.0402367,31.459235923592,0,0
44.21163393491,-12.132741599107,26.263666366637,2464668.9135855,-537.86637408855,2579492.0402367,31.463666366637,0,0
44.211634196224,-12.134122156638,26.268096809681,2464668.9135855,-537.86637408855,2579492.0402367,31.468096809681,0,0
44.211634457538,-12.13550271417,26.272527252725,2464668.9135855,-537.86637408855,2579492.0402367,31.472527252725,0,0
44.211634718852,-12.136883271701,26.27695769577,2464668.9135855,-537.86637408855,2579492.0402367,31.47695769577,0,0
44.211634980166,-12.138263829233,26.281388138814,2464668.9135855,-537.86637408855,2579492.0402367,31.481388138814,0,0
44.21163524148,-12.139644386765,26.285818581858,2464668.9135855,-537.86637408855,2579492.0402367,31.485818581858,0,0
44.211635502794,-12.141024944296,26.290249024902,2464668.9135855,-537.86637408855,2579492.0402367,31.490249024902,0,0
44.211635764108,-12.142405501828,26.294679467947,2464668.9135855,-537.86637408855,2579492.0402367,31.494679467947,0,0
44.211636025422,-12.143786059359,26.299109910991,2464668.9135855,-537.86637408855,2579492.0402367,31.499109910991,0,0
44.211636286736,-12.145166616891,26.303540354035,2464668.9135855,-537.86637408855,2579492.0402367,31.503540354035,0,0
44.21163654805,-12.146547174422,26.30797079708,2464668.9135855,-537.86637408855,2579492.0402367,31.50797079708,0,0
44.211636809364,-12.147927731954,26.312401240124,2464668.9135855,-537.86637408855,2579492.0402367,31.512401240124,0,0
44.211637070678,-12.149308289486,26.316831683168,2464668.9135855,-537.86637408855,2579492.0402367,31.516831683168,0,0
44.211637331992,-12.150688847017,26.321262126213,2464668.9135855,-537.86637408855,2579492.0402367,31.521262126213,0,0
44.211637593306,-12.152069404549,26.325692569257,2464668.9135855,-537.86637408855,2579492.0402367,31.525692569257,0,0
44.21163785462,-12.15344996208,26.330123012301,2464668.9135855,-537.86637408855,2579492.0402367,31.530123012301,0,0
44.211638115934,-12.154830519612,26.334553455346,2464668.9135855,-537.86637408855,2579492.0402367,31.534553455346,0,0
44.211638377248,-12.156211077144,26.33898389839,2464668.9135855,-537.86637408855,2579492.0402367,31.53898389839,0,0
44.211638638562,-12.157591634675,26.343414341434,2464668.9135855,-537.86637408855,2579492.0402367,31.543414341434,0,0
44.211638899876,-12.158972192207,26.347844784478,2464668.9135855,-537.86637408855,2579492.0402367,31.547844784478,0,0
44.21163916119,-12.160352749738,26.352275227523,2464668.9135855,-537.86637408855,2579492.0402367,31.552275227523,0,0
44.211639422504,-12.16173330727,26.356705670567,2464668.9135855,-537.86637408855,2579492.0402367,31.556705670567,0,0
44.211639683818,-12.163113864802,26.361136113611,2464668.9135855,-537.86637408855,2579492.0402367,31.561136113611,0,0
44.211639945132,-12.164494422333,26.365566556656,2464668.9135855,-537.86637408855,2579492.0402367,31.565566556656,0,0
44.211640206446,-12.165874979865,26.3699969997,2464668.9135855,-537.86637408855,2579492.0402367,31.5699969997,0,0
44.21164046776,-12.167255537396,26.374427442744,2464668.9135855,-537.86637408855,2579492.0402367,31.574427442744,0,0
44.211640729074,-12.168636094928,26.378857885789,2464668.9135855,-537.86637408855,2579492.0402367,31.578857885789,0,0
44.211640990388,-12.17001665246,26.383288328833,2464668.9135855,-537.86637408855,2579492.0402367,31.583288328833,0,0
44.211641251702,-12.171397209991,26.387718771877,2464668.9135855,-537.86637408855,2579492.0402367,31.587718771877,0,0
44.211641513016,-12.172777767523,26.392149214921,2464668.9135855,-537.86637408855,2579492.0402367,31.592149214921,0,0
44.21164177433,-12.174158325054,26.396579657966,2464668.9135855,-537.86637408855,2579492.0402367,31.596579657966,0,0
44.211642035644,-12.175538882586,26.40101010101,2464668.9135855,-537.86637408855,2579492.0402367,31.60101010101,0,0
44.211642296958,-12.176919440118,26.405440544054,2464668.9135855,-537.86637408855,2579492.0402367,31.605440544054,0,0
44.211642558272,-12.178299997649,26.409870987099,2464668.9135855,-537.86637408855,2579492.0402367,31.609870987099,0,0
44.211642819586,-12.179680555181,26.414301430143,2464668.9135855,-537.86637408855,2579492.0402367,31.614301430143,0,0
44.2116430809,-12.181061112712,26.418731873187,2464668.9135855,-537.86637408855,2579492.0402367,31.618731873187,0,0
44.211643342214,-12.182441670244,26.423162316232,2464668.9135855,-537.86637408855,2579492.0402367,31.623162316232,0,0
44.211643603528,-12.183822227775,26.427592759276,2464668.9135855,-537.86637408855,2579492.0402367,31.627592759276,0,0
44.211643864842,-12.185202785307,26.43202320232,2464668.9135855,-537.86637408855,2579492.0402367,31.63202320232,0,0
44.211644126156,-12.186583342839,26.436453645365,2464668.9135855,-537.86637408855,2579492.0402367,31.636453645365,0,0
44.21164438747,-12.18796390037,26.440884088409,2464668.9135855,-537.86637408855,2579492.0402367,31.640884088409,0,0
44.211644648784,-12.189344457902,26.445314531453,2464668.9135855,-537.86637408855,2579492.0402367,31.645314531453,0,0
44.211644910098,-12.190725015433,26.449744974497,2464668.9135855,-537.86637408855,2579492.0402367,31.649744974497,0,0
44.211645171412,-12.192105572965,26.454175417542,2464668.9135855,-537.86637408855,2579492.0402367,31.654175417542,0,0
44.211645432726,-12.193486130497,26.458605860586,2464668.9135855,-537.86637408855,2579492.0402367,31.658605860586,0,0
44.21164569404,-12.194866688028,26.46303630363,2464668.9135855,-537.86637408855,2579492.0402367,31.66303630363,0,0
44.211645955354,-12.19624724556,26.467466746675,2464668.9135855,-537.86637408855,2579492.0402367,31.667466746675,0,0
44.211646216668,-12.197627803091,26.471897189719,2464668.9135855,-537.86637408855,2579492.0402367,31.671897189719,0,0
44.211646477982,-12.199008360623,26.476327632763,2464668.9135855,-537.86637408855,2579492.0402367,31.676327632763,0,0
44.211646739296,-12.200388918155,26.480758075808,2464668.9135855,-537.86637408855,2579492.0402367,31.680758075808,0,0
44.21164700061,-12.201769475686,26.485188518852,2464668.9135855,-537.86637408855,2579492.0402367,31.685188518852,0,0
44.211647261924,-12.203150033218,26.489618961896,2464668.9135855,-537.86637408855,2579492.0402367,31.689618961896,0,0
44.211647523238,-12.204530590749,26.49404940494,2464668.9135855,-537.86637408855,2579492.0402367,31.69404940494,0,0
44.211647784552,-12.205911148281,26.498479847985,2464668.9135855,-537.86637408855,2579492.0402367,31.698479847985,0,0
44.211648045866,-12.207291705813,26.502910291029,2464668.9135855,-537.86637408855,2579492.0402367,31.702910291029,0,0
44.21164830718,-12.208672263344,26.507340734073,2464668.9135855,-537.86637408855,2579492.0402367,31.707340734073,0,0
44.211648568494,-12.210052820876,26.511771177118,2464668.9135855,-537.86637408855,2579492.0402367,31.711771177118,0,0
44.211648829808,-12.211433378407,26.516201620162,2464668.9135855,-537.86637408855,2579492.0402367,31.716201620162,0,0
44.211649091122,-12.212813935939,26.520632063206,2464668.9135855,-537.86637408855,2579492.0402367,31.720632063206,0,0
44.211649352436,-12.214194493471,26.525062506251,2464668.9135855,-537.86637408855,2579492.0402367,31.725062506251,0,0
44.21164961375,-12.215575051002,26.529492949295,2464668.9135855,-537.86637408855,2579492.0402367,31.729492949295,0,0
44.211649875064,-12.216955608534,26.533923392339,2464668.9135855,-537.86637408855,2579492.0402367,31.733923392339,0,0
44.211650136378,-12.218336166065,26.538353835384,2464668.9135855,-537.86637408855,2579492.0402367,31.738353835384,0,0
44.211650397692,-12.219716723597,26.542784278428,2464668.9135855,-537.86637408855,2579492.0402367,31.742784278428,0,0
44.211650659006,-12.221097281129,26.547214721472,2464668.9135855,-537.86637408855,2579492.0402367,31.747214721472,0,0
44.21165092032,-12.22247783866,26.551645164516,2464668.9135855,-537.86637408855,2579492.0402367,31.751645164516,0,0
44.211651181634,-12.223858396192,26.556075607561,2464668.9135855,-537.86637408855,2579492.0402367,31.756075607561,0,0
44.211651442948,-12.225238953723,26.560506050605,2464668.9135855,-537.86637408855,2579492.0402367,31.760506050605,0,0
44.211651704262,-12.226619511255,26.564936493649,2464668.9135855,-537.86637408855,2579492.0402367,31.764936493649,0,0
44.211651965576,-12.228000068786,26.569366936694,2464668.9135855,-537.86637408855,2579492.0402367,31.769366936694,0,0
44.21165222689,-12.229380626318,26.573797379738,2464668.9135855,-537.86637408855,2579492.0402367,31.773797379738,0,0
44.211652488204,-12.23076118385,26.578227822782,2464668.9135855,-537.86637408855,2579492.0402367,31.778227822782,0,0
44.211652749518,-12.232141741381,26.582658265827,2464668.9135855,-537.86637408855,2579492.0402367,31.782658265827,0,0
44.211653010832,-12.233522298913,26.587088708871,2464668.9135855,-537.86637408855,2579492.0402367,31.787088708871,0,0
44.211653272146,-12.234902856444,26.591519151915,2464668.9135855,-537.86637408855,2579492.0402367,31.791519151915,0,0
44.21165353346,-12.236283413976,26.595949594959,2464668.9135855,-537.86637408855,2579492.0402367,31.795949594959,0,0
44.211653794774,-12.237663971508,26.600380038004,2464668.9135855,-537.86637408855,2579492.0402367,31.800380038004,0,0
44.211654056088,-12.239044529039,26.604810481048,2464668.9135855,-537.86637408855,2579492.0402367,31.804810481048,0,0
44.211654317402,-12.240425086571,26.609240924092,2464668.9135855,-537.86637408855,2579492.0402367,31.809240924092,0,0
44.211654578716,-12.241805644102,26.613671367137,2464668.9135855,-537.86637408855,2579492.0402367,31.813671367137,0,0
44.21165484003,-12.243186201634,26.618101810181,2464668.9135855,-537.86637408855,2579492.0402367,31.818101810181,0,0
44.211655101344,-12.244566759166,26.622532253225,2464668.9135855,-537.86637408855,2579492.0402367,31.822532253225,0,0
44.211655362658,-12.245947316697,26.62696269627,2464668.9135855,-537.86637408855,2579492.0402367,31.82696269627,0,0
44.211655623972,-12.247327874229,26.631393139314,2464668.9135855,-537.86637408855,2579492.0402367,31.831393139314,0,0
44.211655885286,-12.24870843176,26.635823582358,2464668.9135855,-537.86637408855,2579492.0402367,31.835823582358,0,0
44.2116561466,-12.250088989292,26.640254025403,2464668.9135855,-537.86637408855,2579492.0402367,31.840254025403,0,0
44.211656407914,-12.251469546824,26.644684468447,2464668.9135855,-537.86637408855,2579492.0402367,31.844684468447,0,0
44.211656669228,-12.252850104355,26.649114911491,2464668.9135855,-537.86637408855,2579492.0402367,31.849114911491,0,0
44.211656930542,-12.254230661887,26.653545354535,2464668.9135855,-537.86637408855,2579492.0402367,31.853545354535,0,0
44.211657191856,-12.255611219418,26.65797579758,2464668.9135855,-537.86637408855,2579492.0402367,31.85797579758,0,0
44.21165745317,-12.25699177695,26.662406240624,2464668.9135855,-537.86637408855,2579492.0402367,31.862406240624,0,0
44.211657714484,-12.258372334482,26.666836683668,2464668.9135855,-537.86637408855,2579492.0402367,31.866836683668,0,0
44.211657975798,-12.259752892013,26.671267126713,2464668.9135855,-537.86637408855,2579492.0402367,31.871267126713,0,0
44.211658237112,-12.261133449545,26.675697569757,2464668.9135855,-537.86637408855,2579492.0402367,31.875697569757,0,0
44.211658498426,-12.262514007076,26.680128012801,2464668.9135855,-537.86637408855,2579492.0402367,31.880128012801,0,0
44.21165875974,-12.263894564608,26.684558455846,2464668.9135855,-537.86637408855,2579492.0402367,31.884558455846,0,0
44.211659021054,-12.265275122139,26.68898889889,2464668.9135855,-537.86637408855,2579492.0402367,31.88898889889,0,0
44.211659282368,-12.266655679671,26.693419341934,2464668.9135855,-537.86637408855,2579492.0402367,31.893419341934,0,0
44.211659543682,-12.268036237203,26.697849784978,2464668.9135855,-537.86637408855,2579492.0402367,31.897849784978,0,0
44.211659804996,-12.269416794734,26.702280228023,2464668.9135855,-537.86637408855,2579492.0402367,31.902280228023,0,0
44.21166006631,-12.270797352266,26.706710671067,2464668.9135855,-537.86637408855,2579492.0402367,31.906710671067,0,0
44.211660327624,-12.272177909797,26.711141114111,2464668.9135855,-537.86637408855,2579492.0402367,31.911141114111,0,0
44.211660588938,-12.273558467329,26.715571557156,2464668.9135855,-537.86637408855,2579492.0402367,31.915571557156,0,0
44.211660850252,-12.274939024861,26.7200020002,2464668.9135855,-537.86637408855,2579492.0402367,31.9200020002,0,0
44.211661111566,-12.276319582392,26.724432443244,2464668.9135855,-537.86637408855,2579492.0402367,31.924432443244,0,0
44.21166137288,-12.277700139924,26.728862886289,2464668.9135855,-537.86637408855,2579492.0402367,31.928862886289,0,0
44.211661634194,-12.279080697455,26.733293329333,2464668.9135855,-537.86637408855,2579492.0402367,31.933293329333,0,0
44.211661895508,-12.280461254987,26.737723772377,2464668.9135855,-537.86637408855,2579492.0402367,31.937723772377,0,0
44.211662156822,-12.281841812519,26.742154215422,2464668.9135855,-537.86637408855,2579492.0402367,31.942154215422,0,0
44.211662418136,-12.28322237005,26.746584658466,2464668.9135855,-537.86637408855,2579492.0402367,31.946584658466,0,0
44.21166267945,-12.284602927582,26.75101510151,2464668.9135855,-537.86637408855,2579492.0402367,31.95101510151,0,0
44.211662940764,-12.285983485113,26.755445544554,2464668.9135855,-537.86637408855,2579492.0402367,31.955445544554,0,0
44.211663202078,-12.287364042645,26.759875987599,2464668.9135855,-537.86637408855,2579492.0402367,31.959875987599,0,0
44.211663463392,-12.288744600177,26.764306430643,2464668.9135855,-537.86637408855,2579492.0402367,31.964306430643,0,0
44.211663724706,-12.290125157708,26.768736873687,2464668.9135855,-537.86637408855,2579492.0402367,31.968736873687,0,0
44.21166398602,-12.29150571524,26.773167316732,2464668.9135855,-537.86637408855,2579492.0402367,31.973167316732,0,0
44.211664247334,-12.292886272771,26.777597759776,2464668.9135855,-537.86637408855,2579492.0402367,31.977597759776,0,0
44.211664508648,-12.294266830303,26.78202820282,2464668.9135855,-537.86637408855,2579492.0402367,31.98202820282,0,0
44.211664769962,-12.295647387835,26.786458645865,2464668.9135855,-537.86637408855,2579492.0402367,31.986458645865,0,0
44.211665031276,-12.297027945366,26.790889088909,2464668.9135855,-537.86637408855,2579492.0402367,31.990889088909,0,0
44.21166529259,-12.298408502898,26.795319531953,2464668.9135855,-537.86637408855,2579492.0402367,31.995319531953,0,0
44.211665553904,-12.299789060429,26.799749974997,2464668.9135855,-537.86637408855,2579492.0402367,31.999749974997,0,0
44.211665815218,-12.301169617961,26.804180418042,2464668.9135855,-537.86637408855,2579492.0402367,32.004180418042,0,0
44.211666076532,-12.302550175492,26.808610861086,2464668.9135855,-537.86637408855,2579492.0402367,32.008610861086,0,0
44.211666337846,-12.303930733024,26.81304130413,2464668.9135855,-537.86637408855,2579492.0402367,32.01304130413,0,0
44.211666599159,-12.305311290556,26.817471747175,2464668.9135855,-537.86637408855,2579492.0402367,32.017471747175,0,0
44.211666860473,-12.306691848087,26.821902190219,2464668.9135855,-537.86637408855,2579492.0402367,32.021902190219,0,0
44.211667121787,-12.308072405619,26.826332633263,2464668.9135855,-537.86637408855,2579492.0402367,32.026332633263,0,0
44.211667383101,-12.30945296315,26.830763076308,2464668.9135855,-537.86637408855,2579492.0402367,32.030763076308,0,0
44.211667644415,-12.310833520682,26.835193519352,2464668.9135855,-537.86637408855,2579492.0402367,32.035193519352,0,0
44.211667905729,-12.312214078214,26.839623962396,2464668.9135855,-537.86637408855,2579492.0402367,32.039623962396,0,0
44.211668167043,-12.313594635745,26.844054405441,2464668.9135855,-537.86637408855,2579492.0402367,32.044054405441,0,0
44.211668428357,-12.314975193277,26.848484848485,2464668.9135855,-537.86637408855,2579492.0402367,32.048484848485,0,0
44.211668689671,-12.316355750808,26.852915291529,2464668.9135855,-537.86637408855,2579492.0402367,32.052915291529,0,0
44.211668950985,-12.31773630834,26.857345734573,2464668.9135855,-537.86637408855,2579492.0402367,32.057345734573,0,0
44.211669212299,-12.319116865872,26.861776177618,2464668.9135855,-537.86637408855,2579492.0402367,32.061776177618,0,0
44.211669473613,-12.320497423403,26.866206620662,2464668.9135855,-537.86637408855,2579492.0402367,32.066206620662,0,0
44.211669734927,-12.321877980935,26.870637063706,2464668.9135855,-537.86637408855,2579492.0402367,32.070637063706,0,0
44.211669996241,-12.323258538466,26.875067506751,2464668.9135855,-537.86637408855,2579492.0402367,32.075067506751,0,0
44.211670257555,-12.324639095998,26.879497949795,2464668.9135855,-537.86637408855,2579492.0402367,32.079497949795,0,0
44.211670518869,-12.32601965353,26.883928392839,2464668.9135855,-537.86637408855,2579492.0402367,32.083928392839,0,0
44.211670780183,-12.327400211061,26.888358835884,2464668.9135855,-537.86637408855,2579492.0402367,32.088358835884,0,0
44.211671041497,-12.328780768593,26.892789278928,2464668.9135855,-537.86637408855,2579492.0402367,32.092789278928,0,0
44.211671302811,-12.330161326124,26.897219721972,2464668.9135855,-537.86637408855,2579492.0402367,32.097219721972,0,0
44.211671564125,-12.331541883656,26.901650165017,2464668.9135855,-537.86637408855,2579492.0402367,32.101650165017,0,0
44.211671825439,-12.332922441188,26.906080608061,2464668.9135855,-537.86637408855,2579492.0402367,32.106080608061,0,0
44.211672086753,-12.334302998719,26.910511051105,2464668.9135855,-537.86637408855,2579492.0402367,32.110511051105,0,0
44.211672348067,-12.335683556251,26.914941494149,2464668.9135855,-537.86637408855,2579492.0402367,32.114941494149,0,0
44.211672609381,-12.337064113782,26.919371937194,2464668.9135855,-537.86637408855,2579492.0402367,32.119371937194,0,0
44.211672870695,-12.338444671314,26.923802380238,2464668.9135855,-537.86637408855,2579492.0402367,32.123802380238,0,0
44.211673132009,-12.339825228845,26.928232823282,2464668.9135855,-537.86637408855,2579492.0402367,32.128232823282,0,0
44.211673393323,-12.341205786377,26.932663266327,2464668.9135855,-537.86637408855,2579492.0402367,32.132663266327,0,0
44.211673654637,-12.342586343909,26.937093709371,2464668.9135855,-537.86637408855,2579492.0402367,32.137093709371,0,0
44.211673915951,-12.34396690144,26.941524152415,2464668.9135855,-537.86637408855,2579492.0402367,32.141524152415,0,0
44.211674177265,-12.345347458972,26.94595459546,2464668.9135855,-537.86637408855,2579492.0402367,32.14595459546,0,0
44.211674438579,-12.346728016503,26.950385038504,2464668.9135855,-537.86637408855,2579492.0402367,32.150385038504,0,0
44.211674699893,-12.348108574035,26.954815481548,2464668.9135855,-537.86637408855,2579492.0402367,32.154815481548,0,0
44.211674961207,-12.349489131567,26.959245924592,2464668.9135855,-537.86637408855,2579492.0402367,32.159245924592,0,0
44.211675222521,-12.350869689098,26.963676367637,2464668.9135855,-537.86637408855,2579492.0402367,32.163676367637,0,0
44.211675483835,-12.35225024663,26.968106810681,2464668.9135855,-537.86637408855,2579492.0402367,32.168106810681,0,0
44.211675745149,-12.353630804161,26.972537253725,2464668.9135855,-537.86637408855,2579492.0402367,32.172537253725,0,0
44.211676006463,-12.355011361693,26.97696769677,2464668.9135855,-537.86637408855,2579492.0402367,32.17696769677,0,0
44.211676267777,-12.356391919225,26.981398139814,2464668.9135855,-537.86637408855,2579492.0402367,32.181398139814,0,0
44.211676529091,-12.357772476756,26.985828582858,2464668.9135855,-537.86637408855,2579492.0402367,32.185828582858,0,0
44.211676790405,-12.359153034288,26.990259025903,2464668.9135855,-537.86637408855,2579492.0402367,32.190259025903,0,0
44.211677051719,-12.360533591819,26.994689468947,2464668.9135855,-537.86637408855,2579492.0402367,32.194689468947,0,0
44.211677313033,-12.361914149351,26.999119911991,2464668.9135855,-537.86637408855,2579492.0402367,32.199119911991,0,0
44.211677574347,-12.363294706883,27.003550355036,2464668.9135855,-537.86637408855,2579492.0402367,32.203550355036,0,0
44.211677835661,-12.364675264414,27.00798079808,2464668.9135855,-537.86637408855,2579492.0402367,32.20798079808,0,0
44.211678096975,-12.366055821946,27.012411241124,2464668.9135855,-537.86637408855,2579492.0402367,32.212411241124,0,0
44.211678358289,-12.367436379477,27.016841684168,2464668.9135855,-537.86637408855,2579492.0402367,32.216841684168,0,0
44.211678619603,-12.368816937009,27.021272127213,2464668.9135855,-537.86637408855,2579492.0402367,32.221272127213,0,0
44.211678880917,-12.370197494541,27.025702570257,2464668.9135855,-537.86637408855,2579492.0402367,32.225702570257,0,0
44.211679142231,-12.371578052072,27.030133013301,2464668.9135855,-537.86637408855,2579492.0402367,32.230133013301,0,0
44.211679403545,-12.372958609604,27.034563456346,2464668.9135855,-537.86637408855,2579492.0402367,32.234563456346,0,0
44.211679664859,-12.374339167135,27.03899389939,2464668.9135855,-537.86637408855,2579492.0402367,32.23899389939,0,0
44.211679926173,-12.375719724667,27.043424342434,2464668.9135855,-537.86637408855,2579492.0402367,32.243424342434,0,0
44.211680187487,-12.377100282199,27.047854785479,2464668.9135855,-537.86637408855,2579492.0402367,32.247854785479,0,0
44.211680448801,-12.37848083973,27.052285228523,2464668.9135855,-537.86637408855,2579492.0402367,32.252285228523,0,0
44.211680710115,-12.379861397262,27.056715671567,2464668.9135855,-537.86637408855,2579492.0402367,32.256715671567,0,0
44.211680971429,-12.381241954793,27.061146114611,2464668.9135855,-537.86637408855,2579492.0402367,32.261146114611,0,0
44.211681232743,-12.382622512325,27.065576557656,2464668.9135855,-537.86637408855,2579492.0402367,32.265576557656,0,0
44.211681494057,-12.384003069856,27.0700070007,2464668.9135855,-537.86637408855,2579492.0402367,32.2700070007,0,0
44.211681755371,-12.385383627388,27.074437443744,2464668.9135855,-537.86637408855,2579492.0402367,32.274437443744,0,0
44.211682016685,-12.38676418492,27.078867886789,2464668.9135855,-537.86637408855,2579492.0402367,32.278867886789,0,0
44.211682277999,-12.388144742451,27.083298329833,2464668.9135855,-537.86637408855,2579492.0402367,32.283298329833,0,0
44.211682539313,-12.389525299983,27.087728772877,2464668.9135855,-537.86637408855,2579492.0402367,32.287728772877,0,0
44.211682800627,-12.390905857514,27.092159215922,2464668.9135855,-537.86637408855,2579492.0402367,32.292159215922,0,0
44.211683061941,-12.392286415046,27.096589658966,2464668.9135855,-537.86637408855,2579492.0402367,32.296589658966,0,0
44.211683323255,-12.393666972578,27.10102010201,2464668.9135855,-537.86637408855,2579492.0402367,32.30102010201,0,0
44.211683584569,-12.395047530109,27.105450545055,2464668.9135855,-537.86637408855,2579492.0402367,32.305450545055,0,0
44.211683845883,-12.396428087641,27.109880988099,2464668.9135855,-537.86637408855,2579492.0402367,32.309880988099,0,0
44.211684107197,-12.397808645172,27.114311431143,2464668.9135855,-537.86637408855,2579492.0402367,32.314311431143,0,0
44.211684368511,-12.399189202704,27.118741874187,2464668.9135855,-537.86637408855,2579492.0402367,32.318741874187,0,0
44.211684629825,-12.400569760236,27.123172317232,2464668.9135855,-537.86637408855,2579492.0402367,32.323172317232,0,0
44.211684891139,-12.401950317767,27.127602760276,2464668.9135855,-537.86637408855,2579492.0402367,32.327602760276,0,0
44.211685152453,-12.403330875299,27.13203320332,2464668.9135855,-537.86637408855,2579492.0402367,32.33203320332,0,0
44.211685413767,-12.40471143283,27.136463646365,2464668.9135855,-537.86637408855,2579492.0402367,32.336463646365,0,0
44.211685675081,-12.406091990362,27.140894089409,2464668.9135855,-537.86637408855,2579492.0402367,32.340894089409,0,0
44.211685936395,-12.407472547894,27.145324532453,2464668.9135855,-537.86637408855,2579492.0402367,32.345324532453,0,0
44.211686197709,-12.408853105425,27.149754975498,2464668.9135855,-537.86637408855,2579492.0402367,32.349754975498,0,0
44.211686459023,-12.410233662957,27.154185418542,2464668.9135855,-537.86637408855,2579492.0402367,32.354185418542,0,0
44.211686720337,-12.411614220488,27.158615861586,2464668.9135855,-537.86637408855,2579492.0402367,32.358615861586,0,0
44.211686981651,-12.41299477802,27.16304630463,2464668.9135855,-537.86637408855,2579492.0402367,32.36304630463,0,0
44.211687242965,-12.414375335552,27.167476747675,2464668.9135855,-537.86637408855,2579492.0402367,32.367476747675,0,0
44.211687504279,-12.415755893083,27.171907190719,2464668.9135855,-537.86637408855,2579492.0402367,32.371907190719,0,0
44.211687765593,-12.417136450615,27.176337633763,2464668.9135855,-537.86637408855,2579492.0402367,32.376337633763,0,0
44.211688026907,-12.418517008146,27.180768076808,2464668.9135855,-537.86637408855,2579492.0402367,32.380768076808,0,0
44.211688288221,-12.419897565678,27.185198519852,2464668.9135855,-537.86637408855,2579492.0402367,32.385198519852,0,0
44.211688549535,-12.421278123209,27.189628962896,2464668.9135855,-537.86637408855,2579492.0402367,32.389628962896,0,0
44.211688810849,-12.422658680741,27.194059405941,2464668.9135855,-537.86637408855,2579492.0402367,32.394059405941,0,0
44.211689072163,-12.424039238273,27.198489848985,2464668.9135855,-537.86637408855,2579492.0402367,32.398489848985,0,0
44.211689333477,-12.425419795804,27.202920292029,2464668.9135855,-537.86637408855,2579492.0402367,32.402920292029,0,0
44.211689594791,-12.426800353336,27.207350735074,2464668.9135855,-537.86637408855,2579492.0402367,32.407350735074,0,0
44.211689856105,-12.428180910867,27.211781178118,2464668.9135855,-537.86637408855,2579492.0402367,32.411781178118,0,0
44.211690117419,-12.429561468399,27.216211621162,2464668.9135855,-537.86637408855,2579492.0402367,32.416211621162,0,0
44.211690378733,-12.430942025931,27.220642064206,2464668.9135855,-537.86637408855,2579492.0402367,32.420642064206,0,0
44.211690640047,-12.432322583462,27.225072507251,2464668.9135855,-537.86637408855,2579492.0402367,32.425072507251,0,0
44.211690901361,-12.433703140994,27.229502950295,2464668.9135855,-537.86637408855,2579492.0402367,32.429502950295,0,0
44.211691162675,-12.435083698525,27.233933393339,2464668.9135855,-537.86637408855,2579492.0402367,32.433933393339,0,0
44.211691423989,-12.436464256057,27.238363836384,2464668.9135855,-537.86637408855,2579492.0402367,32.438363836384,0,0
44.211691685303,-12.437844813589,27.242794279428,2464668.9135855,-537.86637408855,2579492.0402367,32.442794279428,0,0
44.211691946617,-12.43922537112,27.247224722472,2464668.9135855,-537.86637408855,2579492.0402367,32.447224722472,0,0
44.211692207931,-12.440605928652,27.251655165517,2464668.9135855,-537.86637408855,2579492.0402367,32.451655165517,0,0
44.211692469245,-12.441986486183,27.256085608561,2464668.9135855,-537.86637408855,2579492.0402367,32.456085608561,0,0
44.211692730559,-12.443367043715,27.260516051605,2464668.9135855,-537.86637408855,2579492.0402367,32.460516051605,0,0
44.211692991873,-12.444747601247,27.264946494649,2464668.9135855,-537.86637408855,2579492.0402367,32.464946494649,0,0
44.211693253187,-12.446128158778,27.269376937694,2464668.9135855,-537.86637408855,2579492.0402367,32.469376937694,0,0
44.211693514501,-12.44750871631,27.273807380738,2464668.9135855,-537.86637408855,2579492.0402367,32.473807380738,0,0
44.211693775815,-12.448889273841,27.278237823782,2464668.9135855,-537.86637408855,2579492.0402367,32.478237823782,0,0
44.211694037129,-12.450269831373,27.282668266827,2464668.9135855,-537.86637408855,2579492.0402367,32.482668266827,0,0
44.211694298443,-12.451650388905,27.287098709871,2464668.9135855,-537.86637408855,2579492.0402367,32.487098709871,0,0
44.211694559757,-12.453030946436,27.291529152915,2464668.9135855,-537.86637408855,2579492.0402367,32.491529152915,0,0
44.211694821071,-12.454411503968,27.29595959596,2464668.9135855,-537.86637408855,2579492.0402367,32.49595959596,0,0
44.211695082385,-12.455792061499,27.300390039004,2464668.9135855,-537.86637408855,2579492.0402367,32.500390039004,0,0
44.211695343699,-12.457172619031,27.304820482048,2464668.9135855,-537.86637408855,2579492.0402367,32.504820482048,0,0
44.211695605013,-12.458553176562,27.309250925093,2464668.9135855,-537.86637408855,2579492.0402367,32.509250925093,0,0
44.211695866327,-12.459933734094,27.313681368137,2464668.9135855,-537.86637408855,2579492.0402367,32.513681368137,0,0
44.211696127641,-12.461314291626,27.318111811181,2464668.9135855,-537.86637408855,2579492.0402367,32.518111811181,0,0
44.211696388955,-12.462694849157,27.322542254225,2464668.9135855,-537.86637408855,2579492.0402367,32.522542254225,0,0
44.211696650269,-12.464075406689,27.32697269727,2464668.9135855,-537.86637408855,2579492.0402367,32.52697269727,0,0
44.211696911583,-12.46545596422,27.331403140314,2464668.9135855,-537.86637408855,2579492.0402367,32.531403140314,0,0
44.211697172897,-12.466836521752,27.335833583358,2464668.9135855,-537.86637408855,2579492.0402367,32.535833583358,0,0
44.211697434211,-12.468217079284,27.340264026403,2464668.9135855,-537.86637408855,2579492.0402367,32.540264026403,0,0
44.211697695525,-12.469597636815,27.344694469447,2464668.9135855,-537.86637408855,2579492.0402367,32.544694469447,0,0
44.211697956839,-12.470978194347,27.349124912491,2464668.9135855,-537.86637408855,2579492.0402367,32.549124912491,0,0
44.211698218153,-12.472358751878,27.353555355536,2464668.9135855,-537.86637408855,2579492.0402367,32.553555355536,0,0
44.211698479467,-12.47373930941,27.35798579858,2464668.9135855,-537.86637408855,2579492.0402367,32.55798579858,0,0
44.211698740781,-12.475119866942,27.362416241624,2464668.9135855,-537.86637408855,2579492.0402367,32.562416241624,0,0
44.211699002095,-12.476500424473,27.366846684668,2464668.9135855,-537.86637408855,2579492.0402367,32.566846684668,0,0
44.211699263409,-12.477880982005,27.371277127713,2464668.9135855,-537.86637408855,2579492.0402367,32.571277127713,0,0
44.211699524723,-12.479261539536,27.375707570757,2464668.9135855,-537.86637408855,2579492.0402367,32.575707570757,0,0
44.211699786037,-12.480642097068,27.380138013801,2464668.9135855,-537.86637408855,2579492.0402367,32.580138013801,0,0
44.211700047351,-12.4820226546,27.384568456846,2464668.9135855,-537.86637408855,2579492.0402367,32.584568456846,0,0
44.211700308665,-12.483403212131,27.38899889989,2464668.9135855,-537.86637408855,2579492.0402367,32.58899889989,0,0
44.211700569979,-12.484783769663,27.393429342934,2464668.9135855,-537.86637408855,2579492.0402367,32.593429342934,0,0
44.211700831293,-12.486164327194,27.397859785979,2464668.9135855,-537.86637408855,2579492.0402367,32.597859785979,0,0
44.211701092607,-12.487544884726,27.402290229023,2464668.9135855,-537.86637408855,2579492.0402367,32.602290229023,0,0
44.211701353921,-12.488925442258,27.406720672067,2464668.9135855,-537.86637408855,2579492.0402367,32.606720672067,0,0
44.211701615235,-12.490305999789,27.411151115112,2464668.9135855,-537.86637408855,2579492.0402367,32.611151115112,0,0
44.211701876549,-12.491686557321,27.415581558156,2464668.9135855,-537.86637408855,2579492.0402367,32.615581558156,0,0
44.211702137863,-12.493067114852,27.4200120012,2464668.9135855,-537.86637408855,2579492.0402367,32.6200120012,0,0
44.211702399176,-12.494447672384,27.424442444244,2464668.9135855,-537.86637408855,2579492.0402367,32.624442444244,0,0
44.21170266049,-12.495828229916,27.428872887289,2464668.9135855,-537.86637408855,2579492.0402367,32.628872887289,0,0
44.211702921804,-12.497208787447,27.433303330333,2464668.9135855,-537.86637408855,2579492.0402367,32.633303330333,0,0
44.211703183118,-12.498589344979,27.437733773377,2464668.9135855,-537.86637408855,2579492.0402367,32.637733773377,0,0
44.211703444432,-12.49996990251,27.442164216422,2464668.9135855,-537.86637408855,2579492.0402367,32.642164216422,0,0
44.211703705746,-12.501350460042,27.446594659466,2464668.9135855,-537.86637408855,2579492.0402367,32.646594659466,0,0
44.21170396706,-12.502731017573,27.45102510251,2464668.9135855,-537.86637408855,2579492.0402367,32.65102510251,0,0
44.211704228374,-12.504111575105,27.455455545555,2464668.9135855,-537.86637408855,2579492.0402367,32.655455545555,0,0
44.211704489688,-12.505492132637,27.459885988599,2464668.9135855,-537.86637408855,2579492.0402367,32.659885988599,0,0
44.211704751002,-12.506872690168,27.464316431643,2464668.9135855,-537.86637408855,2579492.0402367,32.664316431643,0,0
44.211705012316,-12.5082532477,27.468746874687,2464668.9135855,-537.86637408855,2579492.0402367,32.668746874687,0,0
44.21170527363,-12.509633805231,27.473177317732,2464668.9135855,-537.86637408855,2579492.0402367,32.673177317732,0,0
44.211705534944,-12.511014362763,27.477607760776,2464668.9135855,-537.86637408855,2579492.0402367,32.677607760776,0,0
44.211705796258,-12.512394920295,27.48203820382,2464668.9135855,-537.86637408855,2579492.0402367,32.68203820382,0,0
44.211706057572,-12.513775477826,27.486468646865,2464668.9135855,-537.86637408855,2579492.0402367,32.686468646865,0,0
44.211706318886,-12.515156035358,27.490899089909,2464668.9135855,-537.86637408855,2579492.0402367,32.690899089909,0,0
44.2117065802,-12.516536592889,27.495329532953,2464668.9135855,-537.86637408855,2579492.0402367,32.695329532953,0,0
44.211706841514,-12.517917150421,27.499759975998,2464668.9135855,-537.86637408855,2579492.0402367,32.699759975998,0,0
44.211707102828,-12.519297707953,27.504190419042,2464668.9135855,-537.86637408855,2579492.0402367,32.704190419042,0,0
44.211707364142,-12.520678265484,27.508620862086,2464668.9135855,-537.86637408855,2579492.0402367,32.708620862086,0,0
44.211707625456,-12.522058823016,27.513051305131,2464668.9135855,-537.86637408855,2579492.0402367,32.713051305131,0,0
44.21170788677,-12.523439380547,27.517481748175,2464668.9135855,-537.86637408855,2579492.0402367,32.717481748175,0,0
44.211708148084,-12.524819938079,27.521912191219,2464668.9135855,-537.86637408855,2579492.0402367,32.721912191219,0,0
44.211708409398,-12.526200495611,27.526342634263,2464668.9135855,-537.86637408855,2579492.0402367,32.726342634263,0,0
44.211708670712,-12.527581053142,27.530773077308,2464668.9135855,-537.86637408855,2579492.0402367,32.730773077308,0,0
44.211708932026,-12.528961610674,27.535203520352,2464668.9135855,-537.86637408855,2579492.0402367,32.735203520352,0,0
44.21170919334,-12.530342168205,27.539633963396,2464668.9135855,-537.86637408855,2579492.0402367,32.739633963396,0,0
44.211709454654,-12.531722725737,27.544064406441,2464668.9135855,-537.86637408855,2579492.0402367,32.744064406441,0,0
44.21170971631,-12.533103283089,27.548494849485,2473760.9728169,109.25035127222,2581077.2765743,32.748494849485,0,0
44.211709978308,-12.534483840263,27.552925292529,2473760.9728169,109.25035127222,2581077.2765743,32.752925292529,0,0
44.211710240306,-12.535864397436,27.557355735574,2473760.9728169,109.25035127222,2581077.2765743,32.757355735574,0,0
44.211710502304,-12.537244954609,27.561786178618,2473760.9728169,109.25035127222,2581077.2765743,32.761786178618,0,0
44.211710764302,-12.538625511783,27.566216621662,2473760.9728169,109.25035127222,2581077.2765743,32.766216621662,0,0
44.2117110263,-12.540006068956,27.570647064706,2473760.9728169,109.25035127222,2581077.2765743,32.770647064706,0,0
44.211711288298,-12.541386626129,27.575077507751,2473760.9728169,109.25035127222,2581077.2765743,32.775077507751,0,0
44.211711550296,-12.542767183303,27.579507950795,2473760.9728169,109.25035127222,2581077.2765743,32.779507950795,0,0
44.211711812294,-12.544147740476,27.583938393839,2473760.9728169,109.25035127222,2581077.2765743,32.783938393839,0,0
44.211712074292,-12.545528297649,27.588368836884,2473760.9728169,109.25035127222,2581077.2765743,32.788368836884,0,0
44.21171233629,-12.546908854823,27.592799279928,2473760.9728169,109.25035127222,2581077.2765743,32.792799279928,0,0
44.211712598288,-12.548289411996,27.597229722972,2473760.9728169,109.25035127222,2581077.2765743,32.797229722972,0,0
44.211712860286,-12.549669969169,27.601660166017,2473760.9728169,109.25035127222,2581077.2765743,32.801660166017,0,0
44.211713122284,-12.551050526343,27.606090609061,2473760.9728169,109.25035127222,2581077.2765743,32.806090609061,0,0
44.211713384283,-12.552431083516,27.610521052105,2473760.9728169,109.25035127222,2581077.2765743,32.810521052105,0,0
44.211713646281,-12.553811640689,27.61495149515,2473760.9728169,109.25035127222,2581077.2765743,32.81495149515,0,0
44.211713908279,-12.555192197863,27.619381938194,2473760.9728169,109.25035127222,2581077.2765743,32.819381938194,0,0
44.211714170277,-12.556572755036,27.623812381238,2473760.9728169,109.25035127222,2581077.2765743,32.823812381238,0,0
44.211714432275,-12.557953312209,27.628242824282,2473760.9728169,109.25035127222,2581077.2765743,32.828242824282,0,0
44.211714694273,-12.559333869383,27.632673267327,2473760.9728169,109.25035127222,2581077.2765743,32.832673267327,0,0
44.211714956271,-12.560714426556,27.637103710371,2473760.9728169,109.25035127222,2581077.2765743,32.837103710371,0,0
44.211715218269,-12.562094983729,27.641534153415,2473760.9728169,109.25035127222,2581077.2765743,32.841534153415,0,0
44.211715480267,-12.563475540902,27.64596459646,2473760.9728169,109.25035127222,2581077.2765743,32.84596459646,0,0
44.211715742265,-12.564856098076,27.650395039504,2473760.9728169,109.25035127222,2581077.2765743,32.850395039504,0,0
44.211716004263,-12.566236655249,27.654825482548,2473760.9728169,109.25035127222,2581077.2765743,32.854825482548,0,0
44.211716266261,-12.567617212422,27.659255925593,2473760.9728169,109.25035127222,2581077.2765743,32.859255925593,0,0
44.211716528259,-12.568997769596,27.663686368637,2473760.9728169,109.25035127222,2581077.2765743,32.863686368637,0,0
44.211716790257,-12.570378326769,27.668116811681,2473760.9728169,109.25035127222,2581077.2765743,32.868116811681,0,0
44.211717052255,-12.571758883942,27.672547254725,2473760.9728169,109.25035127222,2581077.2765743,32.872547254725,0,0
44.211717314253,-12.573139441116,27.67697769777,2473760.9728169,109.25035127222,2581077.2765743,32.87697769777,0,0
44.211717576251,-12.574519998289,27.681408140814,2473760.9728169,109.25035127222,2581077.2765743,32.881408140814,0,0
44.211717838249,-12.575900555462,27.685838583858,2473760.9728169,109.25035127222,2581077.2765743,32.885838583858,0,0
44.211718100247,-12.577281112636,27.690269026903,2473760.9728169,109.25035127222,2581077.2765743,32.890269026903,0,0
44.211718362245,-12.578661669809,27.694699469947,2473760.9728169,109.25035127222,2581077.2765743,32.894699469947,0,0
44.211718624243,-12.580042226982,27.699129912991,2473760.9728169,109.25035127222,2581077.2765743,32.899129912991,0,0
44.211718886241,-12.581422784156,27.703560356036,2473760.9728169,109.25035127222,2581077.2765743,32.903560356036,0,0
44.211719148239,-12.582803341329,27.70799079908,2473760.9728169,109.25035127222,2581077.2765743,32.90799079908,0,0
44.211719410237,-12.584183898502,27.712421242124,2473760.9728169,109.25035127222,2581077.2765743,32.912421242124,0,0
44.211719672235,-12.585564455676,27.716851685169,2473760.9728169,109.25035127222,2581077.2765743,32.916851685169,0,0
44.211719934233,-12.586945012849,27.721282128213,2473760.9728169,109.25035127222,2581077.2765743,32.921282128213,0,0
44.211720196231,-12.588325570022,27.725712571257,2473760.9728169,109.25035127222,2581077.2765743,32.925712571257,0,0
44.211720458229,-12.589706127196,27.730143014301,2473760.9728169,109.25035127222,2581077.2765743,32.930143014301,0,0
44.211720720227,-12.591086684369,27.734573457346,2473760.9728169,109.25035127222,2581077.2765743,32.934573457346,0,0
44.211720982225,-12.592467241542,27.73900390039,2473760.9728169,109.25035127222,2581077.2765743,32.93900390039,0,0
44.211721244223,-12.593847798716,27.743434343434,2473760.9728169,109.25035127222,2581077.2765743,32.943434343434,0,0
44.211721506221,-12.595228355889,27.747864786479,2473760.9728169,109.25035127222,2581077.2765743,32.947864786479,0,0
44.211721768219,-12.596608913062,27.752295229523,2473760.9728169,109.25035127222,2581077.2765743,32.952295229523,0,0
44.211722030217,-12.597989470236,27.756725672567,2473760.9728169,109.25035127222,2581077.2765743,32.956725672567,0,0
44.211722292215,-12.599370027409,27.761156115612,2473760.9728169,109.25035127222,2581077.2765743,32.961156115612,0,0
44.211722554213,-12.600750584582,27.765586558656,2473760.9728169,109.25035127222,2581077.2765743,32.965586558656,0,0
44.211722816211,-12.602131141755,27.7700170017,2473760.9728169,109.25035127222,2581077.2765743,32.9700170017,0,0
44.211723078209,-12.603511698929,27.774447444744,2473760.9728169,109.25035127222,2581077.2765743,32.974447444744,0,0
44.211723340207,-12.604892256102,27.778877887789,2473760.9728169,109.25035127222,2581077.2765743,32.978877887789,0,0
44.211723602205,-12.606272813275,27.783308330833,2473760.9728169,109.25035127222,2581077.2765743,32.983308330833,0,0
44.211723864203,-12.607653370449,27.787738773877,2473760.9728169,109.25035127222,2581077.2765743,32.987738773877,0,0
44.211724126201,-12.609033927622,27.792169216922,2473760.9728169,109.25035127222,2581077.2765743,32.992169216922,0,0
44.211724388199,-12.610414484795,27.796599659966,2473760.9728169,109.25035127222,2581077.2765743,32.996599659966,0,0
44.211724650197,-12.611795041969,27.80103010301,2473760.9728169,109.25035127222,2581077.2765743,33.00103010301,0,0
44.211724912195,-12.613175599142,27.805460546055,2473760.9728169,109.25035127222,2581077.2765743,33.005460546055,0,0
44.211725174193,-12.614556156315,27.809890989099,2473760.9728169,109.25035127222,2581077.2765743,33.009890989099,0,0
44.211725436191,-12.615936713489,27.814321432143,2473760.9728169,109.25035127222,2581077.2765743,33.014321432143,0,0
44.211725698189,-12.617317270662,27.818751875188,2473760.9728169,109.25035127222,2581077.2765743,33.018751875188,0,0
44.211725960188,-12.618697827835,27.823182318232,2473760.9728169,109.25035127222,2581077.2765743,33.023182318232,0,0
44.211726222186,-12.620078385009,27.827612761276,2473760.9728169,109.25035127222,2581077.2765743,33.027612761276,0,0
44.211726484184,-12.621458942182,27.83204320432,2473760.9728169,109.25035127222,2581077.2765743,33.03204320432,0,0
44.211726746182,-12.622839499355,27.836473647365,2473760.9728169,109.25035127222,2581077.2765743,33.036473647365,0,0
44.21172700818,-12.624220056529,27.840904090409,2473760.9728169,109.25035127222,2581077.2765743,33.040904090409,0,0
44.211727270178,-12.625600613702,27.845334533453,2473760.9728169,109.25035127222,2581077.2765743,33.045334533453,0,0
44.211727532176,-12.626981170875,27.849764976498,2473760.9728169,109.25035127222,2581077.2765743,33.049764976498,0,0
44.211727794174,-12.628361728049,27.854195419542,2473760.9728169,109.25035127222,2581077.2765743,33.054195419542,0,0
44.211728056172,-12.629742285222,27.858625862586,2473760.9728169,109.25035127222,2581077.2765743,33.058625862586,0,0
44.21172831817,-12.631122842395,27.863056305631,2473760.9728169,109.25035127222,2581077.2765743,33.063056305631,0,0
44.211728580168,-12.632503399569,27.867486748675,2473760.9728169,109.25035127222,2581077.2765743,33.067486748675,0,0
44.211728842166,-12.633883956742,27.871917191719,2473760.9728169,109.25035127222,2581077.2765743,33.071917191719,0,0
44.211729104164,-12.635264513915,27.876347634763,2473760.9728169,109.25035127222,2581077.2765743,33.076347634763,0,0
44.211729366162,-12.636645071089,27.880778077808,2473760.9728169,109.25035127222,2581077.2765743,33.080778077808,0,0
44.21172962816,-12.638025628262,27.885208520852,2473760.9728169,109.25035127222,2581077.2765743,33.085208520852,0,0
44.211729890158,-12.639406185435,27.889638963896,2473760.9728169,109.25035127222,2581077.2765743,33.089638963896,0,0
44.211730152156,-12.640786742608,27.894069406941,2473760.9728169,109.25035127222,2581077.2765743,33.094069406941,0,0
44.211730414154,-12.642167299782,27.898499849985,2473760.9728169,109.25035127222,2581077.2765743,33.098499849985,0,0
44.211730676152,-12.643547856955,27.902930293029,2473760.9728169,109.25035127222,2581077.2765743,33.102930293029,0,0
44.21173093815,-12.644928414128,27.907360736074,2473760.9728169,109.25035127222,2581077.2765743,33.107360736074,0,0
44.211731200148,-12.646308971302,27.911791179118,2473760.9728169,109.25035127222,2581077.2765743,33.111791179118,0,0
44.211731462146,-12.647689528475,27.916221622162,2473760.9728169,109.25035127222,2581077.2765743,33.116221622162,0,0
44.211731724144,-12.649070085648,27.920652065207,2473760.9728169,109.25035127222,2581077.2765743,33.120652065207,0,0
44.211731986142,-12.650450642822,27.925082508251,2473760.9728169,109.25035127222,2581077.2765743,33.125082508251,0,0
44.21173224814,-12.651831199995,27.929512951295,2473760.9728169,109.25035127222,2581077.2765743,33.129512951295,0,0
44.211732510138,-12.653211757168,27.933943394339,2473760.9728169,109.25035127222,2581077.2765743,33.133943394339,0,0
44.211732772136,-12.654592314342,27.938373837384,2473760.9728169,109.25035127222,2581077.2765743,33.138373837384,0,0
44.211733034134,-12.655972871515,27.942804280428,2473760.9728169,109.25035127222,2581077.2765743,33.142804280428,0,0
44.211733296132,-12.657353428688,27.947234723472,2473760.9728169,109.25035127222,2581077.2765743,33.147234723472,0,0
44.21173355813,-12.658733985862,27.951665166517,2473760.9728169,109.25035127222,2581077.2765743,33.151665166517,0,0
44.211733820128,-12.660114543035,27.956095609561,2473760.9728169,109.25035127222,2581077.2765743,33.156095609561,0,0
44.211734082126,-12.661495100208,27.960526052605,2473760.9728169,109.25035127222,2581077.2765743,33.160526052605,0,0
44.211734344124,-12.662875657382,27.96495649565,2473760.9728169,109.25035127222,2581077.2765743,33.16495649565,0,0
44.211734606122,-12.664256214555,27.969386938694,2473760.9728169,109.25035127222,2581077.2765743,33.169386938694,0,0
44.21173486812,-12.665636771728,27.973817381738,2473760.9728169,109.25035127222,2581077.2765743,33.173817381738,0,0
44.211735130118,-12.667017328902,27.978247824782,2473760.9728169,109.25035127222,2581077.2765743,33.178247824782,0,0
44.211735392116,-12.668397886075,27.982678267827,2473760.9728169,109.25035127222,2581077.2765743,33.182678267827,0,0
44.211735654114,-12.669778443248,27.987108710871,2473760.9728169,109.25035127222,2581077.2765743,33.187108710871,0,0
44.211735916112,-12.671159000422,27.991539153915,2473760.9728169,109.25035127222,2581077.2765743,33.191539153915,0,0
44.21173617811,-12.672539557595,27.99596959696,2473760.9728169,109.25035127222,2581077.2765743,33.19596959696,0,0
44.211736440108,-12.673920114768,28.000400040004,2473760.9728169,109.25035127222,2581077.2765743,33.200400040004,0,0
44.211736702106,-12.675300671942,28.004830483048,2473760.9728169,109.25035127222,2581077.2765743,33.204830483048,0,0
44.211736964104,-12.676681229115,28.009260926093,2473760.9728169,109.25035127222,2581077.2765743,33.209260926093,0,0
44.211737226102,-12.678061786288,28.013691369137,2473760.9728169,109.25035127222,2581077.2765743,33.213691369137,0,0
44.2117374881,-12.679442343461,28.018121812181,2473760.9728169,109.25035127222,2581077.2765743,33.218121812181,0,0
44.211737750098,-12.680822900635,28.022552255226,2473760.9728169,109.25035127222,2581077.2765743,33.222552255226,0,0
44.211738012096,-12.682203457808,28.02698269827,2473760.9728169,109.25035127222,2581077.2765743,33.22698269827,0,0
44.211738274094,-12.683584014981,28.031413141314,2473760.9728169,109.25035127222,2581077.2765743,33.231413141314,0,0
44.211738536092,-12.684964572155,28.035843584358,2473760.9728169,109.25035127222,2581077.2765743,33.235843584358,0,0
44.211738798091,-12.686345129328,28.040274027403,2473760.9728169,109.25035127222,2581077.2765743,33.240274027403,0,0
44.211739060089,-12.687725686501,28.044704470447,2473760.9728169,109.25035127222,2581077.2765743,33.244704470447,0,0
44.211739322087,-12.689106243675,28.049134913491,2473760.9728169,109.25035127222,2581077.2765743,33.249134913491,0,0
44.211739584085,-12.690486800848,28.053565356536,2473760.9728169,109.25035127222,2581077.2765743,33.253565356536,0,0
44.211739846083,-12.691867358021,28.05799579958,2473760.9728169,109.25035127222,2581077.2765743,33.25799579958,0,0
44.211740108081,-12.693247915195,28.062426242624,2473760.9728169,109.25035127222,2581077.2765743,33.262426242624,0,0
44.211740370079,-12.694628472368,28.066856685669,2473760.9728169,109.25035127222,2581077.2765743,33.266856685669,0,0
44.211740632077,-12.696009029541,28.071287128713,2473760.9728169,109.25035127222,2581077.2765743,33.271287128713,0,0
44.211740894075,-12.697389586715,28.075717571757,2473760.9728169,109.25035127222,2581077.2765743,33.275717571757,0,0
44.211741156073,-12.698770143888,28.080148014801,2473760.9728169,109.25035127222,2581077.2765743,33.280148014801,0,0
44.211741418071,-12.700150701061,28.084578457846,2473760.9728169,109.25035127222,2581077.2765743,33.284578457846,0,0
44.211741680069,-12.701531258235,28.08900890089,2473760.9728169,109.25035127222,2581077.2765743,33.28900890089,0,0
44.211741942067,-12.702911815408,28.093439343934,2473760.9728169,109.25035127222,2581077.2765743,33.293439343934,0,0
44.211742204065,-12.704292372581,28.097869786979,2473760.9728169,109.25035127222,2581077.2765743,33.297869786979,0,0
44.211742466063,-12.705672929755,28.102300230023,2473760.9728169,109.25035127222,2581077.2765743,33.302300230023,0,0
44.211742728061,-12.707053486928,28.106730673067,2473760.9728169,109.25035127222,2581077.2765743,33.306730673067,0,0
44.211742990059,-12.708434044101,28.111161116112,2473760.9728169,109.25035127222,2581077.2765743,33.311161116112,0,0
44.211743252057,-12.709814601275,28.115591559156,2473760.9728169,109.25035127222,2581077.2765743,33.315591559156,0,0
44.211743514055,-12.711195158448,28.1200220022,2473760.9728169,109.25035127222,2581077.2765743,33.3200220022,0,0
44.211743776053,-12.712575715621,28.124452445245,2473760.9728169,109.25035127222,2581077.2765743,33.324452445245,0,0
44.211744038051,-12.713956272795,28.128882888289,2473760.9728169,109.25035127222,2581077.2765743,33.328882888289,0,0
44.211744300049,-12.715336829968,28.133313331333,2473760.9728169,109.25035127222,2581077.2765743,33.333313331333,0,0
44.211744562047,-12.716717387141,28.137743774377,2473760.9728169,109.25035127222,2581077.2765743,33.337743774377,0,0
44.211744824045,-12.718097944314,28.142174217422,2473760.9728169,109.25035127222,2581077.2765743,33.342174217422,0,0
44.211745086043,-12.719478501488,28.146604660466,2473760.9728169,109.25035127222,2581077.2765743,33.346604660466,0,0
44.211745348041,-12.720859058661,28.15103510351,2473760.9728169,109.25035127222,2581077.2765743,33.35103510351,0,0
44.211745610039,-12.722239615834,28.155465546555,2473760.9728169,109.25035127222,2581077.2765743,33.355465546555,0,0
44.211745872037,-12.723620173008,28.159895989599,2473760.9728169,109.25035127222,2581077.2765743,33.359895989599,0,0
44.211746134035,-12.725000730181,28.164326432643,2473760.9728169,109.25035127222,2581077.2765743,33.364326432643,0,0
44.211746396033,-12.726381287354,28.168756875688,2473760.9728169,109.25035127222,2581077.2765743,33.368756875688,0,0
44.211746658031,-12.727761844528,28.173187318732,2473760.9728169,109.25035127222,2581077.2765743,33.373187318732,0,0
44.211746920029,-12.729142401701,28.177617761776,2473760.9728169,109.25035127222,2581077.2765743,33.377617761776,0,0
44.211747182027,-12.730522958874,28.18204820482,2473760.9728169,109.25035127222,2581077.2765743,33.38204820482,0,0
44.211747444025,-12.731903516048,28.186478647865,2473760.9728169,109.25035127222,2581077.2765743,33.386478647865,0,0
44.211747706023,-12.733284073221,28.190909090909,2473760.9728169,109.25035127222,2581077.2765743,33.390909090909,0,0
44.211747968021,-12.734664630394,28.195339533953,2473760.9728169,109.25035127222,2581077.2765743,33.395339533953,0,0
44.211748230019,-12.736045187568,28.199769976998,2473760.9728169,109.25035127222,2581077.2765743,33.399769976998,0,0
44.211748492017,-12.737425744741,28.204200420042,2473760.9728169,109.25035127222,2581077.2765743,33.404200420042,0,0
44.211748754015,-12.738806301914,28.208630863086,2473760.9728169,109.25035127222,2581077.2765743,33.408630863086,0,0
44.211749016013,-12.740186859088,28.213061306131,2473760.9728169,109.25035127222,2581077.2765743,33.413061306131,0,0
44.211749278011,-12.741567416261,28.217491749175,2473760.9728169,109.25035127222,2581077.2765743,33.417491749175,0,0
44.211749540009,-12.742947973434,28.221922192219,2473760.9728169,109.25035127222,2581077.2765743,33.421922192219,0,0
44.211749802007,-12.744328530608,28.226352635264,2473760.9728169,109.25035127222,2581077.2765743,33.426352635264,0,0
44.211750064005,-12.745709087781,28.230783078308,2473760.9728169,109.25035127222,2581077.2765743,33.430783078308,0,0
44.211750326003,-12.747089644954,28.235213521352,2473760.9728169,109.25035127222,2581077.2765743,33.435213521352,0,0
44.211750588001,-12.748470202128,28.239643964396,2473760.9728169,109.25035127222,2581077.2765743,33.439643964396,0,0
44.211750849999,-12.749850759301,28.244074407441,2473760.9728169,109.25035127222,2581077.2765743,33.444074407441,0,0
44.211751111997,-12.751231316474,28.248504850485,2473760.9728169,109.25035127222,2581077.2765743,33.448504850485,0,0
44.211751373995,-12.752611873648,28.252935293529,2473760.9728169,109.25035127222,2581077.2765743,33.452935293529,0,0
44.211751635994,-12.753992430821,28.257365736574,2473760.9728169,109.25035127222,2581077.2765743,33.457365736574,0,0
44.211751897992,-12.755372987994,28.261796179618,2473760.9728169,109.25035127222,2581077.2765743,33.461796179618,0,0
44.21175215999,-12.756753545167,28.266226622662,2473760.9728169,109.25035127222,2581077.2765743,33.466226622662,0,0
44.211752421988,-12.758134102341,28.270657065707,2473760.9728169,109.25035127222,2581077.2765743,33.470657065707,0,0
44.211752683986,-12.759514659514,28.275087508751,2473760.9728169,109.25035127222,2581077.2765743,33.475087508751,0,0
44.211752945984,-12.760895216687,28.279517951795,2473760.9728169,109.25035127222,2581077.2765743,33.479517951795,0,0
44.211753207982,-12.762275773861,28.283948394839,2473760.9728169,109.25035127222,2581077.2765743,33.483948394839,0,0
44.21175346998,-12.763656331034,28.288378837884,2473760.9728169,109.25035127222,2581077.2765743,33.488378837884,0,0
44.211753731978,-12.765036888207,28.292809280928,2473760.9728169,109.25035127222,2581077.2765743,33.492809280928,0,0
44.211753993976,-12.766417445381,28.297239723972,2473760.9728169,109.25035127222,2581077.2765743,33.497239723972,0,0
44.211754255974,-12.767798002554,28.301670167017,2473760.9728169,109.25035127222,2581077.2765743,33.501670167017,0,0
44.211754517972,-12.769178559727,28.306100610061,2473760.9728169,109.25035127222,2581077.2765743,33.506100610061,0,0
44.21175477997,-12.770559116901,28.310531053105,2473760.9728169,109.25035127222,2581077.2765743,33.510531053105,0,0
44.211755041968,-12.771939674074,28.31496149615,2473760.9728169,109.25035127222,2581077.2765743,33.51496149615,0,0
44.211755303966,-12.773320231247,28.319391939194,2473760.9728169,109.25035127222,2581077.2765743,33.519391939194,0,0
44.211755565964,-12.774700788421,28.323822382238,2473760.9728169,109.25035127222,2581077.2765743,33.523822382238,0,0
44.211755827962,-12.776081345594,28.328252825283,2473760.9728169,109.25035127222,2581077.2765743,33.528252825283,0,0
44.21175608996,-12.777461902767,28.332683268327,2473760.9728169,109.25035127222,2581077.2765743,33.532683268327,0,0
44.211756351958,-12.778842459941,28.337113711371,2473760.9728169,109.25035127222,2581077.2765743,33.537113711371,0,0
44.211756613956,-12.780223017114,28.341544154415,2473760.9728169,109.25035127222,2581077.2765743,33.541544154415,0,0
44.211756875954,-12.781603574287,28.34597459746,2473760.9728169,109.25035127222,2581077.2765743,33.54597459746,0,0
44.211757137952,-12.782984131461,28.350405040504,2473760.9728169,109.25035127222,2581077.2765743,33.550405040504,0,0
44.21175739995,-12.784364688634,28.354835483548,2473760.9728169,109.25035127222,2581077.2765743,33.554835483548,0,0
44.211757661948,-12.785745245807,28.359265926593,2473760.9728169,109.25035127222,2581077.2765743,33.559265926593,0,0
44.211757923946,-12.787125802981,28.363696369637,2473760.9728169,109.25035127222,2581077.2765743,33.563696369637,0,0
44.211758185944,-12.788506360154,28.368126812681,2473760.9728169,109.25035127222,2581077.2765743,33.568126812681,0,0
44.211758447942,-12.789886917327,28.372557255726,2473760.9728169,109.25035127222,2581077.2765743,33.572557255726,0,0
44.21175870994,-12.7912674745,28.37698769877,2473760.9728169,109.25035127222,2581077.2765743,33.57698769877,0,0
44.211758971938,-12.792648031674,28.381418141814,2473760.9728169,109.25035127222,2581077.2765743,33.581418141814,0,0
44.211759233936,-12.794028588847,28.385848584858,2473760.9728169,109.25035127222,2581077.2765743,33.585848584858,0,0
44.211759495934,-12.79540914602,28.390279027903,2473760.9728169,109.25035127222,2581077.2765743,33.590279027903,0,0
44.211759757932,-12.796789703194,28.394709470947,2473760.9728169,109.25035127222,2581077.2765743,33.594709470947,0,0
44.21176001993,-12.798170260367,28.399139913991,2473760.9728169,109.25035127222,2581077.2765743,33.599139913991,0,0
44.211760281928,-12.79955081754,28.403570357036,2473760.9728169,109.25035127222,2581077.2765743,33.603570357036,0,0
44.211760543926,-12.800931374714,28.40800080008,2473760.9728169,109.25035127222,2581077.2765743,33.60800080008,0,0
44.211760805924,-12.802311931887,28.412431243124,2473760.9728169,109.25035127222,2581077.2765743,33.612431243124,0,0
44.211761067922,-12.80369248906,28.416861686169,2473760.9728169,109.25035127222,2581077.2765743,33.616861686169,0,0
44.21176132992,-12.805073046234,28.421292129213,2473760.9728169,109.25035127222,2581077.2765743,33.621292129213,0,0
44.211761591918,-12.806453603407,28.425722572257,2473760.9728169,109.25035127222,2581077.2765743,33.625722572257,0,0
44.211761853916,-12.80783416058,28.430153015302,2473760.9728169,109.25035127222,2581077.2765743,33.630153015302,0,0
44.211762115914,-12.809214717754,28.434583458346,2473760.9728169,109.25035127222,2581077.2765743,33.634583458346,0,0
44.211762377912,-12.810595274927,28.43901390139,2473760.9728169,109.25035127222,2581077.2765743,33.63901390139,0,0
44.21176263991,-12.8119758321,28.443444344434,2473760.9728169,109.25035127222,2581077.2765743,33.643444344434,0,0
44.211762901908,-12.813356389274,28.447874787479,2473760.9728169,109.25035127222,2581077.2765743,33.647874787479,0,0
44.211763163906,-12.814736946447,28.452305230523,2473760.9728169,109.25035127222,2581077.2765743,33.652305230523,0,0
44.211763425904,-12.81611750362,28.456735673567,2473760.9728169,109.25035127222,2581077.2765743,33.656735673567,0,0
44.211763687902,-12.817498060794,28.461166116612,2473760.9728169,109.25035127222,2581077.2765743,33.661166116612,0,0
44.2117639499,-12.818878617967,28.465596559656,2473760.9728169,109.25035127222,2581077.2765743,33.665596559656,0,0
44.211764211899,-12.82025917514,28.4700270027,2473760.9728169,109.25035127222,2581077.2765743,33.6700270027,0,0
44.211764473897,-12.821639732314,28.474457445745,2473760.9728169,109.25035127222,2581077.2765743,33.674457445745,0,0
44.211764735895,-12.823020289487,28.478887888789,2473760.9728169,109.25035127222,2581077.2765743,33.678887888789,0,0
44.211764997893,-12.82440084666,28.483318331833,2473760.9728169,109.25035127222,2581077.2765743,33.683318331833,0,0
44.211765259891,-12.825781403834,28.487748774877,2473760.9728169,109.25035127222,2581077.2765743,33.687748774877,0,0
44.211765521889,-12.827161961007,28.492179217922,2473760.9728169,109.25035127222,2581077.2765743,33.692179217922,0,0
44.211765783887,-12.82854251818,28.496609660966,2473760.9728169,109.25035127222,2581077.2765743,33.696609660966,0,0
44.211766045885,-12.829923075353,28.50104010401,2473760.9728169,109.25035127222,2581077.2765743,33.70104010401,0,0
44.211766307883,-12.831303632527,28.505470547055,2473760.9728169,109.25035127222,2581077.2765743,33.705470547055,0,0
44.211766569881,-12.8326841897,28.509900990099,2473760.9728169,109.25035127222,2581077.2765743,33.709900990099,0,0
44.211766831879,-12.834064746873,28.514331433143,2473760.9728169,109.25035127222,2581077.2765743,33.714331433143,0,0
44.211767093877,-12.835445304047,28.518761876188,2473760.9728169,109.25035127222,2581077.2765743,33.718761876188,0,0
44.211767355875,-12.83682586122,28.523192319232,2473760.9728169,109.25035127222,2581077.2765743,33.723192319232,0,0
44.211767617873,-12.838206418393,28.527622762276,2473760.9728169,109.25035127222,2581077.2765743,33.727622762276,0,0
44.211767879871,-12.839586975567,28.532053205321,2473760.9728169,109.25035127222,2581077.2765743,33.732053205321,0,0
44.211768141869,-12.84096753274,28.536483648365,2473760.9728169,109.25035127222,2581077.2765743,33.736483648365,0,0
44.211768403867,-12.842348089913,28.540914091409,2473760.9728169,109.25035127222,2581077.2765743,33.740914091409,0,0
44.211768665865,-12.843728647087,28.545344534453,2473760.9728169,109.25035127222,2581077.2765743,33.745344534453,0,0
44.211768927863,-12.84510920426,28.549774977498,2473760.9728169,109.25035127222,2581077.2765743,33.749774977498,0,0
44.211769189861,-12.846489761433,28.554205420542,2473760.9728169,109.25035127222,2581077.2765743,33.754205420542,0,0
44.211769451859,-12.847870318607,28.558635863586,2473760.9728169,109.25035127222,2581077.2765743,33.758635863586,0,0
44.211769713857,-12.84925087578,28.563066306631,2473760.9728169,109.25035127222,2581077.2765743,33.763066306631,0,0
44.211769975855,-12.850631432953,28.567496749675,2473760.9728169,109.25035127222,2581077.2765743,33.767496749675,0,0
44.211770237853,-12.852011990127,28.571927192719,2473760.9728169,109.25035127222,2581077.2765743,33.771927192719,0,0
44.211770499851,-12.8533925473,28.576357635764,2473760.9728169,109.25035127222,2581077.2765743,33.776357635764,0,0
44.211770761849,-12.854773104473,28.580788078808,2473760.9728169,109.25035127222,2581077.2765743,33.780788078808,0,0
44.211771023847,-12.856153661647,28.585218521852,2473760.9728169,109.25035127222,2581077.2765743,33.785218521852,0,0
44.211771285845,-12.85753421882,28.589648964896,2473760.9728169,109.25035127222,2581077.2765743,33.789648964896,0,0
44.211771547843,-12.858914775993,28.594079407941,2473760.9728169,109.25035127222,2581077.2765743,33.794079407941,0,0
44.211771809841,-12.860295333167,28.598509850985,2473760.9728169,109.25035127222,2581077.2765743,33.798509850985,0,0
44.211772071839,-12.86167589034,28.602940294029,2473760.9728169,109.25035127222,2581077.2765743,33.802940294029,0,0
44.211772333837,-12.863056447513,28.607370737074,2473760.9728169,109.25035127222,2581077.2765743,33.807370737074,0,0
44.211772595835,-12.864437004687,28.611801180118,2473760.9728169,109.25035127222,2581077.2765743,33.811801180118,0,0
44.211772857833,-12.86581756186,28.616231623162,2473760.9728169,109.25035127222,2581077.2765743,33.816231623162,0,0
44.211773119831,-12.867198119033,28.620662066207,2473760.9728169,109.25035127222,2581077.2765743,33.820662066207,0,0
44.211773381829,-12.868578676206,28.625092509251,2473760.9728169,109.25035127222,2581077.2765743,33.825092509251,0,0
44.211773643827,-12.86995923338,28.629522952295,2473760.9728169,109.25035127222,2581077.2765743,33.829522952295,0,0
44.211773905825,-12.871339790553,28.63395339534,2473760.9728169,109.25035127222,2581077.2765743,33.83395339534,0,0
44.211774167823,-12.872720347726,28.638383838384,2473760.9728169,109.25035127222,2581077.2765743,33.838383838384,0,0
44.211774429821,-12.8741009049,28.642814281428,2473760.9728169,109.25035127222,2581077.2765743,33.842814281428,0,0
44.211774691819,-12.875481462073,28.647244724472,2473760.9728169,109.25035127222,2581077.2765743,33.847244724472,0,0
44.211774953817,-12.876862019246,28.651675167517,2473760.9728169,109.25035127222,2581077.2765743,33.851675167517,0,0
44.211775215815,-12.87824257642,28.656105610561,2473760.9728169,109.25035127222,2581077.2765743,33.856105610561,0,0
44.211775477813,-12.879623133593,28.660536053605,2473760.9728169,109.25035127222,2581077.2765743,33.860536053605,0,0
44.211775739811,-12.881003690766,28.66496649665,2473760.9728169,109.25035127222,2581077.2765743,33.86496649665,0,0
44.211776001809,-12.88238424794,28.669396939694,2473760.9728169,109.25035127222,2581077.2765743,33.869396939694,0,0
44.211776263807,-12.883764805113,28.673827382738,2473760.9728169,109.25035127222,2581077.2765743,33.873827382738,0,0
44.211776525805,-12.885145362286,28.678257825783,2473760.9728169,109.25035127222,2581077.2765743,33.878257825783,0,0
44.211776787804,-12.88652591946,28.682688268827,2473760.9728169,109.25035127222,2581077.2765743,33.882688268827,0,0
44.211777049802,-12.887906476633,28.687118711871,2473760.9728169,109.25035127222,2581077.2765743,33.887118711871,0,0
44.2117773118,-12.889287033806,28.691549154915,2473760.9728169,109.25035127222,2581077.2765743,33.891549154915,0,0
44.211777573798,-12.89066759098,28.69597959796,2473760.9728169,109.25035127222,2581077.2765743,33.89597959796,0,0
44.211777835796,-12.892048148153,28.700410041004,2473760.9728169,109.25035127222,2581077.2765743,33.900410041004,0,0
44.211778097794,-12.893428705326,28.704840484048,2473760.9728169,109.25035127222,2581077.2765743,33.904840484048,0,0
44.211778359792,-12.8948092625,28.709270927093,2473760.9728169,109.25035127222,2581077.2765743,33.909270927093,0,0
44.21177862179,-12.896189819673,28.713701370137,2473760.9728169,109.25035127222,2581077.2765743,33.913701370137,0,0
44.211778883788,-12.897570376846,28.718131813181,2473760.9728169,109.25035127222,2581077.2765743,33.918131813181,0,0
44.211779145786,-12.89895093402,28.722562256226,2473760.9728169,109.25035127222,2581077.2765743,33.922562256226,0,0
44.211779407784,-12.900331491193,28.72699269927,2473760.9728169,109.25035127222,2581077.2765743,33.92699269927,0,0
44.211779669782,-12.901712048366,28.731423142314,2473760.9728169,109.25035127222,2581077.2765743,33.931423142314,0,0
44.21177993178,-12.90309260554,28.735853585359,2473760.9728169,109.25035127222,2581077.2765743,33.935853585359,0,0
44.211780193778,-12.904473162713,28.740284028403,2473760.9728169,109.25035127222,2581077.2765743,33.940284028403,0,0
44.211780455776,-12.905853719886,28.744714471447,2473760.9728169,109.25035127222,2581077.2765743,33.944714471447,0,0
44.211780717774,-12.907234277059,28.749144914491,2473760.9728169,109.25035127222,2581077.2765743,33.949144914491,0,0
44.211780979772,-12.908614834233,28.753575357536,2473760.9728169,109.25035127222,2581077.2765743,33.953575357536,0,0
44.21178124177,-12.909995391406,28.75800580058,2473760.9728169,109.25035127222,2581077.2765743,33.95800580058,0,0
44.211781503768,-12.911375948579,28.762436243624,2473760.9728169,109.25035127222,2581077.2765743,33.962436243624,0,0
44.211781765766,-12.912756505753,28.766866686669,2473760.9728169,109.25035127222,2581077.2765743,33.966866686669,0,0
44.211782027764,-12.914137062926,28.771297129713,2473760.9728169,109.25035127222,2581077.2765743,33.971297129713,0,0
44.211782289762,-12.915517620099,28.775727572757,2473760.9728169,109.25035127222,2581077.2765743,33.975727572757,0,0
44.21178255176,-12.916898177273,28.780158015802,2473760.9728169,109.25035127222,2581077.2765743,33.980158015802,0,0
44.211782813758,-12.918278734446,28.784588458846,2473760.9728169,109.25035127222,2581077.2765743,33.984588458846,0,0
44.211783075756,-12.919659291619,28.78901890189,2473760.9728169,109.25035127222,2581077.2765743,33.98901890189,0,0
44.211783337754,-12.921039848793,28.793449344934,2473760.9728169,109.25035127222,2581077.2765743,33.993449344934,0,0
44.211783599752,-12.922420405966,28.797879787979,2473760.9728169,109.25035127222,2581077.2765743,33.997879787979,0,0
44.21178386175,-12.923800963139,28.802310231023,2473760.9728169,109.25035127222,2581077.2765743,34.002310231023,0,0
44.211784123748,-12.925181520313,28.806740674067,2473760.9728169,109.25035127222,2581077.2765743,34.006740674067,0,0
44.211784385746,-12.926562077486,28.811171117112,2473760.9728169,109.25035127222,2581077.2765743,34.011171117112,0,0
44.211784647744,-12.927942634659,28.815601560156,2473760.9728169,109.25035127222,2581077.2765743,34.015601560156,0,0
44.211784909742,-12.929323191833,28.8200320032,2473760.9728169,109.25035127222,2581077.2765743,34.0200320032,0,0
44.21178517174,-12.930703749006,28.824462446245,2473760.9728169,109.25035127222,2581077.2765743,34.024462446245,0,0
44.211785433738,-12.932084306179,28.828892889289,2473760.9728169,109.25035127222,2581077.2765743,34.028892889289,0,0
44.211785695736,-12.933464863353,28.833323332333,2473760.9728169,109.25035127222,2581077.2765743,34.033323332333,0,0
44.211785957734,-12.934845420526,28.837753775378,2473760.9728169,109.25035127222,2581077.2765743,34.037753775378,0,0
44.211786219732,-12.936225977699,28.842184218422,2473760.9728169,109.25035127222,2581077.2765743,34.042184218422,0,0
44.21178648173,-12.937606534873,28.846614661466,2473760.9728169,109.25035127222,2581077.2765743,34.046614661466,0,0
44.211786743728,-12.938987092046,28.85104510451,2473760.9728169,109.25035127222,2581077.2765743,34.05104510451,0,0
44.211787005726,-12.940367649219,28.855475547555,2473760.9728169,109.25035127222,2581077.2765743,34.055475547555,0,0
44.211787267724,-12.941748206393,28.859905990599,2473760.9728169,109.25035127222,2581077.2765743,34.059905990599,0,0
44.211787529722,-12.943128763566,28.864336433643,2473760.9728169,109.25035127222,2581077.2765743,34.064336433643,0,0
44.21178779172,-12.944509320739,28.868766876688,2473760.9728169,109.25035127222,2581077.2765743,34.068766876688,0,0
44.211788053718,-12.945889877912,28.873197319732,2473760.9728169,109.25035127222,2581077.2765743,34.073197319732,0,0
44.211788315716,-12.947270435086,28.877627762776,2473760.9728169,109.25035127222,2581077.2765743,34.077627762776,0,0
44.211788577714,-12.948650992259,28.882058205821,2473760.9728169,109.25035127222,2581077.2765743,34.082058205821,0,0
44.211788839712,-12.950031549432,28.886488648865,2473760.9728169,109.25035127222,2581077.2765743,34.086488648865,0,0
44.21178910171,-12.951412106606,28.890919091909,2473760.9728169,109.25035127222,2581077.2765743,34.090919091909,0,0
44.211789363708,-12.952792663779,28.895349534953,2473760.9728169,109.25035127222,2581077.2765743,34.095349534953,0,0
44.211789625707,-12.954173220952,28.899779977998,2473760.9728169,109.25035127222,2581077.2765743,34.099779977998,0,0
44.211789887705,-12.955553778126,28.904210421042,2473760.9728169,109.25035127222,2581077.2765743,34.104210421042,0,0
44.211790149878,-12.956934335737,28.908640864086,2474771.9894381,-1668.9185369501,2575602.1623091,34.108640864086,0,0
44.211790412103,-12.958314893475,28.913071307131,2474771.9894381,-1668.9185369501,2575602.1623091,34.113071307131,0,0
44.211790674327,-12.959695451214,28.917501750175,2474771.9894381,-1668.9185369501,2575602.1623091,34.117501750175,0,0
44.211790936552,-12.961076008952,28.921932193219,2474771.9894381,-1668.9185369501,2575602.1623091,34.121932193219,0,0
44.211791198776,-12.96245656669,28.926362636264,2474771.9894381,-1668.9185369501,2575602.1623091,34.126362636264,0,0
44.211791461001,-12.963837124428,28.930793079308,2474771.9894381,-1668.9185369501,2575602.1623091,34.130793079308,0,0
44.211791723226,-12.965217682166,28.935223522352,2474771.9894381,-1668.9185369501,2575602.1623091,34.135223522352,0,0
44.21179198545,-12.966598239905,28.939653965397,2474771.9894381,-1668.9185369501,2575602.1623091,34.139653965397,0,0
44.211792247675,-12.967978797643,28.944084408441,2474771.9894381,-1668.9185369501,2575602.1623091,34.144084408441,0,0
44.211792509899,-12.969359355381,28.948514851485,2474771.9894381,-1668.9185369501,2575602.1623091,34.148514851485,0,0
44.211792772124,-12.970739913119,28.952945294529,2474771.9894381,-1668.9185369501,2575602.1623091,34.152945294529,0,0
44.211793034348,-12.972120470858,28.957375737574,2474771.9894381,-1668.9185369501,2575602.1623091,34.157375737574,0,0
44.211793296573,-12.973501028596,28.961806180618,2474771.9894381,-1668.9185369501,2575602.1623091,34.161806180618,0,0
44.211793558797,-12.974881586334,28.966236623662,2474771.9894381,-1668.9185369501,2575602.1623091,34.166236623662,0,0
44.211793821022,-12.976262144072,28.970667066707,2474771.9894381,-1668.9185369501,2575602.1623091,34.170667066707,0,0
44.211794083246,-12.977642701811,28.975097509751,2474771.9894381,-1668.9185369501,2575602.1623091,34.175097509751,0,0
44.211794345471,-12.979023259549,28.979527952795,2474771.9894381,-1668.9185369501,2575602.1623091,34.179527952795,0,0
44.211794607696,-12.980403817287,28.98395839584,2474771.9894381,-1668.9185369501,2575602.1623091,34.18395839584,0,0
44.21179486992,-12.981784375025,28.988388838884,2474771.9894381,-1668.9185369501,2575602.1623091,34.188388838884,0,0
44.211795132145,-12.983164932764,28.992819281928,2474771.9894381,-1668.9185369501,2575602.1623091,34.192819281928,0,0
44.211795394369,-12.984545490502,28.997249724972,2474771.9894381,-1668.9185369501,2575602.1623091,34.197249724972,0,0
44.211795656594,-12.98592604824,29.001680168017,2474771.9894381,-1668.9185369501,2575602.1623091,34.201680168017,0,0
44.211795918818,-12.987306605978,29.006110611061,2474771.9894381,-1668.9185369501,2575602.1623091,34.206110611061,0,0
44.211796181043,-12.988687163717,29.010541054105,2474771.9894381,-1668.9185369501,2575602.1623091,34.210541054105,0,0
44.211796443267,-12.990067721455,29.01497149715,2474771.9894381,-1668.9185369501,2575602.1623091,34.21497149715,0,0
44.211796705492,-12.991448279193,29.019401940194,2474771.9894381,-1668.9185369501,2575602.1623091,34.219401940194,0,0
44.211796967717,-12.992828836931,29.023832383238,2474771.9894381,-1668.9185369501,2575602.1623091,34.223832383238,0,0
44.211797229941,-12.994209394669,29.028262826283,2474771.9894381,-1668.9185369501,2575602.1623091,34.228262826283,0,0
44.211797492166,-12.995589952408,29.032693269327,2474771.9894381,-1668.9185369501,2575602.1623091,34.232693269327,0,0
44.21179775439,-12.996970510146,29.037123712371,2474771.9894381,-1668.9185369501,2575602.1623091,34.237123712371,0,0
44.211798016615,-12.998351067884,29.041554155416,2474771.9894381,-1668.9185369501,2575602.1623091,34.241554155416,0,0
44.211798278839,-12.999731625622,29.04598459846,2474771.9894381,-1668.9185369501,2575602.1623091,34.24598459846,0,0
44.211798541064,-13.001112183361,29.050415041504,2474771.9894381,-1668.9185369501,2575602.1623091,34.250415041504,0,0
44.211798803288,-13.002492741099,29.054845484548,2474771.9894381,-1668.9185369501,2575602.1623091,34.254845484548,0,0
44.211799065513,-13.003873298837,29.059275927593,2474771.9894381,-1668.9185369501,2575602.1623091,34.259275927593,0,0
44.211799327738,-13.005253856575,29.063706370637,2474771.9894381,-1668.9185369501,2575602.1623091,34.263706370637,0,0
44.211799589962,-13.006634414314,29.068136813681,2474771.9894381,-1668.9185369501,2575602.1623091,34.268136813681,0,0
44.211799852187,-13.008014972052,29.072567256726,2474771.9894381,-1668.9185369501,2575602.1623091,34.272567256726,0,0
44.211800114411,-13.00939552979,29.07699769977,2474771.9894381,-1668.9185369501,2575602.1623091,34.27699769977,0,0
44.211800376636,-13.010776087528,29.081428142814,2474771.9894381,-1668.9185369501,2575602.1623091,34.281428142814,0,0
44.21180063886,-13.012156645267,29.085858585859,2474771.9894381,-1668.9185369501,2575602.1623091,34.285858585859,0,0
44.211800901085,-13.013537203005,29.090289028903,2474771.9894381,-1668.9185369501,2575602.1623091,34.290289028903,0,0
44.211801163309,-13.014917760743,29.094719471947,2474771.9894381,-1668.9185369501,2575602.1623091,34.294719471947,0,0
44.211801425534,-13.016298318481,29.099149914991,2474771.9894381,-1668.9185369501,2575602.1623091,34.299149914991,0,0
44.211801687759,-13.01767887622,29.103580358036,2474771.9894381,-1668.9185369501,2575602.1623091,34.303580358036,0,0
44.211801949983,-13.019059433958,29.10801080108,2474771.9894381,-1668.9185369501,2575602.1623091,34.30801080108,0,0
44.211802212208,-13.020439991696,29.112441244124,2474771.9894381,-1668.9185369501,2575602.1623091,34.312441244124,0,0
44.211802474432,-13.021820549434,29.116871687169,2474771.9894381,-1668.9185369501,2575602.1623091,34.316871687169,0,0
44.211802736657,-13.023201107172,29.121302130213,2474771.9894381,-1668.9185369501,2575602.1623091,34.321302130213,0,0
44.211802998881,-13.024581664911,29.125732573257,2474771.9894381,-1668.9185369501,2575602.1623091,34.325732573257,0,0
44.211803261106,-13.025962222649,29.130163016302,2474771.9894381,-1668.9185369501,2575602.1623091,34.330163016302,0,0
44.21180352333,-13.027342780387,29.134593459346,2474771.9894381,-1668.9185369501,2575602.1623091,34.334593459346,0,0
44.211803785555,-13.028723338125,29.13902390239,2474771.9894381,-1668.9185369501,2575602.1623091,34.33902390239,0,0
44.211804047779,-13.030103895864,29.143454345435,2474771.9894381,-1668.9185369501,2575602.1623091,34.343454345435,0,0
44.211804310004,-13.031484453602,29.147884788479,2474771.9894381,-1668.9185369501,2575602.1623091,34.347884788479,0,0
44.211804572229,-13.03286501134,29.152315231523,2474771.9894381,-1668.9185369501,2575602.1623091,34.352315231523,0,0
44.211804834453,-13.034245569078,29.156745674567,2474771.9894381,-1668.9185369501,2575602.1623091,34.356745674567,0,0
44.211805096678,-13.035626126817,29.161176117612,2474771.9894381,-1668.9185369501,2575602.1623091,34.361176117612,0,0
44.211805358902,-13.037006684555,29.165606560656,2474771.9894381,-1668.9185369501,2575602.1623091,34.365606560656,0,0
44.211805621127,-13.038387242293,29.1700370037,2474771.9894381,-1668.9185369501,2575602.1623091,34.3700370037,0,0
44.211805883351,-13.039767800031,29.174467446745,2474771.9894381,-1668.9185369501,2575602.1623091,34.374467446745,0,0
44.211806145576,-13.04114835777,29.178897889789,2474771.9894381,-1668.9185369501,2575602.1623091,34.378897889789,0,0
44.2118064078,-13.042528915508,29.183328332833,2474771.9894381,-1668.9185369501,2575602.1623091,34.383328332833,0,0
44.211806670025,-13.043909473246,29.187758775878,2474771.9894381,-1668.9185369501,2575602.1623091,34.387758775878,0,0
44.21180693225,-13.045290030984,29.192189218922,2474771.9894381,-1668.9185369501,2575602.1623091,34.392189218922,0,0
44.211807194474,-13.046670588723,29.196619661966,2474771.9894381,-1668.9185369501,2575602.1623091,34.396619661966,0,0
44.211807456699,-13.048051146461,29.20105010501,2474771.9894381,-1668.9185369501,2575602.1623091,34.40105010501,0,0
44.211807718923,-13.049431704199,29.205480548055,2474771.9894381,-1668.9185369501,2575602.1623091,34.405480548055,0,0
44.211807981148,-13.050812261937,29.209910991099,2474771.9894381,-1668.9185369501,2575602.1623091,34.409910991099,0,0
44.211808243372,-13.052192819675,29.214341434143,2474771.9894381,-1668.9185369501,2575602.1623091,34.414341434143,0,0
44.211808505597,-13.053573377414,29.218771877188,2474771.9894381,-1668.9185369501,2575602.1623091,34.418771877188,0,0
44.211808767821,-13.054953935152,29.223202320232,2474771.9894381,-1668.9185369501,2575602.1623091,34.423202320232,0,0
44.211809030046,-13.05633449289,29.227632763276,2474771.9894381,-1668.9185369501,2575602.1623091,34.427632763276,0,0
44.211809292271,-13.057715050628,29.232063206321,2474771.9894381,-1668.9185369501,2575602.1623091,34.432063206321,0,0
44.211809554495,-13.059095608367,29.236493649365,2474771.9894381,-1668.9185369501,2575602.1623091,34.436493649365,0,0
44.21180981672,-13.060476166105,29.240924092409,2474771.9894381,-1668.9185369501,2575602.1623091,34.440924092409,0,0
44.211810078944,-13.061856723843,29.245354535454,2474771.9894381,-1668.9185369501,2575602.1623091,34.445354535454,0,0
44.211810341169,-13.063237281581,29.249784978498,2474771.9894381,-1668.9185369501,2575602.1623091,34.449784978498,0,0
44.211810603393,-13.06461783932,29.254215421542,2474771.9894381,-1668.9185369501,2575602.1623091,34.454215421542,0,0
44.211810865618,-13.065998397058,29.258645864586,2474771.9894381,-1668.9185369501,2575602.1623091,34.458645864586,0,0
44.211811127842,-13.067378954796,29.263076307631,2474771.9894381,-1668.9185369501,2575602.1623091,34.463076307631,0,0
44.211811390067,-13.068759512534,29.267506750675,2474771.9894381,-1668.9185369501,2575602.1623091,34.467506750675,0,0
44.211811652292,-13.070140070273,29.271937193719,2474771.9894381,-1668.9185369501,2575602.1623091,34.471937193719,0,0
44.211811914516,-13.071520628011,29.276367636764,2474771.9894381,-1668.9185369501,2575602.1623091,34.476367636764,0,0
44.211812176741,-13.072901185749,29.280798079808,2474771.9894381,-1668.9185369501,2575602.1623091,34.480798079808,0,0
44.211812438965,-13.074281743487,29.285228522852,2474771.9894381,-1668.9185369501,2575602.1623091,34.485228522852,0,0
44.21181270119,-13.075662301226,29.289658965897,2474771.9894381,-1668.9185369501,2575602.1623091,34.489658965897,0,0
44.211812963414,-13.077042858964,29.294089408941,2474771.9894381,-1668.9185369501,2575602.1623091,34.494089408941,0,0
44.211813225639,-13.078423416702,29.298519851985,2474771.9894381,-1668.9185369501,2575602.1623091,34.498519851985,0,0
44.211813487863,-13.07980397444,29.30295029503,2474771.9894381,-1668.9185369501,2575602.1623091,34.502950295029,0,0
44.211813750088,-13.081184532178,29.307380738074,2474771.9894381,-1668.9185369501,2575602.1623091,34.507380738074,0,0
44.211814012312,-13.082565089917,29.311811181118,2474771.9894381,-1668.9185369501,2575602.1623091,34.511811181118,0,0
44.211814274537,-13.083945647655,29.316241624162,2474771.9894381,-1668.9185369501,2575602.1623091,34.516241624162,0,0
44.211814536762,-13.085326205393,29.320672067207,2474771.9894381,-1668.9185369501,2575602.1623091,34.520672067207,0,0
44.211814798986,-13.086706763131,29.325102510251,2474771.9894381,-1668.9185369501,2575602.1623091,34.525102510251,0,0
44.211815061211,-13.08808732087,29.329532953295,2474771.9894381,-1668.9185369501,2575602.1623091,34.529532953295,0,0
44.211815323435,-13.089467878608,29.33396339634,2474771.9894381,-1668.9185369501,2575602.1623091,34.53396339634,0,0
44.21181558566,-13.090848436346,29.338393839384,2474771.9894381,-1668.9185369501,2575602.1623091,34.538393839384,0,0
44.211815847884,-13.092228994084,29.342824282428,2474771.9894381,-1668.9185369501,2575602.1623091,34.542824282428,0,0
44.211816110109,-13.093609551823,29.347254725473,2474771.9894381,-1668.9185369501,2575602.1623091,34.547254725473,0,0
44.211816372333,-13.094990109561,29.351685168517,2474771.9894381,-1668.9185369501,2575602.1623091,34.551685168517,0,0
44.211816634558,-13.096370667299,29.356115611561,2474771.9894381,-1668.9185369501,2575602.1623091,34.556115611561,0,0
44.211816896783,-13.097751225037,29.360546054605,2474771.9894381,-1668.9185369501,2575602.1623091,34.560546054605,0,0
44.211817159007,-13.099131782776,29.36497649765,2474771.9894381,-1668.9185369501,2575602.1623091,34.56497649765,0,0
44.211817421232,-13.100512340514,29.369406940694,2474771.9894381,-1668.9185369501,2575602.1623091,34.569406940694,0,0
44.211817683456,-13.101892898252,29.373837383738,2474771.9894381,-1668.9185369501,2575602.1623091,34.573837383738,0,0
44.211817945681,-13.10327345599,29.378267826783,2474771.9894381,-1668.9185369501,2575602.1623091,34.578267826783,0,0
44.211818207905,-13.104654013729,29.382698269827,2474771.9894381,-1668.9185369501,2575602.1623091,34.582698269827,0,0
44.21181847013,-13.106034571467,29.387128712871,2474771.9894381,-1668.9185369501,2575602.1623091,34.587128712871,0,0
44.211818732354,-13.107415129205,29.391559155916,2474771.9894381,-1668.9185369501,2575602.1623091,34.591559155916,0,0
44.211818994579,-13.108795686943,29.39598959896,2474771.9894381,-1668.9185369501,2575602.1623091,34.59598959896,0,0
44.211819256804,-13.110176244681,29.400420042004,2474771.9894381,-1668.9185369501,2575602.1623091,34.600420042004,0,0
44.211819519028,-13.11155680242,29.404850485049,2474771.9894381,-1668.9185369501,2575602.1623091,34.604850485049,0,0
44.211819781253,-13.112937360158,29.409280928093,2474771.9894381,-1668.9185369501,2575602.1623091,34.609280928093,0,0
44.211820043477,-13.114317917896,29.413711371137,2474771.9894381,-1668.9185369501,2575602.1623091,34.613711371137,0,0
44.211820305702,-13.115698475634,29.418141814181,2474771.9894381,-1668.9185369501,2575602.1623091,34.618141814181,0,0
44.211820567926,-13.117079033373,29.422572257226,2474771.9894381,-1668.9185369501,2575602.1623091,34.622572257226,0,0
44.211820830151,-13.118459591111,29.42700270027,2474771.9894381,-1668.9185369501,2575602.1623091,34.62700270027,0,0
44.211821092375,-13.119840148849,29.431433143314,2474771.9894381,-1668.9185369501,2575602.1623091,34.631433143314,0,0
44.2118213546,-13.121220706587,29.435863586359,2474771.9894381,-1668.9185369501,2575602.1623091,34.635863586359,0,0
44.211821616825,-13.122601264326,29.440294029403,2474771.9894381,-1668.9185369501,2575602.1623091,34.640294029403,0,0
44.211821879049,-13.123981822064,29.444724472447,2474771.9894381,-1668.9185369501,2575602.1623091,34.644724472447,0,0
44.211822141274,-13.125362379802,29.449154915492,2474771.9894381,-1668.9185369501,2575602.1623091,34.649154915492,0,0
44.211822403498,-13.12674293754,29.453585358536,2474771.9894381,-1668.9185369501,2575602.1623091,34.653585358536,0,0
44.211822665723,-13.128123495279,29.45801580158,2474771.9894381,-1668.9185369501,2575602.1623091,34.65801580158,0,0
44.211822927947,-13.129504053017,29.462446244624,2474771.9894381,-1668.9185369501,2575602.1623091,34.662446244624,0,0
44.211823190172,-13.130884610755,29.466876687669,2474771.9894381,-1668.9185369501,2575602.1623091,34.666876687669,0,0
44.211823452396,-13.132265168493,29.471307130713,2474771.9894381,-1668.9185369501,2575602.1623091,34.671307130713,0,0
44.211823714621,-13.133645726232,29.475737573757,2474771.9894381,-1668.9185369501,2575602.1623091,34.675737573757,0,0
44.211823976845,-13.13502628397,29.480168016802,2474771.9894381,-1668.9185369501,2575602.1623091,34.680168016802,0,0
44.21182423907,-13.136406841708,29.484598459846,2474771.9894381,-1668.9185369501,2575602.1623091,34.684598459846,0,0
44.211824501295,-13.137787399446,29.48902890289,2474771.9894381,-1668.9185369501,2575602.1623091,34.68902890289,0,0
44.211824763519,-13.139167957185,29.493459345935,2474771.9894381,-1668.9185369501,2575602.1623091,34.693459345935,0,0
44.211825025744,-13.140548514923,29.497889788979,2474771.9894381,-1668.9185369501,2575602.1623091,34.697889788979,0,0
44.211825287968,-13.141929072661,29.502320232023,2474771.9894381,-1668.9185369501,2575602.1623091,34.702320232023,0,0
44.211825550193,-13.143309630399,29.506750675068,2474771.9894381,-1668.9185369501,2575602.1623091,34.706750675068,0,0
44.211825812417,-13.144690188137,29.511181118112,2474771.9894381,-1668.9185369501,2575602.1623091,34.711181118112,0,0
44.211826074642,-13.146070745876,29.515611561156,2474771.9894381,-1668.9185369501,2575602.1623091,34.715611561156,0,0
44.211826336866,-13.147451303614,29.5200420042,2474771.9894381,-1668.9185369501,2575602.1623091,34.7200420042,0,0
44.211826599091,-13.148831861352,29.524472447245,2474771.9894381,-1668.9185369501,2575602.1623091,34.724472447245,0,0
44.211826861316,-13.15021241909,29.528902890289,2474771.9894381,-1668.9185369501,2575602.1623091,34.728902890289,0,0
44.21182712354,-13.151592976829,29.533333333333,2474771.9894381,-1668.9185369501,2575602.1623091,34.733333333333,0,0
44.211827385765,-13.152973534567,29.537763776378,2474771.9894381,-1668.9185369501,2575602.1623091,34.737763776378,0,0
44.211827647989,-13.154354092305,29.542194219422,2474771.9894381,-1668.9185369501,2575602.1623091,34.742194219422,0,0
44.211827910214,-13.155734650043,29.546624662466,2474771.9894381,-1668.9185369501,2575602.1623091,34.746624662466,0,0
44.211828172438,-13.157115207782,29.551055105511,2474771.9894381,-1668.9185369501,2575602.1623091,34.751055105511,0,0
44.211828434663,-13.15849576552,29.555485548555,2474771.9894381,-1668.9185369501,2575602.1623091,34.755485548555,0,0
44.211828696887,-13.159876323258,29.559915991599,2474771.9894381,-1668.9185369501,2575602.1623091,34.759915991599,0,0
44.211828959112,-13.161256880996,29.564346434643,2474771.9894381,-1668.9185369501,2575602.1623091,34.764346434643,0,0
44.211829221337,-13.162637438735,29.568776877688,2474771.9894381,-1668.9185369501,2575602.1623091,34.768776877688,0,0
44.211829483561,-13.164017996473,29.573207320732,2474771.9894381,-1668.9185369501,2575602.1623091,34.773207320732,0,0
44.211829745786,-13.165398554211,29.577637763776,2474771.9894381,-1668.9185369501,2575602.1623091,34.777637763776,0,0
44.21183000801,-13.166779111949,29.582068206821,2474771.9894381,-1668.9185369501,2575602.1623091,34.782068206821,0,0
44.211830270235,-13.168159669688,29.586498649865,2474771.9894381,-1668.9185369501,2575602.1623091,34.786498649865,0,0
44.211830532459,-13.169540227426,29.590929092909,2474771.9894381,-1668.9185369501,2575602.1623091,34.790929092909,0,0
44.211830794684,-13.170920785164,29.595359535954,2474771.9894381,-1668.9185369501,2575602.1623091,34.795359535954,0,0
44.211831056908,-13.172301342902,29.599789978998,2474771.9894381,-1668.9185369501,2575602.1623091,34.799789978998,0,0
44.211831319133,-13.17368190064,29.604220422042,2474771.9894381,-1668.9185369501,2575602.1623091,34.804220422042,0,0
44.211831581358,-13.175062458379,29.608650865087,2474771.9894381,-1668.9185369501,2575602.1623091,34.808650865087,0,0
44.211831843582,-13.176443016117,29.613081308131,2474771.9894381,-1668.9185369501,2575602.1623091,34.813081308131,0,0
44.211832105807,-13.177823573855,29.617511751175,2474771.9894381,-1668.9185369501,2575602.1623091,34.817511751175,0,0
44.211832368031,-13.179204131593,29.621942194219,2474771.9894381,-1668.9185369501,2575602.1623091,34.821942194219,0,0
44.211832630256,-13.180584689332,29.626372637264,2474771.9894381,-1668.9185369501,2575602.1623091,34.826372637264,0,0
44.21183289248,-13.18196524707,29.630803080308,2474771.9894381,-1668.9185369501,2575602.1623091,34.830803080308,0,0
44.211833154705,-13.183345804808,29.635233523352,2474771.9894381,-1668.9185369501,2575602.1623091,34.835233523352,0,0
44.211833416929,-13.184726362546,29.639663966397,2474771.9894381,-1668.9185369501,2575602.1623091,34.839663966397,0,0
44.211833679154,-13.186106920285,29.644094409441,2474771.9894381,-1668.9185369501,2575602.1623091,34.844094409441,0,0
44.211833941379,-13.187487478023,29.648524852485,2474771.9894381,-1668.9185369501,2575602.1623091,34.848524852485,0,0
44.211834203603,-13.188868035761,29.65295529553,2474771.9894381,-1668.9185369501,2575602.1623091,34.85295529553,0,0
44.211834465828,-13.190248593499,29.657385738574,2474771.9894381,-1668.9185369501,2575602.1623091,34.857385738574,0,0
44.211834728052,-13.191629151238,29.661816181618,2474771.9894381,-1668.9185369501,2575602.1623091,34.861816181618,0,0
44.211834990277,-13.193009708976,29.666246624662,2474771.9894381,-1668.9185369501,2575602.1623091,34.866246624662,0,0
44.211835252539,-13.19439026667,29.670677067707,2479520.8203129,-442.1165709801,2573701.8065412,34.870677067707,0,0
44.211835515194,-13.195770823908,29.675107510751,2479520.8203129,-442.1165709801,2573701.8065412,34.875107510751,0,0
44.211835777848,-13.197151381145,29.679537953795,2479520.8203129,-442.1165709801,2573701.8065412,34.879537953795,0,0
44.211836040503,-13.198531938383,29.68396839684,2479520.8203129,-442.1165709801,2573701.8065412,34.88396839684,0,0
44.211836303157,-13.199912495621,29.688398839884,2479520.8203129,-442.1165709801,2573701.8065412,34.888398839884,0,0
44.211836565812,-13.201293052859,29.692829282928,2479520.8203129,-442.1165709801,2573701.8065412,34.892829282928,0,0
44.211836828466,-13.202673610097,29.697259725973,2479520.8203129,-442.1165709801,2573701.8065412,34.897259725973,0,0
44.211837091121,-13.204054167335,29.701690169017,2479520.8203129,-442.1165709801,2573701.8065412,34.901690169017,0,0
44.211837353775,-13.205434724573,29.706120612061,2479520.8203129,-442.1165709801,2573701.8065412,34.906120612061,0,0
44.21183761643,-13.206815281811,29.710551055106,2479520.8203129,-442.1165709801,2573701.8065412,34.910551055106,0,0
44.211837879084,-13.208195839048,29.71498149815,2479520.8203129,-442.1165709801,2573701.8065412,34.91498149815,0,0
44.211838141738,-13.209576396286,29.719411941194,2479520.8203129,-442.1165709801,2573701.8065412,34.919411941194,0,0
44.211838404393,-13.210956953524,29.723842384238,2479520.8203129,-442.1165709801,2573701.8065412,34.923842384238,0,0
44.211838667047,-13.212337510762,29.728272827283,2479520.8203129,-442.1165709801,2573701.8065412,34.928272827283,0,0
44.211838929702,-13.213718068,29.732703270327,2479520.8203129,-442.1165709801,2573701.8065412,34.932703270327,0,0
44.211839192356,-13.215098625238,29.737133713371,2479520.8203129,-442.1165709801,2573701.8065412,34.937133713371,0,0
44.211839455011,-13.216479182476,29.741564156416,2479520.8203129,-442.1165709801,2573701.8065412,34.941564156416,0,0
44.211839717665,-13.217859739714,29.74599459946,2479520.8203129,-442.1165709801,2573701.8065412,34.94599459946,0,0
44.21183998032,-13.219240296951,29.750425042504,2479520.8203129,-442.1165709801,2573701.8065412,34.950425042504,0,0
44.211840242974,-13.220620854189,29.754855485549,2479520.8203129,-442.1165709801,2573701.8065412,34.954855485549,0,0
44.211840505629,-13.222001411427,29.759285928593,2479520.8203129,-442.1165709801,2573701.8065412,34.959285928593,0,0
44.211840768283,-13.223381968665,29.763716371637,2479520.8203129,-442.1165709801,2573701.8065412,34.963716371637,0,0
44.211841030938,-13.224762525903,29.768146814681,2479520.8203129,-442.1165709801,2573701.8065412,34.968146814681,0,0
44.211841293592,-13.226143083141,29.772577257726,2479520.8203129,-442.1165709801,2573701.8065412,34.972577257726,0,0
44.211841556247,-13.227523640379,29.77700770077,2479520.8203129,-442.1165709801,2573701.8065412,34.97700770077,0,0
44.211841818901,-13.228904197617,29.781438143814,2479520.8203129,-442.1165709801,2573701.8065412,34.981438143814,0,0
44.211842081555,-13.230284754854,29.785868586859,2479520.8203129,-442.1165709801,2573701.8065412,34.985868586859,0,0
44.21184234421,-13.231665312092,29.790299029903,2479520.8203129,-442.1165709801,2573701.8065412,34.990299029903,0,0
44.211842606864,-13.23304586933,29.794729472947,2479520.8203129,-442.1165709801,2573701.8065412,34.994729472947,0,0
44.211842869519,-13.234426426568,29.799159915992,2479520.8203129,-442.1165709801,2573701.8065412,34.999159915992,0,0
44.211843132173,-13.235806983806,29.803590359036,2479520.8203129,-442.1165709801,2573701.8065412,35.003590359036,0,0
44.211843394828,-13.237187541044,29.80802080208,2479520.8203129,-442.1165709801,2573701.8065412,35.00802080208,0,0
44.211843657482,-13.238568098282,29.812451245125,2479520.8203129,-442.1165709801,2573701.8065412,35.012451245125,0,0
44.211843920137,-13.23994865552,29.816881688169,2479520.8203129,-442.1165709801,2573701.8065412,35.016881688169,0,0
44.211844182791,-13.241329212757,29.821312131213,2479520.8203129,-442.1165709801,2573701.8065412,35.021312131213,0,0
44.211844445446,-13.242709769995,29.825742574257,2479520.8203129,-442.1165709801,2573701.8065412,35.025742574257,0,0
44.2118447081,-13.244090327233,29.830173017302,2479520.8203129,-442.1165709801,2573701.8065412,35.030173017302,0,0
44.211844970755,-13.245470884471,29.834603460346,2479520.8203129,-442.1165709801,2573701.8065412,35.034603460346,0,0
44.211845233409,-13.246851441709,29.83903390339,2479520.8203129,-442.1165709801,2573701.8065412,35.03903390339,0,0
44.211845496064,-13.248231998947,29.843464346435,2479520.8203129,-442.1165709801,2573701.8065412,35.043464346435,0,0
44.211845758718,-13.249612556185,29.847894789479,2479520.8203129,-442.1165709801,2573701.8065412,35.047894789479,0,0
44.211846021372,-13.250993113422,29.852325232523,2479520.8203129,-442.1165709801,2573701.8065412,35.052325232523,0,0
44.211846284027,-13.25237367066,29.856755675568,2479520.8203129,-442.1165709801,2573701.8065412,35.056755675568,0,0
44.211846546681,-13.253754227898,29.861186118612,2479520.8203129,-442.1165709801,2573701.8065412,35.061186118612,0,0
44.211846809336,-13.255134785136,29.865616561656,2479520.8203129,-442.1165709801,2573701.8065412,35.065616561656,0,0
44.21184707199,-13.256515342374,29.8700470047,2479520.8203129,-442.1165709801,2573701.8065412,35.0700470047,0,0
44.211847334645,-13.257895899612,29.874477447745,2479520.8203129,-442.1165709801,2573701.8065412,35.074477447745,0,0
44.211847597299,-13.25927645685,29.878907890789,2479520.8203129,-442.1165709801,2573701.8065412,35.078907890789,0,0
44.211847859954,-13.260657014088,29.883338333833,2479520.8203129,-442.1165709801,2573701.8065412,35.083338333833,0,0
44.211848122608,-13.262037571325,29.887768776878,2479520.8203129,-442.1165709801,2573701.8065412,35.087768776878,0,0
44.211848385263,-13.263418128563,29.892199219922,2479520.8203129,-442.1165709801,2573701.8065412,35.092199219922,0,0
44.211848647917,-13.264798685801,29.896629662966,2479520.8203129,-442.1165709801,2573701.8065412,35.096629662966,0,0
44.211848910572,-13.266179243039,29.901060106011,2479520.8203129,-442.1165709801,2573701.8065412,35.101060106011,0,0
44.211849173226,-13.267559800277,29.905490549055,2479520.8203129,-442.1165709801,2573701.8065412,35.105490549055,0,0
44.211849435881,-13.268940357515,29.909920992099,2479520.8203129,-442.1165709801,2573701.8065412,35.109920992099,0,0
44.211849698535,-13.270320914753,29.914351435144,2479520.8203129,-442.1165709801,2573701.8065412,35.114351435144,0,0
44.211849961189,-13.271701471991,29.918781878188,2479520.8203129,-442.1165709801,2573701.8065412,35.118781878188,0,0
44.211850223844,-13.273082029228,29.923212321232,2479520.8203129,-442.1165709801,2573701.8065412,35.123212321232,0,0
44.211850486498,-13.274462586466,29.927642764276,2479520.8203129,-442.1165709801,2573701.8065412,35.127642764276,0,0
44.211850749153,-13.275843143704,29.932073207321,2479520.8203129,-442.1165709801,2573701.8065412,35.132073207321,0,0
44.211851011807,-13.277223700942,29.936503650365,2479520.8203129,-442.1165709801,2573701.8065412,35.136503650365,0,0
44.211851274462,-13.27860425818,29.940934093409,2479520.8203129,-442.1165709801,2573701.8065412,35.140934093409,0,0
44.211851537116,-13.279984815418,29.945364536454,2479520.8203129,-442.1165709801,2573701.8065412,35.145364536454,0,0
44.211851799771,-13.281365372656,29.949794979498,2479520.8203129,-442.1165709801,2573701.8065412,35.149794979498,0,0
44.211852062425,-13.282745929894,29.954225422542,2479520.8203129,-442.1165709801,2573701.8065412,35.154225422542,0,0
44.21185232508,-13.284126487131,29.958655865587,2479520.8203129,-442.1165709801,2573701.8065412,35.158655865587,0,0
44.211852587734,-13.285507044369,29.963086308631,2479520.8203129,-442.1165709801,2573701.8065412,35.163086308631,0,0
44.211852850389,-13.286887601607,29.967516751675,2479520.8203129,-442.1165709801,2573701.8065412,35.167516751675,0,0
44.211853113043,-13.288268158845,29.971947194719,2479520.8203129,-442.1165709801,2573701.8065412,35.171947194719,0,0
44.211853375698,-13.289648716083,29.976377637764,2479520.8203129,-442.1165709801,2573701.8065412,35.176377637764,0,0
44.211853638352,-13.291029273321,29.980808080808,2479520.8203129,-442.1165709801,2573701.8065412,35.180808080808,0,0
44.211853901006,-13.292409830559,29.985238523852,2479520.8203129,-442.1165709801,2573701.8065412,35.185238523852,0,0
44.211854163661,-13.293790387796,29.989668966897,2479520.8203129,-442.1165709801,2573701.8065412,35.189668966897,0,0
44.211854426315,-13.295170945034,29.994099409941,2479520.8203129,-442.1165709801,2573701.8065412,35.194099409941,0,0
44.21185468897,-13.296551502272,29.998529852985,2479520.8203129,-442.1165709801,2573701.8065412,35.198529852985,0,0
44.211854951624,-13.29793205951,30.00296029603,2479520.8203129,-442.1165709801,2573701.8065412,35.20296029603,0,0
44.211855214279,-13.299312616748,30.007390739074,2479520.8203129,-442.1165709801,2573701.8065412,35.207390739074,0,0
44.211855476933,-13.300693173986,30.011821182118,2479520.8203129,-442.1165709801,2573701.8065412,35.211821182118,0,0
44.211855739588,-13.302073731224,30.016251625163,2479520.8203129,-442.1165709801,2573701.8065412,35.216251625163,0,0
44.211856002242,-13.303454288462,30.020682068207,2479520.8203129,-442.1165709801,2573701.8065412,35.220682068207,0,0
44.211856264897,-13.304834845699,30.025112511251,2479520.8203129,-442.1165709801,2573701.8065412,35.225112511251,0,0
44.211856527551,-13.306215402937,30.029542954295,2479520.8203129,-442.1165709801,2573701.8065412,35.229542954295,0,0
44.211856790206,-13.307595960175,30.03397339734,2479520.8203129,-442.1165709801,2573701.8065412,35.23397339734,0,0
44.21185705286,-13.308976517413,30.038403840384,2479520.8203129,-442.1165709801,2573701.8065412,35.238403840384,0,0
44.211857315515,-13.310357074651,30.042834283428,2479520.8203129,-442.1165709801,2573701.8065412,35.242834283428,0,0
44.211857578169,-13.311737631889,30.047264726473,2479520.8203129,-442.1165709801,2573701.8065412,35.247264726473,0,0
44.211857840823,-13.313118189127,30.051695169517,2479520.8203129,-442.1165709801,2573701.8065412,35.251695169517,0,0
44.211858103478,-13.314498746365,30.056125612561,2479520.8203129,-442.1165709801,2573701.8065412,35.256125612561,0,0
44.211858366132,-13.315879303602,30.060556055606,2479520.8203129,-442.1165709801,2573701.8065412,35.260556055606,0,0
44.211858628787,-13.31725986084,30.06498649865,2479520.8203129,-442.1165709801,2573701.8065412,35.26498649865,0,0
44.211858891441,-13.318640418078,30.069416941694,2479520.8203129,-442.1165709801,2573701.8065412,35.269416941694,0,0
44.211859154096,-13.320020975316,30.073847384738,2479520.8203129,-442.1165709801,2573701.8065412,35.273847384738,0,0
44.21185941675,-13.321401532554,30.078277827783,2479520.8203129,-442.1165709801,2573701.8065412,35.278277827783,0,0
44.211859679405,-13.322782089792,30.082708270827,2479520.8203129,-442.1165709801,2573701.8065412,35.282708270827,0,0
44.211859942059,-13.32416264703,30.087138713871,2479520.8203129,-442.1165709801,2573701.8065412,35.287138713871,0,0
44.211860204714,-13.325543204268,30.091569156916,2479520.8203129,-442.1165709801,2573701.8065412,35.291569156916,0,0
44.211860467368,-13.326923761505,30.09599959996,2479520.8203129,-442.1165709801,2573701.8065412,35.29599959996,0,0
44.211860730023,-13.328304318743,30.100430043004,2479520.8203129,-442.1165709801,2573701.8065412,35.300430043004,0,0
44.211860992677,-13.329684875981,30.104860486049,2479520.8203129,-442.1165709801,2573701.8065412,35.304860486049,0,0
44.211861255332,-13.331065433219,30.109290929093,2479520.8203129,-442.1165709801,2573701.8065412,35.309290929093,0,0
44.211861517986,-13.332445990457,30.113721372137,2479520.8203129,-442.1165709801,2573701.8065412,35.313721372137,0,0
44.21186178064,-13.333826547695,30.118151815182,2479520.8203129,-442.1165709801,2573701.8065412,35.318151815182,0,0
44.211862043295,-13.335207104933,30.122582258226,2479520.8203129,-442.1165709801,2573701.8065412,35.322582258226,0,0
44.211862305949,-13.336587662171,30.12701270127,2479520.8203129,-442.1165709801,2573701.8065412,35.32701270127,0,0
44.211862568604,-13.337968219408,30.131443144314,2479520.8203129,-442.1165709801,2573701.8065412,35.331443144314,0,0
44.211862831258,-13.339348776646,30.135873587359,2479520.8203129,-442.1165709801,2573701.8065412,35.335873587359,0,0
44.211863093913,-13.340729333884,30.140304030403,2479520.8203129,-442.1165709801,2573701.8065412,35.340304030403,0,0
44.211863356567,-13.342109891122,30.144734473447,2479520.8203129,-442.1165709801,2573701.8065412,35.344734473447,0,0
44.211863619222,-13.34349044836,30.149164916492,2479520.8203129,-442.1165709801,2573701.8065412,35.349164916492,0,0
44.211863881876,-13.344871005598,30.153595359536,2479520.8203129,-442.1165709801,2573701.8065412,35.353595359536,0,0
44.211864144531,-13.346251562836,30.15802580258,2479520.8203129,-442.1165709801,2573701.8065412,35.35802580258,0,0
44.211864407185,-13.347632120073,30.162456245625,2479520.8203129,-442.1165709801,2573701.8065412,35.362456245625,0,0
44.21186466984,-13.349012677311,30.166886688669,2479520.8203129,-442.1165709801,2573701.8065412,35.366886688669,0,0
44.211864932494,-13.350393234549,30.171317131713,2479520.8203129,-442.1165709801,2573701.8065412,35.371317131713,0,0
44.211865195149,-13.351773791787,30.175747574757,2479520.8203129,-442.1165709801,2573701.8065412,35.375747574757,0,0
44.211865457803,-13.353154349025,30.180178017802,2479520.8203129,-442.1165709801,2573701.8065412,35.380178017802,0,0
44.211865720457,-13.354534906263,30.184608460846,2479520.8203129,-442.1165709801,2573701.8065412,35.384608460846,0,0
44.211865983112,-13.355915463501,30.18903890389,2479520.8203129,-442.1165709801,2573701.8065412,35.38903890389,0,0
44.211866245766,-13.357296020739,30.193469346935,2479520.8203129,-442.1165709801,2573701.8065412,35.393469346935,0,0
44.211866508421,-13.358676577976,30.197899789979,2479520.8203129,-442.1165709801,2573701.8065412,35.397899789979,0,0
44.211866771075,-13.360057135214,30.202330233023,2479520.8203129,-442.1165709801,2573701.8065412,35.402330233023,0,0
44.21186703373,-13.361437692452,30.206760676068,2479520.8203129,-442.1165709801,2573701.8065412,35.406760676068,0,0
44.211867296384,-13.36281824969,30.211191119112,2479520.8203129,-442.1165709801,2573701.8065412,35.411191119112,0,0
44.211867559039,-13.364198806928,30.215621562156,2479520.8203129,-442.1165709801,2573701.8065412,35.415621562156,0,0
44.211867821693,-13.365579364166,30.220052005201,2479520.8203129,-442.1165709801,2573701.8065412,35.420052005201,0,0
44.211868084348,-13.366959921404,30.224482448245,2479520.8203129,-442.1165709801,2573701.8065412,35.424482448245,0,0
44.211868347002,-13.368340478642,30.228912891289,2479520.8203129,-442.1165709801,2573701.8065412,35.428912891289,0,0
44.211868609657,-13.369721035879,30.233343334333,2479520.8203129,-442.1165709801,2573701.8065412,35.433343334333,0,0
44.211868872311,-13.371101593117,30.237773777378,2479520.8203129,-442.1165709801,2573701.8065412,35.437773777378,0,0
44.211869134966,-13.372482150355,30.242204220422,2479520.8203129,-442.1165709801,2573701.8065412,35.442204220422,0,0
44.21186939762,-13.373862707593,30.246634663466,2479520.8203129,-442.1165709801,2573701.8065412,35.446634663466,0,0
44.211869660274,-13.375243264831,30.251065106511,2479520.8203129,-442.1165709801,2573701.8065412,35.451065106511,0,0
44.211869922929,-13.376623822069,30.255495549555,2479520.8203129,-442.1165709801,2573701.8065412,35.455495549555,0,0
44.211870185583,-13.378004379307,30.259925992599,2479520.8203129,-442.1165709801,2573701.8065412,35.459925992599,0,0
44.211870448238,-13.379384936545,30.264356435644,2479520.8203129,-442.1165709801,2573701.8065412,35.464356435644,0,0
44.211870710892,-13.380765493782,30.268786878688,2479520.8203129,-442.1165709801,2573701.8065412,35.468786878688,0,0
44.211870973547,-13.38214605102,30.273217321732,2479520.8203129,-442.1165709801,2573701.8065412,35.473217321732,0,0
44.211871236201,-13.383526608258,30.277647764776,2479520.8203129,-442.1165709801,2573701.8065412,35.477647764776,0,0
44.211871498856,-13.384907165496,30.282078207821,2479520.8203129,-442.1165709801,2573701.8065412,35.482078207821,0,0
44.21187176151,-13.386287722734,30.286508650865,2479520.8203129,-442.1165709801,2573701.8065412,35.486508650865,0,0
44.211872024165,-13.387668279972,30.290939093909,2479520.8203129,-442.1165709801,2573701.8065412,35.490939093909,0,0
44.211872286819,-13.38904883721,30.295369536954,2479520.8203129,-442.1165709801,2573701.8065412,35.495369536954,0,0
44.211872549474,-13.390429394447,30.299799979998,2479520.8203129,-442.1165709801,2573701.8065412,35.499799979998,0,0
44.211872812128,-13.391809951685,30.304230423042,2479520.8203129,-442.1165709801,2573701.8065412,35.504230423042,0,0
44.211873074783,-13.393190508923,30.308660866087,2479520.8203129,-442.1165709801,2573701.8065412,35.508660866087,0,0
44.211873337437,-13.394571066161,30.313091309131,2479520.8203129,-442.1165709801,2573701.8065412,35.513091309131,0,0
44.211873600091,-13.395951623399,30.317521752175,2479520.8203129,-442.1165709801,2573701.8065412,35.517521752175,0,0
44.211873862746,-13.397332180637,30.32195219522,2479520.8203129,-442.1165709801,2573701.8065412,35.52195219522,0,0
44.2118741254,-13.398712737875,30.326382638264,2479520.8203129,-442.1165709801,2573701.8065412,35.526382638264,0,0
44.211874388055,-13.400093295113,30.330813081308,2479520.8203129,-442.1165709801,2573701.8065412,35.530813081308,0,0
44.211874650709,-13.40147385235,30.335243524352,2479520.8203129,-442.1165709801,2573701.8065412,35.535243524352,0,0
44.211874913364,-13.402854409588,30.339673967397,2479520.8203129,-442.1165709801,2573701.8065412,35.539673967397,0,0
44.211875176018,-13.404234966826,30.344104410441,2479520.8203129,-442.1165709801,2573701.8065412,35.544104410441,0,0
44.211875438673,-13.405615524064,30.348534853485,2479520.8203129,-442.1165709801,2573701.8065412,35.548534853485,0,0
44.211875701327,-13.406996081302,30.35296529653,2479520.8203129,-442.1165709801,2573701.8065412,35.55296529653,0,0
44.211875963982,-13.40837663854,30.357395739574,2479520.8203129,-442.1165709801,2573701.8065412,35.557395739574,0,0
44.211876226636,-13.409757195778,30.361826182618,2479520.8203129,-442.1165709801,2573701.8065412,35.561826182618,0,0
44.211876489291,-13.411137753016,30.366256625663,2479520.8203129,-442.1165709801,2573701.8065412,35.566256625663,0,0
44.211876751945,-13.412518310253,30.370687068707,2479520.8203129,-442.1165709801,2573701.8065412,35.570687068707,0,0
44.2118770146,-13.413898867491,30.375117511751,2479520.8203129,-442.1165709801,2573701.8065412,35.575117511751,0,0
44.211877277254,-13.415279424729,30.379547954795,2479520.8203129,-442.1165709801,2573701.8065412,35.579547954795,0,0
44.211877539908,-13.416659981967,30.38397839784,2479520.8203129,-442.1165709801,2573701.8065412,35.58397839784,0,0
44.211877802563,-13.418040539205,30.388408840884,2479520.8203129,-442.1165709801,2573701.8065412,35.588408840884,0,0
44.211878065217,-13.419421096443,30.392839283928,2479520.8203129,-442.1165709801,2573701.8065412,35.592839283928,0,0
44.211878327872,-13.420801653681,30.397269726973,2479520.8203129,-442.1165709801,2573701.8065412,35.597269726973,0,0
44.211878590526,-13.422182210919,30.401700170017,2479520.8203129,-442.1165709801,2573701.8065412,35.601700170017,0,0
44.211878853181,-13.423562768156,30.406130613061,2479520.8203129,-442.1165709801,2573701.8065412,35.606130613061,0,0
44.211879115835,-13.424943325394,30.410561056106,2479520.8203129,-442.1165709801,2573701.8065412,35.610561056106,0,0
44.21187937849,-13.426323882632,30.41499149915,2479520.8203129,-442.1165709801,2573701.8065412,35.61499149915,0,0
44.211879641144,-13.42770443987,30.419421942194,2479520.8203129,-442.1165709801,2573701.8065412,35.619421942194,0,0
44.211879903799,-13.429084997108,30.423852385239,2479520.8203129,-442.1165709801,2573701.8065412,35.623852385239,0,0
44.211880166453,-13.430465554346,30.428282828283,2479520.8203129,-442.1165709801,2573701.8065412,35.628282828283,0,0
44.211880429108,-13.431846111584,30.432713271327,2479520.8203129,-442.1165709801,2573701.8065412,35.632713271327,0,0
44.211880691762,-13.433226668822,30.437143714371,2479520.8203129,-442.1165709801,2573701.8065412,35.637143714371,0,0
44.211880954417,-13.434607226059,30.441574157416,2479520.8203129,-442.1165709801,2573701.8065412,35.641574157416,0,0
44.211881217071,-13.435987783297,30.44600460046,2479520.8203129,-442.1165709801,2573701.8065412,35.64600460046,0,0
44.211881479725,-13.437368340535,30.450435043504,2479520.8203129,-442.1165709801,2573701.8065412,35.650435043504,0,0
44.21188174238,-13.438748897773,30.454865486549,2479520.8203129,-442.1165709801,2573701.8065412,35.654865486549,0,0
44.211882005034,-13.440129455011,30.459295929593,2479520.8203129,-442.1165709801,2573701.8065412,35.659295929593,0,0
44.211882267689,-13.441510012249,30.463726372637,2479520.8203129,-442.1165709801,2573701.8065412,35.663726372637,0,0
44.211882530343,-13.442890569487,30.468156815682,2479520.8203129,-442.1165709801,2573701.8065412,35.668156815682,0,0
44.211882792998,-13.444271126724,30.472587258726,2479520.8203129,-442.1165709801,2573701.8065412,35.672587258726,0,0
44.211883055652,-13.445651683962,30.47701770177,2479520.8203129,-442.1165709801,2573701.8065412,35.67701770177,0,0
44.211883318307,-13.4470322412,30.481448144814,2479520.8203129,-442.1165709801,2573701.8065412,35.681448144814,0,0
44.211883580961,-13.448412798438,30.485878587859,2479520.8203129,-442.1165709801,2573701.8065412,35.685878587859,0,0
44.211883843616,-13.449793355676,30.490309030903,2479520.8203129,-442.1165709801,2573701.8065412,35.690309030903,0,0
44.21188410627,-13.451173912914,30.494739473947,2479520.8203129,-442.1165709801,2573701.8065412,35.694739473947,0,0
44.211884368925,-13.452554470152,30.499169916992,2479520.8203129,-442.1165709801,2573701.8065412,35.699169916992,0,0
44.211884631579,-13.45393502739,30.503600360036,2479520.8203129,-442.1165709801,2573701.8065412,35.703600360036,0,0
44.211884894234,-13.455315584627,30.50803080308,2479520.8203129,-442.1165709801,2573701.8065412,35.70803080308,0,0
44.211885156888,-13.456696141865,30.512461246125,2479520.8203129,-442.1165709801,2573701.8065412,35.712461246125,0,0
44.211885419542,-13.458076699103,30.516891689169,2479520.8203129,-442.1165709801,2573701.8065412,35.716891689169,0,0
44.211885682197,-13.459457256341,30.521322132213,2479520.8203129,-442.1165709801,2573701.8065412,35.721322132213,0,0
44.211885944851,-13.460837813579,30.525752575258,2479520.8203129,-442.1165709801,2573701.8065412,35.725752575258,0,0
44.211886207506,-13.462218370817,30.530183018302,2479520.8203129,-442.1165709801,2573701.8065412,35.730183018302,0,0
44.21188647016,-13.463598928055,30.534613461346,2479520.8203129,-442.1165709801,2573701.8065412,35.734613461346,0,0
44.211886732815,-13.464979485293,30.53904390439,2479520.8203129,-442.1165709801,2573701.8065412,35.73904390439,0,0
44.211886995469,-13.46636004253,30.543474347435,2479520.8203129,-442.1165709801,2573701.8065412,35.743474347435,0,0
44.211887258124,-13.467740599768,30.547904790479,2479520.8203129,-442.1165709801,2573701.8065412,35.747904790479,0,0
44.211887520778,-13.469121157006,30.552335233523,2479520.8203129,-442.1165709801,2573701.8065412,35.752335233523,0,0
44.211887783433,-13.470501714244,30.556765676568,2479520.8203129,-442.1165709801,2573701.8065412,35.756765676568,0,0
44.211888046087,-13.471882271482,30.561196119612,2479520.8203129,-442.1165709801,2573701.8065412,35.761196119612,0,0
44.211888308742,-13.47326282872,30.565626562656,2479520.8203129,-442.1165709801,2573701.8065412,35.765626562656,0,0
44.211888571396,-13.474643385958,30.570057005701,2479520.8203129,-442.1165709801,2573701.8065412,35.770057005701,0,0
44.211888834051,-13.476023943196,30.574487448745,2479520.8203129,-442.1165709801,2573701.8065412,35.774487448745,0,0
44.211889096705,-13.477404500433,30.578917891789,2479520.8203129,-442.1165709801,2573701.8065412,35.778917891789,0,0
44.211889359359,-13.478785057671,30.583348334833,2479520.8203129,-442.1165709801,2573701.8065412,35.783348334833,0,0
44.211889622014,-13.480165614909,30.587778777878,2479520.8203129,-442.1165709801,2573701.8065412,35.787778777878,0,0
44.211889884668,-13.481546172147,30.592209220922,2479520.8203129,-442.1165709801,2573701.8065412,35.792209220922,0,0
44.211890147323,-13.482926729385,30.596639663966,2479520.8203129,-442.1165709801,2573701.8065412,35.796639663966,0,0
44.211890409977,-13.484307286623,30.601070107011,2479520.8203129,-442.1165709801,2573701.8065412,35.801070107011,0,0
44.211890672632,-13.485687843861,30.605500550055,2479520.8203129,-442.1165709801,2573701.8065412,35.805500550055,0,0
44.211890935286,-13.487068401098,30.609930993099,2479520.8203129,-442.1165709801,2573701.8065412,35.809930993099,0,0
44.211891197941,-13.488448958336,30.614361436144,2479520.8203129,-442.1165709801,2573701.8065412,35.814361436144,0,0
44.211891460595,-13.489829515574,30.618791879188,2479520.8203129,-442.1165709801,2573701.8065412,35.818791879188,0,0
44.21189172325,-13.491210072812,30.623222322232,2479520.8203129,-442.1165709801,2573701.8065412,35.823222322232,0,0
44.211891985904,-13.49259063005,30.627652765277,2479520.8203129,-442.1165709801,2573701.8065412,35.827652765277,0,0
44.211892248559,-13.493971187288,30.632083208321,2479520.8203129,-442.1165709801,2573701.8065412,35.832083208321,0,0
44.211892511213,-13.495351744526,30.636513651365,2479520.8203129,-442.1165709801,2573701.8065412,35.836513651365,0,0
44.211892773868,-13.496732301764,30.640944094409,2479520.8203129,-442.1165709801,2573701.8065412,35.840944094409,0,0
44.211893036522,-13.498112859001,30.645374537454,2479520.8203129,-442.1165709801,2573701.8065412,35.845374537454,0,0
44.211893299176,-13.499493416239,30.649804980498,2479520.8203129,-442.1165709801,2573701.8065412,35.849804980498,0,0
44.211893561831,-13.500873973477,30.654235423542,2479520.8203129,-442.1165709801,2573701.8065412,35.854235423542,0,0
44.211893824485,-13.502254530715,30.658665866587,2479520.8203129,-442.1165709801,2573701.8065412,35.858665866587,0,0
44.21189408714,-13.503635087953,30.663096309631,2479520.8203129,-442.1165709801,2573701.8065412,35.863096309631,0,0
44.211894349794,-13.505015645191,30.667526752675,2479520.8203129,-442.1165709801,2573701.8065412,35.867526752675,0,0
44.211894612449,-13.506396202429,30.67195719572,2479520.8203129,-442.1165709801,2573701.8065412,35.87195719572,0,0
44.211894875103,-13.507776759667,30.676387638764,2479520.8203129,-442.1165709801,2573701.8065412,35.876387638764,0,0
44.211895137758,-13.509157316904,30.680818081808,2479520.8203129,-442.1165709801,2573701.8065412,35.880818081808,0,0
44.211895400412,-13.510537874142,30.685248524852,2479520.8203129,-442.1165709801,2573701.8065412,35.885248524852,0,0
44.211895663067,-13.51191843138,30.689678967897,2479520.8203129,-442.1165709801,2573701.8065412,35.889678967897,0,0
44.211895925721,-13.513298988618,30.694109410941,2479520.8203129,-442.1165709801,2573701.8065412,35.894109410941,0,0
44.211896188376,-13.514679545856,30.698539853985,2479520.8203129,-442.1165709801,2573701.8065412,35.898539853985,0,0
44.21189645103,-13.516060103094,30.70297029703,2479520.8203129,-442.1165709801,2573701.8065412,35.90297029703,0,0
44.211896713685,-13.517440660332,30.707400740074,2479520.8203129,-442.1165709801,2573701.8065412,35.907400740074,0,0
44.211896976339,-13.51882121757,30.711831183118,2479520.8203129,-442.1165709801,2573701.8065412,35.911831183118,0,0
44.211897238993,-13.520201774807,30.716261626163,2479520.8203129,-442.1165709801,2573701.8065412,35.916261626163,0,0
44.211897501648,-13.521582332045,30.720692069207,2479520.8203129,-442.1165709801,2573701.8065412,35.920692069207,0,0
44.211897764302,-13.522962889283,30.725122512251,2479520.8203129,-442.1165709801,2573701.8065412,35.925122512251,0,0
44.211898026957,-13.524343446521,30.729552955296,2479520.8203129,-442.1165709801,2573701.8065412,35.929552955296,0,0
44.211898289611,-13.525724003759,30.73398339834,2479520.8203129,-442.1165709801,2573701.8065412,35.93398339834,0,0
44.211898552266,-13.527104560997,30.738413841384,2479520.8203129,-442.1165709801,2573701.8065412,35.938413841384,0,0
44.21189881492,-13.528485118235,30.742844284428,2479520.8203129,-442.1165709801,2573701.8065412,35.942844284428,0,0
44.211899077575,-13.529865675473,30.747274727473,2479520.8203129,-442.1165709801,2573701.8065412,35.947274727473,0,0
44.211899340229,-13.53124623271,30.751705170517,2479520.8203129,-442.1165709801,2573701.8065412,35.951705170517,0,0
44.211899602884,-13.532626789948,30.756135613561,2479520.8203129,-442.1165709801,2573701.8065412,35.956135613561,0,0
44.211899865538,-13.534007347186,30.760566056606,2479520.8203129,-442.1165709801,2573701.8065412,35.960566056606,0,0
44.211900128193,-13.535387904424,30.76499649965,2479520.8203129,-442.1165709801,2573701.8065412,35.96499649965,0,0
44.211900390847,-13.536768461662,30.769426942694,2479520.8203129,-442.1165709801,2573701.8065412,35.969426942694,0,0
44.211900653502,-13.5381490189,30.773857385739,2479520.8203129,-442.1165709801,2573701.8065412,35.973857385739,0,0
44.211900916156,-13.539529576138,30.778287828783,2479520.8203129,-442.1165709801,2573701.8065412,35.978287828783,0,0
44.21190117881,-13.540910133375,30.782718271827,2479520.8203129,-442.1165709801,2573701.8065412,35.982718271827,0,0
44.211901441465,-13.542290690613,30.787148714871,2479520.8203129,-442.1165709801,2573701.8065412,35.987148714871,0,0
44.211901704119,-13.543671247851,30.791579157916,2479520.8203129,-442.1165709801,2573701.8065412,35.991579157916,0,0
44.211901966774,-13.545051805089,30.79600960096,2479520.8203129,-442.1165709801,2573701.8065412,35.99600960096,0,0
44.211902229428,-13.546432362327,30.800440044004,2479520.8203129,-442.1165709801,2573701.8065412,36.000440044004,0,0
44.211902492083,-13.547812919565,30.804870487049,2479520.8203129,-442.1165709801,2573701.8065412,36.004870487049,0,0
44.211902754737,-13.549193476803,30.809300930093,2479520.8203129,-442.1165709801,2573701.8065412,36.009300930093,0,0
44.211903017392,-13.550574034041,30.813731373137,2479520.8203129,-442.1165709801,2573701.8065412,36.013731373137,0,0
44.211903280046,-13.551954591278,30.818161816182,2479520.8203129,-442.1165709801,2573701.8065412,36.018161816182,0,0
44.211903542701,-13.553335148516,30.822592259226,2479520.8203129,-442.1165709801,2573701.8065412,36.022592259226,0,0
44.211903805355,-13.554715705754,30.82702270227,2479520.8203129,-442.1165709801,2573701.8065412,36.02702270227,0,0
44.21190406801,-13.556096262992,30.831453145315,2479520.8203129,-442.1165709801,2573701.8065412,36.031453145315,0,0
44.211904330664,-13.55747682023,30.835883588359,2479520.8203129,-442.1165709801,2573701.8065412,36.035883588359,0,0
44.211904593319,-13.558857377468,30.840314031403,2479520.8203129,-442.1165709801,2573701.8065412,36.040314031403,0,0
44.211904855973,-13.560237934706,30.844744474447,2479520.8203129,-442.1165709801,2573701.8065412,36.044744474447,0,0
44.211905118627,-13.561618491944,30.849174917492,2479520.8203129,-442.1165709801,2573701.8065412,36.049174917492,0,0
44.211905381282,-13.562999049181,30.853605360536,2479520.8203129,-442.1165709801,2573701.8065412,36.053605360536,0,0
44.211905643936,-13.564379606419,30.85803580358,2479520.8203129,-442.1165709801,2573701.8065412,36.05803580358,0,0
44.211905906591,-13.565760163657,30.862466246625,2479520.8203129,-442.1165709801,2573701.8065412,36.062466246625,0,0
44.211906169245,-13.567140720895,30.866896689669,2479520.8203129,-442.1165709801,2573701.8065412,36.066896689669,0,0
44.2119064319,-13.568521278133,30.871327132713,2479520.8203129,-442.1165709801,2573701.8065412,36.071327132713,0,0
44.211906694554,-13.569901835371,30.875757575758,2479520.8203129,-442.1165709801,2573701.8065412,36.075757575758,0,0
44.211906957209,-13.571282392609,30.880188018802,2479520.8203129,-442.1165709801,2573701.8065412,36.080188018802,0,0
44.211907219863,-13.572662949847,30.884618461846,2479520.8203129,-442.1165709801,2573701.8065412,36.084618461846,0,0
44.211907482518,-13.574043507084,30.88904890489,2479520.8203129,-442.1165709801,2573701.8065412,36.08904890489,0,0
44.211907745172,-13.575424064322,30.893479347935,2479520.8203129,-442.1165709801,2573701.8065412,36.093479347935,0,0
44.211908007827,-13.57680462156,30.897909790979,2479520.8203129,-442.1165709801,2573701.8065412,36.097909790979,0,0
44.211908270481,-13.578185178798,30.902340234023,2479520.8203129,-442.1165709801,2573701.8065412,36.102340234023,0,0
44.211908533136,-13.579565736036,30.906770677068,2479520.8203129,-442.1165709801,2573701.8065412,36.106770677068,0,0
44.21190879579,-13.580946293274,30.911201120112,2479520.8203129,-442.1165709801,2573701.8065412,36.111201120112,0,0
44.211909058444,-13.582326850512,30.915631563156,2479520.8203129,-442.1165709801,2573701.8065412,36.115631563156,0,0
44.211909321099,-13.58370740775,30.920062006201,2479520.8203129,-442.1165709801,2573701.8065412,36.120062006201,0,0
44.211909583753,-13.585087964987,30.924492449245,2479520.8203129,-442.1165709801,2573701.8065412,36.124492449245,0,0
44.211909846408,-13.586468522225,30.928922892289,2479520.8203129,-442.1165709801,2573701.8065412,36.128922892289,0,0
44.211910109062,-13.587849079463,30.933353335334,2479520.8203129,-442.1165709801,2573701.8065412,36.133353335334,0,0
44.211910371717,-13.589229636701,30.937783778378,2479520.8203129,-442.1165709801,2573701.8065412,36.137783778378,0,0
44.211910634371,-13.590610193939,30.942214221422,2479520.8203129,-442.1165709801,2573701.8065412,36.142214221422,0,0
44.211910897026,-13.591990751177,30.946644664466,2479520.8203129,-442.1165709801,2573701.8065412,36.146644664466,0,0
44.21191115968,-13.593371308415,30.951075107511,2479520.8203129,-442.1165709801,2573701.8065412,36.151075107511,0,0
44.211911422335,-13.594751865652,30.955505550555,2479520.8203129,-442.1165709801,2573701.8065412,36.155505550555,0,0
44.211911684989,-13.59613242289,30.959935993599,2479520.8203129,-442.1165709801,2573701.8065412,36.159935993599,0,0
44.211911947644,-13.597512980128,30.964366436644,2479520.8203129,-442.1165709801,2573701.8065412,36.164366436644,0,0
44.211912210298,-13.598893537366,30.968796879688,2479520.8203129,-442.1165709801,2573701.8065412,36.168796879688,0,0
44.211912472953,-13.600274094604,30.973227322732,2479520.8203129,-442.1165709801,2573701.8065412,36.173227322732,0,0
44.211912735607,-13.601654651842,30.977657765777,2479520.8203129,-442.1165709801,2573701.8065412,36.177657765777,0,0
44.211912998261,-13.60303520908,30.982088208821,2479520.8203129,-442.1165709801,2573701.8065412,36.182088208821,0,0
44.211913260916,-13.604415766318,30.986518651865,2479520.8203129,-442.1165709801,2573701.8065412,36.186518651865,0,0
44.21191352357,-13.605796323555,30.990949094909,2479520.8203129,-442.1165709801,2573701.8065412,36.190949094909,0,0
44.211913786225,-13.607176880793,30.995379537954,2479520.8203129,-442.1165709801,2573701.8065412,36.195379537954,0,0
44.211914048879,-13.608557438031,30.999809980998,2479520.8203129,-442.1165709801,2573701.8065412,36.199809980998,0,0
44.211914311534,-13.609937995269,31.004240424042,2479520.8203129,-442.1165709801,2573701.8065412,36.204240424042,0,0
44.211914574188,-13.611318552507,31.008670867087,2479520.8203129,-442.1165709801,2573701.8065412,36.208670867087,0,0
44.211914836843,-13.612699109745,31.013101310131,2479520.8203129,-442.1165709801,2573701.8065412,36.213101310131,0,0
44.211915099497,-13.614079666983,31.017531753175,2479520.8203129,-442.1165709801,2573701.8065412,36.217531753175,0,0
44.211915362152,-13.615460224221,31.02196219622,2479520.8203129,-442.1165709801,2573701.8065412,36.22196219622,0,0
44.211915624806,-13.616840781458,31.026392639264,2479520.8203129,-442.1165709801,2573701.8065412,36.226392639264,0,0
44.211915887461,-13.618221338696,31.030823082308,2479520.8203129,-442.1165709801,2573701.8065412,36.230823082308,0,0
44.211916150115,-13.619601895934,31.035253525353,2479520.8203129,-442.1165709801,2573701.8065412,36.235253525353,0,0
44.21191641277,-13.620982453172,31.039683968397,2479520.8203129,-442.1165709801,2573701.8065412,36.239683968397,0,0
44.211916675424,-13.62236301041,31.044114411441,2479520.8203129,-442.1165709801,2573701.8065412,36.244114411441,0,0
44.211916938078,-13.623743567648,31.048544854485,2479520.8203129,-442.1165709801,2573701.8065412,36.248544854485,0,0
44.211917200733,-13.625124124886,31.05297529753,2479520.8203129,-442.1165709801,2573701.8065412,36.25297529753,0,0
44.211917463387,-13.626504682124,31.057405740574,2479520.8203129,-442.1165709801,2573701.8065412,36.257405740574,0,0
44.211917726042,-13.627885239361,31.061836183618,2479520.8203129,-442.1165709801,2573701.8065412,36.261836183618,0,0
44.211917988696,-13.629265796599,31.066266626663,2479520.8203129,-442.1165709801,2573701.8065412,36.266266626663,0,0
44.211918251351,-13.630646353837,31.070697069707,2479520.8203129,-442.1165709801,2573701.8065412,36.270697069707,0,0
44.211918514005,-13.632026911075,31.075127512751,2479520.8203129,-442.1165709801,2573701.8065412,36.275127512751,0,0
44.21191877666,-13.633407468313,31.079557955796,2479520.8203129,-442.1165709801,2573701.8065412,36.279557955796,0,0
44.211919039314,-13.634788025551,31.08398839884,2479520.8203129,-442.1165709801,2573701.8065412,36.28398839884,0,0
44.211919301969,-13.636168582789,31.088418841884,2479520.8203129,-442.1165709801,2573701.8065412,36.288418841884,0,0
44.211919564623,-13.637549140026,31.092849284928,2479520.8203129,-442.1165709801,2573701.8065412,36.292849284928,0,0
44.211919827278,-13.638929697264,31.097279727973,2479520.8203129,-442.1165709801,2573701.8065412,36.297279727973,0,0
44.211920089932,-13.640310254502,31.101710171017,2479520.8203129,-442.1165709801,2573701.8065412,36.301710171017,0,0
44.211920352587,-13.64169081174,31.106140614061,2479520.8203129,-442.1165709801,2573701.8065412,36.306140614061,0,0
44.211920615241,-13.643071368978,31.110571057106,2479520.8203129,-442.1165709801,2573701.8065412,36.310571057106,0,0
44.211920877895,-13.644451926216,31.11500150015,2479520.8203129,-442.1165709801,2573701.8065412,36.31500150015,0,0
44.21192114055,-13.645832483454,31.119431943194,2479520.8203129,-442.1165709801,2573701.8065412,36.319431943194,0,0
44.211921403204,-13.647213040692,31.123862386239,2479520.8203129,-442.1165709801,2573701.8065412,36.323862386239,0,0
44.211921665859,-13.648593597929,31.128292829283,2479520.8203129,-442.1165709801,2573701.8065412,36.328292829283,0,0
44.211921928513,-13.649974155167,31.132723272327,2479520.8203129,-442.1165709801,2573701.8065412,36.332723272327,0,0
44.211922191168,-13.651354712405,31.137153715372,2479520.8203129,-442.1165709801,2573701.8065412,36.337153715372,0,0
44.211922453822,-13.652735269643,31.141584158416,2479520.8203129,-442.1165709801,2573701.8065412,36.341584158416,0,0
44.211922716477,-13.654115826881,31.14601460146,2479520.8203129,-442.1165709801,2573701.8065412,36.34601460146,0,0
44.211922979131,-13.655496384119,31.150445044504,2479520.8203129,-442.1165709801,2573701.8065412,36.350445044504,0,0
44.211923241786,-13.656876941357,31.154875487549,2479520.8203129,-442.1165709801,2573701.8065412,36.354875487549,0,0
44.21192350444,-13.658257498595,31.159305930593,2479520.8203129,-442.1165709801,2573701.8065412,36.359305930593,0,0
44.211923767095,-13.659638055832,31.163736373637,2479520.8203129,-442.1165709801,2573701.8065412,36.363736373637,0,0
44.211924029749,-13.66101861307,31.168166816682,2479520.8203129,-442.1165709801,2573701.8065412,36.368166816682,0,0
44.211924292404,-13.662399170308,31.172597259726,2479520.8203129,-442.1165709801,2573701.8065412,36.372597259726,0,0
44.211924555058,-13.663779727546,31.17702770277,2479520.8203129,-442.1165709801,2573701.8065412,36.37702770277,0,0
44.211924817712,-13.665160284784,31.181458145815,2479520.8203129,-442.1165709801,2573701.8065412,36.381458145815,0,0
44.211925080367,-13.666540842022,31.185888588859,2479520.8203129,-442.1165709801,2573701.8065412,36.385888588859,0,0
44.211925343021,-13.66792139926,31.190319031903,2479520.8203129,-442.1165709801,2573701.8065412,36.390319031903,0,0
44.211925605676,-13.669301956498,31.194749474947,2479520.8203129,-442.1165709801,2573701.8065412,36.394749474947,0,0
44.21192586833,-13.670682513735,31.199179917992,2479520.8203129,-442.1165709801,2573701.8065412,36.399179917992,0,0
44.211926130985,-13.672063070973,31.203610361036,2479520.8203129,-442.1165709801,2573701.8065412,36.403610361036,0,0
44.211926393639,-13.673443628211,31.20804080408,2479520.8203129,-442.1165709801,2573701.8065412,36.40804080408,0,0
44.211926656294,-13.674824185449,31.212471247125,2479520.8203129,-442.1165709801,2573701.8065412,36.412471247125,0,0
44.211926918948,-13.676204742687,31.216901690169,2479520.8203129,-442.1165709801,2573701.8065412,36.416901690169,0,0
44.211927181603,-13.677585299925,31.221332133213,2479520.8203129,-442.1165709801,2573701.8065412,36.421332133213,0,0
44.211927444257,-13.678965857163,31.225762576258,2479520.8203129,-442.1165709801,2573701.8065412,36.425762576258,0,0
44.211927706912,-13.680346414401,31.230193019302,2479520.8203129,-442.1165709801,2573701.8065412,36.430193019302,0,0
44.211927969566,-13.681726971638,31.234623462346,2479520.8203129,-442.1165709801,2573701.8065412,36.434623462346,0,0
44.211928232221,-13.683107528876,31.239053905391,2479520.8203129,-442.1165709801,2573701.8065412,36.439053905391,0,0
44.211928494875,-13.684488086114,31.243484348435,2479520.8203129,-442.1165709801,2573701.8065412,36.443484348435,0,0
44.211928757529,-13.685868643352,31.247914791479,2479520.8203129,-442.1165709801,2573701.8065412,36.447914791479,0,0
44.211929020184,-13.68724920059,31.252345234523,2479520.8203129,-442.1165709801,2573701.8065412,36.452345234523,0,0
44.211929282838,-13.688629757828,31.256775677568,2479520.8203129,-442.1165709801,2573701.8065412,36.456775677568,0,0
44.211929545493,-13.690010315066,31.261206120612,2479520.8203129,-442.1165709801,2573701.8065412,36.461206120612,0,0
44.211929808147,-13.691390872303,31.265636563656,2479520.8203129,-442.1165709801,2573701.8065412,36.465636563656,0,0
44.211930070802,-13.692771429541,31.270067006701,2479520.8203129,-442.1165709801,2573701.8065412,36.470067006701,0,0
44.211930333456,-13.694151986779,31.274497449745,2479520.8203129,-442.1165709801,2573701.8065412,36.474497449745,0,0
44.211930596111,-13.695532544017,31.278927892789,2479520.8203129,-442.1165709801,2573701.8065412,36.478927892789,0,0
44.211930858765,-13.696913101255,31.283358335834,2479520.8203129,-442.1165709801,2573701.8065412,36.483358335834,0,0
44.21193112142,-13.698293658493,31.287788778878,2479520.8203129,-442.1165709801,2573701.8065412,36.487788778878,0,0
44.211931384074,-13.699674215731,31.292219221922,2479520.8203129,-442.1165709801,2573701.8065412,36.492219221922,0,0
44.211931646921,-13.701054773264,31.296649664966,2482308.6616483,-1688.8059984056,2571134.3343517,36.496649664966,0,0
44.211931909866,-13.702435330949,31.301080108011,2482308.6616483,-1688.8059984056,2571134.3343517,36.501080108011,0,0
44.211932172812,-13.703815888634,31.305510551055,2482308.6616483,-1688.8059984056,2571134.3343517,36.505510551055,0,0
44.211932435757,-13.705196446319,31.309940994099,2482308.6616483,-1688.8059984056,2571134.3343517,36.509940994099,0,0
44.211932698703,-13.706577004004,31.314371437144,2482308.6616483,-1688.8059984056,2571134.3343517,36.514371437144,0,0
44.211932961648,-13.707957561689,31.318801880188,2482308.6616483,-1688.8059984056,2571134.3343517,36.518801880188,0,0
44.211933224594,-13.709338119375,31.323232323232,2482308.6616483,-1688.8059984056,2571134.3343517,36.523232323232,0,0
44.211933487539,-13.71071867706,31.327662766277,2482308.6616483,-1688.8059984056,2571134.3343517,36.527662766277,0,0
44.211933750485,-13.712099234745,31.332093209321,2482308.6616483,-1688.8059984056,2571134.3343517,36.532093209321,0,0
44.21193401343,-13.71347979243,31.336523652365,2482308.6616483,-1688.8059984056,2571134.3343517,36.536523652365,0,0
44.211934276376,-13.714860350115,31.34095409541,2482308.6616483,-1688.8059984056,2571134.3343517,36.54095409541,0,0
44.211934539321,-13.7162409078,31.345384538454,2482308.6616483,-1688.8059984056,2571134.3343517,36.545384538454,0,0
44.211934802267,-13.717621465486,31.349814981498,2482308.6616483,-1688.8059984056,2571134.3343517,36.549814981498,0,0
44.211935065212,-13.719002023171,31.354245424542,2482308.6616483,-1688.8059984056,2571134.3343517,36.554245424542,0,0
44.211935328158,-13.720382580856,31.358675867587,2482308.6616483,-1688.8059984056,2571134.3343517,36.558675867587,0,0
44.211935591103,-13.721763138541,31.363106310631,2482308.6616483,-1688.8059984056,2571134.3343517,36.563106310631,0,0
44.211935854049,-13.723143696226,31.367536753675,2482308.6616483,-1688.8059984056,2571134.3343517,36.567536753675,0,0
44.211936116994,-13.724524253911,31.37196719672,2482308.6616483,-1688.8059984056,2571134.3343517,36.57196719672,0,0
44.21193637994,-13.725904811596,31.376397639764,2482308.6616483,-1688.8059984056,2571134.3343517,36.576397639764,0,0
44.211936642885,-13.727285369282,31.380828082808,2482308.6616483,-1688.8059984056,2571134.3343517,36.580828082808,0,0
44.211936905831,-13.728665926967,31.385258525853,2482308.6616483,-1688.8059984056,2571134.3343517,36.585258525853,0,0
44.211937168776,-13.730046484652,31.389688968897,2482308.6616483,-1688.8059984056,2571134.3343517,36.589688968897,0,0
44.211937431722,-13.731427042337,31.394119411941,2482308.6616483,-1688.8059984056,2571134.3343517,36.594119411941,0,0
44.211937694667,-13.732807600022,31.398549854986,2482308.6616483,-1688.8059984056,2571134.3343517,36.598549854985,0,0
44.211937957613,-13.734188157707,31.40298029803,2482308.6616483,-1688.8059984056,2571134.3343517,36.60298029803,0,0
44.211938220558,-13.735568715393,31.407410741074,2482308.6616483,-1688.8059984056,2571134.3343517,36.607410741074,0,0
44.211938483504,-13.736949273078,31.411841184118,2482308.6616483,-1688.8059984056,2571134.3343517,36.611841184118,0,0
44.211938746449,-13.738329830763,31.416271627163,2482308.6616483,-1688.8059984056,2571134.3343517,36.616271627163,0,0
44.211939009395,-13.739710388448,31.420702070207,2482308.6616483,-1688.8059984056,2571134.3343517,36.620702070207,0,0
44.21193927234,-13.741090946133,31.425132513251,2482308.6616483,-1688.8059984056,2571134.3343517,36.625132513251,0,0
44.211939535286,-13.742471503818,31.429562956296,2482308.6616483,-1688.8059984056,2571134.3343517,36.629562956296,0,0
44.211939798231,-13.743852061504,31.43399339934,2482308.6616483,-1688.8059984056,2571134.3343517,36.63399339934,0,0
44.211940061177,-13.745232619189,31.438423842384,2482308.6616483,-1688.8059984056,2571134.3343517,36.638423842384,0,0
44.211940324122,-13.746613176874,31.442854285429,2482308.6616483,-1688.8059984056,2571134.3343517,36.642854285429,0,0
44.211940587068,-13.747993734559,31.447284728473,2482308.6616483,-1688.8059984056,2571134.3343517,36.647284728473,0,0
44.211940850013,-13.749374292244,31.451715171517,2482308.6616483,-1688.8059984056,2571134.3343517,36.651715171517,0,0
44.211941112959,-13.750754849929,31.456145614561,2482308.6616483,-1688.8059984056,2571134.3343517,36.656145614561,0,0
44.211941375904,-13.752135407614,31.460576057606,2482308.6616483,-1688.8059984056,2571134.3343517,36.660576057606,0,0
44.21194163885,-13.7535159653,31.46500650065,2482308.6616483,-1688.8059984056,2571134.3343517,36.66500650065,0,0
44.211941901795,-13.754896522985,31.469436943694,2482308.6616483,-1688.8059984056,2571134.3343517,36.669436943694,0,0
44.211942164741,-13.75627708067,31.473867386739,2482308.6616483,-1688.8059984056,2571134.3343517,36.673867386739,0,0
44.211942427686,-13.757657638355,31.478297829783,2482308.6616483,-1688.8059984056,2571134.3343517,36.678297829783,0,0
44.211942690632,-13.75903819604,31.482728272827,2482308.6616483,-1688.8059984056,2571134.3343517,36.682728272827,0,0
44.211942953577,-13.760418753725,31.487158715872,2482308.6616483,-1688.8059984056,2571134.3343517,36.687158715872,0,0
44.211943216523,-13.761799311411,31.491589158916,2482308.6616483,-1688.8059984056,2571134.3343517,36.691589158916,0,0
44.211943479468,-13.763179869096,31.49601960196,2482308.6616483,-1688.8059984056,2571134.3343517,36.69601960196,0,0
44.211943742414,-13.764560426781,31.500450045005,2482308.6616483,-1688.8059984056,2571134.3343517,36.700450045005,0,0
44.211944005359,-13.765940984466,31.504880488049,2482308.6616483,-1688.8059984056,2571134.3343517,36.704880488049,0,0
44.211944268305,-13.767321542151,31.509310931093,2482308.6616483,-1688.8059984056,2571134.3343517,36.709310931093,0,0
44.21194453125,-13.768702099836,31.513741374137,2482308.6616483,-1688.8059984056,2571134.3343517,36.713741374137,0,0
44.211944794196,-13.770082657522,31.518171817182,2482308.6616483,-1688.8059984056,2571134.3343517,36.718171817182,0,0
44.211945057141,-13.771463215207,31.522602260226,2482308.6616483,-1688.8059984056,2571134.3343517,36.722602260226,0,0
44.211945320087,-13.772843772892,31.52703270327,2482308.6616483,-1688.8059984056,2571134.3343517,36.72703270327,0,0
44.211945583033,-13.774224330577,31.531463146315,2482308.6616483,-1688.8059984056,2571134.3343517,36.731463146315,0,0
44.211945845978,-13.775604888262,31.535893589359,2482308.6616483,-1688.8059984056,2571134.3343517,36.735893589359,0,0
44.211946108924,-13.776985445947,31.540324032403,2482308.6616483,-1688.8059984056,2571134.3343517,36.740324032403,0,0
44.211946371869,-13.778366003632,31.544754475448,2482308.6616483,-1688.8059984056,2571134.3343517,36.744754475448,0,0
44.211946634815,-13.779746561318,31.549184918492,2482308.6616483,-1688.8059984056,2571134.3343517,36.749184918492,0,0
44.21194689776,-13.781127119003,31.553615361536,2482308.6616483,-1688.8059984056,2571134.3343517,36.753615361536,0,0
44.211947160706,-13.782507676688,31.55804580458,2482308.6616483,-1688.8059984056,2571134.3343517,36.75804580458,0,0
44.211947423651,-13.783888234373,31.562476247625,2482308.6616483,-1688.8059984056,2571134.3343517,36.762476247625,0,0
44.211947686597,-13.785268792058,31.566906690669,2482308.6616483,-1688.8059984056,2571134.3343517,36.766906690669,0,0
44.211947949542,-13.786649349743,31.571337133713,2482308.6616483,-1688.8059984056,2571134.3343517,36.771337133713,0,0
44.211948212488,-13.788029907429,31.575767576758,2482308.6616483,-1688.8059984056,2571134.3343517,36.775767576758,0,0
44.211948475433,-13.789410465114,31.580198019802,2482308.6616483,-1688.8059984056,2571134.3343517,36.780198019802,0,0
44.211948738379,-13.790791022799,31.584628462846,2482308.6616483,-1688.8059984056,2571134.3343517,36.784628462846,0,0
44.211949001324,-13.792171580484,31.589058905891,2482308.6616483,-1688.8059984056,2571134.3343517,36.789058905891,0,0
44.21194926427,-13.793552138169,31.593489348935,2482308.6616483,-1688.8059984056,2571134.3343517,36.793489348935,0,0
44.211949527215,-13.794932695854,31.597919791979,2482308.6616483,-1688.8059984056,2571134.3343517,36.797919791979,0,0
44.211949790161,-13.79631325354,31.602350235024,2482308.6616483,-1688.8059984056,2571134.3343517,36.802350235024,0,0
44.211950053106,-13.797693811225,31.606780678068,2482308.6616483,-1688.8059984056,2571134.3343517,36.806780678068,0,0
44.211950316052,-13.79907436891,31.611211121112,2482308.6616483,-1688.8059984056,2571134.3343517,36.811211121112,0,0
44.211950578997,-13.800454926595,31.615641564156,2482308.6616483,-1688.8059984056,2571134.3343517,36.815641564156,0,0
44.211950841943,-13.80183548428,31.620072007201,2482308.6616483,-1688.8059984056,2571134.3343517,36.820072007201,0,0
44.211951104888,-13.803216041965,31.624502450245,2482308.6616483,-1688.8059984056,2571134.3343517,36.824502450245,0,0
44.211951367834,-13.80459659965,31.628932893289,2482308.6616483,-1688.8059984056,2571134.3343517,36.828932893289,0,0
44.211951630779,-13.805977157336,31.633363336334,2482308.6616483,-1688.8059984056,2571134.3343517,36.833363336334,0,0
44.211951893725,-13.807357715021,31.637793779378,2482308.6616483,-1688.8059984056,2571134.3343517,36.837793779378,0,0
44.21195215667,-13.808738272706,31.642224222422,2482308.6616483,-1688.8059984056,2571134.3343517,36.842224222422,0,0
44.211952419616,-13.810118830391,31.646654665467,2482308.6616483,-1688.8059984056,2571134.3343517,36.846654665467,0,0
44.211952682561,-13.811499388076,31.651085108511,2482308.6616483,-1688.8059984056,2571134.3343517,36.851085108511,0,0
44.211952945507,-13.812879945761,31.655515551555,2482308.6616483,-1688.8059984056,2571134.3343517,36.855515551555,0,0
44.211953208452,-13.814260503447,31.659945994599,2482308.6616483,-1688.8059984056,2571134.3343517,36.859945994599,0,0
44.211953471398,-13.815641061132,31.664376437644,2482308.6616483,-1688.8059984056,2571134.3343517,36.864376437644,0,0
44.211953734343,-13.817021618817,31.668806880688,2482308.6616483,-1688.8059984056,2571134.3343517,36.868806880688,0,0
44.211953997289,-13.818402176502,31.673237323732,2482308.6616483,-1688.8059984056,2571134.3343517,36.873237323732,0,0
44.211954260234,-13.819782734187,31.677667766777,2482308.6616483,-1688.8059984056,2571134.3343517,36.877667766777,0,0
44.21195452318,-13.821163291872,31.682098209821,2482308.6616483,-1688.8059984056,2571134.3343517,36.882098209821,0,0
44.211954786125,-13.822543849558,31.686528652865,2482308.6616483,-1688.8059984056,2571134.3343517,36.886528652865,0,0
44.211955049071,-13.823924407243,31.69095909591,2482308.6616483,-1688.8059984056,2571134.3343517,36.89095909591,0,0
44.211955312016,-13.825304964928,31.695389538954,2482308.6616483,-1688.8059984056,2571134.3343517,36.895389538954,0,0
44.211955574962,-13.826685522613,31.699819981998,2482308.6616483,-1688.8059984056,2571134.3343517,36.899819981998,0,0
44.211955837907,-13.828066080298,31.704250425043,2482308.6616483,-1688.8059984056,2571134.3343517,36.904250425043,0,0
44.211956100853,-13.829446637983,31.708680868087,2482308.6616483,-1688.8059984056,2571134.3343517,36.908680868087,0,0
44.211956363798,-13.830827195668,31.713111311131,2482308.6616483,-1688.8059984056,2571134.3343517,36.913111311131,0,0
44.211956626744,-13.832207753354,31.717541754175,2482308.6616483,-1688.8059984056,2571134.3343517,36.917541754175,0,0
44.211956889689,-13.833588311039,31.72197219722,2482308.6616483,-1688.8059984056,2571134.3343517,36.92197219722,0,0
44.211957152635,-13.834968868724,31.726402640264,2482308.6616483,-1688.8059984056,2571134.3343517,36.926402640264,0,0
44.21195741558,-13.836349426409,31.730833083308,2482308.6616483,-1688.8059984056,2571134.3343517,36.930833083308,0,0
44.211957678526,-13.837729984094,31.735263526353,2482308.6616483,-1688.8059984056,2571134.3343517,36.935263526353,0,0
44.211957941471,-13.839110541779,31.739693969397,2482308.6616483,-1688.8059984056,2571134.3343517,36.939693969397,0,0
44.211958204417,-13.840491099465,31.744124412441,2482308.6616483,-1688.8059984056,2571134.3343517,36.944124412441,0,0
44.211958467362,-13.84187165715,31.748554855486,2482308.6616483,-1688.8059984056,2571134.3343517,36.948554855486,0,0
44.211958730308,-13.843252214835,31.75298529853,2482308.6616483,-1688.8059984056,2571134.3343517,36.95298529853,0,0
44.211958993253,-13.84463277252,31.757415741574,2482308.6616483,-1688.8059984056,2571134.3343517,36.957415741574,0,0
44.211959256199,-13.846013330205,31.761846184618,2482308.6616483,-1688.8059984056,2571134.3343517,36.961846184618,0,0
44.211959519144,-13.84739388789,31.766276627663,2482308.6616483,-1688.8059984056,2571134.3343517,36.966276627663,0,0
44.21195978209,-13.848774445576,31.770707070707,2482308.6616483,-1688.8059984056,2571134.3343517,36.970707070707,0,0
44.211960045035,-13.850155003261,31.775137513751,2482308.6616483,-1688.8059984056,2571134.3343517,36.975137513751,0,0
44.211960307981,-13.851535560946,31.779567956796,2482308.6616483,-1688.8059984056,2571134.3343517,36.979567956796,0,0
44.211960570926,-13.852916118631,31.78399839984,2482308.6616483,-1688.8059984056,2571134.3343517,36.98399839984,0,0
44.211960833872,-13.854296676316,31.788428842884,2482308.6616483,-1688.8059984056,2571134.3343517,36.988428842884,0,0
44.211961096817,-13.855677234001,31.792859285929,2482308.6616483,-1688.8059984056,2571134.3343517,36.992859285929,0,0
44.211961359763,-13.857057791686,31.797289728973,2482308.6616483,-1688.8059984056,2571134.3343517,36.997289728973,0,0
44.211961622708,-13.858438349372,31.801720172017,2482308.6616483,-1688.8059984056,2571134.3343517,37.001720172017,0,0
44.211961885654,-13.859818907057,31.806150615062,2482308.6616483,-1688.8059984056,2571134.3343517,37.006150615062,0,0
44.211962148599,-13.861199464742,31.810581058106,2482308.6616483,-1688.8059984056,2571134.3343517,37.010581058106,0,0
44.211962411545,-13.862580022427,31.81501150115,2482308.6616483,-1688.8059984056,2571134.3343517,37.01501150115,0,0
44.21196267449,-13.863960580112,31.819441944194,2482308.6616483,-1688.8059984056,2571134.3343517,37.019441944194,0,0
44.211962937436,-13.865341137797,31.823872387239,2482308.6616483,-1688.8059984056,2571134.3343517,37.023872387239,0,0
44.211963200381,-13.866721695483,31.828302830283,2482308.6616483,-1688.8059984056,2571134.3343517,37.028302830283,0,0
44.211963463327,-13.868102253168,31.832733273327,2482308.6616483,-1688.8059984056,2571134.3343517,37.032733273327,0,0
44.211963726273,-13.869482810853,31.837163716372,2482308.6616483,-1688.8059984056,2571134.3343517,37.037163716372,0,0
44.211963989218,-13.870863368538,31.841594159416,2482308.6616483,-1688.8059984056,2571134.3343517,37.041594159416,0,0
44.211964252164,-13.872243926223,31.84602460246,2482308.6616483,-1688.8059984056,2571134.3343517,37.04602460246,0,0
44.211964515109,-13.873624483908,31.850455045505,2482308.6616483,-1688.8059984056,2571134.3343517,37.050455045505,0,0
44.211964778055,-13.875005041594,31.854885488549,2482308.6616483,-1688.8059984056,2571134.3343517,37.054885488549,0,0
44.211965041,-13.876385599279,31.859315931593,2482308.6616483,-1688.8059984056,2571134.3343517,37.059315931593,0,0
44.211965303946,-13.877766156964,31.863746374637,2482308.6616483,-1688.8059984056,2571134.3343517,37.063746374637,0,0
44.211965566891,-13.879146714649,31.868176817682,2482308.6616483,-1688.8059984056,2571134.3343517,37.068176817682,0,0
44.211965829837,-13.880527272334,31.872607260726,2482308.6616483,-1688.8059984056,2571134.3343517,37.072607260726,0,0
44.211966092782,-13.881907830019,31.87703770377,2482308.6616483,-1688.8059984056,2571134.3343517,37.07703770377,0,0
44.211966355728,-13.883288387704,31.881468146815,2482308.6616483,-1688.8059984056,2571134.3343517,37.081468146815,0,0
44.211966618673,-13.88466894539,31.885898589859,2482308.6616483,-1688.8059984056,2571134.3343517,37.085898589859,0,0
44.211966881619,-13.886049503075,31.890329032903,2482308.6616483,-1688.8059984056,2571134.3343517,37.090329032903,0,0
44.211967144564,-13.88743006076,31.894759475948,2482308.6616483,-1688.8059984056,2571134.3343517,37.094759475948,0,0
44.21196740751,-13.888810618445,31.899189918992,2482308.6616483,-1688.8059984056,2571134.3343517,37.099189918992,0,0
44.211967670455,-13.89019117613,31.903620362036,2482308.6616483,-1688.8059984056,2571134.3343517,37.103620362036,0,0
44.211967933401,-13.891571733815,31.908050805081,2482308.6616483,-1688.8059984056,2571134.3343517,37.108050805081,0,0
44.211968196346,-13.892952291501,31.912481248125,2482308.6616483,-1688.8059984056,2571134.3343517,37.112481248125,0,0
44.211968459292,-13.894332849186,31.916911691169,2482308.6616483,-1688.8059984056,2571134.3343517,37.116911691169,0,0
44.211968722237,-13.895713406871,31.921342134213,2482308.6616483,-1688.8059984056,2571134.3343517,37.121342134213,0,0
44.211968985183,-13.897093964556,31.925772577258,2482308.6616483,-1688.8059984056,2571134.3343517,37.125772577258,0,0
44.211969248128,-13.898474522241,31.930203020302,2482308.6616483,-1688.8059984056,2571134.3343517,37.130203020302,0,0
44.211969511074,-13.899855079926,31.934633463346,2482308.6616483,-1688.8059984056,2571134.3343517,37.134633463346,0,0
44.211969774019,-13.901235637612,31.939063906391,2482308.6616483,-1688.8059984056,2571134.3343517,37.139063906391,0,0
44.211970036965,-13.902616195297,31.943494349435,2482308.6616483,-1688.8059984056,2571134.3343517,37.143494349435,0,0
44.211970300088,-13.903996752772,31.947924792479,2485882.7840104,-704.30353929403,2569870.8341251,37.147924792479,0,0
44.211970563353,-13.905377310081,31.952355235524,2485882.7840104,-704.30353929403,2569870.8341251,37.152355235524,0,0
44.211970826617,-13.90675786739,31.956785678568,2485882.7840104,-704.30353929403,2569870.8341251,37.156785678568,0,0
44.211971089882,-13.908138424699,31.961216121612,2485882.7840104,-704.30353929403,2569870.8341251,37.161216121612,0,0
44.211971353147,-13.909518982009,31.965646564656,2485882.7840104,-704.30353929403,2569870.8341251,37.165646564656,0,0
44.211971616411,-13.910899539318,31.970077007701,2485882.7840104,-704.30353929403,2569870.8341251,37.170077007701,0,0
44.211971879676,-13.912280096627,31.974507450745,2485882.7840104,-704.30353929403,2569870.8341251,37.174507450745,0,0
44.21197214294,-13.913660653936,31.978937893789,2485882.7840104,-704.30353929403,2569870.8341251,37.178937893789,0,0
44.211972406205,-13.915041211245,31.983368336834,2485882.7840104,-704.30353929403,2569870.8341251,37.183368336834,0,0
44.21197266947,-13.916421768554,31.987798779878,2485882.7840104,-704.30353929403,2569870.8341251,37.187798779878,0,0
44.211972932734,-13.917802325863,31.992229222922,2485882.7840104,-704.30353929403,2569870.8341251,37.192229222922,0,0
44.211973195999,-13.919182883172,31.996659665967,2485882.7840104,-704.30353929403,2569870.8341251,37.196659665967,0,0
44.211973459264,-13.920563440481,32.001090109011,2485882.7840104,-704.30353929403,2569870.8341251,37.201090109011,0,0
44.211973722528,-13.92194399779,32.005520552055,2485882.7840104,-704.30353929403,2569870.8341251,37.205520552055,0,0
44.211973985793,-13.923324555099,32.0099509951,2485882.7840104,-704.30353929403,2569870.8341251,37.2099509951,0,0
44.211974249058,-13.924705112408,32.014381438144,2485882.7840104,-704.30353929403,2569870.8341251,37.214381438144,0,0
44.211974512322,-13.926085669717,32.018811881188,2485882.7840104,-704.30353929403,2569870.8341251,37.218811881188,0,0
44.211974775587,-13.927466227026,32.023242324232,2485882.7840104,-704.30353929403,2569870.8341251,37.223242324232,0,0
44.211975038851,-13.928846784336,32.027672767277,2485882.7840104,-704.30353929403,2569870.8341251,37.227672767277,0,0
44.211975302116,-13.930227341645,32.032103210321,2485882.7840104,-704.30353929403,2569870.8341251,37.232103210321,0,0
44.211975565381,-13.931607898954,32.036533653365,2485882.7840104,-704.30353929403,2569870.8341251,37.236533653365,0,0
44.211975828645,-13.932988456263,32.04096409641,2485882.7840104,-704.30353929403,2569870.8341251,37.24096409641,0,0
44.21197609191,-13.934369013572,32.045394539454,2485882.7840104,-704.30353929403,2569870.8341251,37.245394539454,0,0
44.211976355175,-13.935749570881,32.049824982498,2485882.7840104,-704.30353929403,2569870.8341251,37.249824982498,0,0
44.211976618439,-13.93713012819,32.054255425543,2485882.7840104,-704.30353929403,2569870.8341251,37.254255425543,0,0
44.211976881704,-13.938510685499,32.058685868587,2485882.7840104,-704.30353929403,2569870.8341251,37.258685868587,0,0
44.211977144969,-13.939891242808,32.063116311631,2485882.7840104,-704.30353929403,2569870.8341251,37.263116311631,0,0
44.211977408233,-13.941271800117,32.067546754675,2485882.7840104,-704.30353929403,2569870.8341251,37.267546754675,0,0
44.211977671498,-13.942652357426,32.07197719772,2485882.7840104,-704.30353929403,2569870.8341251,37.27197719772,0,0
44.211977934762,-13.944032914735,32.076407640764,2485882.7840104,-704.30353929403,2569870.8341251,37.276407640764,0,0
44.211978198027,-13.945413472044,32.080838083808,2485882.7840104,-704.30353929403,2569870.8341251,37.280838083808,0,0
44.211978461292,-13.946794029353,32.085268526853,2485882.7840104,-704.30353929403,2569870.8341251,37.285268526853,0,0
44.211978724556,-13.948174586662,32.089698969897,2485882.7840104,-704.30353929403,2569870.8341251,37.289698969897,0,0
44.211978987821,-13.949555143972,32.094129412941,2485882.7840104,-704.30353929403,2569870.8341251,37.294129412941,0,0
44.211979251086,-13.950935701281,32.098559855986,2485882.7840104,-704.30353929403,2569870.8341251,37.298559855986,0,0
44.21197951435,-13.95231625859,32.10299029903,2485882.7840104,-704.30353929403,2569870.8341251,37.30299029903,0,0
44.211979777615,-13.953696815899,32.107420742074,2485882.7840104,-704.30353929403,2569870.8341251,37.307420742074,0,0
44.211980040879,-13.955077373208,32.111851185119,2485882.7840104,-704.30353929403,2569870.8341251,37.311851185119,0,0
44.211980304144,-13.956457930517,32.116281628163,2485882.7840104,-704.30353929403,2569870.8341251,37.316281628163,0,0
44.211980567409,-13.957838487826,32.120712071207,2485882.7840104,-704.30353929403,2569870.8341251,37.320712071207,0,0
44.211980830673,-13.959219045135,32.125142514251,2485882.7840104,-704.30353929403,2569870.8341251,37.325142514251,0,0
44.211981093938,-13.960599602444,32.129572957296,2485882.7840104,-704.30353929403,2569870.8341251,37.329572957296,0,0
44.211981357203,-13.961980159753,32.13400340034,2485882.7840104,-704.30353929403,2569870.8341251,37.33400340034,0,0
44.211981620467,-13.963360717062,32.138433843384,2485882.7840104,-704.30353929403,2569870.8341251,37.338433843384,0,0
44.211981883732,-13.964741274371,32.142864286429,2485882.7840104,-704.30353929403,2569870.8341251,37.342864286429,0,0
44.211982146997,-13.96612183168,32.147294729473,2485882.7840104,-704.30353929403,2569870.8341251,37.347294729473,0,0
44.211982410261,-13.967502388989,32.151725172517,2485882.7840104,-704.30353929403,2569870.8341251,37.351725172517,0,0
44.211982673526,-13.968882946299,32.156155615562,2485882.7840104,-704.30353929403,2569870.8341251,37.356155615562,0,0
44.21198293679,-13.970263503608,32.160586058606,2485882.7840104,-704.30353929403,2569870.8341251,37.360586058606,0,0
44.211983200055,-13.971644060917,32.16501650165,2485882.7840104,-704.30353929403,2569870.8341251,37.36501650165,0,0
44.21198346332,-13.973024618226,32.169446944694,2485882.7840104,-704.30353929403,2569870.8341251,37.369446944694,0,0
44.211983726584,-13.974405175535,32.173877387739,2485882.7840104,-704.30353929403,2569870.8341251,37.373877387739,0,0
44.211983989849,-13.975785732844,32.178307830783,2485882.7840104,-704.30353929403,2569870.8341251,37.378307830783,0,0
44.211984253114,-13.977166290153,32.182738273827,2485882.7840104,-704.30353929403,2569870.8341251,37.382738273827,0,0
44.211984516378,-13.978546847462,32.187168716872,2485882.7840104,-704.30353929403,2569870.8341251,37.387168716872,0,0
44.211984779643,-13.979927404771,32.191599159916,2485882.7840104,-704.30353929403,2569870.8341251,37.391599159916,0,0
44.211985042908,-13.98130796208,32.19602960296,2485882.7840104,-704.30353929403,2569870.8341251,37.39602960296,0,0
44.211985306172,-13.982688519389,32.200460046005,2485882.7840104,-704.30353929403,2569870.8341251,37.400460046005,0,0
44.211985569437,-13.984069076698,32.204890489049,2485882.7840104,-704.30353929403,2569870.8341251,37.404890489049,0,0
44.211985832701,-13.985449634007,32.209320932093,2485882.7840104,-704.30353929403,2569870.8341251,37.409320932093,0,0
44.211986095966,-13.986830191316,32.213751375138,2485882.7840104,-704.30353929403,2569870.8341251,37.413751375138,0,0
44.211986359231,-13.988210748626,32.218181818182,2485882.7840104,-704.30353929403,2569870.8341251,37.418181818182,0,0
44.211986622495,-13.989591305935,32.222612261226,2485882.7840104,-704.30353929403,2569870.8341251,37.422612261226,0,0
44.21198688576,-13.990971863244,32.22704270427,2485882.7840104,-704.30353929403,2569870.8341251,37.42704270427,0,0
44.211987149025,-13.992352420553,32.231473147315,2485882.7840104,-704.30353929403,2569870.8341251,37.431473147315,0,0
44.211987412289,-13.993732977862,32.235903590359,2485882.7840104,-704.30353929403,2569870.8341251,37.435903590359,0,0
44.211987675554,-13.995113535171,32.240334033403,2485882.7840104,-704.30353929403,2569870.8341251,37.440334033403,0,0
44.211987938819,-13.99649409248,32.244764476448,2485882.7840104,-704.30353929403,2569870.8341251,37.444764476448,0,0
44.211988202083,-13.997874649789,32.249194919492,2485882.7840104,-704.30353929403,2569870.8341251,37.449194919492,0,0
44.211988465348,-13.999255207098,32.253625362536,2485882.7840104,-704.30353929403,2569870.8341251,37.453625362536,0,0
44.211988728612,-14.000635764407,32.258055805581,2485882.7840104,-704.30353929403,2569870.8341251,37.458055805581,0,0
44.211988991877,-14.002016321716,32.262486248625,2485882.7840104,-704.30353929403,2569870.8341251,37.462486248625,0,0
44.211989255142,-14.003396879025,32.266916691669,2485882.7840104,-704.30353929403,2569870.8341251,37.466916691669,0,0
44.211989518406,-14.004777436334,32.271347134713,2485882.7840104,-704.30353929403,2569870.8341251,37.471347134713,0,0
44.211989781671,-14.006157993643,32.275777577758,2485882.7840104,-704.30353929403,2569870.8341251,37.475777577758,0,0
44.211990044936,-14.007538550953,32.280208020802,2485882.7840104,-704.30353929403,2569870.8341251,37.480208020802,0,0
44.2119903082,-14.008919108262,32.284638463846,2485882.7840104,-704.30353929403,2569870.8341251,37.484638463846,0,0
44.211990571465,-14.010299665571,32.289068906891,2485882.7840104,-704.30353929403,2569870.8341251,37.489068906891,0,0
44.211990834729,-14.01168022288,32.293499349935,2485882.7840104,-704.30353929403,2569870.8341251,37.493499349935,0,0
44.211991097994,-14.013060780189,32.297929792979,2485882.7840104,-704.30353929403,2569870.8341251,37.497929792979,0,0
44.211991361259,-14.014441337498,32.302360236024,2485882.7840104,-704.30353929403,2569870.8341251,37.502360236024,0,0
44.211991624523,-14.015821894807,32.306790679068,2485882.7840104,-704.30353929403,2569870.8341251,37.506790679068,0,0
44.211991887788,-14.017202452116,32.311221122112,2485882.7840104,-704.30353929403,2569870.8341251,37.511221122112,0,0
44.211992151053,-14.018583009425,32.315651565157,2485882.7840104,-704.30353929403,2569870.8341251,37.515651565157,0,0
44.211992414317,-14.019963566734,32.320082008201,2485882.7840104,-704.30353929403,2569870.8341251,37.520082008201,0,0
44.211992677582,-14.021344124043,32.324512451245,2485882.7840104,-704.30353929403,2569870.8341251,37.524512451245,0,0
44.211992940847,-14.022724681352,32.328942894289,2485882.7840104,-704.30353929403,2569870.8341251,37.528942894289,0,0
44.211993204111,-14.024105238661,32.333373337334,2485882.7840104,-704.30353929403,2569870.8341251,37.533373337334,0,0
44.211993467376,-14.02548579597,32.337803780378,2485882.7840104,-704.30353929403,2569870.8341251,37.537803780378,0,0
44.21199373064,-14.026866353279,32.342234223422,2485882.7840104,-704.30353929403,2569870.8341251,37.542234223422,0,0
44.211993993905,-14.028246910589,32.346664666467,2485882.7840104,-704.30353929403,2569870.8341251,37.546664666467,0,0
44.21199425717,-14.029627467898,32.351095109511,2485882.7840104,-704.30353929403,2569870.8341251,37.551095109511,0,0
44.211994520434,-14.031008025207,32.355525552555,2485882.7840104,-704.30353929403,2569870.8341251,37.555525552555,0,0
44.211994783699,-14.032388582516,32.3599559956,2485882.7840104,-704.30353929403,2569870.8341251,37.5599559956,0,0
44.211995046964,-14.033769139825,32.364386438644,2485882.7840104,-704.30353929403,2569870.8341251,37.564386438644,0,0
44.211995310228,-14.035149697134,32.368816881688,2485882.7840104,-704.30353929403,2569870.8341251,37.568816881688,0,0
44.211995573493,-14.036530254443,32.373247324732,2485882.7840104,-704.30353929403,2569870.8341251,37.573247324732,0,0
44.211995836758,-14.037910811752,32.377677767777,2485882.7840104,-704.30353929403,2569870.8341251,37.577677767777,0,0
44.211996100022,-14.039291369061,32.382108210821,2485882.7840104,-704.30353929403,2569870.8341251,37.582108210821,0,0
44.211996363287,-14.04067192637,32.386538653865,2485882.7840104,-704.30353929403,2569870.8341251,37.586538653865,0,0
44.211996626551,-14.042052483679,32.39096909691,2485882.7840104,-704.30353929403,2569870.8341251,37.59096909691,0,0
44.211996889816,-14.043433040988,32.395399539954,2485882.7840104,-704.30353929403,2569870.8341251,37.595399539954,0,0
44.211997153081,-14.044813598297,32.399829982998,2485882.7840104,-704.30353929403,2569870.8341251,37.599829982998,0,0
44.211997416345,-14.046194155606,32.404260426043,2485882.7840104,-704.30353929403,2569870.8341251,37.604260426043,0,0
44.21199767961,-14.047574712916,32.408690869087,2485882.7840104,-704.30353929403,2569870.8341251,37.608690869087,0,0
44.211997942875,-14.048955270225,32.413121312131,2485882.7840104,-704.30353929403,2569870.8341251,37.613121312131,0,0
44.211998206139,-14.050335827534,32.417551755176,2485882.7840104,-704.30353929403,2569870.8341251,37.617551755176,0,0
44.211998469404,-14.051716384843,32.42198219822,2485882.7840104,-704.30353929403,2569870.8341251,37.62198219822,0,0
44.211998732669,-14.053096942152,32.426412641264,2485882.7840104,-704.30353929403,2569870.8341251,37.626412641264,0,0
44.211998995933,-14.054477499461,32.430843084308,2485882.7840104,-704.30353929403,2569870.8341251,37.630843084308,0,0
44.211999259198,-14.05585805677,32.435273527353,2485882.7840104,-704.30353929403,2569870.8341251,37.635273527353,0,0
44.211999522462,-14.057238614079,32.439703970397,2485882.7840104,-704.30353929403,2569870.8341251,37.639703970397,0,0
44.211999785727,-14.058619171388,32.444134413441,2485882.7840104,-704.30353929403,2569870.8341251,37.644134413441,0,0
44.212000048992,-14.059999728697,32.448564856486,2485882.7840104,-704.30353929403,2569870.8341251,37.648564856486,0,0
44.212000312256,-14.061380286006,32.45299529953,2485882.7840104,-704.30353929403,2569870.8341251,37.65299529953,0,0
44.212000575521,-14.062760843315,32.457425742574,2485882.7840104,-704.30353929403,2569870.8341251,37.657425742574,0,0
44.212000838786,-14.064141400624,32.461856185619,2485882.7840104,-704.30353929403,2569870.8341251,37.661856185619,0,0
44.21200110205,-14.065521957933,32.466286628663,2485882.7840104,-704.30353929403,2569870.8341251,37.666286628663,0,0
44.212001365315,-14.066902515243,32.470717071707,2485882.7840104,-704.30353929403,2569870.8341251,37.670717071707,0,0
44.21200162858,-14.068283072552,32.475147514751,2485882.7840104,-704.30353929403,2569870.8341251,37.675147514751,0,0
44.212001891844,-14.069663629861,32.479577957796,2485882.7840104,-704.30353929403,2569870.8341251,37.679577957796,0,0
44.212002155109,-14.07104418717,32.48400840084,2485882.7840104,-704.30353929403,2569870.8341251,37.68400840084,0,0
44.212002418373,-14.072424744479,32.488438843884,2485882.7840104,-704.30353929403,2569870.8341251,37.688438843884,0,0
44.212002681638,-14.073805301788,32.492869286929,2485882.7840104,-704.30353929403,2569870.8341251,37.692869286929,0,0
44.212002944903,-14.075185859097,32.497299729973,2485882.7840104,-704.30353929403,2569870.8341251,37.697299729973,0,0
44.212003208167,-14.076566416406,32.501730173017,2485882.7840104,-704.30353929403,2569870.8341251,37.701730173017,0,0
44.212003471432,-14.077946973715,32.506160616062,2485882.7840104,-704.30353929403,2569870.8341251,37.706160616062,0,0
44.212003734697,-14.079327531024,32.510591059106,2485882.7840104,-704.30353929403,2569870.8341251,37.710591059106,0,0
44.212003997961,-14.080708088333,32.51502150215,2485882.7840104,-704.30353929403,2569870.8341251,37.71502150215,0,0
44.212004261226,-14.082088645642,32.519451945195,2485882.7840104,-704.30353929403,2569870.8341251,37.719451945195,0,0
44.21200452449,-14.083469202951,32.523882388239,2485882.7840104,-704.30353929403,2569870.8341251,37.723882388239,0,0
44.212004787755,-14.08484976026,32.528312831283,2485882.7840104,-704.30353929403,2569870.8341251,37.728312831283,0,0
44.21200505102,-14.08623031757,32.532743274327,2485882.7840104,-704.30353929403,2569870.8341251,37.732743274327,0,0
44.212005314284,-14.087610874879,32.537173717372,2485882.7840104,-704.30353929403,2569870.8341251,37.737173717372,0,0
44.212005577549,-14.088991432188,32.541604160416,2485882.7840104,-704.30353929403,2569870.8341251,37.741604160416,0,0
44.212005840814,-14.090371989497,32.54603460346,2485882.7840104,-704.30353929403,2569870.8341251,37.74603460346,0,0
44.212006104078,-14.091752546806,32.550465046505,2485882.7840104,-704.30353929403,2569870.8341251,37.750465046505,0,0
44.212006367343,-14.093133104115,32.554895489549,2485882.7840104,-704.30353929403,2569870.8341251,37.754895489549,0,0
44.212006630608,-14.094513661424,32.559325932593,2485882.7840104,-704.30353929403,2569870.8341251,37.759325932593,0,0
44.212006893872,-14.095894218733,32.563756375638,2485882.7840104,-704.30353929403,2569870.8341251,37.763756375638,0,0
44.212007157137,-14.097274776042,32.568186818682,2485882.7840104,-704.30353929403,2569870.8341251,37.768186818682,0,0
44.212007420401,-14.098655333351,32.572617261726,2485882.7840104,-704.30353929403,2569870.8341251,37.772617261726,0,0
44.212007683666,-14.10003589066,32.57704770477,2485882.7840104,-704.30353929403,2569870.8341251,37.77704770477,0,0
44.212007946931,-14.101416447969,32.581478147815,2485882.7840104,-704.30353929403,2569870.8341251,37.781478147815,0,0
44.212008210195,-14.102797005278,32.585908590859,2485882.7840104,-704.30353929403,2569870.8341251,37.785908590859,0,0
44.21200847346,-14.104177562587,32.590339033903,2485882.7840104,-704.30353929403,2569870.8341251,37.790339033903,0,0
44.212008736725,-14.105558119896,32.594769476948,2485882.7840104,-704.30353929403,2569870.8341251,37.794769476948,0,0
44.212008999989,-14.106938677206,32.599199919992,2485882.7840104,-704.30353929403,2569870.8341251,37.799199919992,0,0
44.212009263254,-14.108319234515,32.603630363036,2485882.7840104,-704.30353929403,2569870.8341251,37.803630363036,0,0
44.212009526519,-14.109699791824,32.608060806081,2485882.7840104,-704.30353929403,2569870.8341251,37.808060806081,0,0
44.212009789783,-14.111080349133,32.612491249125,2485882.7840104,-704.30353929403,2569870.8341251,37.812491249125,0,0
44.212010053048,-14.112460906442,32.616921692169,2485882.7840104,-704.30353929403,2569870.8341251,37.816921692169,0,0
44.212010316312,-14.113841463751,32.621352135214,2485882.7840104,-704.30353929403,2569870.8341251,37.821352135214,0,0
44.212010579577,-14.11522202106,32.625782578258,2485882.7840104,-704.30353929403,2569870.8341251,37.825782578258,0,0
44.212010842842,-14.116602578369,32.630213021302,2485882.7840104,-704.30353929403,2569870.8341251,37.830213021302,0,0
44.212011106106,-14.117983135678,32.634643464346,2485882.7840104,-704.30353929403,2569870.8341251,37.834643464346,0,0
44.212011369371,-14.119363692987,32.639073907391,2485882.7840104,-704.30353929403,2569870.8341251,37.839073907391,0,0
44.212011632636,-14.120744250296,32.643504350435,2485882.7840104,-704.30353929403,2569870.8341251,37.843504350435,0,0
44.2120118959,-14.122124807605,32.647934793479,2485882.7840104,-704.30353929403,2569870.8341251,37.847934793479,0,0
44.212012159165,-14.123505364914,32.652365236524,2485882.7840104,-704.30353929403,2569870.8341251,37.852365236524,0,0
44.212012422429,-14.124885922223,32.656795679568,2485882.7840104,-704.30353929403,2569870.8341251,37.856795679568,0,0
44.212012685694,-14.126266479533,32.661226122612,2485882.7840104,-704.30353929403,2569870.8341251,37.861226122612,0,0
44.212012948959,-14.127647036842,32.665656565657,2485882.7840104,-704.30353929403,2569870.8341251,37.865656565657,0,0
44.212013212223,-14.129027594151,32.670087008701,2485882.7840104,-704.30353929403,2569870.8341251,37.870087008701,0,0
44.212013475488,-14.13040815146,32.674517451745,2485882.7840104,-704.30353929403,2569870.8341251,37.874517451745,0,0
44.212013738753,-14.131788708769,32.678947894789,2485882.7840104,-704.30353929403,2569870.8341251,37.878947894789,0,0
44.212014002017,-14.133169266078,32.683378337834,2485882.7840104,-704.30353929403,2569870.8341251,37.883378337834,0,0
44.212014265282,-14.134549823387,32.687808780878,2485882.7840104,-704.30353929403,2569870.8341251,37.887808780878,0,0
44.212014528547,-14.135930380696,32.692239223922,2485882.7840104,-704.30353929403,2569870.8341251,37.892239223922,0,0
44.212014791811,-14.137310938005,32.696669666967,2485882.7840104,-704.30353929403,2569870.8341251,37.896669666967,0,0
44.212015055076,-14.138691495314,32.701100110011,2485882.7840104,-704.30353929403,2569870.8341251,37.901100110011,0,0
44.21201531834,-14.140072052623,32.705530553055,2485882.7840104,-704.30353929403,2569870.8341251,37.905530553055,0,0
44.212015581605,-14.141452609932,32.7099609961,2485882.7840104,-704.30353929403,2569870.8341251,37.9099609961,0,0
44.21201584487,-14.142833167241,32.714391439144,2485882.7840104,-704.30353929403,2569870.8341251,37.914391439144,0,0
44.212016108134,-14.14421372455,32.718821882188,2485882.7840104,-704.30353929403,2569870.8341251,37.918821882188,0,0
44.212016371399,-14.14559428186,32.723252325233,2485882.7840104,-704.30353929403,2569870.8341251,37.923252325233,0,0
44.212016634664,-14.146974839169,32.727682768277,2485882.7840104,-704.30353929403,2569870.8341251,37.927682768277,0,0
44.212016897928,-14.148355396478,32.732113211321,2485882.7840104,-704.30353929403,2569870.8341251,37.932113211321,0,0
44.212017161193,-14.149735953787,32.736543654365,2485882.7840104,-704.30353929403,2569870.8341251,37.936543654365,0,0
44.212017424458,-14.151116511096,32.74097409741,2485882.7840104,-704.30353929403,2569870.8341251,37.94097409741,0,0
44.212017687722,-14.152497068405,32.745404540454,2485882.7840104,-704.30353929403,2569870.8341251,37.945404540454,0,0
44.212017950987,-14.153877625714,32.749834983498,2485882.7840104,-704.30353929403,2569870.8341251,37.949834983498,0,0
44.212018214251,-14.155258183023,32.754265426543,2485882.7840104,-704.30353929403,2569870.8341251,37.954265426543,0,0
44.212018477516,-14.156638740332,32.758695869587,2485882.7840104,-704.30353929403,2569870.8341251,37.958695869587,0,0
44.212018740781,-14.158019297641,32.763126312631,2485882.7840104,-704.30353929403,2569870.8341251,37.963126312631,0,0
44.212019004045,-14.15939985495,32.767556755676,2485882.7840104,-704.30353929403,2569870.8341251,37.967556755676,0,0
44.21201926731,-14.160780412259,32.77198719872,2485882.7840104,-704.30353929403,2569870.8341251,37.97198719872,0,0
44.212019530575,-14.162160969568,32.776417641764,2485882.7840104,-704.30353929403,2569870.8341251,37.976417641764,0,0
44.212019793839,-14.163541526877,32.780848084808,2485882.7840104,-704.30353929403,2569870.8341251,37.980848084808,0,0
44.212020057104,-14.164922084186,32.785278527853,2485882.7840104,-704.30353929403,2569870.8341251,37.985278527853,0,0
44.212020320369,-14.166302641496,32.789708970897,2485882.7840104,-704.30353929403,2569870.8341251,37.989708970897,0,0
44.212020583633,-14.167683198805,32.794139413941,2485882.7840104,-704.30353929403,2569870.8341251,37.994139413941,0,0
44.212020846898,-14.169063756114,32.798569856986,2485882.7840104,-704.30353929403,2569870.8341251,37.998569856986,0,0
44.212021110162,-14.170444313423,32.80300030003,2485882.7840104,-704.30353929403,2569870.8341251,38.00300030003,0,0
44.212021373427,-14.171824870732,32.807430743074,2485882.7840104,-704.30353929403,2569870.8341251,38.007430743074,0,0
44.212021636692,-14.173205428041,32.811861186119,2485882.7840104,-704.30353929403,2569870.8341251,38.011861186119,0,0
44.212021899956,-14.17458598535,32.816291629163,2485882.7840104,-704.30353929403,2569870.8341251,38.016291629163,0,0
44.212022163221,-14.175966542659,32.820722072207,2485882.7840104,-704.30353929403,2569870.8341251,38.020722072207,0,0
44.212022426486,-14.177347099968,32.825152515252,2485882.7840104,-704.30353929403,2569870.8341251,38.025152515252,0,0
44.21202268975,-14.178727657277,32.829582958296,2485882.7840104,-704.30353929403,2569870.8341251,38.029582958296,0,0
44.212022953015,-14.180108214586,32.83401340134,2485882.7840104,-704.30353929403,2569870.8341251,38.03401340134,0,0
44.212023216279,-14.181488771895,32.838443844384,2485882.7840104,-704.30353929403,2569870.8341251,38.038443844384,0,0
44.212023479544,-14.182869329204,32.842874287429,2485882.7840104,-704.30353929403,2569870.8341251,38.042874287429,0,0
44.212023742809,-14.184249886513,32.847304730473,2485882.7840104,-704.30353929403,2569870.8341251,38.047304730473,0,0
44.212024006073,-14.185630443823,32.851735173517,2485882.7840104,-704.30353929403,2569870.8341251,38.051735173517,0,0
44.212024269338,-14.187011001132,32.856165616562,2485882.7840104,-704.30353929403,2569870.8341251,38.056165616562,0,0
44.212024532603,-14.188391558441,32.860596059606,2485882.7840104,-704.30353929403,2569870.8341251,38.060596059606,0,0
44.212024795867,-14.18977211575,32.86502650265,2485882.7840104,-704.30353929403,2569870.8341251,38.06502650265,0,0
44.212025059132,-14.191152673059,32.869456945695,2485882.7840104,-704.30353929403,2569870.8341251,38.069456945695,0,0
44.212025322397,-14.192533230368,32.873887388739,2485882.7840104,-704.30353929403,2569870.8341251,38.073887388739,0,0
44.212025585661,-14.193913787677,32.878317831783,2485882.7840104,-704.30353929403,2569870.8341251,38.078317831783,0,0
44.212025848926,-14.195294344986,32.882748274827,2485882.7840104,-704.30353929403,2569870.8341251,38.082748274827,0,0
44.21202611219,-14.196674902295,32.887178717872,2485882.7840104,-704.30353929403,2569870.8341251,38.087178717872,0,0
44.212026375455,-14.198055459604,32.891609160916,2485882.7840104,-704.30353929403,2569870.8341251,38.091609160916,0,0
44.21202663872,-14.199436016913,32.89603960396,2485882.7840104,-704.30353929403,2569870.8341251,38.09603960396,0,0
44.212026901984,-14.200816574222,32.900470047005,2485882.7840104,-704.30353929403,2569870.8341251,38.100470047005,0,0
44.212027165249,-14.202197131531,32.904900490049,2485882.7840104,-704.30353929403,2569870.8341251,38.104900490049,0,0
44.212027428514,-14.20357768884,32.909330933093,2485882.7840104,-704.30353929403,2569870.8341251,38.109330933093,0,0
44.212027691778,-14.20495824615,32.913761376138,2485882.7840104,-704.30353929403,2569870.8341251,38.113761376138,0,0
44.212027955043,-14.206338803459,32.918191819182,2485882.7840104,-704.30353929403,2569870.8341251,38.118191819182,0,0
44.212028218308,-14.207719360768,32.922622262226,2485882.7840104,-704.30353929403,2569870.8341251,38.122622262226,0,0
44.212028481572,-14.209099918077,32.927052705271,2485882.7840104,-704.30353929403,2569870.8341251,38.127052705271,0,0
44.212028744837,-14.210480475386,32.931483148315,2485882.7840104,-704.30353929403,2569870.8341251,38.131483148315,0,0
44.212029008101,-14.211861032695,32.935913591359,2485882.7840104,-704.30353929403,2569870.8341251,38.135913591359,0,0
44.212029271366,-14.213241590004,32.940344034403,2485882.7840104,-704.30353929403,2569870.8341251,38.140344034403,0,0
44.212029534631,-14.214622147313,32.944774477448,2485882.7840104,-704.30353929403,2569870.8341251,38.144774477448,0,0
44.212029797895,-14.216002704622,32.949204920492,2485882.7840104,-704.30353929403,2569870.8341251,38.149204920492,0,0
44.21203006116,-14.217383261931,32.953635363536,2485882.7840104,-704.30353929403,2569870.8341251,38.153635363536,0,0
44.212030324425,-14.21876381924,32.958065806581,2485882.7840104,-704.30353929403,2569870.8341251,38.158065806581,0,0
44.212030587689,-14.220144376549,32.962496249625,2485882.7840104,-704.30353929403,2569870.8341251,38.162496249625,0,0
44.212030850954,-14.221524933858,32.966926692669,2485882.7840104,-704.30353929403,2569870.8341251,38.166926692669,0,0
44.212031114219,-14.222905491167,32.971357135714,2485882.7840104,-704.30353929403,2569870.8341251,38.171357135714,0,0
44.212031377483,-14.224286048477,32.975787578758,2485882.7840104,-704.30353929403,2569870.8341251,38.175787578758,0,0
44.212031640748,-14.225666605786,32.980218021802,2485882.7840104,-704.30353929403,2569870.8341251,38.180218021802,0,0
44.212031904012,-14.227047163095,32.984648464846,2485882.7840104,-704.30353929403,2569870.8341251,38.184648464846,0,0
44.212032167277,-14.228427720404,32.989078907891,2485882.7840104,-704.30353929403,2569870.8341251,38.189078907891,0,0
44.212032430542,-14.229808277713,32.993509350935,2485882.7840104,-704.30353929403,2569870.8341251,38.193509350935,0,0
44.212032693806,-14.231188835022,32.997939793979,2485882.7840104,-704.30353929403,2569870.8341251,38.197939793979,0,0
44.212032957071,-14.232569392331,33.002370237024,2485882.7840104,-704.30353929403,2569870.8341251,38.202370237024,0,0
44.212033220336,-14.23394994964,33.006800680068,2485882.7840104,-704.30353929403,2569870.8341251,38.206800680068,0,0
44.2120334836,-14.235330506949,33.011231123112,2485882.7840104,-704.30353929403,2569870.8341251,38.211231123112,0,0
44.212033746865,-14.236711064258,33.015661566157,2485882.7840104,-704.30353929403,2569870.8341251,38.215661566157,0,0
44.212034010129,-14.238091621567,33.020092009201,2485882.7840104,-704.30353929403,2569870.8341251,38.220092009201,0,0
44.212034273394,-14.239472178876,33.024522452245,2485882.7840104,-704.30353929403,2569870.8341251,38.224522452245,0,0
44.212034536659,-14.240852736185,33.02895289529,2485882.7840104,-704.30353929403,2569870.8341251,38.22895289529,0,0
44.212034799923,-14.242233293494,33.033383338334,2485882.7840104,-704.30353929403,2569870.8341251,38.233383338334,0,0
44.212035063188,-14.243613850803,33.037813781378,2485882.7840104,-704.30353929403,2569870.8341251,38.237813781378,0,0
44.212035326453,-14.244994408113,33.042244224422,2485882.7840104,-704.30353929403,2569870.8341251,38.242244224422,0,0
44.212035589717,-14.246374965422,33.046674667467,2485882.7840104,-704.30353929403,2569870.8341251,38.246674667467,0,0
44.212035852982,-14.247755522731,33.051105110511,2485882.7840104,-704.30353929403,2569870.8341251,38.251105110511,0,0
44.212036116247,-14.24913608004,33.055535553555,2485882.7840104,-704.30353929403,2569870.8341251,38.255535553555,0,0
44.212036379511,-14.250516637349,33.0599659966,2485882.7840104,-704.30353929403,2569870.8341251,38.2599659966,0,0
44.212036642776,-14.251897194658,33.064396439644,2485882.7840104,-704.30353929403,2569870.8341251,38.264396439644,0,0
44.21203690604,-14.253277751967,33.068826882688,2485882.7840104,-704.30353929403,2569870.8341251,38.268826882688,0,0
44.212037169305,-14.254658309276,33.073257325733,2485882.7840104,-704.30353929403,2569870.8341251,38.273257325733,0,0
44.21203743257,-14.256038866585,33.077687768777,2485882.7840104,-704.30353929403,2569870.8341251,38.277687768777,0,0
44.212037695834,-14.257419423894,33.082118211821,2485882.7840104,-704.30353929403,2569870.8341251,38.282118211821,0,0
44.212037959099,-14.258799981203,33.086548654865,2485882.7840104,-704.30353929403,2569870.8341251,38.286548654865,0,0
44.212038222364,-14.260180538512,33.09097909791,2485882.7840104,-704.30353929403,2569870.8341251,38.29097909791,0,0
44.212038485628,-14.261561095821,33.095409540954,2485882.7840104,-704.30353929403,2569870.8341251,38.295409540954,0,0
44.212038748893,-14.26294165313,33.099839983998,2485882.7840104,-704.30353929403,2569870.8341251,38.299839983998,0,0
44.212039012158,-14.26432221044,33.104270427043,2485882.7840104,-704.30353929403,2569870.8341251,38.304270427043,0,0
44.212039275422,-14.265702767749,33.108700870087,2485882.7840104,-704.30353929403,2569870.8341251,38.308700870087,0,0
44.212039538687,-14.267083325058,33.113131313131,2485882.7840104,-704.30353929403,2569870.8341251,38.313131313131,0,0
44.212039801951,-14.268463882367,33.117561756176,2485882.7840104,-704.30353929403,2569870.8341251,38.317561756176,0,0
44.212040065216,-14.269844439676,33.12199219922,2485882.7840104,-704.30353929403,2569870.8341251,38.32199219922,0,0
44.212040328481,-14.271224996985,33.126422642264,2485882.7840104,-704.30353929403,2569870.8341251,38.326422642264,0,0
44.212040591745,-14.272605554294,33.130853085309,2485882.7840104,-704.30353929403,2569870.8341251,38.330853085309,0,0
44.21204085501,-14.273986111603,33.135283528353,2485882.7840104,-704.30353929403,2569870.8341251,38.335283528353,0,0
44.212041118275,-14.275366668912,33.139713971397,2485882.7840104,-704.30353929403,2569870.8341251,38.339713971397,0,0
44.212041381539,-14.276747226221,33.144144414441,2485882.7840104,-704.30353929403,2569870.8341251,38.344144414441,0,0
44.212041644804,-14.27812778353,33.148574857486,2485882.7840104,-704.30353929403,2569870.8341251,38.348574857486,0,0
44.212041908069,-14.279508340839,33.15300530053,2485882.7840104,-704.30353929403,2569870.8341251,38.35300530053,0,0
44.212042171333,-14.280888898148,33.157435743574,2485882.7840104,-704.30353929403,2569870.8341251,38.357435743574,0,0
44.212042434598,-14.282269455457,33.161866186619,2485882.7840104,-704.30353929403,2569870.8341251,38.361866186619,0,0
44.212042697862,-14.283650012767,33.166296629663,2485882.7840104,-704.30353929403,2569870.8341251,38.366296629663,0,0
44.212042961127,-14.285030570076,33.170727072707,2485882.7840104,-704.30353929403,2569870.8341251,38.370727072707,0,0
44.212043224392,-14.286411127385,33.175157515752,2485882.7840104,-704.30353929403,2569870.8341251,38.375157515752,0,0
44.212043487656,-14.287791684694,33.179587958796,2485882.7840104,-704.30353929403,2569870.8341251,38.379587958796,0,0
44.212043750921,-14.289172242003,33.18401840184,2485882.7840104,-704.30353929403,2569870.8341251,38.38401840184,0,0
44.212044014186,-14.290552799312,33.188448844884,2485882.7840104,-704.30353929403,2569870.8341251,38.388448844884,0,0
44.21204427745,-14.291933356621,33.192879287929,2485882.7840104,-704.30353929403,2569870.8341251,38.392879287929,0,0
44.212044540715,-14.29331391393,33.197309730973,2485882.7840104,-704.30353929403,2569870.8341251,38.397309730973,0,0
44.212044803979,-14.294694471239,33.201740174017,2485882.7840104,-704.30353929403,2569870.8341251,38.401740174017,0,0
44.212045067244,-14.296075028548,33.206170617062,2485882.7840104,-704.30353929403,2569870.8341251,38.406170617062,0,0
44.212045330509,-14.297455585857,33.210601060106,2485882.7840104,-704.30353929403,2569870.8341251,38.410601060106,0,0
44.212045593773,-14.298836143166,33.21503150315,2485882.7840104,-704.30353929403,2569870.8341251,38.41503150315,0,0
44.212045857038,-14.300216700475,33.219461946195,2485882.7840104,-704.30353929403,2569870.8341251,38.419461946195,0,0
44.212046120303,-14.301597257784,33.223892389239,2485882.7840104,-704.30353929403,2569870.8341251,38.423892389239,0,0
44.212046383567,-14.302977815094,33.228322832283,2485882.7840104,-704.30353929403,2569870.8341251,38.428322832283,0,0
44.212046646832,-14.304358372403,33.232753275328,2485882.7840104,-704.30353929403,2569870.8341251,38.432753275328,0,0
44.212046910097,-14.305738929712,33.237183718372,2485882.7840104,-704.30353929403,2569870.8341251,38.437183718372,0,0
44.212047173361,-14.307119487021,33.241614161416,2485882.7840104,-704.30353929403,2569870.8341251,38.441614161416,0,0
44.212047436626,-14.30850004433,33.24604460446,2485882.7840104,-704.30353929403,2569870.8341251,38.44604460446,0,0
44.21204769989,-14.309880601639,33.250475047505,2485882.7840104,-704.30353929403,2569870.8341251,38.450475047505,0,0
44.212047963155,-14.311261158948,33.254905490549,2485882.7840104,-704.30353929403,2569870.8341251,38.454905490549,0,0
44.21204822642,-14.312641716257,33.259335933593,2485882.7840104,-704.30353929403,2569870.8341251,38.459335933593,0,0
44.212048489684,-14.314022273566,33.263766376638,2485882.7840104,-704.30353929403,2569870.8341251,38.463766376638,0,0
44.212048752949,-14.315402830875,33.268196819682,2485882.7840104,-704.30353929403,2569870.8341251,38.468196819682,0,0
44.212049016214,-14.316783388184,33.272627262726,2485882.7840104,-704.30353929403,2569870.8341251,38.472627262726,0,0
44.212049279478,-14.318163945493,33.277057705771,2485882.7840104,-704.30353929403,2569870.8341251,38.477057705771,0,0
44.212049542743,-14.319544502802,33.281488148815,2485882.7840104,-704.30353929403,2569870.8341251,38.481488148815,0,0
44.212049806008,-14.320925060111,33.285918591859,2485882.7840104,-704.30353929403,2569870.8341251,38.485918591859,0,0
44.212050069272,-14.32230561742,33.290349034903,2485882.7840104,-704.30353929403,2569870.8341251,38.490349034903,0,0
44.212050332537,-14.32368617473,33.294779477948,2485882.7840104,-704.30353929403,2569870.8341251,38.494779477948,0,0
44.212050595801,-14.325066732039,33.299209920992,2485882.7840104,-704.30353929403,2569870.8341251,38.499209920992,0,0
44.212050859066,-14.326447289348,33.303640364036,2485882.7840104,-704.30353929403,2569870.8341251,38.503640364036,0,0
44.212051122331,-14.327827846657,33.308070807081,2485882.7840104,-704.30353929403,2569870.8341251,38.508070807081,0,0
44.212051385595,-14.329208403966,33.312501250125,2485882.7840104,-704.30353929403,2569870.8341251,38.512501250125,0,0
44.21205164886,-14.330588961275,33.316931693169,2485882.7840104,-704.30353929403,2569870.8341251,38.516931693169,0,0
44.212051912125,-14.331969518584,33.321362136214,2485882.7840104,-704.30353929403,2569870.8341251,38.521362136214,0,0
44.212052175389,-14.333350075893,33.325792579258,2485882.7840104,-704.30353929403,2569870.8341251,38.525792579258,0,0
44.212052438654,-14.334730633202,33.330223022302,2485882.7840104,-704.30353929403,2569870.8341251,38.530223022302,0,0
44.212052701919,-14.336111190511,33.334653465347,2485882.7840104,-704.30353929403,2569870.8341251,38.534653465347,0,0
44.212052965183,-14.33749174782,33.339083908391,2485882.7840104,-704.30353929403,2569870.8341251,38.539083908391,0,0
44.212053228448,-14.338872305129,33.343514351435,2485882.7840104,-704.30353929403,2569870.8341251,38.543514351435,0,0
44.212053491712,-14.340252862438,33.347944794479,2485882.7840104,-704.30353929403,2569870.8341251,38.547944794479,0,0
44.212053754977,-14.341633419747,33.352375237524,2485882.7840104,-704.30353929403,2569870.8341251,38.552375237524,0,0
44.212054018242,-14.343013977057,33.356805680568,2485882.7840104,-704.30353929403,2569870.8341251,38.556805680568,0,0
44.212054281506,-14.344394534366,33.361236123612,2485882.7840104,-704.30353929403,2569870.8341251,38.561236123612,0,0
44.212054544771,-14.345775091675,33.365666566657,2485882.7840104,-704.30353929403,2569870.8341251,38.565666566657,0,0
44.212054808036,-14.347155648984,33.370097009701,2485882.7840104,-704.30353929403,2569870.8341251,38.570097009701,0,0
44.2120550713,-14.348536206293,33.374527452745,2485882.7840104,-704.30353929403,2569870.8341251,38.574527452745,0,0
44.212055334565,-14.349916763602,33.37895789579,2485882.7840104,-704.30353929403,2569870.8341251,38.57895789579,0,0
44.21205559783,-14.351297320911,33.383388338834,2485882.7840104,-704.30353929403,2569870.8341251,38.583388338834,0,0
44.212055861094,-14.35267787822,33.387818781878,2485882.7840104,-704.30353929403,2569870.8341251,38.587818781878,0,0
44.212056124359,-14.354058435529,33.392249224922,2485882.7840104,-704.30353929403,2569870.8341251,38.592249224922,0,0
44.212056387623,-14.355438992838,33.396679667967,2485882.7840104,-704.30353929403,2569870.8341251,38.596679667967,0,0
44.212056650888,-14.356819550147,33.401110111011,2485882.7840104,-704.30353929403,2569870.8341251,38.601110111011,0,0
44.212056914153,-14.358200107456,33.405540554055,2485882.7840104,-704.30353929403,2569870.8341251,38.605540554055,0,0
44.212057177417,-14.359580664765,33.4099709971,2485882.7840104,-704.30353929403,2569870.8341251,38.6099709971,0,0
44.212057440682,-14.360961222074,33.414401440144,2485882.7840104,-704.30353929403,2569870.8341251,38.614401440144,0,0
44.212057703947,-14.362341779384,33.418831883188,2485882.7840104,-704.30353929403,2569870.8341251,38.618831883188,0,0
44.212057967211,-14.363722336693,33.423262326233,2485882.7840104,-704.30353929403,2569870.8341251,38.623262326233,0,0
44.212058230476,-14.365102894002,33.427692769277,2485882.7840104,-704.30353929403,2569870.8341251,38.627692769277,0,0
44.21205849374,-14.366483451311,33.432123212321,2485882.7840104,-704.30353929403,2569870.8341251,38.632123212321,0,0
44.212058757005,-14.36786400862,33.436553655366,2485882.7840104,-704.30353929403,2569870.8341251,38.636553655366,0,0
44.21205902027,-14.369244565929,33.44098409841,2485882.7840104,-704.30353929403,2569870.8341251,38.64098409841,0,0
44.212059283534,-14.370625123238,33.445414541454,2485882.7840104,-704.30353929403,2569870.8341251,38.645414541454,0,0
44.212059546799,-14.372005680547,33.449844984498,2485882.7840104,-704.30353929403,2569870.8341251,38.649844984498,0,0
44.212059810064,-14.373386237856,33.454275427543,2485882.7840104,-704.30353929403,2569870.8341251,38.654275427543,0,0
44.212060073328,-14.374766795165,33.458705870587,2485882.7840104,-704.30353929403,2569870.8341251,38.658705870587,0,0
44.212060336593,-14.376147352474,33.463136313631,2485882.7840104,-704.30353929403,2569870.8341251,38.663136313631,0,0
44.212060599858,-14.377527909783,33.467566756676,2485882.7840104,-704.30353929403,2569870.8341251,38.667566756676,0,0
44.212060863122,-14.378908467092,33.47199719972,2485882.7840104,-704.30353929403,2569870.8341251,38.67199719972,0,0
44.212061126387,-14.380289024401,33.476427642764,2485882.7840104,-704.30353929403,2569870.8341251,38.676427642764,0,0
44.212061389651,-14.38166958171,33.480858085809,2485882.7840104,-704.30353929403,2569870.8341251,38.680858085809,0,0
44.212061652916,-14.38305013902,33.485288528853,2485882.7840104,-704.30353929403,2569870.8341251,38.685288528853,0,0
44.212061916181,-14.384430696329,33.489718971897,2485882.7840104,-704.30353929403,2569870.8341251,38.689718971897,0,0
44.212062179445,-14.385811253638,33.494149414941,2485882.7840104,-704.30353929403,2569870.8341251,38.694149414941,0,0
44.21206244271,-14.387191810947,33.498579857986,2485882.7840104,-704.30353929403,2569870.8341251,38.698579857986,0,0
44.212062705975,-14.388572368256,33.50301030103,2485882.7840104,-704.30353929403,2569870.8341251,38.70301030103,0,0
44.212062969239,-14.389952925565,33.507440744074,2485882.7840104,-704.30353929403,2569870.8341251,38.707440744074,0,0
44.212063232504,-14.391333482874,33.511871187119,2485882.7840104,-704.30353929403,2569870.8341251,38.711871187119,0,0
44.212063495769,-14.392714040183,33.516301630163,2485882.7840104,-704.30353929403,2569870.8341251,38.716301630163,0,0
44.212063759033,-14.394094597492,33.520732073207,2485882.7840104,-704.30353929403,2569870.8341251,38.720732073207,0,0
44.212064022298,-14.395475154801,33.525162516252,2485882.7840104,-704.30353929403,2569870.8341251,38.725162516252,0,0
44.212064285562,-14.39685571211,33.529592959296,2485882.7840104,-704.30353929403,2569870.8341251,38.729592959296,0,0
44.212064548827,-14.398236269419,33.53402340234,2485882.7840104,-704.30353929403,2569870.8341251,38.73402340234,0,0
44.212064812092,-14.399616826728,33.538453845385,2485882.7840104,-704.30353929403,2569870.8341251,38.738453845385,0,0
44.212065075356,-14.400997384037,33.542884288429,2485882.7840104,-704.30353929403,2569870.8341251,38.742884288429,0,0
44.212065338621,-14.402377941347,33.547314731473,2485882.7840104,-704.30353929403,2569870.8341251,38.747314731473,0,0
44.212065601886,-14.403758498656,33.551745174517,2485882.7840104,-704.30353929403,2569870.8341251,38.751745174517,0,0
44.21206586515,-14.405139055965,33.556175617562,2485882.7840104,-704.30353929403,2569870.8341251,38.756175617562,0,0
44.212066128415,-14.406519613274,33.560606060606,2485882.7840104,-704.30353929403,2569870.8341251,38.760606060606,0,0
44.212066391679,-14.407900170583,33.56503650365,2485882.7840104,-704.30353929403,2569870.8341251,38.76503650365,0,0
44.212066654944,-14.409280727892,33.569466946695,2485882.7840104,-704.30353929403,2569870.8341251,38.769466946695,0,0
44.212066918209,-14.410661285201,33.573897389739,2485882.7840104,-704.30353929403,2569870.8341251,38.773897389739,0,0
44.212067181473,-14.41204184251,33.578327832783,2485882.7840104,-704.30353929403,2569870.8341251,38.778327832783,0,0
44.212067444738,-14.413422399819,33.582758275828,2485882.7840104,-704.30353929403,2569870.8341251,38.782758275828,0,0
44.212067708003,-14.414802957128,33.587188718872,2485882.7840104,-704.30353929403,2569870.8341251,38.787188718872,0,0
44.212067971267,-14.416183514437,33.591619161916,2485882.7840104,-704.30353929403,2569870.8341251,38.791619161916,0,0
44.212068234532,-14.417564071746,33.59604960496,2485882.7840104,-704.30353929403,2569870.8341251,38.79604960496,0,0
44.212068497797,-14.418944629055,33.600480048005,2485882.7840104,-704.30353929403,2569870.8341251,38.800480048005,0,0
44.212068761061,-14.420325186364,33.604910491049,2485882.7840104,-704.30353929403,2569870.8341251,38.804910491049,0,0
44.212069024326,-14.421705743674,33.609340934093,2485882.7840104,-704.30353929403,2569870.8341251,38.809340934093,0,0
44.21206928759,-14.423086300983,33.613771377138,2485882.7840104,-704.30353929403,2569870.8341251,38.813771377138,0,0
44.212069550855,-14.424466858292,33.618201820182,2485882.7840104,-704.30353929403,2569870.8341251,38.818201820182,0,0
44.21206981412,-14.425847415601,33.622632263226,2485882.7840104,-704.30353929403,2569870.8341251,38.822632263226,0,0
44.212070077384,-14.42722797291,33.627062706271,2485882.7840104,-704.30353929403,2569870.8341251,38.827062706271,0,0
44.212070340649,-14.428608530219,33.631493149315,2485882.7840104,-704.30353929403,2569870.8341251,38.831493149315,0,0
44.212070603914,-14.429989087528,33.635923592359,2485882.7840104,-704.30353929403,2569870.8341251,38.835923592359,0,0
44.212070867178,-14.431369644837,33.640354035404,2485882.7840104,-704.30353929403,2569870.8341251,38.840354035404,0,0
44.212071130443,-14.432750202146,33.644784478448,2485882.7840104,-704.30353929403,2569870.8341251,38.844784478448,0,0
44.212071393708,-14.434130759455,33.649214921492,2485882.7840104,-704.30353929403,2569870.8341251,38.849214921492,0,0
44.212071656972,-14.435511316764,33.653645364536,2485882.7840104,-704.30353929403,2569870.8341251,38.853645364536,0,0
44.212071920237,-14.436891874073,33.658075807581,2485882.7840104,-704.30353929403,2569870.8341251,38.858075807581,0,0
44.212072183501,-14.438272431382,33.662506250625,2485882.7840104,-704.30353929403,2569870.8341251,38.862506250625,0,0
44.212072446766,-14.439652988691,33.666936693669,2485882.7840104,-704.30353929403,2569870.8341251,38.866936693669,0,0
44.212072710058,-14.44103354604,33.671367136714,2487769.0677892,-1408.2594238119,2568222.3910965,38.871367136714,0,0
44.212072973517,-14.442414103626,33.675797579758,2487769.0677892,-1408.2594238119,2568222.3910965,38.875797579758,0,0
44.212073236977,-14.443794661213,33.680228022802,2487769.0677892,-1408.2594238119,2568222.3910965,38.880228022802,0,0
44.212073500436,-14.445175218799,33.684658465847,2487769.0677892,-1408.2594238119,2568222.3910965,38.884658465847,0,0
44.212073763895,-14.446555776386,33.689088908891,2487769.0677892,-1408.2594238119,2568222.3910965,38.889088908891,0,0
44.212074027354,-14.447936333973,33.693519351935,2487769.0677892,-1408.2594238119,2568222.3910965,38.893519351935,0,0
44.212074290813,-14.449316891559,33.697949794979,2487769.0677892,-1408.2594238119,2568222.3910965,38.897949794979,0,0
44.212074554273,-14.450697449146,33.702380238024,2487769.0677892,-1408.2594238119,2568222.3910965,38.902380238024,0,0
44.212074817732,-14.452078006732,33.706810681068,2487769.0677892,-1408.2594238119,2568222.3910965,38.906810681068,0,0
44.212075081191,-14.453458564319,33.711241124112,2487769.0677892,-1408.2594238119,2568222.3910965,38.911241124112,0,0
44.21207534465,-14.454839121905,33.715671567157,2487769.0677892,-1408.2594238119,2568222.3910965,38.915671567157,0,0
44.212075608109,-14.456219679492,33.720102010201,2487769.0677892,-1408.2594238119,2568222.3910965,38.920102010201,0,0
44.212075871569,-14.457600237078,33.724532453245,2487769.0677892,-1408.2594238119,2568222.3910965,38.924532453245,0,0
44.212076135028,-14.458980794665,33.72896289629,2487769.0677892,-1408.2594238119,2568222.3910965,38.92896289629,0,0
44.212076398487,-14.460361352252,33.733393339334,2487769.0677892,-1408.2594238119,2568222.3910965,38.933393339334,0,0
44.212076661946,-14.461741909838,33.737823782378,2487769.0677892,-1408.2594238119,2568222.3910965,38.937823782378,0,0
44.212076925405,-14.463122467425,33.742254225423,2487769.0677892,-1408.2594238119,2568222.3910965,38.942254225423,0,0
44.212077188865,-14.464503025011,33.746684668467,2487769.0677892,-1408.2594238119,2568222.3910965,38.946684668467,0,0
44.212077452324,-14.465883582598,33.751115111511,2487769.0677892,-1408.2594238119,2568222.3910965,38.951115111511,0,0
44.212077715783,-14.467264140184,33.755545554555,2487769.0677892,-1408.2594238119,2568222.3910965,38.955545554555,0,0
44.212077979242,-14.468644697771,33.7599759976,2487769.0677892,-1408.2594238119,2568222.3910965,38.9599759976,0,0
44.212078242701,-14.470025255357,33.764406440644,2487769.0677892,-1408.2594238119,2568222.3910965,38.964406440644,0,0
44.212078506161,-14.471405812944,33.768836883688,2487769.0677892,-1408.2594238119,2568222.3910965,38.968836883688,0,0
44.21207876962,-14.47278637053,33.773267326733,2487769.0677892,-1408.2594238119,2568222.3910965,38.973267326733,0,0
44.212079033079,-14.474166928117,33.777697769777,2487769.0677892,-1408.2594238119,2568222.3910965,38.977697769777,0,0
44.212079296538,-14.475547485704,33.782128212821,2487769.0677892,-1408.2594238119,2568222.3910965,38.982128212821,0,0
44.212079559997,-14.47692804329,33.786558655866,2487769.0677892,-1408.2594238119,2568222.3910965,38.986558655866,0,0
44.212079823457,-14.478308600877,33.79098909891,2487769.0677892,-1408.2594238119,2568222.3910965,38.99098909891,0,0
44.212080086916,-14.479689158463,33.795419541954,2487769.0677892,-1408.2594238119,2568222.3910965,38.995419541954,0,0
44.212080350375,-14.48106971605,33.799849984998,2487769.0677892,-1408.2594238119,2568222.3910965,38.999849984998,0,0
44.212080613834,-14.482450273636,33.804280428043,2487769.0677892,-1408.2594238119,2568222.3910965,39.004280428043,0,0
44.212080877293,-14.483830831223,33.808710871087,2487769.0677892,-1408.2594238119,2568222.3910965,39.008710871087,0,0
44.212081140752,-14.485211388809,33.813141314131,2487769.0677892,-1408.2594238119,2568222.3910965,39.013141314131,0,0
44.212081404212,-14.486591946396,33.817571757176,2487769.0677892,-1408.2594238119,2568222.3910965,39.017571757176,0,0
44.212081667671,-14.487972503983,33.82200220022,2487769.0677892,-1408.2594238119,2568222.3910965,39.02200220022,0,0
44.21208193113,-14.489353061569,33.826432643264,2487769.0677892,-1408.2594238119,2568222.3910965,39.026432643264,0,0
44.212082194589,-14.490733619156,33.830863086309,2487769.0677892,-1408.2594238119,2568222.3910965,39.030863086309,0,0
44.212082458048,-14.492114176742,33.835293529353,2487769.0677892,-1408.2594238119,2568222.3910965,39.035293529353,0,0
44.212082721508,-14.493494734329,33.839723972397,2487769.0677892,-1408.2594238119,2568222.3910965,39.039723972397,0,0
44.212082984967,-14.494875291915,33.844154415442,2487769.0677892,-1408.2594238119,2568222.3910965,39.044154415442,0,0
44.212083248426,-14.496255849502,33.848584858486,2487769.0677892,-1408.2594238119,2568222.3910965,39.048584858486,0,0
44.212083511885,-14.497636407088,33.85301530153,2487769.0677892,-1408.2594238119,2568222.3910965,39.05301530153,0,0
44.212083775344,-14.499016964675,33.857445744574,2487769.0677892,-1408.2594238119,2568222.3910965,39.057445744574,0,0
44.212084038804,-14.500397522262,33.861876187619,2487769.0677892,-1408.2594238119,2568222.3910965,39.061876187619,0,0
44.212084302263,-14.501778079848,33.866306630663,2487769.0677892,-1408.2594238119,2568222.3910965,39.066306630663,0,0
44.212084565722,-14.503158637435,33.870737073707,2487769.0677892,-1408.2594238119,2568222.3910965,39.070737073707,0,0
44.212084829181,-14.504539195021,33.875167516752,2487769.0677892,-1408.2594238119,2568222.3910965,39.075167516752,0,0
44.21208509264,-14.505919752608,33.879597959796,2487769.0677892,-1408.2594238119,2568222.3910965,39.079597959796,0,0
44.2120853561,-14.507300310194,33.88402840284,2487769.0677892,-1408.2594238119,2568222.3910965,39.08402840284,0,0
44.212085619559,-14.508680867781,33.888458845885,2487769.0677892,-1408.2594238119,2568222.3910965,39.088458845885,0,0
44.212085883018,-14.510061425367,33.892889288929,2487769.0677892,-1408.2594238119,2568222.3910965,39.092889288929,0,0
44.212086146477,-14.511441982954,33.897319731973,2487769.0677892,-1408.2594238119,2568222.3910965,39.097319731973,0,0
44.212086409936,-14.51282254054,33.901750175017,2487769.0677892,-1408.2594238119,2568222.3910965,39.101750175018,0,0
44.212086673396,-14.514203098127,33.906180618062,2487769.0677892,-1408.2594238119,2568222.3910965,39.106180618062,0,0
44.212086936855,-14.515583655714,33.910611061106,2487769.0677892,-1408.2594238119,2568222.3910965,39.110611061106,0,0
44.212087200314,-14.5169642133,33.91504150415,2487769.0677892,-1408.2594238119,2568222.3910965,39.11504150415,0,0
44.212087463773,-14.518344770887,33.919471947195,2487769.0677892,-1408.2594238119,2568222.3910965,39.119471947195,0,0
44.212087727232,-14.519725328473,33.923902390239,2487769.0677892,-1408.2594238119,2568222.3910965,39.123902390239,0,0
44.212087990691,-14.52110588606,33.928332833283,2487769.0677892,-1408.2594238119,2568222.3910965,39.128332833283,0,0
44.212088254151,-14.522486443646,33.932763276328,2487769.0677892,-1408.2594238119,2568222.3910965,39.132763276328,0,0
44.21208851761,-14.523867001233,33.937193719372,2487769.0677892,-1408.2594238119,2568222.3910965,39.137193719372,0,0
44.212088781069,-14.525247558819,33.941624162416,2487769.0677892,-1408.2594238119,2568222.3910965,39.141624162416,0,0
44.212089044528,-14.526628116406,33.946054605461,2487769.0677892,-1408.2594238119,2568222.3910965,39.146054605461,0,0
44.212089307987,-14.528008673993,33.950485048505,2487769.0677892,-1408.2594238119,2568222.3910965,39.150485048505,0,0
44.212089571447,-14.529389231579,33.954915491549,2487769.0677892,-1408.2594238119,2568222.3910965,39.154915491549,0,0
44.212089834906,-14.530769789166,33.959345934593,2487769.0677892,-1408.2594238119,2568222.3910965,39.159345934593,0,0
44.212090098365,-14.532150346752,33.963776377638,2487769.0677892,-1408.2594238119,2568222.3910965,39.163776377638,0,0
44.212090361824,-14.533530904339,33.968206820682,2487769.0677892,-1408.2594238119,2568222.3910965,39.168206820682,0,0
44.212090625283,-14.534911461925,33.972637263726,2487769.0677892,-1408.2594238119,2568222.3910965,39.172637263726,0,0
44.212090888743,-14.536292019512,33.977067706771,2487769.0677892,-1408.2594238119,2568222.3910965,39.177067706771,0,0
44.212091152202,-14.537672577098,33.981498149815,2487769.0677892,-1408.2594238119,2568222.3910965,39.181498149815,0,0
44.212091415661,-14.539053134685,33.985928592859,2487769.0677892,-1408.2594238119,2568222.3910965,39.185928592859,0,0
44.21209167912,-14.540433692271,33.990359035904,2487769.0677892,-1408.2594238119,2568222.3910965,39.190359035904,0,0
44.212091942579,-14.541814249858,33.994789478948,2487769.0677892,-1408.2594238119,2568222.3910965,39.194789478948,0,0
44.212092206039,-14.543194807445,33.999219921992,2487769.0677892,-1408.2594238119,2568222.3910965,39.199219921992,0,0
44.212092469498,-14.544575365031,34.003650365036,2487769.0677892,-1408.2594238119,2568222.3910965,39.203650365037,0,0
44.212092732957,-14.545955922618,34.008080808081,2487769.0677892,-1408.2594238119,2568222.3910965,39.208080808081,0,0
44.212092996416,-14.547336480204,34.012511251125,2487769.0677892,-1408.2594238119,2568222.3910965,39.212511251125,0,0
44.212093259875,-14.548717037791,34.016941694169,2487769.0677892,-1408.2594238119,2568222.3910965,39.216941694169,0,0
44.212093523335,-14.550097595377,34.021372137214,2487769.0677892,-1408.2594238119,2568222.3910965,39.221372137214,0,0
44.212093786794,-14.551478152964,34.025802580258,2487769.0677892,-1408.2594238119,2568222.3910965,39.225802580258,0,0
44.212094050253,-14.55285871055,34.030233023302,2487769.0677892,-1408.2594238119,2568222.3910965,39.230233023302,0,0
44.212094313712,-14.554239268137,34.034663466347,2487769.0677892,-1408.2594238119,2568222.3910965,39.234663466347,0,0
44.212094577171,-14.555619825724,34.039093909391,2487769.0677892,-1408.2594238119,2568222.3910965,39.239093909391,0,0
44.21209484063,-14.55700038331,34.043524352435,2487769.0677892,-1408.2594238119,2568222.3910965,39.243524352435,0,0
44.21209510409,-14.558380940897,34.04795479548,2487769.0677892,-1408.2594238119,2568222.3910965,39.24795479548,0,0
44.212095367549,-14.559761498483,34.052385238524,2487769.0677892,-1408.2594238119,2568222.3910965,39.252385238524,0,0
44.212095631008,-14.56114205607,34.056815681568,2487769.0677892,-1408.2594238119,2568222.3910965,39.256815681568,0,0
44.212095894467,-14.562522613656,34.061246124612,2487769.0677892,-1408.2594238119,2568222.3910965,39.261246124612,0,0
44.212096157926,-14.563903171243,34.065676567657,2487769.0677892,-1408.2594238119,2568222.3910965,39.265676567657,0,0
44.212096421386,-14.565283728829,34.070107010701,2487769.0677892,-1408.2594238119,2568222.3910965,39.270107010701,0,0
44.212096684845,-14.566664286416,34.074537453745,2487769.0677892,-1408.2594238119,2568222.3910965,39.274537453745,0,0
44.212096948304,-14.568044844002,34.07896789679,2487769.0677892,-1408.2594238119,2568222.3910965,39.27896789679,0,0
44.212097211763,-14.569425401589,34.083398339834,2487769.0677892,-1408.2594238119,2568222.3910965,39.283398339834,0,0
44.212097475222,-14.570805959176,34.087828782878,2487769.0677892,-1408.2594238119,2568222.3910965,39.287828782878,0,0
44.212097738682,-14.572186516762,34.092259225923,2487769.0677892,-1408.2594238119,2568222.3910965,39.292259225923,0,0
44.212098002141,-14.573567074349,34.096689668967,2487769.0677892,-1408.2594238119,2568222.3910965,39.296689668967,0,0
44.2120982656,-14.574947631935,34.101120112011,2487769.0677892,-1408.2594238119,2568222.3910965,39.301120112011,0,0
44.212098529059,-14.576328189522,34.105550555056,2487769.0677892,-1408.2594238119,2568222.3910965,39.305550555056,0,0
44.212098792518,-14.577708747108,34.1099809981,2487769.0677892,-1408.2594238119,2568222.3910965,39.3099809981,0,0
44.212099055978,-14.579089304695,34.114411441144,2487769.0677892,-1408.2594238119,2568222.3910965,39.314411441144,0,0
44.212099319437,-14.580469862281,34.118841884188,2487769.0677892,-1408.2594238119,2568222.3910965,39.318841884188,0,0
44.212099582896,-14.581850419868,34.123272327233,2487769.0677892,-1408.2594238119,2568222.3910965,39.323272327233,0,0
44.212099846355,-14.583230977455,34.127702770277,2487769.0677892,-1408.2594238119,2568222.3910965,39.327702770277,0,0
44.212100109814,-14.584611535041,34.132133213321,2487769.0677892,-1408.2594238119,2568222.3910965,39.332133213321,0,0
44.212100373274,-14.585992092628,34.136563656366,2487769.0677892,-1408.2594238119,2568222.3910965,39.336563656366,0,0
44.212100636733,-14.587372650214,34.14099409941,2487769.0677892,-1408.2594238119,2568222.3910965,39.34099409941,0,0
44.212100900192,-14.588753207801,34.145424542454,2487769.0677892,-1408.2594238119,2568222.3910965,39.345424542454,0,0
44.212101163651,-14.590133765387,34.149854985499,2487769.0677892,-1408.2594238119,2568222.3910965,39.349854985499,0,0
44.21210142711,-14.591514322974,34.154285428543,2487769.0677892,-1408.2594238119,2568222.3910965,39.354285428543,0,0
44.21210169057,-14.59289488056,34.158715871587,2487769.0677892,-1408.2594238119,2568222.3910965,39.358715871587,0,0
44.212101954029,-14.594275438147,34.163146314631,2487769.0677892,-1408.2594238119,2568222.3910965,39.363146314631,0,0
44.212102217488,-14.595655995734,34.167576757676,2487769.0677892,-1408.2594238119,2568222.3910965,39.367576757676,0,0
44.212102480947,-14.59703655332,34.17200720072,2487769.0677892,-1408.2594238119,2568222.3910965,39.37200720072,0,0
44.212102744406,-14.598417110907,34.176437643764,2487769.0677892,-1408.2594238119,2568222.3910965,39.376437643764,0,0
44.212103007865,-14.599797668493,34.180868086809,2487769.0677892,-1408.2594238119,2568222.3910965,39.380868086809,0,0
44.212103271325,-14.60117822608,34.185298529853,2487769.0677892,-1408.2594238119,2568222.3910965,39.385298529853,0,0
44.212103534784,-14.602558783666,34.189728972897,2487769.0677892,-1408.2594238119,2568222.3910965,39.389728972897,0,0
44.212103798243,-14.603939341253,34.194159415942,2487769.0677892,-1408.2594238119,2568222.3910965,39.394159415942,0,0
44.212104061702,-14.605319898839,34.198589858986,2487769.0677892,-1408.2594238119,2568222.3910965,39.398589858986,0,0
44.212104325161,-14.606700456426,34.20302030203,2487769.0677892,-1408.2594238119,2568222.3910965,39.40302030203,0,0
44.212104588621,-14.608081014012,34.207450745075,2487769.0677892,-1408.2594238119,2568222.3910965,39.407450745075,0,0
44.21210485208,-14.609461571599,34.211881188119,2487769.0677892,-1408.2594238119,2568222.3910965,39.411881188119,0,0
44.212105115539,-14.610842129186,34.216311631163,2487769.0677892,-1408.2594238119,2568222.3910965,39.416311631163,0,0
44.212105378998,-14.612222686772,34.220742074207,2487769.0677892,-1408.2594238119,2568222.3910965,39.420742074207,0,0
44.212105642457,-14.613603244359,34.225172517252,2487769.0677892,-1408.2594238119,2568222.3910965,39.425172517252,0,0
44.212105905917,-14.614983801945,34.229602960296,2487769.0677892,-1408.2594238119,2568222.3910965,39.429602960296,0,0
44.212106169376,-14.616364359532,34.23403340334,2487769.0677892,-1408.2594238119,2568222.3910965,39.43403340334,0,0
44.212106432835,-14.617744917118,34.238463846385,2487769.0677892,-1408.2594238119,2568222.3910965,39.438463846385,0,0
44.212106696294,-14.619125474705,34.242894289429,2487769.0677892,-1408.2594238119,2568222.3910965,39.442894289429,0,0
44.212106959753,-14.620506032291,34.247324732473,2487769.0677892,-1408.2594238119,2568222.3910965,39.447324732473,0,0
44.212107223213,-14.621886589878,34.251755175518,2487769.0677892,-1408.2594238119,2568222.3910965,39.451755175518,0,0
44.212107486748,-14.623267147393,34.256185618562,2491083.8009048,-838.48145180816,2567735.1396622,39.456185618562,0,0
44.212107750485,-14.624647704722,34.260616061606,2491083.8009048,-838.48145180816,2567735.1396622,39.460616061606,0,0
44.212108014222,-14.62602826205,34.26504650465,2491083.8009048,-838.48145180816,2567735.1396622,39.46504650465,0,0
44.212108277959,-14.627408819378,34.269476947695,2491083.8009048,-838.48145180816,2567735.1396622,39.469476947695,0,0
44.212108541696,-14.628789376707,34.273907390739,2491083.8009048,-838.48145180816,2567735.1396622,39.473907390739,0,0
44.212108805433,-14.630169934035,34.278337833783,2491083.8009048,-838.48145180816,2567735.1396622,39.478337833783,0,0
44.21210906917,-14.631550491363,34.282768276828,2491083.8009048,-838.48145180816,2567735.1396622,39.482768276828,0,0
44.212109332907,-14.632931048692,34.287198719872,2491083.8009048,-838.48145180816,2567735.1396622,39.487198719872,0,0
44.212109596644,-14.63431160602,34.291629162916,2491083.8009048,-838.48145180816,2567735.1396622,39.491629162916,0,0
44.212109860381,-14.635692163349,34.296059605961,2491083.8009048,-838.48145180816,2567735.1396622,39.496059605961,0,0
44.212110124118,-14.637072720677,34.300490049005,2491083.8009048,-838.48145180816,2567735.1396622,39.500490049005,0,0
44.212110387855,-14.638453278005,34.304920492049,2491083.8009048,-838.48145180816,2567735.1396622,39.504920492049,0,0
44.212110651592,-14.639833835334,34.309350935094,2491083.8009048,-838.48145180816,2567735.1396622,39.509350935094,0,0
44.212110915329,-14.641214392662,34.313781378138,2491083.8009048,-838.48145180816,2567735.1396622,39.513781378138,0,0
44.212111179066,-14.64259494999,34.318211821182,2491083.8009048,-838.48145180816,2567735.1396622,39.518211821182,0,0
44.212111442802,-14.643975507319,34.322642264226,2491083.8009048,-838.48145180816,2567735.1396622,39.522642264226,0,0
44.212111706539,-14.645356064647,34.327072707271,2491083.8009048,-838.48145180816,2567735.1396622,39.527072707271,0,0
44.212111970276,-14.646736621976,34.331503150315,2491083.8009048,-838.48145180816,2567735.1396622,39.531503150315,0,0
44.212112234013,-14.648117179304,34.335933593359,2491083.8009048,-838.48145180816,2567735.1396622,39.535933593359,0,0
44.21211249775,-14.649497736632,34.340364036404,2491083.8009048,-838.48145180816,2567735.1396622,39.540364036404,0,0
44.212112761487,-14.650878293961,34.344794479448,2491083.8009048,-838.48145180816,2567735.1396622,39.544794479448,0,0
44.212113025224,-14.652258851289,34.349224922492,2491083.8009048,-838.48145180816,2567735.1396622,39.549224922492,0,0
44.212113288961,-14.653639408617,34.353655365537,2491083.8009048,-838.48145180816,2567735.1396622,39.553655365537,0,0
44.212113552698,-14.655019965946,34.358085808581,2491083.8009048,-838.48145180816,2567735.1396622,39.558085808581,0,0
44.212113816435,-14.656400523274,34.362516251625,2491083.8009048,-838.48145180816,2567735.1396622,39.562516251625,0,0
44.212114080172,-14.657781080603,34.366946694669,2491083.8009048,-838.48145180816,2567735.1396622,39.566946694669,0,0
44.212114343909,-14.659161637931,34.371377137714,2491083.8009048,-838.48145180816,2567735.1396622,39.571377137714,0,0
44.212114607646,-14.660542195259,34.375807580758,2491083.8009048,-838.48145180816,2567735.1396622,39.575807580758,0,0
44.212114871383,-14.661922752588,34.380238023802,2491083.8009048,-838.48145180816,2567735.1396622,39.580238023802,0,0
44.21211513512,-14.663303309916,34.384668466847,2491083.8009048,-838.48145180816,2567735.1396622,39.584668466847,0,0
44.212115398856,-14.664683867244,34.389098909891,2491083.8009048,-838.48145180816,2567735.1396622,39.589098909891,0,0
44.212115662593,-14.666064424573,34.393529352935,2491083.8009048,-838.48145180816,2567735.1396622,39.593529352935,0,0
44.21211592633,-14.667444981901,34.39795979598,2491083.8009048,-838.48145180816,2567735.1396622,39.59795979598,0,0
44.212116190067,-14.66882553923,34.402390239024,2491083.8009048,-838.48145180816,2567735.1396622,39.602390239024,0,0
44.212116453804,-14.670206096558,34.406820682068,2491083.8009048,-838.48145180816,2567735.1396622,39.606820682068,0,0
44.212116717541,-14.671586653886,34.411251125113,2491083.8009048,-838.48145180816,2567735.1396622,39.611251125113,0,0
44.212116981278,-14.672967211215,34.415681568157,2491083.8009048,-838.48145180816,2567735.1396622,39.615681568157,0,0
44.212117245015,-14.674347768543,34.420112011201,2491083.8009048,-838.48145180816,2567735.1396622,39.620112011201,0,0
44.212117508752,-14.675728325871,34.424542454245,2491083.8009048,-838.48145180816,2567735.1396622,39.624542454245,0,0
44.212117772489,-14.6771088832,34.42897289729,2491083.8009048,-838.48145180816,2567735.1396622,39.62897289729,0,0
44.212118036226,-14.678489440528,34.433403340334,2491083.8009048,-838.48145180816,2567735.1396622,39.633403340334,0,0
44.212118299963,-14.679869997857,34.437833783378,2491083.8009048,-838.48145180816,2567735.1396622,39.637833783378,0,0
44.2121185637,-14.681250555185,34.442264226423,2491083.8009048,-838.48145180816,2567735.1396622,39.642264226423,0,0
44.212118827437,-14.682631112513,34.446694669467,2491083.8009048,-838.48145180816,2567735.1396622,39.646694669467,0,0
44.212119091174,-14.684011669842,34.451125112511,2491083.8009048,-838.48145180816,2567735.1396622,39.651125112511,0,0
44.21211935491,-14.68539222717,34.455555555556,2491083.8009048,-838.48145180816,2567735.1396622,39.655555555556,0,0
44.212119618647,-14.686772784498,34.4599859986,2491083.8009048,-838.48145180816,2567735.1396622,39.6599859986,0,0
44.212119882384,-14.688153341827,34.464416441644,2491083.8009048,-838.48145180816,2567735.1396622,39.664416441644,0,0
44.212120146121,-14.689533899155,34.468846884688,2491083.8009048,-838.48145180816,2567735.1396622,39.668846884688,0,0
44.212120409858,-14.690914456484,34.473277327733,2491083.8009048,-838.48145180816,2567735.1396622,39.673277327733,0,0
44.212120673595,-14.692295013812,34.477707770777,2491083.8009048,-838.48145180816,2567735.1396622,39.677707770777,0,0
44.212120937332,-14.69367557114,34.482138213821,2491083.8009048,-838.48145180816,2567735.1396622,39.682138213821,0,0
44.212121201069,-14.695056128469,34.486568656866,2491083.8009048,-838.48145180816,2567735.1396622,39.686568656866,0,0
44.212121464806,-14.696436685797,34.49099909991,2491083.8009048,-838.48145180816,2567735.1396622,39.69099909991,0,0
44.212121728543,-14.697817243125,34.495429542954,2491083.8009048,-838.48145180816,2567735.1396622,39.695429542954,0,0
44.21212199228,-14.699197800454,34.499859985999,2491083.8009048,-838.48145180816,2567735.1396622,39.699859985999,0,0
44.212122256017,-14.700578357782,34.504290429043,2491083.8009048,-838.48145180816,2567735.1396622,39.704290429043,0,0
44.212122519754,-14.701958915111,34.508720872087,2491083.8009048,-838.48145180816,2567735.1396622,39.708720872087,0,0
44.212122783491,-14.703339472439,34.513151315132,2491083.8009048,-838.48145180816,2567735.1396622,39.713151315132,0,0
44.212123047227,-14.704720029767,34.517581758176,2491083.8009048,-838.48145180816,2567735.1396622,39.717581758176,0,0
44.212123310964,-14.706100587096,34.52201220122,2491083.8009048,-838.48145180816,2567735.1396622,39.72201220122,0,0
44.212123574701,-14.707481144424,34.526442644264,2491083.8009048,-838.48145180816,2567735.1396622,39.726442644264,0,0
44.212123838438,-14.708861701752,34.530873087309,2491083.8009048,-838.48145180816,2567735.1396622,39.730873087309,0,0
44.212124102175,-14.710242259081,34.535303530353,2491083.8009048,-838.48145180816,2567735.1396622,39.735303530353,0,0
44.212124365912,-14.711622816409,34.539733973397,2491083.8009048,-838.48145180816,2567735.1396622,39.739733973397,0,0
44.212124629649,-14.713003373738,34.544164416442,2491083.8009048,-838.48145180816,2567735.1396622,39.744164416442,0,0
44.212124893386,-14.714383931066,34.548594859486,2491083.8009048,-838.48145180816,2567735.1396622,39.748594859486,0,0
44.212125157123,-14.715764488394,34.55302530253,2491083.8009048,-838.48145180816,2567735.1396622,39.75302530253,0,0
44.21212542086,-14.717145045723,34.557455745575,2491083.8009048,-838.48145180816,2567735.1396622,39.757455745575,0,0
44.212125684597,-14.718525603051,34.561886188619,2491083.8009048,-838.48145180816,2567735.1396622,39.761886188619,0,0
44.212125948334,-14.719906160379,34.566316631663,2491083.8009048,-838.48145180816,2567735.1396622,39.766316631663,0,0
44.212126212071,-14.721286717708,34.570747074707,2491083.8009048,-838.48145180816,2567735.1396622,39.770747074707,0,0
44.212126475808,-14.722667275036,34.575177517752,2491083.8009048,-838.48145180816,2567735.1396622,39.775177517752,0,0
44.212126739545,-14.724047832365,34.579607960796,2491083.8009048,-838.48145180816,2567735.1396622,39.779607960796,0,0
44.212127003281,-14.725428389693,34.58403840384,2491083.8009048,-838.48145180816,2567735.1396622,39.78403840384,0,0
44.212127267018,-14.726808947021,34.588468846885,2491083.8009048,-838.48145180816,2567735.1396622,39.788468846885,0,0
44.212127530755,-14.72818950435,34.592899289929,2491083.8009048,-838.48145180816,2567735.1396622,39.792899289929,0,0
44.212127794492,-14.729570061678,34.597329732973,2491083.8009048,-838.48145180816,2567735.1396622,39.797329732973,0,0
44.212128058229,-14.730950619006,34.601760176018,2491083.8009048,-838.48145180816,2567735.1396622,39.801760176018,0,0
44.212128321966,-14.732331176335,34.606190619062,2491083.8009048,-838.48145180816,2567735.1396622,39.806190619062,0,0
44.212128585703,-14.733711733663,34.610621062106,2491083.8009048,-838.48145180816,2567735.1396622,39.810621062106,0,0
44.21212884944,-14.735092290992,34.615051505151,2491083.8009048,-838.48145180816,2567735.1396622,39.815051505151,0,0
44.212129113177,-14.73647284832,34.619481948195,2491083.8009048,-838.48145180816,2567735.1396622,39.819481948195,0,0
44.212129376914,-14.737853405648,34.623912391239,2491083.8009048,-838.48145180816,2567735.1396622,39.823912391239,0,0
44.212129640651,-14.739233962977,34.628342834283,2491083.8009048,-838.48145180816,2567735.1396622,39.828342834283,0,0
44.212129904388,-14.740614520305,34.632773277328,2491083.8009048,-838.48145180816,2567735.1396622,39.832773277328,0,0
44.212130168125,-14.741995077633,34.637203720372,2491083.8009048,-838.48145180816,2567735.1396622,39.837203720372,0,0
44.212130431862,-14.743375634962,34.641634163416,2491083.8009048,-838.48145180816,2567735.1396622,39.841634163416,0,0
44.212130695599,-14.74475619229,34.646064606461,2491083.8009048,-838.48145180816,2567735.1396622,39.846064606461,0,0
44.212130959335,-14.746136749619,34.650495049505,2491083.8009048,-838.48145180816,2567735.1396622,39.850495049505,0,0
44.212131223072,-14.747517306947,34.654925492549,2491083.8009048,-838.48145180816,2567735.1396622,39.854925492549,0,0
44.212131486809,-14.748897864275,34.659355935594,2491083.8009048,-838.48145180816,2567735.1396622,39.859355935594,0,0
44.212131750546,-14.750278421604,34.663786378638,2491083.8009048,-838.48145180816,2567735.1396622,39.863786378638,0,0
44.212132014283,-14.751658978932,34.668216821682,2491083.8009048,-838.48145180816,2567735.1396622,39.868216821682,0,0
44.21213227802,-14.75303953626,34.672647264726,2491083.8009048,-838.48145180816,2567735.1396622,39.872647264726,0,0
44.212132541757,-14.754420093589,34.677077707771,2491083.8009048,-838.48145180816,2567735.1396622,39.877077707771,0,0
44.212132805494,-14.755800650917,34.681508150815,2491083.8009048,-838.48145180816,2567735.1396622,39.881508150815,0,0
44.212133069231,-14.757181208246,34.685938593859,2491083.8009048,-838.48145180816,2567735.1396622,39.885938593859,0,0
44.212133332968,-14.758561765574,34.690369036904,2491083.8009048,-838.48145180816,2567735.1396622,39.890369036904,0,0
44.212133596705,-14.759942322902,34.694799479948,2491083.8009048,-838.48145180816,2567735.1396622,39.894799479948,0,0
44.212133860442,-14.761322880231,34.699229922992,2491083.8009048,-838.48145180816,2567735.1396622,39.899229922992,0,0
44.212134124179,-14.762703437559,34.703660366037,2491083.8009048,-838.48145180816,2567735.1396622,39.903660366037,0,0
44.212134387916,-14.764083994887,34.708090809081,2491083.8009048,-838.48145180816,2567735.1396622,39.908090809081,0,0
44.212134651653,-14.765464552216,34.712521252125,2491083.8009048,-838.48145180816,2567735.1396622,39.912521252125,0,0
44.212134915389,-14.766845109544,34.71695169517,2491083.8009048,-838.48145180816,2567735.1396622,39.91695169517,0,0
44.212135179126,-14.768225666873,34.721382138214,2491083.8009048,-838.48145180816,2567735.1396622,39.921382138214,0,0
44.212135442863,-14.769606224201,34.725812581258,2491083.8009048,-838.48145180816,2567735.1396622,39.925812581258,0,0
44.2121357066,-14.770986781529,34.730243024302,2491083.8009048,-838.48145180816,2567735.1396622,39.930243024302,0,0
44.212135970337,-14.772367338858,34.734673467347,2491083.8009048,-838.48145180816,2567735.1396622,39.934673467347,0,0
44.212136234074,-14.773747896186,34.739103910391,2491083.8009048,-838.48145180816,2567735.1396622,39.939103910391,0,0
44.212136497811,-14.775128453514,34.743534353435,2491083.8009048,-838.48145180816,2567735.1396622,39.943534353435,0,0
44.212136761548,-14.776509010843,34.74796479648,2491083.8009048,-838.48145180816,2567735.1396622,39.94796479648,0,0
44.212137025285,-14.777889568171,34.752395239524,2491083.8009048,-838.48145180816,2567735.1396622,39.952395239524,0,0
44.212137289022,-14.7792701255,34.756825682568,2491083.8009048,-838.48145180816,2567735.1396622,39.956825682568,0,0
44.212137552759,-14.780650682828,34.761256125613,2491083.8009048,-838.48145180816,2567735.1396622,39.961256125613,0,0
44.212137816496,-14.782031240156,34.765686568657,2491083.8009048,-838.48145180816,2567735.1396622,39.965686568657,0,0
44.212138080233,-14.783411797485,34.770117011701,2491083.8009048,-838.48145180816,2567735.1396622,39.970117011701,0,0
44.21213834397,-14.784792354813,34.774547454745,2491083.8009048,-838.48145180816,2567735.1396622,39.974547454745,0,0
44.212138607707,-14.786172912141,34.77897789779,2491083.8009048,-838.48145180816,2567735.1396622,39.97897789779,0,0
44.212138871443,-14.78755346947,34.783408340834,2491083.8009048,-838.48145180816,2567735.1396622,39.983408340834,0,0
44.21213913518,-14.788934026798,34.787838783878,2491083.8009048,-838.48145180816,2567735.1396622,39.987838783878,0,0
44.212139398917,-14.790314584127,34.792269226923,2491083.8009048,-838.48145180816,2567735.1396622,39.992269226923,0,0
44.212139662654,-14.791695141455,34.796699669967,2491083.8009048,-838.48145180816,2567735.1396622,39.996699669967,0,0
44.212139926391,-14.793075698783,34.801130113011,2491083.8009048,-838.48145180816,2567735.1396622,40.001130113011,0,0
44.212140190128,-14.794456256112,34.805560556056,2491083.8009048,-838.48145180816,2567735.1396622,40.005560556056,0,0
44.212140453865,-14.79583681344,34.8099909991,2491083.8009048,-838.48145180816,2567735.1396622,40.0099909991,0,0
44.212140717602,-14.797217370768,34.814421442144,2491083.8009048,-838.48145180816,2567735.1396622,40.014421442144,0,0
44.212140981339,-14.798597928097,34.818851885189,2491083.8009048,-838.48145180816,2567735.1396622,40.018851885189,0,0
44.212141245076,-14.799978485425,34.823282328233,2491083.8009048,-838.48145180816,2567735.1396622,40.023282328233,0,0
44.212141508813,-14.801359042754,34.827712771277,2491083.8009048,-838.48145180816,2567735.1396622,40.027712771277,0,0
44.21214177255,-14.802739600082,34.832143214321,2491083.8009048,-838.48145180816,2567735.1396622,40.032143214321,0,0
44.212142036287,-14.80412015741,34.836573657366,2491083.8009048,-838.48145180816,2567735.1396622,40.036573657366,0,0
44.212142300024,-14.805500714739,34.84100410041,2491083.8009048,-838.48145180816,2567735.1396622,40.04100410041,0,0
44.212142563761,-14.806881272067,34.845434543454,2491083.8009048,-838.48145180816,2567735.1396622,40.045434543454,0,0
44.212142827497,-14.808261829395,34.849864986499,2491083.8009048,-838.48145180816,2567735.1396622,40.049864986499,0,0
44.212143091234,-14.809642386724,34.854295429543,2491083.8009048,-838.48145180816,2567735.1396622,40.054295429543,0,0
44.212143354971,-14.811022944052,34.858725872587,2491083.8009048,-838.48145180816,2567735.1396622,40.058725872587,0,0
44.212143618708,-14.812403501381,34.863156315632,2491083.8009048,-838.48145180816,2567735.1396622,40.063156315632,0,0
44.212143882445,-14.813784058709,34.867586758676,2491083.8009048,-838.48145180816,2567735.1396622,40.067586758676,0,0
44.212144146182,-14.815164616037,34.87201720172,2491083.8009048,-838.48145180816,2567735.1396622,40.07201720172,0,0
44.212144409919,-14.816545173366,34.876447644764,2491083.8009048,-838.48145180816,2567735.1396622,40.076447644764,0,0
44.212144673656,-14.817925730694,34.880878087809,2491083.8009048,-838.48145180816,2567735.1396622,40.080878087809,0,0
44.212144937393,-14.819306288022,34.885308530853,2491083.8009048,-838.48145180816,2567735.1396622,40.085308530853,0,0
44.21214520113,-14.820686845351,34.889738973897,2491083.8009048,-838.48145180816,2567735.1396622,40.089738973897,0,0
44.212145464867,-14.822067402679,34.894169416942,2491083.8009048,-838.48145180816,2567735.1396622,40.094169416942,0,0
44.212145728604,-14.823447960008,34.898599859986,2491083.8009048,-838.48145180816,2567735.1396622,40.098599859986,0,0
44.212145992341,-14.824828517336,34.90303030303,2491083.8009048,-838.48145180816,2567735.1396622,40.10303030303,0,0
44.212146256078,-14.826209074664,34.907460746075,2491083.8009048,-838.48145180816,2567735.1396622,40.107460746075,0,0
44.212146519815,-14.827589631993,34.911891189119,2491083.8009048,-838.48145180816,2567735.1396622,40.111891189119,0,0
44.212146783551,-14.828970189321,34.916321632163,2491083.8009048,-838.48145180816,2567735.1396622,40.116321632163,0,0
44.212147047288,-14.830350746649,34.920752075208,2491083.8009048,-838.48145180816,2567735.1396622,40.120752075208,0,0
44.212147311025,-14.831731303978,34.925182518252,2491083.8009048,-838.48145180816,2567735.1396622,40.125182518252,0,0
44.212147574762,-14.833111861306,34.929612961296,2491083.8009048,-838.48145180816,2567735.1396622,40.129612961296,0,0
44.212147838499,-14.834492418635,34.93404340434,2491083.8009048,-838.48145180816,2567735.1396622,40.13404340434,0,0
44.212148102236,-14.835872975963,34.938473847385,2491083.8009048,-838.48145180816,2567735.1396622,40.138473847385,0,0
44.212148365973,-14.837253533291,34.942904290429,2491083.8009048,-838.48145180816,2567735.1396622,40.142904290429,0,0
44.21214862971,-14.83863409062,34.947334733473,2491083.8009048,-838.48145180816,2567735.1396622,40.147334733473,0,0
44.212148893447,-14.840014647948,34.951765176518,2491083.8009048,-838.48145180816,2567735.1396622,40.151765176518,0,0
44.212149157184,-14.841395205276,34.956195619562,2491083.8009048,-838.48145180816,2567735.1396622,40.156195619562,0,0
44.212149420921,-14.842775762605,34.960626062606,2491083.8009048,-838.48145180816,2567735.1396622,40.160626062606,0,0
44.212149684658,-14.844156319933,34.965056505651,2491083.8009048,-838.48145180816,2567735.1396622,40.165056505651,0,0
44.212149948395,-14.845536877262,34.969486948695,2491083.8009048,-838.48145180816,2567735.1396622,40.169486948695,0,0
44.212150212132,-14.84691743459,34.973917391739,2491083.8009048,-838.48145180816,2567735.1396622,40.173917391739,0,0
44.212150475869,-14.848297991918,34.978347834783,2491083.8009048,-838.48145180816,2567735.1396622,40.178347834783,0,0
44.212150739605,-14.849678549247,34.982778277828,2491083.8009048,-838.48145180816,2567735.1396622,40.182778277828,0,0
44.212151003342,-14.851059106575,34.987208720872,2491083.8009048,-838.48145180816,2567735.1396622,40.187208720872,0,0
44.212151267079,-14.852439663903,34.991639163916,2491083.8009048,-838.48145180816,2567735.1396622,40.191639163916,0,0
44.212151530816,-14.853820221232,34.996069606961,2491083.8009048,-838.48145180816,2567735.1396622,40.196069606961,0,0
44.212151794553,-14.85520077856,35.000500050005,2491083.8009048,-838.48145180816,2567735.1396622,40.200500050005,0,0
44.21215205829,-14.856581335889,35.004930493049,2491083.8009048,-838.48145180816,2567735.1396622,40.204930493049,0,0
44.212152322027,-14.857961893217,35.009360936094,2491083.8009048,-838.48145180816,2567735.1396622,40.209360936094,0,0
44.212152585764,-14.859342450545,35.013791379138,2491083.8009048,-838.48145180816,2567735.1396622,40.213791379138,0,0
44.212152849501,-14.860723007874,35.018221822182,2491083.8009048,-838.48145180816,2567735.1396622,40.218221822182,0,0
44.212153113238,-14.862103565202,35.022652265227,2491083.8009048,-838.48145180816,2567735.1396622,40.222652265227,0,0
44.212153376975,-14.86348412253,35.027082708271,2491083.8009048,-838.48145180816,2567735.1396622,40.227082708271,0,0
44.212153640712,-14.864864679859,35.031513151315,2491083.8009048,-838.48145180816,2567735.1396622,40.231513151315,0,0
44.212153904449,-14.866245237187,35.035943594359,2491083.8009048,-838.48145180816,2567735.1396622,40.235943594359,0,0
44.212154168186,-14.867625794516,35.040374037404,2491083.8009048,-838.48145180816,2567735.1396622,40.240374037404,0,0
44.212154431923,-14.869006351844,35.044804480448,2491083.8009048,-838.48145180816,2567735.1396622,40.244804480448,0,0
44.212154695659,-14.870386909172,35.049234923492,2491083.8009048,-838.48145180816,2567735.1396622,40.249234923492,0,0
44.212154959396,-14.871767466501,35.053665366537,2491083.8009048,-838.48145180816,2567735.1396622,40.253665366537,0,0
44.212155223133,-14.873148023829,35.058095809581,2491083.8009048,-838.48145180816,2567735.1396622,40.258095809581,0,0
44.21215548687,-14.874528581157,35.062526252625,2491083.8009048,-838.48145180816,2567735.1396622,40.262526252625,0,0
44.212155750607,-14.875909138486,35.06695669567,2491083.8009048,-838.48145180816,2567735.1396622,40.26695669567,0,0
44.212156014344,-14.877289695814,35.071387138714,2491083.8009048,-838.48145180816,2567735.1396622,40.271387138714,0,0
44.212156278081,-14.878670253143,35.075817581758,2491083.8009048,-838.48145180816,2567735.1396622,40.275817581758,0,0
44.212156541818,-14.880050810471,35.080248024802,2491083.8009048,-838.48145180816,2567735.1396622,40.280248024802,0,0
44.212156805555,-14.881431367799,35.084678467847,2491083.8009048,-838.48145180816,2567735.1396622,40.284678467847,0,0
44.212157069292,-14.882811925128,35.089108910891,2491083.8009048,-838.48145180816,2567735.1396622,40.289108910891,0,0
44.212157333029,-14.884192482456,35.093539353935,2491083.8009048,-838.48145180816,2567735.1396622,40.293539353935,0,0
44.212157596766,-14.885573039784,35.09796979698,2491083.8009048,-838.48145180816,2567735.1396622,40.29796979698,0,0
44.212157860503,-14.886953597113,35.102400240024,2491083.8009048,-838.48145180816,2567735.1396622,40.302400240024,0,0
44.21215812424,-14.888334154441,35.106830683068,2491083.8009048,-838.48145180816,2567735.1396622,40.306830683068,0,0
44.212158387977,-14.88971471177,35.111261126113,2491083.8009048,-838.48145180816,2567735.1396622,40.311261126113,0,0
44.212158651713,-14.891095269098,35.115691569157,2491083.8009048,-838.48145180816,2567735.1396622,40.315691569157,0,0
44.21215891545,-14.892475826426,35.120122012201,2491083.8009048,-838.48145180816,2567735.1396622,40.320122012201,0,0
44.212159179187,-14.893856383755,35.124552455246,2491083.8009048,-838.48145180816,2567735.1396622,40.324552455246,0,0
44.212159442924,-14.895236941083,35.12898289829,2491083.8009048,-838.48145180816,2567735.1396622,40.32898289829,0,0
44.212159706661,-14.896617498411,35.133413341334,2491083.8009048,-838.48145180816,2567735.1396622,40.333413341334,0,0
44.212159970398,-14.89799805574,35.137843784378,2491083.8009048,-838.48145180816,2567735.1396622,40.337843784378,0,0
44.212160234135,-14.899378613068,35.142274227423,2491083.8009048,-838.48145180816,2567735.1396622,40.342274227423,0,0
44.212160497872,-14.900759170397,35.146704670467,2491083.8009048,-838.48145180816,2567735.1396622,40.346704670467,0,0
44.212160761609,-14.902139727725,35.151135113511,2491083.8009048,-838.48145180816,2567735.1396622,40.351135113511,0,0
44.212161025346,-14.903520285053,35.155565556556,2491083.8009048,-838.48145180816,2567735.1396622,40.355565556556,0,0
44.212161289083,-14.904900842382,35.1599959996,2491083.8009048,-838.48145180816,2567735.1396622,40.3599959996,0,0
44.21216155282,-14.90628139971,35.164426442644,2491083.8009048,-838.48145180816,2567735.1396622,40.364426442644,0,0
44.212161816557,-14.907661957038,35.168856885689,2491083.8009048,-838.48145180816,2567735.1396622,40.368856885689,0,0
44.212162080294,-14.909042514367,35.173287328733,2491083.8009048,-838.48145180816,2567735.1396622,40.373287328733,0,0
44.21216234403,-14.910423071695,35.177717771777,2491083.8009048,-838.48145180816,2567735.1396622,40.377717771777,0,0
44.212162607767,-14.911803629024,35.182148214821,2491083.8009048,-838.48145180816,2567735.1396622,40.382148214821,0,0
44.212162871504,-14.913184186352,35.186578657866,2491083.8009048,-838.48145180816,2567735.1396622,40.386578657866,0,0
44.212163135241,-14.91456474368,35.19100910091,2491083.8009048,-838.48145180816,2567735.1396622,40.39100910091,0,0
44.212163398978,-14.915945301009,35.195439543954,2491083.8009048,-838.48145180816,2567735.1396622,40.395439543954,0,0
44.212163662715,-14.917325858337,35.199869986999,2491083.8009048,-838.48145180816,2567735.1396622,40.399869986999,0,0
44.212163926452,-14.918706415665,35.204300430043,2491083.8009048,-838.48145180816,2567735.1396622,40.404300430043,0,0
44.212164190189,-14.920086972994,35.208730873087,2491083.8009048,-838.48145180816,2567735.1396622,40.408730873087,0,0
44.212164453926,-14.921467530322,35.213161316132,2491083.8009048,-838.48145180816,2567735.1396622,40.413161316132,0,0
44.212164717663,-14.922848087651,35.217591759176,2491083.8009048,-838.48145180816,2567735.1396622,40.417591759176,0,0
44.2121649814,-14.924228644979,35.22202220222,2491083.8009048,-838.48145180816,2567735.1396622,40.42202220222,0,0
44.212165245137,-14.925609202307,35.226452645265,2491083.8009048,-838.48145180816,2567735.1396622,40.426452645265,0,0
44.212165508874,-14.926989759636,35.230883088309,2491083.8009048,-838.48145180816,2567735.1396622,40.430883088309,0,0
44.212165772611,-14.928370316964,35.235313531353,2491083.8009048,-838.48145180816,2567735.1396622,40.435313531353,0,0
44.212166036348,-14.929750874292,35.239743974397,2491083.8009048,-838.48145180816,2567735.1396622,40.439743974397,0,0
44.212166300084,-14.931131431621,35.244174417442,2491083.8009048,-838.48145180816,2567735.1396622,40.444174417442,0,0
44.212166563821,-14.932511988949,35.248604860486,2491083.8009048,-838.48145180816,2567735.1396622,40.448604860486,0,0
44.212166827558,-14.933892546277,35.25303530353,2491083.8009048,-838.48145180816,2567735.1396622,40.45303530353,0,0
44.212167091295,-14.935273103606,35.257465746575,2491083.8009048,-838.48145180816,2567735.1396622,40.457465746575,0,0
44.212167355032,-14.936653660934,35.261896189619,2491083.8009048,-838.48145180816,2567735.1396622,40.461896189619,0,0
44.212167618769,-14.938034218263,35.266326632663,2491083.8009048,-838.48145180816,2567735.1396622,40.466326632663,0,0
44.212167882506,-14.939414775591,35.270757075708,2491083.8009048,-838.48145180816,2567735.1396622,40.470757075708,0,0
44.212168146243,-14.940795332919,35.275187518752,2491083.8009048,-838.48145180816,2567735.1396622,40.475187518752,0,0
44.21216840998,-14.942175890248,35.279617961796,2491083.8009048,-838.48145180816,2567735.1396622,40.479617961796,0,0
44.212168673717,-14.943556447576,35.28404840484,2491083.8009048,-838.48145180816,2567735.1396622,40.48404840484,0,0
44.212168937454,-14.944937004904,35.288478847885,2491083.8009048,-838.48145180816,2567735.1396622,40.488478847885,0,0
44.212169201191,-14.946317562233,35.292909290929,2491083.8009048,-838.48145180816,2567735.1396622,40.492909290929,0,0
44.212169464928,-14.947698119561,35.297339733973,2491083.8009048,-838.48145180816,2567735.1396622,40.497339733973,0,0
44.212169728665,-14.94907867689,35.301770177018,2491083.8009048,-838.48145180816,2567735.1396622,40.501770177018,0,0
44.212169992402,-14.950459234218,35.306200620062,2491083.8009048,-838.48145180816,2567735.1396622,40.506200620062,0,0
44.212170256138,-14.951839791546,35.310631063106,2491083.8009048,-838.48145180816,2567735.1396622,40.510631063106,0,0
44.212170519875,-14.953220348875,35.315061506151,2491083.8009048,-838.48145180816,2567735.1396622,40.515061506151,0,0
44.212170783612,-14.954600906203,35.319491949195,2491083.8009048,-838.48145180816,2567735.1396622,40.519491949195,0,0
44.212171047349,-14.955981463531,35.323922392239,2491083.8009048,-838.48145180816,2567735.1396622,40.523922392239,0,0
44.212171311086,-14.95736202086,35.328352835284,2491083.8009048,-838.48145180816,2567735.1396622,40.528352835284,0,0
44.212171574823,-14.958742578188,35.332783278328,2491083.8009048,-838.48145180816,2567735.1396622,40.532783278328,0,0
44.21217183856,-14.960123135517,35.337213721372,2491083.8009048,-838.48145180816,2567735.1396622,40.537213721372,0,0
44.212172102297,-14.961503692845,35.341644164416,2491083.8009048,-838.48145180816,2567735.1396622,40.541644164416,0,0
44.212172366034,-14.962884250173,35.346074607461,2491083.8009048,-838.48145180816,2567735.1396622,40.546074607461,0,0
44.212172629771,-14.964264807502,35.350505050505,2491083.8009048,-838.48145180816,2567735.1396622,40.550505050505,0,0
44.212172893508,-14.96564536483,35.354935493549,2491083.8009048,-838.48145180816,2567735.1396622,40.554935493549,0,0
44.212173157245,-14.967025922158,35.359365936594,2491083.8009048,-838.48145180816,2567735.1396622,40.559365936594,0,0
44.212173420982,-14.968406479487,35.363796379638,2491083.8009048,-838.48145180816,2567735.1396622,40.563796379638,0,0
44.212173684719,-14.969787036815,35.368226822682,2491083.8009048,-838.48145180816,2567735.1396622,40.568226822682,0,0
44.212173948456,-14.971167594144,35.372657265727,2491083.8009048,-838.48145180816,2567735.1396622,40.572657265727,0,0
44.212174212192,-14.972548151472,35.377087708771,2491083.8009048,-838.48145180816,2567735.1396622,40.577087708771,0,0
44.212174475929,-14.9739287088,35.381518151815,2491083.8009048,-838.48145180816,2567735.1396622,40.581518151815,0,0
44.212174739666,-14.975309266129,35.385948594859,2491083.8009048,-838.48145180816,2567735.1396622,40.585948594859,0,0
44.212175003403,-14.976689823457,35.390379037904,2491083.8009048,-838.48145180816,2567735.1396622,40.590379037904,0,0
44.21217526714,-14.978070380785,35.394809480948,2491083.8009048,-838.48145180816,2567735.1396622,40.594809480948,0,0
44.212175530877,-14.979450938114,35.399239923992,2491083.8009048,-838.48145180816,2567735.1396622,40.599239923992,0,0
44.212175794614,-14.980831495442,35.403670367037,2491083.8009048,-838.48145180816,2567735.1396622,40.603670367037,0,0
44.212176058351,-14.982212052771,35.408100810081,2491083.8009048,-838.48145180816,2567735.1396622,40.608100810081,0,0
44.212176322088,-14.983592610099,35.412531253125,2491083.8009048,-838.48145180816,2567735.1396622,40.612531253125,0,0
44.212176585825,-14.984973167427,35.41696169617,2491083.8009048,-838.48145180816,2567735.1396622,40.61696169617,0,0
44.212176849562,-14.986353724756,35.421392139214,2491083.8009048,-838.48145180816,2567735.1396622,40.621392139214,0,0
44.212177113299,-14.987734282084,35.425822582258,2491083.8009048,-838.48145180816,2567735.1396622,40.625822582258,0,0
44.212177377036,-14.989114839412,35.430253025303,2491083.8009048,-838.48145180816,2567735.1396622,40.630253025303,0,0
44.212177640773,-14.990495396741,35.434683468347,2491083.8009048,-838.48145180816,2567735.1396622,40.634683468347,0,0
44.21217790451,-14.991875954069,35.439113911391,2491083.8009048,-838.48145180816,2567735.1396622,40.639113911391,0,0
44.212178168246,-14.993256511398,35.443544354435,2491083.8009048,-838.48145180816,2567735.1396622,40.643544354435,0,0
44.212178431983,-14.994637068726,35.44797479748,2491083.8009048,-838.48145180816,2567735.1396622,40.64797479748,0,0
44.21217869572,-14.996017626054,35.452405240524,2491083.8009048,-838.48145180816,2567735.1396622,40.652405240524,0,0
44.212178959457,-14.997398183383,35.456835683568,2491083.8009048,-838.48145180816,2567735.1396622,40.656835683568,0,0
44.212179223194,-14.998778740711,35.461266126613,2491083.8009048,-838.48145180816,2567735.1396622,40.661266126613,0,0
44.212179486931,-15.000159298039,35.465696569657,2491083.8009048,-838.48145180816,2567735.1396622,40.665696569657,0,0
44.212179750668,-15.001539855368,35.470127012701,2491083.8009048,-838.48145180816,2567735.1396622,40.670127012701,0,0
44.212180014405,-15.002920412696,35.474557455746,2491083.8009048,-838.48145180816,2567735.1396622,40.674557455746,0,0
44.212180278142,-15.004300970025,35.47898789879,2491083.8009048,-838.48145180816,2567735.1396622,40.67898789879,0,0
44.212180541879,-15.005681527353,35.483418341834,2491083.8009048,-838.48145180816,2567735.1396622,40.683418341834,0,0
44.212180805616,-15.007062084681,35.487848784878,2491083.8009048,-838.48145180816,2567735.1396622,40.687848784878,0,0
44.212181069353,-15.00844264201,35.492279227923,2491083.8009048,-838.48145180816,2567735.1396622,40.692279227923,0,0
44.21218133309,-15.009823199338,35.496709670967,2491083.8009048,-838.48145180816,2567735.1396622,40.696709670967,0,0
44.212181596827,-15.011203756666,35.501140114011,2491083.8009048,-838.48145180816,2567735.1396622,40.701140114011,0,0
44.212181860564,-15.012584313995,35.505570557056,2491083.8009048,-838.48145180816,2567735.1396622,40.705570557056,0,0
44.2121821243,-15.013964871323,35.5100010001,2491083.8009048,-838.48145180816,2567735.1396622,40.7100010001,0,0
44.212182388037,-15.015345428652,35.514431443144,2491083.8009048,-838.48145180816,2567735.1396622,40.714431443144,0,0
44.212182651774,-15.01672598598,35.518861886189,2491083.8009048,-838.48145180816,2567735.1396622,40.718861886189,0,0
44.212182915511,-15.018106543308,35.523292329233,2491083.8009048,-838.48145180816,2567735.1396622,40.723292329233,0,0
44.212183179248,-15.019487100637,35.527722772277,2491083.8009048,-838.48145180816,2567735.1396622,40.727722772277,0,0
44.212183442985,-15.020867657965,35.532153215322,2491083.8009048,-838.48145180816,2567735.1396622,40.732153215322,0,0
44.212183706722,-15.022248215293,35.536583658366,2491083.8009048,-838.48145180816,2567735.1396622,40.736583658366,0,0
44.212183970459,-15.023628772622,35.54101410141,2491083.8009048,-838.48145180816,2567735.1396622,40.74101410141,0,0
44.212184234196,-15.02500932995,35.545444544454,2491083.8009048,-838.48145180816,2567735.1396622,40.745444544454,0,0
44.212184497933,-15.026389887279,35.549874987499,2491083.8009048,-838.48145180816,2567735.1396622,40.749874987499,0,0
44.21218476167,-15.027770444607,35.554305430543,2491083.8009048,-838.48145180816,2567735.1396622,40.754305430543,0,0
44.212185025407,-15.029151001935,35.558735873587,2491083.8009048,-838.48145180816,2567735.1396622,40.758735873587,0,0
44.212185289144,-15.030531559264,35.563166316632,2491083.8009048,-838.48145180816,2567735.1396622,40.763166316632,0,0
44.212185552881,-15.031912116592,35.567596759676,2491083.8009048,-838.48145180816,2567735.1396622,40.767596759676,0,0
44.212185816618,-15.03329267392,35.57202720272,2491083.8009048,-838.48145180816,2567735.1396622,40.77202720272,0,0
44.212186080354,-15.034673231249,35.576457645765,2491083.8009048,-838.48145180816,2567735.1396622,40.776457645765,0,0
44.212186344091,-15.036053788577,35.580888088809,2491083.8009048,-838.48145180816,2567735.1396622,40.780888088809,0,0
44.212186607828,-15.037434345906,35.585318531853,2491083.8009048,-838.48145180816,2567735.1396622,40.785318531853,0,0
44.212186871565,-15.038814903234,35.589748974897,2491083.8009048,-838.48145180816,2567735.1396622,40.789748974897,0,0
44.212187135302,-15.040195460562,35.594179417942,2491083.8009048,-838.48145180816,2567735.1396622,40.794179417942,0,0
44.212187399039,-15.041576017891,35.598609860986,2491083.8009048,-838.48145180816,2567735.1396622,40.798609860986,0,0
44.212187662776,-15.042956575219,35.60304030403,2491083.8009048,-838.48145180816,2567735.1396622,40.80304030403,0,0
44.212187926513,-15.044337132547,35.607470747075,2491083.8009048,-838.48145180816,2567735.1396622,40.807470747075,0,0
44.21218819025,-15.045717689876,35.611901190119,2491083.8009048,-838.48145180816,2567735.1396622,40.811901190119,0,0
44.212188453987,-15.047098247204,35.616331633163,2491083.8009048,-838.48145180816,2567735.1396622,40.816331633163,0,0
44.212188717724,-15.048478804533,35.620762076208,2491083.8009048,-838.48145180816,2567735.1396622,40.820762076208,0,0
44.212188981461,-15.049859361861,35.625192519252,2491083.8009048,-838.48145180816,2567735.1396622,40.825192519252,0,0
44.212189245198,-15.051239919189,35.629622962296,2491083.8009048,-838.48145180816,2567735.1396622,40.829622962296,0,0
44.212189508935,-15.052620476518,35.634053405341,2491083.8009048,-838.48145180816,2567735.1396622,40.834053405341,0,0
44.212189772672,-15.054001033846,35.638483848385,2491083.8009048,-838.48145180816,2567735.1396622,40.838483848385,0,0
44.212190036408,-15.055381591174,35.642914291429,2491083.8009048,-838.48145180816,2567735.1396622,40.842914291429,0,0
44.212190300145,-15.056762148503,35.647344734473,2491083.8009048,-838.48145180816,2567735.1396622,40.847344734473,0,0
44.212190563882,-15.058142705831,35.651775177518,2491083.8009048,-838.48145180816,2567735.1396622,40.851775177518,0,0
44.212190827619,-15.05952326316,35.656205620562,2491083.8009048,-838.48145180816,2567735.1396622,40.856205620562,0,0
44.212191091356,-15.060903820488,35.660636063606,2491083.8009048,-838.48145180816,2567735.1396622,40.860636063606,0,0
44.212191355093,-15.062284377816,35.665066506651,2491083.8009048,-838.48145180816,2567735.1396622,40.865066506651,0,0
44.21219161883,-15.063664935145,35.669496949695,2491083.8009048,-838.48145180816,2567735.1396622,40.869496949695,0,0
44.212191882567,-15.065045492473,35.673927392739,2491083.8009048,-838.48145180816,2567735.1396622,40.873927392739,0,0
44.212192146304,-15.066426049801,35.678357835784,2491083.8009048,-838.48145180816,2567735.1396622,40.878357835784,0,0
44.212192410041,-15.06780660713,35.682788278828,2491083.8009048,-838.48145180816,2567735.1396622,40.882788278828,0,0
44.212192673778,-15.069187164458,35.687218721872,2491083.8009048,-838.48145180816,2567735.1396622,40.887218721872,0,0
44.212192937515,-15.070567721787,35.691649164916,2491083.8009048,-838.48145180816,2567735.1396622,40.891649164916,0,0
44.212193201252,-15.071948279115,35.696079607961,2491083.8009048,-838.48145180816,2567735.1396622,40.896079607961,0,0
44.212193464989,-15.073328836443,35.700510051005,2491083.8009048,-838.48145180816,2567735.1396622,40.900510051005,0,0
44.212193728726,-15.074709393772,35.704940494049,2491083.8009048,-838.48145180816,2567735.1396622,40.904940494049,0,0
44.212193992462,-15.0760899511,35.709370937094,2491083.8009048,-838.48145180816,2567735.1396622,40.909370937094,0,0
44.212194256199,-15.077470508428,35.713801380138,2491083.8009048,-838.48145180816,2567735.1396622,40.913801380138,0,0
44.212194519936,-15.078851065757,35.718231823182,2491083.8009048,-838.48145180816,2567735.1396622,40.918231823182,0,0
44.212194783673,-15.080231623085,35.722662266227,2491083.8009048,-838.48145180816,2567735.1396622,40.922662266227,0,0
44.21219504741,-15.081612180414,35.727092709271,2491083.8009048,-838.48145180816,2567735.1396622,40.927092709271,0,0
44.212195311147,-15.082992737742,35.731523152315,2491083.8009048,-838.48145180816,2567735.1396622,40.931523152315,0,0
44.212195574884,-15.08437329507,35.73595359536,2491083.8009048,-838.48145180816,2567735.1396622,40.93595359536,0,0
44.212195838621,-15.085753852399,35.740384038404,2491083.8009048,-838.48145180816,2567735.1396622,40.940384038404,0,0
44.212196102358,-15.087134409727,35.744814481448,2491083.8009048,-838.48145180816,2567735.1396622,40.944814481448,0,0
44.212196366095,-15.088514967055,35.749244924492,2491083.8009048,-838.48145180816,2567735.1396622,40.949244924492,0,0
44.212196629832,-15.089895524384,35.753675367537,2491083.8009048,-838.48145180816,2567735.1396622,40.953675367537,0,0
44.212196893569,-15.091276081712,35.758105810581,2491083.8009048,-838.48145180816,2567735.1396622,40.958105810581,0,0
44.212197157306,-15.092656639041,35.762536253625,2491083.8009048,-838.48145180816,2567735.1396622,40.962536253625,0,0
44.212197421043,-15.094037196369,35.76696669667,2491083.8009048,-838.48145180816,2567735.1396622,40.96696669667,0,0
44.212197684779,-15.095417753697,35.771397139714,2491083.8009048,-838.48145180816,2567735.1396622,40.971397139714,0,0
44.212197948516,-15.096798311026,35.775827582758,2491083.8009048,-838.48145180816,2567735.1396622,40.975827582758,0,0
44.212198212253,-15.098178868354,35.780258025803,2491083.8009048,-838.48145180816,2567735.1396622,40.980258025803,0,0
44.21219847599,-15.099559425682,35.784688468847,2491083.8009048,-838.48145180816,2567735.1396622,40.984688468847,0,0
44.212198739727,-15.100939983011,35.789118911891,2491083.8009048,-838.48145180816,2567735.1396622,40.989118911891,0,0
44.212199003464,-15.102320540339,35.793549354935,2491083.8009048,-838.48145180816,2567735.1396622,40.993549354935,0,0
44.212199267201,-15.103701097668,35.79797979798,2491083.8009048,-838.48145180816,2567735.1396622,40.99797979798,0,0
44.212199530938,-15.105081654996,35.802410241024,2491083.8009048,-838.48145180816,2567735.1396622,41.002410241024,0,0
44.212199794675,-15.106462212324,35.806840684068,2491083.8009048,-838.48145180816,2567735.1396622,41.006840684068,0,0
44.212200058412,-15.107842769653,35.811271127113,2491083.8009048,-838.48145180816,2567735.1396622,41.011271127113,0,0
44.212200322149,-15.109223326981,35.815701570157,2491083.8009048,-838.48145180816,2567735.1396622,41.015701570157,0,0
44.212200585886,-15.110603884309,35.820132013201,2491083.8009048,-838.48145180816,2567735.1396622,41.020132013201,0,0
44.212200849623,-15.111984441638,35.824562456246,2491083.8009048,-838.48145180816,2567735.1396622,41.024562456246,0,0
44.21220111336,-15.113364998966,35.82899289929,2491083.8009048,-838.48145180816,2567735.1396622,41.02899289929,0,0
44.212201377097,-15.114745556295,35.833423342334,2491083.8009048,-838.48145180816,2567735.1396622,41.033423342334,0,0
44.212201640833,-15.116126113623,35.837853785379,2491083.8009048,-838.48145180816,2567735.1396622,41.037853785379,0,0
44.21220190457,-15.117506670951,35.842284228423,2491083.8009048,-838.48145180816,2567735.1396622,41.042284228423,0,0
44.212202168307,-15.11888722828,35.846714671467,2491083.8009048,-838.48145180816,2567735.1396622,41.046714671467,0,0
44.212202432044,-15.120267785608,35.851145114511,2491083.8009048,-838.48145180816,2567735.1396622,41.051145114511,0,0
44.212202695781,-15.121648342936,35.855575557556,2491083.8009048,-838.48145180816,2567735.1396622,41.055575557556,0,0
44.212202959518,-15.123028900265,35.8600060006,2491083.8009048,-838.48145180816,2567735.1396622,41.0600060006,0,0
44.212203223255,-15.124409457593,35.864436443644,2491083.8009048,-838.48145180816,2567735.1396622,41.064436443644,0,0
44.212203486992,-15.125790014922,35.868866886689,2491083.8009048,-838.48145180816,2567735.1396622,41.068866886689,0,0
44.212203750729,-15.12717057225,35.873297329733,2491083.8009048,-838.48145180816,2567735.1396622,41.073297329733,0,0
44.212204014466,-15.128551129578,35.877727772777,2491083.8009048,-838.48145180816,2567735.1396622,41.077727772777,0,0
44.212204278203,-15.129931686907,35.882158215822,2491083.8009048,-838.48145180816,2567735.1396622,41.082158215822,0,0
44.21220454194,-15.131312244235,35.886588658866,2491083.8009048,-838.48145180816,2567735.1396622,41.086588658866,0,0
44.212204805677,-15.132692801563,35.89101910191,2491083.8009048,-838.48145180816,2567735.1396622,41.09101910191,0,0
44.212205069414,-15.134073358892,35.895449544954,2491083.8009048,-838.48145180816,2567735.1396622,41.095449544954,0,0
44.212205333151,-15.13545391622,35.899879987999,2491083.8009048,-838.48145180816,2567735.1396622,41.099879987999,0,0
44.212205596887,-15.136834473549,35.904310431043,2491083.8009048,-838.48145180816,2567735.1396622,41.104310431043,0,0
44.212205860624,-15.138215030877,35.908740874087,2491083.8009048,-838.48145180816,2567735.1396622,41.108740874087,0,0
44.212206124361,-15.139595588205,35.913171317132,2491083.8009048,-838.48145180816,2567735.1396622,41.113171317132,0,0
44.212206388098,-15.140976145534,35.917601760176,2491083.8009048,-838.48145180816,2567735.1396622,41.117601760176,0,0
44.212206651835,-15.142356702862,35.92203220322,2491083.8009048,-838.48145180816,2567735.1396622,41.12203220322,0,0
44.212206915572,-15.14373726019,35.926462646265,2491083.8009048,-838.48145180816,2567735.1396622,41.126462646265,0,0
44.212207179309,-15.145117817519,35.930893089309,2491083.8009048,-838.48145180816,2567735.1396622,41.130893089309,0,0
44.212207443046,-15.146498374847,35.935323532353,2491083.8009048,-838.48145180816,2567735.1396622,41.135323532353,0,0
44.212207706783,-15.147878932176,35.939753975398,2491083.8009048,-838.48145180816,2567735.1396622,41.139753975398,0,0
44.21220797052,-15.149259489504,35.944184418442,2491083.8009048,-838.48145180816,2567735.1396622,41.144184418442,0,0
44.212208234257,-15.150640046832,35.948614861486,2491083.8009048,-838.48145180816,2567735.1396622,41.148614861486,0,0
44.212208497994,-15.152020604161,35.95304530453,2491083.8009048,-838.48145180816,2567735.1396622,41.15304530453,0,0
44.212208761731,-15.153401161489,35.957475747575,2491083.8009048,-838.48145180816,2567735.1396622,41.157475747575,0,0
44.212209025468,-15.154781718817,35.961906190619,2491083.8009048,-838.48145180816,2567735.1396622,41.161906190619,0,0
44.212209289205,-15.156162276146,35.966336633663,2491083.8009048,-838.48145180816,2567735.1396622,41.166336633663,0,0
44.212209552941,-15.157542833474,35.970767076708,2491083.8009048,-838.48145180816,2567735.1396622,41.170767076708,0,0
44.212209816678,-15.158923390803,35.975197519752,2491083.8009048,-838.48145180816,2567735.1396622,41.175197519752,0,0
44.212210080415,-15.160303948131,35.979627962796,2491083.8009048,-838.48145180816,2567735.1396622,41.179627962796,0,0
44.212210344152,-15.161684505459,35.984058405841,2491083.8009048,-838.48145180816,2567735.1396622,41.184058405841,0,0
44.212210607889,-15.163065062788,35.988488848885,2491083.8009048,-838.48145180816,2567735.1396622,41.188488848885,0,0
44.212210871626,-15.164445620116,35.992919291929,2491083.8009048,-838.48145180816,2567735.1396622,41.192919291929,0,0
44.212211135363,-15.165826177444,35.997349734973,2491083.8009048,-838.48145180816,2567735.1396622,41.197349734973,0,0
44.2122113991,-15.167206734773,36.001780178018,2491083.8009048,-838.48145180816,2567735.1396622,41.201780178018,0,0
44.212211662837,-15.168587292101,36.006210621062,2491083.8009048,-838.48145180816,2567735.1396622,41.206210621062,0,0
44.212211926574,-15.16996784943,36.010641064106,2491083.8009048,-838.48145180816,2567735.1396622,41.210641064106,0,0
44.212212190311,-15.171348406758,36.015071507151,2491083.8009048,-838.48145180816,2567735.1396622,41.215071507151,0,0
44.212212454048,-15.172728964086,36.019501950195,2491083.8009048,-838.48145180816,2567735.1396622,41.219501950195,0,0
44.212212717785,-15.174109521415,36.023932393239,2491083.8009048,-838.48145180816,2567735.1396622,41.223932393239,0,0
44.212212981522,-15.175490078743,36.028362836284,2491083.8009048,-838.48145180816,2567735.1396622,41.228362836284,0,0
44.212213245259,-15.176870636071,36.032793279328,2491083.8009048,-838.48145180816,2567735.1396622,41.232793279328,0,0
44.212213508995,-15.1782511934,36.037223722372,2491083.8009048,-838.48145180816,2567735.1396622,41.237223722372,0,0
44.212213772732,-15.179631750728,36.041654165417,2491083.8009048,-838.48145180816,2567735.1396622,41.241654165417,0,0
44.212214036469,-15.181012308057,36.046084608461,2491083.8009048,-838.48145180816,2567735.1396622,41.246084608461,0,0
44.212214300206,-15.182392865385,36.050515051505,2491083.8009048,-838.48145180816,2567735.1396622,41.250515051505,0,0
44.212214563943,-15.183773422713,36.054945494549,2491083.8009048,-838.48145180816,2567735.1396622,41.254945494549,0,0
44.21221482768,-15.185153980042,36.059375937594,2491083.8009048,-838.48145180816,2567735.1396622,41.259375937594,0,0
44.212215091417,-15.18653453737,36.063806380638,2491083.8009048,-838.48145180816,2567735.1396622,41.263806380638,0,0
44.212215355154,-15.187915094698,36.068236823682,2491083.8009048,-838.48145180816,2567735.1396622,41.268236823682,0,0
44.212215618891,-15.189295652027,36.072667266727,2491083.8009048,-838.48145180816,2567735.1396622,41.272667266727,0,0
44.212215882628,-15.190676209355,36.077097709771,2491083.8009048,-838.48145180816,2567735.1396622,41.277097709771,0,0
44.212216146365,-15.192056766684,36.081528152815,2491083.8009048,-838.48145180816,2567735.1396622,41.281528152815,0,0
44.212216410102,-15.193437324012,36.08595859586,2491083.8009048,-838.48145180816,2567735.1396622,41.28595859586,0,0
44.212216673839,-15.19481788134,36.090389038904,2491083.8009048,-838.48145180816,2567735.1396622,41.290389038904,0,0
44.212216937576,-15.196198438669,36.094819481948,2491083.8009048,-838.48145180816,2567735.1396622,41.294819481948,0,0
44.212217201313,-15.197578995997,36.099249924992,2491083.8009048,-838.48145180816,2567735.1396622,41.299249924992,0,0
44.212217465049,-15.198959553325,36.103680368037,2491083.8009048,-838.48145180816,2567735.1396622,41.303680368037,0,0
44.212217728786,-15.200340110654,36.108110811081,2491083.8009048,-838.48145180816,2567735.1396622,41.308110811081,0,0
44.212217992523,-15.201720667982,36.112541254125,2491083.8009048,-838.48145180816,2567735.1396622,41.312541254125,0,0
44.21221825626,-15.203101225311,36.11697169717,2491083.8009048,-838.48145180816,2567735.1396622,41.31697169717,0,0
44.212218519997,-15.204481782639,36.121402140214,2491083.8009048,-838.48145180816,2567735.1396622,41.321402140214,0,0
44.212218783734,-15.205862339967,36.125832583258,2491083.8009048,-838.48145180816,2567735.1396622,41.325832583258,0,0
44.212219047471,-15.207242897296,36.130263026303,2491083.8009048,-838.48145180816,2567735.1396622,41.330263026303,0,0
44.212219311208,-15.208623454624,36.134693469347,2491083.8009048,-838.48145180816,2567735.1396622,41.334693469347,0,0
44.212219574945,-15.210004011952,36.139123912391,2491083.8009048,-838.48145180816,2567735.1396622,41.339123912391,0,0
44.212219838682,-15.211384569281,36.143554355436,2491083.8009048,-838.48145180816,2567735.1396622,41.343554355436,0,0
44.212220102419,-15.212765126609,36.14798479848,2491083.8009048,-838.48145180816,2567735.1396622,41.34798479848,0,0
44.212220366169,-15.214145683962,36.152415241524,2491789.9349609,-1351.6043037499,2566502.177273,41.352415241524,0,0
44.212220629995,-15.215526241461,36.156845684568,2491789.9349609,-1351.6043037499,2566502.177273,41.356845684568,0,0
44.212220893821,-15.21690679896,36.161276127613,2491789.9349609,-1351.6043037499,2566502.177273,41.361276127613,0,0
44.212221157647,-15.218287356459,36.165706570657,2491789.9349609,-1351.6043037499,2566502.177273,41.365706570657,0,0
44.212221421473,-15.219667913958,36.170137013701,2491789.9349609,-1351.6043037499,2566502.177273,41.370137013701,0,0
44.212221685299,-15.221048471457,36.174567456746,2491789.9349609,-1351.6043037499,2566502.177273,41.374567456746,0,0
44.212221949126,-15.222429028956,36.17899789979,2491789.9349609,-1351.6043037499,2566502.177273,41.37899789979,0,0
44.212222212952,-15.223809586455,36.183428342834,2491789.9349609,-1351.6043037499,2566502.177273,41.383428342834,0,0
44.212222476778,-15.225190143954,36.187858785879,2491789.9349609,-1351.6043037499,2566502.177273,41.387858785879,0,0
44.212222740604,-15.226570701453,36.192289228923,2491789.9349609,-1351.6043037499,2566502.177273,41.392289228923,0,0
44.21222300443,-15.227951258952,36.196719671967,2491789.9349609,-1351.6043037499,2566502.177273,41.396719671967,0,0
44.212223268256,-15.229331816451,36.201150115011,2491789.9349609,-1351.6043037499,2566502.177273,41.401150115011,0,0
44.212223532083,-15.23071237395,36.205580558056,2491789.9349609,-1351.6043037499,2566502.177273,41.405580558056,0,0
44.212223795909,-15.232092931449,36.2100110011,2491789.9349609,-1351.6043037499,2566502.177273,41.4100110011,0,0
44.212224059735,-15.233473488948,36.214441444144,2491789.9349609,-1351.6043037499,2566502.177273,41.414441444144,0,0
44.212224323561,-15.234854046447,36.218871887189,2491789.9349609,-1351.6043037499,2566502.177273,41.418871887189,0,0
44.212224587387,-15.236234603946,36.223302330233,2491789.9349609,-1351.6043037499,2566502.177273,41.423302330233,0,0
44.212224851213,-15.237615161445,36.227732773277,2491789.9349609,-1351.6043037499,2566502.177273,41.427732773277,0,0
44.21222511504,-15.238995718944,36.232163216322,2491789.9349609,-1351.6043037499,2566502.177273,41.432163216322,0,0
44.212225378866,-15.240376276443,36.236593659366,2491789.9349609,-1351.6043037499,2566502.177273,41.436593659366,0,0
44.212225642692,-15.241756833942,36.24102410241,2491789.9349609,-1351.6043037499,2566502.177273,41.44102410241,0,0
44.212225906518,-15.243137391441,36.245454545455,2491789.9349609,-1351.6043037499,2566502.177273,41.445454545455,0,0
44.212226170344,-15.24451794894,36.249884988499,2491789.9349609,-1351.6043037499,2566502.177273,41.449884988499,0,0
44.21222643417,-15.245898506439,36.254315431543,2491789.9349609,-1351.6043037499,2566502.177273,41.454315431543,0,0
44.212226697997,-15.247279063938,36.258745874587,2491789.9349609,-1351.6043037499,2566502.177273,41.458745874587,0,0
44.212226961823,-15.248659621437,36.263176317632,2491789.9349609,-1351.6043037499,2566502.177273,41.463176317632,0,0
44.212227225649,-15.250040178936,36.267606760676,2491789.9349609,-1351.6043037499,2566502.177273,41.467606760676,0,0
44.212227489475,-15.251420736435,36.27203720372,2491789.9349609,-1351.6043037499,2566502.177273,41.47203720372,0,0
44.212227753301,-15.252801293934,36.276467646765,2491789.9349609,-1351.6043037499,2566502.177273,41.476467646765,0,0
44.212228017127,-15.254181851433,36.280898089809,2491789.9349609,-1351.6043037499,2566502.177273,41.480898089809,0,0
44.212228280954,-15.255562408932,36.285328532853,2491789.9349609,-1351.6043037499,2566502.177273,41.485328532853,0,0
44.21222854478,-15.256942966431,36.289758975898,2491789.9349609,-1351.6043037499,2566502.177273,41.489758975898,0,0
44.212228808606,-15.25832352393,36.294189418942,2491789.9349609,-1351.6043037499,2566502.177273,41.494189418942,0,0
44.212229072432,-15.259704081429,36.298619861986,2491789.9349609,-1351.6043037499,2566502.177273,41.498619861986,0,0
44.212229336258,-15.261084638928,36.30305030503,2491789.9349609,-1351.6043037499,2566502.177273,41.50305030503,0,0
44.212229600084,-15.262465196427,36.307480748075,2491789.9349609,-1351.6043037499,2566502.177273,41.507480748075,0,0
44.212229863911,-15.263845753926,36.311911191119,2491789.9349609,-1351.6043037499,2566502.177273,41.511911191119,0,0
44.212230127737,-15.265226311425,36.316341634163,2491789.9349609,-1351.6043037499,2566502.177273,41.516341634163,0,0
44.212230391563,-15.266606868924,36.320772077208,2491789.9349609,-1351.6043037499,2566502.177273,41.520772077208,0,0
44.212230655389,-15.267987426423,36.325202520252,2491789.9349609,-1351.6043037499,2566502.177273,41.525202520252,0,0
44.212230919215,-15.269367983922,36.329632963296,2491789.9349609,-1351.6043037499,2566502.177273,41.529632963296,0,0
44.212231183041,-15.270748541421,36.334063406341,2491789.9349609,-1351.6043037499,2566502.177273,41.534063406341,0,0
44.212231446868,-15.27212909892,36.338493849385,2491789.9349609,-1351.6043037499,2566502.177273,41.538493849385,0,0
44.212231710694,-15.273509656419,36.342924292429,2491789.9349609,-1351.6043037499,2566502.177273,41.542924292429,0,0
44.21223197452,-15.274890213918,36.347354735474,2491789.9349609,-1351.6043037499,2566502.177273,41.547354735474,0,0
44.212232238346,-15.276270771417,36.351785178518,2491789.9349609,-1351.6043037499,2566502.177273,41.551785178518,0,0
44.212232502172,-15.277651328916,36.356215621562,2491789.9349609,-1351.6043037499,2566502.177273,41.556215621562,0,0
44.212232765998,-15.279031886415,36.360646064606,2491789.9349609,-1351.6043037499,2566502.177273,41.560646064606,0,0
44.212233029825,-15.280412443914,36.365076507651,2491789.9349609,-1351.6043037499,2566502.177273,41.565076507651,0,0
44.212233293651,-15.281793001413,36.369506950695,2491789.9349609,-1351.6043037499,2566502.177273,41.569506950695,0,0
44.212233557477,-15.283173558912,36.373937393739,2491789.9349609,-1351.6043037499,2566502.177273,41.573937393739,0,0
44.212233821303,-15.284554116411,36.378367836784,2491789.9349609,-1351.6043037499,2566502.177273,41.578367836784,0,0
44.212234085129,-15.28593467391,36.382798279828,2491789.9349609,-1351.6043037499,2566502.177273,41.582798279828,0,0
44.212234348955,-15.287315231409,36.387228722872,2491789.9349609,-1351.6043037499,2566502.177273,41.587228722872,0,0
44.212234612781,-15.288695788909,36.391659165917,2491789.9349609,-1351.6043037499,2566502.177273,41.591659165917,0,0
44.212234876608,-15.290076346408,36.396089608961,2491789.9349609,-1351.6043037499,2566502.177273,41.596089608961,0,0
44.212235140434,-15.291456903907,36.400520052005,2491789.9349609,-1351.6043037499,2566502.177273,41.600520052005,0,0
44.21223540426,-15.292837461406,36.404950495049,2491789.9349609,-1351.6043037499,2566502.177273,41.60495049505,0,0
44.212235668086,-15.294218018905,36.409380938094,2491789.9349609,-1351.6043037499,2566502.177273,41.609380938094,0,0
44.212235931912,-15.295598576404,36.413811381138,2491789.9349609,-1351.6043037499,2566502.177273,41.613811381138,0,0
44.212236195738,-15.296979133903,36.418241824182,2491789.9349609,-1351.6043037499,2566502.177273,41.618241824182,0,0
44.212236459565,-15.298359691402,36.422672267227,2491789.9349609,-1351.6043037499,2566502.177273,41.622672267227,0,0
44.212236723391,-15.299740248901,36.427102710271,2491789.9349609,-1351.6043037499,2566502.177273,41.627102710271,0,0
44.212236987217,-15.3011208064,36.431533153315,2491789.9349609,-1351.6043037499,2566502.177273,41.631533153315,0,0
44.212237251043,-15.302501363899,36.43596359636,2491789.9349609,-1351.6043037499,2566502.177273,41.63596359636,0,0
44.212237514869,-15.303881921398,36.440394039404,2491789.9349609,-1351.6043037499,2566502.177273,41.640394039404,0,0
44.212237778695,-15.305262478897,36.444824482448,2491789.9349609,-1351.6043037499,2566502.177273,41.644824482448,0,0
44.212238042522,-15.306643036396,36.449254925493,2491789.9349609,-1351.6043037499,2566502.177273,41.649254925493,0,0
44.212238306348,-15.308023593895,36.453685368537,2491789.9349609,-1351.6043037499,2566502.177273,41.653685368537,0,0
44.212238570174,-15.309404151394,36.458115811581,2491789.9349609,-1351.6043037499,2566502.177273,41.658115811581,0,0
44.212238834,-15.310784708893,36.462546254625,2491789.9349609,-1351.6043037499,2566502.177273,41.662546254625,0,0
44.212239097826,-15.312165266392,36.46697669767,2491789.9349609,-1351.6043037499,2566502.177273,41.66697669767,0,0
44.212239361652,-15.313545823891,36.471407140714,2491789.9349609,-1351.6043037499,2566502.177273,41.671407140714,0,0
44.212239625479,-15.31492638139,36.475837583758,2491789.9349609,-1351.6043037499,2566502.177273,41.675837583758,0,0
44.212239889305,-15.316306938889,36.480268026803,2491789.9349609,-1351.6043037499,2566502.177273,41.680268026803,0,0
44.212240153131,-15.317687496388,36.484698469847,2491789.9349609,-1351.6043037499,2566502.177273,41.684698469847,0,0
44.212240416957,-15.319068053887,36.489128912891,2491789.9349609,-1351.6043037499,2566502.177273,41.689128912891,0,0
44.212240680783,-15.320448611386,36.493559355936,2491789.9349609,-1351.6043037499,2566502.177273,41.693559355936,0,0
44.212240944609,-15.321829168885,36.49798979898,2491789.9349609,-1351.6043037499,2566502.177273,41.69798979898,0,0
44.212241208436,-15.323209726384,36.502420242024,2491789.9349609,-1351.6043037499,2566502.177273,41.702420242024,0,0
44.212241472262,-15.324590283883,36.506850685068,2491789.9349609,-1351.6043037499,2566502.177273,41.706850685069,0,0
44.212241736088,-15.325970841382,36.511281128113,2491789.9349609,-1351.6043037499,2566502.177273,41.711281128113,0,0
44.212241999914,-15.327351398881,36.515711571157,2491789.9349609,-1351.6043037499,2566502.177273,41.715711571157,0,0
44.21224226374,-15.32873195638,36.520142014201,2491789.9349609,-1351.6043037499,2566502.177273,41.720142014201,0,0
44.212242527566,-15.330112513879,36.524572457246,2491789.9349609,-1351.6043037499,2566502.177273,41.724572457246,0,0
44.212242791393,-15.331493071378,36.52900290029,2491789.9349609,-1351.6043037499,2566502.177273,41.72900290029,0,0
44.212243055219,-15.332873628877,36.533433343334,2491789.9349609,-1351.6043037499,2566502.177273,41.733433343334,0,0
44.212243319045,-15.334254186376,36.537863786379,2491789.9349609,-1351.6043037499,2566502.177273,41.737863786379,0,0
44.212243582871,-15.335634743875,36.542294229423,2491789.9349609,-1351.6043037499,2566502.177273,41.742294229423,0,0
44.212243846697,-15.337015301374,36.546724672467,2491789.9349609,-1351.6043037499,2566502.177273,41.746724672467,0,0
44.21224411057,-15.338395858851,36.551155115512,2495253.8507959,-1281.1214639186,2567048.1507247,41.751155115512,0,0
44.212244374658,-15.33977641623,36.555585558556,2495253.8507959,-1281.1214639186,2567048.1507247,41.755585558556,0,0
44.212244638747,-15.341156973608,36.5600160016,2495253.8507959,-1281.1214639186,2567048.1507247,41.7600160016,0,0
44.212244902835,-15.342537530986,36.564446444644,2495253.8507959,-1281.1214639186,2567048.1507247,41.764446444644,0,0
44.212245166923,-15.343918088365,36.568876887689,2495253.8507959,-1281.1214639186,2567048.1507247,41.768876887689,0,0
44.212245431012,-15.345298645743,36.573307330733,2495253.8507959,-1281.1214639186,2567048.1507247,41.773307330733,0,0
44.2122456951,-15.346679203121,36.577737773777,2495253.8507959,-1281.1214639186,2567048.1507247,41.777737773777,0,0
44.212245959188,-15.3480597605,36.582168216822,2495253.8507959,-1281.1214639186,2567048.1507247,41.782168216822,0,0
44.212246223276,-15.349440317878,36.586598659866,2495253.8507959,-1281.1214639186,2567048.1507247,41.786598659866,0,0
44.212246487365,-15.350820875256,36.59102910291,2495253.8507959,-1281.1214639186,2567048.1507247,41.79102910291,0,0
44.212246751453,-15.352201432635,36.595459545955,2495253.8507959,-1281.1214639186,2567048.1507247,41.795459545955,0,0
44.212247015541,-15.353581990013,36.599889988999,2495253.8507959,-1281.1214639186,2567048.1507247,41.799889988999,0,0
44.21224727963,-15.354962547391,36.604320432043,2495253.8507959,-1281.1214639186,2567048.1507247,41.804320432043,0,0
44.212247543718,-15.35634310477,36.608750875088,2495253.8507959,-1281.1214639186,2567048.1507247,41.808750875088,0,0
44.212247807806,-15.357723662148,36.613181318132,2495253.8507959,-1281.1214639186,2567048.1507247,41.813181318132,0,0
44.212248071895,-15.359104219527,36.617611761176,2495253.8507959,-1281.1214639186,2567048.1507247,41.817611761176,0,0
44.212248335983,-15.360484776905,36.62204220422,2495253.8507959,-1281.1214639186,2567048.1507247,41.82204220422,0,0
44.212248600071,-15.361865334283,36.626472647265,2495253.8507959,-1281.1214639186,2567048.1507247,41.826472647265,0,0
44.21224886416,-15.363245891662,36.630903090309,2495253.8507959,-1281.1214639186,2567048.1507247,41.830903090309,0,0
44.212249128248,-15.36462644904,36.635333533353,2495253.8507959,-1281.1214639186,2567048.1507247,41.835333533353,0,0
44.212249392336,-15.366007006418,36.639763976398,2495253.8507959,-1281.1214639186,2567048.1507247,41.839763976398,0,0
44.212249656424,-15.367387563797,36.644194419442,2495253.8507959,-1281.1214639186,2567048.1507247,41.844194419442,0,0
44.212249920513,-15.368768121175,36.648624862486,2495253.8507959,-1281.1214639186,2567048.1507247,41.848624862486,0,0
44.212250184601,-15.370148678553,36.653055305531,2495253.8507959,-1281.1214639186,2567048.1507247,41.853055305531,0,0
44.212250448689,-15.371529235932,36.657485748575,2495253.8507959,-1281.1214639186,2567048.1507247,41.857485748575,0,0
44.212250712778,-15.37290979331,36.661916191619,2495253.8507959,-1281.1214639186,2567048.1507247,41.861916191619,0,0
44.212250976866,-15.374290350688,36.666346634663,2495253.8507959,-1281.1214639186,2567048.1507247,41.866346634663,0,0
44.212251240954,-15.375670908067,36.670777077708,2495253.8507959,-1281.1214639186,2567048.1507247,41.870777077708,0,0
44.212251505043,-15.377051465445,36.675207520752,2495253.8507959,-1281.1214639186,2567048.1507247,41.875207520752,0,0
44.212251769131,-15.378432022824,36.679637963796,2495253.8507959,-1281.1214639186,2567048.1507247,41.879637963796,0,0
44.212252033219,-15.379812580202,36.684068406841,2495253.8507959,-1281.1214639186,2567048.1507247,41.884068406841,0,0
44.212252297308,-15.38119313758,36.688498849885,2495253.8507959,-1281.1214639186,2567048.1507247,41.888498849885,0,0
44.212252561396,-15.382573694959,36.692929292929,2495253.8507959,-1281.1214639186,2567048.1507247,41.892929292929,0,0
44.212252825484,-15.383954252337,36.697359735974,2495253.8507959,-1281.1214639186,2567048.1507247,41.897359735974,0,0
44.212253089573,-15.385334809715,36.701790179018,2495253.8507959,-1281.1214639186,2567048.1507247,41.901790179018,0,0
44.212253353661,-15.386715367094,36.706220622062,2495253.8507959,-1281.1214639186,2567048.1507247,41.906220622062,0,0
44.212253617749,-15.388095924472,36.710651065107,2495253.8507959,-1281.1214639186,2567048.1507247,41.910651065107,0,0
44.212253881837,-15.38947648185,36.715081508151,2495253.8507959,-1281.1214639186,2567048.1507247,41.915081508151,0,0
44.212254145926,-15.390857039229,36.719511951195,2495253.8507959,-1281.1214639186,2567048.1507247,41.919511951195,0,0
44.212254410014,-15.392237596607,36.723942394239,2495253.8507959,-1281.1214639186,2567048.1507247,41.923942394239,0,0
44.212254674102,-15.393618153985,36.728372837284,2495253.8507959,-1281.1214639186,2567048.1507247,41.928372837284,0,0
44.212254938191,-15.394998711364,36.732803280328,2495253.8507959,-1281.1214639186,2567048.1507247,41.932803280328,0,0
44.212255202279,-15.396379268742,36.737233723372,2495253.8507959,-1281.1214639186,2567048.1507247,41.937233723372,0,0
44.212255466367,-15.397759826121,36.741664166417,2495253.8507959,-1281.1214639186,2567048.1507247,41.941664166417,0,0
44.212255730456,-15.399140383499,36.746094609461,2495253.8507959,-1281.1214639186,2567048.1507247,41.946094609461,0,0
44.212255994544,-15.400520940877,36.750525052505,2495253.8507959,-1281.1214639186,2567048.1507247,41.950525052505,0,0
44.212256258632,-15.401901498256,36.75495549555,2495253.8507959,-1281.1214639186,2567048.1507247,41.95495549555,0,0
44.212256522721,-15.403282055634,36.759385938594,2495253.8507959,-1281.1214639186,2567048.1507247,41.959385938594,0,0
44.212256786809,-15.404662613012,36.763816381638,2495253.8507959,-1281.1214639186,2567048.1507247,41.963816381638,0,0
44.212257050897,-15.406043170391,36.768246824682,2495253.8507959,-1281.1214639186,2567048.1507247,41.968246824682,0,0
44.212257314985,-15.407423727769,36.772677267727,2495253.8507959,-1281.1214639186,2567048.1507247,41.972677267727,0,0
44.212257579074,-15.408804285147,36.777107710771,2495253.8507959,-1281.1214639186,2567048.1507247,41.977107710771,0,0
44.212257843162,-15.410184842526,36.781538153815,2495253.8507959,-1281.1214639186,2567048.1507247,41.981538153815,0,0
44.21225810725,-15.411565399904,36.78596859686,2495253.8507959,-1281.1214639186,2567048.1507247,41.98596859686,0,0
44.212258371339,-15.412945957282,36.790399039904,2495253.8507959,-1281.1214639186,2567048.1507247,41.990399039904,0,0
44.212258635427,-15.414326514661,36.794829482948,2495253.8507959,-1281.1214639186,2567048.1507247,41.994829482948,0,0
44.212258899515,-15.415707072039,36.799259925993,2495253.8507959,-1281.1214639186,2567048.1507247,41.999259925993,0,0
44.212259163604,-15.417087629418,36.803690369037,2495253.8507959,-1281.1214639186,2567048.1507247,42.003690369037,0,0
44.212259427692,-15.418468186796,36.808120812081,2495253.8507959,-1281.1214639186,2567048.1507247,42.008120812081,0,0
44.21225969178,-15.419848744174,36.812551255126,2495253.8507959,-1281.1214639186,2567048.1507247,42.012551255126,0,0
44.212259955869,-15.421229301553,36.81698169817,2495253.8507959,-1281.1214639186,2567048.1507247,42.01698169817,0,0
44.212260219957,-15.422609858931,36.821412141214,2495253.8507959,-1281.1214639186,2567048.1507247,42.021412141214,0,0
44.212260484045,-15.423990416309,36.825842584258,2495253.8507959,-1281.1214639186,2567048.1507247,42.025842584258,0,0
44.212260748134,-15.425370973688,36.830273027303,2495253.8507959,-1281.1214639186,2567048.1507247,42.030273027303,0,0
44.212261012222,-15.426751531066,36.834703470347,2495253.8507959,-1281.1214639186,2567048.1507247,42.034703470347,0,0
44.21226127631,-15.428132088444,36.839133913391,2495253.8507959,-1281.1214639186,2567048.1507247,42.039133913391,0,0
44.212261540398,-15.429512645823,36.843564356436,2495253.8507959,-1281.1214639186,2567048.1507247,42.043564356436,0,0
44.212261804487,-15.430893203201,36.84799479948,2495253.8507959,-1281.1214639186,2567048.1507247,42.04799479948,0,0
44.212262068575,-15.432273760579,36.852425242524,2495253.8507959,-1281.1214639186,2567048.1507247,42.052425242524,0,0
44.212262332663,-15.433654317958,36.856855685569,2495253.8507959,-1281.1214639186,2567048.1507247,42.056855685569,0,0
44.212262596752,-15.435034875336,36.861286128613,2495253.8507959,-1281.1214639186,2567048.1507247,42.061286128613,0,0
44.21226286084,-15.436415432714,36.865716571657,2495253.8507959,-1281.1214639186,2567048.1507247,42.065716571657,0,0
44.212263124928,-15.437795990093,36.870147014701,2495253.8507959,-1281.1214639186,2567048.1507247,42.070147014701,0,0
44.212263389017,-15.439176547471,36.874577457746,2495253.8507959,-1281.1214639186,2567048.1507247,42.074577457746,0,0
44.212263653105,-15.44055710485,36.87900790079,2495253.8507959,-1281.1214639186,2567048.1507247,42.07900790079,0,0
44.212263917193,-15.441937662228,36.883438343834,2495253.8507959,-1281.1214639186,2567048.1507247,42.083438343834,0,0
44.212264181282,-15.443318219606,36.887868786879,2495253.8507959,-1281.1214639186,2567048.1507247,42.087868786879,0,0
44.21226444537,-15.444698776985,36.892299229923,2495253.8507959,-1281.1214639186,2567048.1507247,42.092299229923,0,0
44.212264709458,-15.446079334363,36.896729672967,2495253.8507959,-1281.1214639186,2567048.1507247,42.096729672967,0,0
44.212264973546,-15.447459891741,36.901160116012,2495253.8507959,-1281.1214639186,2567048.1507247,42.101160116012,0,0
44.212265237635,-15.44884044912,36.905590559056,2495253.8507959,-1281.1214639186,2567048.1507247,42.105590559056,0,0
44.212265501723,-15.450221006498,36.9100210021,2495253.8507959,-1281.1214639186,2567048.1507247,42.1100210021,0,0
44.212265765811,-15.451601563876,36.914451445145,2495253.8507959,-1281.1214639186,2567048.1507247,42.114451445145,0,0
44.2122660299,-15.452982121255,36.918881888189,2495253.8507959,-1281.1214639186,2567048.1507247,42.118881888189,0,0
44.212266293988,-15.454362678633,36.923312331233,2495253.8507959,-1281.1214639186,2567048.1507247,42.123312331233,0,0
44.212266558076,-15.455743236011,36.927742774277,2495253.8507959,-1281.1214639186,2567048.1507247,42.127742774277,0,0
44.212266822165,-15.45712379339,36.932173217322,2495253.8507959,-1281.1214639186,2567048.1507247,42.132173217322,0,0
44.212267086253,-15.458504350768,36.936603660366,2495253.8507959,-1281.1214639186,2567048.1507247,42.136603660366,0,0
44.212267350341,-15.459884908147,36.94103410341,2495253.8507959,-1281.1214639186,2567048.1507247,42.14103410341,0,0
44.21226761443,-15.461265465525,36.945464546455,2495253.8507959,-1281.1214639186,2567048.1507247,42.145464546455,0,0
44.212267878518,-15.462646022903,36.949894989499,2495253.8507959,-1281.1214639186,2567048.1507247,42.149894989499,0,0
44.212268142606,-15.464026580282,36.954325432543,2495253.8507959,-1281.1214639186,2567048.1507247,42.154325432543,0,0
44.212268406695,-15.46540713766,36.958755875588,2495253.8507959,-1281.1214639186,2567048.1507247,42.158755875588,0,0
44.212268670783,-15.466787695038,36.963186318632,2495253.8507959,-1281.1214639186,2567048.1507247,42.163186318632,0,0
44.212268934871,-15.468168252417,36.967616761676,2495253.8507959,-1281.1214639186,2567048.1507247,42.167616761676,0,0
44.212269198959,-15.469548809795,36.97204720472,2495253.8507959,-1281.1214639186,2567048.1507247,42.17204720472,0,0
44.212269463048,-15.470929367173,36.976477647765,2495253.8507959,-1281.1214639186,2567048.1507247,42.176477647765,0,0
44.212269727136,-15.472309924552,36.980908090809,2495253.8507959,-1281.1214639186,2567048.1507247,42.180908090809,0,0
44.212269991224,-15.47369048193,36.985338533853,2495253.8507959,-1281.1214639186,2567048.1507247,42.185338533853,0,0
44.212270255313,-15.475071039308,36.989768976898,2495253.8507959,-1281.1214639186,2567048.1507247,42.189768976898,0,0
44.212270519401,-15.476451596687,36.994199419942,2495253.8507959,-1281.1214639186,2567048.1507247,42.194199419942,0,0
44.212270783489,-15.477832154065,36.998629862986,2495253.8507959,-1281.1214639186,2567048.1507247,42.198629862986,0,0
44.212271047578,-15.479212711444,37.003060306031,2495253.8507959,-1281.1214639186,2567048.1507247,42.203060306031,0,0
44.212271311666,-15.480593268822,37.007490749075,2495253.8507959,-1281.1214639186,2567048.1507247,42.207490749075,0,0
44.212271575754,-15.4819738262,37.011921192119,2495253.8507959,-1281.1214639186,2567048.1507247,42.211921192119,0,0
44.212271839843,-15.483354383579,37.016351635164,2495253.8507959,-1281.1214639186,2567048.1507247,42.216351635164,0,0
44.212272103931,-15.484734940957,37.020782078208,2495253.8507959,-1281.1214639186,2567048.1507247,42.220782078208,0,0
44.212272368019,-15.486115498335,37.025212521252,2495253.8507959,-1281.1214639186,2567048.1507247,42.225212521252,0,0
44.212272632107,-15.487496055714,37.029642964296,2495253.8507959,-1281.1214639186,2567048.1507247,42.229642964296,0,0
44.212272896196,-15.488876613092,37.034073407341,2495253.8507959,-1281.1214639186,2567048.1507247,42.234073407341,0,0
44.212273160284,-15.49025717047,37.038503850385,2495253.8507959,-1281.1214639186,2567048.1507247,42.238503850385,0,0
44.212273424372,-15.491637727849,37.042934293429,2495253.8507959,-1281.1214639186,2567048.1507247,42.242934293429,0,0
44.212273688461,-15.493018285227,37.047364736474,2495253.8507959,-1281.1214639186,2567048.1507247,42.247364736474,0,0
44.212273952549,-15.494398842605,37.051795179518,2495253.8507959,-1281.1214639186,2567048.1507247,42.251795179518,0,0
44.212274216637,-15.495779399984,37.056225622562,2495253.8507959,-1281.1214639186,2567048.1507247,42.256225622562,0,0
44.212274480726,-15.497159957362,37.060656065607,2495253.8507959,-1281.1214639186,2567048.1507247,42.260656065607,0,0
44.212274744814,-15.49854051474,37.065086508651,2495253.8507959,-1281.1214639186,2567048.1507247,42.265086508651,0,0
44.212275008902,-15.499921072119,37.069516951695,2495253.8507959,-1281.1214639186,2567048.1507247,42.269516951695,0,0
44.212275272991,-15.501301629497,37.073947394739,2495253.8507959,-1281.1214639186,2567048.1507247,42.273947394739,0,0
44.212275537079,-15.502682186876,37.078377837784,2495253.8507959,-1281.1214639186,2567048.1507247,42.278377837784,0,0
44.212275801167,-15.504062744254,37.082808280828,2495253.8507959,-1281.1214639186,2567048.1507247,42.282808280828,0,0
44.212276065256,-15.505443301632,37.087238723872,2495253.8507959,-1281.1214639186,2567048.1507247,42.287238723872,0,0
44.212276329344,-15.506823859011,37.091669166917,2495253.8507959,-1281.1214639186,2567048.1507247,42.291669166917,0,0
44.212276593432,-15.508204416389,37.096099609961,2495253.8507959,-1281.1214639186,2567048.1507247,42.296099609961,0,0
44.21227685752,-15.509584973767,37.100530053005,2495253.8507959,-1281.1214639186,2567048.1507247,42.300530053005,0,0
44.212277121609,-15.510965531146,37.10496049605,2495253.8507959,-1281.1214639186,2567048.1507247,42.30496049605,0,0
44.212277385697,-15.512346088524,37.109390939094,2495253.8507959,-1281.1214639186,2567048.1507247,42.309390939094,0,0
44.212277649785,-15.513726645902,37.113821382138,2495253.8507959,-1281.1214639186,2567048.1507247,42.313821382138,0,0
44.212277913874,-15.515107203281,37.118251825183,2495253.8507959,-1281.1214639186,2567048.1507247,42.318251825183,0,0
44.212278177962,-15.516487760659,37.122682268227,2495253.8507959,-1281.1214639186,2567048.1507247,42.322682268227,0,0
44.21227844205,-15.517868318037,37.127112711271,2495253.8507959,-1281.1214639186,2567048.1507247,42.327112711271,0,0
44.212278706139,-15.519248875416,37.131543154315,2495253.8507959,-1281.1214639186,2567048.1507247,42.331543154315,0,0
44.212278970227,-15.520629432794,37.13597359736,2495253.8507959,-1281.1214639186,2567048.1507247,42.33597359736,0,0
44.212279234315,-15.522009990173,37.140404040404,2495253.8507959,-1281.1214639186,2567048.1507247,42.340404040404,0,0
44.212279498404,-15.523390547551,37.144834483448,2495253.8507959,-1281.1214639186,2567048.1507247,42.344834483448,0,0
44.212279762492,-15.524771104929,37.149264926493,2495253.8507959,-1281.1214639186,2567048.1507247,42.349264926493,0,0
44.21228002658,-15.526151662308,37.153695369537,2495253.8507959,-1281.1214639186,2567048.1507247,42.353695369537,0,0
44.212280290668,-15.527532219686,37.158125812581,2495253.8507959,-1281.1214639186,2567048.1507247,42.358125812581,0,0
44.212280554757,-15.528912777064,37.162556255626,2495253.8507959,-1281.1214639186,2567048.1507247,42.362556255626,0,0
44.212280818845,-15.530293334443,37.16698669867,2495253.8507959,-1281.1214639186,2567048.1507247,42.36698669867,0,0
44.212281082933,-15.531673891821,37.171417141714,2495253.8507959,-1281.1214639186,2567048.1507247,42.371417141714,0,0
44.212281347022,-15.533054449199,37.175847584758,2495253.8507959,-1281.1214639186,2567048.1507247,42.375847584758,0,0
44.21228161111,-15.534435006578,37.180278027803,2495253.8507959,-1281.1214639186,2567048.1507247,42.380278027803,0,0
44.212281875198,-15.535815563956,37.184708470847,2495253.8507959,-1281.1214639186,2567048.1507247,42.384708470847,0,0
44.212282139287,-15.537196121334,37.189138913891,2495253.8507959,-1281.1214639186,2567048.1507247,42.389138913891,0,0
44.212282403375,-15.538576678713,37.193569356936,2495253.8507959,-1281.1214639186,2567048.1507247,42.393569356936,0,0
44.212282667463,-15.539957236091,37.19799979998,2495253.8507959,-1281.1214639186,2567048.1507247,42.39799979998,0,0
44.212282931552,-15.54133779347,37.202430243024,2495253.8507959,-1281.1214639186,2567048.1507247,42.402430243024,0,0
44.21228319564,-15.542718350848,37.206860686069,2495253.8507959,-1281.1214639186,2567048.1507247,42.406860686069,0,0
44.212283459728,-15.544098908226,37.211291129113,2495253.8507959,-1281.1214639186,2567048.1507247,42.411291129113,0,0
44.212283723816,-15.545479465605,37.215721572157,2495253.8507959,-1281.1214639186,2567048.1507247,42.415721572157,0,0
44.212283987905,-15.546860022983,37.220152015202,2495253.8507959,-1281.1214639186,2567048.1507247,42.420152015202,0,0
44.212284251993,-15.548240580361,37.224582458246,2495253.8507959,-1281.1214639186,2567048.1507247,42.424582458246,0,0
44.212284516081,-15.54962113774,37.22901290129,2495253.8507959,-1281.1214639186,2567048.1507247,42.42901290129,0,0
44.21228478017,-15.551001695118,37.233443344334,2495253.8507959,-1281.1214639186,2567048.1507247,42.433443344334,0,0
44.212285044258,-15.552382252496,37.237873787379,2495253.8507959,-1281.1214639186,2567048.1507247,42.437873787379,0,0
44.212285308346,-15.553762809875,37.242304230423,2495253.8507959,-1281.1214639186,2567048.1507247,42.442304230423,0,0
44.212285572435,-15.555143367253,37.246734673467,2495253.8507959,-1281.1214639186,2567048.1507247,42.446734673467,0,0
44.212285836523,-15.556523924631,37.251165116512,2495253.8507959,-1281.1214639186,2567048.1507247,42.451165116512,0,0
44.212286100611,-15.55790448201,37.255595559556,2495253.8507959,-1281.1214639186,2567048.1507247,42.455595559556,0,0
44.2122863647,-15.559285039388,37.2600260026,2495253.8507959,-1281.1214639186,2567048.1507247,42.4600260026,0,0
44.212286628788,-15.560665596766,37.264456445645,2495253.8507959,-1281.1214639186,2567048.1507247,42.464456445645,0,0
44.212286892876,-15.562046154145,37.268886888689,2495253.8507959,-1281.1214639186,2567048.1507247,42.468886888689,0,0
44.212287156965,-15.563426711523,37.273317331733,2495253.8507959,-1281.1214639186,2567048.1507247,42.473317331733,0,0
44.212287421053,-15.564807268902,37.277747774777,2495253.8507959,-1281.1214639186,2567048.1507247,42.477747774777,0,0
44.212287685141,-15.56618782628,37.282178217822,2495253.8507959,-1281.1214639186,2567048.1507247,42.482178217822,0,0
44.212287949229,-15.567568383658,37.286608660866,2495253.8507959,-1281.1214639186,2567048.1507247,42.486608660866,0,0
44.212288213318,-15.568948941037,37.29103910391,2495253.8507959,-1281.1214639186,2567048.1507247,42.49103910391,0,0
44.212288477406,-15.570329498415,37.295469546955,2495253.8507959,-1281.1214639186,2567048.1507247,42.495469546955,0,0
44.212288741494,-15.571710055793,37.299899989999,2495253.8507959,-1281.1214639186,2567048.1507247,42.499899989999,0,0
44.212289005583,-15.573090613172,37.304330433043,2495253.8507959,-1281.1214639186,2567048.1507247,42.504330433043,0,0
44.212289269671,-15.57447117055,37.308760876088,2495253.8507959,-1281.1214639186,2567048.1507247,42.508760876088,0,0
44.212289533759,-15.575851727928,37.313191319132,2495253.8507959,-1281.1214639186,2567048.1507247,42.513191319132,0,0
44.212289797848,-15.577232285307,37.317621762176,2495253.8507959,-1281.1214639186,2567048.1507247,42.517621762176,0,0
44.212290061936,-15.578612842685,37.322052205221,2495253.8507959,-1281.1214639186,2567048.1507247,42.522052205221,0,0
44.212290326024,-15.579993400063,37.326482648265,2495253.8507959,-1281.1214639186,2567048.1507247,42.526482648265,0,0
44.212290590113,-15.581373957442,37.330913091309,2495253.8507959,-1281.1214639186,2567048.1507247,42.530913091309,0,0
44.212290854201,-15.58275451482,37.335343534353,2495253.8507959,-1281.1214639186,2567048.1507247,42.535343534353,0,0
44.212291118289,-15.584135072199,37.339773977398,2495253.8507959,-1281.1214639186,2567048.1507247,42.539773977398,0,0
44.212291382377,-15.585515629577,37.344204420442,2495253.8507959,-1281.1214639186,2567048.1507247,42.544204420442,0,0
44.212291646466,-15.586896186955,37.348634863486,2495253.8507959,-1281.1214639186,2567048.1507247,42.548634863486,0,0
44.212291910554,-15.588276744334,37.353065306531,2495253.8507959,-1281.1214639186,2567048.1507247,42.553065306531,0,0
44.212292174642,-15.589657301712,37.357495749575,2495253.8507959,-1281.1214639186,2567048.1507247,42.557495749575,0,0
44.212292438731,-15.59103785909,37.361926192619,2495253.8507959,-1281.1214639186,2567048.1507247,42.561926192619,0,0
44.212292702819,-15.592418416469,37.366356635664,2495253.8507959,-1281.1214639186,2567048.1507247,42.566356635664,0,0
44.212292966907,-15.593798973847,37.370787078708,2495253.8507959,-1281.1214639186,2567048.1507247,42.570787078708,0,0
44.212293230996,-15.595179531225,37.375217521752,2495253.8507959,-1281.1214639186,2567048.1507247,42.575217521752,0,0
44.212293495084,-15.596560088604,37.379647964796,2495253.8507959,-1281.1214639186,2567048.1507247,42.579647964796,0,0
44.212293759172,-15.597940645982,37.384078407841,2495253.8507959,-1281.1214639186,2567048.1507247,42.584078407841,0,0
44.212294023261,-15.59932120336,37.388508850885,2495253.8507959,-1281.1214639186,2567048.1507247,42.588508850885,0,0
44.212294287349,-15.600701760739,37.392939293929,2495253.8507959,-1281.1214639186,2567048.1507247,42.592939293929,0,0
44.212294551437,-15.602082318117,37.397369736974,2495253.8507959,-1281.1214639186,2567048.1507247,42.597369736974,0,0
44.212294815526,-15.603462875496,37.401800180018,2495253.8507959,-1281.1214639186,2567048.1507247,42.601800180018,0,0
44.212295079614,-15.604843432874,37.406230623062,2495253.8507959,-1281.1214639186,2567048.1507247,42.606230623062,0,0
44.212295343702,-15.606223990252,37.410661066107,2495253.8507959,-1281.1214639186,2567048.1507247,42.610661066107,0,0
44.21229560779,-15.607604547631,37.415091509151,2495253.8507959,-1281.1214639186,2567048.1507247,42.615091509151,0,0
44.212295871879,-15.608985105009,37.419521952195,2495253.8507959,-1281.1214639186,2567048.1507247,42.619521952195,0,0
44.212296135967,-15.610365662387,37.42395239524,2495253.8507959,-1281.1214639186,2567048.1507247,42.62395239524,0,0
44.212296400055,-15.611746219766,37.428382838284,2495253.8507959,-1281.1214639186,2567048.1507247,42.628382838284,0,0
44.212296664144,-15.613126777144,37.432813281328,2495253.8507959,-1281.1214639186,2567048.1507247,42.632813281328,0,0
44.212296928232,-15.614507334522,37.437243724372,2495253.8507959,-1281.1214639186,2567048.1507247,42.637243724372,0,0
44.21229719232,-15.615887891901,37.441674167417,2495253.8507959,-1281.1214639186,2567048.1507247,42.641674167417,0,0
44.212297456409,-15.617268449279,37.446104610461,2495253.8507959,-1281.1214639186,2567048.1507247,42.646104610461,0,0
44.212297720497,-15.618649006657,37.450535053505,2495253.8507959,-1281.1214639186,2567048.1507247,42.650535053505,0,0
44.212297984585,-15.620029564036,37.45496549655,2495253.8507959,-1281.1214639186,2567048.1507247,42.65496549655,0,0
44.212298248674,-15.621410121414,37.459395939594,2495253.8507959,-1281.1214639186,2567048.1507247,42.659395939594,0,0
44.212298512762,-15.622790678792,37.463826382638,2495253.8507959,-1281.1214639186,2567048.1507247,42.663826382638,0,0
44.21229877685,-15.624171236171,37.468256825683,2495253.8507959,-1281.1214639186,2567048.1507247,42.668256825683,0,0
44.212299040938,-15.625551793549,37.472687268727,2495253.8507959,-1281.1214639186,2567048.1507247,42.672687268727,0,0
44.212299305027,-15.626932350928,37.477117711771,2495253.8507959,-1281.1214639186,2567048.1507247,42.677117711771,0,0
44.212299569115,-15.628312908306,37.481548154815,2495253.8507959,-1281.1214639186,2567048.1507247,42.681548154815,0,0
44.212299833203,-15.629693465684,37.48597859786,2495253.8507959,-1281.1214639186,2567048.1507247,42.68597859786,0,0
44.212300097292,-15.631074023063,37.490409040904,2495253.8507959,-1281.1214639186,2567048.1507247,42.690409040904,0,0
44.21230036138,-15.632454580441,37.494839483948,2495253.8507959,-1281.1214639186,2567048.1507247,42.694839483948,0,0
44.212300625468,-15.633835137819,37.499269926993,2495253.8507959,-1281.1214639186,2567048.1507247,42.699269926993,0,0
44.212300889557,-15.635215695198,37.503700370037,2495253.8507959,-1281.1214639186,2567048.1507247,42.703700370037,0,0
44.212301153645,-15.636596252576,37.508130813081,2495253.8507959,-1281.1214639186,2567048.1507247,42.708130813081,0,0
44.212301417733,-15.637976809954,37.512561256126,2495253.8507959,-1281.1214639186,2567048.1507247,42.712561256126,0,0
44.212301681822,-15.639357367333,37.51699169917,2495253.8507959,-1281.1214639186,2567048.1507247,42.71699169917,0,0
44.21230194591,-15.640737924711,37.521422142214,2495253.8507959,-1281.1214639186,2567048.1507247,42.721422142214,0,0
44.212302209998,-15.642118482089,37.525852585259,2495253.8507959,-1281.1214639186,2567048.1507247,42.725852585259,0,0
44.212302474087,-15.643499039468,37.530283028303,2495253.8507959,-1281.1214639186,2567048.1507247,42.730283028303,0,0
44.212302738175,-15.644879596846,37.534713471347,2495253.8507959,-1281.1214639186,2567048.1507247,42.734713471347,0,0
44.212303002263,-15.646260154225,37.539143914391,2495253.8507959,-1281.1214639186,2567048.1507247,42.739143914391,0,0
44.212303266351,-15.647640711603,37.543574357436,2495253.8507959,-1281.1214639186,2567048.1507247,42.743574357436,0,0
44.21230353044,-15.649021268981,37.54800480048,2495253.8507959,-1281.1214639186,2567048.1507247,42.74800480048,0,0
44.212303794528,-15.65040182636,37.552435243524,2495253.8507959,-1281.1214639186,2567048.1507247,42.752435243524,0,0
44.212304058616,-15.651782383738,37.556865686569,2495253.8507959,-1281.1214639186,2567048.1507247,42.756865686569,0,0
44.212304322705,-15.653162941116,37.561296129613,2495253.8507959,-1281.1214639186,2567048.1507247,42.761296129613,0,0
44.212304586793,-15.654543498495,37.565726572657,2495253.8507959,-1281.1214639186,2567048.1507247,42.765726572657,0,0
44.212304850881,-15.655924055873,37.570157015702,2495253.8507959,-1281.1214639186,2567048.1507247,42.770157015702,0,0
44.21230511497,-15.657304613251,37.574587458746,2495253.8507959,-1281.1214639186,2567048.1507247,42.774587458746,0,0
44.212305379058,-15.65868517063,37.57901790179,2495253.8507959,-1281.1214639186,2567048.1507247,42.77901790179,0,0
44.212305643146,-15.660065728008,37.583448344834,2495253.8507959,-1281.1214639186,2567048.1507247,42.783448344834,0,0
44.212305907235,-15.661446285386,37.587878787879,2495253.8507959,-1281.1214639186,2567048.1507247,42.787878787879,0,0
44.212306171323,-15.662826842765,37.592309230923,2495253.8507959,-1281.1214639186,2567048.1507247,42.792309230923,0,0
44.212306435411,-15.664207400143,37.596739673967,2495253.8507959,-1281.1214639186,2567048.1507247,42.796739673967,0,0
44.212306699499,-15.665587957522,37.601170117012,2495253.8507959,-1281.1214639186,2567048.1507247,42.801170117012,0,0
44.212306963588,-15.6669685149,37.605600560056,2495253.8507959,-1281.1214639186,2567048.1507247,42.805600560056,0,0
44.212307227676,-15.668349072278,37.6100310031,2495253.8507959,-1281.1214639186,2567048.1507247,42.8100310031,0,0
44.212307491764,-15.669729629657,37.614461446145,2495253.8507959,-1281.1214639186,2567048.1507247,42.814461446145,0,0
44.212307755853,-15.671110187035,37.618891889189,2495253.8507959,-1281.1214639186,2567048.1507247,42.818891889189,0,0
44.212308019941,-15.672490744413,37.623322332233,2495253.8507959,-1281.1214639186,2567048.1507247,42.823322332233,0,0
44.212308284029,-15.673871301792,37.627752775278,2495253.8507959,-1281.1214639186,2567048.1507247,42.827752775278,0,0
44.212308548118,-15.67525185917,37.632183218322,2495253.8507959,-1281.1214639186,2567048.1507247,42.832183218322,0,0
44.212308812206,-15.676632416548,37.636613661366,2495253.8507959,-1281.1214639186,2567048.1507247,42.836613661366,0,0
44.212309076294,-15.678012973927,37.64104410441,2495253.8507959,-1281.1214639186,2567048.1507247,42.84104410441,0,0
44.212309340383,-15.679393531305,37.645474547455,2495253.8507959,-1281.1214639186,2567048.1507247,42.845474547455,0,0
44.212309604471,-15.680774088683,37.649904990499,2495253.8507959,-1281.1214639186,2567048.1507247,42.849904990499,0,0
44.212309868559,-15.682154646062,37.654335433543,2495253.8507959,-1281.1214639186,2567048.1507247,42.854335433543,0,0
44.212310132647,-15.68353520344,37.658765876588,2495253.8507959,-1281.1214639186,2567048.1507247,42.858765876588,0,0
44.212310396736,-15.684915760818,37.663196319632,2495253.8507959,-1281.1214639186,2567048.1507247,42.863196319632,0,0
44.212310660824,-15.686296318197,37.667626762676,2495253.8507959,-1281.1214639186,2567048.1507247,42.867626762676,0,0
44.212310924912,-15.687676875575,37.672057205721,2495253.8507959,-1281.1214639186,2567048.1507247,42.872057205721,0,0
44.212311189001,-15.689057432954,37.676487648765,2495253.8507959,-1281.1214639186,2567048.1507247,42.876487648765,0,0
44.212311453089,-15.690437990332,37.680918091809,2495253.8507959,-1281.1214639186,2567048.1507247,42.880918091809,0,0
44.212311717177,-15.69181854771,37.685348534853,2495253.8507959,-1281.1214639186,2567048.1507247,42.885348534853,0,0
44.212311981266,-15.693199105089,37.689778977898,2495253.8507959,-1281.1214639186,2567048.1507247,42.889778977898,0,0
44.212312245354,-15.694579662467,37.694209420942,2495253.8507959,-1281.1214639186,2567048.1507247,42.894209420942,0,0
44.212312509442,-15.695960219845,37.698639863986,2495253.8507959,-1281.1214639186,2567048.1507247,42.898639863986,0,0
44.212312773531,-15.697340777224,37.703070307031,2495253.8507959,-1281.1214639186,2567048.1507247,42.903070307031,0,0
44.212313037619,-15.698721334602,37.707500750075,2495253.8507959,-1281.1214639186,2567048.1507247,42.907500750075,0,0
44.212313301707,-15.70010189198,37.711931193119,2495253.8507959,-1281.1214639186,2567048.1507247,42.911931193119,0,0
44.212313565796,-15.701482449359,37.716361636164,2495253.8507959,-1281.1214639186,2567048.1507247,42.916361636164,0,0
44.212313829884,-15.702863006737,37.720792079208,2495253.8507959,-1281.1214639186,2567048.1507247,42.920792079208,0,0
44.212314093972,-15.704243564115,37.725222522252,2495253.8507959,-1281.1214639186,2567048.1507247,42.925222522252,0,0
44.21231435806,-15.705624121494,37.729652965297,2495253.8507959,-1281.1214639186,2567048.1507247,42.929652965297,0,0
44.212314622149,-15.707004678872,37.734083408341,2495253.8507959,-1281.1214639186,2567048.1507247,42.934083408341,0,0
44.212314886237,-15.708385236251,37.738513851385,2495253.8507959,-1281.1214639186,2567048.1507247,42.938513851385,0,0
44.212315150325,-15.709765793629,37.742944294429,2495253.8507959,-1281.1214639186,2567048.1507247,42.942944294429,0,0
44.212315414414,-15.711146351007,37.747374737474,2495253.8507959,-1281.1214639186,2567048.1507247,42.947374737474,0,0
44.212315678502,-15.712526908386,37.751805180518,2495253.8507959,-1281.1214639186,2567048.1507247,42.951805180518,0,0
44.21231594259,-15.713907465764,37.756235623562,2495253.8507959,-1281.1214639186,2567048.1507247,42.956235623562,0,0
44.212316206679,-15.715288023142,37.760666066607,2495253.8507959,-1281.1214639186,2567048.1507247,42.960666066607,0,0
44.212316470767,-15.716668580521,37.765096509651,2495253.8507959,-1281.1214639186,2567048.1507247,42.965096509651,0,0
44.212316734855,-15.718049137899,37.769526952695,2495253.8507959,-1281.1214639186,2567048.1507247,42.969526952695,0,0
44.212316998944,-15.719429695277,37.77395739574,2495253.8507959,-1281.1214639186,2567048.1507247,42.97395739574,0,0
44.212317263032,-15.720810252656,37.778387838784,2495253.8507959,-1281.1214639186,2567048.1507247,42.978387838784,0,0
44.21231752712,-15.722190810034,37.782818281828,2495253.8507959,-1281.1214639186,2567048.1507247,42.982818281828,0,0
44.212317791209,-15.723571367412,37.787248724872,2495253.8507959,-1281.1214639186,2567048.1507247,42.987248724872,0,0
44.212318055297,-15.724951924791,37.791679167917,2495253.8507959,-1281.1214639186,2567048.1507247,42.991679167917,0,0
44.212318319385,-15.726332482169,37.796109610961,2495253.8507959,-1281.1214639186,2567048.1507247,42.996109610961,0,0
44.212318583473,-15.727713039548,37.800540054005,2495253.8507959,-1281.1214639186,2567048.1507247,43.000540054005,0,0
44.212318847562,-15.729093596926,37.80497049705,2495253.8507959,-1281.1214639186,2567048.1507247,43.00497049705,0,0
44.21231911165,-15.730474154304,37.809400940094,2495253.8507959,-1281.1214639186,2567048.1507247,43.009400940094,0,0
44.212319375738,-15.731854711683,37.813831383138,2495253.8507959,-1281.1214639186,2567048.1507247,43.013831383138,0,0
44.212319639827,-15.733235269061,37.818261826183,2495253.8507959,-1281.1214639186,2567048.1507247,43.018261826183,0,0
44.212319903915,-15.734615826439,37.822692269227,2495253.8507959,-1281.1214639186,2567048.1507247,43.022692269227,0,0
44.212320168003,-15.735996383818,37.827122712271,2495253.8507959,-1281.1214639186,2567048.1507247,43.027122712271,0,0
44.212320432092,-15.737376941196,37.831553155316,2495253.8507959,-1281.1214639186,2567048.1507247,43.031553155316,0,0
44.21232069618,-15.738757498574,37.83598359836,2495253.8507959,-1281.1214639186,2567048.1507247,43.03598359836,0,0
44.212320960268,-15.740138055953,37.840414041404,2495253.8507959,-1281.1214639186,2567048.1507247,43.040414041404,0,0
44.212321224357,-15.741518613331,37.844844484448,2495253.8507959,-1281.1214639186,2567048.1507247,43.044844484448,0,0
44.212321488445,-15.742899170709,37.849274927493,2495253.8507959,-1281.1214639186,2567048.1507247,43.049274927493,0,0
44.212321752533,-15.744279728088,37.853705370537,2495253.8507959,-1281.1214639186,2567048.1507247,43.053705370537,0,0
44.212322016621,-15.745660285466,37.858135813581,2495253.8507959,-1281.1214639186,2567048.1507247,43.058135813581,0,0
44.21232228071,-15.747040842845,37.862566256626,2495253.8507959,-1281.1214639186,2567048.1507247,43.062566256626,0,0
44.212322544798,-15.748421400223,37.86699669967,2495253.8507959,-1281.1214639186,2567048.1507247,43.06699669967,0,0
44.212322808886,-15.749801957601,37.871427142714,2495253.8507959,-1281.1214639186,2567048.1507247,43.071427142714,0,0
44.212323072975,-15.75118251498,37.875857585759,2495253.8507959,-1281.1214639186,2567048.1507247,43.075857585759,0,0
44.212323337063,-15.752563072358,37.880288028803,2495253.8507959,-1281.1214639186,2567048.1507247,43.080288028803,0,0
44.212323601151,-15.753943629736,37.884718471847,2495253.8507959,-1281.1214639186,2567048.1507247,43.084718471847,0,0
44.21232386524,-15.755324187115,37.889148914891,2495253.8507959,-1281.1214639186,2567048.1507247,43.089148914891,0,0
44.212324129328,-15.756704744493,37.893579357936,2495253.8507959,-1281.1214639186,2567048.1507247,43.093579357936,0,0
44.212324393416,-15.758085301871,37.89800980098,2495253.8507959,-1281.1214639186,2567048.1507247,43.09800980098,0,0
44.212324657505,-15.75946585925,37.902440244024,2495253.8507959,-1281.1214639186,2567048.1507247,43.102440244024,0,0
44.212324921593,-15.760846416628,37.906870687069,2495253.8507959,-1281.1214639186,2567048.1507247,43.106870687069,0,0
44.212325185681,-15.762226974006,37.911301130113,2495253.8507959,-1281.1214639186,2567048.1507247,43.111301130113,0,0
44.212325449769,-15.763607531385,37.915731573157,2495253.8507959,-1281.1214639186,2567048.1507247,43.115731573157,0,0
44.212325713858,-15.764988088763,37.920162016202,2495253.8507959,-1281.1214639186,2567048.1507247,43.120162016202,0,0
44.212325977946,-15.766368646141,37.924592459246,2495253.8507959,-1281.1214639186,2567048.1507247,43.124592459246,0,0
44.212326242034,-15.76774920352,37.92902290229,2495253.8507959,-1281.1214639186,2567048.1507247,43.12902290229,0,0
44.212326506123,-15.769129760898,37.933453345335,2495253.8507959,-1281.1214639186,2567048.1507247,43.133453345335,0,0
44.212326770211,-15.770510318277,37.937883788379,2495253.8507959,-1281.1214639186,2567048.1507247,43.137883788379,0,0
44.212327034299,-15.771890875655,37.942314231423,2495253.8507959,-1281.1214639186,2567048.1507247,43.142314231423,0,0
44.212327298388,-15.773271433033,37.946744674467,2495253.8507959,-1281.1214639186,2567048.1507247,43.146744674467,0,0
44.212327562476,-15.774651990412,37.951175117512,2495253.8507959,-1281.1214639186,2567048.1507247,43.151175117512,0,0
44.212327826564,-15.77603254779,37.955605560556,2495253.8507959,-1281.1214639186,2567048.1507247,43.155605560556,0,0
44.212328090653,-15.777413105168,37.9600360036,2495253.8507959,-1281.1214639186,2567048.1507247,43.1600360036,0,0
44.212328354741,-15.778793662547,37.964466446645,2495253.8507959,-1281.1214639186,2567048.1507247,43.164466446645,0,0
44.212328618829,-15.780174219925,37.968896889689,2495253.8507959,-1281.1214639186,2567048.1507247,43.168896889689,0,0
44.212328882918,-15.781554777303,37.973327332733,2495253.8507959,-1281.1214639186,2567048.1507247,43.173327332733,0,0
44.212329147006,-15.782935334682,37.977757775778,2495253.8507959,-1281.1214639186,2567048.1507247,43.177757775778,0,0
44.212329411094,-15.78431589206,37.982188218822,2495253.8507959,-1281.1214639186,2567048.1507247,43.182188218822,0,0
44.212329675182,-15.785696449438,37.986618661866,2495253.8507959,-1281.1214639186,2567048.1507247,43.186618661866,0,0
44.212329939271,-15.787077006817,37.99104910491,2495253.8507959,-1281.1214639186,2567048.1507247,43.19104910491,0,0
44.212330203359,-15.788457564195,37.995479547955,2495253.8507959,-1281.1214639186,2567048.1507247,43.195479547955,0,0
44.212330467447,-15.789838121574,37.999909990999,2495253.8507959,-1281.1214639186,2567048.1507247,43.199909990999,0,0
44.212330731536,-15.791218678952,38.004340434043,2495253.8507959,-1281.1214639186,2567048.1507247,43.204340434043,0,0
44.212330995624,-15.79259923633,38.008770877088,2495253.8507959,-1281.1214639186,2567048.1507247,43.208770877088,0,0
44.212331259712,-15.793979793709,38.013201320132,2495253.8507959,-1281.1214639186,2567048.1507247,43.213201320132,0,0
44.212331523801,-15.795360351087,38.017631763176,2495253.8507959,-1281.1214639186,2567048.1507247,43.217631763176,0,0
44.212331787889,-15.796740908465,38.022062206221,2495253.8507959,-1281.1214639186,2567048.1507247,43.222062206221,0,0
44.212332051977,-15.798121465844,38.026492649265,2495253.8507959,-1281.1214639186,2567048.1507247,43.226492649265,0,0
44.212332316066,-15.799502023222,38.030923092309,2495253.8507959,-1281.1214639186,2567048.1507247,43.230923092309,0,0
44.212332580154,-15.8008825806,38.035353535354,2495253.8507959,-1281.1214639186,2567048.1507247,43.235353535354,0,0
44.212332844242,-15.802263137979,38.039783978398,2495253.8507959,-1281.1214639186,2567048.1507247,43.239783978398,0,0
44.21233310833,-15.803643695357,38.044214421442,2495253.8507959,-1281.1214639186,2567048.1507247,43.244214421442,0,0
44.212333372419,-15.805024252735,38.048644864486,2495253.8507959,-1281.1214639186,2567048.1507247,43.248644864486,0,0
44.212333636507,-15.806404810114,38.053075307531,2495253.8507959,-1281.1214639186,2567048.1507247,43.253075307531,0,0
44.212333900595,-15.807785367492,38.057505750575,2495253.8507959,-1281.1214639186,2567048.1507247,43.257505750575,0,0
44.212334164684,-15.809165924871,38.061936193619,2495253.8507959,-1281.1214639186,2567048.1507247,43.261936193619,0,0
44.212334428772,-15.810546482249,38.066366636664,2495253.8507959,-1281.1214639186,2567048.1507247,43.266366636664,0,0
44.21233469286,-15.811927039627,38.070797079708,2495253.8507959,-1281.1214639186,2567048.1507247,43.270797079708,0,0
44.212334956949,-15.813307597006,38.075227522752,2495253.8507959,-1281.1214639186,2567048.1507247,43.275227522752,0,0
44.212335221037,-15.814688154384,38.079657965797,2495253.8507959,-1281.1214639186,2567048.1507247,43.279657965797,0,0
44.212335485125,-15.816068711762,38.084088408841,2495253.8507959,-1281.1214639186,2567048.1507247,43.284088408841,0,0
44.212335749214,-15.817449269141,38.088518851885,2495253.8507959,-1281.1214639186,2567048.1507247,43.288518851885,0,0
44.212336013302,-15.818829826519,38.092949294929,2495253.8507959,-1281.1214639186,2567048.1507247,43.292949294929,0,0
44.21233627739,-15.820210383897,38.097379737974,2495253.8507959,-1281.1214639186,2567048.1507247,43.297379737974,0,0
44.212336541479,-15.821590941276,38.101810181018,2495253.8507959,-1281.1214639186,2567048.1507247,43.301810181018,0,0
44.212336805567,-15.822971498654,38.106240624062,2495253.8507959,-1281.1214639186,2567048.1507247,43.306240624062,0,0
44.212337069655,-15.824352056032,38.110671067107,2495253.8507959,-1281.1214639186,2567048.1507247,43.310671067107,0,0
44.212337333743,-15.825732613411,38.115101510151,2495253.8507959,-1281.1214639186,2567048.1507247,43.315101510151,0,0
44.212337597832,-15.827113170789,38.119531953195,2495253.8507959,-1281.1214639186,2567048.1507247,43.319531953195,0,0
44.21233786192,-15.828493728167,38.12396239624,2495253.8507959,-1281.1214639186,2567048.1507247,43.32396239624,0,0
44.212338126008,-15.829874285546,38.128392839284,2495253.8507959,-1281.1214639186,2567048.1507247,43.328392839284,0,0
44.212338390097,-15.831254842924,38.132823282328,2495253.8507959,-1281.1214639186,2567048.1507247,43.332823282328,0,0
44.212338654185,-15.832635400303,38.137253725373,2495253.8507959,-1281.1214639186,2567048.1507247,43.337253725373,0,0
44.212338918273,-15.834015957681,38.141684168417,2495253.8507959,-1281.1214639186,2567048.1507247,43.341684168417,0,0
44.212339182362,-15.835396515059,38.146114611461,2495253.8507959,-1281.1214639186,2567048.1507247,43.346114611461,0,0
44.21233944645,-15.836777072438,38.150545054505,2495253.8507959,-1281.1214639186,2567048.1507247,43.350545054505,0,0
44.212339710538,-15.838157629816,38.15497549755,2495253.8507959,-1281.1214639186,2567048.1507247,43.35497549755,0,0
44.212339974627,-15.839538187194,38.159405940594,2495253.8507959,-1281.1214639186,2567048.1507247,43.359405940594,0,0
44.212340238715,-15.840918744573,38.163836383638,2495253.8507959,-1281.1214639186,2567048.1507247,43.363836383638,0,0
44.212340502803,-15.842299301951,38.168266826683,2495253.8507959,-1281.1214639186,2567048.1507247,43.368266826683,0,0
44.212340766891,-15.843679859329,38.172697269727,2495253.8507959,-1281.1214639186,2567048.1507247,43.372697269727,0,0
44.21234103098,-15.845060416708,38.177127712771,2495253.8507959,-1281.1214639186,2567048.1507247,43.377127712771,0,0
44.212341295068,-15.846440974086,38.181558155816,2495253.8507959,-1281.1214639186,2567048.1507247,43.381558155816,0,0
44.212341559156,-15.847821531464,38.18598859886,2495253.8507959,-1281.1214639186,2567048.1507247,43.38598859886,0,0
44.212341823245,-15.849202088843,38.190419041904,2495253.8507959,-1281.1214639186,2567048.1507247,43.390419041904,0,0
44.212342087333,-15.850582646221,38.194849484948,2495253.8507959,-1281.1214639186,2567048.1507247,43.394849484948,0,0
44.212342351421,-15.8519632036,38.199279927993,2495253.8507959,-1281.1214639186,2567048.1507247,43.399279927993,0,0
44.21234261551,-15.853343760978,38.203710371037,2495253.8507959,-1281.1214639186,2567048.1507247,43.403710371037,0,0
44.212342879598,-15.854724318356,38.208140814081,2495253.8507959,-1281.1214639186,2567048.1507247,43.408140814081,0,0
44.212343143686,-15.856104875735,38.212571257126,2495253.8507959,-1281.1214639186,2567048.1507247,43.412571257126,0,0
44.212343407775,-15.857485433113,38.21700170017,2495253.8507959,-1281.1214639186,2567048.1507247,43.41700170017,0,0
44.212343671863,-15.858865990491,38.221432143214,2495253.8507959,-1281.1214639186,2567048.1507247,43.421432143214,0,0
44.212343935951,-15.86024654787,38.225862586259,2495253.8507959,-1281.1214639186,2567048.1507247,43.425862586259,0,0
44.21234420004,-15.861627105248,38.230293029303,2495253.8507959,-1281.1214639186,2567048.1507247,43.430293029303,0,0
44.212344464128,-15.863007662626,38.234723472347,2495253.8507959,-1281.1214639186,2567048.1507247,43.434723472347,0,0
44.212344728216,-15.864388220005,38.239153915392,2495253.8507959,-1281.1214639186,2567048.1507247,43.439153915392,0,0
44.212344992304,-15.865768777383,38.243584358436,2495253.8507959,-1281.1214639186,2567048.1507247,43.443584358436,0,0
44.212345256393,-15.867149334761,38.24801480148,2495253.8507959,-1281.1214639186,2567048.1507247,43.44801480148,0,0
44.212345520481,-15.86852989214,38.252445244524,2495253.8507959,-1281.1214639186,2567048.1507247,43.452445244524,0,0
44.212345784569,-15.869910449518,38.256875687569,2495253.8507959,-1281.1214639186,2567048.1507247,43.456875687569,0,0
44.212346048658,-15.871291006897,38.261306130613,2495253.8507959,-1281.1214639186,2567048.1507247,43.461306130613,0,0
44.212346312746,-15.872671564275,38.265736573657,2495253.8507959,-1281.1214639186,2567048.1507247,43.465736573657,0,0
44.212346576834,-15.874052121653,38.270167016702,2495253.8507959,-1281.1214639186,2567048.1507247,43.470167016702,0,0
44.212346840923,-15.875432679032,38.274597459746,2495253.8507959,-1281.1214639186,2567048.1507247,43.474597459746,0,0
44.212347105011,-15.87681323641,38.27902790279,2495253.8507959,-1281.1214639186,2567048.1507247,43.47902790279,0,0
44.212347369099,-15.878193793788,38.283458345835,2495253.8507959,-1281.1214639186,2567048.1507247,43.483458345835,0,0
44.212347633188,-15.879574351167,38.287888788879,2495253.8507959,-1281.1214639186,2567048.1507247,43.487888788879,0,0
44.212347897276,-15.880954908545,38.292319231923,2495253.8507959,-1281.1214639186,2567048.1507247,43.492319231923,0,0
44.212348161364,-15.882335465923,38.296749674967,2495253.8507959,-1281.1214639186,2567048.1507247,43.496749674967,0,0
44.212348425452,-15.883716023302,38.301180118012,2495253.8507959,-1281.1214639186,2567048.1507247,43.501180118012,0,0
44.212348689541,-15.88509658068,38.305610561056,2495253.8507959,-1281.1214639186,2567048.1507247,43.505610561056,0,0
44.212348953629,-15.886477138058,38.3100410041,2495253.8507959,-1281.1214639186,2567048.1507247,43.5100410041,0,0
44.212349217717,-15.887857695437,38.314471447145,2495253.8507959,-1281.1214639186,2567048.1507247,43.514471447145,0,0
44.212349481806,-15.889238252815,38.318901890189,2495253.8507959,-1281.1214639186,2567048.1507247,43.518901890189,0,0
44.212349745894,-15.890618810193,38.323332333233,2495253.8507959,-1281.1214639186,2567048.1507247,43.523332333233,0,0
44.212350009982,-15.891999367572,38.327762776278,2495253.8507959,-1281.1214639186,2567048.1507247,43.527762776278,0,0
44.212350274071,-15.89337992495,38.332193219322,2495253.8507959,-1281.1214639186,2567048.1507247,43.532193219322,0,0
44.212350538159,-15.894760482329,38.336623662366,2495253.8507959,-1281.1214639186,2567048.1507247,43.536623662366,0,0
44.212350802247,-15.896141039707,38.341054105411,2495253.8507959,-1281.1214639186,2567048.1507247,43.541054105411,0,0
44.212351066336,-15.897521597085,38.345484548455,2495253.8507959,-1281.1214639186,2567048.1507247,43.545484548455,0,0
44.212351330424,-15.898902154464,38.349914991499,2495253.8507959,-1281.1214639186,2567048.1507247,43.549914991499,0,0
44.212351594512,-15.900282711842,38.354345434543,2495253.8507959,-1281.1214639186,2567048.1507247,43.554345434543,0,0
44.2123518586,-15.90166326922,38.358775877588,2495253.8507959,-1281.1214639186,2567048.1507247,43.558775877588,0,0
44.212352122689,-15.903043826599,38.363206320632,2495253.8507959,-1281.1214639186,2567048.1507247,43.563206320632,0,0
44.212352386777,-15.904424383977,38.367636763676,2495253.8507959,-1281.1214639186,2567048.1507247,43.567636763676,0,0
44.212352650865,-15.905804941355,38.372067206721,2495253.8507959,-1281.1214639186,2567048.1507247,43.572067206721,0,0
44.212352914954,-15.907185498734,38.376497649765,2495253.8507959,-1281.1214639186,2567048.1507247,43.576497649765,0,0
44.212353179042,-15.908566056112,38.380928092809,2495253.8507959,-1281.1214639186,2567048.1507247,43.580928092809,0,0
44.21235344313,-15.90994661349,38.385358535854,2495253.8507959,-1281.1214639186,2567048.1507247,43.585358535854,0,0
44.212353707219,-15.911327170869,38.389788978898,2495253.8507959,-1281.1214639186,2567048.1507247,43.589788978898,0,0
44.212353971307,-15.912707728247,38.394219421942,2495253.8507959,-1281.1214639186,2567048.1507247,43.594219421942,0,0
44.212354235395,-15.914088285626,38.398649864986,2495253.8507959,-1281.1214639186,2567048.1507247,43.598649864986,0,0
44.212354499484,-15.915468843004,38.403080308031,2495253.8507959,-1281.1214639186,2567048.1507247,43.603080308031,0,0
44.212354763572,-15.916849400382,38.407510751075,2495253.8507959,-1281.1214639186,2567048.1507247,43.607510751075,0,0
44.21235502766,-15.918229957761,38.411941194119,2495253.8507959,-1281.1214639186,2567048.1507247,43.611941194119,0,0
44.212355291749,-15.919610515139,38.416371637164,2495253.8507959,-1281.1214639186,2567048.1507247,43.616371637164,0,0
44.212355555837,-15.920991072517,38.420802080208,2495253.8507959,-1281.1214639186,2567048.1507247,43.620802080208,0,0
44.212355819925,-15.922371629896,38.425232523252,2495253.8507959,-1281.1214639186,2567048.1507247,43.625232523252,0,0
44.212356084013,-15.923752187274,38.429662966297,2495253.8507959,-1281.1214639186,2567048.1507247,43.629662966297,0,0
44.212356348102,-15.925132744652,38.434093409341,2495253.8507959,-1281.1214639186,2567048.1507247,43.634093409341,0,0
44.21235661219,-15.926513302031,38.438523852385,2495253.8507959,-1281.1214639186,2567048.1507247,43.638523852385,0,0
44.212356876278,-15.927893859409,38.44295429543,2495253.8507959,-1281.1214639186,2567048.1507247,43.64295429543,0,0
44.212357140367,-15.929274416787,38.447384738474,2495253.8507959,-1281.1214639186,2567048.1507247,43.647384738474,0,0
44.212357404455,-15.930654974166,38.451815181518,2495253.8507959,-1281.1214639186,2567048.1507247,43.651815181518,0,0
44.212357668543,-15.932035531544,38.456245624562,2495253.8507959,-1281.1214639186,2567048.1507247,43.656245624562,0,0
44.212357932632,-15.933416088923,38.460676067607,2495253.8507959,-1281.1214639186,2567048.1507247,43.660676067607,0,0
44.21235819672,-15.934796646301,38.465106510651,2495253.8507959,-1281.1214639186,2567048.1507247,43.665106510651,0,0
44.212358460808,-15.936177203679,38.469536953695,2495253.8507959,-1281.1214639186,2567048.1507247,43.669536953695,0,0
44.212358724897,-15.937557761058,38.47396739674,2495253.8507959,-1281.1214639186,2567048.1507247,43.67396739674,0,0
44.212358988985,-15.938938318436,38.478397839784,2495253.8507959,-1281.1214639186,2567048.1507247,43.678397839784,0,0
44.212359253073,-15.940318875814,38.482828282828,2495253.8507959,-1281.1214639186,2567048.1507247,43.682828282828,0,0
44.212359517161,-15.941699433193,38.487258725873,2495253.8507959,-1281.1214639186,2567048.1507247,43.687258725873,0,0
44.21235978125,-15.943079990571,38.491689168917,2495253.8507959,-1281.1214639186,2567048.1507247,43.691689168917,0,0
44.212360045338,-15.944460547949,38.496119611961,2495253.8507959,-1281.1214639186,2567048.1507247,43.696119611961,0,0
44.212360309426,-15.945841105328,38.500550055005,2495253.8507959,-1281.1214639186,2567048.1507247,43.700550055006,0,0
44.212360573515,-15.947221662706,38.50498049805,2495253.8507959,-1281.1214639186,2567048.1507247,43.70498049805,0,0
44.212360837603,-15.948602220084,38.509410941094,2495253.8507959,-1281.1214639186,2567048.1507247,43.709410941094,0,0
44.212361101691,-15.949982777463,38.513841384138,2495253.8507959,-1281.1214639186,2567048.1507247,43.713841384138,0,0
44.21236136578,-15.951363334841,38.518271827183,2495253.8507959,-1281.1214639186,2567048.1507247,43.718271827183,0,0
44.212361629868,-15.952743892219,38.522702270227,2495253.8507959,-1281.1214639186,2567048.1507247,43.722702270227,0,0
44.212361893956,-15.954124449598,38.527132713271,2495253.8507959,-1281.1214639186,2567048.1507247,43.727132713271,0,0
44.212362158045,-15.955505006976,38.531563156316,2495253.8507959,-1281.1214639186,2567048.1507247,43.731563156316,0,0
44.212362422133,-15.956885564355,38.53599359936,2495253.8507959,-1281.1214639186,2567048.1507247,43.73599359936,0,0
44.212362686221,-15.958266121733,38.540424042404,2495253.8507959,-1281.1214639186,2567048.1507247,43.740424042404,0,0
44.21236295031,-15.959646679111,38.544854485449,2495253.8507959,-1281.1214639186,2567048.1507247,43.744854485449,0,0
44.212363214398,-15.96102723649,38.549284928493,2495253.8507959,-1281.1214639186,2567048.1507247,43.749284928493,0,0
44.212363478486,-15.962407793868,38.553715371537,2495253.8507959,-1281.1214639186,2567048.1507247,43.753715371537,0,0
44.212363742574,-15.963788351246,38.558145814581,2495253.8507959,-1281.1214639186,2567048.1507247,43.758145814581,0,0
44.212364006663,-15.965168908625,38.562576257626,2495253.8507959,-1281.1214639186,2567048.1507247,43.762576257626,0,0
44.212364270751,-15.966549466003,38.56700670067,2495253.8507959,-1281.1214639186,2567048.1507247,43.76700670067,0,0
44.212364534839,-15.967930023381,38.571437143714,2495253.8507959,-1281.1214639186,2567048.1507247,43.771437143714,0,0
44.212364798928,-15.96931058076,38.575867586759,2495253.8507959,-1281.1214639186,2567048.1507247,43.775867586759,0,0
44.212365063016,-15.970691138138,38.580298029803,2495253.8507959,-1281.1214639186,2567048.1507247,43.780298029803,0,0
44.212365327104,-15.972071695516,38.584728472847,2495253.8507959,-1281.1214639186,2567048.1507247,43.784728472847,0,0
44.212365591193,-15.973452252895,38.589158915892,2495253.8507959,-1281.1214639186,2567048.1507247,43.789158915892,0,0
44.212365855281,-15.974832810273,38.593589358936,2495253.8507959,-1281.1214639186,2567048.1507247,43.793589358936,0,0
44.212366119369,-15.976213367652,38.59801980198,2495253.8507959,-1281.1214639186,2567048.1507247,43.79801980198,0,0
44.212366383458,-15.97759392503,38.602450245024,2495253.8507959,-1281.1214639186,2567048.1507247,43.802450245025,0,0
44.212366647546,-15.978974482408,38.606880688069,2495253.8507959,-1281.1214639186,2567048.1507247,43.806880688069,0,0
44.212366911634,-15.980355039787,38.611311131113,2495253.8507959,-1281.1214639186,2567048.1507247,43.811311131113,0,0
44.212367175722,-15.981735597165,38.615741574157,2495253.8507959,-1281.1214639186,2567048.1507247,43.815741574157,0,0
44.212367439811,-15.983116154543,38.620172017202,2495253.8507959,-1281.1214639186,2567048.1507247,43.820172017202,0,0
44.212367703899,-15.984496711922,38.624602460246,2495253.8507959,-1281.1214639186,2567048.1507247,43.824602460246,0,0
44.212367967987,-15.9858772693,38.62903290329,2495253.8507959,-1281.1214639186,2567048.1507247,43.82903290329,0,0
44.212368232076,-15.987257826678,38.633463346335,2495253.8507959,-1281.1214639186,2567048.1507247,43.833463346335,0,0
44.212368496164,-15.988638384057,38.637893789379,2495253.8507959,-1281.1214639186,2567048.1507247,43.837893789379,0,0
44.212368760252,-15.990018941435,38.642324232423,2495253.8507959,-1281.1214639186,2567048.1507247,43.842324232423,0,0
44.212369024341,-15.991399498813,38.646754675468,2495253.8507959,-1281.1214639186,2567048.1507247,43.846754675468,0,0
44.212369288429,-15.992780056192,38.651185118512,2495253.8507959,-1281.1214639186,2567048.1507247,43.851185118512,0,0
44.212369552517,-15.99416061357,38.655615561556,2495253.8507959,-1281.1214639186,2567048.1507247,43.855615561556,0,0
44.212369816606,-15.995541170949,38.6600460046,2495253.8507959,-1281.1214639186,2567048.1507247,43.8600460046,0,0
44.212370080694,-15.996921728327,38.664476447645,2495253.8507959,-1281.1214639186,2567048.1507247,43.864476447645,0,0
44.212370344782,-15.998302285705,38.668906890689,2495253.8507959,-1281.1214639186,2567048.1507247,43.868906890689,0,0
44.212370608871,-15.999682843084,38.673337333733,2495253.8507959,-1281.1214639186,2567048.1507247,43.873337333733,0,0
44.212370872959,-16.001063400462,38.677767776778,2495253.8507959,-1281.1214639186,2567048.1507247,43.877767776778,0,0
44.212371137047,-16.00244395784,38.682198219822,2495253.8507959,-1281.1214639186,2567048.1507247,43.882198219822,0,0
44.212371401135,-16.003824515219,38.686628662866,2495253.8507959,-1281.1214639186,2567048.1507247,43.886628662866,0,0
44.212371665224,-16.005205072597,38.691059105911,2495253.8507959,-1281.1214639186,2567048.1507247,43.891059105911,0,0
44.212371929312,-16.006585629975,38.695489548955,2495253.8507959,-1281.1214639186,2567048.1507247,43.895489548955,0,0
44.2123721934,-16.007966187354,38.699919991999,2495253.8507959,-1281.1214639186,2567048.1507247,43.899919991999,0,0
44.212372457489,-16.009346744732,38.704350435044,2495253.8507959,-1281.1214639186,2567048.1507247,43.904350435044,0,0
44.212372721577,-16.01072730211,38.708780878088,2495253.8507959,-1281.1214639186,2567048.1507247,43.908780878088,0,0
44.212372985665,-16.012107859489,38.713211321132,2495253.8507959,-1281.1214639186,2567048.1507247,43.913211321132,0,0
44.212373249757,-16.01348841687,38.717641764176,2495420.5706335,-1289.0058681592,2567008.9073527,43.917641764176,0,0
44.21237351386,-16.01486897426,38.722072207221,2495420.5706335,-1289.0058681592,2567008.9073527,43.922072207221,0,0
44.212373777962,-16.016249531649,38.726502650265,2495420.5706335,-1289.0058681592,2567008.9073527,43.926502650265,0,0
44.212374042065,-16.017630089039,38.730933093309,2495420.5706335,-1289.0058681592,2567008.9073527,43.930933093309,0,0
44.212374306168,-16.019010646429,38.735363536354,2495420.5706335,-1289.0058681592,2567008.9073527,43.935363536354,0,0
44.21237457027,-16.020391203818,38.739793979398,2495420.5706335,-1289.0058681592,2567008.9073527,43.939793979398,0,0
44.212374834485,-16.021771761199,38.744224422442,2497319.701674,-1536.0410725408,2567578.7822584,43.944224422442,0,0
44.212375098724,-16.023152318578,38.748654865487,2497319.701674,-1536.0410725408,2567578.7822584,43.948654865487,0,0
44.212375362963,-16.024532875957,38.753085308531,2497319.701674,-1536.0410725408,2567578.7822584,43.953085308531,0,0
44.212375627202,-16.025913433335,38.757515751575,2497319.701674,-1536.0410725408,2567578.7822584,43.957515751575,0,0
44.212375891441,-16.027293990714,38.761946194619,2497319.701674,-1536.0410725408,2567578.7822584,43.961946194619,0,0
44.212376155681,-16.028674548093,38.766376637664,2497319.701674,-1536.0410725408,2567578.7822584,43.966376637664,0,0
44.21237641992,-16.030055105472,38.770807080708,2497319.701674,-1536.0410725408,2567578.7822584,43.970807080708,0,0
44.212376684159,-16.031435662851,38.775237523752,2497319.701674,-1536.0410725408,2567578.7822584,43.975237523752,0,0
44.212376948398,-16.032816220229,38.779667966797,2497319.701674,-1536.0410725408,2567578.7822584,43.979667966797,0,0
44.212377212637,-16.034196777608,38.784098409841,2497319.701674,-1536.0410725408,2567578.7822584,43.984098409841,0,0
44.212377476877,-16.035577334987,38.788528852885,2497319.701674,-1536.0410725408,2567578.7822584,43.988528852885,0,0
44.212377741116,-16.036957892366,38.79295929593,2497319.701674,-1536.0410725408,2567578.7822584,43.99295929593,0,0
44.212378005355,-16.038338449745,38.797389738974,2497319.701674,-1536.0410725408,2567578.7822584,43.997389738974,0,0
44.212378269594,-16.039719007123,38.801820182018,2497319.701674,-1536.0410725408,2567578.7822584,44.001820182018,0,0
44.212378533833,-16.041099564502,38.806250625063,2497319.701674,-1536.0410725408,2567578.7822584,44.006250625063,0,0
44.212378798072,-16.042480121881,38.810681068107,2497319.701674,-1536.0410725408,2567578.7822584,44.010681068107,0,0
44.212379062312,-16.04386067926,38.815111511151,2497319.701674,-1536.0410725408,2567578.7822584,44.015111511151,0,0
44.212379326551,-16.045241236639,38.819541954195,2497319.701674,-1536.0410725408,2567578.7822584,44.019541954195,0,0
44.21237959079,-16.046621794017,38.82397239724,2497319.701674,-1536.0410725408,2567578.7822584,44.02397239724,0,0
44.212379855029,-16.048002351396,38.828402840284,2497319.701674,-1536.0410725408,2567578.7822584,44.028402840284,0,0
44.212380119268,-16.049382908775,38.832833283328,2497319.701674,-1536.0410725408,2567578.7822584,44.032833283328,0,0
44.212380383508,-16.050763466154,38.837263726373,2497319.701674,-1536.0410725408,2567578.7822584,44.037263726373,0,0
44.212380647747,-16.052144023533,38.841694169417,2497319.701674,-1536.0410725408,2567578.7822584,44.041694169417,0,0
44.212380911986,-16.053524580912,38.846124612461,2497319.701674,-1536.0410725408,2567578.7822584,44.046124612461,0,0
44.212381176225,-16.05490513829,38.850555055506,2497319.701674,-1536.0410725408,2567578.7822584,44.050555055506,0,0
44.212381440464,-16.056285695669,38.85498549855,2497319.701674,-1536.0410725408,2567578.7822584,44.05498549855,0,0
44.212381704704,-16.057666253048,38.859415941594,2497319.701674,-1536.0410725408,2567578.7822584,44.059415941594,0,0
44.212381968943,-16.059046810427,38.863846384638,2497319.701674,-1536.0410725408,2567578.7822584,44.063846384638,0,0
44.212382233182,-16.060427367806,38.868276827683,2497319.701674,-1536.0410725408,2567578.7822584,44.068276827683,0,0
44.212382497421,-16.061807925184,38.872707270727,2497319.701674,-1536.0410725408,2567578.7822584,44.072707270727,0,0
44.21238276166,-16.063188482563,38.877137713771,2497319.701674,-1536.0410725408,2567578.7822584,44.077137713771,0,0
44.2123830259,-16.064569039942,38.881568156816,2497319.701674,-1536.0410725408,2567578.7822584,44.081568156816,0,0
44.212383290139,-16.065949597321,38.88599859986,2497319.701674,-1536.0410725408,2567578.7822584,44.08599859986,0,0
44.212383554378,-16.0673301547,38.890429042904,2497319.701674,-1536.0410725408,2567578.7822584,44.090429042904,0,0
44.212383818617,-16.068710712078,38.894859485949,2497319.701674,-1536.0410725408,2567578.7822584,44.094859485949,0,0
44.212384082856,-16.070091269457,38.899289928993,2497319.701674,-1536.0410725408,2567578.7822584,44.099289928993,0,0
44.212384347096,-16.071471826836,38.903720372037,2497319.701674,-1536.0410725408,2567578.7822584,44.103720372037,0,0
44.212384611335,-16.072852384215,38.908150815082,2497319.701674,-1536.0410725408,2567578.7822584,44.108150815082,0,0
44.212384875574,-16.074232941594,38.912581258126,2497319.701674,-1536.0410725408,2567578.7822584,44.112581258126,0,0
44.212385139813,-16.075613498972,38.91701170117,2497319.701674,-1536.0410725408,2567578.7822584,44.11701170117,0,0
44.212385404052,-16.076994056351,38.921442144214,2497319.701674,-1536.0410725408,2567578.7822584,44.121442144214,0,0
44.212385668292,-16.07837461373,38.925872587259,2497319.701674,-1536.0410725408,2567578.7822584,44.125872587259,0,0
44.212385932531,-16.079755171109,38.930303030303,2497319.701674,-1536.0410725408,2567578.7822584,44.130303030303,0,0
44.21238619677,-16.081135728488,38.934733473347,2497319.701674,-1536.0410725408,2567578.7822584,44.134733473347,0,0
44.212386461009,-16.082516285866,38.939163916392,2497319.701674,-1536.0410725408,2567578.7822584,44.139163916392,0,0
44.212386725248,-16.083896843245,38.943594359436,2497319.701674,-1536.0410725408,2567578.7822584,44.143594359436,0,0
44.212386989487,-16.085277400624,38.94802480248,2497319.701674,-1536.0410725408,2567578.7822584,44.14802480248,0,0
44.212387253727,-16.086657958003,38.952455245525,2497319.701674,-1536.0410725408,2567578.7822584,44.152455245525,0,0
44.212387517966,-16.088038515382,38.956885688569,2497319.701674,-1536.0410725408,2567578.7822584,44.156885688569,0,0
44.212387782205,-16.08941907276,38.961316131613,2497319.701674,-1536.0410725408,2567578.7822584,44.161316131613,0,0
44.212388046444,-16.090799630139,38.965746574657,2497319.701674,-1536.0410725408,2567578.7822584,44.165746574657,0,0
44.212388310683,-16.092180187518,38.970177017702,2497319.701674,-1536.0410725408,2567578.7822584,44.170177017702,0,0
44.212388574923,-16.093560744897,38.974607460746,2497319.701674,-1536.0410725408,2567578.7822584,44.174607460746,0,0
44.212388839162,-16.094941302276,38.97903790379,2497319.701674,-1536.0410725408,2567578.7822584,44.17903790379,0,0
44.212389103401,-16.096321859654,38.983468346835,2497319.701674,-1536.0410725408,2567578.7822584,44.183468346835,0,0
44.21238936764,-16.097702417033,38.987898789879,2497319.701674,-1536.0410725408,2567578.7822584,44.187898789879,0,0
44.212389631879,-16.099082974412,38.992329232923,2497319.701674,-1536.0410725408,2567578.7822584,44.192329232923,0,0
44.212389896119,-16.100463531791,38.996759675968,2497319.701674,-1536.0410725408,2567578.7822584,44.196759675968,0,0
44.212390160358,-16.10184408917,39.001190119012,2497319.701674,-1536.0410725408,2567578.7822584,44.201190119012,0,0
44.212390424597,-16.103224646549,39.005620562056,2497319.701674,-1536.0410725408,2567578.7822584,44.205620562056,0,0
44.212390688836,-16.104605203927,39.010051005101,2497319.701674,-1536.0410725408,2567578.7822584,44.210051005101,0,0
44.212390953075,-16.105985761306,39.014481448145,2497319.701674,-1536.0410725408,2567578.7822584,44.214481448145,0,0
44.212391217315,-16.107366318685,39.018911891189,2497319.701674,-1536.0410725408,2567578.7822584,44.218911891189,0,0
44.212391481554,-16.108746876064,39.023342334233,2497319.701674,-1536.0410725408,2567578.7822584,44.223342334233,0,0
44.212391745793,-16.110127433443,39.027772777278,2497319.701674,-1536.0410725408,2567578.7822584,44.227772777278,0,0
44.212392010032,-16.111507990821,39.032203220322,2497319.701674,-1536.0410725408,2567578.7822584,44.232203220322,0,0
44.212392274271,-16.1128885482,39.036633663366,2497319.701674,-1536.0410725408,2567578.7822584,44.236633663366,0,0
44.212392538511,-16.114269105579,39.041064106411,2497319.701674,-1536.0410725408,2567578.7822584,44.241064106411,0,0
44.21239280275,-16.115649662958,39.045494549455,2497319.701674,-1536.0410725408,2567578.7822584,44.245494549455,0,0
44.212393066989,-16.117030220337,39.049924992499,2497319.701674,-1536.0410725408,2567578.7822584,44.249924992499,0,0
44.212393331228,-16.118410777715,39.054355435544,2497319.701674,-1536.0410725408,2567578.7822584,44.254355435544,0,0
44.212393595467,-16.119791335094,39.058785878588,2497319.701674,-1536.0410725408,2567578.7822584,44.258785878588,0,0
44.212393859706,-16.121171892473,39.063216321632,2497319.701674,-1536.0410725408,2567578.7822584,44.263216321632,0,0
44.212394123946,-16.122552449852,39.067646764676,2497319.701674,-1536.0410725408,2567578.7822584,44.267646764676,0,0
44.212394388185,-16.123933007231,39.072077207721,2497319.701674,-1536.0410725408,2567578.7822584,44.272077207721,0,0
44.212394652424,-16.125313564609,39.076507650765,2497319.701674,-1536.0410725408,2567578.7822584,44.276507650765,0,0
44.212394916663,-16.126694121988,39.080938093809,2497319.701674,-1536.0410725408,2567578.7822584,44.280938093809,0,0
44.212395180902,-16.128074679367,39.085368536854,2497319.701674,-1536.0410725408,2567578.7822584,44.285368536854,0,0
44.212395445142,-16.129455236746,39.089798979898,2497319.701674,-1536.0410725408,2567578.7822584,44.289798979898,0,0
44.212395709381,-16.130835794125,39.094229422942,2497319.701674,-1536.0410725408,2567578.7822584,44.294229422942,0,0
44.21239597362,-16.132216351503,39.098659865987,2497319.701674,-1536.0410725408,2567578.7822584,44.298659865987,0,0
44.212396237859,-16.133596908882,39.103090309031,2497319.701674,-1536.0410725408,2567578.7822584,44.303090309031,0,0
44.212396502098,-16.134977466261,39.107520752075,2497319.701674,-1536.0410725408,2567578.7822584,44.307520752075,0,0
44.212396766338,-16.13635802364,39.11195119512,2497319.701674,-1536.0410725408,2567578.7822584,44.31195119512,0,0
44.212397030577,-16.137738581019,39.116381638164,2497319.701674,-1536.0410725408,2567578.7822584,44.316381638164,0,0
44.212397294816,-16.139119138397,39.120812081208,2497319.701674,-1536.0410725408,2567578.7822584,44.320812081208,0,0
44.212397559055,-16.140499695776,39.125242524252,2497319.701674,-1536.0410725408,2567578.7822584,44.325242524252,0,0
44.212397823294,-16.141880253155,39.129672967297,2497319.701674,-1536.0410725408,2567578.7822584,44.329672967297,0,0
44.212398087534,-16.143260810534,39.134103410341,2497319.701674,-1536.0410725408,2567578.7822584,44.334103410341,0,0
44.212398351773,-16.144641367913,39.138533853385,2497319.701674,-1536.0410725408,2567578.7822584,44.338533853385,0,0
44.212398616012,-16.146021925291,39.14296429643,2497319.701674,-1536.0410725408,2567578.7822584,44.34296429643,0,0
44.212398880251,-16.14740248267,39.147394739474,2497319.701674,-1536.0410725408,2567578.7822584,44.347394739474,0,0
44.21239914449,-16.148783040049,39.151825182518,2497319.701674,-1536.0410725408,2567578.7822584,44.351825182518,0,0
44.21239940873,-16.150163597428,39.156255625563,2497319.701674,-1536.0410725408,2567578.7822584,44.356255625563,0,0
44.212399672969,-16.151544154807,39.160686068607,2497319.701674,-1536.0410725408,2567578.7822584,44.360686068607,0,0
44.212399937208,-16.152924712186,39.165116511651,2497319.701674,-1536.0410725408,2567578.7822584,44.365116511651,0,0
44.212400201447,-16.154305269564,39.169546954695,2497319.701674,-1536.0410725408,2567578.7822584,44.369546954695,0,0
44.212400465686,-16.155685826943,39.17397739774,2497319.701674,-1536.0410725408,2567578.7822584,44.37397739774,0,0
44.212400729926,-16.157066384322,39.178407840784,2497319.701674,-1536.0410725408,2567578.7822584,44.378407840784,0,0
44.212400994165,-16.158446941701,39.182838283828,2497319.701674,-1536.0410725408,2567578.7822584,44.382838283828,0,0
44.212401258404,-16.15982749908,39.187268726873,2497319.701674,-1536.0410725408,2567578.7822584,44.387268726873,0,0
44.212401522643,-16.161208056458,39.191699169917,2497319.701674,-1536.0410725408,2567578.7822584,44.391699169917,0,0
44.212401786882,-16.162588613837,39.196129612961,2497319.701674,-1536.0410725408,2567578.7822584,44.396129612961,0,0
44.212402051121,-16.163969171216,39.200560056006,2497319.701674,-1536.0410725408,2567578.7822584,44.400560056006,0,0
44.212402315361,-16.165349728595,39.20499049905,2497319.701674,-1536.0410725408,2567578.7822584,44.40499049905,0,0
44.2124025796,-16.166730285974,39.209420942094,2497319.701674,-1536.0410725408,2567578.7822584,44.409420942094,0,0
44.212402843839,-16.168110843352,39.213851385139,2497319.701674,-1536.0410725408,2567578.7822584,44.413851385139,0,0
44.212403108078,-16.169491400731,39.218281828183,2497319.701674,-1536.0410725408,2567578.7822584,44.418281828183,0,0
44.212403372317,-16.17087195811,39.222712271227,2497319.701674,-1536.0410725408,2567578.7822584,44.422712271227,0,0
44.212403636557,-16.172252515489,39.227142714271,2497319.701674,-1536.0410725408,2567578.7822584,44.427142714271,0,0
44.212403900796,-16.173633072868,39.231573157316,2497319.701674,-1536.0410725408,2567578.7822584,44.431573157316,0,0
44.212404165035,-16.175013630246,39.23600360036,2497319.701674,-1536.0410725408,2567578.7822584,44.43600360036,0,0
44.212404429274,-16.176394187625,39.240434043404,2497319.701674,-1536.0410725408,2567578.7822584,44.440434043404,0,0
44.212404693513,-16.177774745004,39.244864486449,2497319.701674,-1536.0410725408,2567578.7822584,44.444864486449,0,0
44.212404957753,-16.179155302383,39.249294929493,2497319.701674,-1536.0410725408,2567578.7822584,44.449294929493,0,0
44.212405221992,-16.180535859762,39.253725372537,2497319.701674,-1536.0410725408,2567578.7822584,44.453725372537,0,0
44.212405486231,-16.18191641714,39.258155815582,2497319.701674,-1536.0410725408,2567578.7822584,44.458155815582,0,0
44.21240575047,-16.183296974519,39.262586258626,2497319.701674,-1536.0410725408,2567578.7822584,44.462586258626,0,0
44.212406014709,-16.184677531898,39.26701670167,2497319.701674,-1536.0410725408,2567578.7822584,44.46701670167,0,0
44.212406278949,-16.186058089277,39.271447144714,2497319.701674,-1536.0410725408,2567578.7822584,44.471447144714,0,0
44.212406543188,-16.187438646656,39.275877587759,2497319.701674,-1536.0410725408,2567578.7822584,44.475877587759,0,0
44.212406807427,-16.188819204034,39.280308030803,2497319.701674,-1536.0410725408,2567578.7822584,44.480308030803,0,0
44.212407071666,-16.190199761413,39.284738473847,2497319.701674,-1536.0410725408,2567578.7822584,44.484738473847,0,0
44.212407335905,-16.191580318792,39.289168916892,2497319.701674,-1536.0410725408,2567578.7822584,44.489168916892,0,0
44.212407600145,-16.192960876171,39.293599359936,2497319.701674,-1536.0410725408,2567578.7822584,44.493599359936,0,0
44.212407864384,-16.19434143355,39.29802980298,2497319.701674,-1536.0410725408,2567578.7822584,44.49802980298,0,0
44.212408128623,-16.195721990928,39.302460246025,2497319.701674,-1536.0410725408,2567578.7822584,44.502460246025,0,0
44.212408392862,-16.197102548307,39.306890689069,2497319.701674,-1536.0410725408,2567578.7822584,44.506890689069,0,0
44.212408657101,-16.198483105686,39.311321132113,2497319.701674,-1536.0410725408,2567578.7822584,44.511321132113,0,0
44.212408921341,-16.199863663065,39.315751575158,2497319.701674,-1536.0410725408,2567578.7822584,44.515751575158,0,0
44.21240918558,-16.201244220444,39.320182018202,2497319.701674,-1536.0410725408,2567578.7822584,44.520182018202,0,0
44.212409449819,-16.202624777823,39.324612461246,2497319.701674,-1536.0410725408,2567578.7822584,44.524612461246,0,0
44.212409714058,-16.204005335201,39.32904290429,2497319.701674,-1536.0410725408,2567578.7822584,44.52904290429,0,0
44.212409978278,-16.205385892581,39.333473347335,2497080.216063,1449.8077464963,2567705.988651,44.533473347335,0,0
44.212410242495,-16.20676644996,39.337903790379,2497080.216063,1449.8077464963,2567705.988651,44.537903790379,0,0
44.212410506711,-16.208147007339,39.342334233423,2497080.216063,1449.8077464963,2567705.988651,44.542334233423,0,0
44.212410770928,-16.209527564719,39.346764676468,2497080.216063,1449.8077464963,2567705.988651,44.546764676468,0,0
44.212411035145,-16.210908122098,39.351195119512,2497080.216063,1449.8077464963,2567705.988651,44.551195119512,0,0
44.212411299361,-16.212288679478,39.355625562556,2497080.216063,1449.8077464963,2567705.988651,44.555625562556,0,0
44.212411563578,-16.213669236857,39.360056005601,2497080.216063,1449.8077464963,2567705.988651,44.560056005601,0,0
44.212411827795,-16.215049794236,39.364486448645,2497080.216063,1449.8077464963,2567705.988651,44.564486448645,0,0
44.212412092011,-16.216430351616,39.368916891689,2497080.216063,1449.8077464963,2567705.988651,44.568916891689,0,0
44.212412356228,-16.217810908995,39.373347334733,2497080.216063,1449.8077464963,2567705.988651,44.573347334733,0,0
44.212412620445,-16.219191466375,39.377777777778,2497080.216063,1449.8077464963,2567705.988651,44.577777777778,0,0
44.212412884661,-16.220572023754,39.382208220822,2497080.216063,1449.8077464963,2567705.988651,44.582208220822,0,0
44.212413148878,-16.221952581133,39.386638663866,2497080.216063,1449.8077464963,2567705.988651,44.586638663866,0,0
44.212413413095,-16.223333138513,39.391069106911,2497080.216063,1449.8077464963,2567705.988651,44.591069106911,0,0
44.212413677311,-16.224713695892,39.395499549955,2497080.216063,1449.8077464963,2567705.988651,44.595499549955,0,0
44.212413941528,-16.226094253271,39.399929992999,2497080.216063,1449.8077464963,2567705.988651,44.599929992999,0,0
44.212414205745,-16.227474810651,39.404360436044,2497080.216063,1449.8077464963,2567705.988651,44.604360436044,0,0
44.212414469961,-16.22885536803,39.408790879088,2497080.216063,1449.8077464963,2567705.988651,44.608790879088,0,0
44.212414734178,-16.23023592541,39.413221322132,2497080.216063,1449.8077464963,2567705.988651,44.613221322132,0,0
44.212414998395,-16.231616482789,39.417651765177,2497080.216063,1449.8077464963,2567705.988651,44.617651765177,0,0
44.212415262611,-16.232997040168,39.422082208221,2497080.216063,1449.8077464963,2567705.988651,44.622082208221,0,0
44.212415526828,-16.234377597548,39.426512651265,2497080.216063,1449.8077464963,2567705.988651,44.626512651265,0,0
44.212415791045,-16.235758154927,39.430943094309,2497080.216063,1449.8077464963,2567705.988651,44.630943094309,0,0
44.212416055261,-16.237138712307,39.435373537354,2497080.216063,1449.8077464963,2567705.988651,44.635373537354,0,0
44.212416319478,-16.238519269686,39.439803980398,2497080.216063,1449.8077464963,2567705.988651,44.639803980398,0,0
44.212416583695,-16.239899827065,39.444234423442,2497080.216063,1449.8077464963,2567705.988651,44.644234423442,0,0
44.212416847912,-16.241280384445,39.448664866487,2497080.216063,1449.8077464963,2567705.988651,44.648664866487,0,0
44.212417112128,-16.242660941824,39.453095309531,2497080.216063,1449.8077464963,2567705.988651,44.653095309531,0,0
44.212417376345,-16.244041499204,39.457525752575,2497080.216063,1449.8077464963,2567705.988651,44.657525752575,0,0
44.212417640562,-16.245422056583,39.46195619562,2497080.216063,1449.8077464963,2567705.988651,44.66195619562,0,0
44.212417904778,-16.246802613962,39.466386638664,2497080.216063,1449.8077464963,2567705.988651,44.666386638664,0,0
44.212418168995,-16.248183171342,39.470817081708,2497080.216063,1449.8077464963,2567705.988651,44.670817081708,0,0
44.212418433212,-16.249563728721,39.475247524752,2497080.216063,1449.8077464963,2567705.988651,44.675247524752,0,0
44.212418697428,-16.250944286101,39.479677967797,2497080.216063,1449.8077464963,2567705.988651,44.679677967797,0,0
44.212418961645,-16.25232484348,39.484108410841,2497080.216063,1449.8077464963,2567705.988651,44.684108410841,0,0
44.212419225862,-16.253705400859,39.488538853885,2497080.216063,1449.8077464963,2567705.988651,44.688538853885,0,0
44.212419490078,-16.255085958239,39.49296929693,2497080.216063,1449.8077464963,2567705.988651,44.69296929693,0,0
44.212419754295,-16.256466515618,39.497399739974,2497080.216063,1449.8077464963,2567705.988651,44.697399739974,0,0
44.212420018512,-16.257847072997,39.501830183018,2497080.216063,1449.8077464963,2567705.988651,44.701830183018,0,0
44.212420282728,-16.259227630377,39.506260626063,2497080.216063,1449.8077464963,2567705.988651,44.706260626063,0,0
44.212420546945,-16.260608187756,39.510691069107,2497080.216063,1449.8077464963,2567705.988651,44.710691069107,0,0
44.212420811162,-16.261988745136,39.515121512151,2497080.216063,1449.8077464963,2567705.988651,44.715121512151,0,0
44.212421075378,-16.263369302515,39.519551955196,2497080.216063,1449.8077464963,2567705.988651,44.719551955196,0,0
44.212421339595,-16.264749859894,39.52398239824,2497080.216063,1449.8077464963,2567705.988651,44.72398239824,0,0
44.212421603812,-16.266130417274,39.528412841284,2497080.216063,1449.8077464963,2567705.988651,44.728412841284,0,0
44.212421868028,-16.267510974653,39.532843284328,2497080.216063,1449.8077464963,2567705.988651,44.732843284328,0,0
44.212422132245,-16.268891532033,39.537273727373,2497080.216063,1449.8077464963,2567705.988651,44.737273727373,0,0
44.212422396462,-16.270272089412,39.541704170417,2497080.216063,1449.8077464963,2567705.988651,44.741704170417,0,0
44.212422660678,-16.271652646791,39.546134613461,2497080.216063,1449.8077464963,2567705.988651,44.746134613461,0,0
44.212422924895,-16.273033204171,39.550565056506,2497080.216063,1449.8077464963,2567705.988651,44.750565056506,0,0
44.212423189112,-16.27441376155,39.55499549955,2497080.216063,1449.8077464963,2567705.988651,44.75499549955,0,0
44.212423453328,-16.27579431893,39.559425942594,2497080.216063,1449.8077464963,2567705.988651,44.759425942594,0,0
44.212423717545,-16.277174876309,39.563856385639,2497080.216063,1449.8077464963,2567705.988651,44.763856385639,0,0
44.212423981762,-16.278555433688,39.568286828683,2497080.216063,1449.8077464963,2567705.988651,44.768286828683,0,0
44.212424245978,-16.279935991068,39.572717271727,2497080.216063,1449.8077464963,2567705.988651,44.772717271727,0,0
44.212424510195,-16.281316548447,39.577147714771,2497080.216063,1449.8077464963,2567705.988651,44.777147714771,0,0
44.212424774412,-16.282697105827,39.581578157816,2497080.216063,1449.8077464963,2567705.988651,44.781578157816,0,0
44.212425038629,-16.284077663206,39.58600860086,2497080.216063,1449.8077464963,2567705.988651,44.78600860086,0,0
44.212425302845,-16.285458220585,39.590439043904,2497080.216063,1449.8077464963,2567705.988651,44.790439043904,0,0
44.212425567062,-16.286838777965,39.594869486949,2497080.216063,1449.8077464963,2567705.988651,44.794869486949,0,0
44.212425831279,-16.288219335344,39.599299929993,2497080.216063,1449.8077464963,2567705.988651,44.799299929993,0,0
44.212426095495,-16.289599892723,39.603730373037,2497080.216063,1449.8077464963,2567705.988651,44.803730373037,0,0
44.212426359712,-16.290980450103,39.608160816082,2497080.216063,1449.8077464963,2567705.988651,44.808160816082,0,0
44.212426623929,-16.292361007482,39.612591259126,2497080.216063,1449.8077464963,2567705.988651,44.812591259126,0,0
44.212426888145,-16.293741564862,39.61702170217,2497080.216063,1449.8077464963,2567705.988651,44.81702170217,0,0
44.212427152362,-16.295122122241,39.621452145215,2497080.216063,1449.8077464963,2567705.988651,44.821452145215,0,0
44.212427416579,-16.29650267962,39.625882588259,2497080.216063,1449.8077464963,2567705.988651,44.825882588259,0,0
44.212427680795,-16.297883237,39.630313031303,2497080.216063,1449.8077464963,2567705.988651,44.830313031303,0,0
44.212427945012,-16.299263794379,39.634743474347,2497080.216063,1449.8077464963,2567705.988651,44.834743474347,0,0
44.212428209229,-16.300644351759,39.639173917392,2497080.216063,1449.8077464963,2567705.988651,44.839173917392,0,0
44.212428473445,-16.302024909138,39.643604360436,2497080.216063,1449.8077464963,2567705.988651,44.843604360436,0,0
44.212428737662,-16.303405466517,39.64803480348,2497080.216063,1449.8077464963,2567705.988651,44.84803480348,0,0
44.212429001879,-16.304786023897,39.652465246525,2497080.216063,1449.8077464963,2567705.988651,44.852465246525,0,0
44.212429266095,-16.306166581276,39.656895689569,2497080.216063,1449.8077464963,2567705.988651,44.856895689569,0,0
44.212429530312,-16.307547138656,39.661326132613,2497080.216063,1449.8077464963,2567705.988651,44.861326132613,0,0
44.212429794529,-16.308927696035,39.665756575658,2497080.216063,1449.8077464963,2567705.988651,44.865756575658,0,0
44.212430058745,-16.310308253414,39.670187018702,2497080.216063,1449.8077464963,2567705.988651,44.870187018702,0,0
44.212430322962,-16.311688810794,39.674617461746,2497080.216063,1449.8077464963,2567705.988651,44.874617461746,0,0
44.212430587179,-16.313069368173,39.67904790479,2497080.216063,1449.8077464963,2567705.988651,44.87904790479,0,0
44.212430851395,-16.314449925552,39.683478347835,2497080.216063,1449.8077464963,2567705.988651,44.883478347835,0,0
44.212431115612,-16.315830482932,39.687908790879,2497080.216063,1449.8077464963,2567705.988651,44.887908790879,0,0
44.212431379829,-16.317211040311,39.692339233923,2497080.216063,1449.8077464963,2567705.988651,44.892339233923,0,0
44.212431644045,-16.318591597691,39.696769676968,2497080.216063,1449.8077464963,2567705.988651,44.896769676968,0,0
44.212431908262,-16.31997215507,39.701200120012,2497080.216063,1449.8077464963,2567705.988651,44.901200120012,0,0
44.212432172479,-16.321352712449,39.705630563056,2497080.216063,1449.8077464963,2567705.988651,44.905630563056,0,0
44.212432436695,-16.322733269829,39.710061006101,2497080.216063,1449.8077464963,2567705.988651,44.910061006101,0,0
44.212432700912,-16.324113827208,39.714491449145,2497080.216063,1449.8077464963,2567705.988651,44.914491449145,0,0
44.212432965129,-16.325494384588,39.718921892189,2497080.216063,1449.8077464963,2567705.988651,44.918921892189,0,0
44.212433229346,-16.326874941967,39.723352335234,2497080.216063,1449.8077464963,2567705.988651,44.923352335234,0,0
44.212433493562,-16.328255499346,39.727782778278,2497080.216063,1449.8077464963,2567705.988651,44.927782778278,0,0
44.212433757779,-16.329636056726,39.732213221322,2497080.216063,1449.8077464963,2567705.988651,44.932213221322,0,0
44.212434021996,-16.331016614105,39.736643664366,2497080.216063,1449.8077464963,2567705.988651,44.936643664366,0,0
44.212434286212,-16.332397171485,39.741074107411,2497080.216063,1449.8077464963,2567705.988651,44.941074107411,0,0
44.212434550429,-16.333777728864,39.745504550455,2497080.216063,1449.8077464963,2567705.988651,44.945504550455,0,0
44.212434814646,-16.335158286243,39.749934993499,2497080.216063,1449.8077464963,2567705.988651,44.949934993499,0,0
44.212435078862,-16.336538843623,39.754365436544,2497080.216063,1449.8077464963,2567705.988651,44.954365436544,0,0
44.212435343079,-16.337919401002,39.758795879588,2497080.216063,1449.8077464963,2567705.988651,44.958795879588,0,0
44.212435607296,-16.339299958382,39.763226322632,2497080.216063,1449.8077464963,2567705.988651,44.963226322632,0,0
44.212435871512,-16.340680515761,39.767656765677,2497080.216063,1449.8077464963,2567705.988651,44.967656765677,0,0
44.212436135729,-16.34206107314,39.772087208721,2497080.216063,1449.8077464963,2567705.988651,44.972087208721,0,0
44.212436399946,-16.34344163052,39.776517651765,2497080.216063,1449.8077464963,2567705.988651,44.976517651765,0,0
44.212436664162,-16.344822187899,39.780948094809,2497080.216063,1449.8077464963,2567705.988651,44.980948094809,0,0
44.212436928379,-16.346202745278,39.785378537854,2497080.216063,1449.8077464963,2567705.988651,44.985378537854,0,0
44.212437192596,-16.347583302658,39.789808980898,2497080.216063,1449.8077464963,2567705.988651,44.989808980898,0,0
44.212437456812,-16.348963860037,39.794239423942,2497080.216063,1449.8077464963,2567705.988651,44.994239423942,0,0
44.212437721029,-16.350344417417,39.798669866987,2497080.216063,1449.8077464963,2567705.988651,44.998669866987,0,0
44.212437985246,-16.351724974796,39.803100310031,2497080.216063,1449.8077464963,2567705.988651,45.003100310031,0,0
44.212438249462,-16.353105532175,39.807530753075,2497080.216063,1449.8077464963,2567705.988651,45.007530753075,0,0
44.212438513679,-16.354486089555,39.81196119612,2497080.216063,1449.8077464963,2567705.988651,45.01196119612,0,0
44.212438777896,-16.355866646934,39.816391639164,2497080.216063,1449.8077464963,2567705.988651,45.016391639164,0,0
44.212439042112,-16.357247204314,39.820822082208,2497080.216063,1449.8077464963,2567705.988651,45.020822082208,0,0
44.212439306329,-16.358627761693,39.825252525253,2497080.216063,1449.8077464963,2567705.988651,45.025252525253,0,0
44.212439570546,-16.360008319072,39.829682968297,2497080.216063,1449.8077464963,2567705.988651,45.029682968297,0,0
44.212439834762,-16.361388876452,39.834113411341,2497080.216063,1449.8077464963,2567705.988651,45.034113411341,0,0
44.212440098979,-16.362769433831,39.838543854385,2497080.216063,1449.8077464963,2567705.988651,45.038543854385,0,0
44.212440363196,-16.364149991211,39.84297429743,2497080.216063,1449.8077464963,2567705.988651,45.04297429743,0,0
44.212440627412,-16.36553054859,39.847404740474,2497080.216063,1449.8077464963,2567705.988651,45.047404740474,0,0
44.212440891629,-16.366911105969,39.851835183518,2497080.216063,1449.8077464963,2567705.988651,45.051835183518,0,0
44.212441155846,-16.368291663349,39.856265626563,2497080.216063,1449.8077464963,2567705.988651,45.056265626563,0,0
44.212441420063,-16.369672220728,39.860696069607,2497080.216063,1449.8077464963,2567705.988651,45.060696069607,0,0
44.212441684279,-16.371052778108,39.865126512651,2497080.216063,1449.8077464963,2567705.988651,45.065126512651,0,0
44.212441948496,-16.372433335487,39.869556955696,2497080.216063,1449.8077464963,2567705.988651,45.069556955696,0,0
44.212442212713,-16.373813892866,39.87398739874,2497080.216063,1449.8077464963,2567705.988651,45.07398739874,0,0
44.212442476929,-16.375194450246,39.878417841784,2497080.216063,1449.8077464963,2567705.988651,45.078417841784,0,0
44.212442741146,-16.376575007625,39.882848284828,2497080.216063,1449.8077464963,2567705.988651,45.082848284828,0,0
44.212443005363,-16.377955565004,39.887278727873,2497080.216063,1449.8077464963,2567705.988651,45.087278727873,0,0
44.212443269579,-16.379336122384,39.891709170917,2497080.216063,1449.8077464963,2567705.988651,45.091709170917,0,0
44.212443533796,-16.380716679763,39.896139613961,2497080.216063,1449.8077464963,2567705.988651,45.096139613961,0,0
44.212443798013,-16.382097237143,39.900570057006,2497080.216063,1449.8077464963,2567705.988651,45.100570057006,0,0
44.212444062229,-16.383477794522,39.90500050005,2497080.216063,1449.8077464963,2567705.988651,45.10500050005,0,0
44.212444326446,-16.384858351901,39.909430943094,2497080.216063,1449.8077464963,2567705.988651,45.109430943094,0,0
44.212444590663,-16.386238909281,39.913861386139,2497080.216063,1449.8077464963,2567705.988651,45.113861386139,0,0
44.212444854879,-16.38761946666,39.918291829183,2497080.216063,1449.8077464963,2567705.988651,45.118291829183,0,0
44.212445119096,-16.38900002404,39.922722272227,2497080.216063,1449.8077464963,2567705.988651,45.122722272227,0,0
44.212445383313,-16.390380581419,39.927152715272,2497080.216063,1449.8077464963,2567705.988651,45.127152715272,0,0
44.212445647529,-16.391761138798,39.931583158316,2497080.216063,1449.8077464963,2567705.988651,45.131583158316,0,0
44.212445911746,-16.393141696178,39.93601360136,2497080.216063,1449.8077464963,2567705.988651,45.13601360136,0,0
44.212446175963,-16.394522253557,39.940444044404,2497080.216063,1449.8077464963,2567705.988651,45.140444044404,0,0
44.212446440179,-16.395902810937,39.944874487449,2497080.216063,1449.8077464963,2567705.988651,45.144874487449,0,0
44.212446704396,-16.397283368316,39.949304930493,2497080.216063,1449.8077464963,2567705.988651,45.149304930493,0,0
44.212446968613,-16.398663925695,39.953735373537,2497080.216063,1449.8077464963,2567705.988651,45.153735373537,0,0
44.212447232829,-16.400044483075,39.958165816582,2497080.216063,1449.8077464963,2567705.988651,45.158165816582,0,0
44.212447497046,-16.401425040454,39.962596259626,2497080.216063,1449.8077464963,2567705.988651,45.162596259626,0,0
44.212447761263,-16.402805597833,39.96702670267,2497080.216063,1449.8077464963,2567705.988651,45.16702670267,0,0
44.212448025479,-16.404186155213,39.971457145715,2497080.216063,1449.8077464963,2567705.988651,45.171457145715,0,0
44.212448289696,-16.405566712592,39.975887588759,2497080.216063,1449.8077464963,2567705.988651,45.175887588759,0,0
44.212448553913,-16.406947269972,39.980318031803,2497080.216063,1449.8077464963,2567705.988651,45.180318031803,0,0
44.212448818129,-16.408327827351,39.984748474847,2497080.216063,1449.8077464963,2567705.988651,45.184748474847,0,0
44.212449082346,-16.40970838473,39.989178917892,2497080.216063,1449.8077464963,2567705.988651,45.189178917892,0,0
44.212449346563,-16.41108894211,39.993609360936,2497080.216063,1449.8077464963,2567705.988651,45.193609360936,0,0
44.21244961078,-16.412469499489,39.99803980398,2497080.216063,1449.8077464963,2567705.988651,45.19803980398,0,0
44.212449874996,-16.413850056869,40.002470247025,2497080.216063,1449.8077464963,2567705.988651,45.202470247025,0,0
44.212450139213,-16.415230614248,40.006900690069,2497080.216063,1449.8077464963,2567705.988651,45.206900690069,0,0
44.21245040343,-16.416611171627,40.011331133113,2497080.216063,1449.8077464963,2567705.988651,45.211331133113,0,0
44.212450667646,-16.417991729007,40.015761576158,2497080.216063,1449.8077464963,2567705.988651,45.215761576158,0,0
44.212450931863,-16.419372286386,40.020192019202,2497080.216063,1449.8077464963,2567705.988651,45.220192019202,0,0
44.21245119608,-16.420752843766,40.024622462246,2497080.216063,1449.8077464963,2567705.988651,45.224622462246,0,0
44.212451460296,-16.422133401145,40.029052905291,2497080.216063,1449.8077464963,2567705.988651,45.229052905291,0,0
44.212451724513,-16.423513958524,40.033483348335,2497080.216063,1449.8077464963,2567705.988651,45.233483348335,0,0
44.21245198873,-16.424894515904,40.037913791379,2497080.216063,1449.8077464963,2567705.988651,45.237913791379,0,0
44.212452252946,-16.426275073283,40.042344234423,2497080.216063,1449.8077464963,2567705.988651,45.242344234423,0,0
44.212452517163,-16.427655630663,40.046774677468,2497080.216063,1449.8077464963,2567705.988651,45.246774677468,0,0
44.21245278138,-16.429036188042,40.051205120512,2497080.216063,1449.8077464963,2567705.988651,45.251205120512,0,0
44.212453045596,-16.430416745421,40.055635563556,2497080.216063,1449.8077464963,2567705.988651,45.255635563556,0,0
44.212453309813,-16.431797302801,40.060066006601,2497080.216063,1449.8077464963,2567705.988651,45.260066006601,0,0
44.21245357403,-16.43317786018,40.064496449645,2497080.216063,1449.8077464963,2567705.988651,45.264496449645,0,0
44.212453838246,-16.434558417559,40.068926892689,2497080.216063,1449.8077464963,2567705.988651,45.268926892689,0,0
44.212454102463,-16.435938974939,40.073357335734,2497080.216063,1449.8077464963,2567705.988651,45.273357335734,0,0
44.21245436668,-16.437319532318,40.077787778778,2497080.216063,1449.8077464963,2567705.988651,45.277787778778,0,0
44.212454630896,-16.438700089698,40.082218221822,2497080.216063,1449.8077464963,2567705.988651,45.282218221822,0,0
44.212454895113,-16.440080647077,40.086648664866,2497080.216063,1449.8077464963,2567705.988651,45.286648664866,0,0
44.21245515933,-16.441461204456,40.091079107911,2497080.216063,1449.8077464963,2567705.988651,45.291079107911,0,0
44.212455423546,-16.442841761836,40.095509550955,2497080.216063,1449.8077464963,2567705.988651,45.295509550955,0,0
44.212455687763,-16.444222319215,40.099939993999,2497080.216063,1449.8077464963,2567705.988651,45.299939993999,0,0
44.21245595198,-16.445602876595,40.104370437044,2497080.216063,1449.8077464963,2567705.988651,45.304370437044,0,0
44.212456216196,-16.446983433974,40.108800880088,2497080.216063,1449.8077464963,2567705.988651,45.308800880088,0,0
44.212456480413,-16.448363991353,40.113231323132,2497080.216063,1449.8077464963,2567705.988651,45.313231323132,0,0
44.21245674463,-16.449744548733,40.117661766177,2497080.216063,1449.8077464963,2567705.988651,45.317661766177,0,0
44.212457008846,-16.451125106112,40.122092209221,2497080.216063,1449.8077464963,2567705.988651,45.322092209221,0,0
44.212457273063,-16.452505663492,40.126522652265,2497080.216063,1449.8077464963,2567705.988651,45.326522652265,0,0
44.21245753728,-16.453886220871,40.13095309531,2497080.216063,1449.8077464963,2567705.988651,45.33095309531,0,0
44.212457801496,-16.45526677825,40.135383538354,2497080.216063,1449.8077464963,2567705.988651,45.335383538354,0,0
44.212458065713,-16.45664733563,40.139813981398,2497080.216063,1449.8077464963,2567705.988651,45.339813981398,0,0
44.21245832993,-16.458027893009,40.144244424442,2497080.216063,1449.8077464963,2567705.988651,45.344244424442,0,0
44.212458594147,-16.459408450389,40.148674867487,2497080.216063,1449.8077464963,2567705.988651,45.348674867487,0,0
44.212458858363,-16.460789007768,40.153105310531,2497080.216063,1449.8077464963,2567705.988651,45.353105310531,0,0
44.21245912258,-16.462169565147,40.157535753575,2497080.216063,1449.8077464963,2567705.988651,45.357535753575,0,0
44.212459386797,-16.463550122527,40.16196619662,2497080.216063,1449.8077464963,2567705.988651,45.36196619662,0,0
44.212459651013,-16.464930679906,40.166396639664,2497080.216063,1449.8077464963,2567705.988651,45.366396639664,0,0
44.21245991523,-16.466311237285,40.170827082708,2497080.216063,1449.8077464963,2567705.988651,45.370827082708,0,0
44.212460179447,-16.467691794665,40.175257525753,2497080.216063,1449.8077464963,2567705.988651,45.375257525753,0,0
44.212460443663,-16.469072352044,40.179687968797,2497080.216063,1449.8077464963,2567705.988651,45.379687968797,0,0
44.21246070788,-16.470452909424,40.184118411841,2497080.216063,1449.8077464963,2567705.988651,45.384118411841,0,0
44.212460972097,-16.471833466803,40.188548854885,2497080.216063,1449.8077464963,2567705.988651,45.388548854885,0,0
44.212461236313,-16.473214024182,40.19297929793,2497080.216063,1449.8077464963,2567705.988651,45.39297929793,0,0
44.21246150053,-16.474594581562,40.197409740974,2497080.216063,1449.8077464963,2567705.988651,45.397409740974,0,0
44.212461764747,-16.475975138941,40.201840184018,2497080.216063,1449.8077464963,2567705.988651,45.401840184018,0,0
44.212462028963,-16.477355696321,40.206270627063,2497080.216063,1449.8077464963,2567705.988651,45.406270627063,0,0
44.21246229318,-16.4787362537,40.210701070107,2497080.216063,1449.8077464963,2567705.988651,45.410701070107,0,0
44.212462557397,-16.480116811079,40.215131513151,2497080.216063,1449.8077464963,2567705.988651,45.415131513151,0,0
44.212462821613,-16.481497368459,40.219561956196,2497080.216063,1449.8077464963,2567705.988651,45.419561956196,0,0
44.21246308583,-16.482877925838,40.22399239924,2497080.216063,1449.8077464963,2567705.988651,45.42399239924,0,0
44.212463350047,-16.484258483218,40.228422842284,2497080.216063,1449.8077464963,2567705.988651,45.428422842284,0,0
44.212463614263,-16.485639040597,40.232853285329,2497080.216063,1449.8077464963,2567705.988651,45.432853285329,0,0
44.21246387848,-16.487019597976,40.237283728373,2497080.216063,1449.8077464963,2567705.988651,45.437283728373,0,0
44.212464142697,-16.488400155356,40.241714171417,2497080.216063,1449.8077464963,2567705.988651,45.441714171417,0,0
44.212464406913,-16.489780712735,40.246144614461,2497080.216063,1449.8077464963,2567705.988651,45.446144614461,0,0
44.21246467113,-16.491161270114,40.250575057506,2497080.216063,1449.8077464963,2567705.988651,45.450575057506,0,0
44.212464935347,-16.492541827494,40.25500550055,2497080.216063,1449.8077464963,2567705.988651,45.45500550055,0,0
44.212465199563,-16.493922384873,40.259435943594,2497080.216063,1449.8077464963,2567705.988651,45.459435943594,0,0
44.21246546378,-16.495302942253,40.263866386639,2497080.216063,1449.8077464963,2567705.988651,45.463866386639,0,0
44.212465727997,-16.496683499632,40.268296829683,2497080.216063,1449.8077464963,2567705.988651,45.468296829683,0,0
44.212465992213,-16.498064057011,40.272727272727,2497080.216063,1449.8077464963,2567705.988651,45.472727272727,0,0
44.21246625643,-16.499444614391,40.277157715772,2497080.216063,1449.8077464963,2567705.988651,45.477157715772,0,0
44.212466520647,-16.50082517177,40.281588158816,2497080.216063,1449.8077464963,2567705.988651,45.481588158816,0,0
44.212466784864,-16.50220572915,40.28601860186,2497080.216063,1449.8077464963,2567705.988651,45.48601860186,0,0
44.21246704908,-16.503586286529,40.290449044904,2497080.216063,1449.8077464963,2567705.988651,45.490449044904,0,0
44.212467313297,-16.504966843908,40.294879487949,2497080.216063,1449.8077464963,2567705.988651,45.494879487949,0,0
44.212467577514,-16.506347401288,40.299309930993,2497080.216063,1449.8077464963,2567705.988651,45.499309930993,0,0
44.21246784173,-16.507727958667,40.303740374037,2497080.216063,1449.8077464963,2567705.988651,45.503740374037,0,0
44.212468105947,-16.509108516047,40.308170817082,2497080.216063,1449.8077464963,2567705.988651,45.508170817082,0,0
44.212468370164,-16.510489073426,40.312601260126,2497080.216063,1449.8077464963,2567705.988651,45.512601260126,0,0
44.21246863438,-16.511869630805,40.31703170317,2497080.216063,1449.8077464963,2567705.988651,45.51703170317,0,0
44.212468898597,-16.513250188185,40.321462146215,2497080.216063,1449.8077464963,2567705.988651,45.521462146215,0,0
44.212469162814,-16.514630745564,40.325892589259,2497080.216063,1449.8077464963,2567705.988651,45.525892589259,0,0
44.21246942703,-16.516011302944,40.330323032303,2497080.216063,1449.8077464963,2567705.988651,45.530323032303,0,0
44.212469691247,-16.517391860323,40.334753475348,2497080.216063,1449.8077464963,2567705.988651,45.534753475348,0,0
44.212469955464,-16.518772417702,40.339183918392,2497080.216063,1449.8077464963,2567705.988651,45.539183918392,0,0
44.21247021968,-16.520152975082,40.343614361436,2497080.216063,1449.8077464963,2567705.988651,45.543614361436,0,0
44.212470483897,-16.521533532461,40.34804480448,2497080.216063,1449.8077464963,2567705.988651,45.54804480448,0,0
44.212470748114,-16.52291408984,40.352475247525,2497080.216063,1449.8077464963,2567705.988651,45.552475247525,0,0
44.21247101233,-16.52429464722,40.356905690569,2497080.216063,1449.8077464963,2567705.988651,45.556905690569,0,0
44.212471276547,-16.525675204599,40.361336133613,2497080.216063,1449.8077464963,2567705.988651,45.561336133613,0,0
44.212471540764,-16.527055761979,40.365766576658,2497080.216063,1449.8077464963,2567705.988651,45.565766576658,0,0
44.21247180498,-16.528436319358,40.370197019702,2497080.216063,1449.8077464963,2567705.988651,45.570197019702,0,0
44.212472069197,-16.529816876737,40.374627462746,2497080.216063,1449.8077464963,2567705.988651,45.574627462746,0,0
44.212472333414,-16.531197434117,40.379057905791,2497080.216063,1449.8077464963,2567705.988651,45.579057905791,0,0
44.21247259763,-16.532577991496,40.383488348835,2497080.216063,1449.8077464963,2567705.988651,45.583488348835,0,0
44.212472861847,-16.533958548876,40.387918791879,2497080.216063,1449.8077464963,2567705.988651,45.587918791879,0,0
44.212473126064,-16.535339106255,40.392349234923,2497080.216063,1449.8077464963,2567705.988651,45.592349234923,0,0
44.21247339028,-16.536719663634,40.396779677968,2497080.216063,1449.8077464963,2567705.988651,45.596779677968,0,0
44.212473654497,-16.538100221014,40.401210121012,2497080.216063,1449.8077464963,2567705.988651,45.601210121012,0,0
44.212473918714,-16.539480778393,40.405640564056,2497080.216063,1449.8077464963,2567705.988651,45.605640564056,0,0
44.21247418293,-16.540861335773,40.410071007101,2497080.216063,1449.8077464963,2567705.988651,45.610071007101,0,0
44.212474447147,-16.542241893152,40.414501450145,2497080.216063,1449.8077464963,2567705.988651,45.614501450145,0,0
44.212474711364,-16.543622450531,40.418931893189,2497080.216063,1449.8077464963,2567705.988651,45.618931893189,0,0
44.212474975581,-16.545003007911,40.423362336234,2497080.216063,1449.8077464963,2567705.988651,45.623362336234,0,0
44.212475239797,-16.54638356529,40.427792779278,2497080.216063,1449.8077464963,2567705.988651,45.627792779278,0,0
44.212475504014,-16.547764122669,40.432223222322,2497080.216063,1449.8077464963,2567705.988651,45.632223222322,0,0
44.212475768231,-16.549144680049,40.436653665367,2497080.216063,1449.8077464963,2567705.988651,45.636653665367,0,0
44.212476032447,-16.550525237428,40.441084108411,2497080.216063,1449.8077464963,2567705.988651,45.641084108411,0,0
44.212476296664,-16.551905794808,40.445514551455,2497080.216063,1449.8077464963,2567705.988651,45.645514551455,0,0
44.212476560881,-16.553286352187,40.449944994499,2497080.216063,1449.8077464963,2567705.988651,45.649944994499,0,0
44.212476825097,-16.554666909566,40.454375437544,2497080.216063,1449.8077464963,2567705.988651,45.654375437544,0,0
44.212477089314,-16.556047466946,40.458805880588,2497080.216063,1449.8077464963,2567705.988651,45.658805880588,0,0
44.212477353531,-16.557428024325,40.463236323632,2497080.216063,1449.8077464963,2567705.988651,45.663236323632,0,0
44.212477617747,-16.558808581705,40.467666766677,2497080.216063,1449.8077464963,2567705.988651,45.667666766677,0,0
44.212477881964,-16.560189139084,40.472097209721,2497080.216063,1449.8077464963,2567705.988651,45.672097209721,0,0
44.212478146181,-16.561569696463,40.476527652765,2497080.216063,1449.8077464963,2567705.988651,45.676527652765,0,0
44.212478410397,-16.562950253843,40.48095809581,2497080.216063,1449.8077464963,2567705.988651,45.68095809581,0,0
44.212478674614,-16.564330811222,40.485388538854,2497080.216063,1449.8077464963,2567705.988651,45.685388538854,0,0
44.212478938831,-16.565711368602,40.489818981898,2497080.216063,1449.8077464963,2567705.988651,45.689818981898,0,0
44.212479203047,-16.567091925981,40.494249424942,2497080.216063,1449.8077464963,2567705.988651,45.694249424942,0,0
44.212479467264,-16.56847248336,40.498679867987,2497080.216063,1449.8077464963,2567705.988651,45.698679867987,0,0
44.212479731481,-16.56985304074,40.503110311031,2497080.216063,1449.8077464963,2567705.988651,45.703110311031,0,0
44.212479995697,-16.571233598119,40.507540754075,2497080.216063,1449.8077464963,2567705.988651,45.707540754075,0,0
44.212480259914,-16.572614155499,40.51197119712,2497080.216063,1449.8077464963,2567705.988651,45.71197119712,0,0
44.212480524131,-16.573994712878,40.516401640164,2497080.216063,1449.8077464963,2567705.988651,45.716401640164,0,0
44.212480788347,-16.575375270257,40.520832083208,2497080.216063,1449.8077464963,2567705.988651,45.720832083208,0,0
44.212481052564,-16.576755827637,40.525262526253,2497080.216063,1449.8077464963,2567705.988651,45.725262526253,0,0
44.212481316781,-16.578136385016,40.529692969297,2497080.216063,1449.8077464963,2567705.988651,45.729692969297,0,0
44.212481580997,-16.579516942395,40.534123412341,2497080.216063,1449.8077464963,2567705.988651,45.734123412341,0,0
44.212481845214,-16.580897499775,40.538553855386,2497080.216063,1449.8077464963,2567705.988651,45.738553855386,0,0
44.212482109431,-16.582278057154,40.54298429843,2497080.216063,1449.8077464963,2567705.988651,45.74298429843,0,0
44.212482373647,-16.583658614534,40.547414741474,2497080.216063,1449.8077464963,2567705.988651,45.747414741474,0,0
44.212482637864,-16.585039171913,40.551845184518,2497080.216063,1449.8077464963,2567705.988651,45.751845184518,0,0
44.212482902081,-16.586419729292,40.556275627563,2497080.216063,1449.8077464963,2567705.988651,45.756275627563,0,0
44.212483166298,-16.587800286672,40.560706070607,2497080.216063,1449.8077464963,2567705.988651,45.760706070607,0,0
44.212483430514,-16.589180844051,40.565136513651,2497080.216063,1449.8077464963,2567705.988651,45.765136513651,0,0
44.212483694731,-16.590561401431,40.569566956696,2497080.216063,1449.8077464963,2567705.988651,45.769566956696,0,0
44.212483958948,-16.59194195881,40.57399739974,2497080.216063,1449.8077464963,2567705.988651,45.77399739974,0,0
44.212484223164,-16.593322516189,40.578427842784,2497080.216063,1449.8077464963,2567705.988651,45.778427842784,0,0
44.212484487381,-16.594703073569,40.582858285829,2497080.216063,1449.8077464963,2567705.988651,45.782858285829,0,0
44.212484751598,-16.596083630948,40.587288728873,2497080.216063,1449.8077464963,2567705.988651,45.787288728873,0,0
44.212485015814,-16.597464188328,40.591719171917,2497080.216063,1449.8077464963,2567705.988651,45.791719171917,0,0
44.212485280031,-16.598844745707,40.596149614961,2497080.216063,1449.8077464963,2567705.988651,45.796149614961,0,0
44.212485544248,-16.600225303086,40.600580058006,2497080.216063,1449.8077464963,2567705.988651,45.800580058006,0,0
44.212485808464,-16.601605860466,40.60501050105,2497080.216063,1449.8077464963,2567705.988651,45.80501050105,0,0
44.212486072681,-16.602986417845,40.609440944094,2497080.216063,1449.8077464963,2567705.988651,45.809440944094,0,0
44.212486336898,-16.604366975225,40.613871387139,2497080.216063,1449.8077464963,2567705.988651,45.813871387139,0,0
44.212486601114,-16.605747532604,40.618301830183,2497080.216063,1449.8077464963,2567705.988651,45.818301830183,0,0
44.212486865331,-16.607128089983,40.622732273227,2497080.216063,1449.8077464963,2567705.988651,45.822732273227,0,0
44.212487129548,-16.608508647363,40.627162716272,2497080.216063,1449.8077464963,2567705.988651,45.827162716272,0,0
44.212487393764,-16.609889204742,40.631593159316,2497080.216063,1449.8077464963,2567705.988651,45.831593159316,0,0
44.212487657981,-16.611269762121,40.63602360236,2497080.216063,1449.8077464963,2567705.988651,45.83602360236,0,0
44.212487922198,-16.612650319501,40.640454045405,2497080.216063,1449.8077464963,2567705.988651,45.840454045405,0,0
44.212488186414,-16.61403087688,40.644884488449,2497080.216063,1449.8077464963,2567705.988651,45.844884488449,0,0
44.212488450631,-16.61541143426,40.649314931493,2497080.216063,1449.8077464963,2567705.988651,45.849314931493,0,0
44.212488714848,-16.616791991639,40.653745374537,2497080.216063,1449.8077464963,2567705.988651,45.853745374537,0,0
44.212488979064,-16.618172549018,40.658175817582,2497080.216063,1449.8077464963,2567705.988651,45.858175817582,0,0
44.212489243281,-16.619553106398,40.662606260626,2497080.216063,1449.8077464963,2567705.988651,45.862606260626,0,0
44.212489507498,-16.620933663777,40.66703670367,2497080.216063,1449.8077464963,2567705.988651,45.86703670367,0,0
44.212489771714,-16.622314221157,40.671467146715,2497080.216063,1449.8077464963,2567705.988651,45.871467146715,0,0
44.212490035931,-16.623694778536,40.675897589759,2497080.216063,1449.8077464963,2567705.988651,45.875897589759,0,0
44.212490300148,-16.625075335915,40.680328032803,2497080.216063,1449.8077464963,2567705.988651,45.880328032803,0,0
44.212490564364,-16.626455893295,40.684758475848,2497080.216063,1449.8077464963,2567705.988651,45.884758475848,0,0
44.212490828581,-16.627836450674,40.689188918892,2497080.216063,1449.8077464963,2567705.988651,45.889188918892,0,0
44.212491092798,-16.629217008054,40.693619361936,2497080.216063,1449.8077464963,2567705.988651,45.893619361936,0,0
44.212491357015,-16.630597565433,40.69804980498,2497080.216063,1449.8077464963,2567705.988651,45.89804980498,0,0
44.212491621231,-16.631978122812,40.702480248025,2497080.216063,1449.8077464963,2567705.988651,45.902480248025,0,0
44.212491885448,-16.633358680192,40.706910691069,2497080.216063,1449.8077464963,2567705.988651,45.906910691069,0,0
44.212492149665,-16.634739237571,40.711341134113,2497080.216063,1449.8077464963,2567705.988651,45.911341134113,0,0
44.212492413881,-16.63611979495,40.715771577158,2497080.216063,1449.8077464963,2567705.988651,45.915771577158,0,0
44.212492678098,-16.63750035233,40.720202020202,2497080.216063,1449.8077464963,2567705.988651,45.920202020202,0,0
44.212492942315,-16.638880909709,40.724632463246,2497080.216063,1449.8077464963,2567705.988651,45.924632463246,0,0
44.212493206531,-16.640261467089,40.729062906291,2497080.216063,1449.8077464963,2567705.988651,45.929062906291,0,0
44.212493470748,-16.641642024468,40.733493349335,2497080.216063,1449.8077464963,2567705.988651,45.933493349335,0,0
44.212493734965,-16.643022581847,40.737923792379,2497080.216063,1449.8077464963,2567705.988651,45.937923792379,0,0
44.212493999181,-16.644403139227,40.742354235424,2497080.216063,1449.8077464963,2567705.988651,45.942354235424,0,0
44.212494263398,-16.645783696606,40.746784678468,2497080.216063,1449.8077464963,2567705.988651,45.946784678468,0,0
44.212494527615,-16.647164253986,40.751215121512,2497080.216063,1449.8077464963,2567705.988651,45.951215121512,0,0
44.212494791831,-16.648544811365,40.755645564556,2497080.216063,1449.8077464963,2567705.988651,45.955645564556,0,0
44.212495056048,-16.649925368744,40.760076007601,2497080.216063,1449.8077464963,2567705.988651,45.960076007601,0,0
44.212495320265,-16.651305926124,40.764506450645,2497080.216063,1449.8077464963,2567705.988651,45.964506450645,0,0
44.212495584481,-16.652686483503,40.768936893689,2497080.216063,1449.8077464963,2567705.988651,45.968936893689,0,0
44.212495848698,-16.654067040883,40.773367336734,2497080.216063,1449.8077464963,2567705.988651,45.973367336734,0,0
44.212496112915,-16.655447598262,40.777797779778,2497080.216063,1449.8077464963,2567705.988651,45.977797779778,0,0
44.212496377131,-16.656828155641,40.782228222822,2497080.216063,1449.8077464963,2567705.988651,45.982228222822,0,0
44.212496641348,-16.658208713021,40.786658665867,2497080.216063,1449.8077464963,2567705.988651,45.986658665867,0,0
44.212496905565,-16.6595892704,40.791089108911,2497080.216063,1449.8077464963,2567705.988651,45.991089108911,0,0
44.212497169781,-16.66096982778,40.795519551955,2497080.216063,1449.8077464963,2567705.988651,45.995519551955,0,0
44.212497433998,-16.662350385159,40.799949994999,2497080.216063,1449.8077464963,2567705.988651,45.999949994999,0,0
44.212497698215,-16.663730942538,40.804380438044,2497080.216063,1449.8077464963,2567705.988651,46.004380438044,0,0
44.212497962431,-16.665111499918,40.808810881088,2497080.216063,1449.8077464963,2567705.988651,46.008810881088,0,0
44.212498226648,-16.666492057297,40.813241324132,2497080.216063,1449.8077464963,2567705.988651,46.013241324132,0,0
44.212498490865,-16.667872614676,40.817671767177,2497080.216063,1449.8077464963,2567705.988651,46.017671767177,0,0
44.212498755081,-16.669253172056,40.822102210221,2497080.216063,1449.8077464963,2567705.988651,46.022102210221,0,0
44.212499019298,-16.670633729435,40.826532653265,2497080.216063,1449.8077464963,2567705.988651,46.026532653265,0,0
44.212499283515,-16.672014286815,40.83096309631,2497080.216063,1449.8077464963,2567705.988651,46.03096309631,0,0
44.212499547732,-16.673394844194,40.835393539354,2497080.216063,1449.8077464963,2567705.988651,46.035393539354,0,0
44.212499811948,-16.674775401573,40.839823982398,2497080.216063,1449.8077464963,2567705.988651,46.039823982398,0,0
44.212500076165,-16.676155958953,40.844254425443,2497080.216063,1449.8077464963,2567705.988651,46.044254425443,0,0
44.212500340382,-16.677536516332,40.848684868487,2497080.216063,1449.8077464963,2567705.988651,46.048684868487,0,0
44.212500604598,-16.678917073712,40.853115311531,2497080.216063,1449.8077464963,2567705.988651,46.053115311531,0,0
44.212500868815,-16.680297631091,40.857545754575,2497080.216063,1449.8077464963,2567705.988651,46.057545754575,0,0
44.212501133032,-16.68167818847,40.86197619762,2497080.216063,1449.8077464963,2567705.988651,46.06197619762,0,0
44.212501397248,-16.68305874585,40.866406640664,2497080.216063,1449.8077464963,2567705.988651,46.066406640664,0,0
44.212501661465,-16.684439303229,40.870837083708,2497080.216063,1449.8077464963,2567705.988651,46.070837083708,0,0
44.212501925682,-16.685819860609,40.875267526753,2497080.216063,1449.8077464963,2567705.988651,46.075267526753,0,0
44.212502189898,-16.687200417988,40.879697969797,2497080.216063,1449.8077464963,2567705.988651,46.079697969797,0,0
44.212502454115,-16.688580975367,40.884128412841,2497080.216063,1449.8077464963,2567705.988651,46.084128412841,0,0
44.212502718332,-16.689961532747,40.888558855886,2497080.216063,1449.8077464963,2567705.988651,46.088558855886,0,0
44.212502982639,-16.691342090201,40.89298929893,2500102.4879776,379.77953539318,2569388.434967,46.09298929893,0,0
44.212503247052,-16.692722647743,40.897419741974,2500102.4879776,379.77953539318,2569388.434967,46.097419741974,0,0
44.212503511465,-16.694103205285,40.901850185018,2500102.4879776,379.77953539318,2569388.434967,46.101850185018,0,0
44.212503775879,-16.695483762828,40.906280628063,2500102.4879776,379.77953539318,2569388.434967,46.106280628063,0,0
44.212504040292,-16.69686432037,40.910711071107,2500102.4879776,379.77953539318,2569388.434967,46.110711071107,0,0
44.212504304705,-16.698244877912,40.915141514151,2500102.4879776,379.77953539318,2569388.434967,46.115141514151,0,0
44.212504569119,-16.699625435454,40.919571957196,2500102.4879776,379.77953539318,2569388.434967,46.119571957196,0,0
44.212504833532,-16.701005992996,40.92400240024,2500102.4879776,379.77953539318,2569388.434967,46.12400240024,0,0
44.212505097945,-16.702386550539,40.928432843284,2500102.4879776,379.77953539318,2569388.434967,46.128432843284,0,0
44.212505362358,-16.703767108081,40.932863286329,2500102.4879776,379.77953539318,2569388.434967,46.132863286329,0,0
44.212505626772,-16.705147665623,40.937293729373,2500102.4879776,379.77953539318,2569388.434967,46.137293729373,0,0
44.212505891185,-16.706528223165,40.941724172417,2500102.4879776,379.77953539318,2569388.434967,46.141724172417,0,0
44.212506155598,-16.707908780707,40.946154615462,2500102.4879776,379.77953539318,2569388.434967,46.146154615462,0,0
44.212506420012,-16.70928933825,40.950585058506,2500102.4879776,379.77953539318,2569388.434967,46.150585058506,0,0
44.212506684425,-16.710669895792,40.95501550155,2500102.4879776,379.77953539318,2569388.434967,46.15501550155,0,0
44.212506948838,-16.712050453334,40.959445944594,2500102.4879776,379.77953539318,2569388.434967,46.159445944594,0,0
44.212507213251,-16.713431010876,40.963876387639,2500102.4879776,379.77953539318,2569388.434967,46.163876387639,0,0
44.212507477665,-16.714811568418,40.968306830683,2500102.4879776,379.77953539318,2569388.434967,46.168306830683,0,0
44.212507742078,-16.716192125961,40.972737273727,2500102.4879776,379.77953539318,2569388.434967,46.172737273727,0,0
44.212508006302,-16.71757268339,40.977167716772,2497410.9814443,-266.0923766485,2570620.3815665,46.177167716772,0,0
44.212508270468,-16.718953240785,40.981598159816,2497410.9814443,-266.0923766485,2570620.3815665,46.181598159816,0,0
44.212508534633,-16.720333798179,40.98602860286,2497410.9814443,-266.0923766485,2570620.3815665,46.18602860286,0,0
44.212508798799,-16.721714355574,40.990459045905,2497410.9814443,-266.0923766485,2570620.3815665,46.190459045905,0,0
44.212509062964,-16.723094912968,40.994889488949,2497410.9814443,-266.0923766485,2570620.3815665,46.194889488949,0,0
44.21250932713,-16.724475470363,40.999319931993,2497410.9814443,-266.0923766485,2570620.3815665,46.199319931993,0,0
44.212509591295,-16.725856027757,41.003750375037,2497410.9814443,-266.0923766485,2570620.3815665,46.203750375038,0,0
44.212509855461,-16.727236585152,41.008180818082,2497410.9814443,-266.0923766485,2570620.3815665,46.208180818082,0,0
44.212510119626,-16.728617142546,41.012611261126,2497410.9814443,-266.0923766485,2570620.3815665,46.212611261126,0,0
44.212510383792,-16.72999769994,41.01704170417,2497410.9814443,-266.0923766485,2570620.3815665,46.21704170417,0,0
44.212510647957,-16.731378257335,41.021472147215,2497410.9814443,-266.0923766485,2570620.3815665,46.221472147215,0,0
44.212510912123,-16.732758814729,41.025902590259,2497410.9814443,-266.0923766485,2570620.3815665,46.225902590259,0,0
44.212511176288,-16.734139372124,41.030333033303,2497410.9814443,-266.0923766485,2570620.3815665,46.230333033303,0,0
44.212511440454,-16.735519929518,41.034763476348,2497410.9814443,-266.0923766485,2570620.3815665,46.234763476348,0,0
44.212511704619,-16.736900486913,41.039193919392,2497410.9814443,-266.0923766485,2570620.3815665,46.239193919392,0,0
44.212511968785,-16.738281044307,41.043624362436,2497410.9814443,-266.0923766485,2570620.3815665,46.243624362436,0,0
44.21251223295,-16.739661601702,41.048054805481,2497410.9814443,-266.0923766485,2570620.3815665,46.248054805481,0,0
44.212512497116,-16.741042159096,41.052485248525,2497410.9814443,-266.0923766485,2570620.3815665,46.252485248525,0,0
44.212512761281,-16.742422716491,41.056915691569,2497410.9814443,-266.0923766485,2570620.3815665,46.256915691569,0,0
44.212513025447,-16.743803273885,41.061346134613,2497410.9814443,-266.0923766485,2570620.3815665,46.261346134613,0,0
44.212513289612,-16.74518383128,41.065776577658,2497410.9814443,-266.0923766485,2570620.3815665,46.265776577658,0,0
44.212513553778,-16.746564388674,41.070207020702,2497410.9814443,-266.0923766485,2570620.3815665,46.270207020702,0,0
44.212513817943,-16.747944946069,41.074637463746,2497410.9814443,-266.0923766485,2570620.3815665,46.274637463746,0,0
44.212514082109,-16.749325503463,41.079067906791,2497410.9814443,-266.0923766485,2570620.3815665,46.279067906791,0,0
44.212514346274,-16.750706060858,41.083498349835,2497410.9814443,-266.0923766485,2570620.3815665,46.283498349835,0,0
44.21251461044,-16.752086618252,41.087928792879,2497410.9814443,-266.0923766485,2570620.3815665,46.287928792879,0,0
44.212514874605,-16.753467175647,41.092359235924,2497410.9814443,-266.0923766485,2570620.3815665,46.292359235924,0,0
44.212515138771,-16.754847733041,41.096789678968,2497410.9814443,-266.0923766485,2570620.3815665,46.296789678968,0,0
44.212515402936,-16.756228290436,41.101220122012,2497410.9814443,-266.0923766485,2570620.3815665,46.301220122012,0,0
44.212515667102,-16.75760884783,41.105650565057,2497410.9814443,-266.0923766485,2570620.3815665,46.305650565057,0,0
44.212515931267,-16.758989405225,41.110081008101,2497410.9814443,-266.0923766485,2570620.3815665,46.310081008101,0,0
44.212516195433,-16.760369962619,41.114511451145,2497410.9814443,-266.0923766485,2570620.3815665,46.314511451145,0,0
44.212516459598,-16.761750520014,41.118941894189,2497410.9814443,-266.0923766485,2570620.3815665,46.318941894189,0,0
44.212516723764,-16.763131077408,41.123372337234,2497410.9814443,-266.0923766485,2570620.3815665,46.323372337234,0,0
44.212516987929,-16.764511634803,41.127802780278,2497410.9814443,-266.0923766485,2570620.3815665,46.327802780278,0,0
44.212517252095,-16.765892192197,41.132233223322,2497410.9814443,-266.0923766485,2570620.3815665,46.332233223322,0,0
44.21251751626,-16.767272749592,41.136663666367,2497410.9814443,-266.0923766485,2570620.3815665,46.336663666367,0,0
44.212517780426,-16.768653306986,41.141094109411,2497410.9814443,-266.0923766485,2570620.3815665,46.341094109411,0,0
44.212518044591,-16.77003386438,41.145524552455,2497410.9814443,-266.0923766485,2570620.3815665,46.345524552455,0,0
44.212518308757,-16.771414421775,41.1499549955,2497410.9814443,-266.0923766485,2570620.3815665,46.3499549955,0,0
44.212518572922,-16.772794979169,41.154385438544,2497410.9814443,-266.0923766485,2570620.3815665,46.354385438544,0,0
44.212518837088,-16.774175536564,41.158815881588,2497410.9814443,-266.0923766485,2570620.3815665,46.358815881588,0,0
44.212519101253,-16.775556093958,41.163246324632,2497410.9814443,-266.0923766485,2570620.3815665,46.363246324632,0,0
44.212519365419,-16.776936651353,41.167676767677,2497410.9814443,-266.0923766485,2570620.3815665,46.367676767677,0,0
44.212519629584,-16.778317208747,41.172107210721,2497410.9814443,-266.0923766485,2570620.3815665,46.372107210721,0,0
44.21251989375,-16.779697766142,41.176537653765,2497410.9814443,-266.0923766485,2570620.3815665,46.376537653765,0,0
44.212520157915,-16.781078323536,41.18096809681,2497410.9814443,-266.0923766485,2570620.3815665,46.38096809681,0,0
44.212520422081,-16.782458880931,41.185398539854,2497410.9814443,-266.0923766485,2570620.3815665,46.385398539854,0,0
44.212520686246,-16.783839438325,41.189828982898,2497410.9814443,-266.0923766485,2570620.3815665,46.389828982898,0,0
44.212520950412,-16.78521999572,41.194259425943,2497410.9814443,-266.0923766485,2570620.3815665,46.394259425943,0,0
44.212521214577,-16.786600553114,41.198689868987,2497410.9814443,-266.0923766485,2570620.3815665,46.398689868987,0,0
44.212521478743,-16.787981110509,41.203120312031,2497410.9814443,-266.0923766485,2570620.3815665,46.403120312031,0,0
44.212521742908,-16.789361667903,41.207550755076,2497410.9814443,-266.0923766485,2570620.3815665,46.407550755076,0,0
44.212522007074,-16.790742225298,41.21198119812,2497410.9814443,-266.0923766485,2570620.3815665,46.41198119812,0,0
44.212522271239,-16.792122782692,41.216411641164,2497410.9814443,-266.0923766485,2570620.3815665,46.416411641164,0,0
44.212522535405,-16.793503340087,41.220842084208,2497410.9814443,-266.0923766485,2570620.3815665,46.420842084208,0,0
44.21252279957,-16.794883897481,41.225272527253,2497410.9814443,-266.0923766485,2570620.3815665,46.425272527253,0,0
44.212523063736,-16.796264454876,41.229702970297,2497410.9814443,-266.0923766485,2570620.3815665,46.429702970297,0,0
44.212523327901,-16.79764501227,41.234133413341,2497410.9814443,-266.0923766485,2570620.3815665,46.434133413341,0,0
44.212523592067,-16.799025569665,41.238563856386,2497410.9814443,-266.0923766485,2570620.3815665,46.438563856386,0,0
44.212523856232,-16.800406127059,41.24299429943,2497410.9814443,-266.0923766485,2570620.3815665,46.44299429943,0,0
44.212524120398,-16.801786684454,41.247424742474,2497410.9814443,-266.0923766485,2570620.3815665,46.447424742474,0,0
44.212524384563,-16.803167241848,41.251855185519,2497410.9814443,-266.0923766485,2570620.3815665,46.451855185519,0,0
44.212524648729,-16.804547799243,41.256285628563,2497410.9814443,-266.0923766485,2570620.3815665,46.456285628563,0,0
44.212524912894,-16.805928356637,41.260716071607,2497410.9814443,-266.0923766485,2570620.3815665,46.460716071607,0,0
44.21252517706,-16.807308914032,41.265146514651,2497410.9814443,-266.0923766485,2570620.3815665,46.465146514651,0,0
44.212525441225,-16.808689471426,41.269576957696,2497410.9814443,-266.0923766485,2570620.3815665,46.469576957696,0,0
44.212525705391,-16.81007002882,41.27400740074,2497410.9814443,-266.0923766485,2570620.3815665,46.47400740074,0,0
44.212525969556,-16.811450586215,41.278437843784,2497410.9814443,-266.0923766485,2570620.3815665,46.478437843784,0,0
44.212526233722,-16.812831143609,41.282868286829,2497410.9814443,-266.0923766485,2570620.3815665,46.482868286829,0,0
44.212526497887,-16.814211701004,41.287298729873,2497410.9814443,-266.0923766485,2570620.3815665,46.487298729873,0,0
44.212526762053,-16.815592258398,41.291729172917,2497410.9814443,-266.0923766485,2570620.3815665,46.491729172917,0,0
44.212527026218,-16.816972815793,41.296159615962,2497410.9814443,-266.0923766485,2570620.3815665,46.496159615962,0,0
44.212527290384,-16.818353373187,41.300590059006,2497410.9814443,-266.0923766485,2570620.3815665,46.500590059006,0,0
44.212527554549,-16.819733930582,41.30502050205,2497410.9814443,-266.0923766485,2570620.3815665,46.50502050205,0,0
44.212527818715,-16.821114487976,41.309450945095,2497410.9814443,-266.0923766485,2570620.3815665,46.509450945095,0,0
44.21252808288,-16.822495045371,41.313881388139,2497410.9814443,-266.0923766485,2570620.3815665,46.513881388139,0,0
44.212528347046,-16.823875602765,41.318311831183,2497410.9814443,-266.0923766485,2570620.3815665,46.518311831183,0,0
44.212528611211,-16.82525616016,41.322742274227,2497410.9814443,-266.0923766485,2570620.3815665,46.522742274227,0,0
44.212528875377,-16.826636717554,41.327172717272,2497410.9814443,-266.0923766485,2570620.3815665,46.527172717272,0,0
44.212529139542,-16.828017274949,41.331603160316,2497410.9814443,-266.0923766485,2570620.3815665,46.531603160316,0,0
44.212529403708,-16.829397832343,41.33603360336,2497410.9814443,-266.0923766485,2570620.3815665,46.53603360336,0,0
44.212529667873,-16.830778389738,41.340464046405,2497410.9814443,-266.0923766485,2570620.3815665,46.540464046405,0,0
44.212529932039,-16.832158947132,41.344894489449,2497410.9814443,-266.0923766485,2570620.3815665,46.544894489449,0,0
44.212530196204,-16.833539504527,41.349324932493,2497410.9814443,-266.0923766485,2570620.3815665,46.549324932493,0,0
44.21253046037,-16.834920061921,41.353755375538,2497410.9814443,-266.0923766485,2570620.3815665,46.553755375538,0,0
44.212530724535,-16.836300619316,41.358185818582,2497410.9814443,-266.0923766485,2570620.3815665,46.558185818582,0,0
44.212530988701,-16.83768117671,41.362616261626,2497410.9814443,-266.0923766485,2570620.3815665,46.562616261626,0,0
44.212531252866,-16.839061734105,41.36704670467,2497410.9814443,-266.0923766485,2570620.3815665,46.56704670467,0,0
44.212531517032,-16.840442291499,41.371477147715,2497410.9814443,-266.0923766485,2570620.3815665,46.571477147715,0,0
44.212531781197,-16.841822848894,41.375907590759,2497410.9814443,-266.0923766485,2570620.3815665,46.575907590759,0,0
44.212532045363,-16.843203406288,41.380338033803,2497410.9814443,-266.0923766485,2570620.3815665,46.580338033803,0,0
44.212532309528,-16.844583963683,41.384768476848,2497410.9814443,-266.0923766485,2570620.3815665,46.584768476848,0,0
44.212532573694,-16.845964521077,41.389198919892,2497410.9814443,-266.0923766485,2570620.3815665,46.589198919892,0,0
44.212532837859,-16.847345078472,41.393629362936,2497410.9814443,-266.0923766485,2570620.3815665,46.593629362936,0,0
44.212533102025,-16.848725635866,41.398059805981,2497410.9814443,-266.0923766485,2570620.3815665,46.598059805981,0,0
44.21253336619,-16.85010619326,41.402490249025,2497410.9814443,-266.0923766485,2570620.3815665,46.602490249025,0,0
44.212533630356,-16.851486750655,41.406920692069,2497410.9814443,-266.0923766485,2570620.3815665,46.606920692069,0,0
44.212533894521,-16.852867308049,41.411351135114,2497410.9814443,-266.0923766485,2570620.3815665,46.611351135114,0,0
44.212534158687,-16.854247865444,41.415781578158,2497410.9814443,-266.0923766485,2570620.3815665,46.615781578158,0,0
44.212534422852,-16.855628422838,41.420212021202,2497410.9814443,-266.0923766485,2570620.3815665,46.620212021202,0,0
44.212534687018,-16.857008980233,41.424642464246,2497410.9814443,-266.0923766485,2570620.3815665,46.624642464246,0,0
44.212534951183,-16.858389537627,41.429072907291,2497410.9814443,-266.0923766485,2570620.3815665,46.629072907291,0,0
44.212535215349,-16.859770095022,41.433503350335,2497410.9814443,-266.0923766485,2570620.3815665,46.633503350335,0,0
44.212535479514,-16.861150652416,41.437933793379,2497410.9814443,-266.0923766485,2570620.3815665,46.637933793379,0,0
44.21253574368,-16.862531209811,41.442364236424,2497410.9814443,-266.0923766485,2570620.3815665,46.642364236424,0,0
44.212536007845,-16.863911767205,41.446794679468,2497410.9814443,-266.0923766485,2570620.3815665,46.646794679468,0,0
44.212536272011,-16.8652923246,41.451225122512,2497410.9814443,-266.0923766485,2570620.3815665,46.651225122512,0,0
44.212536536176,-16.866672881994,41.455655565557,2497410.9814443,-266.0923766485,2570620.3815665,46.655655565557,0,0
44.212536800342,-16.868053439389,41.460086008601,2497410.9814443,-266.0923766485,2570620.3815665,46.660086008601,0,0
44.212537064507,-16.869433996783,41.464516451645,2497410.9814443,-266.0923766485,2570620.3815665,46.664516451645,0,0
44.212537328673,-16.870814554178,41.468946894689,2497410.9814443,-266.0923766485,2570620.3815665,46.668946894689,0,0
44.212537592838,-16.872195111572,41.473377337734,2497410.9814443,-266.0923766485,2570620.3815665,46.673377337734,0,0
44.212537857004,-16.873575668967,41.477807780778,2497410.9814443,-266.0923766485,2570620.3815665,46.677807780778,0,0
44.212538121169,-16.874956226361,41.482238223822,2497410.9814443,-266.0923766485,2570620.3815665,46.682238223822,0,0
44.212538385335,-16.876336783756,41.486668666867,2497410.9814443,-266.0923766485,2570620.3815665,46.686668666867,0,0
44.2125386495,-16.87771734115,41.491099109911,2497410.9814443,-266.0923766485,2570620.3815665,46.691099109911,0,0
44.212538913666,-16.879097898545,41.495529552955,2497410.9814443,-266.0923766485,2570620.3815665,46.695529552955,0,0
44.212539177831,-16.880478455939,41.499959996,2497410.9814443,-266.0923766485,2570620.3815665,46.699959996,0,0
44.212539441997,-16.881859013334,41.504390439044,2497410.9814443,-266.0923766485,2570620.3815665,46.704390439044,0,0
44.212539706162,-16.883239570728,41.508820882088,2497410.9814443,-266.0923766485,2570620.3815665,46.708820882088,0,0
44.212539970328,-16.884620128123,41.513251325133,2497410.9814443,-266.0923766485,2570620.3815665,46.713251325133,0,0
44.212540234493,-16.886000685517,41.517681768177,2497410.9814443,-266.0923766485,2570620.3815665,46.717681768177,0,0
44.212540498659,-16.887381242912,41.522112211221,2497410.9814443,-266.0923766485,2570620.3815665,46.722112211221,0,0
44.212540762824,-16.888761800306,41.526542654265,2497410.9814443,-266.0923766485,2570620.3815665,46.726542654265,0,0
44.21254102699,-16.8901423577,41.53097309731,2497410.9814443,-266.0923766485,2570620.3815665,46.73097309731,0,0
44.212541291156,-16.891522915095,41.535403540354,2497410.9814443,-266.0923766485,2570620.3815665,46.735403540354,0,0
44.212541555321,-16.892903472489,41.539833983398,2497410.9814443,-266.0923766485,2570620.3815665,46.739833983398,0,0
44.212541819487,-16.894284029884,41.544264426443,2497410.9814443,-266.0923766485,2570620.3815665,46.744264426443,0,0
44.212542083652,-16.895664587278,41.548694869487,2497410.9814443,-266.0923766485,2570620.3815665,46.748694869487,0,0
44.212542347818,-16.897045144673,41.553125312531,2497410.9814443,-266.0923766485,2570620.3815665,46.753125312531,0,0
44.212542611983,-16.898425702067,41.557555755576,2497410.9814443,-266.0923766485,2570620.3815665,46.757555755576,0,0
44.212542876149,-16.899806259462,41.56198619862,2497410.9814443,-266.0923766485,2570620.3815665,46.76198619862,0,0
44.212543140314,-16.901186816856,41.566416641664,2497410.9814443,-266.0923766485,2570620.3815665,46.766416641664,0,0
44.21254340448,-16.902567374251,41.570847084708,2497410.9814443,-266.0923766485,2570620.3815665,46.770847084708,0,0
44.212543668645,-16.903947931645,41.575277527753,2497410.9814443,-266.0923766485,2570620.3815665,46.775277527753,0,0
44.212543932811,-16.90532848904,41.579707970797,2497410.9814443,-266.0923766485,2570620.3815665,46.779707970797,0,0
44.212544196976,-16.906709046434,41.584138413841,2497410.9814443,-266.0923766485,2570620.3815665,46.784138413841,0,0
44.212544461142,-16.908089603829,41.588568856886,2497410.9814443,-266.0923766485,2570620.3815665,46.788568856886,0,0
44.212544725307,-16.909470161223,41.59299929993,2497410.9814443,-266.0923766485,2570620.3815665,46.79299929993,0,0
44.212544989473,-16.910850718618,41.597429742974,2497410.9814443,-266.0923766485,2570620.3815665,46.797429742974,0,0
44.212545253638,-16.912231276012,41.601860186019,2497410.9814443,-266.0923766485,2570620.3815665,46.801860186019,0,0
44.212545517804,-16.913611833407,41.606290629063,2497410.9814443,-266.0923766485,2570620.3815665,46.806290629063,0,0
44.212545781969,-16.914992390801,41.610721072107,2497410.9814443,-266.0923766485,2570620.3815665,46.810721072107,0,0
44.212546046135,-16.916372948196,41.615151515152,2497410.9814443,-266.0923766485,2570620.3815665,46.815151515152,0,0
44.2125463103,-16.91775350559,41.619581958196,2497410.9814443,-266.0923766485,2570620.3815665,46.819581958196,0,0
44.212546574466,-16.919134062985,41.62401240124,2497410.9814443,-266.0923766485,2570620.3815665,46.82401240124,0,0
44.212546838631,-16.920514620379,41.628442844284,2497410.9814443,-266.0923766485,2570620.3815665,46.828442844284,0,0
44.212547102797,-16.921895177774,41.632873287329,2497410.9814443,-266.0923766485,2570620.3815665,46.832873287329,0,0
44.212547366962,-16.923275735168,41.637303730373,2497410.9814443,-266.0923766485,2570620.3815665,46.837303730373,0,0
44.212547631128,-16.924656292563,41.641734173417,2497410.9814443,-266.0923766485,2570620.3815665,46.841734173417,0,0
44.212547895293,-16.926036849957,41.646164616462,2497410.9814443,-266.0923766485,2570620.3815665,46.846164616462,0,0
44.212548159459,-16.927417407352,41.650595059506,2497410.9814443,-266.0923766485,2570620.3815665,46.850595059506,0,0
44.212548423624,-16.928797964746,41.65502550255,2497410.9814443,-266.0923766485,2570620.3815665,46.85502550255,0,0
44.21254868779,-16.93017852214,41.659455945595,2497410.9814443,-266.0923766485,2570620.3815665,46.859455945595,0,0
44.212548951955,-16.931559079535,41.663886388639,2497410.9814443,-266.0923766485,2570620.3815665,46.863886388639,0,0
44.212549216121,-16.932939636929,41.668316831683,2497410.9814443,-266.0923766485,2570620.3815665,46.868316831683,0,0
44.212549480286,-16.934320194324,41.672747274727,2497410.9814443,-266.0923766485,2570620.3815665,46.872747274727,0,0
44.212549744452,-16.935700751718,41.677177717772,2497410.9814443,-266.0923766485,2570620.3815665,46.877177717772,0,0
44.212550008617,-16.937081309113,41.681608160816,2497410.9814443,-266.0923766485,2570620.3815665,46.881608160816,0,0
44.212550272783,-16.938461866507,41.68603860386,2497410.9814443,-266.0923766485,2570620.3815665,46.88603860386,0,0
44.212550536948,-16.939842423902,41.690469046905,2497410.9814443,-266.0923766485,2570620.3815665,46.890469046905,0,0
44.212550801114,-16.941222981296,41.694899489949,2497410.9814443,-266.0923766485,2570620.3815665,46.894899489949,0,0
44.212551065279,-16.942603538691,41.699329932993,2497410.9814443,-266.0923766485,2570620.3815665,46.899329932993,0,0
44.212551329445,-16.943984096085,41.703760376038,2497410.9814443,-266.0923766485,2570620.3815665,46.903760376038,0,0
44.21255159361,-16.94536465348,41.708190819082,2497410.9814443,-266.0923766485,2570620.3815665,46.908190819082,0,0
44.212551857776,-16.946745210874,41.712621262126,2497410.9814443,-266.0923766485,2570620.3815665,46.912621262126,0,0
44.212552121941,-16.948125768269,41.717051705171,2497410.9814443,-266.0923766485,2570620.3815665,46.917051705171,0,0
44.212552386107,-16.949506325663,41.721482148215,2497410.9814443,-266.0923766485,2570620.3815665,46.921482148215,0,0
44.212552650272,-16.950886883058,41.725912591259,2497410.9814443,-266.0923766485,2570620.3815665,46.925912591259,0,0
44.212552914438,-16.952267440452,41.730343034303,2497410.9814443,-266.0923766485,2570620.3815665,46.930343034303,0,0
44.212553178603,-16.953647997847,41.734773477348,2497410.9814443,-266.0923766485,2570620.3815665,46.934773477348,0,0
44.212553442769,-16.955028555241,41.739203920392,2497410.9814443,-266.0923766485,2570620.3815665,46.939203920392,0,0
44.212553706934,-16.956409112636,41.743634363436,2497410.9814443,-266.0923766485,2570620.3815665,46.943634363436,0,0
44.2125539711,-16.95778967003,41.748064806481,2497410.9814443,-266.0923766485,2570620.3815665,46.948064806481,0,0
44.212554235265,-16.959170227425,41.752495249525,2497410.9814443,-266.0923766485,2570620.3815665,46.952495249525,0,0
44.212554499431,-16.960550784819,41.756925692569,2497410.9814443,-266.0923766485,2570620.3815665,46.956925692569,0,0
44.212554763596,-16.961931342214,41.761356135614,2497410.9814443,-266.0923766485,2570620.3815665,46.961356135614,0,0
44.212555027762,-16.963311899608,41.765786578658,2497410.9814443,-266.0923766485,2570620.3815665,46.965786578658,0,0
44.212555291927,-16.964692457003,41.770217021702,2497410.9814443,-266.0923766485,2570620.3815665,46.970217021702,0,0
44.212555556093,-16.966073014397,41.774647464746,2497410.9814443,-266.0923766485,2570620.3815665,46.974647464746,0,0
44.212555820258,-16.967453571792,41.779077907791,2497410.9814443,-266.0923766485,2570620.3815665,46.979077907791,0,0
44.212556084424,-16.968834129186,41.783508350835,2497410.9814443,-266.0923766485,2570620.3815665,46.983508350835,0,0
44.212556348589,-16.97021468658,41.787938793879,2497410.9814443,-266.0923766485,2570620.3815665,46.987938793879,0,0
44.212556612755,-16.971595243975,41.792369236924,2497410.9814443,-266.0923766485,2570620.3815665,46.992369236924,0,0
44.21255687692,-16.972975801369,41.796799679968,2497410.9814443,-266.0923766485,2570620.3815665,46.996799679968,0,0
44.212557141086,-16.974356358764,41.801230123012,2497410.9814443,-266.0923766485,2570620.3815665,47.001230123012,0,0
44.212557405251,-16.975736916158,41.805660566057,2497410.9814443,-266.0923766485,2570620.3815665,47.005660566057,0,0
44.212557669417,-16.977117473553,41.810091009101,2497410.9814443,-266.0923766485,2570620.3815665,47.010091009101,0,0
44.212557933582,-16.978498030947,41.814521452145,2497410.9814443,-266.0923766485,2570620.3815665,47.014521452145,0,0
44.212558197748,-16.979878588342,41.81895189519,2497410.9814443,-266.0923766485,2570620.3815665,47.01895189519,0,0
44.212558461913,-16.981259145736,41.823382338234,2497410.9814443,-266.0923766485,2570620.3815665,47.023382338234,0,0
44.212558726079,-16.982639703131,41.827812781278,2497410.9814443,-266.0923766485,2570620.3815665,47.027812781278,0,0
44.212558990244,-16.984020260525,41.832243224322,2497410.9814443,-266.0923766485,2570620.3815665,47.032243224322,0,0
44.21255925441,-16.98540081792,41.836673667367,2497410.9814443,-266.0923766485,2570620.3815665,47.036673667367,0,0
44.212559518575,-16.986781375314,41.841104110411,2497410.9814443,-266.0923766485,2570620.3815665,47.041104110411,0,0
44.212559782741,-16.988161932709,41.845534553455,2497410.9814443,-266.0923766485,2570620.3815665,47.045534553455,0,0
44.212560046906,-16.989542490103,41.8499649965,2497410.9814443,-266.0923766485,2570620.3815665,47.0499649965,0,0
44.212560311072,-16.990923047498,41.854395439544,2497410.9814443,-266.0923766485,2570620.3815665,47.054395439544,0,0
44.212560575237,-16.992303604892,41.858825882588,2497410.9814443,-266.0923766485,2570620.3815665,47.058825882588,0,0
44.212560839403,-16.993684162287,41.863256325633,2497410.9814443,-266.0923766485,2570620.3815665,47.063256325633,0,0
44.212561103568,-16.995064719681,41.867686768677,2497410.9814443,-266.0923766485,2570620.3815665,47.067686768677,0,0
44.212561367734,-16.996445277076,41.872117211721,2497410.9814443,-266.0923766485,2570620.3815665,47.072117211721,0,0
44.212561631899,-16.99782583447,41.876547654765,2497410.9814443,-266.0923766485,2570620.3815665,47.076547654765,0,0
44.212561896065,-16.999206391865,41.88097809781,2497410.9814443,-266.0923766485,2570620.3815665,47.08097809781,0,0
44.21256216023,-17.000586949259,41.885408540854,2497410.9814443,-266.0923766485,2570620.3815665,47.085408540854,0,0
44.212562424396,-17.001967506654,41.889838983898,2497410.9814443,-266.0923766485,2570620.3815665,47.089838983898,0,0
44.212562688561,-17.003348064048,41.894269426943,2497410.9814443,-266.0923766485,2570620.3815665,47.094269426943,0,0
44.212562952727,-17.004728621443,41.898699869987,2497410.9814443,-266.0923766485,2570620.3815665,47.098699869987,0,0
44.212563216892,-17.006109178837,41.903130313031,2497410.9814443,-266.0923766485,2570620.3815665,47.103130313031,0,0
44.212563481058,-17.007489736232,41.907560756076,2497410.9814443,-266.0923766485,2570620.3815665,47.107560756076,0,0
44.212563745223,-17.008870293626,41.91199119912,2497410.9814443,-266.0923766485,2570620.3815665,47.11199119912,0,0
44.212564009389,-17.01025085102,41.916421642164,2497410.9814443,-266.0923766485,2570620.3815665,47.116421642164,0,0
44.212564273554,-17.011631408415,41.920852085209,2497410.9814443,-266.0923766485,2570620.3815665,47.120852085209,0,0
44.21256453772,-17.013011965809,41.925282528253,2497410.9814443,-266.0923766485,2570620.3815665,47.125282528253,0,0
44.212564801885,-17.014392523204,41.929712971297,2497410.9814443,-266.0923766485,2570620.3815665,47.129712971297,0,0
44.212565066051,-17.015773080598,41.934143414341,2497410.9814443,-266.0923766485,2570620.3815665,47.134143414341,0,0
44.212565330216,-17.017153637993,41.938573857386,2497410.9814443,-266.0923766485,2570620.3815665,47.138573857386,0,0
44.212565594382,-17.018534195387,41.94300430043,2497410.9814443,-266.0923766485,2570620.3815665,47.14300430043,0,0
44.212565858547,-17.019914752782,41.947434743474,2497410.9814443,-266.0923766485,2570620.3815665,47.147434743474,0,0
44.212566122713,-17.021295310176,41.951865186519,2497410.9814443,-266.0923766485,2570620.3815665,47.151865186519,0,0
44.212566386878,-17.022675867571,41.956295629563,2497410.9814443,-266.0923766485,2570620.3815665,47.156295629563,0,0
44.212566651044,-17.024056424965,41.960726072607,2497410.9814443,-266.0923766485,2570620.3815665,47.160726072607,0,0
44.212566915209,-17.02543698236,41.965156515652,2497410.9814443,-266.0923766485,2570620.3815665,47.165156515652,0,0
44.212567179375,-17.026817539754,41.969586958696,2497410.9814443,-266.0923766485,2570620.3815665,47.169586958696,0,0
44.21256744354,-17.028198097149,41.97401740174,2497410.9814443,-266.0923766485,2570620.3815665,47.17401740174,0,0
44.212567707706,-17.029578654543,41.978447844784,2497410.9814443,-266.0923766485,2570620.3815665,47.178447844784,0,0
44.212567971871,-17.030959211938,41.982878287829,2497410.9814443,-266.0923766485,2570620.3815665,47.182878287829,0,0
44.212568236037,-17.032339769332,41.987308730873,2497410.9814443,-266.0923766485,2570620.3815665,47.187308730873,0,0
44.212568500202,-17.033720326727,41.991739173917,2497410.9814443,-266.0923766485,2570620.3815665,47.191739173917,0,0
44.212568764368,-17.035100884121,41.996169616962,2497410.9814443,-266.0923766485,2570620.3815665,47.196169616962,0,0
44.212569028533,-17.036481441516,42.000600060006,2497410.9814443,-266.0923766485,2570620.3815665,47.200600060006,0,0
44.212569292699,-17.03786199891,42.00503050305,2497410.9814443,-266.0923766485,2570620.3815665,47.20503050305,0,0
44.212569556864,-17.039242556305,42.009460946095,2497410.9814443,-266.0923766485,2570620.3815665,47.209460946095,0,0
44.21256982103,-17.040623113699,42.013891389139,2497410.9814443,-266.0923766485,2570620.3815665,47.213891389139,0,0
44.212570085195,-17.042003671094,42.018321832183,2497410.9814443,-266.0923766485,2570620.3815665,47.218321832183,0,0
44.212570349361,-17.043384228488,42.022752275228,2497410.9814443,-266.0923766485,2570620.3815665,47.222752275228,0,0
44.212570613526,-17.044764785883,42.027182718272,2497410.9814443,-266.0923766485,2570620.3815665,47.227182718272,0,0
44.212570877692,-17.046145343277,42.031613161316,2497410.9814443,-266.0923766485,2570620.3815665,47.231613161316,0,0
44.212571141857,-17.047525900672,42.03604360436,2497410.9814443,-266.0923766485,2570620.3815665,47.23604360436,0,0
44.212571406023,-17.048906458066,42.040474047405,2497410.9814443,-266.0923766485,2570620.3815665,47.240474047405,0,0
44.212571670188,-17.05028701546,42.044904490449,2497410.9814443,-266.0923766485,2570620.3815665,47.244904490449,0,0
44.212571934354,-17.051667572855,42.049334933493,2497410.9814443,-266.0923766485,2570620.3815665,47.249334933493,0,0
44.212572198519,-17.053048130249,42.053765376538,2497410.9814443,-266.0923766485,2570620.3815665,47.253765376538,0,0
44.212572462685,-17.054428687644,42.058195819582,2497410.9814443,-266.0923766485,2570620.3815665,47.258195819582,0,0
44.21257272685,-17.055809245038,42.062626262626,2497410.9814443,-266.0923766485,2570620.3815665,47.262626262626,0,0
44.212572991016,-17.057189802433,42.067056705671,2497410.9814443,-266.0923766485,2570620.3815665,47.267056705671,0,0
44.212573255181,-17.058570359827,42.071487148715,2497410.9814443,-266.0923766485,2570620.3815665,47.271487148715,0,0
44.212573519347,-17.059950917222,42.075917591759,2497410.9814443,-266.0923766485,2570620.3815665,47.275917591759,0,0
44.212573783512,-17.061331474616,42.080348034803,2497410.9814443,-266.0923766485,2570620.3815665,47.280348034803,0,0
44.212574047678,-17.062712032011,42.084778477848,2497410.9814443,-266.0923766485,2570620.3815665,47.284778477848,0,0
44.212574311843,-17.064092589405,42.089208920892,2497410.9814443,-266.0923766485,2570620.3815665,47.289208920892,0,0
44.212574576009,-17.0654731468,42.093639363936,2497410.9814443,-266.0923766485,2570620.3815665,47.293639363936,0,0
44.212574840174,-17.066853704194,42.098069806981,2497410.9814443,-266.0923766485,2570620.3815665,47.298069806981,0,0
44.21257510434,-17.068234261589,42.102500250025,2497410.9814443,-266.0923766485,2570620.3815665,47.302500250025,0,0
44.212575368505,-17.069614818983,42.106930693069,2497410.9814443,-266.0923766485,2570620.3815665,47.306930693069,0,0
44.212575632671,-17.070995376378,42.111361136114,2497410.9814443,-266.0923766485,2570620.3815665,47.311361136114,0,0
44.212575896836,-17.072375933772,42.115791579158,2497410.9814443,-266.0923766485,2570620.3815665,47.315791579158,0,0
44.212576161002,-17.073756491167,42.120222022202,2497410.9814443,-266.0923766485,2570620.3815665,47.320222022202,0,0
44.212576425167,-17.075137048561,42.124652465247,2497410.9814443,-266.0923766485,2570620.3815665,47.324652465247,0,0
44.212576689333,-17.076517605956,42.129082908291,2497410.9814443,-266.0923766485,2570620.3815665,47.329082908291,0,0
44.212576953498,-17.07789816335,42.133513351335,2497410.9814443,-266.0923766485,2570620.3815665,47.333513351335,0,0
44.212577217664,-17.079278720745,42.137943794379,2497410.9814443,-266.0923766485,2570620.3815665,47.337943794379,0,0
44.212577481829,-17.080659278139,42.142374237424,2497410.9814443,-266.0923766485,2570620.3815665,47.342374237424,0,0
44.212577745995,-17.082039835534,42.146804680468,2497410.9814443,-266.0923766485,2570620.3815665,47.346804680468,0,0
44.21257801016,-17.083420392928,42.151235123512,2497410.9814443,-266.0923766485,2570620.3815665,47.351235123512,0,0
44.212578274326,-17.084800950323,42.155665566557,2497410.9814443,-266.0923766485,2570620.3815665,47.355665566557,0,0
44.212578538491,-17.086181507717,42.160096009601,2497410.9814443,-266.0923766485,2570620.3815665,47.360096009601,0,0
44.212578802657,-17.087562065112,42.164526452645,2497410.9814443,-266.0923766485,2570620.3815665,47.364526452645,0,0
44.212579066822,-17.088942622506,42.16895689569,2497410.9814443,-266.0923766485,2570620.3815665,47.36895689569,0,0
44.212579330988,-17.0903231799,42.173387338734,2497410.9814443,-266.0923766485,2570620.3815665,47.373387338734,0,0
44.212579595153,-17.091703737295,42.177817781778,2497410.9814443,-266.0923766485,2570620.3815665,47.377817781778,0,0
44.212579859319,-17.093084294689,42.182248224822,2497410.9814443,-266.0923766485,2570620.3815665,47.382248224822,0,0
44.212580123484,-17.094464852084,42.186678667867,2497410.9814443,-266.0923766485,2570620.3815665,47.386678667867,0,0
44.21258038765,-17.095845409478,42.191109110911,2497410.9814443,-266.0923766485,2570620.3815665,47.391109110911,0,0
44.212580651815,-17.097225966873,42.195539553955,2497410.9814443,-266.0923766485,2570620.3815665,47.395539553955,0,0
44.212580915981,-17.098606524267,42.199969997,2497410.9814443,-266.0923766485,2570620.3815665,47.399969997,0,0
44.212581180146,-17.099987081662,42.204400440044,2497410.9814443,-266.0923766485,2570620.3815665,47.404400440044,0,0
44.212581444312,-17.101367639056,42.208830883088,2497410.9814443,-266.0923766485,2570620.3815665,47.408830883088,0,0
44.212581708477,-17.102748196451,42.213261326133,2497410.9814443,-266.0923766485,2570620.3815665,47.413261326133,0,0
44.212581972643,-17.104128753845,42.217691769177,2497410.9814443,-266.0923766485,2570620.3815665,47.417691769177,0,0
44.212582236808,-17.10550931124,42.222122212221,2497410.9814443,-266.0923766485,2570620.3815665,47.422122212221,0,0
44.212582500974,-17.106889868634,42.226552655266,2497410.9814443,-266.0923766485,2570620.3815665,47.426552655266,0,0
44.212582765139,-17.108270426029,42.23098309831,2497410.9814443,-266.0923766485,2570620.3815665,47.43098309831,0,0
44.212583029305,-17.109650983423,42.235413541354,2497410.9814443,-266.0923766485,2570620.3815665,47.435413541354,0,0
44.21258329347,-17.111031540818,42.239843984398,2497410.9814443,-266.0923766485,2570620.3815665,47.439843984398,0,0
44.212583557636,-17.112412098212,42.244274427443,2497410.9814443,-266.0923766485,2570620.3815665,47.444274427443,0,0
44.212583821801,-17.113792655607,42.248704870487,2497410.9814443,-266.0923766485,2570620.3815665,47.448704870487,0,0
44.212584085967,-17.115173213001,42.253135313531,2497410.9814443,-266.0923766485,2570620.3815665,47.453135313531,0,0
44.212584350132,-17.116553770396,42.257565756576,2497410.9814443,-266.0923766485,2570620.3815665,47.457565756576,0,0
44.212584614298,-17.11793432779,42.26199619962,2497410.9814443,-266.0923766485,2570620.3815665,47.46199619962,0,0
44.212584878463,-17.119314885185,42.266426642664,2497410.9814443,-266.0923766485,2570620.3815665,47.466426642664,0,0
44.212585142629,-17.120695442579,42.270857085709,2497410.9814443,-266.0923766485,2570620.3815665,47.470857085709,0,0
44.212585406794,-17.122075999974,42.275287528753,2497410.9814443,-266.0923766485,2570620.3815665,47.475287528753,0,0
44.21258567096,-17.123456557368,42.279717971797,2497410.9814443,-266.0923766485,2570620.3815665,47.479717971797,0,0
44.212585935125,-17.124837114763,42.284148414841,2497410.9814443,-266.0923766485,2570620.3815665,47.484148414841,0,0
44.212586199291,-17.126217672157,42.288578857886,2497410.9814443,-266.0923766485,2570620.3815665,47.488578857886,0,0
44.212586463456,-17.127598229552,42.29300930093,2497410.9814443,-266.0923766485,2570620.3815665,47.49300930093,0,0
44.212586727622,-17.128978786946,42.297439743974,2497410.9814443,-266.0923766485,2570620.3815665,47.497439743974,0,0
44.212586991787,-17.13035934434,42.301870187019,2497410.9814443,-266.0923766485,2570620.3815665,47.501870187019,0,0
44.212587255953,-17.131739901735,42.306300630063,2497410.9814443,-266.0923766485,2570620.3815665,47.506300630063,0,0
44.212587520118,-17.133120459129,42.310731073107,2497410.9814443,-266.0923766485,2570620.3815665,47.510731073107,0,0
44.212587784284,-17.134501016524,42.315161516152,2497410.9814443,-266.0923766485,2570620.3815665,47.515161516152,0,0
44.212588048449,-17.135881573918,42.319591959196,2497410.9814443,-266.0923766485,2570620.3815665,47.519591959196,0,0
44.212588312615,-17.137262131313,42.32402240224,2497410.9814443,-266.0923766485,2570620.3815665,47.52402240224,0,0
44.21258857678,-17.138642688707,42.328452845285,2497410.9814443,-266.0923766485,2570620.3815665,47.528452845285,0,0
44.212588840946,-17.140023246102,42.332883288329,2497410.9814443,-266.0923766485,2570620.3815665,47.532883288329,0,0
44.212589105111,-17.141403803496,42.337313731373,2497410.9814443,-266.0923766485,2570620.3815665,47.537313731373,0,0
44.212589369277,-17.142784360891,42.341744174417,2497410.9814443,-266.0923766485,2570620.3815665,47.541744174417,0,0
44.212589633442,-17.144164918285,42.346174617462,2497410.9814443,-266.0923766485,2570620.3815665,47.546174617462,0,0
44.212589897608,-17.14554547568,42.350605060506,2497410.9814443,-266.0923766485,2570620.3815665,47.550605060506,0,0
44.212590161773,-17.146926033074,42.35503550355,2497410.9814443,-266.0923766485,2570620.3815665,47.55503550355,0,0
44.212590425939,-17.148306590469,42.359465946595,2497410.9814443,-266.0923766485,2570620.3815665,47.559465946595,0,0
44.212590690104,-17.149687147863,42.363896389639,2497410.9814443,-266.0923766485,2570620.3815665,47.563896389639,0,0
44.21259095427,-17.151067705258,42.368326832683,2497410.9814443,-266.0923766485,2570620.3815665,47.568326832683,0,0
44.212591218435,-17.152448262652,42.372757275728,2497410.9814443,-266.0923766485,2570620.3815665,47.572757275728,0,0
44.212591482601,-17.153828820047,42.377187718772,2497410.9814443,-266.0923766485,2570620.3815665,47.577187718772,0,0
44.212591746766,-17.155209377441,42.381618161816,2497410.9814443,-266.0923766485,2570620.3815665,47.581618161816,0,0
44.212592010932,-17.156589934836,42.38604860486,2497410.9814443,-266.0923766485,2570620.3815665,47.58604860486,0,0
44.212592275097,-17.15797049223,42.390479047905,2497410.9814443,-266.0923766485,2570620.3815665,47.590479047905,0,0
44.212592539263,-17.159351049625,42.394909490949,2497410.9814443,-266.0923766485,2570620.3815665,47.594909490949,0,0
44.212592803428,-17.160731607019,42.399339933993,2497410.9814443,-266.0923766485,2570620.3815665,47.599339933993,0,0
44.212593067594,-17.162112164414,42.403770377038,2497410.9814443,-266.0923766485,2570620.3815665,47.603770377038,0,0
44.212593331759,-17.163492721808,42.408200820082,2497410.9814443,-266.0923766485,2570620.3815665,47.608200820082,0,0
44.212593595925,-17.164873279203,42.412631263126,2497410.9814443,-266.0923766485,2570620.3815665,47.612631263126,0,0
44.21259386009,-17.166253836597,42.417061706171,2497410.9814443,-266.0923766485,2570620.3815665,47.617061706171,0,0
44.212594124256,-17.167634393991,42.421492149215,2497410.9814443,-266.0923766485,2570620.3815665,47.621492149215,0,0
44.212594388421,-17.169014951386,42.425922592259,2497410.9814443,-266.0923766485,2570620.3815665,47.625922592259,0,0
44.212594652702,-17.170395508764,42.430353035304,2500313.2234195,-78.465193524904,2571607.2833808,47.630353035304,0,0
44.212594917073,-17.17177606613,42.434783478348,2500313.2234195,-78.465193524904,2571607.2833808,47.634783478348,0,0
44.212595181444,-17.173156623495,42.439213921392,2500313.2234195,-78.465193524904,2571607.2833808,47.639213921392,0,0
44.212595445815,-17.174537180861,42.443644364436,2500313.2234195,-78.465193524904,2571607.2833808,47.643644364436,0,0
44.212595710186,-17.175917738227,42.448074807481,2500313.2234195,-78.465193524904,2571607.2833808,47.648074807481,0,0
44.212595974557,-17.177298295592,42.452505250525,2500313.2234195,-78.465193524904,2571607.2833808,47.652505250525,0,0
44.212596238928,-17.178678852958,42.456935693569,2500313.2234195,-78.465193524904,2571607.2833808,47.656935693569,0,0
44.212596503299,-17.180059410323,42.461366136614,2500313.2234195,-78.465193524904,2571607.2833808,47.661366136614,0,0
44.21259676767,-17.181439967689,42.465796579658,2500313.2234195,-78.465193524904,2571607.2833808,47.665796579658,0,0
44.212597032041,-17.182820525055,42.470227022702,2500313.2234195,-78.465193524904,2571607.2833808,47.670227022702,0,0
44.212597296412,-17.18420108242,42.474657465747,2500313.2234195,-78.465193524904,2571607.2833808,47.674657465747,0,0
44.212597560783,-17.185581639786,42.479087908791,2500313.2234195,-78.465193524904,2571607.2833808,47.679087908791,0,0
44.212597825154,-17.186962197151,42.483518351835,2500313.2234195,-78.465193524904,2571607.2833808,47.683518351835,0,0
44.212598089525,-17.188342754517,42.487948794879,2500313.2234195,-78.465193524904,2571607.2833808,47.687948794879,0,0
44.212598353896,-17.189723311883,42.492379237924,2500313.2234195,-78.465193524904,2571607.2833808,47.692379237924,0,0
44.212598618267,-17.191103869248,42.496809680968,2500313.2234195,-78.465193524904,2571607.2833808,47.696809680968,0,0
44.212598882638,-17.192484426614,42.501240124012,2500313.2234195,-78.465193524904,2571607.2833808,47.701240124012,0,0
44.212599147009,-17.193864983979,42.505670567057,2500313.2234195,-78.465193524904,2571607.2833808,47.705670567057,0,0
44.21259941138,-17.195245541345,42.510101010101,2500313.2234195,-78.465193524904,2571607.2833808,47.710101010101,0,0
44.212599675752,-17.196626098711,42.514531453145,2500313.2234195,-78.465193524904,2571607.2833808,47.714531453145,0,0
44.212599940123,-17.198006656076,42.51896189619,2500313.2234195,-78.465193524904,2571607.2833808,47.71896189619,0,0
44.212600204494,-17.199387213442,42.523392339234,2500313.2234195,-78.465193524904,2571607.2833808,47.723392339234,0,0
44.212600468865,-17.200767770807,42.527822782278,2500313.2234195,-78.465193524904,2571607.2833808,47.727822782278,0,0
44.212600733236,-17.202148328173,42.532253225323,2500313.2234195,-78.465193524904,2571607.2833808,47.732253225323,0,0
44.212600997607,-17.203528885539,42.536683668367,2500313.2234195,-78.465193524904,2571607.2833808,47.736683668367,0,0
44.212601261978,-17.204909442904,42.541114111411,2500313.2234195,-78.465193524904,2571607.2833808,47.741114111411,0,0
44.212601526349,-17.20629000027,42.545544554455,2500313.2234195,-78.465193524904,2571607.2833808,47.745544554455,0,0
44.21260179072,-17.207670557635,42.5499749975,2500313.2234195,-78.465193524904,2571607.2833808,47.7499749975,0,0
44.212602055091,-17.209051115001,42.554405440544,2500313.2234195,-78.465193524904,2571607.2833808,47.754405440544,0,0
44.212602319462,-17.210431672366,42.558835883588,2500313.2234195,-78.465193524904,2571607.2833808,47.758835883588,0,0
44.212602583833,-17.211812229732,42.563266326633,2500313.2234195,-78.465193524904,2571607.2833808,47.763266326633,0,0
44.212602848204,-17.213192787098,42.567696769677,2500313.2234195,-78.465193524904,2571607.2833808,47.767696769677,0,0
44.212603112575,-17.214573344463,42.572127212721,2500313.2234195,-78.465193524904,2571607.2833808,47.772127212721,0,0
44.212603376946,-17.215953901829,42.576557655766,2500313.2234195,-78.465193524904,2571607.2833808,47.776557655766,0,0
44.212603641317,-17.217334459194,42.58098809881,2500313.2234195,-78.465193524904,2571607.2833808,47.78098809881,0,0
44.212603905688,-17.21871501656,42.585418541854,2500313.2234195,-78.465193524904,2571607.2833808,47.785418541854,0,0
44.212604170059,-17.220095573926,42.589848984898,2500313.2234195,-78.465193524904,2571607.2833808,47.789848984898,0,0
44.21260443443,-17.221476131291,42.594279427943,2500313.2234195,-78.465193524904,2571607.2833808,47.794279427943,0,0
44.212604698801,-17.222856688657,42.598709870987,2500313.2234195,-78.465193524904,2571607.2833808,47.798709870987,0,0
44.212604963172,-17.224237246022,42.603140314031,2500313.2234195,-78.465193524904,2571607.2833808,47.803140314031,0,0
44.212605227543,-17.225617803388,42.607570757076,2500313.2234195,-78.465193524904,2571607.2833808,47.807570757076,0,0
44.212605491914,-17.226998360754,42.61200120012,2500313.2234195,-78.465193524904,2571607.2833808,47.81200120012,0,0
44.212605756286,-17.228378918119,42.616431643164,2500313.2234195,-78.465193524904,2571607.2833808,47.816431643164,0,0
44.212606020657,-17.229759475485,42.620862086209,2500313.2234195,-78.465193524904,2571607.2833808,47.820862086209,0,0
44.212606285028,-17.23114003285,42.625292529253,2500313.2234195,-78.465193524904,2571607.2833808,47.825292529253,0,0
44.212606549399,-17.232520590216,42.629722972297,2500313.2234195,-78.465193524904,2571607.2833808,47.829722972297,0,0
44.21260681377,-17.233901147582,42.634153415342,2500313.2234195,-78.465193524904,2571607.2833808,47.834153415342,0,0
44.212607078141,-17.235281704947,42.638583858386,2500313.2234195,-78.465193524904,2571607.2833808,47.838583858386,0,0
44.212607342512,-17.236662262313,42.64301430143,2500313.2234195,-78.465193524904,2571607.2833808,47.84301430143,0,0
44.212607606883,-17.238042819678,42.647444744474,2500313.2234195,-78.465193524904,2571607.2833808,47.847444744474,0,0
44.212607871254,-17.239423377044,42.651875187519,2500313.2234195,-78.465193524904,2571607.2833808,47.851875187519,0,0
44.212608135625,-17.24080393441,42.656305630563,2500313.2234195,-78.465193524904,2571607.2833808,47.856305630563,0,0
44.212608399996,-17.242184491775,42.660736073607,2500313.2234195,-78.465193524904,2571607.2833808,47.860736073607,0,0
44.212608664367,-17.243565049141,42.665166516652,2500313.2234195,-78.465193524904,2571607.2833808,47.865166516652,0,0
44.212608928738,-17.244945606506,42.669596959696,2500313.2234195,-78.465193524904,2571607.2833808,47.869596959696,0,0
44.212609193109,-17.246326163872,42.67402740274,2500313.2234195,-78.465193524904,2571607.2833808,47.87402740274,0,0
44.21260945748,-17.247706721237,42.678457845785,2500313.2234195,-78.465193524904,2571607.2833808,47.878457845785,0,0
44.212609721851,-17.249087278603,42.682888288829,2500313.2234195,-78.465193524904,2571607.2833808,47.882888288829,0,0
44.212609986222,-17.250467835969,42.687318731873,2500313.2234195,-78.465193524904,2571607.2833808,47.887318731873,0,0
44.212610250593,-17.251848393334,42.691749174917,2500313.2234195,-78.465193524904,2571607.2833808,47.891749174917,0,0
44.212610514964,-17.2532289507,42.696179617962,2500313.2234195,-78.465193524904,2571607.2833808,47.896179617962,0,0
44.212610779335,-17.254609508065,42.700610061006,2500313.2234195,-78.465193524904,2571607.2833808,47.900610061006,0,0
44.212611043706,-17.255990065431,42.70504050405,2500313.2234195,-78.465193524904,2571607.2833808,47.90504050405,0,0
44.212611308077,-17.257370622797,42.709470947095,2500313.2234195,-78.465193524904,2571607.2833808,47.909470947095,0,0
44.212611572448,-17.258751180162,42.713901390139,2500313.2234195,-78.465193524904,2571607.2833808,47.913901390139,0,0
44.21261183682,-17.260131737528,42.718331833183,2500313.2234195,-78.465193524904,2571607.2833808,47.918331833183,0,0
44.212612101191,-17.261512294893,42.722762276228,2500313.2234195,-78.465193524904,2571607.2833808,47.922762276228,0,0
44.212612365562,-17.262892852259,42.727192719272,2500313.2234195,-78.465193524904,2571607.2833808,47.927192719272,0,0
44.212612629933,-17.264273409625,42.731623162316,2500313.2234195,-78.465193524904,2571607.2833808,47.931623162316,0,0
44.212612894304,-17.26565396699,42.736053605361,2500313.2234195,-78.465193524904,2571607.2833808,47.936053605361,0,0
44.212613158675,-17.267034524356,42.740484048405,2500313.2234195,-78.465193524904,2571607.2833808,47.940484048405,0,0
44.212613423046,-17.268415081721,42.744914491449,2500313.2234195,-78.465193524904,2571607.2833808,47.944914491449,0,0
44.212613687417,-17.269795639087,42.749344934493,2500313.2234195,-78.465193524904,2571607.2833808,47.949344934493,0,0
44.212613951788,-17.271176196453,42.753775377538,2500313.2234195,-78.465193524904,2571607.2833808,47.953775377538,0,0
44.212614216159,-17.272556753818,42.758205820582,2500313.2234195,-78.465193524904,2571607.2833808,47.958205820582,0,0
44.21261448053,-17.273937311184,42.762636263626,2500313.2234195,-78.465193524904,2571607.2833808,47.962636263626,0,0
44.212614744901,-17.275317868549,42.767066706671,2500313.2234195,-78.465193524904,2571607.2833808,47.967066706671,0,0
44.212615009272,-17.276698425915,42.771497149715,2500313.2234195,-78.465193524904,2571607.2833808,47.971497149715,0,0
44.212615273643,-17.278078983281,42.775927592759,2500313.2234195,-78.465193524904,2571607.2833808,47.975927592759,0,0
44.212615538014,-17.279459540646,42.780358035804,2500313.2234195,-78.465193524904,2571607.2833808,47.980358035804,0,0
44.212615802385,-17.280840098012,42.784788478848,2500313.2234195,-78.465193524904,2571607.2833808,47.984788478848,0,0
44.212616066756,-17.282220655377,42.789218921892,2500313.2234195,-78.465193524904,2571607.2833808,47.989218921892,0,0
44.212616331127,-17.283601212743,42.793649364936,2500313.2234195,-78.465193524904,2571607.2833808,47.993649364936,0,0
44.212616595498,-17.284981770108,42.798079807981,2500313.2234195,-78.465193524904,2571607.2833808,47.998079807981,0,0
44.212616859869,-17.286362327474,42.802510251025,2500313.2234195,-78.465193524904,2571607.2833808,48.002510251025,0,0
44.21261712424,-17.28774288484,42.806940694069,2500313.2234195,-78.465193524904,2571607.2833808,48.006940694069,0,0
44.212617388611,-17.289123442205,42.811371137114,2500313.2234195,-78.465193524904,2571607.2833808,48.011371137114,0,0
44.212617652982,-17.290503999571,42.815801580158,2500313.2234195,-78.465193524904,2571607.2833808,48.015801580158,0,0
44.212617917354,-17.291884556936,42.820232023202,2500313.2234195,-78.465193524904,2571607.2833808,48.020232023202,0,0
44.212618181725,-17.293265114302,42.824662466247,2500313.2234195,-78.465193524904,2571607.2833808,48.024662466247,0,0
44.212618446096,-17.294645671668,42.829092909291,2500313.2234195,-78.465193524904,2571607.2833808,48.029092909291,0,0
44.212618710467,-17.296026229033,42.833523352335,2500313.2234195,-78.465193524904,2571607.2833808,48.033523352335,0,0
44.212618974838,-17.297406786399,42.83795379538,2500313.2234195,-78.465193524904,2571607.2833808,48.03795379538,0,0
44.212619239209,-17.298787343764,42.842384238424,2500313.2234195,-78.465193524904,2571607.2833808,48.042384238424,0,0
44.21261950358,-17.30016790113,42.846814681468,2500313.2234195,-78.465193524904,2571607.2833808,48.046814681468,0,0
44.212619767951,-17.301548458496,42.851245124512,2500313.2234195,-78.465193524904,2571607.2833808,48.051245124512,0,0
44.212620032322,-17.302929015861,42.855675567557,2500313.2234195,-78.465193524904,2571607.2833808,48.055675567557,0,0
44.212620296693,-17.304309573227,42.860106010601,2500313.2234195,-78.465193524904,2571607.2833808,48.060106010601,0,0
44.212620561064,-17.305690130592,42.864536453645,2500313.2234195,-78.465193524904,2571607.2833808,48.064536453645,0,0
44.212620825435,-17.307070687958,42.86896689669,2500313.2234195,-78.465193524904,2571607.2833808,48.06896689669,0,0
44.212621089806,-17.308451245324,42.873397339734,2500313.2234195,-78.465193524904,2571607.2833808,48.073397339734,0,0
44.212621354177,-17.309831802689,42.877827782778,2500313.2234195,-78.465193524904,2571607.2833808,48.077827782778,0,0
44.212621618548,-17.311212360055,42.882258225823,2500313.2234195,-78.465193524904,2571607.2833808,48.082258225823,0,0
44.212621882919,-17.31259291742,42.886688668867,2500313.2234195,-78.465193524904,2571607.2833808,48.086688668867,0,0
44.21262214729,-17.313973474786,42.891119111911,2500313.2234195,-78.465193524904,2571607.2833808,48.091119111911,0,0
44.212622411661,-17.315354032151,42.895549554955,2500313.2234195,-78.465193524904,2571607.2833808,48.095549554955,0,0
44.212622676032,-17.316734589517,42.899979998,2500313.2234195,-78.465193524904,2571607.2833808,48.099979998,0,0
44.212622940403,-17.318115146883,42.904410441044,2500313.2234195,-78.465193524904,2571607.2833808,48.104410441044,0,0
44.212623204774,-17.319495704248,42.908840884088,2500313.2234195,-78.465193524904,2571607.2833808,48.108840884088,0,0
44.212623469145,-17.320876261614,42.913271327133,2500313.2234195,-78.465193524904,2571607.2833808,48.113271327133,0,0
44.212623733516,-17.322256818979,42.917701770177,2500313.2234195,-78.465193524904,2571607.2833808,48.117701770177,0,0
44.212623997888,-17.323637376345,42.922132213221,2500313.2234195,-78.465193524904,2571607.2833808,48.122132213221,0,0
44.212624262259,-17.325017933711,42.926562656266,2500313.2234195,-78.465193524904,2571607.2833808,48.126562656266,0,0
44.21262452663,-17.326398491076,42.93099309931,2500313.2234195,-78.465193524904,2571607.2833808,48.13099309931,0,0
44.212624791001,-17.327779048442,42.935423542354,2500313.2234195,-78.465193524904,2571607.2833808,48.135423542354,0,0
44.212625055372,-17.329159605807,42.939853985399,2500313.2234195,-78.465193524904,2571607.2833808,48.139853985399,0,0
44.212625319743,-17.330540163173,42.944284428443,2500313.2234195,-78.465193524904,2571607.2833808,48.144284428443,0,0
44.212625584114,-17.331920720539,42.948714871487,2500313.2234195,-78.465193524904,2571607.2833808,48.148714871487,0,0
44.212625848485,-17.333301277904,42.953145314531,2500313.2234195,-78.465193524904,2571607.2833808,48.153145314531,0,0
44.212626112856,-17.33468183527,42.957575757576,2500313.2234195,-78.465193524904,2571607.2833808,48.157575757576,0,0
44.212626377227,-17.336062392635,42.96200620062,2500313.2234195,-78.465193524904,2571607.2833808,48.16200620062,0,0
44.212626641598,-17.337442950001,42.966436643664,2500313.2234195,-78.465193524904,2571607.2833808,48.166436643664,0,0
44.212626905969,-17.338823507367,42.970867086709,2500313.2234195,-78.465193524904,2571607.2833808,48.170867086709,0,0
44.21262717034,-17.340204064732,42.975297529753,2500313.2234195,-78.465193524904,2571607.2833808,48.175297529753,0,0
44.212627434711,-17.341584622098,42.979727972797,2500313.2234195,-78.465193524904,2571607.2833808,48.179727972797,0,0
44.212627699082,-17.342965179463,42.984158415842,2500313.2234195,-78.465193524904,2571607.2833808,48.184158415842,0,0
44.212627963453,-17.344345736829,42.988588858886,2500313.2234195,-78.465193524904,2571607.2833808,48.188588858886,0,0
44.212628227824,-17.345726294195,42.99301930193,2500313.2234195,-78.465193524904,2571607.2833808,48.19301930193,0,0
44.212628492195,-17.34710685156,42.997449744974,2500313.2234195,-78.465193524904,2571607.2833808,48.197449744974,0,0
44.212628756566,-17.348487408926,43.001880188019,2500313.2234195,-78.465193524904,2571607.2833808,48.201880188019,0,0
44.212629020937,-17.349867966291,43.006310631063,2500313.2234195,-78.465193524904,2571607.2833808,48.206310631063,0,0
44.212629285308,-17.351248523657,43.010741074107,2500313.2234195,-78.465193524904,2571607.2833808,48.210741074107,0,0
44.212629549679,-17.352629081022,43.015171517152,2500313.2234195,-78.465193524904,2571607.2833808,48.215171517152,0,0
44.21262981405,-17.354009638388,43.019601960196,2500313.2234195,-78.465193524904,2571607.2833808,48.219601960196,0,0
44.212630078421,-17.355390195754,43.02403240324,2500313.2234195,-78.465193524904,2571607.2833808,48.22403240324,0,0
44.212630342793,-17.356770753119,43.028462846285,2500313.2234195,-78.465193524904,2571607.2833808,48.228462846285,0,0
44.212630607164,-17.358151310485,43.032893289329,2500313.2234195,-78.465193524904,2571607.2833808,48.232893289329,0,0
44.212630871535,-17.35953186785,43.037323732373,2500313.2234195,-78.465193524904,2571607.2833808,48.237323732373,0,0
44.212631135906,-17.360912425216,43.041754175418,2500313.2234195,-78.465193524904,2571607.2833808,48.241754175418,0,0
44.212631400277,-17.362292982582,43.046184618462,2500313.2234195,-78.465193524904,2571607.2833808,48.246184618462,0,0
44.212631664648,-17.363673539947,43.050615061506,2500313.2234195,-78.465193524904,2571607.2833808,48.250615061506,0,0
44.212631929019,-17.365054097313,43.05504550455,2500313.2234195,-78.465193524904,2571607.2833808,48.25504550455,0,0
44.21263219339,-17.366434654678,43.059475947595,2500313.2234195,-78.465193524904,2571607.2833808,48.259475947595,0,0
44.212632457761,-17.367815212044,43.063906390639,2500313.2234195,-78.465193524904,2571607.2833808,48.263906390639,0,0
44.212632722132,-17.36919576941,43.068336833683,2500313.2234195,-78.465193524904,2571607.2833808,48.268336833683,0,0
44.212632986503,-17.370576326775,43.072767276728,2500313.2234195,-78.465193524904,2571607.2833808,48.272767276728,0,0
44.212633250874,-17.371956884141,43.077197719772,2500313.2234195,-78.465193524904,2571607.2833808,48.277197719772,0,0
44.212633515245,-17.373337441506,43.081628162816,2500313.2234195,-78.465193524904,2571607.2833808,48.281628162816,0,0
44.212633779616,-17.374717998872,43.086058605861,2500313.2234195,-78.465193524904,2571607.2833808,48.286058605861,0,0
44.212634043987,-17.376098556238,43.090489048905,2500313.2234195,-78.465193524904,2571607.2833808,48.290489048905,0,0
44.212634308358,-17.377479113603,43.094919491949,2500313.2234195,-78.465193524904,2571607.2833808,48.294919491949,0,0
44.212634572729,-17.378859670969,43.099349934993,2500313.2234195,-78.465193524904,2571607.2833808,48.299349934994,0,0
44.2126348371,-17.380240228334,43.103780378038,2500313.2234195,-78.465193524904,2571607.2833808,48.303780378038,0,0
44.212635101471,-17.3816207857,43.108210821082,2500313.2234195,-78.465193524904,2571607.2833808,48.308210821082,0,0
44.212635365842,-17.383001343066,43.112641264126,2500313.2234195,-78.465193524904,2571607.2833808,48.312641264126,0,0
44.212635630213,-17.384381900431,43.117071707171,2500313.2234195,-78.465193524904,2571607.2833808,48.317071707171,0,0
44.212635894584,-17.385762457797,43.121502150215,2500313.2234195,-78.465193524904,2571607.2833808,48.321502150215,0,0
44.212636158955,-17.387143015162,43.125932593259,2500313.2234195,-78.465193524904,2571607.2833808,48.325932593259,0,0
44.212636423327,-17.388523572528,43.130363036304,2500313.2234195,-78.465193524904,2571607.2833808,48.330363036304,0,0
44.212636687698,-17.389904129893,43.134793479348,2500313.2234195,-78.465193524904,2571607.2833808,48.334793479348,0,0
44.212636952069,-17.391284687259,43.139223922392,2500313.2234195,-78.465193524904,2571607.2833808,48.339223922392,0,0
44.21263721644,-17.392665244625,43.143654365437,2500313.2234195,-78.465193524904,2571607.2833808,48.343654365437,0,0
44.212637480811,-17.39404580199,43.148084808481,2500313.2234195,-78.465193524904,2571607.2833808,48.348084808481,0,0
44.212637745182,-17.395426359356,43.152515251525,2500313.2234195,-78.465193524904,2571607.2833808,48.352515251525,0,0
44.212638009553,-17.396806916721,43.156945694569,2500313.2234195,-78.465193524904,2571607.2833808,48.356945694569,0,0
44.212638273924,-17.398187474087,43.161376137614,2500313.2234195,-78.465193524904,2571607.2833808,48.361376137614,0,0
44.212638538295,-17.399568031453,43.165806580658,2500313.2234195,-78.465193524904,2571607.2833808,48.365806580658,0,0
44.212638802666,-17.400948588818,43.170237023702,2500313.2234195,-78.465193524904,2571607.2833808,48.370237023702,0,0
44.212639067037,-17.402329146184,43.174667466747,2500313.2234195,-78.465193524904,2571607.2833808,48.374667466747,0,0
44.212639331408,-17.403709703549,43.179097909791,2500313.2234195,-78.465193524904,2571607.2833808,48.379097909791,0,0
44.212639595779,-17.405090260915,43.183528352835,2500313.2234195,-78.465193524904,2571607.2833808,48.383528352835,0,0
44.21263986015,-17.406470818281,43.18795879588,2500313.2234195,-78.465193524904,2571607.2833808,48.38795879588,0,0
44.212640124521,-17.407851375646,43.192389238924,2500313.2234195,-78.465193524904,2571607.2833808,48.392389238924,0,0
44.212640388892,-17.409231933012,43.196819681968,2500313.2234195,-78.465193524904,2571607.2833808,48.396819681968,0,0
44.212640653263,-17.410612490377,43.201250125012,2500313.2234195,-78.465193524904,2571607.2833808,48.401250125013,0,0
44.212640917634,-17.411993047743,43.205680568057,2500313.2234195,-78.465193524904,2571607.2833808,48.405680568057,0,0
44.212641182005,-17.413373605109,43.210111011101,2500313.2234195,-78.465193524904,2571607.2833808,48.410111011101,0,0
44.212641446376,-17.414754162474,43.214541454145,2500313.2234195,-78.465193524904,2571607.2833808,48.414541454145,0,0
44.212641710747,-17.41613471984,43.21897189719,2500313.2234195,-78.465193524904,2571607.2833808,48.41897189719,0,0
44.212641975118,-17.417515277205,43.223402340234,2500313.2234195,-78.465193524904,2571607.2833808,48.423402340234,0,0
44.212642239489,-17.418895834571,43.227832783278,2500313.2234195,-78.465193524904,2571607.2833808,48.427832783278,0,0
44.212642503861,-17.420276391937,43.232263226323,2500313.2234195,-78.465193524904,2571607.2833808,48.432263226323,0,0
44.212642768232,-17.421656949302,43.236693669367,2500313.2234195,-78.465193524904,2571607.2833808,48.436693669367,0,0
44.212643032603,-17.423037506668,43.241124112411,2500313.2234195,-78.465193524904,2571607.2833808,48.441124112411,0,0
44.212643296974,-17.424418064033,43.245554555456,2500313.2234195,-78.465193524904,2571607.2833808,48.445554555456,0,0
44.212643561345,-17.425798621399,43.2499849985,2500313.2234195,-78.465193524904,2571607.2833808,48.4499849985,0,0
44.212643825716,-17.427179178764,43.254415441544,2500313.2234195,-78.465193524904,2571607.2833808,48.454415441544,0,0
44.212644090087,-17.42855973613,43.258845884588,2500313.2234195,-78.465193524904,2571607.2833808,48.458845884588,0,0
44.212644354458,-17.429940293496,43.263276327633,2500313.2234195,-78.465193524904,2571607.2833808,48.463276327633,0,0
44.212644618829,-17.431320850861,43.267706770677,2500313.2234195,-78.465193524904,2571607.2833808,48.467706770677,0,0
44.2126448832,-17.432701408227,43.272137213721,2500313.2234195,-78.465193524904,2571607.2833808,48.472137213721,0,0
44.212645147571,-17.434081965592,43.276567656766,2500313.2234195,-78.465193524904,2571607.2833808,48.476567656766,0,0
44.212645411942,-17.435462522958,43.28099809981,2500313.2234195,-78.465193524904,2571607.2833808,48.48099809981,0,0
44.212645676313,-17.436843080324,43.285428542854,2500313.2234195,-78.465193524904,2571607.2833808,48.485428542854,0,0
44.212645940684,-17.438223637689,43.289858985899,2500313.2234195,-78.465193524904,2571607.2833808,48.489858985899,0,0
44.212646205055,-17.439604195055,43.294289428943,2500313.2234195,-78.465193524904,2571607.2833808,48.494289428943,0,0
44.212646469426,-17.44098475242,43.298719871987,2500313.2234195,-78.465193524904,2571607.2833808,48.498719871987,0,0
44.212646733797,-17.442365309786,43.303150315032,2500313.2234195,-78.465193524904,2571607.2833808,48.503150315032,0,0
44.212646998168,-17.443745867152,43.307580758076,2500313.2234195,-78.465193524904,2571607.2833808,48.507580758076,0,0
44.212647262539,-17.445126424517,43.31201120112,2500313.2234195,-78.465193524904,2571607.2833808,48.51201120112,0,0
44.21264752691,-17.446506981883,43.316441644164,2500313.2234195,-78.465193524904,2571607.2833808,48.516441644164,0,0
44.212647791281,-17.447887539248,43.320872087209,2500313.2234195,-78.465193524904,2571607.2833808,48.520872087209,0,0
44.212648055652,-17.449268096614,43.325302530253,2500313.2234195,-78.465193524904,2571607.2833808,48.525302530253,0,0
44.212648320023,-17.45064865398,43.329732973297,2500313.2234195,-78.465193524904,2571607.2833808,48.529732973297,0,0
44.212648584395,-17.452029211345,43.334163416342,2500313.2234195,-78.465193524904,2571607.2833808,48.534163416342,0,0
44.212648848766,-17.453409768711,43.338593859386,2500313.2234195,-78.465193524904,2571607.2833808,48.538593859386,0,0
44.212649113137,-17.454790326076,43.34302430243,2500313.2234195,-78.465193524904,2571607.2833808,48.54302430243,0,0
44.212649377508,-17.456170883442,43.347454745475,2500313.2234195,-78.465193524904,2571607.2833808,48.547454745475,0,0
44.212649641879,-17.457551440808,43.351885188519,2500313.2234195,-78.465193524904,2571607.2833808,48.551885188519,0,0
44.21264990625,-17.458931998173,43.356315631563,2500313.2234195,-78.465193524904,2571607.2833808,48.556315631563,0,0
44.212650170621,-17.460312555539,43.360746074607,2500313.2234195,-78.465193524904,2571607.2833808,48.560746074607,0,0
44.212650434992,-17.461693112904,43.365176517652,2500313.2234195,-78.465193524904,2571607.2833808,48.565176517652,0,0
44.212650699363,-17.46307367027,43.369606960696,2500313.2234195,-78.465193524904,2571607.2833808,48.569606960696,0,0
44.212650963734,-17.464454227635,43.37403740374,2500313.2234195,-78.465193524904,2571607.2833808,48.57403740374,0,0
44.212651228105,-17.465834785001,43.378467846785,2500313.2234195,-78.465193524904,2571607.2833808,48.578467846785,0,0
44.212651492476,-17.467215342367,43.382898289829,2500313.2234195,-78.465193524904,2571607.2833808,48.582898289829,0,0
44.212651756847,-17.468595899732,43.387328732873,2500313.2234195,-78.465193524904,2571607.2833808,48.587328732873,0,0
44.212652021218,-17.469976457098,43.391759175918,2500313.2234195,-78.465193524904,2571607.2833808,48.591759175918,0,0
44.212652285589,-17.471357014463,43.396189618962,2500313.2234195,-78.465193524904,2571607.2833808,48.596189618962,0,0
44.21265254996,-17.472737571829,43.400620062006,2500313.2234195,-78.465193524904,2571607.2833808,48.600620062006,0,0
44.212652814331,-17.474118129195,43.405050505051,2500313.2234195,-78.465193524904,2571607.2833808,48.605050505051,0,0
44.212653078702,-17.47549868656,43.409480948095,2500313.2234195,-78.465193524904,2571607.2833808,48.609480948095,0,0
44.212653343073,-17.476879243926,43.413911391139,2500313.2234195,-78.465193524904,2571607.2833808,48.613911391139,0,0
44.212653607444,-17.478259801291,43.418341834183,2500313.2234195,-78.465193524904,2571607.2833808,48.618341834183,0,0
44.212653871815,-17.479640358657,43.422772277228,2500313.2234195,-78.465193524904,2571607.2833808,48.622772277228,0,0
44.212654136186,-17.481020916023,43.427202720272,2500313.2234195,-78.465193524904,2571607.2833808,48.627202720272,0,0
44.212654400557,-17.482401473388,43.431633163316,2500313.2234195,-78.465193524904,2571607.2833808,48.631633163316,0,0
44.212654664929,-17.483782030754,43.436063606361,2500313.2234195,-78.465193524904,2571607.2833808,48.636063606361,0,0
44.2126549293,-17.485162588119,43.440494049405,2500313.2234195,-78.465193524904,2571607.2833808,48.640494049405,0,0
44.212655193671,-17.486543145485,43.444924492449,2500313.2234195,-78.465193524904,2571607.2833808,48.644924492449,0,0
44.212655458042,-17.487923702851,43.449354935494,2500313.2234195,-78.465193524904,2571607.2833808,48.649354935494,0,0
44.212655722413,-17.489304260216,43.453785378538,2500313.2234195,-78.465193524904,2571607.2833808,48.653785378538,0,0
44.212655986784,-17.490684817582,43.458215821582,2500313.2234195,-78.465193524904,2571607.2833808,48.658215821582,0,0
44.212656251155,-17.492065374947,43.462646264626,2500313.2234195,-78.465193524904,2571607.2833808,48.662646264626,0,0
44.212656515526,-17.493445932313,43.467076707671,2500313.2234195,-78.465193524904,2571607.2833808,48.667076707671,0,0
44.212656779897,-17.494826489678,43.471507150715,2500313.2234195,-78.465193524904,2571607.2833808,48.671507150715,0,0
44.212657044268,-17.496207047044,43.475937593759,2500313.2234195,-78.465193524904,2571607.2833808,48.675937593759,0,0
44.212657308639,-17.49758760441,43.480368036804,2500313.2234195,-78.465193524904,2571607.2833808,48.680368036804,0,0
44.21265757301,-17.498968161775,43.484798479848,2500313.2234195,-78.465193524904,2571607.2833808,48.684798479848,0,0
44.212657837381,-17.500348719141,43.489228922892,2500313.2234195,-78.465193524904,2571607.2833808,48.689228922892,0,0
44.212658101752,-17.501729276506,43.493659365937,2500313.2234195,-78.465193524904,2571607.2833808,48.693659365937,0,0
44.212658366123,-17.503109833872,43.498089808981,2500313.2234195,-78.465193524904,2571607.2833808,48.698089808981,0,0
44.212658630494,-17.504490391238,43.502520252025,2500313.2234195,-78.465193524904,2571607.2833808,48.702520252025,0,0
44.212658894865,-17.505870948603,43.50695069507,2500313.2234195,-78.465193524904,2571607.2833808,48.70695069507,0,0
44.212659159236,-17.507251505969,43.511381138114,2500313.2234195,-78.465193524904,2571607.2833808,48.711381138114,0,0
44.212659423607,-17.508632063334,43.515811581158,2500313.2234195,-78.465193524904,2571607.2833808,48.715811581158,0,0
44.212659687978,-17.5100126207,43.520242024202,2500313.2234195,-78.465193524904,2571607.2833808,48.720242024202,0,0
44.212659952349,-17.511393178066,43.524672467247,2500313.2234195,-78.465193524904,2571607.2833808,48.724672467247,0,0
44.21266021672,-17.512773735431,43.529102910291,2500313.2234195,-78.465193524904,2571607.2833808,48.729102910291,0,0
44.212660481091,-17.514154292797,43.533533353335,2500313.2234195,-78.465193524904,2571607.2833808,48.733533353335,0,0
44.212660745463,-17.515534850162,43.53796379638,2500313.2234195,-78.465193524904,2571607.2833808,48.73796379638,0,0
44.212661009834,-17.516915407528,43.542394239424,2500313.2234195,-78.465193524904,2571607.2833808,48.742394239424,0,0
44.212661274205,-17.518295964894,43.546824682468,2500313.2234195,-78.465193524904,2571607.2833808,48.746824682468,0,0
44.212661538576,-17.519676522259,43.551255125513,2500313.2234195,-78.465193524904,2571607.2833808,48.751255125513,0,0
44.212661802947,-17.521057079625,43.555685568557,2500313.2234195,-78.465193524904,2571607.2833808,48.755685568557,0,0
44.212662067318,-17.52243763699,43.560116011601,2500313.2234195,-78.465193524904,2571607.2833808,48.760116011601,0,0
44.212662331689,-17.523818194356,43.564546454645,2500313.2234195,-78.465193524904,2571607.2833808,48.764546454645,0,0
44.21266259606,-17.525198751722,43.56897689769,2500313.2234195,-78.465193524904,2571607.2833808,48.76897689769,0,0
44.212662860431,-17.526579309087,43.573407340734,2500313.2234195,-78.465193524904,2571607.2833808,48.773407340734,0,0
44.212663124802,-17.527959866453,43.577837783778,2500313.2234195,-78.465193524904,2571607.2833808,48.777837783778,0,0
44.212663389173,-17.529340423818,43.582268226823,2500313.2234195,-78.465193524904,2571607.2833808,48.782268226823,0,0
44.212663653544,-17.530720981184,43.586698669867,2500313.2234195,-78.465193524904,2571607.2833808,48.786698669867,0,0
44.212663917915,-17.532101538549,43.591129112911,2500313.2234195,-78.465193524904,2571607.2833808,48.791129112911,0,0
44.212664182286,-17.533482095915,43.595559555956,2500313.2234195,-78.465193524904,2571607.2833808,48.795559555956,0,0
44.212664446657,-17.534862653281,43.599989999,2500313.2234195,-78.465193524904,2571607.2833808,48.799989999,0,0
44.212664711028,-17.536243210646,43.604420442044,2500313.2234195,-78.465193524904,2571607.2833808,48.804420442044,0,0
44.212664975399,-17.537623768012,43.608850885089,2500313.2234195,-78.465193524904,2571607.2833808,48.808850885089,0,0
44.21266523977,-17.539004325377,43.613281328133,2500313.2234195,-78.465193524904,2571607.2833808,48.813281328133,0,0
44.212665504141,-17.540384882743,43.617711771177,2500313.2234195,-78.465193524904,2571607.2833808,48.817711771177,0,0
44.212665768512,-17.541765440109,43.622142214221,2500313.2234195,-78.465193524904,2571607.2833808,48.822142214221,0,0
44.212666032883,-17.543145997474,43.626572657266,2500313.2234195,-78.465193524904,2571607.2833808,48.826572657266,0,0
44.212666297254,-17.54452655484,43.63100310031,2500313.2234195,-78.465193524904,2571607.2833808,48.83100310031,0,0
44.212666561625,-17.545907112205,43.635433543354,2500313.2234195,-78.465193524904,2571607.2833808,48.835433543354,0,0
44.212666825997,-17.547287669571,43.639863986399,2500313.2234195,-78.465193524904,2571607.2833808,48.839863986399,0,0
44.212667090368,-17.548668226937,43.644294429443,2500313.2234195,-78.465193524904,2571607.2833808,48.844294429443,0,0
44.212667354739,-17.550048784302,43.648724872487,2500313.2234195,-78.465193524904,2571607.2833808,48.848724872487,0,0
44.21266761911,-17.551429341668,43.653155315532,2500313.2234195,-78.465193524904,2571607.2833808,48.853155315532,0,0
44.212667883481,-17.552809899033,43.657585758576,2500313.2234195,-78.465193524904,2571607.2833808,48.857585758576,0,0
44.212668147852,-17.554190456399,43.66201620162,2500313.2234195,-78.465193524904,2571607.2833808,48.86201620162,0,0
44.212668412223,-17.555571013765,43.666446644664,2500313.2234195,-78.465193524904,2571607.2833808,48.866446644664,0,0
44.212668676594,-17.55695157113,43.670877087709,2500313.2234195,-78.465193524904,2571607.2833808,48.870877087709,0,0
44.212668940965,-17.558332128496,43.675307530753,2500313.2234195,-78.465193524904,2571607.2833808,48.875307530753,0,0
44.212669205336,-17.559712685861,43.679737973797,2500313.2234195,-78.465193524904,2571607.2833808,48.879737973797,0,0
44.212669469707,-17.561093243227,43.684168416842,2500313.2234195,-78.465193524904,2571607.2833808,48.884168416842,0,0
44.212669734078,-17.562473800593,43.688598859886,2500313.2234195,-78.465193524904,2571607.2833808,48.888598859886,0,0
44.212669998449,-17.563854357958,43.69302930293,2500313.2234195,-78.465193524904,2571607.2833808,48.89302930293,0,0
44.21267026282,-17.565234915324,43.697459745975,2500313.2234195,-78.465193524904,2571607.2833808,48.897459745975,0,0
44.212670527191,-17.566615472689,43.701890189019,2500313.2234195,-78.465193524904,2571607.2833808,48.901890189019,0,0
44.212670791562,-17.567996030055,43.706320632063,2500313.2234195,-78.465193524904,2571607.2833808,48.906320632063,0,0
44.212671055933,-17.56937658742,43.710751075108,2500313.2234195,-78.465193524904,2571607.2833808,48.910751075108,0,0
44.212671320304,-17.570757144786,43.715181518152,2500313.2234195,-78.465193524904,2571607.2833808,48.915181518152,0,0
44.212671584675,-17.572137702152,43.719611961196,2500313.2234195,-78.465193524904,2571607.2833808,48.919611961196,0,0
44.212671849046,-17.573518259517,43.72404240424,2500313.2234195,-78.465193524904,2571607.2833808,48.92404240424,0,0
44.212672113417,-17.574898816883,43.728472847285,2500313.2234195,-78.465193524904,2571607.2833808,48.928472847285,0,0
44.212672377788,-17.576279374248,43.732903290329,2500313.2234195,-78.465193524904,2571607.2833808,48.932903290329,0,0
44.212672642159,-17.577659931614,43.737333733373,2500313.2234195,-78.465193524904,2571607.2833808,48.937333733373,0,0
44.212672906531,-17.57904048898,43.741764176418,2500313.2234195,-78.465193524904,2571607.2833808,48.941764176418,0,0
44.212673170902,-17.580421046345,43.746194619462,2500313.2234195,-78.465193524904,2571607.2833808,48.946194619462,0,0
44.212673435273,-17.581801603711,43.750625062506,2500313.2234195,-78.465193524904,2571607.2833808,48.950625062506,0,0
44.212673699644,-17.583182161076,43.755055505551,2500313.2234195,-78.465193524904,2571607.2833808,48.955055505551,0,0
44.212673964015,-17.584562718442,43.759485948595,2500313.2234195,-78.465193524904,2571607.2833808,48.959485948595,0,0
44.212674228386,-17.585943275808,43.763916391639,2500313.2234195,-78.465193524904,2571607.2833808,48.963916391639,0,0
44.212674492757,-17.587323833173,43.768346834683,2500313.2234195,-78.465193524904,2571607.2833808,48.968346834683,0,0
44.212674757128,-17.588704390539,43.772777277728,2500313.2234195,-78.465193524904,2571607.2833808,48.972777277728,0,0
44.212675021499,-17.590084947904,43.777207720772,2500313.2234195,-78.465193524904,2571607.2833808,48.977207720772,0,0
44.21267528587,-17.59146550527,43.781638163816,2500313.2234195,-78.465193524904,2571607.2833808,48.981638163816,0,0
44.212675550241,-17.592846062636,43.786068606861,2500313.2234195,-78.465193524904,2571607.2833808,48.986068606861,0,0
44.212675814612,-17.594226620001,43.790499049905,2500313.2234195,-78.465193524904,2571607.2833808,48.990499049905,0,0
44.212676078983,-17.595607177367,43.794929492949,2500313.2234195,-78.465193524904,2571607.2833808,48.994929492949,0,0
44.212676343354,-17.596987734732,43.799359935994,2500313.2234195,-78.465193524904,2571607.2833808,48.999359935994,0,0
44.212676607725,-17.598368292098,43.803790379038,2500313.2234195,-78.465193524904,2571607.2833808,49.003790379038,0,0
44.212676872096,-17.599748849464,43.808220822082,2500313.2234195,-78.465193524904,2571607.2833808,49.008220822082,0,0
44.212677136467,-17.601129406829,43.812651265127,2500313.2234195,-78.465193524904,2571607.2833808,49.012651265127,0,0
44.212677400838,-17.602509964195,43.817081708171,2500313.2234195,-78.465193524904,2571607.2833808,49.017081708171,0,0
44.212677665209,-17.60389052156,43.821512151215,2500313.2234195,-78.465193524904,2571607.2833808,49.021512151215,0,0
44.21267792958,-17.605271078926,43.825942594259,2500313.2234195,-78.465193524904,2571607.2833808,49.025942594259,0,0
44.212678193951,-17.606651636291,43.830373037304,2500313.2234195,-78.465193524904,2571607.2833808,49.030373037304,0,0
44.212678458322,-17.608032193657,43.834803480348,2500313.2234195,-78.465193524904,2571607.2833808,49.034803480348,0,0
44.212678722693,-17.609412751023,43.839233923392,2500313.2234195,-78.465193524904,2571607.2833808,49.039233923392,0,0
44.212678987065,-17.610793308388,43.843664366437,2500313.2234195,-78.465193524904,2571607.2833808,49.043664366437,0,0
44.212679251436,-17.612173865754,43.848094809481,2500313.2234195,-78.465193524904,2571607.2833808,49.048094809481,0,0
44.212679515807,-17.613554423119,43.852525252525,2500313.2234195,-78.465193524904,2571607.2833808,49.052525252525,0,0
44.212679780178,-17.614934980485,43.85695569557,2500313.2234195,-78.465193524904,2571607.2833808,49.05695569557,0,0
44.212680044549,-17.616315537851,43.861386138614,2500313.2234195,-78.465193524904,2571607.2833808,49.061386138614,0,0
44.21268030892,-17.617696095216,43.865816581658,2500313.2234195,-78.465193524904,2571607.2833808,49.065816581658,0,0
44.212680573291,-17.619076652582,43.870247024702,2500313.2234195,-78.465193524904,2571607.2833808,49.070247024702,0,0
44.212680837662,-17.620457209947,43.874677467747,2500313.2234195,-78.465193524904,2571607.2833808,49.074677467747,0,0
44.212681102033,-17.621837767313,43.879107910791,2500313.2234195,-78.465193524904,2571607.2833808,49.079107910791,0,0
44.212681366404,-17.623218324679,43.883538353835,2500313.2234195,-78.465193524904,2571607.2833808,49.083538353835,0,0
44.212681630775,-17.624598882044,43.88796879688,2500313.2234195,-78.465193524904,2571607.2833808,49.08796879688,0,0
44.212681895146,-17.62597943941,43.892399239924,2500313.2234195,-78.465193524904,2571607.2833808,49.092399239924,0,0
44.212682159517,-17.627359996775,43.896829682968,2500313.2234195,-78.465193524904,2571607.2833808,49.096829682968,0,0
44.212682423888,-17.628740554141,43.901260126013,2500313.2234195,-78.465193524904,2571607.2833808,49.101260126013,0,0
44.212682688259,-17.630121111507,43.905690569057,2500313.2234195,-78.465193524904,2571607.2833808,49.105690569057,0,0
44.21268295263,-17.631501668872,43.910121012101,2500313.2234195,-78.465193524904,2571607.2833808,49.110121012101,0,0
44.212683217001,-17.632882226238,43.914551455146,2500313.2234195,-78.465193524904,2571607.2833808,49.114551455146,0,0
44.212683481372,-17.634262783603,43.91898189819,2500313.2234195,-78.465193524904,2571607.2833808,49.11898189819,0,0
44.212683745743,-17.635643340969,43.923412341234,2500313.2234195,-78.465193524904,2571607.2833808,49.123412341234,0,0
44.212684010114,-17.637023898335,43.927842784278,2500313.2234195,-78.465193524904,2571607.2833808,49.127842784278,0,0
44.212684274485,-17.6384044557,43.932273227323,2500313.2234195,-78.465193524904,2571607.2833808,49.132273227323,0,0
44.212684538856,-17.639785013066,43.936703670367,2500313.2234195,-78.465193524904,2571607.2833808,49.136703670367,0,0
44.212684803227,-17.641165570431,43.941134113411,2500313.2234195,-78.465193524904,2571607.2833808,49.141134113411,0,0
44.212685067599,-17.642546127797,43.945564556456,2500313.2234195,-78.465193524904,2571607.2833808,49.145564556456,0,0
44.21268533197,-17.643926685162,43.9499949995,2500313.2234195,-78.465193524904,2571607.2833808,49.1499949995,0,0
44.212685596341,-17.645307242528,43.954425442544,2500313.2234195,-78.465193524904,2571607.2833808,49.154425442544,0,0
44.212685860712,-17.646687799894,43.958855885589,2500313.2234195,-78.465193524904,2571607.2833808,49.158855885589,0,0
44.212686125083,-17.648068357259,43.963286328633,2500313.2234195,-78.465193524904,2571607.2833808,49.163286328633,0,0
44.212686389454,-17.649448914625,43.967716771677,2500313.2234195,-78.465193524904,2571607.2833808,49.167716771677,0,0
44.212686653825,-17.65082947199,43.972147214721,2500313.2234195,-78.465193524904,2571607.2833808,49.172147214721,0,0
44.212686918196,-17.652210029356,43.976577657766,2500313.2234195,-78.465193524904,2571607.2833808,49.176577657766,0,0
44.212687182567,-17.653590586722,43.98100810081,2500313.2234195,-78.465193524904,2571607.2833808,49.18100810081,0,0
44.212687446938,-17.654971144087,43.985438543854,2500313.2234195,-78.465193524904,2571607.2833808,49.185438543854,0,0
44.212687711309,-17.656351701453,43.989868986899,2500313.2234195,-78.465193524904,2571607.2833808,49.189868986899,0,0
44.21268797568,-17.657732258818,43.994299429943,2500313.2234195,-78.465193524904,2571607.2833808,49.194299429943,0,0
44.212688240051,-17.659112816184,43.998729872987,2500313.2234195,-78.465193524904,2571607.2833808,49.198729872987,0,0
44.212688504422,-17.66049337355,44.003160316032,2500313.2234195,-78.465193524904,2571607.2833808,49.203160316032,0,0
44.212688768793,-17.661873930915,44.007590759076,2500313.2234195,-78.465193524904,2571607.2833808,49.207590759076,0,0
44.212689033164,-17.663254488281,44.01202120212,2500313.2234195,-78.465193524904,2571607.2833808,49.21202120212,0,0
44.212689297535,-17.664635045646,44.016451645165,2500313.2234195,-78.465193524904,2571607.2833808,49.216451645165,0,0
44.212689561906,-17.666015603012,44.020882088209,2500313.2234195,-78.465193524904,2571607.2833808,49.220882088209,0,0
44.212689826277,-17.667396160378,44.025312531253,2500313.2234195,-78.465193524904,2571607.2833808,49.225312531253,0,0
44.212690090648,-17.668776717743,44.029742974297,2500313.2234195,-78.465193524904,2571607.2833808,49.229742974297,0,0
44.212690355019,-17.670157275109,44.034173417342,2500313.2234195,-78.465193524904,2571607.2833808,49.234173417342,0,0
44.21269061939,-17.671537832474,44.038603860386,2500313.2234195,-78.465193524904,2571607.2833808,49.238603860386,0,0
44.212690883761,-17.67291838984,44.04303430343,2500313.2234195,-78.465193524904,2571607.2833808,49.24303430343,0,0
44.212691148133,-17.674298947206,44.047464746475,2500313.2234195,-78.465193524904,2571607.2833808,49.247464746475,0,0
44.212691412504,-17.675679504571,44.051895189519,2500313.2234195,-78.465193524904,2571607.2833808,49.251895189519,0,0
44.212691676875,-17.677060061937,44.056325632563,2500313.2234195,-78.465193524904,2571607.2833808,49.256325632563,0,0
44.212691941246,-17.678440619302,44.060756075608,2500313.2234195,-78.465193524904,2571607.2833808,49.260756075608,0,0
44.212692205617,-17.679821176668,44.065186518652,2500313.2234195,-78.465193524904,2571607.2833808,49.265186518652,0,0
44.212692469988,-17.681201734033,44.069616961696,2500313.2234195,-78.465193524904,2571607.2833808,49.269616961696,0,0
44.212692734359,-17.682582291399,44.07404740474,2500313.2234195,-78.465193524904,2571607.2833808,49.27404740474,0,0
44.21269299873,-17.683962848765,44.078477847785,2500313.2234195,-78.465193524904,2571607.2833808,49.278477847785,0,0
44.212693263101,-17.68534340613,44.082908290829,2500313.2234195,-78.465193524904,2571607.2833808,49.282908290829,0,0
44.212693527472,-17.686723963496,44.087338733873,2500313.2234195,-78.465193524904,2571607.2833808,49.287338733873,0,0
44.212693791843,-17.688104520861,44.091769176918,2500313.2234195,-78.465193524904,2571607.2833808,49.291769176918,0,0
44.212694056214,-17.689485078227,44.096199619962,2500313.2234195,-78.465193524904,2571607.2833808,49.296199619962,0,0
44.212694320585,-17.690865635593,44.100630063006,2500313.2234195,-78.465193524904,2571607.2833808,49.300630063006,0,0
44.212694584956,-17.692246192958,44.105060506051,2500313.2234195,-78.465193524904,2571607.2833808,49.305060506051,0,0
44.212694849327,-17.693626750324,44.109490949095,2500313.2234195,-78.465193524904,2571607.2833808,49.309490949095,0,0
44.212695113698,-17.695007307689,44.113921392139,2500313.2234195,-78.465193524904,2571607.2833808,49.313921392139,0,0
44.212695378069,-17.696387865055,44.118351835184,2500313.2234195,-78.465193524904,2571607.2833808,49.318351835184,0,0
44.21269564244,-17.697768422421,44.122782278228,2500313.2234195,-78.465193524904,2571607.2833808,49.322782278228,0,0
44.212695906811,-17.699148979786,44.127212721272,2500313.2234195,-78.465193524904,2571607.2833808,49.327212721272,0,0
44.212696171182,-17.700529537152,44.131643164316,2500313.2234195,-78.465193524904,2571607.2833808,49.331643164316,0,0
44.212696435553,-17.701910094517,44.136073607361,2500313.2234195,-78.465193524904,2571607.2833808,49.336073607361,0,0
44.212696699924,-17.703290651883,44.140504050405,2500313.2234195,-78.465193524904,2571607.2833808,49.340504050405,0,0
44.212696964295,-17.704671209249,44.144934493449,2500313.2234195,-78.465193524904,2571607.2833808,49.344934493449,0,0
44.212697228666,-17.706051766614,44.149364936494,2500313.2234195,-78.465193524904,2571607.2833808,49.349364936494,0,0
44.212697493038,-17.70743232398,44.153795379538,2500313.2234195,-78.465193524904,2571607.2833808,49.353795379538,0,0
44.212697757409,-17.708812881345,44.158225822582,2500313.2234195,-78.465193524904,2571607.2833808,49.358225822582,0,0
44.21269802178,-17.710193438711,44.162656265627,2500313.2234195,-78.465193524904,2571607.2833808,49.362656265627,0,0
44.212698286151,-17.711573996076,44.167086708671,2500313.2234195,-78.465193524904,2571607.2833808,49.367086708671,0,0
44.212698550522,-17.712954553442,44.171517151715,2500313.2234195,-78.465193524904,2571607.2833808,49.371517151715,0,0
44.212698814893,-17.714335110808,44.175947594759,2500313.2234195,-78.465193524904,2571607.2833808,49.375947594759,0,0
44.212699079264,-17.715715668173,44.180378037804,2500313.2234195,-78.465193524904,2571607.2833808,49.380378037804,0,0
44.212699343635,-17.717096225539,44.184808480848,2500313.2234195,-78.465193524904,2571607.2833808,49.384808480848,0,0
44.212699608006,-17.718476782904,44.189238923892,2500313.2234195,-78.465193524904,2571607.2833808,49.389238923892,0,0
44.212699872377,-17.71985734027,44.193669366937,2500313.2234195,-78.465193524904,2571607.2833808,49.393669366937,0,0
44.212700136748,-17.721237897636,44.198099809981,2500313.2234195,-78.465193524904,2571607.2833808,49.398099809981,0,0
44.212700401119,-17.722618455001,44.202530253025,2500313.2234195,-78.465193524904,2571607.2833808,49.402530253025,0,0
44.21270066549,-17.723999012367,44.20696069607,2500313.2234195,-78.465193524904,2571607.2833808,49.40696069607,0,0
44.212700929861,-17.725379569732,44.211391139114,2500313.2234195,-78.465193524904,2571607.2833808,49.411391139114,0,0
44.212701194232,-17.726760127098,44.215821582158,2500313.2234195,-78.465193524904,2571607.2833808,49.415821582158,0,0
44.212701458603,-17.728140684464,44.220252025203,2500313.2234195,-78.465193524904,2571607.2833808,49.420252025203,0,0
44.212701722974,-17.729521241829,44.224682468247,2500313.2234195,-78.465193524904,2571607.2833808,49.424682468247,0,0
44.212701987345,-17.730901799195,44.229112911291,2500313.2234195,-78.465193524904,2571607.2833808,49.429112911291,0,0
44.212702251716,-17.73228235656,44.233543354335,2500313.2234195,-78.465193524904,2571607.2833808,49.433543354335,0,0
44.212702516087,-17.733662913926,44.23797379738,2500313.2234195,-78.465193524904,2571607.2833808,49.43797379738,0,0
44.212702780458,-17.735043471292,44.242404240424,2500313.2234195,-78.465193524904,2571607.2833808,49.442404240424,0,0
44.212703044829,-17.736424028657,44.246834683468,2500313.2234195,-78.465193524904,2571607.2833808,49.446834683468,0,0
44.2127033092,-17.737804586023,44.251265126513,2500313.2234195,-78.465193524904,2571607.2833808,49.451265126513,0,0
44.212703573572,-17.739185143388,44.255695569557,2500313.2234195,-78.465193524904,2571607.2833808,49.455695569557,0,0
44.212703837943,-17.740565700754,44.260126012601,2500313.2234195,-78.465193524904,2571607.2833808,49.460126012601,0,0
44.212704102314,-17.74194625812,44.264556455646,2500313.2234195,-78.465193524904,2571607.2833808,49.464556455646,0,0
44.212704366685,-17.743326815485,44.26898689869,2500313.2234195,-78.465193524904,2571607.2833808,49.46898689869,0,0
44.212704631056,-17.744707372851,44.273417341734,2500313.2234195,-78.465193524904,2571607.2833808,49.473417341734,0,0
44.212704895427,-17.746087930216,44.277847784778,2500313.2234195,-78.465193524904,2571607.2833808,49.477847784778,0,0
44.212705159798,-17.747468487582,44.282278227823,2500313.2234195,-78.465193524904,2571607.2833808,49.482278227823,0,0
44.212705424169,-17.748849044947,44.286708670867,2500313.2234195,-78.465193524904,2571607.2833808,49.486708670867,0,0
44.21270568854,-17.750229602313,44.291139113911,2500313.2234195,-78.465193524904,2571607.2833808,49.491139113911,0,0
44.212705952911,-17.751610159679,44.295569556956,2500313.2234195,-78.465193524904,2571607.2833808,49.495569556956,0,0
44.212706217282,-17.752990717044,44.3,2500313.2234195,-78.465193524904,2571607.2833808,49.5,0,0
