disp_x,disp_y,id,stress_xx,stress_xy,stress_yy,x,y,z
-183.6519874892,24.373520708092,0,277792.56591202,-39992.604451982,6013370.6160104,5.2,0,0
-183.65198756056,24.34469779389,0.0044304430443045,277792.56591202,-39992.604451982,6013370.6160104,5.2044304430443,0,0
-183.65198763191,24.315874879689,0.008860886088609,277792.56591202,-39992.604451982,6013370.6160104,5.2088608860886,0,0
-183.65198770327,24.287051965488,0.013291329132914,277792.56591202,-39992.604451982,6013370.6160104,5.2132913291329,0,0
-183.65198777462,24.258229051287,0.017721772177218,277792.56591202,-39992.604451982,6013370.6160104,5.2177217721772,0,0
-183.65198784301,24.229406150709,0.022152215221523,257004.09942601,34632.309443623,5790044.9222461,5.2221522152215,0,0
-183.65198791008,24.20058325617,0.026582658265826,257004.09942601,34632.309443623,5790044.9222461,5.2265826582658,0,0
-183.65198797715,24.171760361631,0.031013101310131,257004.09942601,34632.309443623,5790044.9222461,5.2310131013101,0,0
-183.65198804422,24.142937467093,0.035443544354435,257004.09942601,34632.309443623,5790044.9222461,5.2354435443544,0,0
-183.65198811129,24.114114572554,0.03987398739874,257004.09942601,34632.309443623,5790044.9222461,5.2398739873987,0,0
-183.65198817836,24.085291678016,0.044304430443044,257004.09942601,34632.309443623,5790044.9222461,5.244304430443,0,0
-183.65198824543,24.056468783477,0.048734873487349,257004.09942601,34632.309443623,5790044.9222461,5.2487348734873,0,0
-183.6519883125,24.027645888938,0.053165316531653,257004.09942601,34632.309443623,5790044.9222461,5.2531653165317,0,0
-183.65198837957,23.9988229944,0.057595759575958,257004.09942601,34632.309443623,5790044.9222461,5.257595759576,0,0
-183.65198844664,23.970000099861,0.062026202620262,257004.09942601,34632.309443623,5790044.9222461,5.2620262026203,0,0
-183.65198851371,23.941177205322,0.066456645664567,257004.09942601,34632.309443623,5790044.9222461,5.2664566456646,0,0
-183.65198858078,23.912354310784,0.070887088708871,257004.09942601,34632.309443623,5790044.9222461,5.2708870887089,0,0
-183.65198864785,23.883531416245,0.075317531753175,257004.09942601,34632.309443623,5790044.9222461,5.2753175317532,0,0
-183.65198871492,23.854708521707,0.079747974797479,257004.09942601,34632.309443623,5790044.9222461,5.2797479747975,0,0
-183.65198878199,23.825885627168,0.084178417841784,257004.09942601,34632.309443623,5790044.9222461,5.2841784178418,0,0
-183.65198884906,23.797062732629,0.088608860886088,257004.09942601,34632.309443623,5790044.9222461,5.2886088608861,0,0
-183.6519889151,23.768239836475,0.093039303930393,384915.259433,-28544.609240271,5737842.8593483,5.2930393039304,0,0
-183.65198897056,23.739416923667,0.097469746974697,384915.259433,-28544.609240271,5737842.8593483,5.2974697469747,0,0
-183.65198902603,23.710594010859,0.101900190019,384915.259433,-28544.609240271,5737842.8593483,5.301900190019,0,0
-183.65198908149,23.681771098051,0.10633063306331,384915.259433,-28544.609240271,5737842.8593483,5.3063306330633,0,0
-183.65198913695,23.652948185243,0.11076107610761,384915.259433,-28544.609240271,5737842.8593483,5.3107610761076,0,0
-183.65198919242,23.624125272435,0.11519151915192,384915.259433,-28544.609240271,5737842.8593483,5.3151915191519,0,0
-183.65198924788,23.595302359626,0.11962196219622,384915.259433,-28544.609240271,5737842.8593483,5.3196219621962,0,0
-183.65198930334,23.566479446818,0.12405240524052,384915.259433,-28544.609240271,5737842.8593483,5.3240524052405,0,0
-183.6519893588,23.53765653401,0.12848284828483,384915.259433,-28544.609240271,5737842.8593483,5.3284828482848,0,0
-183.65198941427,23.508833621202,0.13291329132913,384915.259433,-28544.609240271,5737842.8593483,5.3329132913291,0,0
-183.65198946973,23.480010708394,0.13734373437344,384915.259433,-28544.609240271,5737842.8593483,5.3373437343734,0,0
-183.65198952519,23.451187795586,0.14177417741774,384915.259433,-28544.609240271,5737842.8593484,5.3417741774177,0,0
-183.65198958066,23.422364882778,0.14620462046205,384915.259433,-28544.609240271,5737842.8593483,5.346204620462,0,0
-183.65198963612,23.393541969969,0.15063506350635,384915.259433,-28544.609240271,5737842.8593484,5.3506350635064,0,0
-183.65198969158,23.364719057161,0.15506550655066,384915.259433,-28544.609240271,5737842.8593484,5.3550655065507,0,0
-183.65198974705,23.335896144353,0.15949594959496,384915.259433,-28544.609240271,5737842.8593484,5.359495949595,0,0
-183.65198980251,23.307073231545,0.16392639263926,384915.259433,-28544.609240271,5737842.8593484,5.3639263926393,0,0
-183.65198985797,23.278250318737,0.16835683568357,384915.259433,-28544.609240271,5737842.8593484,5.3683568356836,0,0
-183.65198991343,23.249427405929,0.17278727872787,384915.259433,-28544.609240271,5737842.8593484,5.3727872787279,0,0
-183.6519899689,23.22060449312,0.17721772177218,384915.259433,-28544.609240271,5737842.8593484,5.3772177217722,0,0
-183.65199002436,23.191781580312,0.18164816481648,384915.259433,-28544.609240271,5737842.8593484,5.3816481648165,0,0
-183.65199007786,23.162958675403,0.18607860786079,386504.84703339,56708.066476858,5535028.6823841,5.3860786078608,0,0
-183.65199012779,23.134135784797,0.19050905090509,386504.84703339,56708.066476858,5535028.6823841,5.3905090509051,0,0
-183.65199017773,23.105312894191,0.19493949394939,386504.84703339,56708.066476858,5535028.6823841,5.3949394939494,0,0
-183.65199022767,23.076490003585,0.1993699369937,386504.84703339,56708.066476858,5535028.6823841,5.3993699369937,0,0
-183.6519902776,23.047667112979,0.203800380038,386504.84703339,56708.066476858,5535028.6823841,5.403800380038,0,0
-183.65199032754,23.018844222373,0.20823082308231,386504.84703339,56708.066476858,5535028.6823841,5.4082308230823,0,0
-183.65199037747,22.990021331768,0.21266126612661,386504.84703339,56708.066476858,5535028.6823841,5.4126612661266,0,0
-183.65199042741,22.961198441162,0.21709170917092,386504.84703339,56708.066476858,5535028.6823841,5.4170917091709,0,0
-183.65199047735,22.932375550556,0.22152215221522,386504.84703339,56708.066476858,5535028.6823841,5.4215221522152,0,0
-183.65199052728,22.90355265995,0.22595259525953,386504.84703339,56708.066476858,5535028.6823841,5.4259525952595,0,0
-183.65199057722,22.874729769344,0.23038303830383,386504.84703339,56708.066476858,5535028.6823841,5.4303830383038,0,0
-183.65199062405,22.845906873483,0.23481348134813,506804.30465945,-10398.45248954,5485539.1235651,5.4348134813481,0,0
-183.65199066306,22.81708396436,0.23924392439244,506804.30465945,-10398.45248954,5485539.1235651,5.4392439243924,0,0
-183.65199070207,22.788261055238,0.24367436743674,506804.30465945,-10398.45248954,5485539.1235651,5.4436743674367,0,0
-183.65199074108,22.759438146115,0.24810481048105,506804.30465945,-10398.45248954,5485539.1235651,5.448104810481,0,0
-183.65199078009,22.730615236993,0.25253525352535,506804.30465945,-10398.45248954,5485539.1235651,5.4525352535254,0,0
-183.6519908191,22.70179232787,0.25696569656966,506804.30465945,-10398.45248954,5485539.1235651,5.4569656965697,0,0
-183.65199085811,22.672969418748,0.26139613961396,506804.30465945,-10398.45248954,5485539.1235651,5.461396139614,0,0
-183.65199089712,22.644146509626,0.26582658265827,506804.30465945,-10398.45248954,5485539.1235651,5.4658265826583,0,0
-183.65199093613,22.615323600503,0.27025702570257,506804.30465945,-10398.45248954,5485539.1235651,5.4702570257026,0,0
-183.65199097514,22.586500691381,0.27468746874687,506804.30465945,-10398.45248954,5485539.1235651,5.4746874687469,0,0
-183.65199101415,22.557677782258,0.27911791179118,506804.30465945,-10398.45248954,5485539.1235651,5.4791179117912,0,0
-183.65199105316,22.528854873136,0.28354835483548,506804.30465945,-10398.45248954,5485539.1235651,5.4835483548355,0,0
-183.65199109217,22.500031964013,0.28797879787979,506804.30465945,-10398.45248954,5485539.1235651,5.4879787978798,0,0
-183.65199113117,22.471209054891,0.29240924092409,506804.30465945,-10398.45248954,5485539.1235651,5.4924092409241,0,0
-183.65199117018,22.442386145768,0.2968396839684,506804.30465945,-10398.45248954,5485539.1235651,5.4968396839684,0,0
-183.65199120919,22.413563236646,0.3012701270127,506804.30465945,-10398.45248954,5485539.1235651,5.5012701270127,0,0
-183.6519912482,22.384740327523,0.30570057005701,506804.30465945,-10398.45248954,5485539.1235651,5.505700570057,0,0
-183.65199128721,22.355917418401,0.31013101310131,506804.30465945,-10398.45248954,5485539.1235651,5.5101310131013,0,0
-183.65199132622,22.327094509278,0.31456145614561,506804.30465945,-10398.45248954,5485539.1235651,5.5145614561456,0,0
-183.65199136523,22.298271600156,0.31899189918992,506804.30465945,-10398.45248954,5485539.1235651,5.5189918991899,0,0
-183.65199140424,22.269448691033,0.32342234223422,506804.30465945,-10398.45248954,5485539.1235651,5.5234223422342,0,0
-183.65199144325,22.240625781911,0.32785278527853,506804.30465945,-10398.45248954,5485539.1235651,5.5278527852785,0,0
-183.65199148226,22.211802872788,0.33228322832283,506804.30465945,-10398.45248954,5485539.1235651,5.5322832283228,0,0
-183.65199152127,22.182979963666,0.33671367136714,506804.30465945,-10398.45248954,5485539.1235651,5.5367136713671,0,0
-183.65199156028,22.154157054543,0.34114411441144,506804.30465945,-10398.45248954,5485539.1235651,5.5411441144114,0,0
-183.65199159929,22.125334145421,0.34557455745575,506804.30465945,-10398.45248954,5485539.1235651,5.5455745574557,0,0
-183.6519916383,22.096511236298,0.35000500050005,506804.30465945,-10398.45248954,5485539.1235651,5.5500050005001,0,0
-183.65199167495,22.067688335101,0.35443544354435,519711.6718864,62217.958297879,5302087.7221843,5.5544354435444,0,0
-183.65199170805,22.038865445899,0.35886588658866,519711.6718864,62217.958297879,5302087.7221843,5.5588658865887,0,0
-183.65199174114,22.010042556698,0.36329632963296,519711.6718864,62217.958297879,5302087.7221843,5.563296329633,0,0
-183.65199177423,21.981219667496,0.36772677267727,519711.6718864,62217.958297879,5302087.7221843,5.5677267726773,0,0
-183.65199180733,21.952396778294,0.37215721572157,519711.6718864,62217.958297879,5302087.7221843,5.5721572157216,0,0
-183.65199184042,21.923573889093,0.37658765876588,519711.6718864,62217.958297879,5302087.7221843,5.5765876587659,0,0
-183.65199187352,21.894750999891,0.38101810181018,519711.6718864,62217.958297879,5302087.7221843,5.5810181018102,0,0
-183.65199190515,21.865928108126,0.38544854485449,622933.60768308,1118.5811035829,5257470.6019914,5.5854485448545,0,0
-183.65199192881,21.837105202324,0.38987898789879,622933.60768308,1118.5811035829,5257470.6019914,5.5898789878988,0,0
-183.65199195248,21.808282296521,0.39430943094309,622933.60768308,1118.5811035829,5257470.6019914,5.5943094309431,0,0
-183.65199197614,21.779459390718,0.3987398739874,622933.60768308,1118.5811035829,5257470.6019914,5.5987398739874,0,0
-183.6519919998,21.750636484916,0.4031703170317,622933.60768308,1118.5811035829,5257470.6019914,5.6031703170317,0,0
-183.65199202346,21.721813579113,0.40760076007601,622933.60768308,1118.5811035829,5257470.6019914,5.607600760076,0,0
-183.65199204712,21.69299067331,0.41203120312031,622933.60768308,1118.5811035829,5257470.6019914,5.6120312031203,0,0
-183.65199207078,21.664167767508,0.41646164616462,622933.60768308,1118.5811035829,5257470.6019914,5.6164616461646,0,0
-183.65199209444,21.635344861705,0.42089208920892,622933.60768308,1118.5811035829,5257470.6019914,5.6208920892089,0,0
-183.6519921181,21.606521955902,0.42532253225323,622933.60768308,1118.5811035829,5257470.6019914,5.6253225322532,0,0
-183.65199214176,21.5776990501,0.42975297529753,622933.60768308,1118.5811035829,5257470.6019914,5.6297529752975,0,0
-183.65199216543,21.548876144297,0.43418341834183,622933.60768308,1118.5811035829,5257470.6019914,5.6341834183418,0,0
-183.65199218909,21.520053238494,0.43861386138614,622933.60768308,1118.5811035829,5257470.6019914,5.6386138613861,0,0
-183.65199221275,21.491230332692,0.44304430443044,622933.60768308,1118.5811035829,5257470.6019914,5.6430443044304,0,0
-183.65199223641,21.462407426889,0.44747474747475,622933.60768308,1118.5811035829,5257470.6019914,5.6474747474747,0,0
-183.65199226007,21.433584521086,0.45190519051905,622933.60768308,1118.5811035829,5257470.6019914,5.6519051905191,0,0
-183.65199228373,21.404761615284,0.45633563356336,622933.60768308,1118.5811035829,5257470.6019914,5.6563356335634,0,0
-183.65199230739,21.375938709481,0.46076607660766,622933.60768308,1118.5811035829,5257470.6019914,5.6607660766077,0,0
-183.65199233105,21.347115803679,0.46519651965196,622933.60768308,1118.5811035829,5257470.6019914,5.665196519652,0,0
-183.65199235471,21.318292897876,0.46962696269627,622933.60768308,1118.5811035829,5257470.6019914,5.6696269626963,0,0
-183.65199237838,21.289469992073,0.47405740574057,622933.60768308,1118.5811035829,5257470.6019914,5.6740574057406,0,0
-183.65199240204,21.260647086271,0.47848784878488,622933.60768308,1118.5811035829,5257470.6019914,5.6784878487849,0,0
-183.6519924257,21.231824180468,0.48291829182918,622933.60768308,1118.5811035829,5257470.6019914,5.6829182918292,0,0
-183.65199244936,21.203001274665,0.48734873487349,622933.60768308,1118.5811035829,5257470.6019914,5.6873487348735,0,0
-183.65199247302,21.174178368863,0.49177917791779,622933.60768308,1118.5811035829,5257470.6019914,5.6917791779178,0,0
-183.65199249668,21.14535546306,0.4962096209621,622933.60768308,1118.5811035829,5257470.6019914,5.6962096209621,0,0
-183.65199252034,21.116532557257,0.5006400640064,622933.60768308,1118.5811035829,5257470.6019914,5.7006400640064,0,0
-183.651992544,21.087709651455,0.50507050705071,622933.60768308,1118.5811035829,5257470.6019914,5.7050705070507,0,0
-183.65199256766,21.058886745652,0.50950095009501,622933.60768308,1118.5811035829,5257470.6019914,5.709500950095,0,0
-183.65199259132,21.030063839849,0.51393139313931,622933.60768308,1118.5811035829,5257470.6019914,5.7139313931393,0,0
-183.65199261499,21.001240934047,0.51836183618362,622933.60768308,1118.5811035829,5257470.6019914,5.7183618361836,0,0
-183.65199263865,20.972418028244,0.52279227922792,622933.60768308,1118.5811035829,5257470.6019914,5.7227922792279,0,0
-183.65199266231,20.943595122441,0.52722272227223,622933.60768308,1118.5811035829,5257470.6019914,5.7272227222722,0,0
-183.65199268597,20.914772216639,0.53165316531653,622933.60768308,1118.5811035829,5257470.6019914,5.7316531653165,0,0
-183.65199270593,20.885949322962,0.53608360836084,631929.8341441,64124.365524094,5080010.8987278,5.7360836083608,0,0
-183.65199272414,20.857126434982,0.54051405140514,631929.8341441,64124.365524094,5080010.8987278,5.7405140514051,0,0
-183.65199273547,20.828303534809,0.54494449444945,721775.75013257,10449.554320075,5028960.7526724,5.7449444944494,0,0
-183.65199274515,20.799480631737,0.54937493749375,721775.75013257,10449.554320075,5028960.7526724,5.7493749374937,0,0
-183.65199275483,20.770657728665,0.55380538053805,721775.75013257,10449.554320075,5028960.7526724,5.7538053805381,0,0
-183.65199276451,20.741834825593,0.55823582358236,721775.75013257,10449.554320075,5028960.7526724,5.7582358235824,0,0
-183.65199277419,20.713011922522,0.56266626662666,721775.75013257,10449.554320075,5028960.7526724,5.7626662666267,0,0
-183.65199278387,20.68418901945,0.56709670967097,721775.75013257,10449.554320075,5028960.7526724,5.767096709671,0,0
-183.65199279356,20.655366116378,0.57152715271527,721775.75013257,10449.554320075,5028960.7526724,5.7715271527153,0,0
-183.65199280324,20.626543213306,0.57595759575958,721775.75013257,10449.554320075,5028960.7526724,5.7759575957596,0,0
-183.65199281292,20.597720310234,0.58038803880388,721775.75013257,10449.554320075,5028960.7526724,5.7803880388039,0,0
-183.6519928226,20.568897407162,0.58481848184818,721775.75013257,10449.554320075,5028960.7526724,5.7848184818482,0,0
-183.65199283228,20.54007450409,0.58924892489249,721775.75013257,10449.554320075,5028960.7526724,5.7892489248925,0,0
-183.65199284197,20.511251601018,0.59367936793679,721775.75013257,10449.554320075,5028960.7526724,5.7936793679368,0,0
-183.65199285184,20.482428697385,0.5981098109811,672368.73999718,-9892.3252107853,4894943.7303054,5.7981098109811,0,0
-183.6519928619,20.453605793215,0.6025402540254,672368.73999718,-9892.3252107853,4894943.7303054,5.8025402540254,0,0
-183.65199287196,20.424782889046,0.60697069706971,672368.73999718,-9892.3252107853,4894943.7303054,5.8069706970697,0,0
-183.65199288202,20.395959984876,0.61140114011401,672368.73999718,-9892.3252107853,4894943.7303054,5.811401140114,0,0
-183.65199289208,20.367137080707,0.61583158315832,672368.73999718,-9892.3252107853,4894943.7303054,5.8158315831583,0,0
-183.65199290214,20.338314176538,0.62026202620262,672368.73999718,-9892.3252107853,4894943.7303054,5.8202620262026,0,0
-183.6519929122,20.309491272368,0.62469246924692,672368.73999718,-9892.3252107853,4894943.7303054,5.8246924692469,0,0
-183.65199292226,20.280668368199,0.62912291229123,672368.73999718,-9892.3252107853,4894943.7303054,5.8291229122912,0,0
-183.65199293232,20.251845464029,0.63355335533553,672368.73999718,-9892.3252107853,4894943.7303054,5.8335533553355,0,0
-183.65199294238,20.22302255986,0.63798379837984,672368.73999718,-9892.3252107853,4894943.7303054,5.8379837983798,0,0
-183.65199295244,20.194199655691,0.64241424142414,672368.73999718,-9892.3252107853,4894943.7303054,5.8424142414241,0,0
-183.6519929625,20.165376751521,0.64684468446845,672368.73999718,-9892.3252107853,4894943.7303054,5.8468446844684,0,0
-183.65199297256,20.136553847352,0.65127512751275,672368.73999718,-9892.3252107853,4894943.7303054,5.8512751275128,0,0
-183.65199298262,20.107730943182,0.65570557055706,672368.73999718,-9892.3252107853,4894943.7303054,5.8557055705571,0,0
-183.65199299268,20.078908039013,0.66013601360136,672368.73999718,-9892.3252107853,4894943.7303054,5.8601360136014,0,0
-183.65199300274,20.050085134843,0.66456645664566,672368.73999718,-9892.3252107853,4894943.7303054,5.8645664566457,0,0
-183.6519930128,20.021262230674,0.66899689968997,672368.73999718,-9892.3252107853,4894943.7303054,5.86899689969,0,0
-183.65199302286,19.992439326505,0.67342734273427,672368.73999718,-9892.3252107853,4894943.7303054,5.8734273427343,0,0
-183.65199303292,19.963616422335,0.67785778577858,672368.73999718,-9892.3252107853,4894943.7303054,5.8778577857786,0,0
-183.65199304298,19.934793518166,0.68228822882288,672368.73999718,-9892.3252107853,4894943.7303054,5.8822882288229,0,0
-183.65199305304,19.905970613996,0.68671867186719,672368.73999718,-9892.3252107853,4894943.7303054,5.8867186718672,0,0
-183.6519930631,19.877147709827,0.69114911491149,672368.73999718,-9892.3252107853,4894943.7303054,5.8911491149115,0,0
-183.6519930689,19.848324802112,0.6955795579558,821115.47842942,-42621.937491276,4919911.0841801,5.8955795579558,0,0
-183.65199306775,19.819501888609,0.7000100010001,821115.47842942,-42621.937491276,4919911.0841801,5.9000100010001,0,0
-183.65199306659,19.790678975105,0.7044404440444,821115.47842942,-42621.937491276,4919911.0841801,5.9044404440444,0,0
-183.65199306543,19.761856061602,0.70887088708871,821115.47842942,-42621.937491276,4919911.0841801,5.9088708870887,0,0
-183.65199306428,19.733033148098,0.71330133013301,821115.47842942,-42621.937491276,4919911.0841801,5.913301330133,0,0
-183.65199306312,19.704210234595,0.71773177317732,821115.47842942,-42621.937491276,4919911.0841801,5.9177317731773,0,0
-183.65199306223,19.675387323987,0.72216221622162,760365.73516831,-11027.455293515,4757544.8172029,5.9221622162216,0,0
-183.65199306161,19.646564416153,0.72659265926593,760365.73516831,-11027.455293515,4757544.8172029,5.9265926592659,0,0
-183.65199306098,19.61774150832,0.73102310231023,760365.73516831,-11027.455293515,4757544.8172029,5.9310231023102,0,0
-183.65199306035,19.588918600486,0.73545354535454,760365.73516831,-11027.455293515,4757544.8172029,5.9354535453545,0,0
-183.65199305972,19.560095692652,0.73988398839884,760365.73516831,-11027.455293515,4757544.8172029,5.9398839883988,0,0
-183.6519930591,19.531272784818,0.74431443144314,760365.73516831,-11027.455293515,4757544.8172029,5.9443144314431,0,0
-183.65199305847,19.502449876985,0.74874487448745,760365.73516831,-11027.455293515,4757544.8172029,5.9487448744874,0,0
-183.65199305784,19.473626969151,0.75317531753175,760365.73516831,-11027.455293515,4757544.8172029,5.9531753175318,0,0
-183.65199305722,19.444804061317,0.75760576057606,760365.73516831,-11027.455293515,4757544.8172029,5.9576057605761,0,0
-183.65199305659,19.415981153483,0.76203620362036,760365.73516831,-11027.455293515,4757544.8172029,5.9620362036204,0,0
-183.65199305596,19.38715824565,0.76646664666467,760365.73516831,-11027.455293515,4757544.8172029,5.9664666466647,0,0
-183.65199305534,19.358335337816,0.77089708970897,760365.73516831,-11027.455293515,4757544.8172029,5.970897089709,0,0
-183.65199305471,19.329512429982,0.77532753275328,760365.73516831,-11027.455293515,4757544.8172029,5.9753275327533,0,0
-183.65199305408,19.300689522148,0.77975797579758,760365.73516831,-11027.455293515,4757544.8172029,5.9797579757976,0,0
-183.65199305345,19.271866614315,0.78418841884188,760365.73516831,-11027.455293515,4757544.8172029,5.9841884188419,0,0
-183.65199305283,19.243043706481,0.78861886188619,760365.73516831,-11027.455293515,4757544.8172029,5.9886188618862,0,0
-183.6519930522,19.214220798647,0.79304930493049,760365.73516831,-11027.455293515,4757544.8172029,5.9930493049305,0,0
-183.65199305157,19.185397890813,0.7974797479748,760365.73516831,-11027.455293515,4757544.8172029,5.9974797479748,0,0
-183.65199305095,19.15657498298,0.8019101910191,760365.73516831,-11027.455293515,4757544.8172029,6.0019101910191,0,0
-183.65199305032,19.127752075146,0.80634063406341,760365.73516831,-11027.455293515,4757544.8172029,6.0063406340634,0,0
-183.65199304969,19.098929167312,0.81077107710771,760365.73516831,-11027.455293515,4757544.8172029,6.0107710771077,0,0
-183.65199304906,19.070106259479,0.81520152015201,760365.73516831,-11027.455293515,4757544.8172029,6.015201520152,0,0
-183.65199304844,19.041283351645,0.81963196319632,760365.73516831,-11027.455293515,4757544.8172029,6.0196319631963,0,0
-183.65199304781,19.012460443811,0.82406240624062,760365.73516831,-11027.455293515,4757544.8172029,6.0240624062406,0,0
-183.65199304718,18.983637535977,0.82849284928493,760365.73516831,-11027.455293515,4757544.8172029,6.0284928492849,0,0
-183.65199304656,18.954814628144,0.83292329232923,760365.73516831,-11027.455293515,4757544.8172029,6.0329232923292,0,0
-183.65199304593,18.92599172031,0.83735373537354,760365.73516831,-11027.455293515,4757544.8172029,6.0373537353735,0,0
-183.6519930453,18.897168812476,0.84178417841784,760365.73516831,-11027.455293515,4757544.8172029,6.0417841784178,0,0
-183.65199304467,18.868345904642,0.84621462146215,760365.73516831,-11027.455293515,4757544.8172029,6.0462146214621,0,0
-183.65199304308,18.839522998631,0.85064506450645,844410.74508732,44847.205326732,4704837.1168489,6.0506450645065,0,0
-183.65199303434,18.810700106115,0.85507550755076,844410.74508732,44847.205326732,4704837.1168489,6.0550755075508,0,0
-183.65199302559,18.7818772136,0.85950595059506,844410.74508732,44847.205326732,4704837.1168489,6.0595059505951,0,0
-183.65199301685,18.753054321084,0.86393639363936,844410.74508732,44847.205326732,4704837.1168489,6.0639363936394,0,0
-183.65199300811,18.724231428568,0.86836683668367,844410.74508732,44847.205326732,4704837.1168489,6.0683668366837,0,0
-183.65199299936,18.695408536052,0.87279727972797,844410.74508732,44847.205326732,4704837.1168489,6.072797279728,0,0
-183.65199299062,18.666585643536,0.87722772277228,844410.74508732,44847.205326732,4704837.1168489,6.0772277227723,0,0
-183.65199298188,18.63776275102,0.88165816581658,844410.74508732,44847.205326732,4704837.1168489,6.0816581658166,0,0
-183.65199297313,18.608939858505,0.88608860886089,844410.74508732,44847.205326732,4704837.1168489,6.0860886088609,0,0
-183.65199296439,18.580116965989,0.89051905190519,844410.74508732,44847.205326732,4704837.1168489,6.0905190519052,0,0
-183.65199295565,18.551294073473,0.8949494949495,844410.74508732,44847.205326732,4704837.1168489,6.0949494949495,0,0
-183.6519929469,18.522471180957,0.8993799379938,844410.74508732,44847.205326732,4704837.1168489,6.0993799379938,0,0
-183.65199293816,18.493648288441,0.9038103810381,844410.74508732,44847.205326732,4704837.1168489,6.1038103810381,0,0
-183.65199292941,18.464825395925,0.90824082408241,844410.74508732,44847.205326732,4704837.1168489,6.1082408240824,0,0
-183.65199292067,18.43600250341,0.91267126712671,844410.74508732,44847.205326732,4704837.1168489,6.1126712671267,0,0
-183.65199291193,18.407179610894,0.91710171017102,844410.74508732,44847.205326732,4704837.1168489,6.117101710171,0,0
-183.65199290318,18.378356718378,0.92153215321532,844410.74508732,44847.205326732,4704837.1168489,6.1215321532153,0,0
-183.65199289444,18.349533825862,0.92596259625963,844410.74508732,44847.205326732,4704837.1168489,6.1259625962596,0,0
-183.6519928857,18.320710933346,0.93039303930393,844410.74508732,44847.205326732,4704837.1168489,6.1303930393039,0,0
-183.65199287695,18.29188804083,0.93482348234823,844410.74508732,44847.205326732,4704837.1168489,6.1348234823482,0,0
-183.65199286668,18.263065144558,0.93925392539254,892587.31291466,-17031.384602433,4574951.3402416,6.1392539253925,0,0
-183.65199285063,18.234242234112,0.94368436843684,892587.31291466,-17031.384602433,4574951.3402416,6.1436843684368,0,0
-183.65199283458,18.205419323665,0.94811481148115,892587.31291466,-17031.384602433,4574951.3402416,6.1481148114811,0,0
-183.65199281853,18.176596413219,0.95254525452545,892587.31291466,-17031.384602433,4574951.3402416,6.1525452545255,0,0
-183.65199280248,18.147773502773,0.95697569756976,892587.31291466,-17031.384602433,4574951.3402416,6.1569756975698,0,0
-183.65199278643,18.118950592326,0.96140614061406,892587.31291466,-17031.384602433,4574951.3402416,6.1614061406141,0,0
-183.65199277038,18.09012768188,0.96583658365837,892587.31291466,-17031.384602433,4574951.3402416,6.1658365836584,0,0
-183.65199275433,18.061304771434,0.97026702670267,892587.31291466,-17031.384602433,4574951.3402416,6.1702670267027,0,0
-183.65199273828,18.032481860988,0.97469746974697,892587.31291466,-17031.384602433,4574951.3402416,6.174697469747,0,0
-183.65199272223,18.003658950541,0.97912791279128,892587.31291466,-17031.384602433,4574951.3402416,6.1791279127913,0,0
-183.65199270618,17.974836040095,0.98355835583558,892587.31291466,-17031.384602433,4574951.3402416,6.1835583558356,0,0
-183.65199269013,17.946013129649,0.98798879887989,892587.31291466,-17031.384602433,4574951.3402416,6.1879887988799,0,0
-183.65199267408,17.917190219202,0.99241924192419,892587.31291466,-17031.384602433,4574951.3402416,6.1924192419242,0,0
-183.65199265803,17.888367308756,0.9968496849685,892587.31291466,-17031.384602433,4574951.3402416,6.1968496849685,0,0
-183.65199264198,17.85954439831,1.0012801280128,892587.31291466,-17031.384602433,4574951.3402416,6.2012801280128,0,0
-183.65199262593,17.830721487863,1.0057105710571,892587.31291466,-17031.384602433,4574951.3402416,6.2057105710571,0,0
-183.65199260988,17.801898577417,1.0101410141014,892587.31291466,-17031.384602433,4574951.3402416,6.2101410141014,0,0
-183.65199259383,17.773075666971,1.0145714571457,892587.31291466,-17031.384602433,4574951.3402416,6.2145714571457,0,0
-183.65199257778,17.744252756524,1.01900190019,892587.31291466,-17031.384602433,4574951.3402416,6.21900190019,0,0
-183.65199256173,17.715429846078,1.0234323432343,892587.31291466,-17031.384602433,4574951.3402416,6.2234323432343,0,0
-183.65199254568,17.686606935632,1.0278627862786,892587.31291466,-17031.384602433,4574951.3402416,6.2278627862786,0,0
-183.65199252963,17.657784025185,1.0322932293229,892587.31291466,-17031.384602433,4574951.3402416,6.2322932293229,0,0
-183.65199251358,17.628961114739,1.0367236723672,892587.31291466,-17031.384602433,4574951.3402416,6.2367236723672,0,0
-183.65199249753,17.600138204293,1.0411541154115,892587.31291466,-17031.384602433,4574951.3402416,6.2411541154115,0,0
-183.65199248148,17.571315293846,1.0455845584558,892587.31291466,-17031.384602433,4574951.3402416,6.2455845584558,0,0
-183.65199246543,17.5424923834,1.0500150015002,892587.31291466,-17031.384602433,4574951.3402416,6.2500150015002,0,0
-183.65199244938,17.513669472954,1.0544454445445,892587.31291466,-17031.384602433,4574951.3402416,6.2544454445445,0,0
-183.65199243333,17.484846562507,1.0588758875888,892587.31291466,-17031.384602433,4574951.3402416,6.2588758875888,0,0
-183.65199241728,17.456023652061,1.0633063306331,892587.31291466,-17031.384602433,4574951.3402416,6.2633063306331,0,0
-183.65199240123,17.427200741615,1.0677367736774,892587.31291466,-17031.384602433,4574951.3402416,6.2677367736774,0,0
-183.65199238518,17.398377831168,1.0721672167217,892587.31291466,-17031.384602433,4574951.3402416,6.2721672167217,0,0
-183.65199236913,17.369554920722,1.076597659766,892587.31291466,-17031.384602433,4574951.3402416,6.276597659766,0,0
-183.65199235308,17.340732010276,1.0810281028103,892587.31291466,-17031.384602433,4574951.3402416,6.2810281028103,0,0
-183.65199233703,17.31190909983,1.0854585458546,892587.31291466,-17031.384602433,4574951.3402416,6.2854585458546,0,0
-183.65199232098,17.283086189383,1.0898889888989,892587.31291466,-17031.384602433,4574951.3402416,6.2898889888989,0,0
-183.65199230493,17.254263278937,1.0943194319432,892587.31291466,-17031.384602433,4574951.3402416,6.2943194319432,0,0
-183.65199228888,17.225440368491,1.0987498749875,892587.31291466,-17031.384602433,4574951.3402416,6.2987498749875,0,0
-183.65199227283,17.196617458044,1.1031803180318,892587.31291466,-17031.384602433,4574951.3402416,6.3031803180318,0,0
-183.6519922515,17.167794562546,1.1076107610761,922571.80529487,41277.290039261,4449525.961154,6.3076107610761,0,0
-183.65199222972,17.138971668339,1.1120412041204,922571.80529487,41277.290039261,4449525.961154,6.3120412041204,0,0
-183.65199220793,17.110148774132,1.1164716471647,922571.80529487,41277.290039261,4449525.961154,6.3164716471647,0,0
-183.65199218615,17.081325879925,1.120902090209,922571.80529487,41277.290039261,4449525.961154,6.320902090209,0,0
-183.65199216436,17.052502985719,1.1253325332533,922571.80529487,41277.290039261,4449525.961154,6.3253325332533,0,0
-183.65199214258,17.023680091512,1.1297629762976,922571.80529487,41277.290039261,4449525.961154,6.3297629762976,0,0
-183.65199212079,16.994857197305,1.1341934193419,922571.80529487,41277.290039261,4449525.961154,6.3341934193419,0,0
-183.65199209901,16.966034303098,1.1386238623862,922571.80529487,41277.290039261,4449525.961154,6.3386238623862,0,0
-183.65199207722,16.937211408891,1.1430543054305,922571.80529487,41277.290039261,4449525.961154,6.3430543054305,0,0
-183.65199205544,16.908388514685,1.1474847484748,922571.80529487,41277.290039261,4449525.961154,6.3474847484748,0,0
-183.65199203366,16.879565620478,1.1519151915192,922571.80529487,41277.290039261,4449525.961154,6.3519151915192,0,0
-183.65199201187,16.850742726271,1.1563456345635,922571.80529487,41277.290039261,4449525.961154,6.3563456345635,0,0
-183.65199199009,16.821919832064,1.1607760776078,922571.80529487,41277.290039261,4449525.961154,6.3607760776078,0,0
-183.6519919683,16.793096937857,1.1652065206521,922571.80529487,41277.290039261,4449525.961154,6.3652065206521,0,0
-183.65199194652,16.764274043651,1.1696369636964,922571.80529487,41277.290039261,4449525.961154,6.3696369636964,0,0
-183.65199192473,16.735451149444,1.1740674067407,922571.80529487,41277.290039261,4449525.961154,6.3740674067407,0,0
-183.65199190295,16.706628255237,1.178497849785,922571.80529487,41277.290039261,4449525.961154,6.378497849785,0,0
-183.65199188116,16.67780536103,1.1829282928293,922571.80529487,41277.290039261,4449525.961154,6.3829282928293,0,0
-183.65199185938,16.648982466823,1.1873587358736,922571.80529487,41277.290039261,4449525.961154,6.3873587358736,0,0
-183.65199183606,16.620159568538,1.1917891789179,969558.51289408,-19853.231476645,4363494.3671793,6.3917891789179,0,0
-183.65199180823,16.591336658256,1.1962196219622,969558.51289408,-19853.231476645,4363494.3671793,6.3962196219622,0,0
-183.65199178041,16.562513747974,1.2006500650065,969558.51289408,-19853.231476645,4363494.3671793,6.4006500650065,0,0
-183.65199175258,16.533690837693,1.2050805080508,969558.51289408,-19853.231476645,4363494.3671793,6.4050805080508,0,0
-183.65199172475,16.504867927411,1.2095109510951,969558.51289408,-19853.231476645,4363494.3671793,6.4095109510951,0,0
-183.65199169692,16.476045017129,1.2139413941394,969558.51289408,-19853.231476645,4363494.3671793,6.4139413941394,0,0
-183.65199166909,16.447222106847,1.2183718371837,969558.51289408,-19853.231476645,4363494.3671793,6.4183718371837,0,0
-183.65199164126,16.418399196566,1.222802280228,969558.51289408,-19853.231476645,4363494.3671793,6.422802280228,0,0
-183.65199161344,16.389576286284,1.2272327232723,969558.51289408,-19853.231476645,4363494.3671793,6.4272327232723,0,0
-183.65199158561,16.360753376002,1.2316631663166,969558.51289408,-19853.231476645,4363494.3671793,6.4316631663166,0,0
-183.65199155778,16.331930465721,1.2360936093609,969558.51289408,-19853.231476645,4363494.3671793,6.4360936093609,0,0
-183.65199152995,16.303107555439,1.2405240524052,969558.51289408,-19853.231476645,4363494.3671793,6.4405240524052,0,0
-183.65199150212,16.274284645157,1.2449544954495,969558.51289408,-19853.231476645,4363494.3671793,6.4449544954495,0,0
-183.65199147429,16.245461734875,1.2493849384938,969558.51289408,-19853.231476645,4363494.3671793,6.4493849384938,0,0
-183.65199144647,16.216638824594,1.2538153815382,969558.51289408,-19853.231476645,4363494.3671793,6.4538153815382,0,0
-183.65199141864,16.187815914312,1.2582458245825,969558.51289408,-19853.231476645,4363494.3671793,6.4582458245825,0,0
-183.65199139081,16.15899300403,1.2626762676268,969558.51289408,-19853.231476645,4363494.3671793,6.4626762676268,0,0
-183.65199136298,16.130170093749,1.2671067106711,969558.51289408,-19853.231476645,4363494.3671793,6.4671067106711,0,0
-183.65199133515,16.101347183467,1.2715371537154,969558.51289408,-19853.231476645,4363494.3671793,6.4715371537154,0,0
-183.65199130733,16.072524273185,1.2759675967597,969558.51289408,-19853.231476645,4363494.3671793,6.4759675967597,0,0
-183.6519912795,16.043701362903,1.280398039804,969558.51289408,-19853.231476645,4363494.3671793,6.480398039804,0,0
-183.65199125167,16.014878452622,1.2848284828483,969558.51289408,-19853.231476645,4363494.3671793,6.4848284828483,0,0
-183.65199122384,15.98605554234,1.2892589258926,969558.51289408,-19853.231476645,4363494.3671793,6.4892589258926,0,0
-183.65199119601,15.957232632058,1.2936893689369,969558.51289408,-19853.231476645,4363494.3671793,6.4936893689369,0,0
-183.65199116818,15.928409721777,1.2981198119812,969558.51289408,-19853.231476645,4363494.3671793,6.4981198119812,0,0
-183.65199114036,15.899586811495,1.3025502550255,969558.51289408,-19853.231476645,4363494.3671793,6.5025502550255,0,0
-183.65199111253,15.870763901213,1.3069806980698,969558.51289408,-19853.231476645,4363494.3671793,6.5069806980698,0,0
-183.6519910847,15.841940990931,1.3114111411141,969558.51289408,-19853.231476645,4363494.3671793,6.5114111411141,0,0
-183.65199105687,15.81311808065,1.3158415841584,969558.51289408,-19853.231476645,4363494.3671793,6.5158415841584,0,0
-183.65199102904,15.784295170368,1.3202720272027,969558.51289408,-19853.231476645,4363494.3671793,6.5202720272027,0,0
-183.65199100122,15.755472260086,1.324702470247,969558.51289408,-19853.231476645,4363494.3671793,6.524702470247,0,0
-183.65199097339,15.726649349805,1.3291329132913,969558.51289408,-19853.231476645,4363494.3671793,6.5291329132913,0,0
-183.65199094556,15.697826439523,1.3335633563356,969558.51289408,-19853.231476645,4363494.3671793,6.5335633563356,0,0
-183.65199091773,15.669003529241,1.3379937993799,969558.51289408,-19853.231476645,4363494.3671793,6.5379937993799,0,0
-183.6519908899,15.64018061896,1.3424242424242,969558.51289408,-19853.231476645,4363494.3671793,6.5424242424242,0,0
-183.65199086199,15.611357708913,1.3468546854685,1006581.3836422,38301.773513467,4273061.3883509,6.5468546854685,0,0
-183.6519908288,15.582534813902,1.3512851285129,1006581.3836422,38301.773513467,4273061.3883509,6.5512851285129,0,0
-183.65199079561,15.553711918892,1.3557155715572,1006581.3836422,38301.773513467,4273061.3883509,6.5557155715572,0,0
-183.65199076241,15.524889023881,1.3601460146015,1006581.3836422,38301.773513467,4273061.3883509,6.5601460146015,0,0
-183.65199072922,15.496066128871,1.3645764576458,1006581.3836422,38301.773513467,4273061.3883509,6.5645764576458,0,0
-183.65199069603,15.46724323386,1.3690069006901,1006581.3836422,38301.773513467,4273061.3883509,6.5690069006901,0,0
-183.65199066283,15.438420338849,1.3734373437344,1006581.3836422,38301.773513467,4273061.3883509,6.5734373437344,0,0
-183.65199062964,15.409597443839,1.3778677867787,1006581.3836422,38301.773513467,4273061.3883509,6.5778677867787,0,0
-183.65199059645,15.380774548828,1.382298229823,1006581.3836422,38301.773513467,4273061.3883509,6.582298229823,0,0
-183.65199056325,15.351951653818,1.3867286728673,1006581.3836422,38301.773513467,4273061.3883509,6.5867286728673,0,0
-183.65199053006,15.323128758807,1.3911591159116,1006581.3836422,38301.773513467,4273061.3883509,6.5911591159116,0,0
-183.65199049687,15.294305863797,1.3955895589559,1006581.3836422,38301.773513467,4273061.3883509,6.5955895589559,0,0
-183.65199046367,15.265482968786,1.4000200020002,1006581.3836422,38301.773513467,4273061.3883509,6.6000200020002,0,0
-183.65199043048,15.236660073776,1.4044504450445,1006581.3836422,38301.773513467,4273061.3883509,6.6044504450445,0,0
-183.65199039729,15.207837178765,1.4088808880888,1006581.3836422,38301.773513467,4273061.3883509,6.6088808880888,0,0
-183.65199036409,15.179014283754,1.4133113311331,1006581.3836422,38301.773513467,4273061.3883509,6.6133113311331,0,0
-183.6519903309,15.150191388744,1.4177417741774,1006581.3836422,38301.773513467,4273061.3883509,6.6177417741774,0,0
-183.65199029771,15.121368493733,1.4221722172217,1006581.3836422,38301.773513467,4273061.3883509,6.6221722172217,0,0
-183.65199026451,15.092545598723,1.426602660266,1006581.3836422,38301.773513467,4273061.3883509,6.626602660266,0,0
-183.65199023132,15.063722703712,1.4310331033103,1006581.3836422,38301.773513467,4273061.3883509,6.6310331033103,0,0
-183.65199019813,15.034899808702,1.4354635463546,1006581.3836422,38301.773513467,4273061.3883509,6.6354635463546,0,0
-183.65199016493,15.006076913691,1.4398939893989,1006581.3836422,38301.773513467,4273061.3883509,6.6398939893989,0,0
-183.65199013174,14.977254018681,1.4443244324432,1006581.3836422,38301.773513467,4273061.3883509,6.6443244324432,0,0
-183.65199009755,14.948431120214,1.4487548754875,1029407.7779508,-26477.130672902,4162817.8134306,6.6487548754875,0,0
-183.6519900596,14.919608208692,1.4531853185319,1029407.7779508,-26477.130672902,4162817.8134306,6.6531853185319,0,0
-183.65199002165,14.89078529717,1.4576157615762,1029407.7779508,-26477.130672902,4162817.8134306,6.6576157615762,0,0
-183.6519899837,14.861962385649,1.4620462046205,1029407.7779508,-26477.130672902,4162817.8134306,6.6620462046205,0,0
-183.65198994574,14.833139474127,1.4664766476648,1029407.7779508,-26477.130672902,4162817.8134306,6.6664766476648,0,0
-183.65198990779,14.804316562606,1.4709070907091,1029407.7779508,-26477.130672902,4162817.8134306,6.6709070907091,0,0
-183.65198986984,14.775493651084,1.4753375337534,1029407.7779508,-26477.130672902,4162817.8134306,6.6753375337534,0,0
-183.65198983189,14.746670739562,1.4797679767977,1029407.7779508,-26477.130672902,4162817.8134306,6.6797679767977,0,0
-183.65198979394,14.717847828041,1.484198419842,1029407.7779508,-26477.130672902,4162817.8134306,6.684198419842,0,0
-183.65198975598,14.689024916519,1.4886288628863,1029407.7779508,-26477.130672902,4162817.8134306,6.6886288628863,0,0
-183.65198971803,14.660202004998,1.4930593059306,1029407.7779508,-26477.130672902,4162817.8134306,6.6930593059306,0,0
-183.65198968008,14.631379093476,1.4974897489749,1029407.7779508,-26477.130672902,4162817.8134306,6.6974897489749,0,0
-183.65198964213,14.602556181954,1.5019201920192,1029407.7779508,-26477.130672902,4162817.8134306,6.7019201920192,0,0
-183.65198960418,14.573733270433,1.5063506350635,1029407.7779508,-26477.130672902,4162817.8134306,6.7063506350635,0,0
-183.65198956623,14.544910358911,1.5107810781078,1029407.7779508,-26477.130672902,4162817.8134306,6.7107810781078,0,0
-183.65198952827,14.516087447389,1.5152115211521,1029407.7779508,-26477.130672902,4162817.8134306,6.7152115211521,0,0
-183.65198949032,14.487264535868,1.5196419641964,1029407.7779508,-26477.130672902,4162817.8134306,6.7196419641964,0,0
-183.65198945237,14.458441624346,1.5240724072407,1029407.7779508,-26477.130672902,4162817.8134306,6.7240724072407,0,0
-183.65198941442,14.429618712825,1.528502850285,1029407.7779508,-26477.130672902,4162817.8134306,6.728502850285,0,0
-183.65198937647,14.400795801303,1.5329332933293,1029407.7779508,-26477.130672902,4162817.8134306,6.7329332933293,0,0
-183.65198933851,14.371972889781,1.5373637363736,1029407.7779508,-26477.130672902,4162817.8134306,6.7373637363736,0,0
-183.65198930056,14.34314997826,1.5417941794179,1029407.7779508,-26477.130672902,4162817.8134306,6.7417941794179,0,0
-183.65198926261,14.314327066738,1.5462246224622,1029407.7779508,-26477.130672902,4162817.8134306,6.7462246224622,0,0
-183.65198922466,14.285504155217,1.5506550655066,1029407.7779508,-26477.130672902,4162817.8134306,6.7506550655066,0,0
-183.65198918671,14.256681243695,1.5550855085509,1029407.7779508,-26477.130672902,4162817.8134306,6.7550855085509,0,0
-183.65198914876,14.227858332173,1.5595159515952,1029407.7779508,-26477.130672902,4162817.8134306,6.7595159515952,0,0
-183.6519891108,14.199035420652,1.5639463946395,1029407.7779508,-26477.130672902,4162817.8134306,6.7639463946395,0,0
-183.65198907285,14.17021250913,1.5683768376838,1029407.7779508,-26477.130672902,4162817.8134306,6.7683768376838,0,0
-183.6519890349,14.141389597609,1.5728072807281,1029407.7779508,-26477.130672902,4162817.8134306,6.7728072807281,0,0
-183.65198899695,14.112566686087,1.5772377237724,1029407.7779508,-26477.130672902,4162817.8134306,6.7772377237724,0,0
-183.651988959,14.083743774565,1.5816681668167,1029407.7779508,-26477.130672902,4162817.8134306,6.7816681668167,0,0
-183.65198892105,14.054920863044,1.586098609861,1029407.7779508,-26477.130672902,4162817.8134306,6.786098609861,0,0
-183.65198888309,14.026097951522,1.5905290529053,1029407.7779508,-26477.130672902,4162817.8134306,6.7905290529053,0,0
-183.65198884514,13.997275040001,1.5949594959496,1029407.7779508,-26477.130672902,4162817.8134306,6.7949594959496,0,0
-183.65198880719,13.968452128479,1.5993899389939,1029407.7779508,-26477.130672902,4162817.8134306,6.7993899389939,0,0
-183.65198876924,13.939629216957,1.6038203820382,1029407.7779508,-26477.130672902,4162817.8134306,6.8038203820382,0,0
-183.65198872676,13.910806317183,1.6082508250825,1073778.6723087,27259.761673122,4092503.0292999,6.8082508250825,0,0
-183.65198868339,13.881983419725,1.6126812681268,1073778.6723087,27259.761673122,4092503.0292999,6.8126812681268,0,0
-183.65198864003,13.853160522268,1.6171117111711,1073778.6723087,27259.761673122,4092503.0292999,6.8171117111711,0,0
-183.65198859666,13.82433762481,1.6215421542154,1073778.6723087,27259.761673122,4092503.0292999,6.8215421542154,0,0
-183.65198855329,13.795514727353,1.6259725972597,1073778.6723087,27259.761673122,4092503.0292999,6.8259725972597,0,0
-183.65198850992,13.766691829895,1.630403040304,1073778.6723087,27259.761673122,4092503.0292999,6.830403040304,0,0
-183.65198846655,13.737868932438,1.6348334833483,1073778.6723087,27259.761673122,4092503.0292999,6.8348334833483,0,0
-183.65198842319,13.70904603498,1.6392639263926,1073778.6723087,27259.761673122,4092503.0292999,6.8392639263926,0,0
-183.65198837982,13.680223137522,1.6436943694369,1073778.6723087,27259.761673122,4092503.0292999,6.8436943694369,0,0
-183.65198833645,13.651400240065,1.6481248124812,1073778.6723087,27259.761673122,4092503.0292999,6.8481248124812,0,0
-183.65198829308,13.622577342607,1.6525552555256,1073778.6723087,27259.761673122,4092503.0292999,6.8525552555256,0,0
-183.65198824971,13.59375444515,1.6569856985699,1073778.6723087,27259.761673122,4092503.0292999,6.8569856985699,0,0
-183.65198820634,13.564931547692,1.6614161416142,1073778.6723087,27259.761673122,4092503.0292999,6.8614161416142,0,0
-183.65198816298,13.536108650235,1.6658465846585,1073778.6723087,27259.761673122,4092503.0292999,6.8658465846585,0,0
-183.65198811961,13.507285752777,1.6702770277028,1073778.6723087,27259.761673122,4092503.0292999,6.8702770277028,0,0
-183.65198807624,13.478462855319,1.6747074707471,1073778.6723087,27259.761673122,4092503.0292999,6.8747074707471,0,0
-183.65198803287,13.449639957862,1.6791379137914,1073778.6723087,27259.761673122,4092503.0292999,6.8791379137914,0,0
-183.6519879895,13.420817060404,1.6835683568357,1073778.6723087,27259.761673122,4092503.0292999,6.8835683568357,0,0
-183.65198794614,13.391994162947,1.68799879988,1073778.6723087,27259.761673122,4092503.0292999,6.88799879988,0,0
-183.65198790277,13.363171265489,1.6924292429243,1073778.6723087,27259.761673122,4092503.0292999,6.8924292429243,0,0
-183.6519878594,13.334348368032,1.6968596859686,1073778.6723087,27259.761673122,4092503.0292999,6.8968596859686,0,0
-183.65198781603,13.305525470574,1.7012901290129,1073778.6723087,27259.761673122,4092503.0292999,6.9012901290129,0,0
-183.65198777266,13.276702573116,1.7057205720572,1073778.6723087,27259.761673122,4092503.0292999,6.9057205720572,0,0
-183.6519877293,13.247879675659,1.7101510151015,1073778.6723087,27259.761673122,4092503.0292999,6.9101510151015,0,0
-183.65198768593,13.219056778201,1.7145814581458,1073778.6723087,27259.761673122,4092503.0292999,6.9145814581458,0,0
-183.65198764256,13.190233880744,1.7190119011901,1073778.6723087,27259.761673122,4092503.0292999,6.9190119011901,0,0
-183.65198759919,13.161410983286,1.7234423442344,1073778.6723087,27259.761673122,4092503.0292999,6.9234423442344,0,0
-183.65198755582,13.132588085829,1.7278727872787,1073778.6723087,27259.761673122,4092503.0292999,6.9278727872787,0,0
-183.65198751246,13.103765188371,1.732303230323,1073778.6723087,27259.761673122,4092503.0292999,6.932303230323,0,0
-183.65198746909,13.074942290913,1.7367336733673,1073778.6723087,27259.761673122,4092503.0292999,6.9367336733673,0,0
-183.65198742572,13.046119393456,1.7411641164116,1073778.6723087,27259.761673122,4092503.0292999,6.9411641164116,0,0
-183.65198738235,13.017296495998,1.7455945594559,1073778.6723087,27259.761673122,4092503.0292999,6.9455945594559,0,0
-183.65198733898,12.988473598541,1.7500250025002,1073778.6723087,27259.761673122,4092503.0292999,6.9500250025002,0,0
-183.65198729561,12.959650701083,1.7544554455446,1073778.6723087,27259.761673122,4092503.0292999,6.9544554455446,0,0
-183.65198725225,12.930827803626,1.7588858885889,1073778.6723087,27259.761673122,4092503.0292999,6.9588858885889,0,0
-183.6519872052,12.902004894521,1.7633163316332,1098879.939251,-32787.19240825,3979878.2731384,6.9633163316332,0,0
-183.65198715683,12.873181981221,1.7677467746775,1098879.939251,-32787.19240825,3979878.2731384,6.9677467746775,0,0
-183.65198710846,12.844359067921,1.7721772177218,1098879.939251,-32787.19240825,3979878.2731384,6.9721772177218,0,0
-183.65198706008,12.815536154621,1.7766076607661,1098879.939251,-32787.19240825,3979878.2731384,6.9766076607661,0,0
-183.65198701171,12.786713241321,1.7810381038104,1098879.939251,-32787.19240825,3979878.2731384,6.9810381038104,0,0
-183.65198696334,12.757890328021,1.7854685468547,1098879.939251,-32787.19240825,3979878.2731384,6.9854685468547,0,0
-183.65198691497,12.729067414721,1.789898989899,1098879.939251,-32787.19240825,3979878.2731384,6.989898989899,0,0
-183.6519868666,12.70024450142,1.7943294329433,1098879.939251,-32787.19240825,3979878.2731384,6.9943294329433,0,0
-183.65198681823,12.67142158812,1.7987598759876,1098879.939251,-32787.19240825,3979878.2731384,6.9987598759876,0,0
-183.65198676985,12.64259867482,1.8031903190319,1098879.939251,-32787.19240825,3979878.2731384,7.0031903190319,0,0
-183.65198672148,12.61377576152,1.8076207620762,1098879.939251,-32787.19240825,3979878.2731384,7.0076207620762,0,0
-183.65198667311,12.58495284822,1.8120512051205,1098879.939251,-32787.19240825,3979878.2731384,7.0120512051205,0,0
-183.65198662474,12.55612993492,1.8164816481648,1098879.939251,-32787.19240825,3979878.2731384,7.0164816481648,0,0
-183.65198657637,12.52730702162,1.8209120912091,1098879.939251,-32787.19240825,3979878.2731384,7.0209120912091,0,0
-183.651986528,12.49848410832,1.8253425342534,1098879.939251,-32787.19240825,3979878.2731384,7.0253425342534,0,0
-183.65198647962,12.46966119502,1.8297729772977,1098879.939251,-32787.19240825,3979878.2731384,7.0297729772977,0,0
-183.65198643125,12.44083828172,1.834203420342,1098879.939251,-32787.19240825,3979878.2731384,7.034203420342,0,0
-183.65198638288,12.41201536842,1.8386338633863,1098879.939251,-32787.19240825,3979878.2731384,7.0386338633863,0,0
-183.65198633451,12.38319245512,1.8430643064306,1098879.939251,-32787.19240825,3979878.2731384,7.0430643064306,0,0
-183.65198628614,12.35436954182,1.8474947494749,1098879.939251,-32787.19240825,3979878.2731384,7.0474947494749,0,0
-183.65198623777,12.32554662852,1.8519251925193,1098879.939251,-32787.19240825,3979878.2731384,7.0519251925193,0,0
-183.65198618939,12.29672371522,1.8563556355636,1098879.939251,-32787.19240825,3979878.2731384,7.0563556355636,0,0
-183.65198614102,12.26790080192,1.8607860786079,1098879.939251,-32787.19240825,3979878.2731384,7.0607860786079,0,0
-183.65198609265,12.23907788862,1.8652165216522,1098879.939251,-32787.19240825,3979878.2731384,7.0652165216522,0,0
-183.65198604428,12.21025497532,1.8696469646965,1098879.939251,-32787.19240825,3979878.2731384,7.0696469646965,0,0
-183.65198599591,12.18143206202,1.8740774077408,1098879.939251,-32787.19240825,3979878.2731384,7.0740774077408,0,0
-183.65198594753,12.152609148719,1.8785078507851,1098879.939251,-32787.19240825,3979878.2731384,7.0785078507851,0,0
-183.65198589916,12.123786235419,1.8829382938294,1098879.939251,-32787.19240825,3979878.2731384,7.0829382938294,0,0
-183.65198585079,12.094963322119,1.8873687368737,1098879.939251,-32787.19240825,3979878.2731384,7.0873687368737,0,0
-183.65198580242,12.066140408819,1.891799179918,1098879.939251,-32787.19240825,3979878.2731384,7.091799179918,0,0
-183.65198574973,12.037317509564,1.8962296229623,1126816.5379863,24153.991801086,3897687.5503965,7.0962296229623,0,0
-183.65198569694,12.00849461064,1.9006600660066,1126816.5379863,24153.991801086,3897687.5503965,7.1006600660066,0,0
-183.65198564415,11.979671711716,1.9050905090509,1126816.5379863,24153.991801086,3897687.5503965,7.1050905090509,0,0
-183.65198559135,11.950848812791,1.9095209520952,1126816.5379863,24153.991801086,3897687.5503965,7.1095209520952,0,0
-183.65198553856,11.922025913867,1.9139513951395,1126816.5379863,24153.991801086,3897687.5503965,7.1139513951395,0,0
-183.65198548577,11.893203014943,1.9183818381838,1126816.5379863,24153.991801086,3897687.5503965,7.1183818381838,0,0
-183.65198543298,11.864380116018,1.9228122812281,1126816.5379863,24153.991801086,3897687.5503965,7.1228122812281,0,0
-183.65198538019,11.835557217094,1.9272427242724,1126816.5379863,24153.991801086,3897687.5503965,7.1272427242724,0,0
-183.6519853274,11.80673431817,1.9316731673167,1126816.5379863,24153.991801086,3897687.5503965,7.1316731673167,0,0
-183.65198527461,11.777911419245,1.936103610361,1126816.5379863,24153.991801086,3897687.5503965,7.136103610361,0,0
-183.65198522181,11.749088520321,1.9405340534053,1126816.5379863,24153.991801086,3897687.5503965,7.1405340534053,0,0
-183.65198516902,11.720265621397,1.9449644964496,1126816.5379863,24153.991801086,3897687.5503965,7.1449644964496,0,0
-183.65198511623,11.691442722472,1.9493949394939,1126816.5379863,24153.991801086,3897687.5503965,7.1493949394939,0,0
-183.65198506344,11.662619823548,1.9538253825383,1126816.5379863,24153.991801086,3897687.5503965,7.1538253825383,0,0
-183.65198501065,11.633796924624,1.9582558255826,1126816.5379863,24153.991801086,3897687.5503965,7.1582558255826,0,0
-183.65198495786,11.604974025699,1.9626862686269,1126816.5379863,24153.991801086,3897687.5503965,7.1626862686269,0,0
-183.65198490506,11.576151126775,1.9671167116712,1126816.5379863,24153.991801086,3897687.5503965,7.1671167116712,0,0
-183.65198485227,11.54732822785,1.9715471547155,1126816.5379863,24153.991801086,3897687.5503965,7.1715471547155,0,0
-183.65198479948,11.518505328926,1.9759775977598,1126816.5379863,24153.991801086,3897687.5503965,7.1759775977598,0,0
-183.65198474669,11.489682430002,1.9804080408041,1126816.5379863,24153.991801086,3897687.5503965,7.1804080408041,0,0
-183.6519846939,11.460859531077,1.9848384838484,1126816.5379863,24153.991801086,3897687.5503965,7.1848384838484,0,0
-183.65198464111,11.432036632153,1.9892689268927,1126816.5379863,24153.991801086,3897687.5503965,7.1892689268927,0,0
-183.65198458832,11.403213733229,1.993699369937,1126816.5379863,24153.991801086,3897687.5503965,7.193699369937,0,0
-183.65198453552,11.374390834304,1.9981298129813,1126816.5379863,24153.991801086,3897687.5503965,7.1981298129813,0,0
-183.65198448273,11.34556793538,2.0025602560256,1126816.5379863,24153.991801086,3897687.5503965,7.2025602560256,0,0
-183.65198442994,11.316745036456,2.0069906990699,1126816.5379863,24153.991801086,3897687.5503965,7.2069906990699,0,0
-183.65198437715,11.287922137531,2.0114211421142,1126816.5379863,24153.991801086,3897687.5503965,7.2114211421142,0,0
-183.65198432436,11.259099238607,2.0158515851585,1126816.5379863,24153.991801086,3897687.5503965,7.2158515851585,0,0
-183.65198427157,11.230276339683,2.0202820282028,1126816.5379863,24153.991801086,3897687.5503965,7.2202820282028,0,0
-183.65198421877,11.201453440758,2.0247124712471,1126816.5379863,24153.991801086,3897687.5503965,7.2247124712471,0,0
-183.65198416598,11.172630541834,2.0291429142914,1126816.5379863,24153.991801086,3897687.5503965,7.2291429142914,0,0
-183.65198411319,11.14380764291,2.0335733573357,1126816.5379863,24153.991801086,3897687.5503965,7.2335733573357,0,0
-183.6519840604,11.114984743985,2.03800380038,1126816.5379863,24153.991801086,3897687.5503965,7.23800380038,0,0
-183.65198400761,11.086161845061,2.0424342434243,1126816.5379863,24153.991801086,3897687.5503965,7.2424342434243,0,0
-183.65198395482,11.057338946137,2.0468646864686,1126816.5379863,24153.991801086,3897687.5503965,7.2468646864686,0,0
-183.65198390203,11.028516047212,2.051295129513,1126816.5379863,24153.991801086,3897687.5503965,7.251295129513,0,0
-183.65198384923,10.999693148288,2.0557255725573,1126816.5379863,24153.991801086,3897687.5503965,7.2557255725573,0,0
-183.65198379644,10.970870249363,2.0601560156016,1126816.5379863,24153.991801086,3897687.5503965,7.2601560156016,0,0
-183.65198374365,10.942047350439,2.0645864586459,1126816.5379863,24153.991801086,3897687.5503965,7.2645864586459,0,0
-183.65198369086,10.913224451515,2.0690169016902,1126816.5379863,24153.991801086,3897687.5503965,7.2690169016902,0,0
-183.65198363807,10.88440155259,2.0734473447345,1126816.5379863,24153.991801086,3897687.5503965,7.2734473447345,0,0
-183.65198358528,10.855578653666,2.0778777877788,1126816.5379863,24153.991801086,3897687.5503965,7.2778777877788,0,0
-183.65198353248,10.826755754742,2.0823082308231,1126816.5379863,24153.991801086,3897687.5503965,7.2823082308231,0,0
-183.65198347969,10.797932855817,2.0867386738674,1126816.5379863,24153.991801086,3897687.5503965,7.2867386738674,0,0
-183.6519834269,10.769109956893,2.0911691169117,1126816.5379863,24153.991801086,3897687.5503965,7.2911691169117,0,0
-183.65198337411,10.740287057969,2.095599559956,1126816.5379863,24153.991801086,3897687.5503965,7.295599559956,0,0
-183.65198332132,10.711464159044,2.1000300030003,1126816.5379863,24153.991801086,3897687.5503965,7.3000300030003,0,0
-183.65198326853,10.68264126012,2.1044604460446,1126816.5379863,24153.991801086,3897687.5503965,7.3044604460446,0,0
-183.65198321316,10.653818354008,2.1088908890889,1163102.9588375,-26202.685633052,3832786.8126248,7.3088908890889,0,0
-183.65198315574,10.624995442157,2.1133213321332,1163102.9588375,-26202.685633052,3832786.8126248,7.3133213321332,0,0
-183.65198309833,10.596172530306,2.1177517751775,1163102.9588375,-26202.685633052,3832786.8126248,7.3177517751775,0,0
-183.65198304091,10.567349618454,2.1221822182218,1163102.9588375,-26202.685633052,3832786.8126248,7.3221822182218,0,0
-183.65198298349,10.538526706603,2.1266126612661,1163102.9588375,-26202.685633052,3832786.8126248,7.3266126612661,0,0
-183.65198292607,10.509703794751,2.1310431043104,1163102.9588375,-26202.685633052,3832786.8126248,7.3310431043104,0,0
-183.65198286865,10.4808808829,2.1354735473547,1163102.9588375,-26202.685633052,3832786.8126248,7.3354735473547,0,0
-183.65198281124,10.452057971048,2.139903990399,1163102.9588375,-26202.685633052,3832786.8126248,7.339903990399,0,0
-183.65198275382,10.423235059197,2.1443344334433,1163102.9588375,-26202.685633052,3832786.8126248,7.3443344334433,0,0
-183.6519826964,10.394412147345,2.1487648764876,1163102.9588375,-26202.685633052,3832786.8126248,7.3487648764876,0,0
-183.65198263898,10.365589235494,2.153195319532,1163102.9588375,-26202.685633052,3832786.8126248,7.353195319532,0,0
-183.65198258157,10.336766323642,2.1576257625763,1163102.9588375,-26202.685633052,3832786.8126248,7.3576257625763,0,0
-183.65198252415,10.307943411791,2.1620562056206,1163102.9588375,-26202.685633052,3832786.8126248,7.3620562056206,0,0
-183.65198246673,10.279120499939,2.1664866486649,1163102.9588375,-26202.685633052,3832786.8126248,7.3664866486649,0,0
-183.65198240931,10.250297588088,2.1709170917092,1163102.9588375,-26202.685633052,3832786.8126248,7.3709170917092,0,0
-183.65198235189,10.221474676237,2.1753475347535,1163102.9588375,-26202.685633052,3832786.8126248,7.3753475347535,0,0
-183.65198229448,10.192651764385,2.1797779777978,1163102.9588375,-26202.685633052,3832786.8126248,7.3797779777978,0,0
-183.65198223706,10.163828852534,2.1842084208421,1163102.9588375,-26202.685633052,3832786.8126248,7.3842084208421,0,0
-183.65198217964,10.135005940682,2.1886388638864,1163102.9588375,-26202.685633052,3832786.8126248,7.3886388638864,0,0
-183.65198212222,10.106183028831,2.1930693069307,1163102.9588375,-26202.685633052,3832786.8126248,7.3930693069307,0,0
-183.6519820648,10.077360116979,2.197499749975,1163102.9588375,-26202.685633052,3832786.8126248,7.397499749975,0,0
-183.65198200739,10.048537205128,2.2019301930193,1163102.9588375,-26202.685633052,3832786.8126248,7.4019301930193,0,0
-183.65198194997,10.019714293276,2.2063606360636,1163102.9588375,-26202.685633052,3832786.8126248,7.4063606360636,0,0
-183.65198189255,9.9908913814248,2.2107910791079,1163102.9588375,-26202.685633052,3832786.8126248,7.4107910791079,0,0
-183.65198183513,9.9620684695734,2.2152215221522,1163102.9588375,-26202.685633052,3832786.8126248,7.4152215221522,0,0
-183.65198177771,9.9332455577219,2.2196519651965,1163102.9588375,-26202.685633052,3832786.8126248,7.4196519651965,0,0
-183.6519817203,9.9044226458704,2.2240824082408,1163102.9588375,-26202.685633052,3832786.8126248,7.4240824082408,0,0
-183.65198166288,9.875599734019,2.2285128512851,1163102.9588375,-26202.685633052,3832786.8126248,7.4285128512851,0,0
-183.65198160546,9.8467768221675,2.2329432943294,1163102.9588375,-26202.685633052,3832786.8126248,7.4329432943294,0,0
-183.65198154804,9.8179539103161,2.2373737373737,1163102.9588375,-26202.685633052,3832786.8126248,7.4373737373737,0,0
-183.65198149062,9.7891309984646,2.241804180418,1163102.9588375,-26202.685633052,3832786.8126248,7.441804180418,0,0
-183.65198143321,9.7603080866131,2.2462346234623,1163102.9588375,-26202.685633052,3832786.8126248,7.4462346234623,0,0
-183.65198137579,9.7314851747617,2.2506650665067,1163102.9588375,-26202.685633052,3832786.8126248,7.4506650665067,0,0
-183.65198131837,9.7026622629102,2.255095509551,1163102.9588375,-26202.685633052,3832786.8126248,7.455095509551,0,0
-183.65198126095,9.6738393510587,2.2595259525953,1163102.9588375,-26202.685633052,3832786.8126248,7.4595259525953,0,0
-183.65198120353,9.6450164392073,2.2639563956396,1163102.9588375,-26202.685633052,3832786.8126248,7.4639563956396,0,0
-183.65198114428,9.6161935342815,2.2683868386839,1170081.010365,22873.458160006,3726746.6610035,7.4683868386839,0,0
-183.65198108348,9.5873706351787,2.2728172817282,1170081.010365,22873.458160006,3726746.6610035,7.4728172817282,0,0
-183.65198102268,9.5585477360759,2.2772477247725,1170081.010365,22873.458160006,3726746.6610035,7.4772477247725,0,0
-183.65198096188,9.5297248369732,2.2816781678168,1170081.010365,22873.458160006,3726746.6610035,7.4816781678168,0,0
-183.65198090108,9.5009019378704,2.2861086108611,1170081.010365,22873.458160006,3726746.6610035,7.4861086108611,0,0
-183.65198084029,9.4720790387676,2.2905390539054,1170081.010365,22873.458160006,3726746.6610035,7.4905390539054,0,0
-183.65198077949,9.4432561396648,2.2949694969497,1170081.010365,22873.458160006,3726746.6610035,7.4949694969497,0,0
-183.65198071869,9.4144332405621,2.299399939994,1170081.010365,22873.458160006,3726746.6610035,7.499399939994,0,0
-183.65198065789,9.3856103414593,2.3038303830383,1170081.010365,22873.458160006,3726746.6610035,7.5038303830383,0,0
-183.65198059709,9.3567874423565,2.3082608260826,1170081.010365,22873.458160006,3726746.6610035,7.5082608260826,0,0
-183.65198053629,9.3279645432538,2.3126912691269,1170081.010365,22873.458160006,3726746.6610035,7.5126912691269,0,0
-183.65198047549,9.299141644151,2.3171217121712,1170081.010365,22873.458160006,3726746.6610035,7.5171217121712,0,0
-183.6519804147,9.2703187450482,2.3215521552155,1170081.010365,22873.458160006,3726746.6610035,7.5215521552155,0,0
-183.6519803539,9.2414958459454,2.3259825982598,1170081.010365,22873.458160006,3726746.6610035,7.5259825982598,0,0
-183.6519802931,9.2126729468427,2.3304130413041,1170081.010365,22873.458160006,3726746.6610035,7.5304130413041,0,0
-183.6519802323,9.1838500477399,2.3348434843484,1170081.010365,22873.458160006,3726746.6610035,7.5348434843484,0,0
-183.6519801715,9.1550271486371,2.3392739273927,1170081.010365,22873.458160006,3726746.6610035,7.5392739273927,0,0
-183.6519801107,9.1262042495344,2.343704370437,1170081.010365,22873.458160006,3726746.6610035,7.543704370437,0,0
-183.6519800499,9.0973813504316,2.3481348134813,1170081.010365,22873.458160006,3726746.6610035,7.5481348134813,0,0
-183.6519799891,9.0685584513288,2.3525652565257,1170081.010365,22873.458160006,3726746.6610035,7.5525652565257,0,0
-183.65197992831,9.0397355522261,2.35699569957,1170081.010365,22873.458160006,3726746.6610035,7.55699569957,0,0
-183.65197986751,9.0109126531233,2.3614261426143,1170081.010365,22873.458160006,3726746.6610035,7.5614261426143,0,0
-183.65197980671,8.9820897540205,2.3658565856586,1170081.010365,22873.458160006,3726746.6610035,7.5658565856586,0,0
-183.65197974591,8.9532668549178,2.3702870287029,1170081.010365,22873.458160006,3726746.6610035,7.5702870287029,0,0
-183.65197968511,8.924443955815,2.3747174717472,1170081.010365,22873.458160006,3726746.6610035,7.5747174717472,0,0
-183.65197962431,8.8956210567122,2.3791479147915,1170081.010365,22873.458160006,3726746.6610035,7.5791479147915,0,0
-183.65197956351,8.8667981576094,2.3835783578358,1170081.010365,22873.458160006,3726746.6610035,7.5835783578358,0,0
-183.65197950272,8.8379752585067,2.3880088008801,1170081.010365,22873.458160006,3726746.6610035,7.5880088008801,0,0
-183.65197944192,8.8091523594039,2.3924392439244,1170081.010365,22873.458160006,3726746.6610035,7.5924392439244,0,0
-183.65197938112,8.7803294603011,2.3968696869687,1170081.010365,22873.458160006,3726746.6610035,7.5968696869687,0,0
-183.65197932032,8.7515065611984,2.401300130013,1170081.010365,22873.458160006,3726746.6610035,7.601300130013,0,0
-183.65197925952,8.7226836620956,2.4057305730573,1170081.010365,22873.458160006,3726746.6610035,7.6057305730573,0,0
-183.65197919872,8.6938607629928,2.4101610161016,1170081.010365,22873.458160006,3726746.6610035,7.6101610161016,0,0
-183.65197913792,8.66503786389,2.4145914591459,1170081.010365,22873.458160006,3726746.6610035,7.6145914591459,0,0
-183.65197907712,8.6362149647873,2.4190219021902,1170081.010365,22873.458160006,3726746.6610035,7.6190219021902,0,0
-183.65197901633,8.6073920656845,2.4234523452345,1170081.010365,22873.458160006,3726746.6610035,7.6234523452345,0,0
-183.65197895553,8.5785691665817,2.4278827882788,1170081.010365,22873.458160006,3726746.6610035,7.6278827882788,0,0
-183.65197889473,8.549746267479,2.4323132313231,1170081.010365,22873.458160006,3726746.6610035,7.6323132313231,0,0
-183.65197883393,8.5209233683762,2.4367436743674,1170081.010365,22873.458160006,3726746.6610035,7.6367436743674,0,0
-183.65197877313,8.4921004692734,2.4411741174117,1170081.010365,22873.458160006,3726746.6610035,7.6411741174117,0,0
-183.65197871233,8.4632775701707,2.445604560456,1170081.010365,22873.458160006,3726746.6610035,7.645604560456,0,0
-183.65197865153,8.4344546710679,2.4500350035003,1170081.010365,22873.458160006,3726746.6610035,7.6500350035004,0,0
-183.65197859074,8.4056317719651,2.4544654465447,1170081.010365,22873.458160006,3726746.6610035,7.6544654465447,0,0
-183.65197852738,8.3768088649495,2.458895889589,1199739.0707253,-28044.94586826,3659933.073067,7.658895889589,0,0
-183.65197846243,8.3479859530199,2.4633263326333,1199739.0707253,-28044.94586826,3659933.073067,7.6633263326333,0,0
-183.65197839748,8.3191630410903,2.4677567756776,1199739.0707253,-28044.94586826,3659933.073067,7.6677567756776,0,0
-183.65197833254,8.2903401291606,2.4721872187219,1199739.0707253,-28044.94586826,3659933.073067,7.6721872187219,0,0
-183.65197826759,8.261517217231,2.4766176617662,1199739.0707253,-28044.94586826,3659933.073067,7.6766176617662,0,0
-183.65197820264,8.2326943053014,2.4810481048105,1199739.0707253,-28044.94586826,3659933.073067,7.6810481048105,0,0
-183.6519781377,8.2038713933717,2.4854785478548,1199739.0707253,-28044.94586826,3659933.073067,7.6854785478548,0,0
-183.65197807275,8.1750484814421,2.4899089908991,1199739.0707253,-28044.94586826,3659933.073067,7.6899089908991,0,0
-183.6519780078,8.1462255695125,2.4943394339434,1199739.0707253,-28044.94586826,3659933.073067,7.6943394339434,0,0
-183.65197794286,8.1174026575828,2.4987698769877,1199739.0707253,-28044.94586826,3659933.073067,7.6987698769877,0,0
-183.65197787791,8.0885797456532,2.503200320032,1199739.0707253,-28044.94586826,3659933.073067,7.703200320032,0,0
-183.65197781297,8.0597568337235,2.5076307630763,1199739.0707253,-28044.94586826,3659933.073067,7.7076307630763,0,0
-183.65197774802,8.0309339217939,2.5120612061206,1199739.0707253,-28044.94586826,3659933.073067,7.7120612061206,0,0
-183.65197768307,8.0021110098643,2.5164916491649,1199739.0707253,-28044.94586826,3659933.073067,7.7164916491649,0,0
-183.65197761813,7.9732880979346,2.5209220922092,1199739.0707253,-28044.94586826,3659933.073067,7.7209220922092,0,0
-183.65197755318,7.944465186005,2.5253525352535,1199739.0707253,-28044.94586826,3659933.073067,7.7253525352535,0,0
-183.65197748823,7.9156422740754,2.5297829782978,1199739.0707253,-28044.94586826,3659933.073067,7.7297829782978,0,0
-183.65197742329,7.8868193621457,2.5342134213421,1199739.0707253,-28044.94586826,3659933.073067,7.7342134213421,0,0
-183.65197735834,7.8579964502161,2.5386438643864,1199739.0707253,-28044.94586826,3659933.073067,7.7386438643864,0,0
-183.65197729339,7.8291735382865,2.5430743074307,1199739.0707253,-28044.94586826,3659933.073067,7.7430743074307,0,0
-183.65197722845,7.8003506263568,2.547504750475,1199739.0707253,-28044.94586826,3659933.073067,7.747504750475,0,0
-183.6519771635,7.7715277144272,2.5519351935194,1199739.0707253,-28044.94586826,3659933.073067,7.7519351935194,0,0
-183.65197709855,7.7427048024976,2.5563656365637,1199739.0707253,-28044.94586826,3659933.073067,7.7563656365637,0,0
-183.65197703361,7.7138818905679,2.560796079608,1199739.0707253,-28044.94586826,3659933.073067,7.760796079608,0,0
-183.65197696866,7.6850589786383,2.5652265226523,1199739.0707253,-28044.94586826,3659933.073067,7.7652265226523,0,0
-183.65197690371,7.6562360667087,2.5696569656966,1199739.0707253,-28044.94586826,3659933.073067,7.7696569656966,0,0
-183.65197683877,7.627413154779,2.5740874087409,1199739.0707253,-28044.94586826,3659933.073067,7.7740874087409,0,0
-183.65197677382,7.5985902428494,2.5785178517852,1199739.0707253,-28044.94586826,3659933.073067,7.7785178517852,0,0
-183.65197670887,7.5697673309198,2.5829482948295,1199739.0707253,-28044.94586826,3659933.073067,7.7829482948295,0,0
-183.65197664393,7.5409444189901,2.5873787378738,1199739.0707253,-28044.94586826,3659933.073067,7.7873787378738,0,0
-183.65197657898,7.5121215070605,2.5918091809181,1199739.0707253,-28044.94586826,3659933.073067,7.7918091809181,0,0
-183.65197651403,7.4832985951309,2.5962396239624,1199739.0707253,-28044.94586826,3659933.073067,7.7962396239624,0,0
-183.65197644909,7.4544756832012,2.6006700670067,1199739.0707253,-28044.94586826,3659933.073067,7.8006700670067,0,0
-183.65197638414,7.4256527712716,2.605100510051,1199739.0707253,-28044.94586826,3659933.073067,7.805100510051,0,0
-183.65197631919,7.3968298593419,2.6095309530953,1199739.0707253,-28044.94586826,3659933.073067,7.8095309530953,0,0
-183.65197625425,7.3680069474123,2.6139613961396,1199739.0707253,-28044.94586826,3659933.073067,7.8139613961396,0,0
-183.6519761893,7.3391840354827,2.6183918391839,1199739.0707253,-28044.94586826,3659933.073067,7.8183918391839,0,0
-183.65197612435,7.310361123553,2.6228222822282,1199739.0707253,-28044.94586826,3659933.073067,7.8228222822282,0,0
-183.65197605861,7.281538214946,2.6272527252725,1210033.3877174,22360.696550834,3579706.7571525,7.8272527252725,0,0
-183.65197599071,7.252715315355,2.6316831683168,1210033.3877174,22360.696550834,3579706.7571525,7.8316831683168,0,0
-183.6519759228,7.223892415764,2.6361136113611,1210033.3877174,22360.696550834,3579706.7571525,7.8361136113611,0,0
-183.6519758549,7.195069516173,2.6405440544054,1210033.3877174,22360.696550834,3579706.7571525,7.8405440544054,0,0
-183.65197578699,7.166246616582,2.6449744974497,1210033.3877174,22360.696550834,3579706.7571525,7.8449744974497,0,0
-183.65197571909,7.137423716991,2.649404940494,1210033.3877174,22360.696550834,3579706.7571525,7.849404940494,0,0
-183.65197565118,7.1086008174,2.6538353835384,1210033.3877174,22360.696550834,3579706.7571525,7.8538353835384,0,0
-183.65197558328,7.079777917809,2.6582658265827,1210033.3877174,22360.696550834,3579706.7571525,7.8582658265827,0,0
-183.65197551537,7.050955018218,2.662696269627,1210033.3877174,22360.696550834,3579706.7571525,7.862696269627,0,0
-183.65197544747,7.0221321186271,2.6671267126713,1210033.3877174,22360.696550834,3579706.7571525,7.8671267126713,0,0
-183.65197537956,6.9933092190361,2.6715571557156,1210033.3877174,22360.696550834,3579706.7571525,7.8715571557156,0,0
-183.65197531166,6.9644863194451,2.6759875987599,1210033.3877174,22360.696550834,3579706.7571525,7.8759875987599,0,0
-183.65197524375,6.9356634198541,2.6804180418042,1210033.3877174,22360.696550834,3579706.7571525,7.8804180418042,0,0
-183.65197517585,6.9068405202631,2.6848484848485,1210033.3877174,22360.696550834,3579706.7571525,7.8848484848485,0,0
-183.65197510794,6.8780176206721,2.6892789278928,1210033.3877174,22360.696550834,3579706.7571525,7.8892789278928,0,0
-183.65197504004,6.8491947210811,2.6937093709371,1210033.3877174,22360.696550834,3579706.7571525,7.8937093709371,0,0
-183.65197497213,6.8203718214901,2.6981398139814,1210033.3877174,22360.696550834,3579706.7571525,7.8981398139814,0,0
-183.65197490423,6.7915489218991,2.7025702570257,1210033.3877174,22360.696550834,3579706.7571525,7.9025702570257,0,0
-183.65197483632,6.7627260223081,2.70700070007,1210033.3877174,22360.696550834,3579706.7571525,7.90700070007,0,0
-183.65197476842,6.7339031227171,2.7114311431143,1210033.3877174,22360.696550834,3579706.7571525,7.9114311431143,0,0
-183.65197470051,6.7050802231261,2.7158615861586,1210033.3877174,22360.696550834,3579706.7571525,7.9158615861586,0,0
-183.65197463261,6.6762573235351,2.7202920292029,1210033.3877174,22360.696550834,3579706.7571525,7.9202920292029,0,0
-183.6519745647,6.6474344239441,2.7247224722472,1210033.3877174,22360.696550834,3579706.7571525,7.9247224722472,0,0
-183.6519744968,6.6186115243531,2.7291529152915,1210033.3877174,22360.696550834,3579706.7571525,7.9291529152915,0,0
-183.65197442889,6.5897886247621,2.7335833583358,1210033.3877174,22360.696550834,3579706.7571525,7.9335833583358,0,0
-183.65197436099,6.5609657251711,2.7380138013801,1210033.3877174,22360.696550834,3579706.7571525,7.9380138013801,0,0
-183.65197429308,6.5321428255801,2.7424442444244,1210033.3877174,22360.696550834,3579706.7571525,7.9424442444244,0,0
-183.65197422518,6.5033199259891,2.7468746874687,1210033.3877174,22360.696550834,3579706.7571525,7.9468746874687,0,0
-183.65197415727,6.4744970263981,2.7513051305131,1210033.3877174,22360.696550834,3579706.7571525,7.9513051305131,0,0
-183.65197408937,6.4456741268071,2.7557355735574,1210033.3877174,22360.696550834,3579706.7571525,7.9557355735574,0,0
-183.65197402146,6.4168512272161,2.7601660166017,1210033.3877174,22360.696550834,3579706.7571525,7.9601660166017,0,0
-183.65197395356,6.3880283276251,2.764596459646,1210033.3877174,22360.696550834,3579706.7571525,7.964596459646,0,0
-183.65197388565,6.3592054280341,2.7690269026903,1210033.3877174,22360.696550834,3579706.7571525,7.9690269026903,0,0
-183.65197381775,6.3303825284431,2.7734573457346,1210033.3877174,22360.696550834,3579706.7571525,7.9734573457346,0,0
-183.65197374985,6.3015596288521,2.7778877887789,1210033.3877174,22360.696550834,3579706.7571525,7.9778877887789,0,0
-183.65197368194,6.2727367292611,2.7823182318232,1210033.3877174,22360.696550834,3579706.7571525,7.9823182318232,0,0
-183.65197361404,6.2439138296701,2.7867486748675,1210033.3877174,22360.696550834,3579706.7571525,7.9867486748675,0,0
-183.65197354613,6.2150909300791,2.7911791179118,1210033.3877174,22360.696550834,3579706.7571525,7.9911791179118,0,0
-183.65197347823,6.1862680304881,2.7956095609561,1210033.3877174,22360.696550834,3579706.7571525,7.9956095609561,0,0
-183.65197341032,6.1574451308971,2.8000400040004,1210033.3877174,22360.696550834,3579706.7571525,8.0000400040004,0,0
-183.65197334242,6.1286222313062,2.8044704470447,1210033.3877174,22360.696550834,3579706.7571525,8.0044704470447,0,0
-183.65197327451,6.0997993317152,2.808900890089,1210033.3877174,22360.696550834,3579706.7571525,8.008900890089,0,0
-183.65197320661,6.0709764321242,2.8133313331333,1210033.3877174,22360.696550834,3579706.7571525,8.0133313331333,0,0
-183.6519731387,6.0421535325332,2.8177617761776,1210033.3877174,22360.696550834,3579706.7571525,8.0177617761776,0,0
-183.6519730708,6.0133306329422,2.8221922192219,1210033.3877174,22360.696550834,3579706.7571525,8.0221922192219,0,0
-183.65197300289,5.9845077333512,2.8266226622662,1210033.3877174,22360.696550834,3579706.7571525,8.0266226622662,0,0
-183.65197293499,5.9556848337602,2.8310531053105,1210033.3877174,22360.696550834,3579706.7571525,8.0310531053105,0,0
-183.65197286708,5.9268619341692,2.8354835483548,1210033.3877174,22360.696550834,3579706.7571525,8.0354835483548,0,0
-183.65197279918,5.8980390345782,2.8399139913991,1210033.3877174,22360.696550834,3579706.7571525,8.0399139913991,0,0
-183.65197273127,5.8692161349872,2.8443444344434,1210033.3877174,22360.696550834,3579706.7571525,8.0443444344434,0,0
-183.65197266337,5.8403932353962,2.8487748774877,1210033.3877174,22360.696550834,3579706.7571525,8.0487748774877,0,0
-183.65197259546,5.8115703358052,2.8532053205321,1210033.3877174,22360.696550834,3579706.7571525,8.0532053205321,0,0
-183.65197252756,5.7827474362142,2.8576357635764,1210033.3877174,22360.696550834,3579706.7571525,8.0576357635764,0,0
-183.65197245965,5.7539245366232,2.8620662066207,1210033.3877174,22360.696550834,3579706.7571525,8.0620662066207,0,0
-183.65197239175,5.7251016370322,2.866496649665,1210033.3877174,22360.696550834,3579706.7571525,8.066496649665,0,0
-183.65197232384,5.6962787374412,2.8709270927093,1210033.3877174,22360.696550834,3579706.7571525,8.0709270927093,0,0
-183.65197225415,5.667455831915,2.8753575357536,1235893.2934791,-23161.399387277,3532675.0502026,8.0753575357536,0,0
-183.65197218293,5.6386329212909,2.8797879787979,1235893.2934791,-23161.399387277,3532675.0502026,8.0797879787979,0,0
-183.65197211171,5.6098100106669,2.8842184218422,1235893.2934791,-23161.399387277,3532675.0502026,8.0842184218422,0,0
-183.65197204048,5.5809871000429,2.8886488648865,1235893.2934791,-23161.399387277,3532675.0502026,8.0886488648865,0,0
-183.65197196926,5.5521641894188,2.8930793079308,1235893.2934791,-23161.399387277,3532675.0502026,8.0930793079308,0,0
-183.65197189804,5.5233412787948,2.8975097509751,1235893.2934791,-23161.399387277,3532675.0502026,8.0975097509751,0,0
-183.65197182682,5.4945183681707,2.9019401940194,1235893.2934791,-23161.399387277,3532675.0502026,8.1019401940194,0,0
-183.65197175559,5.4656954575467,2.9063706370637,1235893.2934791,-23161.399387277,3532675.0502026,8.1063706370637,0,0
-183.65197168437,5.4368725469226,2.910801080108,1235893.2934791,-23161.399387277,3532675.0502026,8.110801080108,0,0
-183.65197161315,5.4080496362986,2.9152315231523,1235893.2934791,-23161.399387277,3532675.0502026,8.1152315231523,0,0
-183.65197154193,5.3792267256745,2.9196619661966,1235893.2934791,-23161.399387277,3532675.0502026,8.1196619661966,0,0
-183.6519714707,5.3504038150505,2.9240924092409,1235893.2934791,-23161.399387277,3532675.0502026,8.1240924092409,0,0
-183.65197139948,5.3215809044264,2.9285228522852,1235893.2934791,-23161.399387277,3532675.0502026,8.1285228522852,0,0
-183.65197132826,5.2927579938024,2.9329532953295,1235893.2934791,-23161.399387277,3532675.0502026,8.1329532953295,0,0
-183.65197125704,5.2639350831783,2.9373837383738,1235893.2934791,-23161.399387277,3532675.0502026,8.1373837383738,0,0
-183.65197118581,5.2351121725543,2.9418141814181,1235893.2934791,-23161.399387277,3532675.0502026,8.1418141814181,0,0
-183.65197111459,5.2062892619303,2.9462446244624,1235893.2934791,-23161.399387277,3532675.0502026,8.1462446244624,0,0
-183.65197104337,5.1774663513062,2.9506750675067,1235893.2934791,-23161.399387277,3532675.0502026,8.1506750675068,0,0
-183.65197097214,5.1486434406822,2.9551055105511,1235893.2934791,-23161.399387277,3532675.0502026,8.1551055105511,0,0
-183.65197090092,5.1198205300581,2.9595359535954,1235893.2934791,-23161.399387277,3532675.0502026,8.1595359535954,0,0
-183.6519708297,5.0909976194341,2.9639663966397,1235893.2934791,-23161.399387277,3532675.0502026,8.1639663966397,0,0
-183.65197075848,5.06217470881,2.968396839684,1235893.2934791,-23161.399387277,3532675.0502026,8.168396839684,0,0
-183.65197068725,5.033351798186,2.9728272827283,1235893.2934791,-23161.399387277,3532675.0502026,8.1728272827283,0,0
-183.65197061603,5.0045288875619,2.9772577257726,1235893.2934791,-23161.399387277,3532675.0502026,8.1772577257726,0,0
-183.65197054481,4.9757059769379,2.9816881688169,1235893.2934791,-23161.399387277,3532675.0502026,8.1816881688169,0,0
-183.65197047359,4.9468830663139,2.9861186118612,1235893.2934791,-23161.399387277,3532675.0502026,8.1861186118612,0,0
-183.65197040236,4.9180601556898,2.9905490549055,1235893.2934791,-23161.399387277,3532675.0502026,8.1905490549055,0,0
-183.65197033114,4.8892372450658,2.9949794979498,1235893.2934791,-23161.399387277,3532675.0502026,8.1949794979498,0,0
-183.65197025992,4.8604143344417,2.9994099409941,1235893.2934791,-23161.399387277,3532675.0502026,8.1994099409941,0,0
-183.65197018869,4.8315914238177,3.0038403840384,1235893.2934791,-23161.399387277,3532675.0502026,8.2038403840384,0,0
-183.65197011747,4.8027685131936,3.0082708270827,1235893.2934791,-23161.399387277,3532675.0502026,8.2082708270827,0,0
-183.65197004625,4.7739456025696,3.012701270127,1235893.2934791,-23161.399387277,3532675.0502026,8.212701270127,0,0
-183.65196997503,4.7451226919455,3.0171317131713,1235893.2934791,-23161.399387277,3532675.0502026,8.2171317131713,0,0
-183.6519699038,4.7162997813215,3.0215621562156,1235893.2934791,-23161.399387277,3532675.0502026,8.2215621562156,0,0
-183.65196983258,4.6874768706974,3.0259925992599,1235893.2934791,-23161.399387277,3532675.0502026,8.2259925992599,0,0
-183.65196976136,4.6586539600734,3.0304230423042,1235893.2934791,-23161.399387277,3532675.0502026,8.2304230423042,0,0
-183.65196969014,4.6298310494494,3.0348534853485,1235893.2934791,-23161.399387277,3532675.0502026,8.2348534853485,0,0
-183.65196961891,4.6010081388253,3.0392839283928,1235893.2934791,-23161.399387277,3532675.0502026,8.2392839283928,0,0
-183.65196954769,4.5721852282013,3.0437143714371,1235893.2934791,-23161.399387277,3532675.0502026,8.2437143714371,0,0
-183.65196947647,4.5433623175772,3.0481448144814,1235893.2934791,-23161.399387277,3532675.0502026,8.2481448144814,0,0
-183.65196940525,4.5145394069532,3.0525752575258,1235893.2934791,-23161.399387277,3532675.0502026,8.2525752575258,0,0
-183.65196933402,4.4857164963291,3.0570057005701,1235893.2934791,-23161.399387277,3532675.0502026,8.2570057005701,0,0
-183.6519692628,4.4568935857051,3.0614361436144,1235893.2934791,-23161.399387277,3532675.0502026,8.2614361436144,0,0
-183.65196919158,4.428070675081,3.0658665866587,1235893.2934791,-23161.399387277,3532675.0502026,8.2658665866587,0,0
-183.65196912035,4.399247764457,3.070297029703,1235893.2934791,-23161.399387277,3532675.0502026,8.270297029703,0,0
-183.65196904913,4.3704248538329,3.0747274727473,1235893.2934791,-23161.399387277,3532675.0502026,8.2747274727473,0,0
-183.65196897791,4.3416019432089,3.0791579157916,1235893.2934791,-23161.399387277,3532675.0502026,8.2791579157916,0,0
-183.65196890669,4.3127790325849,3.0835883588359,1235893.2934791,-23161.399387277,3532675.0502026,8.2835883588359,0,0
-183.65196883413,4.2839561260733,3.0880188018802,1242850.5337911,11576.576115431,3430837.8705762,8.2880188018802,0,0
-183.65196875964,4.2551332255417,3.0924492449245,1242850.5337911,11576.576115431,3430837.8705762,8.2924492449245,0,0
-183.65196868515,4.2263103250102,3.0968796879688,1242850.5337911,11576.576115431,3430837.8705762,8.2968796879688,0,0
-183.65196861066,4.1974874244786,3.1013101310131,1242850.5337911,11576.576115431,3430837.8705762,8.3013101310131,0,0
-183.65196853617,4.168664523947,3.1057405740574,1242850.5337911,11576.576115431,3430837.8705762,8.3057405740574,0,0
-183.65196846168,4.1398416234155,3.1101710171017,1242850.5337911,11576.576115431,3430837.8705762,8.3101710171017,0,0
-183.65196838719,4.1110187228839,3.114601460146,1242850.5337911,11576.576115431,3430837.8705762,8.314601460146,0,0
-183.6519683127,4.0821958223524,3.1190319031903,1242850.5337911,11576.576115431,3430837.8705762,8.3190319031903,0,0
-183.65196823821,4.0533729218208,3.1234623462346,1242850.5337911,11576.576115431,3430837.8705762,8.3234623462346,0,0
-183.65196816372,4.0245500212892,3.1278927892789,1242850.5337911,11576.576115431,3430837.8705762,8.3278927892789,0,0
-183.65196808923,3.9957271207577,3.1323232323232,1242850.5337911,11576.576115431,3430837.8705762,8.3323232323232,0,0
-183.65196801474,3.9669042202261,3.1367536753675,1242850.5337911,11576.576115431,3430837.8705762,8.3367536753675,0,0
-183.65196794025,3.9380813196945,3.1411841184118,1242850.5337911,11576.576115431,3430837.8705762,8.3411841184118,0,0
-183.65196786576,3.909258419163,3.1456145614561,1242850.5337911,11576.576115431,3430837.8705762,8.3456145614561,0,0
-183.65196779127,3.8804355186314,3.1500450045004,1242850.5337911,11576.576115431,3430837.8705762,8.3500450045004,0,0
-183.65196771678,3.8516126180999,3.1544754475448,1242850.5337911,11576.576115431,3430837.8705762,8.3544754475448,0,0
-183.65196764229,3.8227897175683,3.1589058905891,1242850.5337911,11576.576115431,3430837.8705762,8.3589058905891,0,0
-183.6519675678,3.7939668170367,3.1633363336334,1242850.5337911,11576.576115431,3430837.8705762,8.3633363336334,0,0
-183.65196749331,3.7651439165052,3.1677667766777,1242850.5337911,11576.576115431,3430837.8705762,8.3677667766777,0,0
-183.65196741882,3.7363210159736,3.172197219722,1242850.5337911,11576.576115431,3430837.8705762,8.372197219722,0,0
-183.65196734434,3.707498115442,3.1766276627663,1242850.5337911,11576.576115431,3430837.8705762,8.3766276627663,0,0
-183.65196726985,3.6786752149105,3.1810581058106,1242850.5337911,11576.576115431,3430837.8705762,8.3810581058106,0,0
-183.65196719536,3.6498523143789,3.1854885488549,1242850.5337911,11576.576115431,3430837.8705762,8.3854885488549,0,0
-183.65196712087,3.6210294138474,3.1899189918992,1242850.5337911,11576.576115431,3430837.8705762,8.3899189918992,0,0
-183.65196704638,3.5922065133158,3.1943494349435,1242850.5337911,11576.576115431,3430837.8705762,8.3943494349435,0,0
-183.65196697189,3.5633836127842,3.1987798779878,1242850.5337911,11576.576115431,3430837.8705762,8.3987798779878,0,0
-183.6519668974,3.5345607122527,3.2032103210321,1242850.5337911,11576.576115431,3430837.8705762,8.4032103210321,0,0
-183.65196682291,3.5057378117211,3.2076407640764,1242850.5337911,11576.576115431,3430837.8705762,8.4076407640764,0,0
-183.65196674842,3.4769149111896,3.2120712071207,1242850.5337911,11576.576115431,3430837.8705762,8.4120712071207,0,0
-183.65196667393,3.448092010658,3.216501650165,1242850.5337911,11576.576115431,3430837.8705762,8.416501650165,0,0
-183.65196659944,3.4192691101264,3.2209320932093,1242850.5337911,11576.576115431,3430837.8705762,8.4209320932093,0,0
-183.65196652495,3.3904462095949,3.2253625362536,1242850.5337911,11576.576115431,3430837.8705762,8.4253625362536,0,0
-183.65196645046,3.3616233090633,3.2297929792979,1242850.5337911,11576.576115431,3430837.8705762,8.4297929792979,0,0
-183.65196637597,3.3328004085317,3.2342234223422,1242850.5337911,11576.576115431,3430837.8705762,8.4342234223422,0,0
-183.65196630148,3.3039775080002,3.2386538653865,1242850.5337911,11576.576115431,3430837.8705762,8.4386538653865,0,0
-183.65196622699,3.2751546074686,3.2430843084308,1242850.5337911,11576.576115431,3430837.8705762,8.4430843084308,0,0
-183.6519661525,3.2463317069371,3.2475147514751,1242850.5337911,11576.576115431,3430837.8705762,8.4475147514751,0,0
-183.65196607801,3.2175088064055,3.2519451945195,1242850.5337911,11576.576115431,3430837.8705762,8.4519451945195,0,0
-183.65196600352,3.1886859058739,3.2563756375638,1242850.5337911,11576.576115431,3430837.8705762,8.4563756375638,0,0
-183.65196592903,3.1598630053424,3.2608060806081,1242850.5337911,11576.576115431,3430837.8705762,8.4608060806081,0,0
-183.65196585454,3.1310401048108,3.2652365236524,1242850.5337911,11576.576115431,3430837.8705762,8.4652365236524,0,0
-183.65196578005,3.1022172042792,3.2696669666967,1242850.5337911,11576.576115431,3430837.8705762,8.4696669666967,0,0
-183.65196570556,3.0733943037477,3.274097409741,1242850.5337911,11576.576115431,3430837.8705762,8.474097409741,0,0
-183.65196563107,3.0445714032161,3.2785278527853,1242850.5337911,11576.576115431,3430837.8705762,8.4785278527853,0,0
-183.65196555574,3.0157485018366,3.2829582958296,1263787.635174,4848.6903781963,3436332.8293512,8.4829582958296,0,0
-183.65196547973,2.9869255997553,3.2873887388739,1263787.635174,4848.6903781963,3436332.8293512,8.4873887388739,0,0
-183.65196540371,2.9581026976739,3.2918191819182,1263787.635174,4848.6903781963,3436332.8293512,8.4918191819182,0,0
-183.6519653277,2.9292797955926,3.2962496249625,1263787.635174,4848.6903781963,3436332.8293512,8.4962496249625,0,0
-183.65196525168,2.9004568935112,3.3006800680068,1263787.635174,4848.6903781963,3436332.8293512,8.5006800680068,0,0
-183.65196517566,2.8716339914299,3.3051105110511,1263787.635174,4848.6903781963,3436332.8293512,8.5051105110511,0,0
-183.65196509965,2.8428110893485,3.3095409540954,1263787.635174,4848.6903781963,3436332.8293512,8.5095409540954,0,0
-183.65196502363,2.8139881872672,3.3139713971397,1263787.635174,4848.6903781963,3436332.8293512,8.5139713971397,0,0
-183.65196494762,2.7851652851859,3.318401840184,1263787.635174,4848.6903781963,3436332.8293512,8.518401840184,0,0
-183.6519648716,2.7563423831045,3.3228322832283,1263787.635174,4848.6903781963,3436332.8293512,8.5228322832283,0,0
-183.65196479558,2.7275194810232,3.3272627262726,1263787.635174,4848.6903781963,3436332.8293512,8.5272627262726,0,0
-183.65196471957,2.6986965789418,3.3316931693169,1263787.635174,4848.6903781963,3436332.8293512,8.5316931693169,0,0
-183.65196464355,2.6698736768605,3.3361236123612,1263787.635174,4848.6903781963,3436332.8293512,8.5361236123612,0,0
-183.65196456754,2.6410507747791,3.3405540554055,1263787.635174,4848.6903781963,3436332.8293512,8.5405540554055,0,0
-183.65196449152,2.6122278726978,3.3449844984498,1263787.635174,4848.6903781963,3436332.8293512,8.5449844984498,0,0
-183.65196441551,2.5834049706165,3.3494149414941,1263787.635174,4848.6903781963,3436332.8293512,8.5494149414941,0,0
-183.65196433949,2.5545820685351,3.3538453845385,1263787.635174,4848.6903781963,3436332.8293512,8.5538453845385,0,0
-183.65196426347,2.5257591664538,3.3582758275828,1263787.635174,4848.6903781963,3436332.8293512,8.5582758275828,0,0
-183.65196418746,2.4969362643724,3.3627062706271,1263787.635174,4848.6903781963,3436332.8293512,8.5627062706271,0,0
-183.65196411144,2.4681133622911,3.3671367136714,1263787.635174,4848.6903781963,3436332.8293512,8.5671367136714,0,0
-183.65196403543,2.4392904602097,3.3715671567157,1263787.635174,4848.6903781963,3436332.8293512,8.5715671567157,0,0
-183.65196395941,2.4104675581284,3.37599759976,1263787.635174,4848.6903781963,3436332.8293512,8.57599759976,0,0
-183.65196388339,2.3816446560471,3.3804280428043,1263787.635174,4848.6903781963,3436332.8293512,8.5804280428043,0,0
-183.65196380738,2.3528217539657,3.3848584858486,1263787.635174,4848.6903781963,3436332.8293512,8.5848584858486,0,0
-183.65196373136,2.3239988518844,3.3892889288929,1263787.635174,4848.6903781963,3436332.8293512,8.5892889288929,0,0
-183.65196365535,2.295175949803,3.3937193719372,1263787.635174,4848.6903781963,3436332.8293512,8.5937193719372,0,0
-183.65196357933,2.2663530477217,3.3981498149815,1263787.635174,4848.6903781963,3436332.8293512,8.5981498149815,0,0
-183.65196350331,2.2375301456403,3.4025802580258,1263787.635174,4848.6903781963,3436332.8293512,8.6025802580258,0,0
-183.6519634273,2.208707243559,3.4070107010701,1263787.635174,4848.6903781963,3436332.8293512,8.6070107010701,0,0
-183.65196335128,2.1798843414777,3.4114411441144,1263787.635174,4848.6903781963,3436332.8293512,8.6114411441144,0,0
-183.65196327527,2.1510614393963,3.4158715871587,1263787.635174,4848.6903781963,3436332.8293512,8.6158715871587,0,0
-183.65196319925,2.122238537315,3.420302030203,1263787.635174,4848.6903781963,3436332.8293512,8.620302030203,0,0
-183.65196312323,2.0934156352336,3.4247324732473,1263787.635174,4848.6903781963,3436332.8293512,8.6247324732473,0,0
-183.65196304722,2.0645927331523,3.4291629162916,1263787.635174,4848.6903781963,3436332.8293512,8.6291629162916,0,0
-183.6519629712,2.0357698310709,3.4335933593359,1263787.635174,4848.6903781963,3436332.8293512,8.6335933593359,0,0
-183.65196289519,2.0069469289896,3.4380238023802,1263787.635174,4848.6903781963,3436332.8293512,8.6380238023802,0,0
-183.65196281917,1.9781240269083,3.4424542454245,1263787.635174,4848.6903781963,3436332.8293512,8.6424542454245,0,0
-183.65196274315,1.9493011248269,3.4468846884688,1263787.635174,4848.6903781963,3436332.8293512,8.6468846884688,0,0
-183.65196266714,1.9204782227456,3.4513151315132,1263787.635174,4848.6903781963,3436332.8293512,8.6513151315132,0,0
-183.65196259112,1.8916553206642,3.4557455745575,1263787.635174,4848.6903781963,3436332.8293512,8.6557455745575,0,0
-183.65196251511,1.8628324185829,3.4601760176018,1263787.635174,4848.6903781963,3436332.8293512,8.6601760176018,0,0
-183.65196243909,1.8340095165015,3.4646064606461,1263787.635174,4848.6903781963,3436332.8293512,8.6646064606461,0,0
-183.65196236308,1.8051866144202,3.4690369036904,1263787.635174,4848.6903781963,3436332.8293512,8.6690369036904,0,0
-183.65196228706,1.7763637123389,3.4734673467347,1263787.635174,4848.6903781963,3436332.8293512,8.6734673467347,0,0
-183.65196221104,1.7475408102575,3.477897789779,1263787.635174,4848.6903781963,3436332.8293512,8.677897789779,0,0
-183.65196213503,1.7187179081762,3.4823282328233,1263787.635174,4848.6903781963,3436332.8293512,8.6823282328233,0,0
-183.65196205901,1.6898950060948,3.4867586758676,1263787.635174,4848.6903781963,3436332.8293512,8.6867586758676,0,0
-183.651961983,1.6610721040135,3.4911891189119,1263787.635174,4848.6903781963,3436332.8293512,8.6911891189119,0,0
-183.65196190698,1.6322492019321,3.4956195619562,1263787.635174,4848.6903781963,3436332.8293512,8.6956195619562,0,0
-183.6519618305,1.6034262982917,3.5000500050005,1257204.4199522,-17836.245130525,3336547.6590247,8.7000500050005,0,0
-183.65196175235,1.5746033890565,3.5044804480448,1257204.4199522,-17836.245130525,3336547.6590247,8.7044804480448,0,0
-183.65196167421,1.5457804798212,3.5089108910891,1257204.4199522,-17836.245130525,3336547.6590247,8.7089108910891,0,0
-183.65196159606,1.516957570586,3.5133413341334,1257204.4199522,-17836.245130525,3336547.6590247,8.7133413341334,0,0
-183.65196151791,1.4881346613507,3.5177717771777,1257204.4199522,-17836.245130525,3336547.6590247,8.7177717771777,0,0
-183.65196143977,1.4593117521154,3.522202220222,1257204.4199522,-17836.245130525,3336547.6590247,8.722202220222,0,0
-183.65196136162,1.4304888428802,3.5266326632663,1257204.4199522,-17836.245130525,3336547.6590247,8.7266326632663,0,0
-183.65196128347,1.401665933645,3.5310631063106,1257204.4199522,-17836.245130525,3336547.6590247,8.7310631063106,0,0
-183.65196120532,1.3728430244097,3.5354935493549,1257204.4199522,-17836.245130525,3336547.6590247,8.7354935493549,0,0
-183.65196112718,1.3440201151744,3.5399239923992,1257204.4199522,-17836.245130525,3336547.6590247,8.7399239923992,0,0
-183.65196104903,1.3151972059392,3.5443544354435,1257204.4199522,-17836.245130525,3336547.6590247,8.7443544354435,0,0
-183.65196097088,1.2863742967039,3.5487848784878,1257204.4199522,-17836.245130525,3336547.6590247,8.7487848784878,0,0
-183.65196089274,1.2575513874687,3.5532153215322,1257204.4199522,-17836.245130525,3336547.6590247,8.7532153215322,0,0
-183.65196081459,1.2287284782334,3.5576457645765,1257204.4199522,-17836.245130525,3336547.6590247,8.7576457645765,0,0
-183.65196073644,1.1999055689982,3.5620762076208,1257204.4199522,-17836.245130525,3336547.6590247,8.7620762076208,0,0
-183.6519606583,1.1710826597629,3.5665066506651,1257204.4199522,-17836.245130525,3336547.6590247,8.7665066506651,0,0
-183.65196058015,1.1422597505277,3.5709370937094,1257204.4199522,-17836.245130525,3336547.6590247,8.7709370937094,0,0
-183.651960502,1.1134368412924,3.5753675367537,1257204.4199522,-17836.245130525,3336547.6590247,8.7753675367537,0,0
-183.65196042386,1.0846139320572,3.579797979798,1257204.4199522,-17836.245130525,3336547.6590247,8.779797979798,0,0
-183.65196034571,1.0557910228219,3.5842284228423,1257204.4199522,-17836.245130525,3336547.6590247,8.7842284228423,0,0
-183.65196026756,1.0269681135867,3.5886588658866,1257204.4199522,-17836.245130525,3336547.6590247,8.7886588658866,0,0
-183.65196018941,0.99814520435142,3.5930893089309,1257204.4199522,-17836.245130525,3336547.6590247,8.7930893089309,0,0
-183.65196011127,0.96932229511616,3.5975197519752,1257204.4199522,-17836.245130525,3336547.6590247,8.7975197519752,0,0
-183.65196003312,0.94049938588091,3.6019501950195,1257204.4199522,-17836.245130525,3336547.6590247,8.8019501950195,0,0
-183.65195995497,0.91167647664565,3.6063806380638,1257204.4199522,-17836.245130525,3336547.6590247,8.8063806380638,0,0
-183.65195987683,0.88285356741041,3.6108110811081,1257204.4199522,-17836.245130525,3336547.6590247,8.8108110811081,0,0
-183.65195979868,0.85403065817514,3.6152415241524,1257204.4199522,-17836.245130525,3336547.6590247,8.8152415241524,0,0
-183.65195972053,0.8252077489399,3.6196719671967,1257204.4199522,-17836.245130525,3336547.6590247,8.8196719671967,0,0
-183.65195964239,0.79638483970465,3.624102410241,1257204.4199522,-17836.245130525,3336547.6590247,8.824102410241,0,0
-183.65195956424,0.76756193046939,3.6285328532853,1257204.4199522,-17836.245130525,3336547.6590247,8.8285328532853,0,0
-183.65195948609,0.73873902123414,3.6329632963296,1257204.4199522,-17836.245130525,3336547.6590247,8.8329632963296,0,0
-183.65195940795,0.70991611199889,3.6373937393739,1257204.4199522,-17836.245130525,3336547.6590247,8.8373937393739,0,0
-183.6519593298,0.68109320276363,3.6418241824182,1257204.4199522,-17836.245130525,3336547.6590247,8.8418241824182,0,0
-183.65195925165,0.65227029352838,3.6462546254625,1257204.4199522,-17836.245130525,3336547.6590247,8.8462546254625,0,0
-183.65195917351,0.62344738429313,3.6506850685069,1257204.4199522,-17836.245130525,3336547.6590247,8.8506850685069,0,0
-183.65195909536,0.59462447505787,3.6551155115512,1257204.4199522,-17836.245130525,3336547.6590247,8.8551155115512,0,0
-183.65195901721,0.56580156582262,3.6595459545955,1257204.4199522,-17836.245130525,3336547.6590247,8.8595459545955,0,0
-183.65195893906,0.53697865658737,3.6639763976398,1257204.4199522,-17836.245130525,3336547.6590247,8.8639763976398,0,0
-183.65195886092,0.5081557473521,3.6684068406841,1257204.4199522,-17836.245130525,3336547.6590247,8.8684068406841,0,0
-183.65195878277,0.47933283811686,3.6728372837284,1257204.4199522,-17836.245130525,3336547.6590247,8.8728372837284,0,0
-183.65195870462,0.45050992888161,3.6772677267727,1257204.4199522,-17836.245130525,3336547.6590247,8.8772677267727,0,0
-183.65195862648,0.42168701964635,3.681698169817,1257204.4199522,-17836.245130525,3336547.6590247,8.881698169817,0,0
-183.65195854833,0.3928641104111,3.6861286128613,1257204.4199522,-17836.245130525,3336547.6590247,8.8861286128613,0,0
-183.65195847018,0.36404120117585,3.6905590559056,1257204.4199522,-17836.245130525,3336547.6590247,8.8905590559056,0,0
-183.6519583904,0.33521829711775,3.6949894989499,1281376.4916289,13926.724027442,3322163.8071649,8.8949894989499,0,0
-183.65195830994,0.30639539521378,3.6994199419942,1281376.4916289,13926.724027442,3322163.8071649,8.8994199419942,0,0
-183.65195822948,0.27757249330983,3.7038503850385,1281376.4916289,13926.724027442,3322163.8071649,8.9038503850385,0,0
-183.65195814902,0.24874959140585,3.7082808280828,1281376.4916289,13926.724027442,3322163.8071649,8.9082808280828,0,0
-183.65195806856,0.2199266895019,3.7127112711271,1281376.4916289,13926.724027442,3322163.8071649,8.9127112711271,0,0
-183.6519579881,0.19110378759793,3.7171417141714,1281376.4916289,13926.724027442,3322163.8071649,8.9171417141714,0,0
-183.65195790764,0.16228088569397,3.7215721572157,1281376.4916289,13926.724027442,3322163.8071649,8.9215721572157,0,0
-183.65195782718,0.13345798379001,3.72600260026,1281376.4916289,13926.724027442,3322163.8071649,8.92600260026,0,0
-183.65195774672,0.10463508188605,3.7304330433043,1281376.4916289,13926.724027442,3322163.8071649,8.9304330433043,0,0
-183.65195766626,0.075812179982083,3.7348634863486,1281376.4916289,13926.724027442,3322163.8071649,8.9348634863486,0,0
-183.6519575858,0.04698927807812,3.7392939293929,1281376.4916289,13926.724027442,3322163.8071649,8.9392939293929,0,0
-183.65195750534,0.018166376174156,3.7437243724372,1281376.4916289,13926.724027442,3322163.8071649,8.9437243724372,0,0
-183.65195742488,-0.010656525729808,3.7481548154815,1281376.4916289,13926.724027442,3322163.8071649,8.9481548154815,0,0
-183.65195734441,-0.039479427633771,3.7525852585259,1281376.4916289,13926.724027442,3322163.8071649,8.9525852585259,0,0
-183.65195726395,-0.068302329537736,3.7570157015702,1281376.4916289,13926.724027442,3322163.8071649,8.9570157015702,0,0
-183.65195718349,-0.097125231441688,3.7614461446145,1281376.4916289,13926.724027442,3322163.8071649,8.9614461446145,0,0
-183.65195710303,-0.12594813334566,3.7658765876588,1281376.4916289,13926.724027442,3322163.8071649,8.9658765876588,0,0
-183.65195702257,-0.15477103524963,3.7703070307031,1281376.4916289,13926.724027442,3322163.8071649,8.9703070307031,0,0
-183.65195694211,-0.18359393715359,3.7747374737474,1281376.4916289,13926.724027442,3322163.8071649,8.9747374737474,0,0
-183.65195686165,-0.21241683905755,3.7791679167917,1281376.4916289,13926.724027442,3322163.8071649,8.9791679167917,0,0
-183.65195678119,-0.24123974096152,3.783598359836,1281376.4916289,13926.724027442,3322163.8071649,8.983598359836,0,0
-183.65195670073,-0.27006264286549,3.7880288028803,1281376.4916289,13926.724027442,3322163.8071649,8.9880288028803,0,0
-183.65195662027,-0.29888554476945,3.7924592459246,1281376.4916289,13926.724027442,3322163.8071649,8.9924592459246,0,0
-183.65195653981,-0.3277084466734,3.7968896889689,1281376.4916289,13926.724027442,3322163.8071649,8.9968896889689,0,0
-183.65195645935,-0.35653134857737,3.8013201320132,1281376.4916289,13926.724027442,3322163.8071649,9.0013201320132,0,0
-183.65195637889,-0.38535425048132,3.8057505750575,1281376.4916289,13926.724027442,3322163.8071649,9.0057505750575,0,0
-183.65195629843,-0.4141771523853,3.8101810181018,1281376.4916289,13926.724027442,3322163.8071649,9.0101810181018,0,0
-183.65195621797,-0.44300005428925,3.8146114611461,1281376.4916289,13926.724027442,3322163.8071649,9.0146114611461,0,0
-183.65195613751,-0.47182295619322,3.8190419041904,1281376.4916289,13926.724027442,3322163.8071649,9.0190419041904,0,0
-183.65195605704,-0.50064585809718,3.8234723472347,1281376.4916289,13926.724027442,3322163.8071649,9.0234723472347,0,0
-183.65195597658,-0.52946876000113,3.827902790279,1281376.4916289,13926.724027442,3322163.8071649,9.027902790279,0,0
-183.65195589612,-0.55829166190511,3.8323332333233,1281376.4916289,13926.724027442,3322163.8071649,9.0323332333233,0,0
-183.65195581566,-0.58711456380907,3.8367636763676,1281376.4916289,13926.724027442,3322163.8071649,9.0367636763676,0,0
-183.6519557352,-0.61593746571303,3.8411941194119,1281376.4916289,13926.724027442,3322163.8071649,9.0411941194119,0,0
-183.65195565474,-0.644760367617,3.8456245624562,1281376.4916289,13926.724027442,3322163.8071649,9.0456245624562,0,0
-183.65195557428,-0.67358326952096,3.8500550055005,1281376.4916289,13926.724027442,3322163.8071649,9.0500550055005,0,0
-183.65195549382,-0.70240617142493,3.8544854485449,1281376.4916289,13926.724027442,3322163.8071649,9.0544854485449,0,0
-183.65195541336,-0.73122907332889,3.8589158915892,1281376.4916289,13926.724027442,3322163.8071649,9.0589158915892,0,0
-183.6519553329,-0.76005197523285,3.8633463346335,1281376.4916289,13926.724027442,3322163.8071649,9.0633463346335,0,0
-183.65195525244,-0.78887487713682,3.8677767776778,1281376.4916289,13926.724027442,3322163.8071649,9.0677767776778,0,0
-183.65195517198,-0.81769777904079,3.8722072207221,1281376.4916289,13926.724027442,3322163.8071649,9.0722072207221,0,0
-183.65195509152,-0.84652068094474,3.8766376637664,1281376.4916289,13926.724027442,3322163.8071649,9.0766376637664,0,0
-183.65195501106,-0.87534358284871,3.8810681068107,1281376.4916289,13926.724027442,3322163.8071649,9.0810681068107,0,0
-183.6519549306,-0.90416648475267,3.885498549855,1281376.4916289,13926.724027442,3322163.8071649,9.085498549855,0,0
-183.65195485014,-0.93298938665664,3.8899289928993,1281376.4916289,13926.724027442,3322163.8071649,9.0899289928993,0,0
-183.65195476968,-0.9618122885606,3.8943594359436,1281376.4916289,13926.724027442,3322163.8071649,9.0943594359436,0,0
-183.65195468921,-0.99063519046455,3.8987898789879,1281376.4916289,13926.724027442,3322163.8071649,9.0987898789879,0,0
-183.65195460875,-1.0194580923685,3.9032203220322,1281376.4916289,13926.724027442,3322163.8071649,9.1032203220322,0,0
-183.65195452829,-1.0482809942725,3.9076507650765,1281376.4916289,13926.724027442,3322163.8071649,9.1076507650765,0,0
-183.65195444783,-1.0771038961765,3.9120812081208,1281376.4916289,13926.724027442,3322163.8071649,9.1120812081208,0,0
-183.65195436737,-1.1059267980804,3.9165116511651,1281376.4916289,13926.724027442,3322163.8071649,9.1165116511651,0,0
-183.65195428691,-1.1347496999844,3.9209420942094,1281376.4916289,13926.724027442,3322163.8071649,9.1209420942094,0,0
-183.65195420645,-1.1635726018883,3.9253725372537,1281376.4916289,13926.724027442,3322163.8071649,9.1253725372537,0,0
-183.65195412599,-1.1923955037923,3.929802980298,1281376.4916289,13926.724027442,3322163.8071649,9.129802980298,0,0
-183.65195404553,-1.2212184056963,3.9342334233423,1281376.4916289,13926.724027442,3322163.8071649,9.1342334233423,0,0
-183.65195396507,-1.2500413076002,3.9386638663866,1281376.4916289,13926.724027442,3322163.8071649,9.1386638663866,0,0
-183.65195388461,-1.2788642095042,3.9430943094309,1281376.4916289,13926.724027442,3322163.8071649,9.1430943094309,0,0
-183.65195380415,-1.3076871114082,3.9475247524752,1281376.4916289,13926.724027442,3322163.8071649,9.1475247524752,0,0
-183.65195372369,-1.3365100133121,3.9519551955196,1281376.4916289,13926.724027442,3322163.8071649,9.1519551955196,0,0
-183.65195364323,-1.3653329152161,3.9563856385639,1281376.4916289,13926.724027442,3322163.8071649,9.1563856385639,0,0
-183.65195356277,-1.39415581712,3.9608160816082,1281376.4916289,13926.724027442,3322163.8071649,9.1608160816082,0,0
-183.65195348231,-1.422978719024,3.9652465246525,1281376.4916289,13926.724027442,3322163.8071649,9.1652465246525,0,0
-183.65195340184,-1.451801620928,3.9696769676968,1281376.4916289,13926.724027442,3322163.8071649,9.1696769676968,0,0
-183.65195332138,-1.4806245228319,3.9741074107411,1281376.4916289,13926.724027442,3322163.8071649,9.1741074107411,0,0
-183.65195324092,-1.5094474247359,3.9785378537854,1281376.4916289,13926.724027442,3322163.8071649,9.1785378537854,0,0
-183.65195316046,-1.5382703266399,3.9829682968297,1281376.4916289,13926.724027442,3322163.8071649,9.1829682968297,0,0
-183.65195308,-1.5670932285438,3.987398739874,1281376.4916289,13926.724027442,3322163.8071649,9.187398739874,0,0
-183.65195299954,-1.5959161304478,3.9918291829183,1281376.4916289,13926.724027442,3322163.8071649,9.1918291829183,0,0
-183.65195291908,-1.6247390323518,3.9962596259626,1281376.4916289,13926.724027442,3322163.8071649,9.1962596259626,0,0
-183.65195283862,-1.6535619342557,4.0006900690069,1281376.4916289,13926.724027442,3322163.8071649,9.2006900690069,0,0
-183.65195275816,-1.6823848361597,4.0051205120512,1281376.4916289,13926.724027442,3322163.8071649,9.2051205120512,0,0
-183.65195267704,-1.7112077411556,4.0095509550955,1276404.3204097,-17024.015852201,3244677.6581691,9.2095509550955,0,0
-183.65195259492,-1.7400306509337,4.0139813981398,1276404.3204097,-17024.015852201,3244677.6581691,9.2139813981398,0,0
-183.65195251279,-1.7688535607117,4.0184118411841,1276404.3204097,-17024.015852201,3244677.6581691,9.2184118411841,0,0
-183.65195243067,-1.7976764704897,4.0228422842284,1276404.3204097,-17024.015852201,3244677.6581691,9.2228422842284,0,0
-183.65195234854,-1.8264993802677,4.0272727272727,1276404.3204097,-17024.015852201,3244677.6581691,9.2272727272727,0,0
-183.65195226641,-1.8553222900457,4.031703170317,1276404.3204097,-17024.015852201,3244677.6581691,9.231703170317,0,0
-183.65195218429,-1.8841451998237,4.0361336133613,1276404.3204097,-17024.015852201,3244677.6581691,9.2361336133613,0,0
-183.65195210216,-1.9129681096017,4.0405640564056,1276404.3204097,-17024.015852201,3244677.6581691,9.2405640564056,0,0
-183.65195202003,-1.9417910193797,4.0449944994499,1276404.3204097,-17024.015852201,3244677.6581691,9.2449944994499,0,0
-183.65195193791,-1.9706139291577,4.0494249424942,1276404.3204097,-17024.015852201,3244677.6581691,9.2494249424942,0,0
-183.65195185578,-1.9994368389357,4.0538553855386,1276404.3204097,-17024.015852201,3244677.6581691,9.2538553855386,0,0
-183.65195177365,-2.0282597487137,4.0582858285829,1276404.3204097,-17024.015852201,3244677.6581691,9.2582858285829,0,0
-183.65195169153,-2.0570826584917,4.0627162716272,1276404.3204097,-17024.015852201,3244677.6581691,9.2627162716272,0,0
-183.6519516094,-2.0859055682697,4.0671467146715,1276404.3204097,-17024.015852201,3244677.6581691,9.2671467146715,0,0
-183.65195152727,-2.1147284780477,4.0715771577158,1276404.3204097,-17024.015852201,3244677.6581691,9.2715771577158,0,0
-183.65195144515,-2.1435513878257,4.0760076007601,1276404.3204097,-17024.015852201,3244677.6581691,9.2760076007601,0,0
-183.65195136302,-2.1723742976037,4.0804380438044,1276404.3204097,-17024.015852201,3244677.6581691,9.2804380438044,0,0
-183.65195128089,-2.2011972073817,4.0848684868487,1276404.3204097,-17024.015852201,3244677.6581691,9.2848684868487,0,0
-183.65195119877,-2.2300201171597,4.089298929893,1276404.3204097,-17024.015852201,3244677.6581691,9.289298929893,0,0
-183.65195111664,-2.2588430269377,4.0937293729373,1276404.3204097,-17024.015852201,3244677.6581691,9.2937293729373,0,0
-183.65195103451,-2.2876659367158,4.0981598159816,1276404.3204097,-17024.015852201,3244677.6581691,9.2981598159816,0,0
-183.65195095239,-2.3164888464938,4.1025902590259,1276404.3204097,-17024.015852201,3244677.6581691,9.3025902590259,0,0
-183.65195087026,-2.3453117562718,4.1070207020702,1276404.3204097,-17024.015852201,3244677.6581691,9.3070207020702,0,0
-183.65195078813,-2.3741346660498,4.1114511451145,1276404.3204097,-17024.015852201,3244677.6581691,9.3114511451145,0,0
-183.65195070601,-2.4029575758278,4.1158815881588,1276404.3204097,-17024.015852201,3244677.6581691,9.3158815881588,0,0
-183.65195062388,-2.4317804856058,4.1203120312031,1276404.3204097,-17024.015852201,3244677.6581691,9.3203120312031,0,0
-183.65195054175,-2.4606033953838,4.1247424742474,1276404.3204097,-17024.015852201,3244677.6581691,9.3247424742474,0,0
-183.65195045963,-2.4894263051618,4.1291729172917,1276404.3204097,-17024.015852201,3244677.6581691,9.3291729172917,0,0
-183.6519503775,-2.5182492149398,4.133603360336,1276404.3204097,-17024.015852201,3244677.6581691,9.333603360336,0,0
-183.65195029537,-2.5470721247178,4.1380338033803,1276404.3204097,-17024.015852201,3244677.6581691,9.3380338033803,0,0
-183.65195021325,-2.5758950344958,4.1424642464246,1276404.3204097,-17024.015852201,3244677.6581691,9.3424642464246,0,0
-183.6519501299,-2.6047179400387,4.1468946894689,1292264.0838357,11582.22318935,3218179.5380384,9.3468946894689,0,0
-183.6519500458,-2.63354084299,4.1513251325133,1292264.0838357,11582.22318935,3218179.5380384,9.3513251325133,0,0
-183.6519499617,-2.6623637459413,4.1557555755576,1292264.0838357,11582.22318935,3218179.5380384,9.3557555755576,0,0
-183.6519498776,-2.6911866488926,4.1601860186019,1292264.0838357,11582.22318935,3218179.5380384,9.3601860186019,0,0
-183.6519497935,-2.7200095518439,4.1646164616462,1292264.0838357,11582.22318935,3218179.5380384,9.3646164616462,0,0
-183.6519497094,-2.7488324547953,4.1690469046905,1292264.0838357,11582.22318935,3218179.5380384,9.3690469046905,0,0
-183.6519496253,-2.7776553577466,4.1734773477348,1292264.0838357,11582.22318935,3218179.5380384,9.3734773477348,0,0
-183.65194954121,-2.8064782606979,4.1779077907791,1292264.0838357,11582.22318935,3218179.5380384,9.3779077907791,0,0
-183.65194945711,-2.8353011636492,4.1823382338234,1292264.0838357,11582.22318935,3218179.5380384,9.3823382338234,0,0
-183.65194937301,-2.8641240666005,4.1867686768677,1292264.0838357,11582.22318935,3218179.5380384,9.3867686768677,0,0
-183.65194928891,-2.8929469695518,4.191199119912,1292264.0838357,11582.22318935,3218179.5380384,9.391199119912,0,0
-183.65194920481,-2.9217698725031,4.1956295629563,1292264.0838357,11582.22318935,3218179.5380384,9.3956295629563,0,0
-183.65194912071,-2.9505927754544,4.2000600060006,1292264.0838357,11582.22318935,3218179.5380384,9.4000600060006,0,0
-183.65194903661,-2.9794156784058,4.2044904490449,1292264.0838357,11582.22318935,3218179.5380384,9.4044904490449,0,0
-183.65194895251,-3.0082385813571,4.2089208920892,1292264.0838357,11582.22318935,3218179.5380384,9.4089208920892,0,0
-183.65194886841,-3.0370614843084,4.2133513351335,1292264.0838357,11582.22318935,3218179.5380384,9.4133513351335,0,0
-183.65194878432,-3.0658843872597,4.2177817781778,1292264.0838357,11582.22318935,3218179.5380384,9.4177817781778,0,0
-183.65194870022,-3.094707290211,4.2222122212221,1292264.0838357,11582.22318935,3218179.5380384,9.4222122212221,0,0
-183.65194861612,-3.1235301931623,4.2266426642664,1292264.0838357,11582.22318935,3218179.5380384,9.4266426642664,0,0
-183.65194853202,-3.1523530961136,4.2310731073107,1292264.0838357,11582.22318935,3218179.5380384,9.4310731073107,0,0
-183.65194844792,-3.181175999065,4.235503550355,1292264.0838357,11582.22318935,3218179.5380384,9.435503550355,0,0
-183.65194836382,-3.2099989020163,4.2399339933993,1292264.0838357,11582.22318935,3218179.5380384,9.4399339933993,0,0
-183.65194827972,-3.2388218049676,4.2443644364436,1292264.0838357,11582.22318935,3218179.5380384,9.4443644364436,0,0
-183.65194819562,-3.2676447079189,4.2487948794879,1292264.0838357,11582.22318935,3218179.5380384,9.4487948794879,0,0
-183.65194811153,-3.2964676108702,4.2532253225323,1292264.0838357,11582.22318935,3218179.5380384,9.4532253225323,0,0
-183.65194802743,-3.3252905138215,4.2576557655766,1292264.0838357,11582.22318935,3218179.5380384,9.4576557655766,0,0
-183.65194794333,-3.3541134167728,4.2620862086209,1292264.0838357,11582.22318935,3218179.5380384,9.4620862086209,0,0
-183.65194785923,-3.3829363197241,4.2665166516652,1292264.0838357,11582.22318935,3218179.5380384,9.4665166516652,0,0
-183.65194777513,-3.4117592226754,4.2709470947095,1292264.0838357,11582.22318935,3218179.5380384,9.4709470947095,0,0
-183.65194769103,-3.4405821256268,4.2753775377538,1292264.0838357,11582.22318935,3218179.5380384,9.4753775377538,0,0
-183.65194760693,-3.4694050285781,4.2798079807981,1292264.0838357,11582.22318935,3218179.5380384,9.4798079807981,0,0
-183.65194752283,-3.4982279315294,4.2842384238424,1292264.0838357,11582.22318935,3218179.5380384,9.4842384238424,0,0
-183.65194743873,-3.5270508344807,4.2886688668867,1292264.0838357,11582.22318935,3218179.5380384,9.4886688668867,0,0
-183.65194735464,-3.555873737432,4.293099309931,1292264.0838357,11582.22318935,3218179.5380384,9.493099309931,0,0
-183.65194727054,-3.5846966403833,4.2975297529753,1292264.0838357,11582.22318935,3218179.5380384,9.4975297529753,0,0
-183.65194718644,-3.6135195433347,4.3019601960196,1292264.0838357,11582.22318935,3218179.5380384,9.5019601960196,0,0
-183.65194710234,-3.642342446286,4.3063906390639,1292264.0838357,11582.22318935,3218179.5380384,9.5063906390639,0,0
-183.65194701824,-3.6711653492373,4.3108210821082,1292264.0838357,11582.22318935,3218179.5380384,9.5108210821082,0,0
-183.65194693414,-3.6999882521886,4.3152515251525,1292264.0838357,11582.22318935,3218179.5380384,9.5152515251525,0,0
-183.65194685004,-3.7288111551399,4.3196819681968,1292264.0838357,11582.22318935,3218179.5380384,9.5196819681968,0,0
-183.65194676594,-3.7576340580912,4.3241124112411,1292264.0838357,11582.22318935,3218179.5380384,9.5241124112411,0,0
-183.65194668184,-3.7864569610425,4.3285428542854,1292264.0838357,11582.22318935,3218179.5380384,9.5285428542854,0,0
-183.65194659775,-3.8152798639938,4.3329732973297,1292264.0838357,11582.22318935,3218179.5380384,9.5329732973297,0,0
-183.65194651365,-3.8441027669452,4.337403740374,1292264.0838357,11582.22318935,3218179.5380384,9.537403740374,0,0
-183.65194642955,-3.8729256698965,4.3418341834183,1292264.0838357,11582.22318935,3218179.5380384,9.5418341834183,0,0
-183.65194634545,-3.9017485728478,4.3462646264626,1292264.0838357,11582.22318935,3218179.5380384,9.5462646264626,0,0
-183.65194626135,-3.9305714757991,4.350695069507,1292264.0838357,11582.22318935,3218179.5380384,9.550695069507,0,0
-183.65194617725,-3.9593943787504,4.3551255125513,1292264.0838357,11582.22318935,3218179.5380384,9.5551255125513,0,0
-183.65194609315,-3.9882172817017,4.3595559555956,1292264.0838357,11582.22318935,3218179.5380384,9.5595559555956,0,0
-183.65194600905,-4.017040184653,4.3639863986399,1292264.0838357,11582.22318935,3218179.5380384,9.5639863986399,0,0
-183.65194592495,-4.0458630876044,4.3684168416842,1292264.0838357,11582.22318935,3218179.5380384,9.5684168416842,0,0
-183.65194584086,-4.0746859905557,4.3728472847285,1292264.0838357,11582.22318935,3218179.5380384,9.5728472847285,0,0
-183.65194575676,-4.103508893507,4.3772777277728,1292264.0838357,11582.22318935,3218179.5380384,9.5772777277728,0,0
-183.65194567266,-4.1323317964583,4.3817081708171,1292264.0838357,11582.22318935,3218179.5380384,9.5817081708171,0,0
-183.65194558856,-4.1611546994096,4.3861386138614,1292264.0838357,11582.22318935,3218179.5380384,9.5861386138614,0,0
-183.65194550446,-4.1899776023609,4.3905690569057,1292264.0838357,11582.22318935,3218179.5380384,9.5905690569057,0,0
-183.65194542036,-4.2188005053122,4.39499949995,1292264.0838357,11582.22318935,3218179.5380384,9.59499949995,0,0
-183.65194533626,-4.2476234082635,4.3994299429943,1292264.0838357,11582.22318935,3218179.5380384,9.5994299429943,0,0
-183.65194525216,-4.2764463112149,4.4038603860386,1292264.0838357,11582.22318935,3218179.5380384,9.6038603860386,0,0
-183.65194516806,-4.3052692141662,4.4082908290829,1292264.0838357,11582.22318935,3218179.5380384,9.6082908290829,0,0
-183.65194508397,-4.3340921171175,4.4127212721272,1292264.0838357,11582.22318935,3218179.5380384,9.6127212721272,0,0
-183.65194499987,-4.3629150200688,4.4171517151715,1292264.0838357,11582.22318935,3218179.5380384,9.6171517151715,0,0
-183.65194491577,-4.3917379230201,4.4215821582158,1292264.0838357,11582.22318935,3218179.5380384,9.6215821582158,0,0
-183.65194483167,-4.4205608259714,4.4260126012601,1292264.0838357,11582.22318935,3218179.5380384,9.6260126012601,0,0
-183.65194474757,-4.4493837289227,4.4304430443044,1292264.0838357,11582.22318935,3218179.5380384,9.6304430443044,0,0
-183.65194466347,-4.478206631874,4.4348734873487,1292264.0838357,11582.22318935,3218179.5380384,9.6348734873487,0,0
-183.65194457937,-4.5070295348254,4.439303930393,1292264.0838357,11582.22318935,3218179.5380384,9.639303930393,0,0
-183.65194449527,-4.5358524377767,4.4437343734373,1292264.0838357,11582.22318935,3218179.5380384,9.6437343734373,0,0
-183.65194441117,-4.564675340728,4.4481648164816,1292264.0838357,11582.22318935,3218179.5380384,9.6481648164816,0,0
-183.65194432708,-4.5934982436793,4.452595259526,1292264.0838357,11582.22318935,3218179.5380384,9.652595259526,0,0
-183.65194424298,-4.6223211466306,4.4570257025703,1292264.0838357,11582.22318935,3218179.5380384,9.6570257025703,0,0
-183.65194415888,-4.6511440495819,4.4614561456146,1292264.0838357,11582.22318935,3218179.5380384,9.6614561456146,0,0
-183.65194407478,-4.6799669525332,4.4658865886589,1292264.0838357,11582.22318935,3218179.5380384,9.6658865886589,0,0
-183.65194399068,-4.7087898554846,4.4703170317032,1292264.0838357,11582.22318935,3218179.5380384,9.6703170317032,0,0
-183.65194390658,-4.7376127584359,4.4747474747475,1292264.0838357,11582.22318935,3218179.5380384,9.6747474747475,0,0
-183.65194382248,-4.7664356613872,4.4791779177918,1292264.0838357,11582.22318935,3218179.5380384,9.6791779177918,0,0
-183.65194373838,-4.7952585643385,4.4836083608361,1292264.0838357,11582.22318935,3218179.5380384,9.6836083608361,0,0
-183.65194365428,-4.8240814672898,4.4880388038804,1292264.0838357,11582.22318935,3218179.5380384,9.6880388038804,0,0
-183.65194357019,-4.8529043702411,4.4924692469247,1292264.0838357,11582.22318935,3218179.5380384,9.6924692469247,0,0
-183.65194348609,-4.8817272731924,4.496899689969,1292264.0838357,11582.22318935,3218179.5380384,9.696899689969,0,0
-183.65194340199,-4.9105501761437,4.5013301330133,1292264.0838357,11582.22318935,3218179.5380384,9.7013301330133,0,0
-183.65194331789,-4.9393730790951,4.5057605760576,1292264.0838357,11582.22318935,3218179.5380384,9.7057605760576,0,0
-183.65194323379,-4.9681959820464,4.5101910191019,1292264.0838357,11582.22318935,3218179.5380384,9.7101910191019,0,0
-183.65194314969,-4.9970188849977,4.5146214621462,1292264.0838357,11582.22318935,3218179.5380384,9.7146214621462,0,0
-183.65194306559,-5.025841787949,4.5190519051905,1292264.0838357,11582.22318935,3218179.5380384,9.7190519051905,0,0
-183.65194298149,-5.0546646909003,4.5234823482348,1292264.0838357,11582.22318935,3218179.5380384,9.7234823482348,0,0
-183.65194289739,-5.0834875938516,4.5279127912791,1292264.0838357,11582.22318935,3218179.5380384,9.7279127912791,0,0
-183.6519428133,-5.1123104968029,4.5323432343234,1292264.0838357,11582.22318935,3218179.5380384,9.7323432343234,0,0
-183.6519427292,-5.1411333997543,4.5367736773677,1292264.0838357,11582.22318935,3218179.5380384,9.7367736773677,0,0
-183.6519426451,-5.1699563027056,4.541204120412,1292264.0838357,11582.22318935,3218179.5380384,9.741204120412,0,0
-183.651942561,-5.1987792056569,4.5456345634563,1292264.0838357,11582.22318935,3218179.5380384,9.7456345634563,0,0
-183.6519424769,-5.2276021086082,4.5500650065006,1292264.0838357,11582.22318935,3218179.5380384,9.7500650065007,0,0
-183.6519423928,-5.2564250115595,4.554495449545,1292264.0838357,11582.22318935,3218179.5380384,9.754495449545,0,0
-183.6519423076,-5.2852479193958,4.5589258925893,1290046.88056,-12232.059358723,3159878.1974895,9.7589258925893,0,0
-183.65194222213,-5.3140708284548,4.5633563356336,1290046.88056,-12232.059358723,3159878.1974895,9.7633563356336,0,0
-183.65194213665,-5.3428937375138,4.5677867786779,1290046.88056,-12232.059358723,3159878.1974895,9.7677867786779,0,0
-183.65194205118,-5.3717166465729,4.5722172217222,1290046.88056,-12232.059358723,3159878.1974895,9.7722172217222,0,0
-183.65194196571,-5.4005395556319,4.5766476647665,1290046.88056,-12232.059358723,3159878.1974895,9.7766476647665,0,0
-183.65194188023,-5.4293624646909,4.5810781078108,1290046.88056,-12232.059358723,3159878.1974895,9.7810781078108,0,0
-183.65194179476,-5.45818537375,4.5855085508551,1290046.88056,-12232.059358723,3159878.1974895,9.7855085508551,0,0
-183.65194170928,-5.487008282809,4.5899389938994,1290046.88056,-12232.059358723,3159878.1974895,9.7899389938994,0,0
-183.65194162381,-5.515831191868,4.5943694369437,1290046.88056,-12232.059358723,3159878.1974895,9.7943694369437,0,0
-183.65194153834,-5.5446541009271,4.598799879988,1290046.88056,-12232.059358723,3159878.1974895,9.798799879988,0,0
-183.65194145286,-5.5734770099861,4.6032303230323,1290046.88056,-12232.059358723,3159878.1974895,9.8032303230323,0,0
-183.65194136739,-5.6022999190451,4.6076607660766,1290046.88056,-12232.059358723,3159878.1974895,9.8076607660766,0,0
-183.65194128191,-5.6311228281042,4.6120912091209,1290046.88056,-12232.059358723,3159878.1974895,9.8120912091209,0,0
-183.65194119644,-5.6599457371632,4.6165216521652,1290046.88056,-12232.059358723,3159878.1974895,9.8165216521652,0,0
-183.65194111097,-5.6887686462222,4.6209520952095,1290046.88056,-12232.059358723,3159878.1974895,9.8209520952095,0,0
-183.65194102549,-5.7175915552813,4.6253825382538,1290046.88056,-12232.059358723,3159878.1974895,9.8253825382538,0,0
-183.65194094002,-5.7464144643403,4.6298129812981,1290046.88056,-12232.059358723,3159878.1974895,9.8298129812981,0,0
-183.65194085454,-5.7752373733993,4.6342434243424,1290046.88056,-12232.059358723,3159878.1974895,9.8342434243424,0,0
-183.65194076907,-5.8040602824583,4.6386738673867,1290046.88056,-12232.059358723,3159878.1974895,9.8386738673867,0,0
-183.6519406836,-5.8328831915174,4.643104310431,1290046.88056,-12232.059358723,3159878.1974895,9.843104310431,0,0
-183.65194059812,-5.8617061005764,4.6475347534753,1290046.88056,-12232.059358723,3159878.1974895,9.8475347534753,0,0
-183.65194051265,-5.8905290096354,4.6519651965197,1290046.88056,-12232.059358723,3159878.1974895,9.8519651965197,0,0
-183.65194042717,-5.9193519186945,4.656395639564,1290046.88056,-12232.059358723,3159878.1974895,9.856395639564,0,0
-183.65194034073,-5.9481748244187,4.6608260826083,1300827.1437303,12164.392440468,3126502.635327,9.8608260826083,0,0
-183.65194025351,-5.9769977274273,4.6652565256526,1300827.1437303,12164.392440468,3126502.635327,9.8652565256526,0,0
-183.65194016629,-6.0058206304359,4.6696869686969,1300827.1437303,12164.392440468,3126502.635327,9.8696869686969,0,0
-183.65194007906,-6.0346435334445,4.6741174117412,1300827.1437303,12164.392440468,3126502.635327,9.8741174117412,0,0
-183.65193999184,-6.063466436453,4.6785478547855,1300827.1437303,12164.392440468,3126502.635327,9.8785478547855,0,0
-183.65193990462,-6.0922893394616,4.6829782978298,1300827.1437303,12164.392440468,3126502.635327,9.8829782978298,0,0
-183.65193981739,-6.1211122424702,4.6874087408741,1300827.1437303,12164.392440468,3126502.635327,9.8874087408741,0,0
-183.65193973017,-6.1499351454788,4.6918391839184,1300827.1437303,12164.392440468,3126502.635327,9.8918391839184,0,0
-183.65193964294,-6.1787580484874,4.6962696269627,1300827.1437303,12164.392440468,3126502.635327,9.8962696269627,0,0
-183.65193955572,-6.207580951496,4.700700070007,1300827.1437303,12164.392440468,3126502.635327,9.900700070007,0,0
-183.6519394685,-6.2364038545046,4.7051305130513,1300827.1437303,12164.392440468,3126502.635327,9.9051305130513,0,0
-183.65193938127,-6.2652267575131,4.7095609560956,1300827.1437303,12164.392440468,3126502.635327,9.9095609560956,0,0
-183.65193929405,-6.2940496605217,4.7139913991399,1300827.1437303,12164.392440468,3126502.635327,9.9139913991399,0,0
-183.65193920683,-6.3228725635303,4.7184218421842,1300827.1437303,12164.392440468,3126502.635327,9.9184218421842,0,0
-183.6519391196,-6.3516954665389,4.7228522852285,1300827.1437303,12164.392440468,3126502.635327,9.9228522852285,0,0
-183.65193903238,-6.3805183695475,4.7272827282728,1300827.1437303,12164.392440468,3126502.635327,9.9272827282728,0,0
-183.65193894515,-6.4093412725561,4.7317131713171,1300827.1437303,12164.392440468,3126502.635327,9.9317131713171,0,0
-183.65193885793,-6.4381641755647,4.7361436143614,1300827.1437303,12164.392440468,3126502.635327,9.9361436143614,0,0
-183.65193877071,-6.4669870785733,4.7405740574057,1300827.1437303,12164.392440468,3126502.635327,9.9405740574057,0,0
-183.65193868348,-6.4958099815819,4.74500450045,1300827.1437303,12164.392440468,3126502.635327,9.94500450045,0,0
-183.65193859626,-6.5246328845904,4.7494349434943,1300827.1437303,12164.392440468,3126502.635327,9.9494349434943,0,0
-183.65193850904,-6.553455787599,4.7538653865387,1300827.1437303,12164.392440468,3126502.635327,9.9538653865387,0,0
-183.65193842181,-6.5822786906076,4.758295829583,1300827.1437303,12164.392440468,3126502.635327,9.958295829583,0,0
-183.65193833459,-6.6111015936162,4.7627262726273,1300827.1437303,12164.392440468,3126502.635327,9.9627262726273,0,0
-183.65193824736,-6.6399244966248,4.7671567156716,1300827.1437303,12164.392440468,3126502.635327,9.9671567156716,0,0
-183.65193816014,-6.6687473996334,4.7715871587159,1300827.1437303,12164.392440468,3126502.635327,9.9715871587159,0,0
-183.65193807292,-6.697570302642,4.7760176017602,1300827.1437303,12164.392440468,3126502.635327,9.9760176017602,0,0
-183.65193798569,-6.7263932056505,4.7804480448045,1300827.1437303,12164.392440468,3126502.635327,9.9804480448045,0,0
-183.65193789847,-6.7552161086591,4.7848784878488,1300827.1437303,12164.392440468,3126502.635327,9.9848784878488,0,0
-183.65193781124,-6.7840390116677,4.7893089308931,1300827.1437303,12164.392440468,3126502.635327,9.9893089308931,0,0
-183.65193772402,-6.8128619146763,4.7937393739374,1300827.1437303,12164.392440468,3126502.635327,9.9937393739374,0,0
-183.6519376368,-6.8416848176849,4.7981698169817,1300827.1437303,12164.392440468,3126502.635327,9.9981698169817,0,0
-183.65193754957,-6.8705077206935,4.802600260026,1300827.1437303,12164.392440468,3126502.635327,10.002600260026,0,0
-183.65193746235,-6.8993306237021,4.8070307030703,1300827.1437303,12164.392440468,3126502.635327,10.00703070307,0,0
-183.65193737513,-6.9281535267107,4.8114611461146,1300827.1437303,12164.392440468,3126502.635327,10.011461146115,0,0
-183.6519372879,-6.9569764297192,4.8158915891589,1300827.1437303,12164.392440468,3126502.635327,10.015891589159,0,0
-183.65193720068,-6.9857993327278,4.8203220322032,1300827.1437303,12164.392440468,3126502.635327,10.020322032203,0,0
-183.65193711345,-7.0146222357364,4.8247524752475,1300827.1437303,12164.392440468,3126502.635327,10.024752475248,0,0
-183.65193702623,-7.043445138745,4.8291829182918,1300827.1437303,12164.392440468,3126502.635327,10.029182918292,0,0
-183.65193693901,-7.0722680417536,4.8336133613361,1300827.1437303,12164.392440468,3126502.635327,10.033613361336,0,0
-183.65193685178,-7.1010909447622,4.8380438043804,1300827.1437303,12164.392440468,3126502.635327,10.03804380438,0,0
-183.65193676456,-7.1299138477708,4.8424742474247,1300827.1437303,12164.392440468,3126502.635327,10.042474247425,0,0
-183.65193667734,-7.1587367507794,4.846904690469,1300827.1437303,12164.392440468,3126502.635327,10.046904690469,0,0
-183.65193659011,-7.187559653788,4.8513351335134,1300827.1437303,12164.392440468,3126502.635327,10.051335133513,0,0
-183.65193650289,-7.2163825567965,4.8557655765577,1300827.1437303,12164.392440468,3126502.635327,10.055765576558,0,0
-183.65193641566,-7.2452054598051,4.860196019602,1300827.1437303,12164.392440468,3126502.635327,10.060196019602,0,0
-183.65193632844,-7.2740283628137,4.8646264626463,1300827.1437303,12164.392440468,3126502.635327,10.064626462646,0,0
-183.65193624122,-7.3028512658223,4.8690569056906,1300827.1437303,12164.392440468,3126502.635327,10.069056905691,0,0
-183.65193615399,-7.3316741688309,4.8734873487349,1300827.1437303,12164.392440468,3126502.635327,10.073487348735,0,0
-183.65193606677,-7.3604970718395,4.8779177917792,1300827.1437303,12164.392440468,3126502.635327,10.077917791779,0,0
-183.65193597955,-7.3893199748481,4.8823482348235,1300827.1437303,12164.392440468,3126502.635327,10.082348234823,0,0
-183.65193589232,-7.4181428778567,4.8867786778678,1300827.1437303,12164.392440468,3126502.635327,10.086778677868,0,0
-183.6519358051,-7.4469657808652,4.8912091209121,1300827.1437303,12164.392440468,3126502.635327,10.091209120912,0,0
-183.65193571787,-7.4757886838738,4.8956395639564,1300827.1437303,12164.392440468,3126502.635327,10.095639563956,0,0
-183.65193563065,-7.5046115868824,4.9000700070007,1300827.1437303,12164.392440468,3126502.635327,10.100070007001,0,0
-183.65193554343,-7.533434489891,4.904500450045,1300827.1437303,12164.392440468,3126502.635327,10.104500450045,0,0
-183.6519354562,-7.5622573928996,4.9089308930893,1300827.1437303,12164.392440468,3126502.635327,10.108930893089,0,0
-183.65193536898,-7.5910802959082,4.9133613361336,1300827.1437303,12164.392440468,3126502.635327,10.113361336134,0,0
-183.65193528176,-7.6199031989168,4.9177917791779,1300827.1437303,12164.392440468,3126502.635327,10.117791779178,0,0
-183.65193519453,-7.6487261019253,4.9222222222222,1300827.1437303,12164.392440468,3126502.635327,10.122222222222,0,0
-183.65193510731,-7.6775490049339,4.9266526652665,1300827.1437303,12164.392440468,3126502.635327,10.126652665267,0,0
-183.65193502008,-7.7063719079425,4.9310831083108,1300827.1437303,12164.392440468,3126502.635327,10.131083108311,0,0
-183.65193493286,-7.7351948109511,4.9355135513551,1300827.1437303,12164.392440468,3126502.635327,10.135513551355,0,0
-183.65193484564,-7.7640177139597,4.9399439943994,1300827.1437303,12164.392440468,3126502.635327,10.139943994399,0,0
-183.65193475841,-7.7928406169683,4.9443744374437,1300827.1437303,12164.392440468,3126502.635327,10.144374437444,0,0
-183.65193467119,-7.8216635199769,4.948804880488,1300827.1437303,12164.392440468,3126502.635327,10.148804880488,0,0
-183.65193458396,-7.8504864229855,4.9532353235324,1300827.1437303,12164.392440468,3126502.635327,10.153235323532,0,0
-183.65193449674,-7.879309325994,4.9576657665767,1300827.1437303,12164.392440468,3126502.635327,10.157665766577,0,0
-183.65193440952,-7.9081322290026,4.962096209621,1300827.1437303,12164.392440468,3126502.635327,10.162096209621,0,0
-183.65193432229,-7.9369551320112,4.9665266526653,1300827.1437303,12164.392440468,3126502.635327,10.166526652665,0,0
-183.65193423507,-7.9657780350198,4.9709570957096,1300827.1437303,12164.392440468,3126502.635327,10.17095709571,0,0
-183.65193414785,-7.9946009380284,4.9753875387539,1300827.1437303,12164.392440468,3126502.635327,10.175387538754,0,0
-183.65193406062,-8.023423841037,4.9798179817982,1300827.1437303,12164.392440468,3126502.635327,10.179817981798,0,0
-183.6519339734,-8.0522467440456,4.9842484248425,1300827.1437303,12164.392440468,3126502.635327,10.184248424842,0,0
-183.65193388617,-8.0810696470542,4.9886788678868,1300827.1437303,12164.392440468,3126502.635327,10.188678867887,0,0
-183.65193379895,-8.1098925500627,4.9931093109311,1300827.1437303,12164.392440468,3126502.635327,10.193109310931,0,0
-183.65193371141,-8.1387154568846,4.9975397539754,1296995.9074485,-6039.3923232028,3102226.2698502,10.197539753975,0,0
-183.65193362384,-8.1675383639257,5.0019701970197,1296995.9074485,-6039.3923232028,3102226.2698502,10.20197019702,0,0
-183.65193353628,-8.1963612709668,5.006400640064,1296995.9074485,-6039.3923232028,3102226.2698502,10.206400640064,0,0
-183.65193344871,-8.2251841780079,5.0108310831083,1296995.9074485,-6039.3923232028,3102226.2698502,10.210831083108,0,0
-183.65193336115,-8.2540070850489,5.0152615261526,1296995.9074485,-6039.3923232028,3102226.2698502,10.215261526153,0,0
-183.65193327358,-8.28282999209,5.0196919691969,1296995.9074485,-6039.3923232028,3102226.2698502,10.219691969197,0,0
-183.65193318602,-8.3116528991311,5.0241224122412,1296995.9074485,-6039.3923232028,3102226.2698502,10.224122412241,0,0
-183.65193309846,-8.3404758061722,5.0285528552855,1296995.9074485,-6039.3923232028,3102226.2698502,10.228552855286,0,0
-183.65193301089,-8.3692987132133,5.0329832983298,1296995.9074485,-6039.3923232028,3102226.2698502,10.23298329833,0,0
-183.65193292333,-8.3981216202543,5.0374137413741,1296995.9074485,-6039.3923232028,3102226.2698502,10.237413741374,0,0
-183.65193283576,-8.4269445272954,5.0418441844184,1296995.9074485,-6039.3923232028,3102226.2698502,10.241844184418,0,0
-183.6519327482,-8.4557674343365,5.0462746274627,1296995.9074485,-6039.3923232028,3102226.2698502,10.246274627463,0,0
-183.65193266064,-8.4845903413776,5.050705070507,1296995.9074485,-6039.3923232028,3102226.2698502,10.250705070507,0,0
-183.65193257307,-8.5134132484187,5.0551355135514,1296995.9074485,-6039.3923232028,3102226.2698502,10.255135513551,0,0
-183.65193248551,-8.5422361554597,5.0595659565957,1296995.9074485,-6039.3923232028,3102226.2698502,10.259565956596,0,0
-183.65193239794,-8.5710590625008,5.06399639964,1296995.9074485,-6039.3923232028,3102226.2698502,10.26399639964,0,0
-183.65193231038,-8.5998819695419,5.0684268426843,1296995.9074485,-6039.3923232028,3102226.2698502,10.268426842684,0,0
-183.65193222281,-8.628704876583,5.0728572857286,1296995.9074485,-6039.3923232028,3102226.2698502,10.272857285729,0,0
-183.65193213525,-8.6575277836241,5.0772877287729,1296995.9074485,-6039.3923232028,3102226.2698502,10.277287728773,0,0
-183.65193204769,-8.6863506906652,5.0817181718172,1296995.9074485,-6039.3923232028,3102226.2698502,10.281718171817,0,0
-183.65193196012,-8.7151735977062,5.0861486148615,1296995.9074485,-6039.3923232028,3102226.2698502,10.286148614861,0,0
-183.65193187256,-8.7439965047473,5.0905790579058,1296995.9074485,-6039.3923232028,3102226.2698502,10.290579057906,0,0
-183.65193178499,-8.7728194117884,5.0950095009501,1296995.9074485,-6039.3923232028,3102226.2698502,10.29500950095,0,0
-183.65193169743,-8.8016423188295,5.0994399439944,1296995.9074485,-6039.3923232028,3102226.2698502,10.299439943994,0,0
-183.65193160987,-8.8304652258706,5.1038703870387,1296995.9074485,-6039.3923232028,3102226.2698502,10.303870387039,0,0
-183.6519315223,-8.8592881329116,5.108300830083,1296995.9074485,-6039.3923232028,3102226.2698502,10.308300830083,0,0
-183.65193143474,-8.8881110399527,5.1127312731273,1296995.9074485,-6039.3923232028,3102226.2698502,10.312731273127,0,0
-183.65193134717,-8.9169339469938,5.1171617161716,1296995.9074485,-6039.3923232028,3102226.2698502,10.317161716172,0,0
-183.65193125961,-8.9457568540349,5.1215921592159,1296995.9074485,-6039.3923232028,3102226.2698502,10.321592159216,0,0
-183.65193117205,-8.974579761076,5.1260226022602,1296995.9074485,-6039.3923232028,3102226.2698502,10.32602260226,0,0
-183.65193108448,-9.003402668117,5.1304530453045,1296995.9074485,-6039.3923232028,3102226.2698502,10.330453045305,0,0
-183.65193099692,-9.0322255751581,5.1348834883488,1296995.9074485,-6039.3923232028,3102226.2698502,10.334883488349,0,0
-183.65193090935,-9.0610484821992,5.1393139313931,1296995.9074485,-6039.3923232028,3102226.2698502,10.339313931393,0,0
-183.65193082179,-9.0898713892403,5.1437443744374,1296995.9074485,-6039.3923232028,3102226.2698502,10.343744374437,0,0
-183.65193073422,-9.1186942962814,5.1481748174817,1296995.9074485,-6039.3923232028,3102226.2698502,10.348174817482,0,0
-183.65193064666,-9.1475172033224,5.1526052605261,1296995.9074485,-6039.3923232028,3102226.2698502,10.352605260526,0,0
-183.6519305591,-9.1763401103635,5.1570357035704,1296995.9074485,-6039.3923232028,3102226.2698502,10.35703570357,0,0
-183.65193047153,-9.2051630174046,5.1614661466147,1296995.9074485,-6039.3923232028,3102226.2698502,10.361466146615,0,0
-183.65193038397,-9.2339859244457,5.165896589659,1296995.9074485,-6039.3923232028,3102226.2698502,10.365896589659,0,0
-183.6519302964,-9.2628088314868,5.1703270327033,1296995.9074485,-6039.3923232028,3102226.2698502,10.370327032703,0,0
-183.65193020884,-9.2916317385279,5.1747574757476,1296995.9074485,-6039.3923232028,3102226.2698502,10.374757475748,0,0
-183.65193012128,-9.3204546455689,5.1791879187919,1296995.9074485,-6039.3923232028,3102226.2698502,10.379187918792,0,0
-183.65193003371,-9.34927755261,5.1836183618362,1296995.9074485,-6039.3923232028,3102226.2698502,10.383618361836,0,0
-183.65192994615,-9.3781004596511,5.1880488048805,1296995.9074485,-6039.3923232028,3102226.2698502,10.38804880488,0,0
-183.65192985858,-9.4069233666922,5.1924792479248,1296995.9074485,-6039.3923232028,3102226.2698502,10.392479247925,0,0
-183.65192977102,-9.4357462737332,5.1969096909691,1296995.9074485,-6039.3923232028,3102226.2698502,10.396909690969,0,0
-183.65192968346,-9.4645691807743,5.2013401340134,1296995.9074485,-6039.3923232028,3102226.2698502,10.401340134013,0,0
-183.65192959589,-9.4933920878154,5.2057705770577,1296995.9074485,-6039.3923232028,3102226.2698502,10.405770577058,0,0
-183.65192950833,-9.5222149948565,5.210201020102,1296995.9074485,-6039.3923232028,3102226.2698502,10.410201020102,0,0
-183.65192942076,-9.5510379018976,5.2146314631463,1296995.9074485,-6039.3923232028,3102226.2698502,10.414631463146,0,0
-183.6519293332,-9.5798608089386,5.2190619061906,1296995.9074485,-6039.3923232028,3102226.2698502,10.419061906191,0,0
-183.65192924563,-9.6086837159797,5.2234923492349,1296995.9074485,-6039.3923232028,3102226.2698502,10.423492349235,0,0
-183.65192915807,-9.6375066230208,5.2279227922792,1296995.9074485,-6039.3923232028,3102226.2698502,10.427922792279,0,0
-183.65192907051,-9.6663295300619,5.2323532353235,1296995.9074485,-6039.3923232028,3102226.2698502,10.432353235324,0,0
-183.65192898294,-9.695152437103,5.2367836783678,1296995.9074485,-6039.3923232028,3102226.2698502,10.436783678368,0,0
-183.6519288942,-9.7239753422572,5.2412141214121,1304745.3851686,-3829.0640770811,3047554.5935406,10.441214121412,0,0
-183.65192880456,-9.7527982459737,5.2456445644564,1304745.3851686,-3829.0640770811,3047554.5935406,10.445644564456,0,0
-183.65192871492,-9.7816211496901,5.2500750075008,1304745.3851686,-3829.0640770811,3047554.5935406,10.450075007501,0,0
-183.65192862528,-9.8104440534066,5.2545054505451,1304745.3851686,-3829.0640770811,3047554.5935406,10.454505450545,0,0
-183.65192853565,-9.839266957123,5.2589358935894,1304745.3851686,-3829.0640770811,3047554.5935406,10.458935893589,0,0
-183.65192844601,-9.8680898608395,5.2633663366337,1304745.3851686,-3829.0640770811,3047554.5935406,10.463366336634,0,0
-183.65192835637,-9.8969127645559,5.267796779678,1304745.3851686,-3829.0640770811,3047554.5935406,10.467796779678,0,0
-183.65192826673,-9.9257356682724,5.2722272227223,1304745.3851686,-3829.0640770811,3047554.5935406,10.472227222722,0,0
-183.65192817709,-9.9545585719888,5.2766576657666,1304745.3851686,-3829.0640770811,3047554.5935406,10.476657665767,0,0
-183.65192808745,-9.9833814757053,5.2810881088109,1304745.3851686,-3829.0640770811,3047554.5935406,10.481088108811,0,0
-183.65192799781,-10.012204379422,5.2855185518552,1304745.3851686,-3829.0640770811,3047554.5935406,10.485518551855,0,0
-183.65192790817,-10.041027283138,5.2899489948995,1304745.3851686,-3829.0640770811,3047554.5935406,10.489948994899,0,0
-183.65192781854,-10.069850186855,5.2943794379438,1304745.3851686,-3829.0640770811,3047554.5935406,10.494379437944,0,0
-183.6519277289,-10.098673090571,5.2988098809881,1304745.3851686,-3829.0640770811,3047554.5935406,10.498809880988,0,0
-183.65192763926,-10.127495994288,5.3032403240324,1304745.3851686,-3829.0640770811,3047554.5935406,10.503240324032,0,0
-183.65192754962,-10.156318898004,5.3076707670767,1304745.3851686,-3829.0640770811,3047554.5935406,10.507670767077,0,0
-183.65192745998,-10.18514180172,5.312101210121,1304745.3851686,-3829.0640770811,3047554.5935406,10.512101210121,0,0
-183.65192737034,-10.213964705437,5.3165316531653,1304745.3851686,-3829.0640770811,3047554.5935406,10.516531653165,0,0
-183.6519272807,-10.242787609153,5.3209620962096,1304745.3851686,-3829.0640770811,3047554.5935406,10.52096209621,0,0
-183.65192719106,-10.27161051287,5.3253925392539,1304745.3851686,-3829.0640770811,3047554.5935406,10.525392539254,0,0
-183.65192710143,-10.300433416586,5.3298229822982,1304745.3851686,-3829.0640770811,3047554.5935406,10.529822982298,0,0
-183.65192701179,-10.329256320303,5.3342534253425,1304745.3851686,-3829.0640770811,3047554.5935406,10.534253425343,0,0
-183.65192692215,-10.358079224019,5.3386838683868,1304745.3851686,-3829.0640770811,3047554.5935406,10.538683868387,0,0
-183.65192683251,-10.386902127736,5.3431143114311,1304745.3851686,-3829.0640770811,3047554.5935406,10.543114311431,0,0
-183.65192674287,-10.415725031452,5.3475447544754,1304745.3851686,-3829.0640770811,3047554.5935406,10.547544754475,0,0
-183.65192665323,-10.444547935168,5.3519751975198,1304745.3851686,-3829.0640770811,3047554.5935406,10.55197519752,0,0
-183.65192656359,-10.473370838885,5.3564056405641,1304745.3851686,-3829.0640770811,3047554.5935406,10.556405640564,0,0
-183.65192647395,-10.502193742601,5.3608360836084,1304745.3851686,-3829.0640770811,3047554.5935406,10.560836083608,0,0
-183.65192638432,-10.531016646318,5.3652665266527,1304745.3851686,-3829.0640770811,3047554.5935406,10.565266526653,0,0
-183.65192629468,-10.559839550034,5.369696969697,1304745.3851686,-3829.0640770811,3047554.5935406,10.569696969697,0,0
-183.65192620504,-10.588662453751,5.3741274127413,1304745.3851686,-3829.0640770811,3047554.5935406,10.574127412741,0,0
-183.6519261154,-10.617485357467,5.3785578557856,1304745.3851686,-3829.0640770811,3047554.5935406,10.578557855786,0,0
-183.65192602576,-10.646308261184,5.3829882988299,1304745.3851686,-3829.0640770811,3047554.5935406,10.58298829883,0,0
-183.65192593612,-10.6751311649,5.3874187418742,1304745.3851686,-3829.0640770811,3047554.5935406,10.587418741874,0,0
-183.65192584648,-10.703954068617,5.3918491849185,1304745.3851686,-3829.0640770811,3047554.5935406,10.591849184918,0,0
-183.65192575684,-10.732776972333,5.3962796279628,1304745.3851686,-3829.0640770811,3047554.5935406,10.596279627963,0,0
-183.65192566721,-10.761599876049,5.4007100710071,1304745.3851686,-3829.0640770811,3047554.5935406,10.600710071007,0,0
-183.65192557757,-10.790422779766,5.4051405140514,1304745.3851686,-3829.0640770811,3047554.5935405,10.605140514051,0,0
-183.65192548793,-10.819245683482,5.4095709570957,1304745.3851686,-3829.0640770811,3047554.5935405,10.609570957096,0,0
-183.65192539829,-10.848068587199,5.41400140014,1304745.3851686,-3829.0640770811,3047554.5935405,10.61400140014,0,0
-183.65192530865,-10.876891490915,5.4184318431843,1304745.3851686,-3829.0640770811,3047554.5935405,10.618431843184,0,0
-183.65192521901,-10.905714394632,5.4228622862286,1304745.3851686,-3829.0640770811,3047554.5935405,10.622862286229,0,0
-183.65192512937,-10.934537298348,5.4272927292729,1304745.3851686,-3829.0640770811,3047554.5935405,10.627292729273,0,0
-183.65192503973,-10.963360202065,5.4317231723172,1304745.3851686,-3829.0640770811,3047554.5935405,10.631723172317,0,0
-183.6519249501,-10.992183105781,5.4361536153615,1304745.3851686,-3829.0640770811,3047554.5935405,10.636153615362,0,0
-183.65192486046,-11.021006009498,5.4405840584058,1304745.3851686,-3829.0640770811,3047554.5935405,10.640584058406,0,0
-183.65192477082,-11.049828913214,5.4450145014501,1304745.3851686,-3829.0640770811,3047554.5935405,10.64501450145,0,0
-183.65192468118,-11.07865181693,5.4494449444944,1304745.3851686,-3829.0640770811,3047554.5935405,10.649444944494,0,0
-183.65192459154,-11.107474720647,5.4538753875388,1304745.3851686,-3829.0640770811,3047554.5935405,10.653875387539,0,0
-183.6519245019,-11.136297624363,5.4583058305831,1304745.3851686,-3829.0640770811,3047554.5935405,10.658305830583,0,0
-183.65192441226,-11.16512052808,5.4627362736274,1304745.3851686,-3829.0640770811,3047554.5935405,10.662736273627,0,0
-183.65192432262,-11.193943431796,5.4671667166717,1304745.3851686,-3829.0640770811,3047554.5935405,10.667166716672,0,0
-183.65192423316,-11.222766333925,5.471597159716,1299681.55634,7462.639674145,3042144.976867,10.671597159716,0,0
-183.65192414378,-11.251589235269,5.4760276027603,1299681.55634,7462.639674145,3042144.976867,10.67602760276,0,0
-183.6519240544,-11.280412136613,5.4804580458046,1299681.55634,7462.639674145,3042144.976867,10.680458045805,0,0
-183.65192396502,-11.309235037957,5.4848884888489,1299681.55634,7462.639674145,3042144.976867,10.684888488849,0,0
-183.65192387565,-11.338057939301,5.4893189318932,1299681.55634,7462.639674145,3042144.976867,10.689318931893,0,0
-183.65192378627,-11.366880840645,5.4937493749375,1299681.55634,7462.639674145,3042144.976867,10.693749374937,0,0
-183.65192369689,-11.395703741988,5.4981798179818,1299681.55634,7462.639674145,3042144.976867,10.698179817982,0,0
-183.65192360751,-11.424526643332,5.5026102610261,1299681.55634,7462.639674145,3042144.976867,10.702610261026,0,0
-183.65192351813,-11.453349544676,5.5070407040704,1299681.55634,7462.639674145,3042144.976867,10.70704070407,0,0
-183.65192342875,-11.48217244602,5.5114711471147,1299681.55634,7462.639674145,3042144.976867,10.711471147115,0,0
-183.65192333938,-11.510995347364,5.515901590159,1299681.55634,7462.639674145,3042144.976867,10.715901590159,0,0
-183.65192325,-11.539818248708,5.5203320332033,1299681.55634,7462.639674145,3042144.976867,10.720332033203,0,0
-183.65192316062,-11.568641150052,5.5247624762476,1299681.55634,7462.639674145,3042144.976867,10.724762476248,0,0
-183.65192307124,-11.597464051396,5.5291929192919,1299681.55634,7462.639674145,3042144.976867,10.729192919292,0,0
-183.65192298186,-11.62628695274,5.5336233623362,1299681.55634,7462.639674145,3042144.976867,10.733623362336,0,0
-183.65192289248,-11.655109854084,5.5380538053805,1299681.55634,7462.639674145,3042144.976867,10.738053805381,0,0
-183.65192280311,-11.683932755428,5.5424842484248,1299681.55634,7462.639674145,3042144.976867,10.742484248425,0,0
-183.65192271373,-11.712755656772,5.5469146914691,1299681.55634,7462.639674145,3042144.976867,10.746914691469,0,0
-183.65192262435,-11.741578558116,5.5513451345134,1299681.55634,7462.639674145,3042144.976867,10.751345134513,0,0
-183.65192253497,-11.77040145946,5.5557755775578,1299681.55634,7462.639674145,3042144.976867,10.755775577558,0,0
-183.65192244559,-11.799224360803,5.5602060206021,1299681.55634,7462.639674145,3042144.976867,10.760206020602,0,0
-183.65192235621,-11.828047262147,5.5646364636464,1299681.55634,7462.639674145,3042144.976867,10.764636463646,0,0
-183.65192226684,-11.856870163491,5.5690669066907,1299681.55634,7462.639674145,3042144.976867,10.769066906691,0,0
-183.65192217746,-11.885693064835,5.573497349735,1299681.55634,7462.639674145,3042144.976867,10.773497349735,0,0
-183.65192208808,-11.914515966179,5.5779277927793,1299681.55634,7462.639674145,3042144.976867,10.777927792779,0,0
-183.6519219987,-11.943338867523,5.5823582358236,1299681.55634,7462.639674145,3042144.976867,10.782358235824,0,0
-183.65192190932,-11.972161768867,5.5867886788679,1299681.55634,7462.639674145,3042144.976867,10.786788678868,0,0
-183.65192181994,-12.000984670211,5.5912191219122,1299681.55634,7462.639674145,3042144.976867,10.791219121912,0,0
-183.65192173057,-12.029807571555,5.5956495649565,1299681.55634,7462.639674145,3042144.976867,10.795649564956,0,0
-183.65192164119,-12.058630472899,5.6000800080008,1299681.55634,7462.639674145,3042144.976867,10.800080008001,0,0
-183.65192155181,-12.087453374243,5.6045104510451,1299681.55634,7462.639674145,3042144.976867,10.804510451045,0,0
-183.65192146243,-12.116276275587,5.6089408940894,1299681.55634,7462.639674145,3042144.976867,10.808940894089,0,0
-183.65192137305,-12.145099176931,5.6133713371337,1299681.55634,7462.639674145,3042144.976867,10.813371337134,0,0
-183.65192128367,-12.173922078275,5.617801780178,1299681.55634,7462.639674145,3042144.976867,10.817801780178,0,0
-183.6519211943,-12.202744979618,5.6222322232223,1299681.55634,7462.639674145,3042144.976867,10.822232223222,0,0
-183.65192110492,-12.231567880962,5.6266626662666,1299681.55634,7462.639674145,3042144.976867,10.826662666267,0,0
-183.65192101554,-12.260390782306,5.6310931093109,1299681.55634,7462.639674145,3042144.976867,10.831093109311,0,0
-183.65192092616,-12.28921368365,5.6355235523552,1299681.55634,7462.639674145,3042144.976867,10.835523552355,0,0
-183.65192083678,-12.318036584994,5.6399539953995,1299681.55634,7462.639674145,3042144.976867,10.8399539954,0,0
-183.65192074669,-12.346859488278,5.6443844384438,1306085.4774781,-8654.0574170613,2993836.1803121,10.844384438444,0,0
-183.65192065552,-12.37568239453,5.6488148814881,1306085.4774781,-8654.0574170613,2993836.1803121,10.848814881488,0,0
-183.65192056434,-12.404505300783,5.6532453245325,1306085.4774781,-8654.0574170613,2993836.1803121,10.853245324532,0,0
-183.65192047317,-12.433328207035,5.6576757675768,1306085.4774781,-8654.0574170613,2993836.1803121,10.857675767577,0,0
-183.65192038199,-12.462151113288,5.6621062106211,1306085.4774781,-8654.0574170613,2993836.1803121,10.862106210621,0,0
-183.65192029081,-12.49097401954,5.6665366536654,1306085.4774781,-8654.0574170613,2993836.1803121,10.866536653665,0,0
-183.65192019964,-12.519796925793,5.6709670967097,1306085.4774781,-8654.0574170613,2993836.1803121,10.87096709671,0,0
-183.65192010846,-12.548619832045,5.675397539754,1306085.4774781,-8654.0574170613,2993836.1803121,10.875397539754,0,0
-183.65192001729,-12.577442738298,5.6798279827983,1306085.4774781,-8654.0574170613,2993836.1803121,10.879827982798,0,0
-183.65191992611,-12.60626564455,5.6842584258426,1306085.4774781,-8654.0574170613,2993836.1803121,10.884258425843,0,0
-183.65191983493,-12.635088550803,5.6886888688869,1306085.4774781,-8654.0574170613,2993836.1803121,10.888688868887,0,0
-183.65191974376,-12.663911457055,5.6931193119312,1306085.4774781,-8654.0574170613,2993836.1803121,10.893119311931,0,0
-183.65191965258,-12.692734363308,5.6975497549755,1306085.4774781,-8654.0574170613,2993836.1803121,10.897549754975,0,0
-183.65191956141,-12.72155726956,5.7019801980198,1306085.4774781,-8654.0574170613,2993836.1803121,10.90198019802,0,0
-183.65191947023,-12.750380175813,5.7064106410641,1306085.4774781,-8654.0574170613,2993836.1803121,10.906410641064,0,0
-183.65191937905,-12.779203082065,5.7108410841084,1306085.4774781,-8654.0574170613,2993836.1803121,10.910841084108,0,0
-183.65191928788,-12.808025988318,5.7152715271527,1306085.4774781,-8654.0574170613,2993836.1803121,10.915271527153,0,0
-183.6519191967,-12.83684889457,5.719701970197,1306085.4774781,-8654.0574170613,2993836.1803121,10.919701970197,0,0
-183.65191910552,-12.865671800823,5.7241324132413,1306085.4774781,-8654.0574170613,2993836.1803121,10.924132413241,0,0
-183.65191901435,-12.894494707075,5.7285628562856,1306085.4774781,-8654.0574170613,2993836.1803121,10.928562856286,0,0
-183.65191892317,-12.923317613328,5.7329932993299,1306085.4774781,-8654.0574170613,2993836.1803121,10.93299329933,0,0
-183.651918832,-12.95214051958,5.7374237423742,1306085.4774781,-8654.0574170613,2993836.1803121,10.937423742374,0,0
-183.65191874082,-12.980963425833,5.7418541854185,1306085.4774781,-8654.0574170613,2993836.1803121,10.941854185419,0,0
-183.65191864964,-13.009786332085,5.7462846284628,1306085.4774781,-8654.0574170613,2993836.1803121,10.946284628463,0,0
-183.65191855847,-13.038609238338,5.7507150715072,1306085.4774781,-8654.0574170613,2993836.1803121,10.950715071507,0,0
-183.65191846729,-13.06743214459,5.7551455145515,1306085.4774781,-8654.0574170613,2993836.1803121,10.955145514551,0,0
-183.65191837612,-13.096255050843,5.7595759575958,1306085.4774781,-8654.0574170613,2993836.1803121,10.959575957596,0,0
-183.65191828494,-13.125077957095,5.7640064006401,1306085.4774781,-8654.0574170613,2993836.1803121,10.96400640064,0,0
-183.65191819376,-13.153900863348,5.7684368436844,1306085.4774781,-8654.0574170613,2993836.1803121,10.968436843684,0,0
-183.65191810259,-13.1827237696,5.7728672867287,1306085.4774781,-8654.0574170613,2993836.1803121,10.972867286729,0,0
-183.65191801141,-13.211546675853,5.777297729773,1306085.4774781,-8654.0574170613,2993836.1803121,10.977297729773,0,0
-183.65191792024,-13.240369582105,5.7817281728173,1306085.4774781,-8654.0574170613,2993836.1803121,10.981728172817,0,0
-183.65191782906,-13.269192488358,5.7861586158616,1306085.4774781,-8654.0574170613,2993836.1803121,10.986158615862,0,0
-183.65191773788,-13.29801539461,5.7905890589059,1306085.4774781,-8654.0574170613,2993836.1803121,10.990589058906,0,0
-183.65191764671,-13.326838300863,5.7950195019502,1306085.4774781,-8654.0574170613,2993836.1803121,10.99501950195,0,0
-183.65191755553,-13.355661207115,5.7994499449945,1306085.4774781,-8654.0574170613,2993836.1803121,10.999449944994,0,0
-183.65191746436,-13.384484113368,5.8038803880388,1306085.4774781,-8654.0574170613,2993836.1803121,11.003880388039,0,0
-183.65191737318,-13.41330701962,5.8083108310831,1306085.4774781,-8654.0574170613,2993836.1803121,11.008310831083,0,0
-183.651917282,-13.442129925873,5.8127412741274,1306085.4774781,-8654.0574170613,2993836.1803121,11.012741274127,0,0
-183.65191719083,-13.470952832125,5.8171717171717,1306085.4774781,-8654.0574170613,2993836.1803121,11.017171717172,0,0
-183.65191709965,-13.499775738378,5.821602160216,1306085.4774781,-8654.0574170613,2993836.1803121,11.021602160216,0,0
-183.65191700848,-13.52859864463,5.8260326032603,1306085.4774781,-8654.0574170613,2993836.1803121,11.02603260326,0,0
-183.6519169173,-13.557421550883,5.8304630463046,1306085.4774781,-8654.0574170613,2993836.1803121,11.030463046305,0,0
-183.65191682612,-13.586244457135,5.8348934893489,1306085.4774781,-8654.0574170613,2993836.1803121,11.034893489349,0,0
-183.65191673495,-13.615067363388,5.8393239323932,1306085.4774781,-8654.0574170613,2993836.1803121,11.039323932393,0,0
-183.65191664377,-13.64389026964,5.8437543754375,1306085.4774781,-8654.0574170613,2993836.1803121,11.043754375438,0,0
-183.65191655259,-13.672713175893,5.8481848184818,1306085.4774781,-8654.0574170613,2993836.1803121,11.048184818482,0,0
-183.65191646142,-13.701536082145,5.8526152615262,1306085.4774781,-8654.0574170613,2993836.1803121,11.052615261526,0,0
-183.65191637024,-13.730358988398,5.8570457045705,1306085.4774781,-8654.0574170613,2993836.1803121,11.05704570457,0,0
-183.65191627907,-13.75918189465,5.8614761476148,1306085.4774781,-8654.0574170613,2993836.1803121,11.061476147615,0,0
-183.65191618789,-13.788004800903,5.8659065906591,1306085.4774781,-8654.0574170613,2993836.1803121,11.065906590659,0,0
-183.65191609671,-13.816827707155,5.8703370337034,1306085.4774781,-8654.0574170613,2993836.1803121,11.070337033703,0,0
-183.65191600554,-13.845650613408,5.8747674767477,1306085.4774781,-8654.0574170613,2993836.1803121,11.074767476748,0,0
-183.65191591436,-13.87447351966,5.879197919792,1306085.4774781,-8654.0574170613,2993836.1803121,11.079197919792,0,0
-183.65191582319,-13.903296425913,5.8836283628363,1306085.4774781,-8654.0574170613,2993836.1803121,11.083628362836,0,0
-183.65191573201,-13.932119332165,5.8880588058806,1306085.4774781,-8654.0574170613,2993836.1803121,11.088058805881,0,0
-183.65191564083,-13.960942238418,5.8924892489249,1306085.4774781,-8654.0574170613,2993836.1803121,11.092489248925,0,0
-183.65191554966,-13.98976514467,5.8969196919692,1306085.4774781,-8654.0574170613,2993836.1803121,11.096919691969,0,0
-183.65191545848,-14.018588050923,5.9013501350135,1306085.4774781,-8654.0574170613,2993836.1803121,11.101350135014,0,0
-183.65191536731,-14.047410957175,5.9057805780578,1306085.4774781,-8654.0574170613,2993836.1803121,11.105780578058,0,0
-183.65191527613,-14.076233863428,5.9102110211021,1306085.4774781,-8654.0574170613,2993836.1803121,11.110211021102,0,0
-183.65191518495,-14.10505676968,5.9146414641464,1306085.4774781,-8654.0574170613,2993836.1803121,11.114641464146,0,0
-183.65191509378,-14.133879675933,5.9190719071907,1306085.4774781,-8654.0574170613,2993836.1803121,11.119071907191,0,0
-183.6519150026,-14.162702582185,5.923502350235,1306085.4774781,-8654.0574170613,2993836.1803121,11.123502350235,0,0
-183.65191491143,-14.191525488438,5.9279327932793,1306085.4774781,-8654.0574170613,2993836.1803121,11.127932793279,0,0
-183.65191482025,-14.22034839469,5.9323632363236,1306085.4774781,-8654.0574170613,2993836.1803121,11.132363236324,0,0
-183.65191472907,-14.249171300943,5.9367936793679,1306085.4774781,-8654.0574170613,2993836.1803121,11.136793679368,0,0
-183.6519146379,-14.277994207195,5.9412241224122,1306085.4774781,-8654.0574170613,2993836.1803121,11.141224122412,0,0
-183.65191454672,-14.306817113448,5.9456545654565,1306085.4774781,-8654.0574170613,2993836.1803121,11.145654565457,0,0
-183.65191445555,-14.3356400197,5.9500850085008,1306085.4774781,-8654.0574170613,2993836.1803121,11.150085008501,0,0
-183.65191436437,-14.364462925953,5.9545154515452,1306085.4774781,-8654.0574170613,2993836.1803121,11.154515451545,0,0
-183.65191427319,-14.393285832205,5.9589458945895,1306085.4774781,-8654.0574170613,2993836.1803121,11.158945894589,0,0
-183.65191418202,-14.422108738458,5.9633763376338,1306085.4774781,-8654.0574170613,2993836.1803121,11.163376337634,0,0
-183.65191409084,-14.45093164471,5.9678067806781,1306085.4774781,-8654.0574170613,2993836.1803121,11.167806780678,0,0
-183.65191399966,-14.479754550963,5.9722372237224,1306085.4774781,-8654.0574170613,2993836.1803121,11.172237223722,0,0
-183.65191390849,-14.508577457215,5.9766676667667,1306085.4774781,-8654.0574170613,2993836.1803121,11.176667666767,0,0
-183.65191381731,-14.537400363468,5.981098109811,1306085.4774781,-8654.0574170613,2993836.1803121,11.181098109811,0,0
-183.65191372614,-14.56622326972,5.9855285528553,1306085.4774781,-8654.0574170613,2993836.1803121,11.185528552855,0,0
-183.65191363496,-14.595046175973,5.9899589958996,1306085.4774781,-8654.0574170613,2993836.1803121,11.1899589959,0,0
-183.65191354378,-14.623869082225,5.9943894389439,1306085.4774781,-8654.0574170613,2993836.1803121,11.194389438944,0,0
-183.65191345261,-14.652691988478,5.9988198819882,1306085.4774781,-8654.0574170613,2993836.1803121,11.198819881988,0,0
-183.65191336143,-14.68151489473,6.0032503250325,1306085.4774781,-8654.0574170613,2993836.1803121,11.203250325033,0,0
-183.65191327026,-14.710337800983,6.0076807680768,1306085.4774781,-8654.0574170613,2993836.1803121,11.207680768077,0,0
-183.65191317908,-14.739160707235,6.0121112111211,1306085.4774781,-8654.0574170613,2993836.1803121,11.212111211121,0,0
-183.6519130879,-14.767983613488,6.0165416541654,1306085.4774781,-8654.0574170613,2993836.1803121,11.216541654165,0,0
-183.65191299673,-14.79680651974,6.0209720972097,1306085.4774781,-8654.0574170613,2993836.1803121,11.22097209721,0,0
-183.65191290555,-14.825629425993,6.025402540254,1306085.4774781,-8654.0574170613,2993836.1803121,11.225402540254,0,0
-183.65191281438,-14.854452332245,6.0298329832983,1306085.4774781,-8654.0574170613,2993836.1803121,11.229832983298,0,0
-183.6519127232,-14.883275238498,6.0342634263426,1306085.4774781,-8654.0574170613,2993836.1803121,11.234263426343,0,0
-183.65191263202,-14.912098144751,6.0386938693869,1306085.4774781,-8654.0574170613,2993836.1803121,11.238693869387,0,0
-183.65191254085,-14.940921051003,6.0431243124312,1306085.4774781,-8654.0574170613,2993836.1803121,11.243124312431,0,0
-183.65191244967,-14.969743957256,6.0475547554755,1306085.4774781,-8654.0574170613,2993836.1803121,11.247554755476,0,0
-183.6519123585,-14.998566863508,6.0519851985199,1306085.4774781,-8654.0574170613,2993836.1803121,11.25198519852,0,0
-183.65191226732,-15.027389769761,6.0564156415642,1306085.4774781,-8654.0574170613,2993836.1803121,11.256415641564,0,0
-183.65191217614,-15.056212676013,6.0608460846085,1306085.4774781,-8654.0574170613,2993836.1803121,11.260846084608,0,0
-183.6519120849,-15.085035581196,6.0652765276528,1304146.7044036,7699.1998912489,2979542.0589767,11.265276527653,0,0
-183.6519119935,-15.113858483895,6.0697069706971,1304146.7044036,7699.1998912489,2979542.0589767,11.269706970697,0,0
-183.6519119021,-15.142681386595,6.0741374137414,1304146.7044036,7699.1998912489,2979542.0589767,11.274137413741,0,0
-183.65191181069,-15.171504289295,6.0785678567857,1304146.7044036,7699.1998912489,2979542.0589767,11.278567856786,0,0
-183.65191171929,-15.200327191995,6.08299829983,1304146.7044036,7699.1998912489,2979542.0589767,11.28299829983,0,0
-183.65191162789,-15.229150094695,6.0874287428743,1304146.7044036,7699.1998912489,2979542.0589767,11.287428742874,0,0
-183.65191153649,-15.257972997395,6.0918591859186,1304146.7044036,7699.1998912489,2979542.0589767,11.291859185919,0,0
-183.65191144509,-15.286795900095,6.0962896289629,1304146.7044036,7699.1998912489,2979542.0589767,11.296289628963,0,0
-183.65191135368,-15.315618802795,6.1007200720072,1304146.7044036,7699.1998912489,2979542.0589767,11.300720072007,0,0
-183.65191126228,-15.344441705495,6.1051505150515,1304146.7044036,7699.1998912489,2979542.0589767,11.305150515052,0,0
-183.65191117088,-15.373264608195,6.1095809580958,1304146.7044036,7699.1998912489,2979542.0589767,11.309580958096,0,0
-183.65191107948,-15.402087510895,6.1140114011401,1304146.7044036,7699.1998912489,2979542.0589767,11.31401140114,0,0
-183.65191098808,-15.430910413595,6.1184418441844,1304146.7044036,7699.1998912489,2979542.0589767,11.318441844184,0,0
-183.65191089668,-15.459733316295,6.1228722872287,1304146.7044036,7699.1998912489,2979542.0589767,11.322872287229,0,0
-183.65191080527,-15.488556218995,6.127302730273,1304146.7044036,7699.1998912489,2979542.0589767,11.327302730273,0,0
-183.65191071387,-15.517379121695,6.1317331733173,1304146.7044036,7699.1998912489,2979542.0589767,11.331733173317,0,0
-183.65191062247,-15.546202024395,6.1361636163616,1304146.7044036,7699.1998912489,2979542.0589767,11.336163616362,0,0
-183.65191053107,-15.575024927095,6.1405940594059,1304146.7044036,7699.1998912489,2979542.0589767,11.340594059406,0,0
-183.65191043967,-15.603847829795,6.1450245024502,1304146.7044036,7699.1998912489,2979542.0589767,11.34502450245,0,0
-183.65191034827,-15.632670732495,6.1494549454945,1304146.7044036,7699.1998912489,2979542.0589767,11.349454945495,0,0
-183.65191025686,-15.661493635195,6.1538853885389,1304146.7044036,7699.1998912489,2979542.0589767,11.353885388539,0,0
-183.65191016546,-15.690316537895,6.1583158315832,1304146.7044036,7699.1998912489,2979542.0589767,11.358315831583,0,0
-183.65191007406,-15.719139440595,6.1627462746275,1304146.7044036,7699.1998912489,2979542.0589767,11.362746274627,0,0
-183.65190998266,-15.747962343295,6.1671767176718,1304146.7044036,7699.1998912489,2979542.0589767,11.367176717672,0,0
-183.65190989126,-15.776785245995,6.1716071607161,1304146.7044036,7699.1998912489,2979542.0589767,11.371607160716,0,0
-183.65190979985,-15.805608148695,6.1760376037604,1304146.7044036,7699.1998912489,2979542.0589767,11.37603760376,0,0
-183.65190970845,-15.834431051395,6.1804680468047,1304146.7044036,7699.1998912489,2979542.0589767,11.380468046805,0,0
-183.65190961705,-15.863253954094,6.184898489849,1304146.7044036,7699.1998912489,2979542.0589767,11.384898489849,0,0
-183.65190952565,-15.892076856794,6.1893289328933,1304146.7044036,7699.1998912489,2979542.0589767,11.389328932893,0,0
-183.65190943425,-15.920899759494,6.1937593759376,1304146.7044036,7699.1998912489,2979542.0589767,11.393759375938,0,0
-183.65190934285,-15.949722662194,6.1981898189819,1304146.7044036,7699.1998912489,2979542.0589767,11.398189818982,0,0
-183.65190925144,-15.978545564894,6.2026202620262,1304146.7044036,7699.1998912489,2979542.0589767,11.402620262026,0,0
-183.65190916004,-16.007368467594,6.2070507050705,1304146.7044036,7699.1998912489,2979542.0589767,11.407050705071,0,0
-183.65190906864,-16.036191370294,6.2114811481148,1304146.7044036,7699.1998912489,2979542.0589767,11.411481148115,0,0
-183.65190897724,-16.065014272994,6.2159115911591,1304146.7044036,7699.1998912489,2979542.0589767,11.415911591159,0,0
-183.65190888584,-16.093837175694,6.2203420342034,1304146.7044036,7699.1998912489,2979542.0589767,11.420342034203,0,0
-183.65190879443,-16.122660078394,6.2247724772477,1304146.7044036,7699.1998912489,2979542.0589767,11.424772477248,0,0
-183.65190870303,-16.151482981094,6.229202920292,1304146.7044036,7699.1998912489,2979542.0589767,11.429202920292,0,0
-183.65190861163,-16.180305883794,6.2336333633363,1304146.7044036,7699.1998912489,2979542.0589767,11.433633363336,0,0
-183.65190852023,-16.209128786494,6.2380638063806,1304146.7044036,7699.1998912489,2979542.0589767,11.438063806381,0,0
-183.65190842883,-16.237951689194,6.2424942494249,1304146.7044036,7699.1998912489,2979542.0589767,11.442494249425,0,0
-183.65190833743,-16.266774591894,6.2469246924692,1304146.7044036,7699.1998912489,2979542.0589767,11.446924692469,0,0
-183.65190824602,-16.295597494594,6.2513551355136,1304146.7044036,7699.1998912489,2979542.0589767,11.451355135514,0,0
-183.65190815462,-16.324420397294,6.2557855785579,1304146.7044036,7699.1998912489,2979542.0589767,11.455785578558,0,0
-183.65190806322,-16.353243299994,6.2602160216022,1304146.7044036,7699.1998912489,2979542.0589767,11.460216021602,0,0
-183.65190797182,-16.382066202694,6.2646464646465,1304146.7044036,7699.1998912489,2979542.0589767,11.464646464646,0,0
-183.65190788042,-16.410889105394,6.2690769076908,1304146.7044036,7699.1998912489,2979542.0589767,11.469076907691,0,0
-183.65190778901,-16.439712008094,6.2735073507351,1304146.7044036,7699.1998912489,2979542.0589767,11.473507350735,0,0
-183.65190769761,-16.468534910794,6.2779377937794,1304146.7044036,7699.1998912489,2979542.0589767,11.477937793779,0,0
-183.65190760621,-16.497357813494,6.2823682368237,1304146.7044036,7699.1998912489,2979542.0589767,11.482368236824,0,0
-183.65190751481,-16.526180716194,6.286798679868,1304146.7044036,7699.1998912489,2979542.0589767,11.486798679868,0,0
-183.65190742341,-16.555003618894,6.2912291229123,1304146.7044036,7699.1998912489,2979542.0589767,11.491229122912,0,0
-183.65190733201,-16.583826521594,6.2956595659566,1304146.7044036,7699.1998912489,2979542.0589767,11.495659565957,0,0
-183.6519072406,-16.612649424293,6.3000900090009,1304146.7044036,7699.1998912489,2979542.0589767,11.500090009001,0,0
-183.6519071492,-16.641472326993,6.3045204520452,1304146.7044036,7699.1998912489,2979542.0589767,11.504520452045,0,0
-183.6519070578,-16.670295229693,6.3089508950895,1304146.7044036,7699.1998912489,2979542.0589767,11.50895089509,0,0
-183.6519069664,-16.699118132393,6.3133813381338,1304146.7044036,7699.1998912489,2979542.0589767,11.513381338134,0,0
-183.651906875,-16.727941035093,6.3178117811781,1304146.7044036,7699.1998912489,2979542.0589767,11.517811781178,0,0
-183.65190678359,-16.756763937793,6.3222422242224,1304146.7044036,7699.1998912489,2979542.0589767,11.522242224222,0,0
-183.65190669219,-16.785586840493,6.3266726672667,1304146.7044036,7699.1998912489,2979542.0589767,11.526672667267,0,0
-183.65190660079,-16.814409743193,6.331103110311,1304146.7044036,7699.1998912489,2979542.0589767,11.531103110311,0,0
-183.65190650939,-16.843232645893,6.3355335533553,1304146.7044036,7699.1998912489,2979542.0589767,11.535533553355,0,0
-183.65190641799,-16.872055548593,6.3399639963996,1304146.7044036,7699.1998912489,2979542.0589767,11.5399639964,0,0
-183.65190632659,-16.900878451293,6.3443944394439,1304146.7044036,7699.1998912489,2979542.0589767,11.544394439444,0,0
-183.65190623518,-16.929701353993,6.3488248824882,1304146.7044036,7699.1998912489,2979542.0589767,11.548824882488,0,0
-183.65190614378,-16.958524256693,6.3532553255326,1304146.7044036,7699.1998912489,2979542.0589767,11.553255325533,0,0
-183.65190605238,-16.987347159393,6.3576857685769,1304146.7044036,7699.1998912489,2979542.0589767,11.557685768577,0,0
-183.65190596098,-17.016170062093,6.3621162116212,1304146.7044036,7699.1998912489,2979542.0589767,11.562116211621,0,0
-183.65190586958,-17.044992964793,6.3665466546655,1304146.7044036,7699.1998912489,2979542.0589767,11.566546654665,0,0
-183.65190577818,-17.073815867493,6.3709770977098,1304146.7044036,7699.1998912489,2979542.0589767,11.57097709771,0,0
-183.65190568677,-17.102638770193,6.3754075407541,1304146.7044036,7699.1998912489,2979542.0589767,11.575407540754,0,0
-183.65190559537,-17.131461672893,6.3798379837984,1304146.7044036,7699.1998912489,2979542.0589767,11.579837983798,0,0
-183.65190550397,-17.160284575593,6.3842684268427,1304146.7044036,7699.1998912489,2979542.0589767,11.584268426843,0,0
-183.65190541257,-17.189107478293,6.388698869887,1304146.7044036,7699.1998912489,2979542.0589767,11.588698869887,0,0
-183.65190532117,-17.217930380993,6.3931293129313,1304146.7044036,7699.1998912489,2979542.0589767,11.593129312931,0,0
-183.65190522976,-17.246753283693,6.3975597559756,1304146.7044036,7699.1998912489,2979542.0589767,11.597559755976,0,0
-183.65190513836,-17.275576186393,6.4019901990199,1304146.7044036,7699.1998912489,2979542.0589767,11.60199019902,0,0
-183.65190504696,-17.304399089093,6.4064206420642,1304146.7044036,7699.1998912489,2979542.0589767,11.606420642064,0,0
-183.65190495556,-17.333221991793,6.4108510851085,1304146.7044036,7699.1998912489,2979542.0589767,11.610851085109,0,0
-183.65190486416,-17.362044894492,6.4152815281528,1304146.7044036,7699.1998912489,2979542.0589767,11.615281528153,0,0
-183.65190477276,-17.390867797192,6.4197119711971,1304146.7044036,7699.1998912489,2979542.0589767,11.619711971197,0,0
-183.65190468135,-17.419690699892,6.4241424142414,1304146.7044036,7699.1998912489,2979542.0589767,11.624142414241,0,0
-183.65190458995,-17.448513602592,6.4285728572857,1304146.7044036,7699.1998912489,2979542.0589767,11.628572857286,0,0
-183.65190449855,-17.477336505292,6.43300330033,1304146.7044036,7699.1998912489,2979542.0589767,11.63300330033,0,0
-183.65190440715,-17.506159407992,6.4374337433743,1304146.7044036,7699.1998912489,2979542.0589767,11.637433743374,0,0
-183.65190431575,-17.534982310692,6.4418641864186,1304146.7044036,7699.1998912489,2979542.0589767,11.641864186419,0,0
-183.65190422434,-17.563805213392,6.4462946294629,1304146.7044036,7699.1998912489,2979542.0589767,11.646294629463,0,0
-183.65190413294,-17.592628116092,6.4507250725072,1304146.7044036,7699.1998912489,2979542.0589767,11.650725072507,0,0
-183.65190404154,-17.621451018792,6.4551555155516,1304146.7044036,7699.1998912489,2979542.0589767,11.655155515552,0,0
-183.65190395014,-17.650273921492,6.4595859585959,1304146.7044036,7699.1998912489,2979542.0589767,11.659585958596,0,0
-183.65190385803,-17.679096826396,6.4640164016402,1306453.7350334,-7386.3930265362,2932851.5381184,11.66401640164,0,0
-183.6519037652,-17.70791973353,6.4684468446845,1306453.7350334,-7386.3930265362,2932851.5381184,11.668446844684,0,0
-183.65190367237,-17.736742640663,6.4728772877288,1306453.7350334,-7386.3930265362,2932851.5381184,11.672877287729,0,0
-183.65190357954,-17.765565547797,6.4773077307731,1306453.7350334,-7386.3930265362,2932851.5381184,11.677307730773,0,0
-183.65190348671,-17.794388454931,6.4817381738174,1306453.7350334,-7386.3930265362,2932851.5381184,11.681738173817,0,0
-183.65190339388,-17.823211362064,6.4861686168617,1306453.7350334,-7386.3930265362,2932851.5381184,11.686168616862,0,0
-183.65190330105,-17.852034269198,6.490599059906,1306453.7350334,-7386.3930265362,2932851.5381184,11.690599059906,0,0
-183.65190320822,-17.880857176332,6.4950295029503,1306453.7350334,-7386.3930265362,2932851.5381184,11.69502950295,0,0
-183.65190311539,-17.909680083465,6.4994599459946,1306453.7350334,-7386.3930265362,2932851.5381184,11.699459945995,0,0
-183.65190302256,-17.938502990599,6.5038903890389,1306453.7350334,-7386.3930265362,2932851.5381184,11.703890389039,0,0
-183.65190292974,-17.967325897733,6.5083208320832,1306453.7350334,-7386.3930265362,2932851.5381184,11.708320832083,0,0
-183.65190283691,-17.996148804866,6.5127512751275,1306453.7350334,-7386.3930265362,2932851.5381184,11.712751275128,0,0
-183.65190274408,-18.024971712,6.5171817181718,1306453.7350334,-7386.3930265362,2932851.5381184,11.717181718172,0,0
-183.65190265125,-18.053794619134,6.5216121612161,1306453.7350334,-7386.3930265362,2932851.5381184,11.721612161216,0,0
-183.65190255842,-18.082617526267,6.5260426042604,1306453.7350334,-7386.3930265362,2932851.5381184,11.72604260426,0,0
-183.65190246559,-18.111440433401,6.5304730473047,1306453.7350334,-7386.3930265362,2932851.5381184,11.730473047305,0,0
-183.65190237276,-18.140263340535,6.534903490349,1306453.7350334,-7386.3930265362,2932851.5381184,11.734903490349,0,0
-183.65190227993,-18.169086247668,6.5393339333933,1306453.7350334,-7386.3930265362,2932851.5381184,11.739333933393,0,0
-183.6519021871,-18.197909154802,6.5437643764376,1306453.7350334,-7386.3930265362,2932851.5381184,11.743764376438,0,0
-183.65190209427,-18.226732061936,6.5481948194819,1306453.7350334,-7386.3930265362,2932851.5381184,11.748194819482,0,0
-183.65190200144,-18.255554969069,6.5526252625263,1306453.7350334,-7386.3930265362,2932851.5381184,11.752625262526,0,0
-183.65190190861,-18.284377876203,6.5570557055706,1306453.7350334,-7386.3930265362,2932851.5381184,11.757055705571,0,0
-183.65190181578,-18.313200783337,6.5614861486149,1306453.7350334,-7386.3930265362,2932851.5381184,11.761486148615,0,0
-183.65190172296,-18.342023690471,6.5659165916592,1306453.7350334,-7386.3930265362,2932851.5381184,11.765916591659,0,0
-183.65190163013,-18.370846597604,6.5703470347035,1306453.7350334,-7386.3930265362,2932851.5381184,11.770347034703,0,0
-183.6519015373,-18.399669504738,6.5747774777478,1306453.7350334,-7386.3930265362,2932851.5381184,11.774777477748,0,0
-183.65190144447,-18.428492411872,6.5792079207921,1306453.7350334,-7386.3930265362,2932851.5381184,11.779207920792,0,0
-183.65190135164,-18.457315319005,6.5836383638364,1306453.7350334,-7386.3930265362,2932851.5381184,11.783638363836,0,0
-183.65190125881,-18.486138226139,6.5880688068807,1306453.7350334,-7386.3930265362,2932851.5381184,11.788068806881,0,0
-183.65190116598,-18.514961133273,6.592499249925,1306453.7350334,-7386.3930265362,2932851.5381184,11.792499249925,0,0
-183.65190107315,-18.543784040406,6.5969296929693,1306453.7350334,-7386.3930265362,2932851.5381184,11.796929692969,0,0
-183.65190098032,-18.57260694754,6.6013601360136,1306453.7350334,-7386.3930265362,2932851.5381184,11.801360136014,0,0
-183.65190088749,-18.601429854674,6.6057905790579,1306453.7350334,-7386.3930265362,2932851.5381184,11.805790579058,0,0
-183.65190079466,-18.630252761807,6.6102210221022,1306453.7350334,-7386.3930265362,2932851.5381184,11.810221022102,0,0
-183.65190070183,-18.659075668941,6.6146514651465,1306453.7350334,-7386.3930265362,2932851.5381184,11.814651465147,0,0
-183.65190060901,-18.687898576075,6.6190819081908,1306453.7350334,-7386.3930265362,2932851.5381184,11.819081908191,0,0
-183.65190051618,-18.716721483208,6.6235123512351,1306453.7350334,-7386.3930265362,2932851.5381184,11.823512351235,0,0
-183.65190042335,-18.745544390342,6.6279427942794,1306453.7350334,-7386.3930265362,2932851.5381184,11.827942794279,0,0
-183.65190033052,-18.774367297476,6.6323732373237,1306453.7350334,-7386.3930265362,2932851.5381184,11.832373237324,0,0
-183.65190023769,-18.803190204609,6.636803680368,1306453.7350334,-7386.3930265362,2932851.5381184,11.836803680368,0,0
-183.65190014486,-18.832013111743,6.6412341234123,1306453.7350334,-7386.3930265362,2932851.5381184,11.841234123412,0,0
-183.65190005203,-18.860836018877,6.6456645664566,1306453.7350334,-7386.3930265362,2932851.5381184,11.845664566457,0,0
-183.6518999592,-18.88965892601,6.650095009501,1306453.7350334,-7386.3930265362,2932851.5381184,11.850095009501,0,0
-183.65189986637,-18.918481833144,6.6545254525453,1306453.7350334,-7386.3930265362,2932851.5381184,11.854525452545,0,0
-183.65189977354,-18.947304740278,6.6589558955896,1306453.7350334,-7386.3930265362,2932851.5381184,11.85895589559,0,0
-183.65189968071,-18.976127647412,6.6633863386339,1306453.7350334,-7386.3930265362,2932851.5381184,11.863386338634,0,0
-183.65189958788,-19.004950554545,6.6678167816782,1306453.7350334,-7386.3930265362,2932851.5381184,11.867816781678,0,0
-183.65189949505,-19.033773461679,6.6722472247225,1306453.7350334,-7386.3930265362,2932851.5381184,11.872247224722,0,0
-183.65189940223,-19.062596368813,6.6766776677668,1306453.7350334,-7386.3930265362,2932851.5381184,11.876677667767,0,0
-183.6518993094,-19.091419275946,6.6811081108111,1306453.7350334,-7386.3930265362,2932851.5381184,11.881108110811,0,0
-183.65189921657,-19.12024218308,6.6855385538554,1306453.7350334,-7386.3930265362,2932851.5381184,11.885538553855,0,0
-183.65189912374,-19.149065090214,6.6899689968997,1306453.7350334,-7386.3930265362,2932851.5381184,11.8899689969,0,0
-183.65189903091,-19.177887997347,6.694399439944,1306453.7350334,-7386.3930265362,2932851.5381184,11.894399439944,0,0
-183.65189893808,-19.206710904481,6.6988298829883,1306453.7350334,-7386.3930265362,2932851.5381184,11.898829882988,0,0
-183.65189884525,-19.235533811615,6.7032603260326,1306453.7350334,-7386.3930265362,2932851.5381184,11.903260326033,0,0
-183.65189875242,-19.264356718748,6.7076907690769,1306453.7350334,-7386.3930265362,2932851.5381184,11.907690769077,0,0
-183.65189865959,-19.293179625882,6.7121212121212,1306453.7350334,-7386.3930265362,2932851.5381184,11.912121212121,0,0
-183.65189856676,-19.322002533016,6.7165516551655,1306453.7350334,-7386.3930265362,2932851.5381184,11.916551655166,0,0
-183.65189847393,-19.350825440149,6.7209820982098,1306453.7350334,-7386.3930265362,2932851.5381184,11.92098209821,0,0
-183.6518983811,-19.379648347283,6.7254125412541,1306453.7350334,-7386.3930265362,2932851.5381184,11.925412541254,0,0
-183.65189828827,-19.408471254417,6.7298429842984,1306453.7350334,-7386.3930265362,2932851.5381184,11.929842984298,0,0
-183.65189819532,-19.437294160135,6.7342734273427,1304618.067802,7498.8693643262,2916225.9993473,11.934273427343,0,0
-183.65189810219,-19.466117063983,6.738703870387,1304618.067802,7498.8693643262,2916225.9993473,11.938703870387,0,0
-183.65189800907,-19.49493996783,6.7431343134313,1304618.067802,7498.8693643262,2916225.9993473,11.943134313431,0,0
-183.65189791594,-19.523762871678,6.7475647564756,1304618.067802,7498.8693643262,2916225.9993473,11.947564756476,0,0
-183.65189782282,-19.552585775526,6.75199519952,1304618.067802,7498.8693643262,2916225.9993473,11.95199519952,0,0
-183.65189772969,-19.581408679374,6.7564256425643,1304618.067802,7498.8693643262,2916225.9993473,11.956425642564,0,0
-183.65189763657,-19.610231583222,6.7608560856086,1304618.067802,7498.8693643262,2916225.9993473,11.960856085609,0,0
-183.65189754344,-19.63905448707,6.7652865286529,1304618.067802,7498.8693643262,2916225.9993473,11.965286528653,0,0
-183.65189745032,-19.667877390918,6.7697169716972,1304618.067802,7498.8693643262,2916225.9993473,11.969716971697,0,0
-183.65189735719,-19.696700294765,6.7741474147415,1304618.067802,7498.8693643262,2916225.9993473,11.974147414741,0,0
-183.65189726407,-19.725523198613,6.7785778577858,1304618.067802,7498.8693643262,2916225.9993473,11.978577857786,0,0
-183.65189717094,-19.754346102461,6.7830083008301,1304618.067802,7498.8693643262,2916225.9993473,11.98300830083,0,0
-183.65189707781,-19.783169006309,6.7874387438744,1304618.067802,7498.8693643262,2916225.9993473,11.987438743874,0,0
-183.65189698469,-19.811991910157,6.7918691869187,1304618.067802,7498.8693643262,2916225.9993473,11.991869186919,0,0
-183.65189689156,-19.840814814005,6.796299629963,1304618.067802,7498.8693643262,2916225.9993473,11.996299629963,0,0
-183.65189679844,-19.869637717853,6.8007300730073,1304618.067802,7498.8693643262,2916225.9993473,12.000730073007,0,0
-183.65189670531,-19.8984606217,6.8051605160516,1304618.067802,7498.8693643262,2916225.9993473,12.005160516052,0,0
-183.65189661219,-19.927283525548,6.8095909590959,1304618.067802,7498.8693643262,2916225.9993473,12.009590959096,0,0
-183.65189651906,-19.956106429396,6.8140214021402,1304618.067802,7498.8693643262,2916225.9993473,12.01402140214,0,0
-183.65189642594,-19.984929333244,6.8184518451845,1304618.067802,7498.8693643262,2916225.9993473,12.018451845185,0,0
-183.65189633281,-20.013752237092,6.8228822882288,1304618.067802,7498.8693643262,2916225.9993473,12.022882288229,0,0
-183.65189623969,-20.04257514094,6.8273127312731,1304618.067802,7498.8693643262,2916225.9993473,12.027312731273,0,0
-183.65189614656,-20.071398044787,6.8317431743174,1304618.067802,7498.8693643262,2916225.9993473,12.031743174317,0,0
-183.65189605344,-20.100220948635,6.8361736173617,1304618.067802,7498.8693643262,2916225.9993473,12.036173617362,0,0
-183.65189596031,-20.129043852483,6.840604060406,1304618.067802,7498.8693643262,2916225.9993473,12.040604060406,0,0
-183.65189586719,-20.157866756331,6.8450345034503,1304618.067802,7498.8693643262,2916225.9993473,12.04503450345,0,0
-183.65189577406,-20.186689660179,6.8494649464946,1304618.067802,7498.8693643262,2916225.9993473,12.049464946495,0,0
-183.65189568094,-20.215512564027,6.853895389539,1304618.067802,7498.8693643262,2916225.9993473,12.053895389539,0,0
-183.65189558781,-20.244335467875,6.8583258325833,1304618.067802,7498.8693643262,2916225.9993473,12.058325832583,0,0
-183.65189549469,-20.273158371722,6.8627562756276,1304618.067802,7498.8693643262,2916225.9993473,12.062756275628,0,0
-183.65189540156,-20.30198127557,6.8671867186719,1304618.067802,7498.8693643262,2916225.9993473,12.067186718672,0,0
-183.65189530843,-20.330804179418,6.8716171617162,1304618.067802,7498.8693643262,2916225.9993473,12.071617161716,0,0
-183.65189521531,-20.359627083266,6.8760476047605,1304618.067802,7498.8693643262,2916225.9993473,12.07604760476,0,0
-183.65189512218,-20.388449987114,6.8804780478048,1304618.067802,7498.8693643262,2916225.9993473,12.080478047805,0,0
-183.65189502906,-20.417272890962,6.8849084908491,1304618.067802,7498.8693643262,2916225.9993473,12.084908490849,0,0
-183.65189493593,-20.44609579481,6.8893389338934,1304618.067802,7498.8693643262,2916225.9993473,12.089338933893,0,0
-183.65189484281,-20.474918698657,6.8937693769377,1304618.067802,7498.8693643262,2916225.9993473,12.093769376938,0,0
-183.65189474968,-20.503741602505,6.898199819982,1304618.067802,7498.8693643262,2916225.9993473,12.098199819982,0,0
-183.65189465656,-20.532564506353,6.9026302630263,1304618.067802,7498.8693643262,2916225.9993473,12.102630263026,0,0
-183.65189456343,-20.561387410201,6.9070607060706,1304618.067802,7498.8693643262,2916225.9993473,12.107060706071,0,0
-183.65189447031,-20.590210314049,6.9114911491149,1304618.067802,7498.8693643262,2916225.9993473,12.111491149115,0,0
-183.65189437718,-20.619033217897,6.9159215921592,1304618.067802,7498.8693643262,2916225.9993473,12.115921592159,0,0
-183.65189428406,-20.647856121744,6.9203520352035,1304618.067802,7498.8693643262,2916225.9993473,12.120352035204,0,0
-183.65189419093,-20.676679025592,6.9247824782478,1304618.067802,7498.8693643262,2916225.9993473,12.124782478248,0,0
-183.65189409781,-20.70550192944,6.9292129212921,1304618.067802,7498.8693643262,2916225.9993473,12.129212921292,0,0
-183.65189400468,-20.734324833288,6.9336433643364,1304618.067802,7498.8693643262,2916225.9993473,12.133643364336,0,0
-183.65189391156,-20.763147737136,6.9380738073807,1304618.067802,7498.8693643262,2916225.9993473,12.138073807381,0,0
-183.65189381843,-20.791970640984,6.942504250425,1304618.067802,7498.8693643262,2916225.9993473,12.142504250425,0,0
-183.65189372531,-20.820793544832,6.9469346934693,1304618.067802,7498.8693643262,2916225.9993473,12.146934693469,0,0
-183.65189363218,-20.849616448679,6.9513651365137,1304618.067802,7498.8693643262,2916225.9993473,12.151365136514,0,0
-183.65189353905,-20.878439352527,6.955795579558,1304618.067802,7498.8693643262,2916225.9993473,12.155795579558,0,0
-183.65189344593,-20.907262256375,6.9602260226023,1304618.067802,7498.8693643262,2916225.9993473,12.160226022602,0,0
-183.6518933528,-20.936085160223,6.9646564656466,1304618.067802,7498.8693643262,2916225.9993473,12.164656465647,0,0
-183.65189325968,-20.964908064071,6.9690869086909,1304618.067802,7498.8693643262,2916225.9993473,12.169086908691,0,0
-183.65189316655,-20.993730967919,6.9735173517352,1304618.067802,7498.8693643262,2916225.9993473,12.173517351735,0,0
-183.65189307343,-21.022553871767,6.9779477947795,1304618.067802,7498.8693643262,2916225.9993473,12.177947794779,0,0
-183.6518929803,-21.051376775614,6.9823782378238,1304618.067802,7498.8693643262,2916225.9993473,12.182378237824,0,0
-183.65189288718,-21.080199679462,6.9868086808681,1304618.067802,7498.8693643262,2916225.9993473,12.186808680868,0,0
-183.65189279405,-21.10902258331,6.9912391239124,1304618.067802,7498.8693643262,2916225.9993473,12.191239123912,0,0
-183.65189270093,-21.137845487158,6.9956695669567,1304618.067802,7498.8693643262,2916225.9993473,12.195669566957,0,0
-183.6518926078,-21.166668391006,7.000100010001,1304618.067802,7498.8693643262,2916225.9993473,12.200100010001,0,0
-183.65189251468,-21.195491294854,7.0045304530453,1304618.067802,7498.8693643262,2916225.9993473,12.204530453045,0,0
-183.65189242155,-21.224314198701,7.0089608960896,1304618.067802,7498.8693643262,2916225.9993473,12.20896089609,0,0
-183.65189232843,-21.253137102549,7.0133913391339,1304618.067802,7498.8693643262,2916225.9993473,12.213391339134,0,0
-183.6518922353,-21.281960006397,7.0178217821782,1304618.067802,7498.8693643262,2916225.9993473,12.217821782178,0,0
-183.65189214218,-21.310782910245,7.0222522252225,1304618.067802,7498.8693643262,2916225.9993473,12.222252225223,0,0
-183.65189204905,-21.339605814093,7.0266826682668,1304618.067802,7498.8693643262,2916225.9993473,12.226682668267,0,0
-183.65189195593,-21.368428717941,7.0311131113111,1304618.067802,7498.8693643262,2916225.9993473,12.231113111311,0,0
-183.6518918628,-21.397251621789,7.0355435543554,1304618.067802,7498.8693643262,2916225.9993473,12.235543554355,0,0
-183.65189176968,-21.426074525636,7.0399739973997,1304618.067802,7498.8693643262,2916225.9993473,12.2399739974,0,0
-183.65189167655,-21.454897429484,7.044404440444,1304618.067802,7498.8693643262,2916225.9993473,12.244404440444,0,0
-183.65189158342,-21.483720333332,7.0488348834883,1304618.067802,7498.8693643262,2916225.9993473,12.248834883488,0,0
-183.6518914903,-21.51254323718,7.0532653265327,1304618.067802,7498.8693643262,2916225.9993473,12.253265326533,0,0
-183.65189139717,-21.541366141028,7.057695769577,1304618.067802,7498.8693643262,2916225.9993473,12.257695769577,0,0
-183.65189130405,-21.570189044876,7.0621262126213,1304618.067802,7498.8693643262,2916225.9993473,12.262126212621,0,0
-183.65189121092,-21.599011948724,7.0665566556656,1304618.067802,7498.8693643262,2916225.9993473,12.266556655666,0,0
-183.6518911178,-21.627834852571,7.0709870987099,1304618.067802,7498.8693643262,2916225.9993473,12.27098709871,0,0
-183.65189102467,-21.656657756419,7.0754175417542,1304618.067802,7498.8693643262,2916225.9993473,12.275417541754,0,0
-183.65189093155,-21.685480660267,7.0798479847985,1304618.067802,7498.8693643262,2916225.9993473,12.279847984798,0,0
-183.65189083842,-21.714303564115,7.0842784278428,1304618.067802,7498.8693643262,2916225.9993473,12.284278427843,0,0
-183.6518907453,-21.743126467963,7.0887088708871,1304618.067802,7498.8693643262,2916225.9993473,12.288708870887,0,0
-183.65189065217,-21.771949371811,7.0931393139314,1304618.067802,7498.8693643262,2916225.9993473,12.293139313931,0,0
-183.65189055905,-21.800772275658,7.0975697569757,1304618.067802,7498.8693643262,2916225.9993473,12.297569756976,0,0
-183.65189046592,-21.829595179506,7.10200020002,1304618.067802,7498.8693643262,2916225.9993473,12.30200020002,0,0
-183.6518903728,-21.858418083354,7.1064306430643,1304618.067802,7498.8693643262,2916225.9993473,12.306430643064,0,0
-183.65189027967,-21.887240987202,7.1108610861086,1304618.067802,7498.8693643262,2916225.9993473,12.310861086109,0,0
-183.65189018655,-21.91606389105,7.1152915291529,1304618.067802,7498.8693643262,2916225.9993473,12.315291529153,0,0
-183.65189009342,-21.944886794898,7.1197219721972,1304618.067802,7498.8693643262,2916225.9993473,12.319721972197,0,0
-183.6518900003,-21.973709698746,7.1241524152415,1304618.067802,7498.8693643262,2916225.9993473,12.324152415242,0,0
-183.65188990717,-22.002532602593,7.1285828582858,1304618.067802,7498.8693643262,2916225.9993473,12.328582858286,0,0
-183.65188981404,-22.031355506441,7.1330133013301,1304618.067802,7498.8693643262,2916225.9993473,12.33301330133,0,0
-183.65188972092,-22.060178410289,7.1374437443744,1304618.067802,7498.8693643262,2916225.9993473,12.337443744374,0,0
-183.65188962779,-22.089001314137,7.1418741874187,1304618.067802,7498.8693643262,2916225.9993473,12.341874187419,0,0
-183.65188953467,-22.117824217985,7.146304630463,1304618.067802,7498.8693643262,2916225.9993473,12.346304630463,0,0
-183.65188944154,-22.146647121833,7.1507350735073,1304618.067802,7498.8693643262,2916225.9993473,12.350735073507,0,0
-183.65188934842,-22.175470025681,7.1551655165517,1304618.067802,7498.8693643262,2916225.9993473,12.355165516552,0,0
-183.65188925529,-22.204292929528,7.159595959596,1304618.067802,7498.8693643262,2916225.9993473,12.359595959596,0,0
-183.65188916217,-22.233115833376,7.1640264026403,1304618.067802,7498.8693643262,2916225.9993473,12.36402640264,0,0
-183.65188906904,-22.261938737224,7.1684568456846,1304618.067802,7498.8693643262,2916225.9993473,12.368456845685,0,0
-183.65188897592,-22.290761641072,7.1728872887289,1304618.067802,7498.8693643262,2916225.9993473,12.372887288729,0,0
-183.65188888279,-22.31958454492,7.1773177317732,1304618.067802,7498.8693643262,2916225.9993473,12.377317731773,0,0
-183.65188878967,-22.348407448768,7.1817481748175,1304618.067802,7498.8693643262,2916225.9993473,12.381748174817,0,0
-183.65188869654,-22.377230352616,7.1861786178618,1304618.067802,7498.8693643262,2916225.9993473,12.386178617862,0,0
-183.65188860342,-22.406053256463,7.1906090609061,1304618.067802,7498.8693643262,2916225.9993473,12.390609060906,0,0
-183.65188851029,-22.434876160311,7.1950395039504,1304618.067802,7498.8693643262,2916225.9993473,12.39503950395,0,0
-183.65188841717,-22.463699064159,7.1994699469947,1304618.067802,7498.8693643262,2916225.9993473,12.399469946995,0,0
-183.65188832404,-22.492521968007,7.203900390039,1304618.067802,7498.8693643262,2916225.9993473,12.403900390039,0,0
-183.65188823092,-22.521344871855,7.2083308330833,1304618.067802,7498.8693643262,2916225.9993473,12.408330833083,0,0
-183.65188813779,-22.550167775703,7.2127612761276,1304618.067802,7498.8693643262,2916225.9993473,12.412761276128,0,0
-183.65188804466,-22.57899067955,7.2171917191719,1304618.067802,7498.8693643262,2916225.9993473,12.417191719172,0,0
-183.65188795154,-22.607813583398,7.2216221622162,1304618.067802,7498.8693643262,2916225.9993473,12.421622162216,0,0
-183.65188785841,-22.636636487246,7.2260526052605,1304618.067802,7498.8693643262,2916225.9993473,12.426052605261,0,0
-183.65188776529,-22.665459391094,7.2304830483048,1304618.067802,7498.8693643262,2916225.9993473,12.430483048305,0,0
-183.65188767216,-22.694282294942,7.2349134913491,1304618.067802,7498.8693643262,2916225.9993473,12.434913491349,0,0
-183.65188757904,-22.72310519879,7.2393439343934,1304618.067802,7498.8693643262,2916225.9993473,12.439343934393,0,0
-183.65188748591,-22.751928102638,7.2437743774377,1304618.067802,7498.8693643262,2916225.9993473,12.443774377438,0,0
-183.65188739279,-22.780751006485,7.248204820482,1304618.067802,7498.8693643262,2916225.9993473,12.448204820482,0,0
-183.65188729966,-22.809573910333,7.2526352635264,1304618.067802,7498.8693643262,2916225.9993473,12.452635263526,0,0
-183.65188720654,-22.838396814181,7.2570657065707,1304618.067802,7498.8693643262,2916225.9993473,12.457065706571,0,0
-183.65188711341,-22.867219718029,7.261496149615,1304618.067802,7498.8693643262,2916225.9993473,12.461496149615,0,0
-183.65188702029,-22.896042621877,7.2659265926593,1304618.067802,7498.8693643262,2916225.9993473,12.465926592659,0,0
-183.65188692716,-22.924865525725,7.2703570357036,1304618.067802,7498.8693643262,2916225.9993473,12.470357035704,0,0
-183.65188683404,-22.953688429573,7.2747874787479,1304618.067802,7498.8693643262,2916225.9993473,12.474787478748,0,0
-183.65188674091,-22.98251133342,7.2792179217922,1304618.067802,7498.8693643262,2916225.9993473,12.479217921792,0,0
-183.65188664779,-23.011334237268,7.2836483648365,1304618.067802,7498.8693643262,2916225.9993473,12.483648364836,0,0
-183.65188655466,-23.040157141116,7.2880788078808,1304618.067802,7498.8693643262,2916225.9993473,12.488078807881,0,0
-183.65188646154,-23.068980044964,7.2925092509251,1304618.067802,7498.8693643262,2916225.9993473,12.492509250925,0,0
-183.65188636841,-23.097802948812,7.2969396939694,1304618.067802,7498.8693643262,2916225.9993473,12.496939693969,0,0
-183.65188627528,-23.12662585266,7.3013701370137,1304618.067802,7498.8693643262,2916225.9993473,12.501370137014,0,0
-183.65188618216,-23.155448756507,7.305800580058,1304618.067802,7498.8693643262,2916225.9993473,12.505800580058,0,0
-183.65188608903,-23.184271660355,7.3102310231023,1304618.067802,7498.8693643262,2916225.9993473,12.510231023102,0,0
-183.65188599591,-23.213094564203,7.3146614661466,1304618.067802,7498.8693643262,2916225.9993473,12.514661466147,0,0
-183.65188590278,-23.241917468051,7.3190919091909,1304618.067802,7498.8693643262,2916225.9993473,12.519091909191,0,0
-183.65188580966,-23.270740371899,7.3235223522352,1304618.067802,7498.8693643262,2916225.9993473,12.523522352235,0,0
-183.65188571653,-23.299563275747,7.3279527952795,1304618.067802,7498.8693643262,2916225.9993473,12.52795279528,0,0
-183.65188562341,-23.328386179595,7.3323832383238,1304618.067802,7498.8693643262,2916225.9993473,12.532383238324,0,0
-183.65188553028,-23.357209083442,7.3368136813681,1304618.067802,7498.8693643262,2916225.9993473,12.536813681368,0,0
-183.65188543716,-23.38603198729,7.3412441244124,1304618.067802,7498.8693643262,2916225.9993473,12.541244124412,0,0
-183.65188534403,-23.414854891138,7.3456745674567,1304618.067802,7498.8693643262,2916225.9993473,12.545674567457,0,0
-183.65188525091,-23.443677794986,7.350105010501,1304618.067802,7498.8693643262,2916225.9993473,12.550105010501,0,0
-183.65188515778,-23.472500698834,7.3545354535454,1304618.067802,7498.8693643262,2916225.9993473,12.554535453545,0,0
-183.65188506466,-23.501323602682,7.3589658965897,1304618.067802,7498.8693643262,2916225.9993473,12.55896589659,0,0
-183.65188497153,-23.53014650653,7.363396339634,1304618.067802,7498.8693643262,2916225.9993473,12.563396339634,0,0
-183.65188487841,-23.558969410377,7.3678267826783,1304618.067802,7498.8693643262,2916225.9993473,12.567826782678,0,0
-183.65188478528,-23.587792314225,7.3722572257226,1304618.067802,7498.8693643262,2916225.9993473,12.572257225723,0,0
-183.65188469216,-23.616615218073,7.3766876687669,1304618.067802,7498.8693643262,2916225.9993473,12.576687668767,0,0
-183.65188459903,-23.645438121921,7.3811181118112,1304618.067802,7498.8693643262,2916225.9993473,12.581118111811,0,0
-183.65188450591,-23.674261025769,7.3855485548555,1304618.067802,7498.8693643262,2916225.9993473,12.585548554855,0,0
-183.65188441278,-23.703083929617,7.3899789978998,1304618.067802,7498.8693643262,2916225.9993473,12.5899789979,0,0
-183.65188431965,-23.731906833464,7.3944094409441,1304618.067802,7498.8693643262,2916225.9993473,12.594409440944,0,0
-183.65188422579,-23.760729740204,7.3988398839884,1303221.8685271,-6225.4566057619,2876139.3707032,12.598839883988,0,0
-183.65188413171,-23.789552647785,7.4032703270327,1303221.8685271,-6225.4566057619,2876139.3707032,12.603270327033,0,0
-183.65188403763,-23.818375555366,7.407700770077,1303221.8685271,-6225.4566057619,2876139.3707032,12.607700770077,0,0
-183.65188394355,-23.847198462948,7.4121312131213,1303221.8685271,-6225.4566057619,2876139.3707032,12.612131213121,0,0
-183.65188384946,-23.876021370529,7.4165616561656,1303221.8685271,-6225.4566057619,2876139.3707032,12.616561656166,0,0
-183.65188375538,-23.90484427811,7.4209920992099,1303221.8685271,-6225.4566057619,2876139.3707032,12.62099209921,0,0
-183.6518836613,-23.933667185692,7.4254225422542,1303221.8685271,-6225.4566057619,2876139.3707032,12.625422542254,0,0
-183.65188356722,-23.962490093273,7.4298529852985,1303221.8685271,-6225.4566057619,2876139.3707032,12.629852985299,0,0
-183.65188347314,-23.991313000854,7.4342834283428,1303221.8685271,-6225.4566057619,2876139.3707032,12.634283428343,0,0
-183.65188337906,-24.020135908436,7.4387138713871,1303221.8685271,-6225.4566057619,2876139.3707032,12.638713871387,0,0
-183.65188328498,-24.048958816017,7.4431443144314,1303221.8685271,-6225.4566057619,2876139.3707032,12.643144314431,0,0
-183.6518831909,-24.077781723599,7.4475747574757,1303221.8685271,-6225.4566057619,2876139.3707032,12.647574757476,0,0
-183.65188309682,-24.10660463118,7.4520052005201,1303221.8685271,-6225.4566057619,2876139.3707032,12.65200520052,0,0
-183.65188300274,-24.135427538761,7.4564356435644,1303221.8685271,-6225.4566057619,2876139.3707032,12.656435643564,0,0
-183.65188290865,-24.164250446343,7.4608660866087,1303221.8685271,-6225.4566057619,2876139.3707032,12.660866086609,0,0
-183.65188281457,-24.193073353924,7.465296529653,1303221.8685271,-6225.4566057619,2876139.3707032,12.665296529653,0,0
-183.65188272049,-24.221896261505,7.4697269726973,1303221.8685271,-6225.4566057619,2876139.3707032,12.669726972697,0,0
-183.65188262641,-24.250719169087,7.4741574157416,1303221.8685271,-6225.4566057619,2876139.3707032,12.674157415742,0,0
-183.65188253233,-24.279542076668,7.4785878587859,1303221.8685271,-6225.4566057619,2876139.3707032,12.678587858786,0,0
-183.65188243825,-24.308364984249,7.4830183018302,1303221.8685271,-6225.4566057619,2876139.3707032,12.68301830183,0,0
-183.65188234417,-24.337187891831,7.4874487448745,1303221.8685271,-6225.4566057619,2876139.3707032,12.687448744874,0,0
-183.65188225009,-24.366010799412,7.4918791879188,1303221.8685271,-6225.4566057619,2876139.3707032,12.691879187919,0,0
-183.65188215601,-24.394833706994,7.4963096309631,1303221.8685271,-6225.4566057619,2876139.3707032,12.696309630963,0,0
-183.65188206193,-24.423656614575,7.5007400740074,1303221.8685271,-6225.4566057619,2876139.3707032,12.700740074007,0,0
-183.65188196766,-24.452479521153,7.5051705170517,1303981.2026011,7861.8757459025,2855977.2514416,12.705170517052,0,0
-183.65188187298,-24.481302425439,7.509600960096,1303981.2026011,7861.8757459025,2855977.2514416,12.709600960096,0,0
-183.65188177831,-24.510125329724,7.5140314031403,1303981.2026011,7861.8757459025,2855977.2514416,12.71403140314,0,0
-183.65188168363,-24.538948234009,7.5184618461846,1303981.2026011,7861.8757459025,2855977.2514416,12.718461846185,0,0
-183.65188158895,-24.567771138294,7.5228922892289,1303981.2026011,7861.8757459025,2855977.2514416,12.722892289229,0,0
-183.65188149427,-24.596594042579,7.5273227322732,1303981.2026011,7861.8757459025,2855977.2514416,12.727322732273,0,0
-183.65188139959,-24.625416946864,7.5317531753175,1303981.2026011,7861.8757459025,2855977.2514416,12.731753175318,0,0
-183.65188130491,-24.654239851149,7.5361836183618,1303981.2026011,7861.8757459025,2855977.2514416,12.736183618362,0,0
-183.65188121023,-24.683062755435,7.5406140614061,1303981.2026011,7861.8757459025,2855977.2514416,12.740614061406,0,0
-183.65188111556,-24.71188565972,7.5450445044504,1303981.2026011,7861.8757459025,2855977.2514416,12.74504450445,0,0
-183.65188102088,-24.740708564005,7.5494749474947,1303981.2026011,7861.8757459025,2855977.2514416,12.749474947495,0,0
-183.6518809262,-24.76953146829,7.5539053905391,1303981.2026011,7861.8757459025,2855977.2514416,12.753905390539,0,0
-183.65188083152,-24.798354372575,7.5583358335834,1303981.2026011,7861.8757459025,2855977.2514416,12.758335833583,0,0
-183.65188073684,-24.82717727686,7.5627662766277,1303981.2026011,7861.8757459025,2855977.2514416,12.762766276628,0,0
-183.65188064216,-24.856000181146,7.567196719672,1303981.2026011,7861.8757459025,2855977.2514416,12.767196719672,0,0
-183.65188054748,-24.884823085431,7.5716271627163,1303981.2026011,7861.8757459025,2855977.2514416,12.771627162716,0,0
-183.65188045281,-24.913645989716,7.5760576057606,1303981.2026011,7861.8757459025,2855977.2514416,12.776057605761,0,0
-183.65188035813,-24.942468894001,7.5804880488049,1303981.2026011,7861.8757459025,2855977.2514416,12.780488048805,0,0
-183.65188026345,-24.971291798286,7.5849184918492,1303981.2026011,7861.8757459025,2855977.2514416,12.784918491849,0,0
-183.65188016877,-25.000114702571,7.5893489348935,1303981.2026011,7861.8757459025,2855977.2514416,12.789348934893,0,0
-183.65188007409,-25.028937606856,7.5937793779378,1303981.2026011,7861.8757459025,2855977.2514416,12.793779377938,0,0
-183.65187997941,-25.057760511142,7.5982098209821,1303981.2026011,7861.8757459025,2855977.2514416,12.798209820982,0,0
-183.65187988473,-25.086583415427,7.6026402640264,1303981.2026011,7861.8757459025,2855977.2514416,12.802640264026,0,0
-183.65187979006,-25.115406319712,7.6070707070707,1303981.2026011,7861.8757459025,2855977.2514416,12.807070707071,0,0
-183.65187969538,-25.144229223997,7.611501150115,1303981.2026011,7861.8757459025,2855977.2514416,12.811501150115,0,0
-183.6518796007,-25.173052128282,7.6159315931593,1303981.2026011,7861.8757459025,2855977.2514416,12.815931593159,0,0
-183.65187950602,-25.201875032567,7.6203620362036,1303981.2026011,7861.8757459025,2855977.2514416,12.820362036204,0,0
-183.65187941134,-25.230697936852,7.6247924792479,1303981.2026011,7861.8757459025,2855977.2514416,12.824792479248,0,0
-183.65187931666,-25.259520841138,7.6292229222922,1303981.2026011,7861.8757459025,2855977.2514416,12.829222922292,0,0
-183.65187922199,-25.288343745423,7.6336533653365,1303981.2026011,7861.8757459025,2855977.2514416,12.833653365337,0,0
-183.65187912731,-25.317166649708,7.6380838083808,1303981.2026011,7861.8757459025,2855977.2514416,12.838083808381,0,0
-183.65187903263,-25.345989553993,7.6425142514251,1303981.2026011,7861.8757459025,2855977.2514416,12.842514251425,0,0
-183.65187893795,-25.374812458278,7.6469446944694,1303981.2026011,7861.8757459025,2855977.2514416,12.846944694469,0,0
-183.65187884327,-25.403635362563,7.6513751375138,1303981.2026011,7861.8757459025,2855977.2514416,12.851375137514,0,0
-183.65187874859,-25.432458266848,7.6558055805581,1303981.2026011,7861.8757459025,2855977.2514416,12.855805580558,0,0
-183.65187865391,-25.461281171134,7.6602360236024,1303981.2026011,7861.8757459025,2855977.2514416,12.860236023602,0,0
-183.65187855924,-25.490104075419,7.6646664666467,1303981.2026011,7861.8757459025,2855977.2514416,12.864666466647,0,0
-183.65187846456,-25.518926979704,7.669096909691,1303981.2026011,7861.8757459025,2855977.2514416,12.869096909691,0,0
-183.65187836988,-25.547749883989,7.6735273527353,1303981.2026011,7861.8757459025,2855977.2514416,12.873527352735,0,0
-183.6518782752,-25.576572788274,7.6779577957796,1303981.2026011,7861.8757459025,2855977.2514416,12.87795779578,0,0
-183.65187818052,-25.605395692559,7.6823882388239,1303981.2026011,7861.8757459025,2855977.2514416,12.882388238824,0,0
-183.65187808584,-25.634218596844,7.6868186818682,1303981.2026011,7861.8757459025,2855977.2514416,12.886818681868,0,0
-183.65187799116,-25.66304150113,7.6912491249125,1303981.2026011,7861.8757459025,2855977.2514416,12.891249124912,0,0
-183.65187789649,-25.691864405415,7.6956795679568,1303981.2026011,7861.8757459025,2855977.2514416,12.895679567957,0,0
-183.65187780181,-25.7206873097,7.7001100110011,1303981.2026011,7861.8757459025,2855977.2514416,12.900110011001,0,0
-183.65187770713,-25.749510213985,7.7045404540454,1303981.2026011,7861.8757459025,2855977.2514416,12.904540454045,0,0
-183.65187761245,-25.77833311827,7.7089708970897,1303981.2026011,7861.8757459025,2855977.2514416,12.90897089709,0,0
-183.65187751777,-25.807156022555,7.713401340134,1303981.2026011,7861.8757459025,2855977.2514416,12.913401340134,0,0
-183.65187742309,-25.835978926841,7.7178317831783,1303981.2026011,7861.8757459025,2855977.2514416,12.917831783178,0,0
-183.65187732841,-25.864801831126,7.7222622262226,1303981.2026011,7861.8757459025,2855977.2514416,12.922262226223,0,0
-183.65187723374,-25.893624735411,7.7266926692669,1303981.2026011,7861.8757459025,2855977.2514416,12.926692669267,0,0
-183.65187713906,-25.922447639696,7.7311231123112,1303981.2026011,7861.8757459025,2855977.2514416,12.931123112311,0,0
-183.65187704438,-25.951270543981,7.7355535553555,1303981.2026011,7861.8757459025,2855977.2514416,12.935553555356,0,0
-183.6518769497,-25.980093448266,7.7399839983998,1303981.2026011,7861.8757459025,2855977.2514416,12.9399839984,0,0
-183.65187685502,-26.008916352551,7.7444144414441,1303981.2026011,7861.8757459025,2855977.2514416,12.944414441444,0,0
-183.65187676034,-26.037739256837,7.7488448844884,1303981.2026011,7861.8757459025,2855977.2514416,12.948844884488,0,0
-183.65187666566,-26.066562161122,7.7532753275328,1303981.2026011,7861.8757459025,2855977.2514416,12.953275327533,0,0
-183.65187657099,-26.095385065407,7.7577057705771,1303981.2026011,7861.8757459025,2855977.2514416,12.957705770577,0,0
-183.65187647631,-26.124207969692,7.7621362136214,1303981.2026011,7861.8757459025,2855977.2514416,12.962136213621,0,0
-183.65187638163,-26.153030873977,7.7665666566657,1303981.2026011,7861.8757459025,2855977.2514416,12.966566656666,0,0
-183.65187628695,-26.181853778262,7.77099709971,1303981.2026011,7861.8757459025,2855977.2514416,12.97099709971,0,0
-183.65187619227,-26.210676682547,7.7754275427543,1303981.2026011,7861.8757459025,2855977.2514416,12.975427542754,0,0
-183.65187609759,-26.239499586833,7.7798579857986,1303981.2026011,7861.8757459025,2855977.2514416,12.979857985799,0,0
-183.65187600292,-26.268322491118,7.7842884288429,1303981.2026011,7861.8757459025,2855977.2514416,12.984288428843,0,0
-183.65187590824,-26.297145395403,7.7887188718872,1303981.2026011,7861.8757459025,2855977.2514416,12.988718871887,0,0
-183.65187581356,-26.325968299688,7.7931493149315,1303981.2026011,7861.8757459025,2855977.2514416,12.993149314931,0,0
-183.65187571888,-26.354791203973,7.7975797579758,1303981.2026011,7861.8757459025,2855977.2514416,12.997579757976,0,0
-183.6518756242,-26.383614108258,7.8020102010201,1303981.2026011,7861.8757459025,2855977.2514416,13.00201020102,0,0
-183.65187552952,-26.412437012543,7.8064406440644,1303981.2026011,7861.8757459025,2855977.2514416,13.006440644064,0,0
-183.65187543484,-26.441259916829,7.8108710871087,1303981.2026011,7861.8757459025,2855977.2514416,13.010871087109,0,0
-183.65187534017,-26.470082821114,7.815301530153,1303981.2026011,7861.8757459025,2855977.2514416,13.015301530153,0,0
-183.65187524549,-26.498905725399,7.8197319731973,1303981.2026011,7861.8757459025,2855977.2514416,13.019731973197,0,0
-183.65187515081,-26.527728629684,7.8241624162416,1303981.2026011,7861.8757459025,2855977.2514416,13.024162416242,0,0
-183.65187505613,-26.556551533969,7.8285928592859,1303981.2026011,7861.8757459025,2855977.2514416,13.028592859286,0,0
-183.65187496145,-26.585374438254,7.8330233023302,1303981.2026011,7861.8757459025,2855977.2514416,13.03302330233,0,0
-183.65187486677,-26.61419734254,7.8374537453745,1303981.2026011,7861.8757459025,2855977.2514416,13.037453745375,0,0
-183.65187477209,-26.643020246825,7.8418841884188,1303981.2026011,7861.8757459025,2855977.2514416,13.041884188419,0,0
-183.65187467742,-26.67184315111,7.8463146314631,1303981.2026011,7861.8757459025,2855977.2514416,13.046314631463,0,0
-183.65187458274,-26.700666055395,7.8507450745074,1303981.2026011,7861.8757459025,2855977.2514416,13.050745074507,0,0
-183.65187448806,-26.72948895968,7.8551755175518,1303981.2026011,7861.8757459025,2855977.2514416,13.055175517552,0,0
-183.65187439338,-26.758311863965,7.8596059605961,1303981.2026011,7861.8757459025,2855977.2514416,13.059605960596,0,0
-183.6518742987,-26.78713476825,7.8640364036404,1303981.2026011,7861.8757459025,2855977.2514416,13.06403640364,0,0
-183.65187420402,-26.815957672536,7.8684668466847,1303981.2026011,7861.8757459025,2855977.2514416,13.068466846685,0,0
-183.65187410934,-26.844780576821,7.872897289729,1303981.2026011,7861.8757459025,2855977.2514416,13.072897289729,0,0
-183.65187401467,-26.873603481106,7.8773277327733,1303981.2026011,7861.8757459025,2855977.2514416,13.077327732773,0,0
-183.65187391999,-26.902426385391,7.8817581758176,1303981.2026011,7861.8757459025,2855977.2514416,13.081758175818,0,0
-183.65187382531,-26.931249289676,7.8861886188619,1303981.2026011,7861.8757459025,2855977.2514416,13.086188618862,0,0
-183.65187373063,-26.960072193961,7.8906190619062,1303981.2026011,7861.8757459025,2855977.2514416,13.090619061906,0,0
-183.65187363595,-26.988895098246,7.8950495049505,1303981.2026011,7861.8757459025,2855977.2514416,13.09504950495,0,0
-183.65187354127,-27.017718002532,7.8994799479948,1303981.2026011,7861.8757459025,2855977.2514416,13.099479947995,0,0
-183.6518734466,-27.046540906817,7.9039103910391,1303981.2026011,7861.8757459025,2855977.2514416,13.103910391039,0,0
-183.65187335192,-27.075363811102,7.9083408340834,1303981.2026011,7861.8757459025,2855977.2514416,13.108340834083,0,0
-183.65187325724,-27.104186715387,7.9127712771277,1303981.2026011,7861.8757459025,2855977.2514416,13.112771277128,0,0
-183.65187316256,-27.133009619672,7.917201720172,1303981.2026011,7861.8757459025,2855977.2514416,13.117201720172,0,0
-183.65187306788,-27.161832523957,7.9216321632163,1303981.2026011,7861.8757459025,2855977.2514416,13.121632163216,0,0
-183.6518729732,-27.190655428242,7.9260626062606,1303981.2026011,7861.8757459025,2855977.2514416,13.126062606261,0,0
-183.65187287852,-27.219478332528,7.9304930493049,1303981.2026011,7861.8757459025,2855977.2514416,13.130493049305,0,0
-183.65187278385,-27.248301236813,7.9349234923492,1303981.2026011,7861.8757459025,2855977.2514416,13.134923492349,0,0
-183.65187268917,-27.277124141098,7.9393539353935,1303981.2026011,7861.8757459025,2855977.2514416,13.139353935394,0,0
-183.65187259449,-27.305947045383,7.9437843784378,1303981.2026011,7861.8757459025,2855977.2514416,13.143784378438,0,0
-183.65187249981,-27.334769949668,7.9482148214821,1303981.2026011,7861.8757459025,2855977.2514416,13.148214821482,0,0
-183.65187240513,-27.363592853953,7.9526452645265,1303981.2026011,7861.8757459025,2855977.2514416,13.152645264526,0,0
-183.65187231045,-27.392415758238,7.9570757075708,1303981.2026011,7861.8757459025,2855977.2514416,13.157075707571,0,0
-183.65187221577,-27.421238662524,7.9615061506151,1303981.2026011,7861.8757459025,2855977.2514416,13.161506150615,0,0
-183.6518721211,-27.450061566809,7.9659365936594,1303981.2026011,7861.8757459025,2855977.2514416,13.165936593659,0,0
-183.65187202642,-27.478884471094,7.9703670367037,1303981.2026011,7861.8757459025,2855977.2514416,13.170367036704,0,0
-183.65187193174,-27.507707375379,7.974797479748,1303981.2026011,7861.8757459025,2855977.2514416,13.174797479748,0,0
-183.65187183706,-27.536530279664,7.9792279227923,1303981.2026011,7861.8757459025,2855977.2514416,13.179227922792,0,0
-183.65187174238,-27.565353183949,7.9836583658366,1303981.2026011,7861.8757459025,2855977.2514416,13.183658365837,0,0
-183.6518716477,-27.594176088235,7.9880888088809,1303981.2026011,7861.8757459025,2855977.2514416,13.188088808881,0,0
-183.65187155302,-27.62299899252,7.9925192519252,1303981.2026011,7861.8757459025,2855977.2514416,13.192519251925,0,0
-183.65187145835,-27.651821896805,7.9969496949695,1303981.2026011,7861.8757459025,2855977.2514416,13.196949694969,0,0
-183.65187136367,-27.68064480109,8.0013801380138,1303981.2026011,7861.8757459025,2855977.2514416,13.201380138014,0,0
-183.65187126899,-27.709467705375,8.0058105810581,1303981.2026011,7861.8757459025,2855977.2514416,13.205810581058,0,0
-183.65187117431,-27.73829060966,8.0102410241024,1303981.2026011,7861.8757459025,2855977.2514416,13.210241024102,0,0
-183.65187107963,-27.767113513945,8.0146714671467,1303981.2026011,7861.8757459025,2855977.2514416,13.214671467147,0,0
-183.65187098495,-27.795936418231,8.019101910191,1303981.2026011,7861.8757459025,2855977.2514416,13.219101910191,0,0
-183.65187089027,-27.824759322516,8.0235323532353,1303981.2026011,7861.8757459025,2855977.2514416,13.223532353235,0,0
-183.6518707956,-27.853582226801,8.0279627962796,1303981.2026011,7861.8757459025,2855977.2514416,13.22796279628,0,0
-183.65187070092,-27.882405131086,8.0323932393239,1303981.2026011,7861.8757459025,2855977.2514416,13.232393239324,0,0
-183.65187060624,-27.911228035371,8.0368236823682,1303981.2026011,7861.8757459025,2855977.2514416,13.236823682368,0,0
-183.65187051156,-27.940050939656,8.0412541254125,1303981.2026011,7861.8757459025,2855977.2514416,13.241254125413,0,0
-183.65187041688,-27.968873843941,8.0456845684568,1303981.2026011,7861.8757459025,2855977.2514416,13.245684568457,0,0
-183.6518703222,-27.997696748227,8.0501150115011,1303981.2026011,7861.8757459025,2855977.2514416,13.250115011501,0,0
-183.65187022753,-28.026519652512,8.0545454545455,1303981.2026011,7861.8757459025,2855977.2514416,13.254545454545,0,0
-183.65187013285,-28.055342556797,8.0589758975898,1303981.2026011,7861.8757459025,2855977.2514416,13.25897589759,0,0
-183.65187003817,-28.084165461082,8.0634063406341,1303981.2026011,7861.8757459025,2855977.2514416,13.263406340634,0,0
-183.65186994349,-28.112988365367,8.0678367836784,1303981.2026011,7861.8757459025,2855977.2514416,13.267836783678,0,0
-183.65186984881,-28.141811269652,8.0722672267227,1303981.2026011,7861.8757459025,2855977.2514416,13.272267226723,0,0
-183.65186975413,-28.170634173937,8.076697669767,1303981.2026011,7861.8757459025,2855977.2514416,13.276697669767,0,0
-183.65186965945,-28.199457078223,8.0811281128113,1303981.2026011,7861.8757459025,2855977.2514416,13.281128112811,0,0
-183.65186956478,-28.228279982508,8.0855585558556,1303981.2026011,7861.8757459025,2855977.2514416,13.285558555856,0,0
-183.6518694701,-28.257102886793,8.0899889988999,1303981.2026011,7861.8757459025,2855977.2514416,13.2899889989,0,0
-183.65186937542,-28.285925791078,8.0944194419442,1303981.2026011,7861.8757459025,2855977.2514416,13.294419441944,0,0
-183.65186928074,-28.314748695363,8.0988498849885,1303981.2026011,7861.8757459025,2855977.2514416,13.298849884988,0,0
-183.65186918606,-28.343571599648,8.1032803280328,1303981.2026011,7861.8757459025,2855977.2514416,13.303280328033,0,0
-183.65186909138,-28.372394503934,8.1077107710771,1303981.2026011,7861.8757459025,2855977.2514416,13.307710771077,0,0
-183.6518689967,-28.401217408219,8.1121412141214,1303981.2026011,7861.8757459025,2855977.2514416,13.312141214121,0,0
-183.65186890203,-28.430040312504,8.1165716571657,1303981.2026011,7861.8757459025,2855977.2514416,13.316571657166,0,0
-183.65186880735,-28.458863216789,8.12100210021,1303981.2026011,7861.8757459025,2855977.2514416,13.32100210021,0,0
-183.65186871267,-28.487686121074,8.1254325432543,1303981.2026011,7861.8757459025,2855977.2514416,13.325432543254,0,0
-183.65186861799,-28.516509025359,8.1298629862986,1303981.2026011,7861.8757459025,2855977.2514416,13.329862986299,0,0
-183.65186852331,-28.545331929644,8.1342934293429,1303981.2026011,7861.8757459025,2855977.2514416,13.334293429343,0,0
-183.65186842863,-28.57415483393,8.1387238723872,1303981.2026011,7861.8757459025,2855977.2514416,13.338723872387,0,0
-183.65186833395,-28.602977738215,8.1431543154315,1303981.2026011,7861.8757459025,2855977.2514416,13.343154315432,0,0
-183.65186823928,-28.6318006425,8.1475847584758,1303981.2026011,7861.8757459025,2855977.2514416,13.347584758476,0,0
-183.6518681446,-28.660623546785,8.1520152015202,1303981.2026011,7861.8757459025,2855977.2514416,13.35201520152,0,0
-183.65186804992,-28.68944645107,8.1564456445645,1303981.2026011,7861.8757459025,2855977.2514416,13.356445644564,0,0
-183.65186795524,-28.718269355355,8.1608760876088,1303981.2026011,7861.8757459025,2855977.2514416,13.360876087609,0,0
-183.65186786056,-28.74709225964,8.1653065306531,1303981.2026011,7861.8757459025,2855977.2514416,13.365306530653,0,0
-183.65186776588,-28.775915163926,8.1697369736974,1303981.2026011,7861.8757459025,2855977.2514416,13.369736973697,0,0
-183.65186767121,-28.804738068211,8.1741674167417,1303981.2026011,7861.8757459025,2855977.2514416,13.374167416742,0,0
-183.65186757653,-28.833560972496,8.178597859786,1303981.2026011,7861.8757459025,2855977.2514416,13.378597859786,0,0
-183.65186748185,-28.862383876781,8.1830283028303,1303981.2026011,7861.8757459025,2855977.2514416,13.38302830283,0,0
-183.65186738717,-28.891206781066,8.1874587458746,1303981.2026011,7861.8757459025,2855977.2514416,13.387458745875,0,0
-183.65186729249,-28.920029685351,8.1918891889189,1303981.2026011,7861.8757459025,2855977.2514416,13.391889188919,0,0
-183.65186719781,-28.948852589636,8.1963196319632,1303981.2026011,7861.8757459025,2855977.2514416,13.396319631963,0,0
-183.65186710313,-28.977675493922,8.2007500750075,1303981.2026011,7861.8757459025,2855977.2514416,13.400750075008,0,0
-183.65186700846,-29.006498398207,8.2051805180518,1303981.2026011,7861.8757459025,2855977.2514416,13.405180518052,0,0
-183.65186691378,-29.035321302492,8.2096109610961,1303981.2026011,7861.8757459025,2855977.2514416,13.409610961096,0,0
-183.6518668191,-29.064144206777,8.2140414041404,1303981.2026011,7861.8757459025,2855977.2514416,13.41404140414,0,0
-183.65186672442,-29.092967111062,8.2184718471847,1303981.2026011,7861.8757459025,2855977.2514416,13.418471847185,0,0
-183.65186662974,-29.121790015347,8.222902290229,1303981.2026011,7861.8757459025,2855977.2514416,13.422902290229,0,0
-183.65186653506,-29.150612919632,8.2273327332733,1303981.2026011,7861.8757459025,2855977.2514416,13.427332733273,0,0
-183.65186644038,-29.179435823918,8.2317631763176,1303981.2026011,7861.8757459025,2855977.2514416,13.431763176318,0,0
-183.65186634571,-29.208258728203,8.2361936193619,1303981.2026011,7861.8757459025,2855977.2514416,13.436193619362,0,0
-183.65186625103,-29.237081632488,8.2406240624062,1303981.2026011,7861.8757459025,2855977.2514416,13.440624062406,0,0
-183.65186615635,-29.265904536773,8.2450545054505,1303981.2026011,7861.8757459025,2855977.2514416,13.445054505451,0,0
-183.65186606167,-29.294727441058,8.2494849484948,1303981.2026011,7861.8757459025,2855977.2514416,13.449484948495,0,0
-183.65186596699,-29.323550345343,8.2539153915392,1303981.2026011,7861.8757459025,2855977.2514416,13.453915391539,0,0
-183.65186587231,-29.352373249629,8.2583458345835,1303981.2026011,7861.8757459025,2855977.2514416,13.458345834583,0,0
-183.65186577763,-29.381196153914,8.2627762776278,1303981.2026011,7861.8757459025,2855977.2514416,13.462776277628,0,0
-183.65186568296,-29.410019058199,8.2672067206721,1303981.2026011,7861.8757459025,2855977.2514416,13.467206720672,0,0
-183.65186558828,-29.438841962484,8.2716371637164,1303981.2026011,7861.8757459025,2855977.2514416,13.471637163716,0,0
-183.6518654936,-29.467664866769,8.2760676067607,1303981.2026011,7861.8757459025,2855977.2514416,13.476067606761,0,0
-183.65186539892,-29.496487771054,8.280498049805,1303981.2026011,7861.8757459025,2855977.2514416,13.480498049805,0,0
-183.65186530424,-29.525310675339,8.2849284928493,1303981.2026011,7861.8757459025,2855977.2514416,13.484928492849,0,0
-183.65186520956,-29.554133579625,8.2893589358936,1303981.2026011,7861.8757459025,2855977.2514416,13.489358935894,0,0
-183.65186511488,-29.58295648391,8.2937893789379,1303981.2026011,7861.8757459025,2855977.2514416,13.493789378938,0,0
-183.65186502021,-29.611779388195,8.2982198219822,1303981.2026011,7861.8757459025,2855977.2514416,13.498219821982,0,0
-183.65186492553,-29.64060229248,8.3026502650265,1303981.2026011,7861.8757459025,2855977.2514416,13.502650265027,0,0
-183.65186483085,-29.669425196765,8.3070807080708,1303981.2026011,7861.8757459025,2855977.2514416,13.507080708071,0,0
-183.65186473617,-29.69824810105,8.3115111511151,1303981.2026011,7861.8757459025,2855977.2514416,13.511511151115,0,0
-183.65186464149,-29.727071005335,8.3159415941594,1303981.2026011,7861.8757459025,2855977.2514416,13.515941594159,0,0
-183.65186454681,-29.755893909621,8.3203720372037,1303981.2026011,7861.8757459025,2855977.2514416,13.520372037204,0,0
-183.65186445214,-29.784716813906,8.324802480248,1303981.2026011,7861.8757459025,2855977.2514416,13.524802480248,0,0
-183.65186435746,-29.813539718191,8.3292329232923,1303981.2026011,7861.8757459025,2855977.2514416,13.529232923292,0,0
-183.65186426278,-29.842362622476,8.3336633663366,1303981.2026011,7861.8757459025,2855977.2514416,13.533663366337,0,0
-183.6518641681,-29.871185526761,8.3380938093809,1303981.2026011,7861.8757459025,2855977.2514416,13.538093809381,0,0
-183.65186407313,-29.900008432948,8.3425242524252,1300809.88928,-5215.910205152,2828547.006182,13.542524252425,0,0
-183.65186397797,-29.928831340342,8.3469546954695,1300809.88928,-5215.910205152,2828547.006182,13.54695469547,0,0
-183.65186388274,-29.957654247298,8.3513851385139,1301051.7203088,6673.6851340465,2811374.3299332,13.551385138514,0,0
-183.65186378711,-29.986477151922,8.3558155815582,1301051.7203088,6673.6851340465,2811374.3299332,13.555815581558,0,0
-183.65186369148,-30.015300056547,8.3602460246025,1301051.7203088,6673.6851340465,2811374.3299332,13.560246024602,0,0
-183.65186359585,-30.044122961171,8.3646764676468,1301051.7203088,6673.6851340465,2811374.3299332,13.564676467647,0,0
-183.65186350021,-30.072945865795,8.3691069106911,1301051.7203088,6673.6851340465,2811374.3299332,13.569106910691,0,0
-183.65186340458,-30.10176877042,8.3735373537354,1301051.7203088,6673.6851340465,2811374.3299332,13.573537353735,0,0
-183.65186330895,-30.130591675044,8.3779677967797,1301051.7203088,6673.6851340465,2811374.3299332,13.57796779678,0,0
-183.65186321332,-30.159414579669,8.382398239824,1301051.7203088,6673.6851340465,2811374.3299332,13.582398239824,0,0
-183.65186311769,-30.188237484293,8.3868286828683,1301051.7203088,6673.6851340465,2811374.3299332,13.586828682868,0,0
-183.65186302205,-30.217060388917,8.3912591259126,1301051.7203088,6673.6851340465,2811374.3299332,13.591259125913,0,0
-183.65186292642,-30.245883293542,8.3956895689569,1301051.7203088,6673.6851340465,2811374.3299332,13.595689568957,0,0
-183.65186283079,-30.274706198166,8.4001200120012,1301051.7203088,6673.6851340465,2811374.3299332,13.600120012001,0,0
-183.65186273516,-30.30352910279,8.4045504550455,1301051.7203088,6673.6851340465,2811374.3299332,13.604550455046,0,0
-183.65186263953,-30.332352007415,8.4089808980898,1301051.7203088,6673.6851340465,2811374.3299332,13.60898089809,0,0
-183.65186254389,-30.361174912039,8.4134113411341,1301051.7203088,6673.6851340465,2811374.3299332,13.613411341134,0,0
-183.65186244826,-30.389997816663,8.4178417841784,1301051.7203088,6673.6851340465,2811374.3299332,13.617841784178,0,0
-183.65186235263,-30.418820721288,8.4222722272227,1301051.7203088,6673.6851340465,2811374.3299332,13.622272227223,0,0
-183.651862257,-30.447643625912,8.426702670267,1301051.7203088,6673.6851340465,2811374.3299332,13.626702670267,0,0
-183.65186216137,-30.476466530536,8.4311331133113,1301051.7203088,6673.6851340465,2811374.3299332,13.631133113311,0,0
-183.65186206573,-30.505289435161,8.4355635563556,1301051.7203088,6673.6851340465,2811374.3299332,13.635563556356,0,0
-183.6518619701,-30.534112339785,8.4399939993999,1301051.7203088,6673.6851340465,2811374.3299332,13.6399939994,0,0
-183.65186187447,-30.562935244409,8.4444244424442,1301051.7203088,6673.6851340465,2811374.3299332,13.644424442444,0,0
-183.65186177884,-30.591758149034,8.4488548854885,1301051.7203088,6673.6851340465,2811374.3299332,13.648854885489,0,0
-183.6518616832,-30.620581053658,8.4532853285329,1301051.7203088,6673.6851340465,2811374.3299332,13.653285328533,0,0
-183.65186158757,-30.649403958283,8.4577157715772,1301051.7203088,6673.6851340465,2811374.3299332,13.657715771577,0,0
-183.65186149194,-30.678226862907,8.4621462146215,1301051.7203088,6673.6851340465,2811374.3299332,13.662146214621,0,0
-183.65186139631,-30.707049767531,8.4665766576658,1301051.7203088,6673.6851340465,2811374.3299332,13.666576657666,0,0
-183.65186130068,-30.735872672156,8.4710071007101,1301051.7203088,6673.6851340465,2811374.3299332,13.67100710071,0,0
-183.65186120504,-30.76469557678,8.4754375437544,1301051.7203088,6673.6851340465,2811374.3299332,13.675437543754,0,0
-183.65186110941,-30.793518481404,8.4798679867987,1301051.7203088,6673.6851340465,2811374.3299332,13.679867986799,0,0
-183.65186101378,-30.822341386029,8.484298429843,1301051.7203088,6673.6851340465,2811374.3299332,13.684298429843,0,0
-183.65186091815,-30.851164290653,8.4887288728873,1301051.7203088,6673.6851340465,2811374.3299332,13.688728872887,0,0
-183.65186082249,-30.879987195272,8.4931593159316,1301235.6446427,-6964.2286985073,2804954.8861634,13.693159315932,0,0
-183.65186072667,-30.908810099864,8.4975897589759,1301235.6446427,-6964.2286985073,2804954.8861634,13.697589758976,0,0
-183.65186063085,-30.937633004456,8.5020202020202,1301235.6446427,-6964.2286985073,2804954.8861634,13.70202020202,0,0
-183.65186053503,-30.966455909047,8.5064506450645,1301235.6446427,-6964.2286985073,2804954.8861634,13.706450645065,0,0
-183.65186043922,-30.995278813639,8.5108810881088,1301235.6446427,-6964.2286985073,2804954.8861634,13.710881088109,0,0
-183.6518603434,-31.024101718231,8.5153115311531,1301235.6446427,-6964.2286985073,2804954.8861634,13.715311531153,0,0
-183.65186024758,-31.052924622822,8.5197419741974,1301235.6446427,-6964.2286985073,2804954.8861634,13.719741974197,0,0
-183.65186015176,-31.081747527414,8.5241724172417,1301235.6446427,-6964.2286985073,2804954.8861634,13.724172417242,0,0
-183.65186005595,-31.110570432005,8.528602860286,1301235.6446427,-6964.2286985073,2804954.8861634,13.728602860286,0,0
-183.65185996013,-31.139393336597,8.5330333033303,1301235.6446427,-6964.2286985073,2804954.8861634,13.73303330333,0,0
-183.65185986431,-31.168216241189,8.5374637463746,1301235.6446427,-6964.2286985073,2804954.8861634,13.737463746375,0,0
-183.65185976849,-31.19703914578,8.5418941894189,1301235.6446427,-6964.2286985073,2804954.8861634,13.741894189419,0,0
-183.65185967268,-31.225862050372,8.5463246324632,1301235.6446427,-6964.2286985073,2804954.8861634,13.746324632463,0,0
-183.65185957686,-31.254684954964,8.5507550755075,1301235.6446427,-6964.2286985073,2804954.8861634,13.750755075508,0,0
-183.65185948104,-31.283507859555,8.5551855185519,1301235.6446427,-6964.2286985073,2804954.8861634,13.755185518552,0,0
-183.65185938522,-31.312330764147,8.5596159615962,1301235.6446427,-6964.2286985073,2804954.8861634,13.759615961596,0,0
-183.6518592894,-31.341153668739,8.5640464046405,1301235.6446427,-6964.2286985073,2804954.8861634,13.76404640464,0,0
-183.65185919359,-31.36997657333,8.5684768476848,1301235.6446427,-6964.2286985073,2804954.8861634,13.768476847685,0,0
-183.65185909777,-31.398799477922,8.5729072907291,1301235.6446427,-6964.2286985073,2804954.8861634,13.772907290729,0,0
-183.65185900195,-31.427622382514,8.5773377337734,1301235.6446427,-6964.2286985073,2804954.8861634,13.777337733773,0,0
-183.65185890613,-31.456445287105,8.5817681768177,1301235.6446427,-6964.2286985073,2804954.8861634,13.781768176818,0,0
-183.65185881032,-31.485268191697,8.586198619862,1301235.6446427,-6964.2286985073,2804954.8861634,13.786198619862,0,0
-183.6518587145,-31.514091096289,8.5906290629063,1301235.6446427,-6964.2286985073,2804954.8861634,13.790629062906,0,0
-183.65185861868,-31.54291400088,8.5950595059506,1301235.6446427,-6964.2286985073,2804954.8861634,13.795059505951,0,0
-183.65185852286,-31.571736905472,8.5994899489949,1301235.6446427,-6964.2286985073,2804954.8861634,13.799489948995,0,0
-183.65185842705,-31.600559810063,8.6039203920392,1301235.6446427,-6964.2286985073,2804954.8861634,13.803920392039,0,0
-183.65185833123,-31.629382714655,8.6083508350835,1301235.6446427,-6964.2286985073,2804954.8861634,13.808350835084,0,0
-183.65185823541,-31.658205619247,8.6127812781278,1301235.6446427,-6964.2286985073,2804954.8861634,13.812781278128,0,0
-183.65185813959,-31.687028523838,8.6172117211721,1301235.6446427,-6964.2286985073,2804954.8861634,13.817211721172,0,0
-183.65185804377,-31.71585142843,8.6216421642164,1301235.6446427,-6964.2286985073,2804954.8861634,13.821642164216,0,0
-183.65185794796,-31.744674333022,8.6260726072607,1301235.6446427,-6964.2286985073,2804954.8861634,13.826072607261,0,0
-183.65185785214,-31.773497237613,8.630503050305,1301235.6446427,-6964.2286985073,2804954.8861634,13.830503050305,0,0
-183.65185775632,-31.802320142205,8.6349334933493,1301235.6446427,-6964.2286985073,2804954.8861634,13.834933493349,0,0
-183.6518576605,-31.831143046797,8.6393639363936,1301235.6446427,-6964.2286985073,2804954.8861634,13.839363936394,0,0
-183.65185756469,-31.859965951388,8.6437943794379,1301235.6446427,-6964.2286985073,2804954.8861634,13.843794379438,0,0
-183.65185746887,-31.88878885598,8.6482248224822,1301235.6446427,-6964.2286985073,2804954.8861634,13.848224822482,0,0
-183.65185737305,-31.917611760572,8.6526552655266,1301235.6446427,-6964.2286985073,2804954.8861634,13.852655265527,0,0
-183.65185727723,-31.946434665163,8.6570857085709,1301235.6446427,-6964.2286985073,2804954.8861634,13.857085708571,0,0
-183.65185718141,-31.975257569755,8.6615161516152,1301235.6446427,-6964.2286985073,2804954.8861634,13.861516151615,0,0
-183.6518570856,-32.004080474346,8.6659465946595,1301235.6446427,-6964.2286985073,2804954.8861634,13.865946594659,0,0
-183.65185698978,-32.032903378938,8.6703770377038,1301235.6446427,-6964.2286985073,2804954.8861634,13.870377037704,0,0
-183.65185689396,-32.06172628353,8.6748074807481,1301235.6446427,-6964.2286985073,2804954.8861634,13.874807480748,0,0
-183.65185679814,-32.090549188121,8.6792379237924,1301235.6446427,-6964.2286985073,2804954.8861634,13.879237923792,0,0
-183.65185670233,-32.119372092713,8.6836683668367,1301235.6446427,-6964.2286985073,2804954.8861634,13.883668366837,0,0
-183.65185660651,-32.148194997305,8.688098809881,1301235.6446427,-6964.2286985073,2804954.8861634,13.888098809881,0,0
-183.65185651069,-32.177017901896,8.6925292529253,1301235.6446427,-6964.2286985073,2804954.8861634,13.892529252925,0,0
-183.65185641487,-32.205840806488,8.6969596959696,1301235.6446427,-6964.2286985073,2804954.8861634,13.89695969597,0,0
-183.65185631906,-32.23466371108,8.7013901390139,1301235.6446427,-6964.2286985073,2804954.8861634,13.901390139014,0,0
-183.65185622324,-32.263486615671,8.7058205820582,1301235.6446427,-6964.2286985073,2804954.8861634,13.905820582058,0,0
-183.65185612742,-32.292309520263,8.7102510251025,1301235.6446427,-6964.2286985073,2804954.8861634,13.910251025103,0,0
-183.6518560316,-32.321132424855,8.7146814681468,1301235.6446427,-6964.2286985073,2804954.8861634,13.914681468147,0,0
-183.65185593578,-32.349955329446,8.7191119111911,1301235.6446427,-6964.2286985073,2804954.8861634,13.919111911191,0,0
-183.65185583997,-32.378778234038,8.7235423542354,1301235.6446427,-6964.2286985073,2804954.8861634,13.923542354235,0,0
-183.65185574415,-32.40760113863,8.7279727972797,1301235.6446427,-6964.2286985073,2804954.8861634,13.92797279728,0,0
-183.65185564833,-32.436424043221,8.732403240324,1301235.6446427,-6964.2286985073,2804954.8861634,13.932403240324,0,0
-183.65185555251,-32.465246947813,8.7368336833683,1301235.6446427,-6964.2286985073,2804954.8861634,13.936833683368,0,0
-183.6518554567,-32.494069852404,8.7412641264126,1301235.6446427,-6964.2286985073,2804954.8861634,13.941264126413,0,0
-183.65185536088,-32.522892756996,8.7456945694569,1301235.6446427,-6964.2286985073,2804954.8861634,13.945694569457,0,0
-183.65185526506,-32.551715661588,8.7501250125013,1301235.6446427,-6964.2286985073,2804954.8861634,13.950125012501,0,0
-183.65185516924,-32.580538566179,8.7545554555456,1301235.6446427,-6964.2286985073,2804954.8861634,13.954555455546,0,0
-183.65185507343,-32.609361470771,8.7589858985899,1301235.6446427,-6964.2286985073,2804954.8861634,13.95898589859,0,0
-183.65185497761,-32.638184375363,8.7634163416342,1301235.6446427,-6964.2286985073,2804954.8861634,13.963416341634,0,0
-183.65185488179,-32.667007279954,8.7678467846785,1301235.6446427,-6964.2286985073,2804954.8861634,13.967846784678,0,0
-183.65185478597,-32.695830184546,8.7722772277228,1301235.6446427,-6964.2286985073,2804954.8861634,13.972277227723,0,0
-183.65185469015,-32.724653089138,8.7767076707671,1301235.6446427,-6964.2286985073,2804954.8861634,13.976707670767,0,0
-183.65185459434,-32.753475993729,8.7811381138114,1301235.6446427,-6964.2286985073,2804954.8861634,13.981138113811,0,0
-183.65185449852,-32.782298898321,8.7855685568557,1301235.6446427,-6964.2286985073,2804954.8861634,13.985568556856,0,0
-183.6518544027,-32.811121802913,8.7899989999,1301235.6446427,-6964.2286985073,2804954.8861634,13.9899989999,0,0
-183.65185430688,-32.839944707504,8.7944294429443,1301235.6446427,-6964.2286985073,2804954.8861634,13.994429442944,0,0
-183.65185421107,-32.868767612096,8.7988598859886,1301235.6446427,-6964.2286985073,2804954.8861634,13.998859885989,0,0
-183.65185411525,-32.897590516687,8.8032903290329,1301235.6446427,-6964.2286985073,2804954.8861634,14.003290329033,0,0
-183.65185401943,-32.926413421279,8.8077207720772,1301235.6446427,-6964.2286985073,2804954.8861634,14.007720772077,0,0
-183.65185392361,-32.955236325871,8.8121512151215,1301235.6446427,-6964.2286985073,2804954.8861634,14.012151215122,0,0
-183.6518538278,-32.984059230462,8.8165816581658,1301235.6446427,-6964.2286985073,2804954.8861634,14.016581658166,0,0
-183.65185373198,-33.012882135054,8.8210121012101,1301235.6446427,-6964.2286985073,2804954.8861634,14.02101210121,0,0
-183.65185363616,-33.041705039646,8.8254425442544,1301235.6446427,-6964.2286985073,2804954.8861634,14.025442544254,0,0
-183.65185354034,-33.070527944237,8.8298729872987,1301235.6446427,-6964.2286985073,2804954.8861634,14.029872987299,0,0
-183.65185344452,-33.099350848829,8.834303430343,1301235.6446427,-6964.2286985073,2804954.8861634,14.034303430343,0,0
-183.65185334871,-33.128173753421,8.8387338733873,1301235.6446427,-6964.2286985073,2804954.8861634,14.038733873387,0,0
-183.65185325289,-33.156996658012,8.8431643164316,1301235.6446427,-6964.2286985073,2804954.8861634,14.043164316432,0,0
-183.65185315707,-33.185819562604,8.8475947594759,1301235.6446427,-6964.2286985073,2804954.8861634,14.047594759476,0,0
-183.65185306125,-33.214642467196,8.8520252025203,1301235.6446427,-6964.2286985073,2804954.8861634,14.05202520252,0,0
-183.65185296544,-33.243465371787,8.8564556455646,1301235.6446427,-6964.2286985073,2804954.8861634,14.056455645565,0,0
-183.65185286962,-33.272288276379,8.8608860886089,1301235.6446427,-6964.2286985073,2804954.8861634,14.060886088609,0,0
-183.6518527738,-33.30111118097,8.8653165316532,1301235.6446427,-6964.2286985073,2804954.8861634,14.065316531653,0,0
-183.65185267798,-33.329934085562,8.8697469746975,1301235.6446427,-6964.2286985073,2804954.8861634,14.069746974697,0,0
-183.65185258217,-33.358756990154,8.8741774177418,1301235.6446427,-6964.2286985073,2804954.8861634,14.074177417742,0,0
-183.65185248635,-33.387579894745,8.8786078607861,1301235.6446427,-6964.2286985073,2804954.8861634,14.078607860786,0,0
-183.65185239053,-33.416402799337,8.8830383038304,1301235.6446427,-6964.2286985073,2804954.8861634,14.08303830383,0,0
-183.65185229471,-33.445225703929,8.8874687468747,1301235.6446427,-6964.2286985073,2804954.8861634,14.087468746875,0,0
-183.65185219889,-33.47404860852,8.891899189919,1301235.6446427,-6964.2286985073,2804954.8861634,14.091899189919,0,0
-183.65185210308,-33.502871513112,8.8963296329633,1301235.6446427,-6964.2286985073,2804954.8861634,14.096329632963,0,0
-183.65185200726,-33.531694417704,8.9007600760076,1301235.6446427,-6964.2286985073,2804954.8861634,14.100760076008,0,0
-183.65185191144,-33.560517322295,8.9051905190519,1301235.6446427,-6964.2286985073,2804954.8861634,14.105190519052,0,0
-183.65185181562,-33.589340226887,8.9096209620962,1301235.6446427,-6964.2286985073,2804954.8861634,14.109620962096,0,0
-183.65185171981,-33.618163131479,8.9140514051405,1301235.6446427,-6964.2286985073,2804954.8861634,14.114051405141,0,0
-183.65185162399,-33.64698603607,8.9184818481848,1301235.6446427,-6964.2286985073,2804954.8861634,14.118481848185,0,0
-183.65185152817,-33.675808940662,8.9229122912291,1301235.6446427,-6964.2286985073,2804954.8861634,14.122912291229,0,0
-183.65185143235,-33.704631845253,8.9273427342734,1301235.6446427,-6964.2286985073,2804954.8861634,14.127342734273,0,0
-183.65185133653,-33.733454749845,8.9317731773177,1301235.6446427,-6964.2286985073,2804954.8861634,14.131773177318,0,0
-183.65185124072,-33.762277654437,8.936203620362,1301235.6446427,-6964.2286985073,2804954.8861634,14.136203620362,0,0
-183.6518511449,-33.791100559028,8.9406340634063,1301235.6446427,-6964.2286985073,2804954.8861634,14.140634063406,0,0
-183.65185104908,-33.81992346362,8.9450645064506,1301235.6446427,-6964.2286985073,2804954.8861634,14.145064506451,0,0
-183.65185095326,-33.848746368212,8.9494949494949,1301235.6446427,-6964.2286985073,2804954.8861634,14.149494949495,0,0
-183.65185085745,-33.877569272803,8.9539253925393,1301235.6446427,-6964.2286985073,2804954.8861634,14.153925392539,0,0
-183.65185076163,-33.906392177395,8.9583558355836,1301235.6446427,-6964.2286985073,2804954.8861634,14.158355835584,0,0
-183.65185066581,-33.935215081987,8.9627862786279,1301235.6446427,-6964.2286985073,2804954.8861634,14.162786278628,0,0
-183.65185056999,-33.964037986578,8.9672167216722,1301235.6446427,-6964.2286985073,2804954.8861634,14.167216721672,0,0
-183.65185047418,-33.99286089117,8.9716471647165,1301235.6446427,-6964.2286985073,2804954.8861634,14.171647164716,0,0
-183.65185037836,-34.021683795762,8.9760776077608,1301235.6446427,-6964.2286985073,2804954.8861634,14.176077607761,0,0
-183.65185028254,-34.050506700353,8.9805080508051,1301235.6446427,-6964.2286985073,2804954.8861634,14.180508050805,0,0
-183.65185018672,-34.079329604945,8.9849384938494,1301235.6446427,-6964.2286985073,2804954.8861634,14.184938493849,0,0
-183.6518500909,-34.108152509537,8.9893689368937,1301235.6446427,-6964.2286985073,2804954.8861634,14.189368936894,0,0
-183.65184999509,-34.136975414128,8.993799379938,1301235.6446427,-6964.2286985073,2804954.8861634,14.193799379938,0,0
-183.65184989927,-34.16579831872,8.9982298229823,1301235.6446427,-6964.2286985073,2804954.8861634,14.198229822982,0,0
-183.65184980345,-34.194621223311,9.0026602660266,1301235.6446427,-6964.2286985073,2804954.8861634,14.202660266027,0,0
-183.65184970763,-34.223444127903,9.0070907090709,1301235.6446427,-6964.2286985073,2804954.8861634,14.207090709071,0,0
-183.65184961182,-34.252267032495,9.0115211521152,1301235.6446427,-6964.2286985073,2804954.8861634,14.211521152115,0,0
-183.651849516,-34.281089937086,9.0159515951595,1301235.6446427,-6964.2286985073,2804954.8861634,14.21595159516,0,0
-183.65184942018,-34.309912841678,9.0203820382038,1301235.6446427,-6964.2286985073,2804954.8861634,14.220382038204,0,0
-183.65184932436,-34.33873574627,9.0248124812481,1301235.6446427,-6964.2286985073,2804954.8861634,14.224812481248,0,0
-183.65184922855,-34.367558650861,9.0292429242924,1301235.6446427,-6964.2286985073,2804954.8861634,14.229242924292,0,0
-183.65184913273,-34.396381555453,9.0336733673367,1301235.6446427,-6964.2286985073,2804954.8861634,14.233673367337,0,0
-183.65184903691,-34.425204460045,9.038103810381,1301235.6446427,-6964.2286985073,2804954.8861634,14.238103810381,0,0
-183.65184894109,-34.454027364636,9.0425342534253,1301235.6446427,-6964.2286985073,2804954.8861634,14.242534253425,0,0
-183.65184884527,-34.482850269228,9.0469646964696,1301235.6446427,-6964.2286985073,2804954.8861634,14.24696469647,0,0
-183.65184874946,-34.51167317382,9.051395139514,1301235.6446427,-6964.2286985073,2804954.8861634,14.251395139514,0,0
-183.65184865364,-34.540496078411,9.0558255825583,1301235.6446427,-6964.2286985073,2804954.8861634,14.255825582558,0,0
-183.65184855782,-34.569318983003,9.0602560256026,1301235.6446427,-6964.2286985073,2804954.8861634,14.260256025603,0,0
-183.651848462,-34.598141887594,9.0646864686469,1301235.6446427,-6964.2286985073,2804954.8861634,14.264686468647,0,0
-183.65184836619,-34.626964792186,9.0691169116912,1301235.6446427,-6964.2286985073,2804954.8861634,14.269116911691,0,0
-183.65184827037,-34.655787696778,9.0735473547355,1301235.6446427,-6964.2286985073,2804954.8861634,14.273547354735,0,0
-183.65184817455,-34.684610601369,9.0779777977798,1301235.6446427,-6964.2286985073,2804954.8861634,14.27797779778,0,0
-183.65184807873,-34.713433505961,9.0824082408241,1301235.6446427,-6964.2286985073,2804954.8861634,14.282408240824,0,0
-183.65184798292,-34.742256410553,9.0868386838684,1301235.6446427,-6964.2286985073,2804954.8861634,14.286838683868,0,0
-183.6518478871,-34.771079315144,9.0912691269127,1301235.6446427,-6964.2286985073,2804954.8861634,14.291269126913,0,0
-183.65184779128,-34.799902219736,9.095699569957,1301235.6446427,-6964.2286985073,2804954.8861634,14.295699569957,0,0
-183.65184769546,-34.828725124328,9.1001300130013,1301235.6446427,-6964.2286985073,2804954.8861634,14.300130013001,0,0
-183.65184759964,-34.857548028919,9.1045604560456,1301235.6446427,-6964.2286985073,2804954.8861634,14.304560456046,0,0
-183.65184750383,-34.886370933511,9.1089908990899,1301235.6446427,-6964.2286985073,2804954.8861634,14.30899089909,0,0
-183.65184740801,-34.915193838103,9.1134213421342,1301235.6446427,-6964.2286985073,2804954.8861634,14.313421342134,0,0
-183.65184731219,-34.944016742694,9.1178517851785,1301235.6446427,-6964.2286985073,2804954.8861634,14.317851785179,0,0
-183.65184721637,-34.972839647286,9.1222822282228,1301235.6446427,-6964.2286985073,2804954.8861634,14.322282228223,0,0
-183.65184712056,-35.001662551877,9.1267126712671,1301235.6446427,-6964.2286985073,2804954.8861634,14.326712671267,0,0
-183.65184702474,-35.030485456469,9.1311431143114,1301235.6446427,-6964.2286985073,2804954.8861634,14.331143114311,0,0
-183.65184692892,-35.059308361061,9.1355735573557,1301235.6446427,-6964.2286985073,2804954.8861634,14.335573557356,0,0
-183.6518468331,-35.088131265652,9.1400040004,1301235.6446427,-6964.2286985073,2804954.8861634,14.3400040004,0,0
-183.65184673729,-35.116954170244,9.1444344434443,1301235.6446427,-6964.2286985073,2804954.8861634,14.344434443444,0,0
-183.65184664147,-35.145777074836,9.1488648864886,1301235.6446427,-6964.2286985073,2804954.8861634,14.348864886489,0,0
-183.65184654565,-35.174599979427,9.153295329533,1301235.6446427,-6964.2286985073,2804954.8861634,14.353295329533,0,0
-183.65184644983,-35.203422884019,9.1577257725773,1301235.6446427,-6964.2286985073,2804954.8861634,14.357725772577,0,0
-183.65184635401,-35.232245788611,9.1621562156216,1301235.6446427,-6964.2286985073,2804954.8861634,14.362156215622,0,0
-183.6518462582,-35.261068693202,9.1665866586659,1301235.6446427,-6964.2286985073,2804954.8861634,14.366586658666,0,0
-183.65184616238,-35.289891597794,9.1710171017102,1301235.6446427,-6964.2286985073,2804954.8861634,14.37101710171,0,0
-183.65184606656,-35.318714502386,9.1754475447545,1301235.6446427,-6964.2286985073,2804954.8861634,14.375447544754,0,0
-183.65184597074,-35.347537406977,9.1798779877988,1301235.6446427,-6964.2286985073,2804954.8861634,14.379877987799,0,0
-183.65184587493,-35.376360311569,9.1843084308431,1301235.6446427,-6964.2286985073,2804954.8861634,14.384308430843,0,0
-183.65184577911,-35.405183216161,9.1887388738874,1301235.6446427,-6964.2286985073,2804954.8861634,14.388738873887,0,0
-183.65184568329,-35.434006120752,9.1931693169317,1301235.6446427,-6964.2286985073,2804954.8861634,14.393169316932,0,0
-183.65184558747,-35.462829025344,9.197599759976,1301235.6446427,-6964.2286985073,2804954.8861634,14.397599759976,0,0
-183.65184549165,-35.491651929935,9.2020302030203,1301235.6446427,-6964.2286985073,2804954.8861634,14.40203020302,0,0
-183.65184539584,-35.520474834527,9.2064606460646,1301235.6446427,-6964.2286985073,2804954.8861634,14.406460646065,0,0
-183.65184530002,-35.549297739119,9.2108910891089,1301235.6446427,-6964.2286985073,2804954.8861634,14.410891089109,0,0
-183.6518452042,-35.57812064371,9.2153215321532,1301235.6446427,-6964.2286985073,2804954.8861634,14.415321532153,0,0
-183.65184510838,-35.606943548302,9.2197519751975,1301235.6446427,-6964.2286985073,2804954.8861634,14.419751975198,0,0
-183.65184501257,-35.635766452894,9.2241824182418,1301235.6446427,-6964.2286985073,2804954.8861634,14.424182418242,0,0
-183.65184491675,-35.664589357485,9.2286128612861,1301235.6446427,-6964.2286985073,2804954.8861634,14.428612861286,0,0
-183.65184482093,-35.693412262077,9.2330433043304,1301235.6446427,-6964.2286985073,2804954.8861634,14.43304330433,0,0
-183.65184472511,-35.722235166669,9.2374737473747,1301235.6446427,-6964.2286985073,2804954.8861634,14.437473747375,0,0
-183.6518446293,-35.75105807126,9.241904190419,1301235.6446427,-6964.2286985073,2804954.8861634,14.441904190419,0,0
-183.65184453348,-35.779880975852,9.2463346334633,1301235.6446427,-6964.2286985073,2804954.8861634,14.446334633463,0,0
-183.65184443766,-35.808703880444,9.2507650765077,1301235.6446427,-6964.2286985073,2804954.8861634,14.450765076508,0,0
-183.65184434184,-35.837526785035,9.255195519552,1301235.6446427,-6964.2286985073,2804954.8861634,14.455195519552,0,0
-183.65184424602,-35.866349689627,9.2596259625963,1301235.6446427,-6964.2286985073,2804954.8861634,14.459625962596,0,0
-183.65184415013,-35.895172592596,9.2640564056406,1297307.0366047,3521.3208934692,2789044.0229999,14.464056405641,0,0
-183.6518440542,-35.923995494898,9.2684868486849,1297307.0366047,3521.3208934692,2789044.0229999,14.468486848685,0,0
-183.65184395827,-35.9528183972,9.2729172917292,1297307.0366047,3521.3208934692,2789044.0229999,14.472917291729,0,0
-183.65184386235,-35.981641299502,9.2773477347735,1297307.0366047,3521.3208934692,2789044.0229999,14.477347734773,0,0
-183.65184376642,-36.010464201805,9.2817781778178,1297307.0366047,3521.3208934692,2789044.0229999,14.481778177818,0,0
-183.65184367049,-36.039287104107,9.2862086208621,1297307.0366047,3521.3208934692,2789044.0229999,14.486208620862,0,0
-183.65184357456,-36.068110006409,9.2906390639064,1297307.0366047,3521.3208934692,2789044.0229999,14.490639063906,0,0
-183.65184347864,-36.096932908711,9.2950695069507,1297307.0366047,3521.3208934692,2789044.0229999,14.495069506951,0,0
-183.65184338271,-36.125755811014,9.299499949995,1297307.0366047,3521.3208934692,2789044.0229999,14.499499949995,0,0
-183.65184328678,-36.154578713316,9.3039303930393,1297307.0366047,3521.3208934692,2789044.0229999,14.503930393039,0,0
-183.65184319085,-36.183401615618,9.3083608360836,1297307.0366047,3521.3208934692,2789044.0229999,14.508360836084,0,0
-183.65184309493,-36.21222451792,9.3127912791279,1297307.0366047,3521.3208934692,2789044.0229999,14.512791279128,0,0
-183.651842999,-36.241047420223,9.3172217221722,1297307.0366047,3521.3208934692,2789044.0229999,14.517221722172,0,0
-183.65184290307,-36.269870322525,9.3216521652165,1297307.0366047,3521.3208934692,2789044.0229999,14.521652165217,0,0
-183.65184280685,-36.298693225911,9.3260826082608,1298025.9529445,-5658.1208650642,2766221.4232737,14.526082608261,0,0
-183.65184271026,-36.327516130668,9.3305130513051,1298025.9529445,-5658.1208650642,2766221.4232737,14.530513051305,0,0
-183.65184261366,-36.356339035425,9.3349434943494,1298025.9529445,-5658.1208650642,2766221.4232737,14.534943494349,0,0
-183.65184251707,-36.385161940181,9.3393739373937,1298025.9529445,-5658.1208650642,2766221.4232737,14.539373937394,0,0
-183.65184242048,-36.413984844938,9.343804380438,1298025.9529445,-5658.1208650642,2766221.4232737,14.543804380438,0,0
-183.65184232389,-36.442807749695,9.3482348234823,1298025.9529445,-5658.1208650642,2766221.4232737,14.548234823482,0,0
-183.65184222729,-36.471630654451,9.3526652665267,1298025.9529445,-5658.1208650642,2766221.4232737,14.552665266527,0,0
-183.6518421307,-36.500453559208,9.357095709571,1298025.9529445,-5658.1208650642,2766221.4232737,14.557095709571,0,0
-183.65184203411,-36.529276463965,9.3615261526153,1298025.9529445,-5658.1208650642,2766221.4232737,14.561526152615,0,0
-183.65184193752,-36.558099368721,9.3659565956596,1298025.9529445,-5658.1208650642,2766221.4232737,14.56595659566,0,0
-183.65184184092,-36.586922273478,9.3703870387039,1298025.9529445,-5658.1208650642,2766221.4232737,14.570387038704,0,0
-183.65184174433,-36.615745178235,9.3748174817482,1298025.9529445,-5658.1208650642,2766221.4232737,14.574817481748,0,0
-183.65184164774,-36.644568082991,9.3792479247925,1298025.9529445,-5658.1208650642,2766221.4232737,14.579247924792,0,0
-183.65184155115,-36.673390987748,9.3836783678368,1298025.9529445,-5658.1208650642,2766221.4232737,14.583678367837,0,0
-183.65184145455,-36.702213892505,9.3881088108811,1298025.9529445,-5658.1208650642,2766221.4232737,14.588108810881,0,0
-183.65184135796,-36.731036797261,9.3925392539254,1298025.9529445,-5658.1208650642,2766221.4232737,14.592539253925,0,0
-183.65184126137,-36.759859702018,9.3969696969697,1298025.9529445,-5658.1208650642,2766221.4232737,14.59696969697,0,0
-183.65184116478,-36.788682606774,9.401400140014,1298025.9529445,-5658.1208650642,2766221.4232737,14.601400140014,0,0
-183.65184106818,-36.817505511531,9.4058305830583,1298025.9529445,-5658.1208650642,2766221.4232737,14.605830583058,0,0
-183.65184097159,-36.846328416288,9.4102610261026,1298025.9529445,-5658.1208650642,2766221.4232737,14.610261026103,0,0
-183.651840875,-36.875151321044,9.4146914691469,1298025.9529445,-5658.1208650642,2766221.4232737,14.614691469147,0,0
-183.65184077841,-36.903974225801,9.4191219121912,1298025.9529445,-5658.1208650642,2766221.4232737,14.619121912191,0,0
-183.65184068181,-36.932797130558,9.4235523552355,1298025.9529445,-5658.1208650642,2766221.4232737,14.623552355236,0,0
-183.65184058522,-36.961620035314,9.4279827982798,1298025.9529445,-5658.1208650642,2766221.4232737,14.62798279828,0,0
-183.65184048863,-36.990442940071,9.4324132413241,1298025.9529445,-5658.1208650642,2766221.4232737,14.632413241324,0,0
-183.65184039203,-37.019265844828,9.4368436843684,1298025.9529445,-5658.1208650642,2766221.4232737,14.636843684368,0,0
-183.65184029544,-37.048088749584,9.4412741274127,1298025.9529445,-5658.1208650642,2766221.4232737,14.641274127413,0,0
-183.65184019885,-37.076911654341,9.445704570457,1298025.9529445,-5658.1208650642,2766221.4232737,14.645704570457,0,0
-183.65184010226,-37.105734559098,9.4501350135013,1298025.9529445,-5658.1208650642,2766221.4232737,14.650135013501,0,0
-183.65184000566,-37.134557463854,9.4545654565457,1298025.9529445,-5658.1208650642,2766221.4232737,14.654565456546,0,0
-183.65183990907,-37.163380368611,9.45899589959,1298025.9529445,-5658.1208650642,2766221.4232737,14.65899589959,0,0
-183.65183981248,-37.192203273368,9.4634263426343,1298025.9529445,-5658.1208650642,2766221.4232737,14.663426342634,0,0
-183.65183971589,-37.221026178124,9.4678567856786,1298025.9529445,-5658.1208650642,2766221.4232737,14.667856785679,0,0
-183.65183961929,-37.249849082881,9.4722872287229,1298025.9529445,-5658.1208650642,2766221.4232737,14.672287228723,0,0
-183.6518395227,-37.278671987638,9.4767176717672,1298025.9529445,-5658.1208650642,2766221.4232737,14.676717671767,0,0
-183.65183942611,-37.307494892394,9.4811481148115,1298025.9529445,-5658.1208650642,2766221.4232737,14.681148114811,0,0
-183.65183932952,-37.336317797151,9.4855785578558,1298025.9529445,-5658.1208650642,2766221.4232737,14.685578557856,0,0
-183.65183923292,-37.365140701908,9.4900090009001,1298025.9529445,-5658.1208650642,2766221.4232737,14.6900090009,0,0
-183.65183913633,-37.393963606664,9.4944394439444,1298025.9529445,-5658.1208650642,2766221.4232737,14.694439443944,0,0
-183.65183903974,-37.422786511421,9.4988698869887,1298025.9529445,-5658.1208650642,2766221.4232737,14.698869886989,0,0
-183.65183894315,-37.451609416178,9.503300330033,1298025.9529445,-5658.1208650642,2766221.4232737,14.703300330033,0,0
-183.65183884655,-37.480432320934,9.5077307730773,1298025.9529445,-5658.1208650642,2766221.4232737,14.707730773077,0,0
-183.65183874996,-37.509255225691,9.5121612161216,1298025.9529445,-5658.1208650642,2766221.4232737,14.712161216122,0,0
-183.65183865337,-37.538078130448,9.5165916591659,1298025.9529445,-5658.1208650642,2766221.4232737,14.716591659166,0,0
-183.65183855677,-37.566901035204,9.5210221022102,1298025.9529445,-5658.1208650642,2766221.4232737,14.72102210221,0,0
-183.65183846018,-37.595723939961,9.5254525452545,1298025.9529445,-5658.1208650642,2766221.4232737,14.725452545255,0,0
-183.65183836359,-37.624546844717,9.5298829882988,1298025.9529445,-5658.1208650642,2766221.4232737,14.729882988299,0,0
-183.651838267,-37.653369749474,9.5343134313431,1298025.9529445,-5658.1208650642,2766221.4232737,14.734313431343,0,0
-183.6518381704,-37.682192654231,9.5387438743874,1298025.9529445,-5658.1208650642,2766221.4232737,14.738743874387,0,0
-183.65183807381,-37.711015558987,9.5431743174317,1298025.9529445,-5658.1208650642,2766221.4232737,14.743174317432,0,0
-183.65183797722,-37.739838463744,9.547604760476,1298025.9529445,-5658.1208650642,2766221.4232737,14.747604760476,0,0
-183.65183788063,-37.768661368501,9.5520352035204,1298025.9529445,-5658.1208650642,2766221.4232737,14.75203520352,0,0
-183.65183778403,-37.797484273257,9.5564656465647,1298025.9529445,-5658.1208650642,2766221.4232737,14.756465646565,0,0
-183.65183768744,-37.826307178014,9.560896089609,1298025.9529445,-5658.1208650642,2766221.4232737,14.760896089609,0,0
-183.65183759085,-37.855130082771,9.5653265326533,1298025.9529445,-5658.1208650642,2766221.4232737,14.765326532653,0,0
-183.65183749426,-37.883952987527,9.5697569756976,1298025.9529445,-5658.1208650642,2766221.4232737,14.769756975698,0,0
-183.65183739766,-37.912775892284,9.5741874187419,1298025.9529445,-5658.1208650642,2766221.4232737,14.774187418742,0,0
-183.65183730107,-37.941598797041,9.5786178617862,1298025.9529445,-5658.1208650642,2766221.4232737,14.778617861786,0,0
-183.65183720448,-37.970421701797,9.5830483048305,1298025.9529445,-5658.1208650642,2766221.4232737,14.78304830483,0,0
-183.65183710789,-37.999244606554,9.5874787478748,1298025.9529445,-5658.1208650642,2766221.4232737,14.787478747875,0,0
-183.65183701129,-38.028067511311,9.5919091909191,1298025.9529445,-5658.1208650642,2766221.4232737,14.791909190919,0,0
-183.6518369147,-38.056890416067,9.5963396339634,1298025.9529445,-5658.1208650642,2766221.4232737,14.796339633963,0,0
-183.65183681811,-38.085713320824,9.6007700770077,1298025.9529445,-5658.1208650642,2766221.4232737,14.800770077008,0,0
-183.65183672152,-38.114536225581,9.605200520052,1298025.9529445,-5658.1208650642,2766221.4232737,14.805200520052,0,0
-183.65183662492,-38.143359130337,9.6096309630963,1298025.9529445,-5658.1208650642,2766221.4232737,14.809630963096,0,0
-183.65183652833,-38.172182035094,9.6140614061406,1298025.9529445,-5658.1208650642,2766221.4232737,14.814061406141,0,0
-183.65183643174,-38.201004939851,9.6184918491849,1298025.9529445,-5658.1208650642,2766221.4232737,14.818491849185,0,0
-183.65183633514,-38.229827844607,9.6229222922292,1298025.9529445,-5658.1208650642,2766221.4232737,14.822922292229,0,0
-183.65183623855,-38.258650749364,9.6273527352735,1298025.9529445,-5658.1208650642,2766221.4232737,14.827352735274,0,0
-183.65183614196,-38.287473654121,9.6317831783178,1298025.9529445,-5658.1208650642,2766221.4232737,14.831783178318,0,0
-183.65183604537,-38.316296558877,9.6362136213621,1298025.9529445,-5658.1208650642,2766221.4232737,14.836213621362,0,0
-183.65183594877,-38.345119463634,9.6406440644064,1298025.9529445,-5658.1208650642,2766221.4232737,14.840644064406,0,0
-183.65183585218,-38.373942368391,9.6450745074507,1298025.9529445,-5658.1208650642,2766221.4232737,14.845074507451,0,0
-183.65183575559,-38.402765273147,9.6495049504951,1298025.9529445,-5658.1208650642,2766221.4232737,14.849504950495,0,0
-183.651835659,-38.431588177904,9.6539353935394,1298025.9529445,-5658.1208650642,2766221.4232737,14.853935393539,0,0
-183.6518355624,-38.460411082661,9.6583658365837,1298025.9529445,-5658.1208650642,2766221.4232737,14.858365836584,0,0
-183.65183546581,-38.489233987417,9.662796279628,1298025.9529445,-5658.1208650642,2766221.4232737,14.862796279628,0,0
-183.65183536922,-38.518056892174,9.6672267226723,1298025.9529445,-5658.1208650642,2766221.4232737,14.867226722672,0,0
-183.65183527263,-38.54687979693,9.6716571657166,1298025.9529445,-5658.1208650642,2766221.4232737,14.871657165717,0,0
-183.65183517603,-38.575702701687,9.6760876087609,1298025.9529445,-5658.1208650642,2766221.4232737,14.876087608761,0,0
-183.65183507944,-38.604525606444,9.6805180518052,1298025.9529445,-5658.1208650642,2766221.4232737,14.880518051805,0,0
-183.65183498285,-38.6333485112,9.6849484948495,1298025.9529445,-5658.1208650642,2766221.4232737,14.884948494849,0,0
-183.65183488626,-38.662171415957,9.6893789378938,1298025.9529445,-5658.1208650642,2766221.4232737,14.889378937894,0,0
-183.65183478966,-38.690994320714,9.6938093809381,1298025.9529445,-5658.1208650642,2766221.4232737,14.893809380938,0,0
-183.65183469307,-38.71981722547,9.6982398239824,1298025.9529445,-5658.1208650642,2766221.4232737,14.898239823982,0,0
-183.65183459648,-38.748640130227,9.7026702670267,1298025.9529445,-5658.1208650642,2766221.4232737,14.902670267027,0,0
-183.65183449988,-38.777463034984,9.707100710071,1298025.9529445,-5658.1208650642,2766221.4232737,14.907100710071,0,0
-183.65183440329,-38.80628593974,9.7115311531153,1298025.9529445,-5658.1208650642,2766221.4232737,14.911531153115,0,0
-183.6518343067,-38.835108844497,9.7159615961596,1298025.9529445,-5658.1208650642,2766221.4232737,14.91596159616,0,0
-183.65183421011,-38.863931749254,9.7203920392039,1298025.9529445,-5658.1208650642,2766221.4232737,14.920392039204,0,0
-183.65183411351,-38.89275465401,9.7248224822482,1298025.9529445,-5658.1208650642,2766221.4232737,14.924822482248,0,0
-183.65183401692,-38.921577558767,9.7292529252925,1298025.9529445,-5658.1208650642,2766221.4232737,14.929252925293,0,0
-183.65183392033,-38.950400463524,9.7336833683368,1298025.9529445,-5658.1208650642,2766221.4232737,14.933683368337,0,0
-183.65183382374,-38.97922336828,9.7381138113811,1298025.9529445,-5658.1208650642,2766221.4232737,14.938113811381,0,0
-183.65183372714,-39.008046273037,9.7425442544254,1298025.9529445,-5658.1208650642,2766221.4232737,14.942544254425,0,0
-183.65183363055,-39.036869177794,9.7469746974697,1298025.9529445,-5658.1208650642,2766221.4232737,14.94697469747,0,0
-183.65183353396,-39.06569208255,9.7514051405141,1298025.9529445,-5658.1208650642,2766221.4232737,14.951405140514,0,0
-183.65183343737,-39.094514987307,9.7558355835584,1298025.9529445,-5658.1208650642,2766221.4232737,14.955835583558,0,0
-183.65183334077,-39.123337892064,9.7602660266027,1298025.9529445,-5658.1208650642,2766221.4232737,14.960266026603,0,0
-183.65183324418,-39.15216079682,9.764696469647,1298025.9529445,-5658.1208650642,2766221.4232737,14.964696469647,0,0
-183.65183314759,-39.180983701577,9.7691269126913,1298025.9529445,-5658.1208650642,2766221.4232737,14.969126912691,0,0
-183.651833051,-39.209806606334,9.7735573557356,1298025.9529445,-5658.1208650642,2766221.4232737,14.973557355736,0,0
-183.6518329544,-39.23862951109,9.7779877987799,1298025.9529445,-5658.1208650642,2766221.4232737,14.97798779878,0,0
-183.65183285781,-39.267452415847,9.7824182418242,1298025.9529445,-5658.1208650642,2766221.4232737,14.982418241824,0,0
-183.65183276122,-39.296275320604,9.7868486848685,1298025.9529445,-5658.1208650642,2766221.4232737,14.986848684868,0,0
-183.65183266463,-39.32509822536,9.7912791279128,1298025.9529445,-5658.1208650642,2766221.4232737,14.991279127913,0,0
-183.65183256803,-39.353921130117,9.7957095709571,1298025.9529445,-5658.1208650642,2766221.4232737,14.995709570957,0,0
-183.65183247144,-39.382744034873,9.8001400140014,1298025.9529445,-5658.1208650642,2766221.4232737,15.000140014001,0,0
-183.65183237485,-39.41156693963,9.8045704570457,1298025.9529445,-5658.1208650642,2766221.4232737,15.004570457046,0,0
-183.65183227825,-39.440389844387,9.80900090009,1298025.9529445,-5658.1208650642,2766221.4232737,15.00900090009,0,0
-183.65183218166,-39.469212749143,9.8134313431343,1298025.9529445,-5658.1208650642,2766221.4232737,15.013431343134,0,0
-183.65183208507,-39.4980356539,9.8178617861786,1298025.9529445,-5658.1208650642,2766221.4232737,15.017861786179,0,0
-183.65183198848,-39.526858558657,9.8222922292229,1298025.9529445,-5658.1208650642,2766221.4232737,15.022292229223,0,0
-183.65183189188,-39.555681463413,9.8267226722672,1298025.9529445,-5658.1208650642,2766221.4232737,15.026722672267,0,0
-183.65183179529,-39.58450436817,9.8311531153115,1298025.9529445,-5658.1208650642,2766221.4232737,15.031153115312,0,0
-183.6518316987,-39.613327272927,9.8355835583558,1298025.9529445,-5658.1208650642,2766221.4232737,15.035583558356,0,0
-183.65183160211,-39.642150177683,9.8400140014001,1298025.9529445,-5658.1208650642,2766221.4232737,15.0400140014,0,0
-183.65183150551,-39.67097308244,9.8444444444444,1298025.9529445,-5658.1208650642,2766221.4232737,15.044444444444,0,0
-183.65183140892,-39.699795987197,9.8488748874887,1298025.9529445,-5658.1208650642,2766221.4232737,15.048874887489,0,0
-183.65183131233,-39.728618891953,9.8533053305331,1298025.9529445,-5658.1208650642,2766221.4232737,15.053305330533,0,0
-183.65183121574,-39.75744179671,9.8577357735774,1298025.9529445,-5658.1208650642,2766221.4232737,15.057735773577,0,0
-183.65183111914,-39.786264701467,9.8621662166217,1298025.9529445,-5658.1208650642,2766221.4232737,15.062166216622,0,0
-183.65183102255,-39.815087606223,9.866596659666,1298025.9529445,-5658.1208650642,2766221.4232737,15.066596659666,0,0
-183.65183092596,-39.84391051098,9.8710271027103,1298025.9529445,-5658.1208650642,2766221.4232737,15.07102710271,0,0
-183.65183082937,-39.872733415737,9.8754575457546,1298025.9529445,-5658.1208650642,2766221.4232737,15.075457545755,0,0
-183.65183073277,-39.901556320493,9.8798879887989,1298025.9529445,-5658.1208650642,2766221.4232737,15.079887988799,0,0
-183.65183063618,-39.93037922525,9.8843184318432,1298025.9529445,-5658.1208650642,2766221.4232737,15.084318431843,0,0
-183.65183053959,-39.959202130007,9.8887488748875,1298025.9529445,-5658.1208650642,2766221.4232737,15.088748874887,0,0
-183.651830443,-39.988025034763,9.8931793179318,1298025.9529445,-5658.1208650642,2766221.4232737,15.093179317932,0,0
-183.6518303464,-40.01684793952,9.8976097609761,1298025.9529445,-5658.1208650642,2766221.4232737,15.097609760976,0,0
-183.65183024981,-40.045670844277,9.9020402040204,1298025.9529445,-5658.1208650642,2766221.4232737,15.10204020402,0,0
-183.65183015322,-40.074493749033,9.9064706470647,1298025.9529445,-5658.1208650642,2766221.4232737,15.106470647065,0,0
-183.65183005662,-40.10331665379,9.910901090109,1298025.9529445,-5658.1208650642,2766221.4232737,15.110901090109,0,0
-183.65182996003,-40.132139558547,9.9153315331533,1298025.9529445,-5658.1208650642,2766221.4232737,15.115331533153,0,0
-183.65182986344,-40.160962463303,9.9197619761976,1298025.9529445,-5658.1208650642,2766221.4232737,15.119761976198,0,0
-183.65182976685,-40.18978536806,9.9241924192419,1298025.9529445,-5658.1208650642,2766221.4232737,15.124192419242,0,0
-183.65182967025,-40.218608272817,9.9286228622862,1298025.9529445,-5658.1208650642,2766221.4232737,15.128622862286,0,0
-183.65182957366,-40.247431177573,9.9330533053305,1298025.9529445,-5658.1208650642,2766221.4232737,15.133053305331,0,0
-183.65182947707,-40.27625408233,9.9374837483748,1298025.9529445,-5658.1208650642,2766221.4232737,15.137483748375,0,0
-183.65182938048,-40.305076987086,9.9419141914191,1298025.9529445,-5658.1208650642,2766221.4232737,15.141914191419,0,0
-183.65182928388,-40.333899891843,9.9463446344634,1298025.9529445,-5658.1208650642,2766221.4232737,15.146344634463,0,0
-183.65182918729,-40.3627227966,9.9507750775077,1298025.9529445,-5658.1208650642,2766221.4232737,15.150775077508,0,0
-183.6518290907,-40.391545701356,9.9552055205521,1298025.9529445,-5658.1208650642,2766221.4232737,15.155205520552,0,0
-183.65182899411,-40.420368606113,9.9596359635964,1298025.9529445,-5658.1208650642,2766221.4232737,15.159635963596,0,0
-183.65182889751,-40.44919151087,9.9640664066407,1298025.9529445,-5658.1208650642,2766221.4232737,15.164066406641,0,0
-183.65182880092,-40.478014415626,9.968496849685,1298025.9529445,-5658.1208650642,2766221.4232737,15.168496849685,0,0
-183.65182870433,-40.506837320383,9.9729272927293,1298025.9529445,-5658.1208650642,2766221.4232737,15.172927292729,0,0
-183.65182860774,-40.53566022514,9.9773577357736,1298025.9529445,-5658.1208650642,2766221.4232737,15.177357735774,0,0
-183.65182851114,-40.564483129896,9.9817881788179,1298025.9529445,-5658.1208650642,2766221.4232737,15.181788178818,0,0
-183.65182841455,-40.593306034653,9.9862186218622,1298025.9529445,-5658.1208650642,2766221.4232737,15.186218621862,0,0
-183.65182831796,-40.62212893941,9.9906490649065,1298025.9529445,-5658.1208650642,2766221.4232737,15.190649064906,0,0
-183.65182822136,-40.650951844166,9.9950795079508,1298025.9529445,-5658.1208650642,2766221.4232737,15.195079507951,0,0
-183.65182812477,-40.679774748923,9.9995099509951,1298025.9529445,-5658.1208650642,2766221.4232737,15.199509950995,0,0
-183.65182802818,-40.70859765368,10.003940394039,1298025.9529445,-5658.1208650642,2766221.4232737,15.203940394039,0,0
-183.65182793159,-40.737420558436,10.008370837084,1298025.9529445,-5658.1208650642,2766221.4232737,15.208370837084,0,0
-183.65182783499,-40.766243463193,10.012801280128,1298025.9529445,-5658.1208650642,2766221.4232737,15.212801280128,0,0
-183.6518277384,-40.79506636795,10.017231723172,1298025.9529445,-5658.1208650642,2766221.4232737,15.217231723172,0,0
-183.65182764181,-40.823889272706,10.021662166217,1298025.9529445,-5658.1208650642,2766221.4232737,15.221662166217,0,0
-183.65182754522,-40.852712177463,10.026092609261,1298025.9529445,-5658.1208650642,2766221.4232737,15.226092609261,0,0
-183.65182744862,-40.88153508222,10.030523052305,1298025.9529445,-5658.1208650642,2766221.4232737,15.230523052305,0,0
-183.65182735203,-40.910357986976,10.03495349535,1298025.9529445,-5658.1208650642,2766221.4232737,15.23495349535,0,0
-183.65182725544,-40.939180891733,10.039383938394,1298025.9529445,-5658.1208650642,2766221.4232737,15.239383938394,0,0
-183.65182715885,-40.96800379649,10.043814381438,1298025.9529445,-5658.1208650642,2766221.4232737,15.243814381438,0,0
-183.65182706225,-40.996826701246,10.048244824482,1298025.9529445,-5658.1208650642,2766221.4232737,15.248244824482,0,0
-183.65182696566,-41.025649606003,10.052675267527,1298025.9529445,-5658.1208650642,2766221.4232737,15.252675267527,0,0
-183.65182686907,-41.05447251076,10.057105710571,1298025.9529445,-5658.1208650642,2766221.4232737,15.257105710571,0,0
-183.65182677248,-41.083295415516,10.061536153615,1298025.9529445,-5658.1208650642,2766221.4232737,15.261536153615,0,0
-183.65182667588,-41.112118320273,10.06596659666,1298025.9529445,-5658.1208650642,2766221.4232737,15.26596659666,0,0
-183.65182657929,-41.140941225029,10.070397039704,1298025.9529445,-5658.1208650642,2766221.4232737,15.270397039704,0,0
-183.6518264827,-41.169764129786,10.074827482748,1298025.9529445,-5658.1208650642,2766221.4232737,15.274827482748,0,0
-183.65182638611,-41.198587034543,10.079257925793,1298025.9529445,-5658.1208650642,2766221.4232737,15.279257925793,0,0
-183.65182628951,-41.227409939299,10.083688368837,1298025.9529445,-5658.1208650642,2766221.4232737,15.283688368837,0,0
-183.65182619292,-41.256232844056,10.088118811881,1298025.9529445,-5658.1208650642,2766221.4232737,15.288118811881,0,0
-183.65182609633,-41.285055748813,10.092549254925,1298025.9529445,-5658.1208650642,2766221.4232737,15.292549254925,0,0
-183.65182599973,-41.313878653569,10.09697969797,1298025.9529445,-5658.1208650642,2766221.4232737,15.29697969797,0,0
-183.65182590314,-41.342701558326,10.101410141014,1298025.9529445,-5658.1208650642,2766221.4232737,15.301410141014,0,0
-183.65182580655,-41.371524463083,10.105840584058,1298025.9529445,-5658.1208650642,2766221.4232737,15.305840584058,0,0
-183.65182570996,-41.400347367839,10.110271027103,1298025.9529445,-5658.1208650642,2766221.4232737,15.310271027103,0,0
-183.65182561336,-41.429170272596,10.114701470147,1298025.9529445,-5658.1208650642,2766221.4232737,15.314701470147,0,0
-183.65182551677,-41.457993177353,10.119131913191,1298025.9529445,-5658.1208650642,2766221.4232737,15.319131913191,0,0
-183.65182542018,-41.486816082109,10.123562356236,1298025.9529445,-5658.1208650642,2766221.4232737,15.323562356236,0,0
-183.65182532359,-41.515638986866,10.12799279928,1298025.9529445,-5658.1208650642,2766221.4232737,15.32799279928,0,0
-183.65182522699,-41.544461891623,10.132423242324,1298025.9529445,-5658.1208650642,2766221.4232737,15.332423242324,0,0
-183.6518251304,-41.573284796379,10.136853685369,1298025.9529445,-5658.1208650642,2766221.4232737,15.336853685369,0,0
-183.65182503381,-41.602107701136,10.141284128413,1298025.9529445,-5658.1208650642,2766221.4232737,15.341284128413,0,0
-183.65182493722,-41.630930605893,10.145714571457,1298025.9529445,-5658.1208650642,2766221.4232737,15.345714571457,0,0
-183.65182484062,-41.659753510649,10.150145014501,1298025.9529445,-5658.1208650642,2766221.4232737,15.350145014501,0,0
-183.65182474403,-41.688576415406,10.154575457546,1298025.9529445,-5658.1208650642,2766221.4232737,15.354575457546,0,0
-183.65182464744,-41.717399320163,10.15900590059,1298025.9529445,-5658.1208650642,2766221.4232737,15.35900590059,0,0
-183.65182455085,-41.746222224919,10.163436343634,1298025.9529445,-5658.1208650642,2766221.4232737,15.363436343634,0,0
-183.65182445425,-41.775045129676,10.167866786679,1298025.9529445,-5658.1208650642,2766221.4232737,15.367866786679,0,0
-183.65182435766,-41.803868034433,10.172297229723,1298025.9529445,-5658.1208650642,2766221.4232737,15.372297229723,0,0
-183.65182426107,-41.832690939189,10.176727672767,1298025.9529445,-5658.1208650642,2766221.4232737,15.376727672767,0,0
-183.65182416448,-41.861513843946,10.181158115812,1298025.9529445,-5658.1208650642,2766221.4232737,15.381158115812,0,0
-183.65182406788,-41.890336748703,10.185588558856,1298025.9529445,-5658.1208650642,2766221.4232737,15.385588558856,0,0
-183.65182397129,-41.919159653459,10.1900190019,1298025.9529445,-5658.1208650642,2766221.4232737,15.3900190019,0,0
-183.6518238747,-41.947982558216,10.194449444944,1298025.9529445,-5658.1208650642,2766221.4232737,15.394449444944,0,0
-183.6518237781,-41.976805462973,10.198879887989,1298025.9529445,-5658.1208650642,2766221.4232737,15.398879887989,0,0
-183.65182368151,-42.005628367729,10.203310331033,1298025.9529445,-5658.1208650642,2766221.4232737,15.403310331033,0,0
-183.65182358492,-42.034451272486,10.207740774077,1298025.9529445,-5658.1208650642,2766221.4232737,15.407740774077,0,0
-183.65182348833,-42.063274177242,10.212171217122,1298025.9529445,-5658.1208650642,2766221.4232737,15.412171217122,0,0
-183.65182339172,-42.092097081018,10.216601660166,1293790.4281432,2742.1966865403,2752636.4577955,15.416601660166,0,0
-183.65182329511,-42.120919983972,10.22103210321,1293790.4281432,2742.1966865403,2752636.4577955,15.42103210321,0,0
-183.65182319849,-42.149742886927,10.225462546255,1293790.4281432,2742.1966865403,2752636.4577955,15.425462546255,0,0
-183.65182310187,-42.178565789882,10.229892989299,1293790.4281432,2742.1966865403,2752636.4577955,15.429892989299,0,0
-183.65182300526,-42.207388692837,10.234323432343,1293790.4281432,2742.1966865403,2752636.4577955,15.434323432343,0,0
-183.65182290864,-42.236211595791,10.238753875388,1293790.4281432,2742.1966865403,2752636.4577955,15.438753875388,0,0
-183.65182281203,-42.265034498746,10.243184318432,1293790.4281432,2742.1966865403,2752636.4577955,15.443184318432,0,0
-183.65182271541,-42.293857401701,10.247614761476,1293790.4281432,2742.1966865403,2752636.4577955,15.447614761476,0,0
-183.65182261879,-42.322680304656,10.25204520452,1293790.4281432,2742.1966865403,2752636.4577955,15.45204520452,0,0
-183.65182252218,-42.35150320761,10.256475647565,1293790.4281432,2742.1966865403,2752636.4577955,15.456475647565,0,0
-183.65182242556,-42.380326110565,10.260906090609,1293790.4281432,2742.1966865403,2752636.4577955,15.460906090609,0,0
-183.65182232895,-42.40914901352,10.265336533653,1293790.4281432,2742.1966865403,2752636.4577955,15.465336533653,0,0
-183.65182223233,-42.437971916475,10.269766976698,1293790.4281432,2742.1966865403,2752636.4577955,15.469766976698,0,0
-183.65182213571,-42.466794819429,10.274197419742,1293790.4281432,2742.1966865403,2752636.4577955,15.474197419742,0,0
-183.6518220391,-42.495617722384,10.278627862786,1293790.4281432,2742.1966865403,2752636.4577955,15.478627862786,0,0
-183.65182194248,-42.524440625339,10.283058305831,1293790.4281432,2742.1966865403,2752636.4577955,15.483058305831,0,0
-183.65182184587,-42.553263528294,10.287488748875,1293790.4281432,2742.1966865403,2752636.4577955,15.487488748875,0,0
-183.65182174925,-42.582086431248,10.291919191919,1293790.4281432,2742.1966865403,2752636.4577955,15.491919191919,0,0
-183.65182165263,-42.610909334203,10.296349634963,1293790.4281432,2742.1966865403,2752636.4577955,15.496349634963,0,0
-183.65182155602,-42.639732237158,10.300780078008,1293790.4281432,2742.1966865403,2752636.4577955,15.500780078008,0,0
-183.6518214594,-42.668555140113,10.305210521052,1293790.4281432,2742.1966865403,2752636.4577955,15.505210521052,0,0
-183.65182136279,-42.697378043067,10.309640964096,1293790.4281432,2742.1966865403,2752636.4577955,15.509640964096,0,0
-183.65182126617,-42.726200946022,10.314071407141,1293790.4281432,2742.1966865403,2752636.4577955,15.514071407141,0,0
-183.65182116955,-42.755023848977,10.318501850185,1293790.4281432,2742.1966865403,2752636.4577955,15.518501850185,0,0
-183.65182107294,-42.783846751932,10.322932293229,1293790.4281432,2742.1966865403,2752636.4577955,15.522932293229,0,0
-183.65182097632,-42.812669654886,10.327362736274,1293790.4281432,2742.1966865403,2752636.4577955,15.527362736274,0,0
-183.65182087971,-42.841492557841,10.331793179318,1293790.4281432,2742.1966865403,2752636.4577955,15.531793179318,0,0
-183.65182078309,-42.870315460796,10.336223622362,1293790.4281432,2742.1966865403,2752636.4577955,15.536223622362,0,0
-183.65182068647,-42.899138363751,10.340654065407,1293790.4281432,2742.1966865403,2752636.4577955,15.540654065407,0,0
-183.65182058986,-42.927961266705,10.345084508451,1293790.4281432,2742.1966865403,2752636.4577955,15.545084508451,0,0
-183.65182049324,-42.95678416966,10.349514951495,1293790.4281432,2742.1966865403,2752636.4577955,15.549514951495,0,0
-183.65182039663,-42.985607072615,10.353945394539,1293790.4281432,2742.1966865403,2752636.4577955,15.553945394539,0,0
-183.65182030001,-43.01442997557,10.358375837584,1293790.4281432,2742.1966865403,2752636.4577955,15.558375837584,0,0
-183.65182020339,-43.043252878524,10.362806280628,1293790.4281432,2742.1966865403,2752636.4577955,15.562806280628,0,0
-183.65182010678,-43.072075781479,10.367236723672,1293790.4281432,2742.1966865403,2752636.4577955,15.567236723672,0,0
-183.65182001016,-43.100898684434,10.371667166717,1293790.4281432,2742.1966865403,2752636.4577955,15.571667166717,0,0
-183.65181991355,-43.129721587389,10.376097609761,1293790.4281432,2742.1966865403,2752636.4577955,15.576097609761,0,0
-183.65181981693,-43.158544490343,10.380528052805,1293790.4281432,2742.1966865403,2752636.4577955,15.580528052805,0,0
-183.65181972031,-43.187367393298,10.38495849585,1293790.4281432,2742.1966865403,2752636.4577955,15.58495849585,0,0
-183.6518196237,-43.216190296253,10.389388938894,1293790.4281432,2742.1966865403,2752636.4577955,15.589388938894,0,0
-183.65181952708,-43.245013199208,10.393819381938,1293790.4281432,2742.1966865403,2752636.4577955,15.593819381938,0,0
-183.65181943025,-43.273836103065,10.398249824982,1293850.678353,-4938.1574126529,2734612.5958547,15.598249824982,0,0
-183.65181933314,-43.302659008007,10.402680268027,1293850.678353,-4938.1574126529,2734612.5958547,15.602680268027,0,0
-183.65181923604,-43.331481912949,10.407110711071,1293850.678353,-4938.1574126529,2734612.5958547,15.607110711071,0,0
-183.65181913894,-43.360304817892,10.411541154115,1293850.678353,-4938.1574126529,2734612.5958547,15.611541154115,0,0
-183.65181904184,-43.389127722834,10.41597159716,1293850.678353,-4938.1574126529,2734612.5958547,15.61597159716,0,0
-183.65181894474,-43.417950627776,10.420402040204,1293850.678353,-4938.1574126529,2734612.5958547,15.620402040204,0,0
-183.65181884764,-43.446773532718,10.424832483248,1293850.678353,-4938.1574126529,2734612.5958547,15.624832483248,0,0
-183.65181875054,-43.47559643766,10.429262926293,1293850.678353,-4938.1574126529,2734612.5958547,15.629262926293,0,0
-183.65181865344,-43.504419342603,10.433693369337,1293850.678353,-4938.1574126529,2734612.5958547,15.633693369337,0,0
-183.65181855634,-43.533242247545,10.438123812381,1293850.678353,-4938.1574126529,2734612.5958547,15.638123812381,0,0
-183.65181845924,-43.562065152487,10.442554255426,1293850.678353,-4938.1574126529,2734612.5958547,15.642554255426,0,0
-183.65181836214,-43.590888057429,10.44698469847,1293850.678353,-4938.1574126529,2734612.5958547,15.64698469847,0,0
-183.65181826504,-43.619710962371,10.451415141514,1293850.678353,-4938.1574126529,2734612.5958547,15.651415141514,0,0
-183.65181816794,-43.648533867313,10.455845584558,1293850.678353,-4938.1574126529,2734612.5958547,15.655845584558,0,0
-183.65181807084,-43.677356772256,10.460276027603,1293850.678353,-4938.1574126529,2734612.5958547,15.660276027603,0,0
-183.65181797373,-43.706179677198,10.464706470647,1293850.678353,-4938.1574126529,2734612.5958547,15.664706470647,0,0
-183.65181787663,-43.73500258214,10.469136913691,1293850.678353,-4938.1574126529,2734612.5958547,15.669136913691,0,0
-183.65181777953,-43.763825487082,10.473567356736,1293850.678353,-4938.1574126529,2734612.5958547,15.673567356736,0,0
-183.65181768243,-43.792648392024,10.47799779978,1293850.678353,-4938.1574126529,2734612.5958547,15.67799779978,0,0
-183.65181758533,-43.821471296967,10.482428242824,1293850.678353,-4938.1574126529,2734612.5958547,15.682428242824,0,0
-183.65181748823,-43.850294201909,10.486858685869,1293850.678353,-4938.1574126529,2734612.5958547,15.686858685869,0,0
-183.65181739113,-43.879117106851,10.491289128913,1293850.678353,-4938.1574126529,2734612.5958547,15.691289128913,0,0
-183.65181729403,-43.907940011793,10.495719571957,1293850.678353,-4938.1574126529,2734612.5958547,15.695719571957,0,0
-183.65181719693,-43.936762916735,10.500150015001,1293850.678353,-4938.1574126529,2734612.5958547,15.700150015001,0,0
-183.65181709983,-43.965585821678,10.504580458046,1293850.678353,-4938.1574126529,2734612.5958547,15.704580458046,0,0
-183.65181700273,-43.99440872662,10.50901090109,1293850.678353,-4938.1574126529,2734612.5958547,15.70901090109,0,0
-183.65181690563,-44.023231631562,10.513441344134,1293850.678353,-4938.1574126529,2734612.5958547,15.713441344134,0,0
-183.65181680853,-44.052054536504,10.517871787179,1293850.678353,-4938.1574126529,2734612.5958547,15.717871787179,0,0
-183.65181671143,-44.080877441446,10.522302230223,1293850.678353,-4938.1574126529,2734612.5958547,15.722302230223,0,0
-183.65181661432,-44.109700346388,10.526732673267,1293850.678353,-4938.1574126529,2734612.5958547,15.726732673267,0,0
-183.65181651722,-44.138523251331,10.531163116312,1293850.678353,-4938.1574126529,2734612.5958547,15.731163116312,0,0
-183.65181642012,-44.167346156273,10.535593559356,1293850.678353,-4938.1574126529,2734612.5958547,15.735593559356,0,0
-183.65181632302,-44.196169061215,10.5400240024,1293850.678353,-4938.1574126529,2734612.5958547,15.7400240024,0,0
-183.65181622592,-44.224991966157,10.544454445445,1293850.678353,-4938.1574126529,2734612.5958547,15.744454445445,0,0
-183.65181612882,-44.253814871099,10.548884888489,1293850.678353,-4938.1574126529,2734612.5958547,15.748884888489,0,0
-183.65181603172,-44.282637776042,10.553315331533,1293850.678353,-4938.1574126529,2734612.5958547,15.753315331533,0,0
-183.65181593462,-44.311460680984,10.557745774577,1293850.678353,-4938.1574126529,2734612.5958547,15.757745774577,0,0
-183.65181583752,-44.340283585926,10.562176217622,1293850.678353,-4938.1574126529,2734612.5958547,15.762176217622,0,0
-183.65181574042,-44.369106490868,10.566606660666,1293850.678353,-4938.1574126529,2734612.5958547,15.766606660666,0,0
-183.65181564332,-44.39792939581,10.57103710371,1293850.678353,-4938.1574126529,2734612.5958547,15.77103710371,0,0
-183.65181554622,-44.426752300752,10.575467546755,1293850.678353,-4938.1574126529,2734612.5958547,15.775467546755,0,0
-183.65181544912,-44.455575205695,10.579897989799,1293850.678353,-4938.1574126529,2734612.5958547,15.779897989799,0,0
-183.65181535202,-44.484398110637,10.584328432843,1293850.678353,-4938.1574126529,2734612.5958547,15.784328432843,0,0
-183.65181525491,-44.513221015579,10.588758875888,1293850.678353,-4938.1574126529,2734612.5958547,15.788758875888,0,0
-183.65181515781,-44.542043920521,10.593189318932,1293850.678353,-4938.1574126529,2734612.5958547,15.793189318932,0,0
-183.65181506071,-44.570866825463,10.597619761976,1293850.678353,-4938.1574126529,2734612.5958547,15.797619761976,0,0
-183.65181496361,-44.599689730406,10.602050205021,1293850.678353,-4938.1574126529,2734612.5958547,15.80205020502,0,0
-183.65181486651,-44.628512635348,10.606480648065,1293850.678353,-4938.1574126529,2734612.5958547,15.806480648065,0,0
-183.65181476941,-44.65733554029,10.610911091109,1293850.678353,-4938.1574126529,2734612.5958547,15.810911091109,0,0
-183.65181467231,-44.686158445232,10.615341534153,1293850.678353,-4938.1574126529,2734612.5958547,15.815341534153,0,0
-183.65181457521,-44.714981350174,10.619771977198,1293850.678353,-4938.1574126529,2734612.5958547,15.819771977198,0,0
-183.65181447811,-44.743804255117,10.624202420242,1293850.678353,-4938.1574126529,2734612.5958547,15.824202420242,0,0
-183.65181438101,-44.772627160059,10.628632863286,1293850.678353,-4938.1574126529,2734612.5958547,15.828632863286,0,0
-183.65181428391,-44.801450065001,10.633063306331,1293850.678353,-4938.1574126529,2734612.5958547,15.833063306331,0,0
-183.65181418681,-44.830272969943,10.637493749375,1293850.678353,-4938.1574126529,2734612.5958547,15.837493749375,0,0
-183.65181408971,-44.859095874885,10.641924192419,1293850.678353,-4938.1574126529,2734612.5958547,15.841924192419,0,0
-183.65181399261,-44.887918779827,10.646354635464,1293850.678353,-4938.1574126529,2734612.5958547,15.846354635464,0,0
-183.6518138955,-44.91674168477,10.650785078508,1293850.678353,-4938.1574126529,2734612.5958547,15.850785078508,0,0
-183.6518137984,-44.945564589712,10.655215521552,1293850.678353,-4938.1574126529,2734612.5958547,15.855215521552,0,0
-183.6518137013,-44.974387494654,10.659645964596,1293850.678353,-4938.1574126529,2734612.5958547,15.859645964596,0,0
-183.6518136042,-45.003210399596,10.664076407641,1293850.678353,-4938.1574126529,2734612.5958547,15.864076407641,0,0
-183.6518135071,-45.032033304538,10.668506850685,1293850.678353,-4938.1574126529,2734612.5958547,15.868506850685,0,0
-183.65181341,-45.060856209481,10.672937293729,1293850.678353,-4938.1574126529,2734612.5958547,15.872937293729,0,0
-183.6518133129,-45.089679114423,10.677367736774,1293850.678353,-4938.1574126529,2734612.5958547,15.877367736774,0,0
-183.6518132158,-45.118502019365,10.681798179818,1293850.678353,-4938.1574126529,2734612.5958547,15.881798179818,0,0
-183.6518131187,-45.147324924307,10.686228622862,1293850.678353,-4938.1574126529,2734612.5958547,15.886228622862,0,0
-183.6518130216,-45.176147829249,10.690659065907,1293850.678353,-4938.1574126529,2734612.5958547,15.890659065907,0,0
-183.6518129245,-45.204970734191,10.695089508951,1293850.678353,-4938.1574126529,2734612.5958547,15.895089508951,0,0
-183.6518128274,-45.233793639134,10.699519951995,1293850.678353,-4938.1574126529,2734612.5958547,15.899519951995,0,0
-183.6518127303,-45.262616544076,10.70395039504,1293850.678353,-4938.1574126529,2734612.5958547,15.90395039504,0,0
-183.6518126332,-45.291439449018,10.708380838084,1293850.678353,-4938.1574126529,2734612.5958547,15.908380838084,0,0
-183.6518125361,-45.32026235396,10.712811281128,1293850.678353,-4938.1574126529,2734612.5958547,15.912811281128,0,0
-183.65181243899,-45.349085258902,10.717241724172,1293850.678353,-4938.1574126529,2734612.5958547,15.917241724172,0,0
-183.65181234189,-45.377908163845,10.721672167217,1293850.678353,-4938.1574126529,2734612.5958547,15.921672167217,0,0
-183.65181224479,-45.406731068787,10.726102610261,1293850.678353,-4938.1574126529,2734612.5958547,15.926102610261,0,0
-183.65181214769,-45.435553973729,10.730533053305,1293850.678353,-4938.1574126529,2734612.5958547,15.930533053305,0,0
-183.65181205059,-45.464376878671,10.73496349635,1293850.678353,-4938.1574126529,2734612.5958547,15.93496349635,0,0
-183.65181195349,-45.493199783613,10.739393939394,1293850.678353,-4938.1574126529,2734612.5958547,15.939393939394,0,0
-183.65181185639,-45.522022688555,10.743824382438,1293850.678353,-4938.1574126529,2734612.5958547,15.943824382438,0,0
-183.65181175929,-45.550845593498,10.748254825483,1293850.678353,-4938.1574126529,2734612.5958547,15.948254825483,0,0
-183.65181166219,-45.57966849844,10.752685268527,1293850.678353,-4938.1574126529,2734612.5958547,15.952685268527,0,0
-183.65181156509,-45.608491403382,10.757115711571,1293850.678353,-4938.1574126529,2734612.5958547,15.957115711571,0,0
-183.65181146799,-45.637314308324,10.761546154615,1293850.678353,-4938.1574126529,2734612.5958547,15.961546154615,0,0
-183.65181137089,-45.666137213266,10.76597659766,1293850.678353,-4938.1574126529,2734612.5958547,15.96597659766,0,0
-183.65181127379,-45.694960118209,10.770407040704,1293850.678353,-4938.1574126529,2734612.5958547,15.970407040704,0,0
-183.65181117669,-45.723783023151,10.774837483748,1293850.678353,-4938.1574126529,2734612.5958547,15.974837483748,0,0
-183.65181107958,-45.752605928093,10.779267926793,1293850.678353,-4938.1574126529,2734612.5958547,15.979267926793,0,0
-183.65181098248,-45.781428833035,10.783698369837,1293850.678353,-4938.1574126529,2734612.5958547,15.983698369837,0,0
-183.65181088538,-45.810251737977,10.788128812881,1293850.678353,-4938.1574126529,2734612.5958547,15.988128812881,0,0
-183.65181078828,-45.83907464292,10.792559255926,1293850.678353,-4938.1574126529,2734612.5958547,15.992559255926,0,0
-183.65181069118,-45.867897547862,10.79698969897,1293850.678353,-4938.1574126529,2734612.5958547,15.99698969897,0,0
-183.65181059408,-45.896720452804,10.801420142014,1293850.678353,-4938.1574126529,2734612.5958547,16.001420142014,0,0
-183.65181049698,-45.925543357746,10.805850585059,1293850.678353,-4938.1574126529,2734612.5958547,16.005850585059,0,0
-183.65181039988,-45.954366262688,10.810281028103,1293850.678353,-4938.1574126529,2734612.5958547,16.010281028103,0,0
-183.65181030278,-45.98318916763,10.814711471147,1293850.678353,-4938.1574126529,2734612.5958547,16.014711471147,0,0
-183.65181020568,-46.012012072573,10.819141914191,1293850.678353,-4938.1574126529,2734612.5958547,16.019141914191,0,0
-183.65181010858,-46.040834977515,10.823572357236,1293850.678353,-4938.1574126529,2734612.5958547,16.023572357236,0,0
-183.65181001148,-46.069657882457,10.82800280028,1293850.678353,-4938.1574126529,2734612.5958547,16.02800280028,0,0
-183.65180991438,-46.098480787399,10.832433243324,1293850.678353,-4938.1574126529,2734612.5958547,16.032433243324,0,0
-183.65180981728,-46.127303692341,10.836863686369,1293850.678353,-4938.1574126529,2734612.5958547,16.036863686369,0,0
-183.65180972017,-46.156126597284,10.841294129413,1293850.678353,-4938.1574126529,2734612.5958547,16.041294129413,0,0
-183.65180962307,-46.184949502226,10.845724572457,1293850.678353,-4938.1574126529,2734612.5958547,16.045724572457,0,0
-183.65180952597,-46.213772407168,10.850155015502,1293850.678353,-4938.1574126529,2734612.5958547,16.050155015502,0,0
-183.65180942887,-46.24259531211,10.854585458546,1293850.678353,-4938.1574126529,2734612.5958547,16.054585458546,0,0
-183.65180933177,-46.271418217052,10.85901590159,1293850.678353,-4938.1574126529,2734612.5958547,16.05901590159,0,0
-183.65180923467,-46.300241121994,10.863446344634,1293850.678353,-4938.1574126529,2734612.5958547,16.063446344634,0,0
-183.65180913757,-46.329064026937,10.867876787679,1293850.678353,-4938.1574126529,2734612.5958547,16.067876787679,0,0
-183.65180904047,-46.357886931879,10.872307230723,1293850.678353,-4938.1574126529,2734612.5958547,16.072307230723,0,0
-183.65180894337,-46.386709836821,10.876737673767,1293850.678353,-4938.1574126529,2734612.5958547,16.076737673767,0,0
-183.65180884627,-46.415532741763,10.881168116812,1293850.678353,-4938.1574126529,2734612.5958547,16.081168116812,0,0
-183.65180874917,-46.444355646705,10.885598559856,1293850.678353,-4938.1574126529,2734612.5958547,16.085598559856,0,0
-183.65180865207,-46.473178551648,10.8900290029,1293850.678353,-4938.1574126529,2734612.5958547,16.0900290029,0,0
-183.65180855497,-46.50200145659,10.894459445945,1293850.678353,-4938.1574126529,2734612.5958547,16.094459445945,0,0
-183.65180845787,-46.530824361532,10.898889888989,1293850.678353,-4938.1574126529,2734612.5958547,16.098889888989,0,0
-183.65180836076,-46.559647266474,10.903320332033,1293850.678353,-4938.1574126529,2734612.5958547,16.103320332033,0,0
-183.65180826366,-46.588470171416,10.907750775078,1293850.678353,-4938.1574126529,2734612.5958547,16.107750775078,0,0
-183.65180816656,-46.617293076359,10.912181218122,1293850.678353,-4938.1574126529,2734612.5958547,16.112181218122,0,0
-183.65180806946,-46.646115981301,10.916611661166,1293850.678353,-4938.1574126529,2734612.5958547,16.116611661166,0,0
-183.65180797236,-46.674938886243,10.92104210421,1293850.678353,-4938.1574126529,2734612.5958547,16.12104210421,0,0
-183.65180787526,-46.703761791185,10.925472547255,1293850.678353,-4938.1574126529,2734612.5958547,16.125472547255,0,0
-183.65180777816,-46.732584696127,10.929902990299,1293850.678353,-4938.1574126529,2734612.5958547,16.129902990299,0,0
-183.65180768106,-46.761407601069,10.934333433343,1293850.678353,-4938.1574126529,2734612.5958547,16.134333433343,0,0
-183.65180758396,-46.790230506012,10.938763876388,1293850.678353,-4938.1574126529,2734612.5958547,16.138763876388,0,0
-183.65180748686,-46.819053410954,10.943194319432,1293850.678353,-4938.1574126529,2734612.5958547,16.143194319432,0,0
-183.65180738976,-46.847876315896,10.947624762476,1293850.678353,-4938.1574126529,2734612.5958547,16.147624762476,0,0
-183.65180729266,-46.876699220838,10.952055205521,1293850.678353,-4938.1574126529,2734612.5958547,16.152055205521,0,0
-183.65180719556,-46.90552212578,10.956485648565,1293850.678353,-4938.1574126529,2734612.5958547,16.156485648565,0,0
-183.65180709846,-46.934345030723,10.960916091609,1293850.678353,-4938.1574126529,2734612.5958547,16.160916091609,0,0
-183.65180700135,-46.963167935665,10.965346534653,1293850.678353,-4938.1574126529,2734612.5958547,16.165346534653,0,0
-183.65180690425,-46.991990840607,10.969776977698,1293850.678353,-4938.1574126529,2734612.5958547,16.169776977698,0,0
-183.65180680715,-47.020813745549,10.974207420742,1293850.678353,-4938.1574126529,2734612.5958547,16.174207420742,0,0
-183.65180671005,-47.049636650491,10.978637863786,1293850.678353,-4938.1574126529,2734612.5958547,16.178637863786,0,0
-183.65180661295,-47.078459555433,10.983068306831,1293850.678353,-4938.1574126529,2734612.5958547,16.183068306831,0,0
-183.65180651585,-47.107282460376,10.987498749875,1293850.678353,-4938.1574126529,2734612.5958547,16.187498749875,0,0
-183.65180641875,-47.136105365318,10.991929192919,1293850.678353,-4938.1574126529,2734612.5958547,16.191929192919,0,0
-183.65180632165,-47.16492827026,10.996359635964,1293850.678353,-4938.1574126529,2734612.5958547,16.196359635964,0,0
-183.65180622455,-47.193751175202,11.000790079008,1293850.678353,-4938.1574126529,2734612.5958547,16.200790079008,0,0
-183.65180612745,-47.222574080144,11.005220522052,1293850.678353,-4938.1574126529,2734612.5958547,16.205220522052,0,0
-183.65180603035,-47.251396985087,11.009650965097,1293850.678353,-4938.1574126529,2734612.5958547,16.209650965097,0,0
-183.65180593325,-47.280219890029,11.014081408141,1293850.678353,-4938.1574126529,2734612.5958547,16.214081408141,0,0
-183.65180583615,-47.309042794971,11.018511851185,1293850.678353,-4938.1574126529,2734612.5958547,16.218511851185,0,0
-183.65180573905,-47.337865699913,11.022942294229,1293850.678353,-4938.1574126529,2734612.5958547,16.222942294229,0,0
-183.65180564194,-47.366688604855,11.027372737274,1293850.678353,-4938.1574126529,2734612.5958547,16.227372737274,0,0
-183.65180554484,-47.395511509798,11.031803180318,1293850.678353,-4938.1574126529,2734612.5958547,16.231803180318,0,0
-183.65180544774,-47.42433441474,11.036233623362,1293850.678353,-4938.1574126529,2734612.5958547,16.236233623362,0,0
-183.65180535064,-47.453157319682,11.040664066407,1293850.678353,-4938.1574126529,2734612.5958547,16.240664066407,0,0
-183.65180525354,-47.481980224624,11.045094509451,1293850.678353,-4938.1574126529,2734612.5958547,16.245094509451,0,0
-183.65180515644,-47.510803129566,11.049524952495,1293850.678353,-4938.1574126529,2734612.5958547,16.249524952495,0,0
-183.65180505934,-47.539626034508,11.05395539554,1293850.678353,-4938.1574126529,2734612.5958547,16.25395539554,0,0
-183.65180496224,-47.568448939451,11.058385838584,1293850.678353,-4938.1574126529,2734612.5958547,16.258385838584,0,0
-183.65180486514,-47.597271844393,11.062816281628,1293850.678353,-4938.1574126529,2734612.5958547,16.262816281628,0,0
-183.65180476804,-47.626094749335,11.067246724672,1293850.678353,-4938.1574126529,2734612.5958547,16.267246724672,0,0
-183.65180467094,-47.654917654277,11.071677167717,1293850.678353,-4938.1574126529,2734612.5958547,16.271677167717,0,0
-183.65180457384,-47.683740559219,11.076107610761,1293850.678353,-4938.1574126529,2734612.5958547,16.276107610761,0,0
-183.65180447674,-47.712563464162,11.080538053805,1293850.678353,-4938.1574126529,2734612.5958547,16.280538053805,0,0
-183.65180437964,-47.741386369104,11.08496849685,1293850.678353,-4938.1574126529,2734612.5958547,16.28496849685,0,0
-183.65180428254,-47.770209274046,11.089398939894,1293850.678353,-4938.1574126529,2734612.5958547,16.289398939894,0,0
-183.65180418543,-47.799032178988,11.093829382938,1293850.678353,-4938.1574126529,2734612.5958547,16.293829382938,0,0
-183.65180408833,-47.82785508393,11.098259825983,1293850.678353,-4938.1574126529,2734612.5958547,16.298259825983,0,0
-183.65180399123,-47.856677988872,11.102690269027,1293850.678353,-4938.1574126529,2734612.5958547,16.302690269027,0,0
-183.65180389413,-47.885500893815,11.107120712071,1293850.678353,-4938.1574126529,2734612.5958547,16.307120712071,0,0
-183.65180379703,-47.914323798757,11.111551155116,1293850.678353,-4938.1574126529,2734612.5958547,16.311551155116,0,0
-183.65180369993,-47.943146703699,11.11598159816,1293850.678353,-4938.1574126529,2734612.5958547,16.31598159816,0,0
-183.65180360283,-47.971969608641,11.120412041204,1293850.678353,-4938.1574126529,2734612.5958547,16.320412041204,0,0
-183.65180350573,-48.000792513583,11.124842484248,1293850.678353,-4938.1574126529,2734612.5958547,16.324842484248,0,0
-183.65180340863,-48.029615418526,11.129272927293,1293850.678353,-4938.1574126529,2734612.5958547,16.329272927293,0,0
-183.65180331153,-48.058438323468,11.133703370337,1293850.678353,-4938.1574126529,2734612.5958547,16.333703370337,0,0
-183.65180321443,-48.08726122841,11.138133813381,1293850.678353,-4938.1574126529,2734612.5958547,16.338133813381,0,0
-183.65180311733,-48.116084133352,11.142564256426,1293850.678353,-4938.1574126529,2734612.5958547,16.342564256426,0,0
-183.65180302023,-48.144907038294,11.14699469947,1293850.678353,-4938.1574126529,2734612.5958547,16.34699469947,0,0
-183.65180292313,-48.173729943236,11.151425142514,1293850.678353,-4938.1574126529,2734612.5958547,16.351425142514,0,0
-183.65180282602,-48.202552848179,11.155855585559,1293850.678353,-4938.1574126529,2734612.5958547,16.355855585559,0,0
-183.65180272892,-48.231375753121,11.160286028603,1293850.678353,-4938.1574126529,2734612.5958547,16.360286028603,0,0
-183.65180263182,-48.260198658063,11.164716471647,1293850.678353,-4938.1574126529,2734612.5958547,16.364716471647,0,0
-183.65180253472,-48.289021563005,11.169146914691,1293850.678353,-4938.1574126529,2734612.5958547,16.369146914691,0,0
-183.65180243762,-48.317844467947,11.173577357736,1293850.678353,-4938.1574126529,2734612.5958547,16.373577357736,0,0
-183.65180234052,-48.34666737289,11.17800780078,1293850.678353,-4938.1574126529,2734612.5958547,16.37800780078,0,0
-183.65180224342,-48.375490277832,11.182438243824,1293850.678353,-4938.1574126529,2734612.5958547,16.382438243824,0,0
-183.65180214632,-48.404313182774,11.186868686869,1293850.678353,-4938.1574126529,2734612.5958547,16.386868686869,0,0
-183.65180204922,-48.433136087716,11.191299129913,1293850.678353,-4938.1574126529,2734612.5958547,16.391299129913,0,0
-183.65180195212,-48.461958992658,11.195729572957,1293850.678353,-4938.1574126529,2734612.5958547,16.395729572957,0,0
-183.65180185502,-48.490781897601,11.200160016002,1293850.678353,-4938.1574126529,2734612.5958547,16.400160016002,0,0
-183.65180175792,-48.519604802543,11.204590459046,1293850.678353,-4938.1574126529,2734612.5958547,16.404590459046,0,0
-183.65180166082,-48.548427707485,11.20902090209,1293850.678353,-4938.1574126529,2734612.5958547,16.40902090209,0,0
-183.65180156372,-48.577250612427,11.213451345135,1293850.678353,-4938.1574126529,2734612.5958547,16.413451345135,0,0
-183.65180146661,-48.606073517369,11.217881788179,1293850.678353,-4938.1574126529,2734612.5958547,16.417881788179,0,0
-183.65180136951,-48.634896422311,11.222312231223,1293850.678353,-4938.1574126529,2734612.5958547,16.422312231223,0,0
-183.65180127241,-48.663719326734,11.226742674267,1289647.9071901,3197.563573849,2721721.153755,16.426742674267,0,0
-183.6518011753,-48.69254222994,11.231173117312,1289647.9071901,3197.563573849,2721721.153755,16.431173117312,0,0
-183.65180107819,-48.721365133145,11.235603560356,1289647.9071901,3197.563573849,2721721.153755,16.435603560356,0,0
-183.65180098109,-48.75018803635,11.2400340034,1289647.9071901,3197.563573849,2721721.153755,16.4400340034,0,0
-183.65180088398,-48.779010939555,11.244464446445,1289647.9071901,3197.563573849,2721721.153755,16.444464446445,0,0
-183.65180078687,-48.807833842761,11.248894889489,1289647.9071901,3197.563573849,2721721.153755,16.448894889489,0,0
-183.65180068976,-48.836656745966,11.253325332533,1289647.9071901,3197.563573849,2721721.153755,16.453325332533,0,0
-183.65180059265,-48.865479649171,11.257755775578,1289647.9071901,3197.563573849,2721721.153755,16.457755775578,0,0
-183.65180049554,-48.894302552376,11.262186218622,1289647.9071901,3197.563573849,2721721.153755,16.462186218622,0,0
-183.65180039844,-48.923125455582,11.266616661666,1289647.9071901,3197.563573849,2721721.153755,16.466616661666,0,0
-183.65180030133,-48.951948358787,11.27104710471,1289647.9071901,3197.563573849,2721721.153755,16.47104710471,0,0
-183.65180020422,-48.980771261992,11.275477547755,1289647.9071901,3197.563573849,2721721.153755,16.475477547755,0,0
-183.65180010711,-49.009594165198,11.279907990799,1289647.9071901,3197.563573849,2721721.153755,16.479907990799,0,0
-183.65180001,-49.038417068403,11.284338433843,1289647.9071901,3197.563573849,2721721.153755,16.484338433843,0,0
-183.6517999129,-49.067239971608,11.288768876888,1289647.9071901,3197.563573849,2721721.153755,16.488768876888,0,0
-183.65179981579,-49.096062874813,11.293199319932,1289647.9071901,3197.563573849,2721721.153755,16.493199319932,0,0
-183.65179971868,-49.124885778019,11.297629762976,1289647.9071901,3197.563573849,2721721.153755,16.497629762976,0,0
-183.65179962157,-49.153708681224,11.302060206021,1289647.9071901,3197.563573849,2721721.153755,16.502060206021,0,0
-183.65179952446,-49.182531584429,11.306490649065,1289647.9071901,3197.563573849,2721721.153755,16.506490649065,0,0
-183.65179942735,-49.211354487634,11.310921092109,1289647.9071901,3197.563573849,2721721.153755,16.510921092109,0,0
-183.65179933025,-49.24017739084,11.315351535154,1289647.9071901,3197.563573849,2721721.153755,16.515351535154,0,0
-183.65179923314,-49.269000294045,11.319781978198,1289647.9071901,3197.563573849,2721721.153755,16.519781978198,0,0
-183.65179913603,-49.29782319725,11.324212421242,1289647.9071901,3197.563573849,2721721.153755,16.524212421242,0,0
-183.65179903892,-49.326646100456,11.328642864286,1289647.9071901,3197.563573849,2721721.153755,16.528642864286,0,0
-183.65179894181,-49.355469003661,11.333073307331,1289647.9071901,3197.563573849,2721721.153755,16.533073307331,0,0
-183.6517988447,-49.384291906866,11.337503750375,1289647.9071901,3197.563573849,2721721.153755,16.537503750375,0,0
-183.6517987476,-49.413114810071,11.341934193419,1289647.9071901,3197.563573849,2721721.153755,16.541934193419,0,0
-183.65179865049,-49.441937713277,11.346364636464,1289647.9071901,3197.563573849,2721721.153755,16.546364636464,0,0
-183.65179855338,-49.470760616482,11.350795079508,1289647.9071901,3197.563573849,2721721.153755,16.550795079508,0,0
-183.65179845627,-49.499583519687,11.355225522552,1289647.9071901,3197.563573849,2721721.153755,16.555225522552,0,0
-183.65179835916,-49.528406422893,11.359655965597,1289647.9071901,3197.563573849,2721721.153755,16.559655965597,0,0
-183.65179826206,-49.557229326098,11.364086408641,1289647.9071901,3197.563573849,2721721.153755,16.564086408641,0,0
-183.65179816495,-49.586052229303,11.368516851685,1289647.9071901,3197.563573849,2721721.153755,16.568516851685,0,0
-183.65179806784,-49.614875132508,11.372947294729,1289647.9071901,3197.563573849,2721721.153755,16.572947294729,0,0
-183.65179797073,-49.643698035714,11.377377737774,1289647.9071901,3197.563573849,2721721.153755,16.577377737774,0,0
-183.65179787362,-49.672520938919,11.381808180818,1289647.9071901,3197.563573849,2721721.153755,16.581808180818,0,0
-183.65179777651,-49.701343842124,11.386238623862,1289647.9071901,3197.563573849,2721721.153755,16.586238623862,0,0
-183.65179767941,-49.730166745329,11.390669066907,1289647.9071901,3197.563573849,2721721.153755,16.590669066907,0,0
-183.6517975823,-49.758989648535,11.395099509951,1289647.9071901,3197.563573849,2721721.153755,16.595099509951,0,0
-183.65179748519,-49.78781255174,11.399529952995,1289647.9071901,3197.563573849,2721721.153755,16.599529952995,0,0
-183.65179738808,-49.816635454945,11.40396039604,1289647.9071901,3197.563573849,2721721.153755,16.60396039604,0,0
-183.65179729097,-49.845458358151,11.408390839084,1289647.9071901,3197.563573849,2721721.153755,16.608390839084,0,0
-183.65179719386,-49.874281261356,11.412821282128,1289647.9071901,3197.563573849,2721721.153755,16.612821282128,0,0
-183.65179709676,-49.903104164561,11.417251725173,1289647.9071901,3197.563573849,2721721.153755,16.617251725173,0,0
-183.65179699965,-49.931927067766,11.421682168217,1289647.9071901,3197.563573849,2721721.153755,16.621682168217,0,0
-183.65179690254,-49.960749970972,11.426112611261,1289647.9071901,3197.563573849,2721721.153755,16.626112611261,0,0
-183.65179680543,-49.989572874177,11.430543054305,1289647.9071901,3197.563573849,2721721.153755,16.630543054305,0,0
-183.65179670832,-50.018395777382,11.43497349735,1289647.9071901,3197.563573849,2721721.153755,16.63497349735,0,0
-183.65179661122,-50.047218680587,11.439403940394,1289647.9071901,3197.563573849,2721721.153755,16.639403940394,0,0
-183.65179651411,-50.076041583793,11.443834383438,1289647.9071901,3197.563573849,2721721.153755,16.643834383438,0,0
-183.651796417,-50.104864486998,11.448264826483,1289647.9071901,3197.563573849,2721721.153755,16.648264826483,0,0
-183.65179631989,-50.133687390203,11.452695269527,1289647.9071901,3197.563573849,2721721.153755,16.652695269527,0,0
-183.65179622278,-50.162510293409,11.457125712571,1289647.9071901,3197.563573849,2721721.153755,16.657125712571,0,0
-183.65179612567,-50.191333196614,11.461556155616,1289647.9071901,3197.563573849,2721721.153755,16.661556155616,0,0
-183.65179602857,-50.220156099819,11.46598659866,1289647.9071901,3197.563573849,2721721.153755,16.66598659866,0,0
-183.65179593146,-50.248979003024,11.470417041704,1289647.9071901,3197.563573849,2721721.153755,16.670417041704,0,0
-183.65179583435,-50.27780190623,11.474847484748,1289647.9071901,3197.563573849,2721721.153755,16.674847484748,0,0
-183.65179573724,-50.306624809435,11.479277927793,1289647.9071901,3197.563573849,2721721.153755,16.679277927793,0,0
-183.65179564013,-50.33544771264,11.483708370837,1289647.9071901,3197.563573849,2721721.153755,16.683708370837,0,0
-183.65179554302,-50.364270615845,11.488138813881,1289647.9071901,3197.563573849,2721721.153755,16.688138813881,0,0
-183.65179544592,-50.393093519051,11.492569256926,1289647.9071901,3197.563573849,2721721.153755,16.692569256926,0,0
-183.65179534881,-50.421916422256,11.49699969997,1289647.9071901,3197.563573849,2721721.153755,16.69699969997,0,0
-183.6517952517,-50.450739325461,11.501430143014,1289647.9071901,3197.563573849,2721721.153755,16.701430143014,0,0
-183.65179515459,-50.479562228667,11.505860586059,1289647.9071901,3197.563573849,2721721.153755,16.705860586059,0,0
-183.65179505748,-50.508385131872,11.510291029103,1289647.9071901,3197.563573849,2721721.153755,16.710291029103,0,0
-183.65179496037,-50.537208035077,11.514721472147,1289647.9071901,3197.563573849,2721721.153755,16.714721472147,0,0
-183.65179486327,-50.566030938282,11.519151915192,1289647.9071901,3197.563573849,2721721.153755,16.719151915192,0,0
-183.65179476616,-50.594853841488,11.523582358236,1289647.9071901,3197.563573849,2721721.153755,16.723582358236,0,0
-183.65179466905,-50.623676744693,11.52801280128,1289647.9071901,3197.563573849,2721721.153755,16.72801280128,0,0
-183.6517945719,-50.652499648076,11.532443244324,1289558.3878549,-4515.2938764659,2706023.0559687,16.732443244324,0,0
-183.65179447438,-50.681322553193,11.536873687369,1289558.3878549,-4515.2938764659,2706023.0559687,16.736873687369,0,0
-183.65179437687,-50.71014545831,11.541304130413,1289558.3878549,-4515.2938764659,2706023.0559687,16.741304130413,0,0
-183.65179427935,-50.738968363427,11.545734573457,1289558.3878549,-4515.2938764659,2706023.0559687,16.745734573457,0,0
-183.65179418183,-50.767791268544,11.550165016502,1289558.3878549,-4515.2938764659,2706023.0559687,16.750165016502,0,0
-183.65179408431,-50.796614173661,11.554595459546,1289558.3878549,-4515.2938764659,2706023.0559687,16.754595459546,0,0
-183.65179398679,-50.825437078778,11.55902590259,1289558.3878549,-4515.2938764659,2706023.0559687,16.75902590259,0,0
-183.65179388927,-50.854259983895,11.563456345635,1289558.3878549,-4515.2938764659,2706023.0559687,16.763456345635,0,0
-183.65179379175,-50.883082889013,11.567886788679,1289558.3878549,-4515.2938764659,2706023.0559687,16.767886788679,0,0
-183.65179369423,-50.91190579413,11.572317231723,1289558.3878549,-4515.2938764659,2706023.0559687,16.772317231723,0,0
-183.65179359671,-50.940728699247,11.576747674767,1289558.3878549,-4515.2938764659,2706023.0559687,16.776747674767,0,0
-183.65179349919,-50.969551604364,11.581178117812,1289558.3878549,-4515.2938764659,2706023.0559687,16.781178117812,0,0
-183.65179340168,-50.998374509481,11.585608560856,1289558.3878549,-4515.2938764659,2706023.0559687,16.785608560856,0,0
-183.65179330416,-51.027197414598,11.5900390039,1289558.3878549,-4515.2938764659,2706023.0559687,16.7900390039,0,0
-183.65179320664,-51.056020319715,11.594469446945,1289558.3878549,-4515.2938764659,2706023.0559687,16.794469446945,0,0
-183.65179310912,-51.084843224832,11.598899889989,1289558.3878549,-4515.2938764659,2706023.0559687,16.798899889989,0,0
-183.6517930116,-51.113666129949,11.603330333033,1289558.3878549,-4515.2938764659,2706023.0559687,16.803330333033,0,0
-183.65179291408,-51.142489035066,11.607760776078,1289558.3878549,-4515.2938764659,2706023.0559687,16.807760776078,0,0
-183.65179281656,-51.171311940183,11.612191219122,1289558.3878549,-4515.2938764659,2706023.0559687,16.812191219122,0,0
-183.65179271904,-51.2001348453,11.616621662166,1289558.3878549,-4515.2938764659,2706023.0559687,16.816621662166,0,0
-183.65179262152,-51.228957750417,11.621052105211,1289558.3878549,-4515.2938764659,2706023.0559687,16.821052105211,0,0
-183.651792524,-51.257780655534,11.625482548255,1289558.3878549,-4515.2938764659,2706023.0559687,16.825482548255,0,0
-183.65179242648,-51.286603560651,11.629912991299,1289558.3878549,-4515.2938764659,2706023.0559687,16.829912991299,0,0
-183.65179232897,-51.315426465769,11.634343434343,1289558.3878549,-4515.2938764659,2706023.0559687,16.834343434343,0,0
-183.65179223145,-51.344249370886,11.638773877388,1289558.3878549,-4515.2938764659,2706023.0559687,16.838773877388,0,0
-183.65179213393,-51.373072276003,11.643204320432,1289558.3878549,-4515.2938764659,2706023.0559687,16.843204320432,0,0
-183.65179203641,-51.40189518112,11.647634763476,1289558.3878549,-4515.2938764659,2706023.0559687,16.847634763476,0,0
-183.65179193889,-51.430718086237,11.652065206521,1289558.3878549,-4515.2938764659,2706023.0559687,16.852065206521,0,0
-183.65179184137,-51.459540991354,11.656495649565,1289558.3878549,-4515.2938764659,2706023.0559687,16.856495649565,0,0
-183.65179174385,-51.488363896471,11.660926092609,1289558.3878549,-4515.2938764659,2706023.0559687,16.860926092609,0,0
-183.65179164633,-51.517186801588,11.665356535654,1289558.3878549,-4515.2938764659,2706023.0559687,16.865356535654,0,0
-183.65179154881,-51.546009706705,11.669786978698,1289558.3878549,-4515.2938764659,2706023.0559687,16.869786978698,0,0
-183.65179145129,-51.574832611822,11.674217421742,1289558.3878549,-4515.2938764659,2706023.0559687,16.874217421742,0,0
-183.65179135377,-51.603655516939,11.678647864786,1289558.3878549,-4515.2938764659,2706023.0559687,16.878647864786,0,0
-183.65179125626,-51.632478422056,11.683078307831,1289558.3878549,-4515.2938764659,2706023.0559687,16.883078307831,0,0
-183.65179115874,-51.661301327173,11.687508750875,1289558.3878549,-4515.2938764659,2706023.0559687,16.887508750875,0,0
-183.65179106122,-51.69012423229,11.691939193919,1289558.3878549,-4515.2938764659,2706023.0559687,16.891939193919,0,0
-183.6517909637,-51.718947137407,11.696369636964,1289558.3878549,-4515.2938764659,2706023.0559687,16.896369636964,0,0
-183.65179086618,-51.747770042524,11.700800080008,1289558.3878549,-4515.2938764659,2706023.0559687,16.900800080008,0,0
-183.65179076866,-51.776592947642,11.705230523052,1289558.3878549,-4515.2938764659,2706023.0559687,16.905230523052,0,0
-183.65179067114,-51.805415852759,11.709660966097,1289558.3878549,-4515.2938764659,2706023.0559687,16.909660966097,0,0
-183.65179057362,-51.834238757876,11.714091409141,1289558.3878549,-4515.2938764659,2706023.0559687,16.914091409141,0,0
-183.6517904761,-51.863061662993,11.718521852185,1289558.3878549,-4515.2938764659,2706023.0559687,16.918521852185,0,0
-183.65179037858,-51.89188456811,11.72295229523,1289558.3878549,-4515.2938764659,2706023.0559687,16.92295229523,0,0
-183.65179028107,-51.920707473227,11.727382738274,1289558.3878549,-4515.2938764659,2706023.0559687,16.927382738274,0,0
-183.65179018355,-51.949530378344,11.731813181318,1289558.3878549,-4515.2938764659,2706023.0559687,16.931813181318,0,0
-183.65179008603,-51.978353283461,11.736243624362,1289558.3878549,-4515.2938764659,2706023.0559687,16.936243624362,0,0
-183.65178998851,-52.007176188578,11.740674067407,1289558.3878549,-4515.2938764659,2706023.0559687,16.940674067407,0,0
-183.65178989099,-52.035999093695,11.745104510451,1289558.3878549,-4515.2938764659,2706023.0559687,16.945104510451,0,0
-183.65178979347,-52.064821998812,11.749534953495,1289558.3878549,-4515.2938764659,2706023.0559687,16.949534953495,0,0
-183.65178969595,-52.093644903929,11.75396539654,1289558.3878549,-4515.2938764659,2706023.0559687,16.95396539654,0,0
-183.65178959843,-52.122467809046,11.758395839584,1289558.3878549,-4515.2938764659,2706023.0559687,16.958395839584,0,0
-183.65178950091,-52.151290714163,11.762826282628,1289558.3878549,-4515.2938764659,2706023.0559687,16.962826282628,0,0
-183.65178940339,-52.18011361928,11.767256725673,1289558.3878549,-4515.2938764659,2706023.0559687,16.967256725673,0,0
-183.65178930587,-52.208936524397,11.771687168717,1289558.3878549,-4515.2938764659,2706023.0559687,16.971687168717,0,0
-183.65178920836,-52.237759429515,11.776117611761,1289558.3878549,-4515.2938764659,2706023.0559687,16.976117611761,0,0
-183.65178911084,-52.266582334632,11.780548054805,1289558.3878549,-4515.2938764659,2706023.0559687,16.980548054805,0,0
-183.65178901332,-52.295405239749,11.78497849785,1289558.3878549,-4515.2938764659,2706023.0559687,16.98497849785,0,0
-183.6517889158,-52.324228144866,11.789408940894,1289558.3878549,-4515.2938764659,2706023.0559687,16.989408940894,0,0
-183.65178881828,-52.353051049983,11.793839383938,1289558.3878549,-4515.2938764659,2706023.0559687,16.993839383938,0,0
-183.65178872076,-52.3818739551,11.798269826983,1289558.3878549,-4515.2938764659,2706023.0559687,16.998269826983,0,0
-183.65178862324,-52.410696860217,11.802700270027,1289558.3878549,-4515.2938764659,2706023.0559687,17.002700270027,0,0
-183.65178852572,-52.439519765334,11.807130713071,1289558.3878549,-4515.2938764659,2706023.0559687,17.007130713071,0,0
-183.6517884282,-52.468342670451,11.811561156116,1289558.3878549,-4515.2938764659,2706023.0559687,17.011561156116,0,0
-183.65178833068,-52.497165575568,11.81599159916,1289558.3878549,-4515.2938764659,2706023.0559687,17.01599159916,0,0
-183.65178823316,-52.525988480685,11.820422042204,1289558.3878549,-4515.2938764659,2706023.0559687,17.020422042204,0,0
-183.65178813565,-52.554811385802,11.824852485249,1289558.3878549,-4515.2938764659,2706023.0559687,17.024852485249,0,0
-183.65178803813,-52.583634290919,11.829282928293,1289558.3878549,-4515.2938764659,2706023.0559687,17.029282928293,0,0
-183.65178794061,-52.612457196036,11.833713371337,1289558.3878549,-4515.2938764659,2706023.0559687,17.033713371337,0,0
-183.65178784309,-52.641280101153,11.838143814381,1289558.3878549,-4515.2938764659,2706023.0559687,17.038143814381,0,0
-183.65178774557,-52.67010300627,11.842574257426,1289558.3878549,-4515.2938764659,2706023.0559687,17.042574257426,0,0
-183.65178764805,-52.698925911388,11.84700470047,1289558.3878549,-4515.2938764659,2706023.0559687,17.04700470047,0,0
-183.65178755053,-52.727748816505,11.851435143514,1289558.3878549,-4515.2938764659,2706023.0559687,17.051435143514,0,0
-183.65178745301,-52.756571721622,11.855865586559,1289558.3878549,-4515.2938764659,2706023.0559687,17.055865586559,0,0
-183.65178735549,-52.785394626739,11.860296029603,1289558.3878549,-4515.2938764659,2706023.0559687,17.060296029603,0,0
-183.65178725797,-52.814217531856,11.864726472647,1289558.3878549,-4515.2938764659,2706023.0559687,17.064726472647,0,0
-183.65178716046,-52.843040436973,11.869156915692,1289558.3878549,-4515.2938764659,2706023.0559687,17.069156915692,0,0
-183.65178706294,-52.87186334209,11.873587358736,1289558.3878549,-4515.2938764659,2706023.0559687,17.073587358736,0,0
-183.65178696542,-52.900686247207,11.87801780178,1289558.3878549,-4515.2938764659,2706023.0559687,17.07801780178,0,0
-183.6517868679,-52.929509152324,11.882448244824,1289558.3878549,-4515.2938764659,2706023.0559687,17.082448244824,0,0
-183.65178677038,-52.958332057441,11.886878687869,1289558.3878549,-4515.2938764659,2706023.0559687,17.086878687869,0,0
-183.65178667286,-52.987154962558,11.891309130913,1289558.3878549,-4515.2938764659,2706023.0559687,17.091309130913,0,0
-183.65178657534,-53.015977867675,11.895739573957,1289558.3878549,-4515.2938764659,2706023.0559687,17.095739573957,0,0
-183.65178647782,-53.044800772792,11.900170017002,1289558.3878549,-4515.2938764659,2706023.0559687,17.100170017002,0,0
-183.6517863803,-53.073623677909,11.904600460046,1289558.3878549,-4515.2938764659,2706023.0559687,17.104600460046,0,0
-183.65178628278,-53.102446583026,11.90903090309,1289558.3878549,-4515.2938764659,2706023.0559687,17.10903090309,0,0
-183.65178618526,-53.131269488143,11.913461346135,1289558.3878549,-4515.2938764659,2706023.0559687,17.113461346135,0,0
-183.65178608775,-53.160092393261,11.917891789179,1289558.3878549,-4515.2938764659,2706023.0559687,17.117891789179,0,0
-183.65178599023,-53.188915298378,11.922322232223,1289558.3878549,-4515.2938764659,2706023.0559687,17.122322232223,0,0
-183.65178589271,-53.217738203495,11.926752675268,1289558.3878549,-4515.2938764659,2706023.0559687,17.126752675268,0,0
-183.65178579519,-53.246561108612,11.931183118312,1289558.3878549,-4515.2938764659,2706023.0559687,17.131183118312,0,0
-183.65178569767,-53.275384013729,11.935613561356,1289558.3878549,-4515.2938764659,2706023.0559687,17.135613561356,0,0
-183.65178560015,-53.304206918846,11.9400440044,1289558.3878549,-4515.2938764659,2706023.0559687,17.1400440044,0,0
-183.65178550263,-53.333029823963,11.944474447445,1289558.3878549,-4515.2938764659,2706023.0559687,17.144474447445,0,0
-183.65178540511,-53.36185272908,11.948904890489,1289558.3878549,-4515.2938764659,2706023.0559687,17.148904890489,0,0
-183.65178530759,-53.390675634197,11.953335333533,1289558.3878549,-4515.2938764659,2706023.0559687,17.153335333533,0,0
-183.65178521007,-53.419498539314,11.957765776578,1289558.3878549,-4515.2938764659,2706023.0559687,17.157765776578,0,0
-183.65178511255,-53.448321444431,11.962196219622,1289558.3878549,-4515.2938764659,2706023.0559687,17.162196219622,0,0
-183.65178501504,-53.477144349548,11.966626662666,1289558.3878549,-4515.2938764659,2706023.0559687,17.166626662666,0,0
-183.65178491752,-53.505967254665,11.971057105711,1289558.3878549,-4515.2938764659,2706023.0559687,17.171057105711,0,0
-183.65178482,-53.534790159782,11.975487548755,1289558.3878549,-4515.2938764659,2706023.0559687,17.175487548755,0,0
-183.65178472248,-53.563613064899,11.979917991799,1289558.3878549,-4515.2938764659,2706023.0559687,17.179917991799,0,0
-183.65178462496,-53.592435970016,11.984348434843,1289558.3878549,-4515.2938764659,2706023.0559687,17.184348434843,0,0
-183.65178452744,-53.621258875134,11.988778877888,1289558.3878549,-4515.2938764659,2706023.0559687,17.188778877888,0,0
-183.65178442992,-53.650081780251,11.993209320932,1289558.3878549,-4515.2938764659,2706023.0559687,17.193209320932,0,0
-183.6517843324,-53.678904685368,11.997639763976,1289558.3878549,-4515.2938764659,2706023.0559687,17.197639763976,0,0
-183.65178423488,-53.707727590485,12.002070207021,1289558.3878549,-4515.2938764659,2706023.0559687,17.202070207021,0,0
-183.65178413736,-53.736550495602,12.006500650065,1289558.3878549,-4515.2938764659,2706023.0559687,17.206500650065,0,0
-183.65178403985,-53.765373400719,12.010931093109,1289558.3878549,-4515.2938764659,2706023.0559687,17.210931093109,0,0
-183.65178394233,-53.794196305836,12.015361536154,1289558.3878549,-4515.2938764659,2706023.0559687,17.215361536154,0,0
-183.65178384481,-53.823019210953,12.019791979198,1289558.3878549,-4515.2938764659,2706023.0559687,17.219791979198,0,0
-183.65178374729,-53.85184211607,12.024222422242,1289558.3878549,-4515.2938764659,2706023.0559687,17.224222422242,0,0
-183.65178364977,-53.880665021187,12.028652865287,1289558.3878549,-4515.2938764659,2706023.0559687,17.228652865287,0,0
-183.65178355225,-53.909487926304,12.033083308331,1289558.3878549,-4515.2938764659,2706023.0559687,17.233083308331,0,0
-183.65178345473,-53.938310831421,12.037513751375,1289558.3878549,-4515.2938764659,2706023.0559687,17.237513751375,0,0
-183.65178335721,-53.967133736538,12.041944194419,1289558.3878549,-4515.2938764659,2706023.0559687,17.241944194419,0,0
-183.65178325969,-53.995956641655,12.046374637464,1289558.3878549,-4515.2938764659,2706023.0559687,17.246374637464,0,0
-183.65178316217,-54.024779546772,12.050805080508,1289558.3878549,-4515.2938764659,2706023.0559687,17.250805080508,0,0
-183.65178306465,-54.053602451889,12.055235523552,1289558.3878549,-4515.2938764659,2706023.0559687,17.255235523552,0,0
-183.65178296714,-54.082425357007,12.059665966597,1289558.3878549,-4515.2938764659,2706023.0559687,17.259665966597,0,0
-183.65178286962,-54.111248262124,12.064096409641,1289558.3878549,-4515.2938764659,2706023.0559687,17.264096409641,0,0
-183.6517827721,-54.140071167241,12.068526852685,1289558.3878549,-4515.2938764659,2706023.0559687,17.268526852685,0,0
-183.65178267458,-54.168894072358,12.07295729573,1289558.3878549,-4515.2938764659,2706023.0559687,17.27295729573,0,0
-183.65178257706,-54.197716977475,12.077387738774,1289558.3878549,-4515.2938764659,2706023.0559687,17.277387738774,0,0
-183.65178247954,-54.226539882592,12.081818181818,1289558.3878549,-4515.2938764659,2706023.0559687,17.281818181818,0,0
-183.65178238202,-54.255362787709,12.086248624862,1289558.3878549,-4515.2938764659,2706023.0559687,17.286248624862,0,0
-183.6517822845,-54.284185692826,12.090679067907,1289558.3878549,-4515.2938764659,2706023.0559687,17.290679067907,0,0
-183.65178218698,-54.313008597943,12.095109510951,1289558.3878549,-4515.2938764659,2706023.0559687,17.295109510951,0,0
-183.65178208946,-54.34183150306,12.099539953995,1289558.3878549,-4515.2938764659,2706023.0559687,17.299539953995,0,0
-183.65178199195,-54.370654408177,12.10397039704,1289558.3878549,-4515.2938764659,2706023.0559687,17.30397039704,0,0
-183.65178189443,-54.399477313294,12.108400840084,1289558.3878549,-4515.2938764659,2706023.0559687,17.308400840084,0,0
-183.65178179691,-54.428300218411,12.112831283128,1289558.3878549,-4515.2938764659,2706023.0559687,17.312831283128,0,0
-183.65178169939,-54.457123123528,12.117261726173,1289558.3878549,-4515.2938764659,2706023.0559687,17.317261726173,0,0
-183.65178160187,-54.485946028645,12.121692169217,1289558.3878549,-4515.2938764659,2706023.0559687,17.321692169217,0,0
-183.65178150435,-54.514768933762,12.126122612261,1289558.3878549,-4515.2938764659,2706023.0559687,17.326122612261,0,0
-183.65178140683,-54.54359183888,12.130553055306,1289558.3878549,-4515.2938764659,2706023.0559687,17.330553055306,0,0
-183.65178130931,-54.572414743997,12.13498349835,1289558.3878549,-4515.2938764659,2706023.0559687,17.33498349835,0,0
-183.65178121179,-54.601237649114,12.139413941394,1289558.3878549,-4515.2938764659,2706023.0559687,17.339413941394,0,0
-183.65178111427,-54.630060554231,12.143844384438,1289558.3878549,-4515.2938764659,2706023.0559687,17.343844384438,0,0
-183.65178101675,-54.658883459348,12.148274827483,1289558.3878549,-4515.2938764659,2706023.0559687,17.348274827483,0,0
-183.65178091924,-54.687706364465,12.152705270527,1289558.3878549,-4515.2938764659,2706023.0559687,17.352705270527,0,0
-183.65178082172,-54.716529269582,12.157135713571,1289558.3878549,-4515.2938764659,2706023.0559687,17.357135713571,0,0
-183.6517807242,-54.745352174699,12.161566156616,1289558.3878549,-4515.2938764659,2706023.0559687,17.361566156616,0,0
-183.65178062668,-54.774175079816,12.16599659966,1289558.3878549,-4515.2938764659,2706023.0559687,17.36599659966,0,0
-183.65178052916,-54.802997984933,12.170427042704,1289558.3878549,-4515.2938764659,2706023.0559687,17.370427042704,0,0
-183.65178043164,-54.83182089005,12.174857485749,1289558.3878549,-4515.2938764659,2706023.0559687,17.374857485749,0,0
-183.65178033412,-54.860643795167,12.179287928793,1289558.3878549,-4515.2938764659,2706023.0559687,17.379287928793,0,0
-183.6517802366,-54.889466700284,12.183718371837,1289558.3878549,-4515.2938764659,2706023.0559687,17.383718371837,0,0
-183.65178013908,-54.918289605401,12.188148814881,1289558.3878549,-4515.2938764659,2706023.0559687,17.388148814881,0,0
-183.65178004156,-54.947112510518,12.192579257926,1289558.3878549,-4515.2938764659,2706023.0559687,17.392579257926,0,0
-183.65177994404,-54.975935415635,12.19700970097,1289558.3878549,-4515.2938764659,2706023.0559687,17.39700970097,0,0
-183.65177984653,-55.004758320753,12.201440144014,1289558.3878549,-4515.2938764659,2706023.0559687,17.401440144014,0,0
-183.65177974901,-55.03358122587,12.205870587059,1289558.3878549,-4515.2938764659,2706023.0559687,17.405870587059,0,0
-183.65177965149,-55.062404130987,12.210301030103,1289558.3878549,-4515.2938764659,2706023.0559687,17.410301030103,0,0
-183.65177955397,-55.091227036104,12.214731473147,1289558.3878549,-4515.2938764659,2706023.0559687,17.414731473147,0,0
-183.65177945645,-55.120049941221,12.219161916192,1289558.3878549,-4515.2938764659,2706023.0559687,17.419161916192,0,0
-183.65177935893,-55.148872846338,12.223592359236,1289558.3878549,-4515.2938764659,2706023.0559687,17.423592359236,0,0
-183.65177926141,-55.177695751455,12.22802280228,1289558.3878549,-4515.2938764659,2706023.0559687,17.42802280228,0,0
-183.65177916389,-55.206518656572,12.232453245325,1289558.3878549,-4515.2938764659,2706023.0559687,17.432453245325,0,0
-183.65177906637,-55.235341561689,12.236883688369,1289558.3878549,-4515.2938764659,2706023.0559687,17.436883688369,0,0
-183.65177896885,-55.264164466806,12.241314131413,1289558.3878549,-4515.2938764659,2706023.0559687,17.441314131413,0,0
-183.65177887134,-55.292987371923,12.245744574457,1289558.3878549,-4515.2938764659,2706023.0559687,17.445744574457,0,0
-183.65177877382,-55.32181027704,12.250175017502,1289558.3878549,-4515.2938764659,2706023.0559687,17.450175017502,0,0
-183.6517786763,-55.350633182157,12.254605460546,1289558.3878549,-4515.2938764659,2706023.0559687,17.454605460546,0,0
-183.65177857878,-55.379456087274,12.25903590359,1289558.3878549,-4515.2938764659,2706023.0559687,17.45903590359,0,0
-183.65177848126,-55.408278992391,12.263466346635,1289558.3878549,-4515.2938764659,2706023.0559687,17.463466346635,0,0
-183.65177838374,-55.437101897508,12.267896789679,1289558.3878549,-4515.2938764659,2706023.0559687,17.467896789679,0,0
-183.65177828622,-55.465924802626,12.272327232723,1289558.3878549,-4515.2938764659,2706023.0559687,17.472327232723,0,0
-183.6517781887,-55.494747707743,12.276757675768,1289558.3878549,-4515.2938764659,2706023.0559687,17.476757675768,0,0
-183.65177809118,-55.52357061286,12.281188118812,1289558.3878549,-4515.2938764659,2706023.0559687,17.481188118812,0,0
-183.65177799366,-55.552393517977,12.285618561856,1289558.3878549,-4515.2938764659,2706023.0559687,17.485618561856,0,0
-183.65177789614,-55.581216423094,12.2900490049,1289558.3878549,-4515.2938764659,2706023.0559687,17.4900490049,0,0
-183.65177779863,-55.610039328211,12.294479447945,1289558.3878549,-4515.2938764659,2706023.0559687,17.494479447945,0,0
-183.65177770111,-55.638862233328,12.298909890989,1289558.3878549,-4515.2938764659,2706023.0559687,17.498909890989,0,0
-183.65177760359,-55.667685138445,12.303340334033,1289558.3878549,-4515.2938764659,2706023.0559687,17.503340334033,0,0
-183.65177750607,-55.696508043562,12.307770777078,1289558.3878549,-4515.2938764659,2706023.0559687,17.507770777078,0,0
-183.65177740855,-55.725330948679,12.312201220122,1289558.3878549,-4515.2938764659,2706023.0559687,17.512201220122,0,0
-183.65177731103,-55.754153853796,12.316631663166,1289558.3878549,-4515.2938764659,2706023.0559687,17.516631663166,0,0
-183.65177721351,-55.782976758442,12.321062106211,1286112.0774505,2949.8765843527,2695262.6951061,17.521062106211,0,0
-183.65177711598,-55.811799661963,12.325492549255,1286112.0774505,2949.8765843527,2695262.6951061,17.525492549255,0,0
-183.65177701845,-55.840622565485,12.329922992299,1286112.0774505,2949.8765843527,2695262.6951061,17.529922992299,0,0
-183.65177692092,-55.869445469006,12.334353435344,1286112.0774505,2949.8765843527,2695262.6951061,17.534353435344,0,0
-183.65177682339,-55.898268372528,12.338783878388,1286112.0774505,2949.8765843527,2695262.6951061,17.538783878388,0,0
-183.65177672586,-55.927091276049,12.343214321432,1286112.0774505,2949.8765843527,2695262.6951061,17.543214321432,0,0
-183.65177662833,-55.955914179571,12.347644764476,1286112.0774505,2949.8765843527,2695262.6951061,17.547644764476,0,0
-183.6517765308,-55.984737083093,12.352075207521,1286112.0774505,2949.8765843527,2695262.6951061,17.552075207521,0,0
-183.65177643327,-56.013559986614,12.356505650565,1286112.0774505,2949.8765843527,2695262.6951061,17.556505650565,0,0
-183.65177633574,-56.042382890136,12.360936093609,1286112.0774505,2949.8765843527,2695262.6951061,17.560936093609,0,0
-183.65177623821,-56.071205793657,12.365366536654,1286112.0774505,2949.8765843527,2695262.6951061,17.565366536654,0,0
-183.65177614067,-56.100028697179,12.369796979698,1286112.0774505,2949.8765843527,2695262.6951061,17.569796979698,0,0
-183.65177604314,-56.1288516007,12.374227422742,1286112.0774505,2949.8765843527,2695262.6951061,17.574227422742,0,0
-183.65177594561,-56.157674504222,12.378657865787,1286112.0774505,2949.8765843527,2695262.6951061,17.578657865787,0,0
-183.65177584808,-56.186497407744,12.383088308831,1286112.0774505,2949.8765843527,2695262.6951061,17.583088308831,0,0
-183.65177575055,-56.215320311265,12.387518751875,1286112.0774505,2949.8765843527,2695262.6951061,17.587518751875,0,0
-183.65177565302,-56.244143214787,12.391949194919,1286112.0774505,2949.8765843527,2695262.6951061,17.591949194919,0,0
-183.65177555549,-56.272966118308,12.396379637964,1286112.0774505,2949.8765843527,2695262.6951061,17.596379637964,0,0
-183.65177545796,-56.30178902183,12.400810081008,1286112.0774505,2949.8765843527,2695262.6951061,17.600810081008,0,0
-183.65177536043,-56.330611925351,12.405240524052,1286112.0774505,2949.8765843527,2695262.6951061,17.605240524052,0,0
-183.6517752629,-56.359434828873,12.409670967097,1286112.0774505,2949.8765843527,2695262.6951061,17.609670967097,0,0
-183.65177516537,-56.388257732395,12.414101410141,1286112.0774505,2949.8765843527,2695262.6951061,17.614101410141,0,0
-183.65177506784,-56.417080635916,12.418531853185,1286112.0774505,2949.8765843527,2695262.6951061,17.618531853185,0,0
-183.65177497031,-56.445903539438,12.42296229623,1286112.0774505,2949.8765843527,2695262.6951061,17.62296229623,0,0
-183.65177487278,-56.474726442959,12.427392739274,1286112.0774505,2949.8765843527,2695262.6951061,17.627392739274,0,0
-183.65177477525,-56.503549346481,12.431823182318,1286112.0774505,2949.8765843527,2695262.6951061,17.631823182318,0,0
-183.65177467772,-56.532372250002,12.436253625363,1286112.0774505,2949.8765843527,2695262.6951061,17.636253625363,0,0
-183.65177458019,-56.561195153524,12.440684068407,1286112.0774505,2949.8765843527,2695262.6951061,17.640684068407,0,0
-183.65177448266,-56.590018057045,12.445114511451,1286112.0774505,2949.8765843527,2695262.6951061,17.645114511451,0,0
-183.65177438513,-56.618840960567,12.449544954495,1286112.0774505,2949.8765843527,2695262.6951061,17.649544954495,0,0
-183.6517742876,-56.647663864089,12.45397539754,1286112.0774505,2949.8765843527,2695262.6951061,17.65397539754,0,0
-183.65177419007,-56.67648676761,12.458405840584,1286112.0774505,2949.8765843527,2695262.6951061,17.658405840584,0,0
-183.65177409254,-56.705309671132,12.462836283628,1286112.0774505,2949.8765843527,2695262.6951061,17.662836283628,0,0
-183.65177399501,-56.734132574653,12.467266726673,1286112.0774505,2949.8765843527,2695262.6951061,17.667266726673,0,0
-183.65177389748,-56.762955478175,12.471697169717,1286112.0774505,2949.8765843527,2695262.6951061,17.671697169717,0,0
-183.65177379995,-56.791778381696,12.476127612761,1286112.0774505,2949.8765843527,2695262.6951061,17.676127612761,0,0
-183.65177370242,-56.820601285218,12.480558055806,1286112.0774505,2949.8765843527,2695262.6951061,17.680558055806,0,0
-183.65177360489,-56.84942418874,12.48498849885,1286112.0774505,2949.8765843527,2695262.6951061,17.68498849885,0,0
-183.65177350736,-56.878247092261,12.489418941894,1286112.0774505,2949.8765843527,2695262.6951061,17.689418941894,0,0
-183.65177340983,-56.907069995783,12.493849384938,1286112.0774505,2949.8765843527,2695262.6951061,17.693849384938,0,0
-183.6517733123,-56.935892899304,12.498279827983,1286112.0774505,2949.8765843527,2695262.6951061,17.698279827983,0,0
-183.65177321477,-56.964715802826,12.502710271027,1286112.0774505,2949.8765843527,2695262.6951061,17.702710271027,0,0
-183.65177311724,-56.993538706347,12.507140714071,1286112.0774505,2949.8765843527,2695262.6951061,17.707140714071,0,0
-183.65177301971,-57.022361609869,12.511571157116,1286112.0774505,2949.8765843527,2695262.6951061,17.711571157116,0,0
-183.65177292218,-57.051184513391,12.51600160016,1286112.0774505,2949.8765843527,2695262.6951061,17.71600160016,0,0
-183.65177282465,-57.080007416912,12.520432043204,1286112.0774505,2949.8765843527,2695262.6951061,17.720432043204,0,0
-183.65177272711,-57.108830320434,12.524862486249,1286112.0774505,2949.8765843527,2695262.6951061,17.724862486249,0,0
-183.65177262958,-57.137653223955,12.529292929293,1286112.0774505,2949.8765843527,2695262.6951061,17.729292929293,0,0
-183.65177253205,-57.166476127477,12.533723372337,1286112.0774505,2949.8765843527,2695262.6951061,17.733723372337,0,0
-183.65177243452,-57.195299030998,12.538153815382,1286112.0774505,2949.8765843527,2695262.6951061,17.738153815382,0,0
-183.65177233699,-57.22412193452,12.542584258426,1286112.0774505,2949.8765843527,2695262.6951061,17.742584258426,0,0
-183.65177223946,-57.252944838042,12.54701470147,1286112.0774505,2949.8765843527,2695262.6951061,17.74701470147,0,0
-183.65177214193,-57.281767741563,12.551445144514,1286112.0774505,2949.8765843527,2695262.6951061,17.751445144514,0,0
-183.6517720444,-57.310590645085,12.555875587559,1286112.0774505,2949.8765843527,2695262.6951061,17.755875587559,0,0
-183.65177194687,-57.339413548606,12.560306030603,1286112.0774505,2949.8765843527,2695262.6951061,17.760306030603,0,0
-183.65177184934,-57.368236452128,12.564736473647,1286112.0774505,2949.8765843527,2695262.6951061,17.764736473647,0,0
-183.65177175181,-57.397059355649,12.569166916692,1286112.0774505,2949.8765843527,2695262.6951061,17.769166916692,0,0
-183.65177165428,-57.425882259171,12.573597359736,1286112.0774505,2949.8765843527,2695262.6951061,17.773597359736,0,0
-183.65177155675,-57.454705162692,12.57802780278,1286112.0774505,2949.8765843527,2695262.6951061,17.77802780278,0,0
-183.65177145922,-57.483528066214,12.582458245825,1286112.0774505,2949.8765843527,2695262.6951061,17.782458245825,0,0
-183.65177136169,-57.512350969736,12.586888688869,1286112.0774505,2949.8765843527,2695262.6951061,17.786888688869,0,0
-183.65177126416,-57.541173873257,12.591319131913,1286112.0774505,2949.8765843527,2695262.6951061,17.791319131913,0,0
-183.65177116663,-57.569996776779,12.595749574957,1286112.0774505,2949.8765843527,2695262.6951061,17.795749574957,0,0
-183.6517710691,-57.5988196803,12.600180018002,1286112.0774505,2949.8765843527,2695262.6951061,17.800180018002,0,0
-183.65177097157,-57.627642583822,12.604610461046,1286112.0774505,2949.8765843527,2695262.6951061,17.804610461046,0,0
-183.65177087404,-57.656465487343,12.60904090409,1286112.0774505,2949.8765843527,2695262.6951061,17.80904090409,0,0
-183.65177077651,-57.685288390865,12.613471347135,1286112.0774505,2949.8765843527,2695262.6951061,17.813471347135,0,0
-183.65177067898,-57.714111294387,12.617901790179,1286112.0774505,2949.8765843527,2695262.6951061,17.817901790179,0,0
-183.65177058145,-57.742934197908,12.622332233223,1286112.0774505,2949.8765843527,2695262.6951061,17.822332233223,0,0
-183.65177048392,-57.77175710143,12.626762676268,1286112.0774505,2949.8765843527,2695262.6951061,17.826762676268,0,0
-183.65177038639,-57.800580004951,12.631193119312,1286112.0774505,2949.8765843527,2695262.6951061,17.831193119312,0,0
-183.65177028886,-57.829402908473,12.635623562356,1286112.0774505,2949.8765843527,2695262.6951061,17.835623562356,0,0
-183.65177019133,-57.858225811994,12.640054005401,1286112.0774505,2949.8765843527,2695262.6951061,17.840054005401,0,0
-183.6517700938,-57.887048715516,12.644484448445,1286112.0774505,2949.8765843527,2695262.6951061,17.844484448445,0,0
-183.65176999627,-57.915871619038,12.648914891489,1286112.0774505,2949.8765843527,2695262.6951061,17.848914891489,0,0
-183.65176989874,-57.944694522559,12.653345334533,1286112.0774505,2949.8765843527,2695262.6951061,17.853345334533,0,0
-183.65176980121,-57.973517426081,12.657775777578,1286112.0774505,2949.8765843527,2695262.6951061,17.857775777578,0,0
-183.65176970368,-58.002340329602,12.662206220622,1286112.0774505,2949.8765843527,2695262.6951061,17.862206220622,0,0
-183.65176960615,-58.031163233124,12.666636663666,1286112.0774505,2949.8765843527,2695262.6951061,17.866636663666,0,0
-183.65176950862,-58.059986136645,12.671067106711,1286112.0774505,2949.8765843527,2695262.6951061,17.871067106711,0,0
-183.65176941109,-58.088809040167,12.675497549755,1286112.0774505,2949.8765843527,2695262.6951061,17.875497549755,0,0
-183.65176931356,-58.117631943689,12.679927992799,1286112.0774505,2949.8765843527,2695262.6951061,17.879927992799,0,0
-183.65176921602,-58.14645484721,12.684358435844,1286112.0774505,2949.8765843527,2695262.6951061,17.884358435844,0,0
-183.65176911849,-58.175277750732,12.688788878888,1286112.0774505,2949.8765843527,2695262.6951061,17.888788878888,0,0
-183.65176902096,-58.204100654253,12.693219321932,1286112.0774505,2949.8765843527,2695262.6951061,17.893219321932,0,0
-183.65176892343,-58.232923557775,12.697649764976,1286112.0774505,2949.8765843527,2695262.6951061,17.897649764976,0,0
-183.6517688259,-58.261746461296,12.702080208021,1286112.0774505,2949.8765843527,2695262.6951061,17.902080208021,0,0
-183.65176872837,-58.290569364818,12.706510651065,1286112.0774505,2949.8765843527,2695262.6951061,17.906510651065,0,0
-183.65176863084,-58.319392268339,12.710941094109,1286112.0774505,2949.8765843527,2695262.6951061,17.910941094109,0,0
-183.65176853331,-58.348215171861,12.715371537154,1286112.0774505,2949.8765843527,2695262.6951061,17.915371537154,0,0
-183.65176843578,-58.377038075383,12.719801980198,1286112.0774505,2949.8765843527,2695262.6951061,17.919801980198,0,0
-183.65176833825,-58.405860978904,12.724232423242,1286112.0774505,2949.8765843527,2695262.6951061,17.924232423242,0,0
-183.65176824072,-58.434683882426,12.728662866287,1286112.0774505,2949.8765843527,2695262.6951061,17.928662866287,0,0
-183.65176814319,-58.463506785947,12.733093309331,1286112.0774505,2949.8765843527,2695262.6951061,17.933093309331,0,0
-183.65176804566,-58.492329689469,12.737523752375,1286112.0774505,2949.8765843527,2695262.6951061,17.937523752375,0,0
-183.65176794801,-58.521152593646,12.74195419542,1285318.6874611,-3633.7169785839,2681760.715335,17.94195419542,0,0
-183.65176785018,-58.549975498765,12.746384638464,1285318.6874611,-3633.7169785839,2681760.715335,17.946384638464,0,0
-183.65176775236,-58.578798403885,12.750815081508,1285318.6874611,-3633.7169785839,2681760.715335,17.950815081508,0,0
-183.65176765453,-58.607621309005,12.755245524552,1285318.6874611,-3633.7169785839,2681760.715335,17.955245524552,0,0
-183.6517675567,-58.636444214125,12.759675967597,1285318.6874611,-3633.7169785839,2681760.715335,17.959675967597,0,0
-183.65176745888,-58.665267119245,12.764106410641,1285318.6874611,-3633.7169785839,2681760.715335,17.964106410641,0,0
-183.65176736105,-58.694090024364,12.768536853685,1285318.6874611,-3633.7169785839,2681760.715335,17.968536853685,0,0
-183.65176726322,-58.722912929484,12.77296729673,1285318.6874611,-3633.7169785839,2681760.715335,17.97296729673,0,0
-183.6517671654,-58.751735834604,12.777397739774,1285318.6874611,-3633.7169785839,2681760.715335,17.977397739774,0,0
-183.65176706757,-58.780558739724,12.781828182818,1285318.6874611,-3633.7169785839,2681760.715335,17.981828182818,0,0
-183.65176696975,-58.809381644844,12.786258625863,1285318.6874611,-3633.7169785839,2681760.715335,17.986258625863,0,0
-183.65176687192,-58.838204549963,12.790689068907,1285318.6874611,-3633.7169785839,2681760.715335,17.990689068907,0,0
-183.65176677409,-58.867027455083,12.795119511951,1285318.6874611,-3633.7169785839,2681760.715335,17.995119511951,0,0
-183.65176667627,-58.895850360203,12.799549954995,1285318.6874611,-3633.7169785839,2681760.715335,17.999549954995,0,0
-183.65176657844,-58.924673265323,12.80398039804,1285318.6874611,-3633.7169785839,2681760.715335,18.00398039804,0,0
-183.65176648061,-58.953496170443,12.808410841084,1285318.6874611,-3633.7169785839,2681760.715335,18.008410841084,0,0
-183.65176638279,-58.982319075562,12.812841284128,1285318.6874611,-3633.7169785839,2681760.715335,18.012841284128,0,0
-183.65176628496,-59.011141980682,12.817271727173,1285318.6874611,-3633.7169785839,2681760.715335,18.017271727173,0,0
-183.65176618713,-59.039964885802,12.821702170217,1285318.6874611,-3633.7169785839,2681760.715335,18.021702170217,0,0
-183.65176608931,-59.068787790922,12.826132613261,1285318.6874611,-3633.7169785839,2681760.715335,18.026132613261,0,0
-183.65176599148,-59.097610696042,12.830563056306,1285318.6874611,-3633.7169785839,2681760.715335,18.030563056306,0,0
-183.65176589366,-59.126433601161,12.83499349935,1285318.6874611,-3633.7169785839,2681760.715335,18.03499349935,0,0
-183.65176579583,-59.155256506281,12.839423942394,1285318.6874611,-3633.7169785839,2681760.715335,18.039423942394,0,0
-183.651765698,-59.184079411401,12.843854385439,1285318.6874611,-3633.7169785839,2681760.715335,18.043854385439,0,0
-183.65176560018,-59.212902316521,12.848284828483,1285318.6874611,-3633.7169785839,2681760.715335,18.048284828483,0,0
-183.65176550235,-59.241725221641,12.852715271527,1285318.6874611,-3633.7169785839,2681760.715335,18.052715271527,0,0
-183.65176540452,-59.27054812676,12.857145714571,1285318.6874611,-3633.7169785839,2681760.715335,18.057145714571,0,0
-183.6517653067,-59.29937103188,12.861576157616,1285318.6874611,-3633.7169785839,2681760.715335,18.061576157616,0,0
-183.65176520887,-59.328193937,12.86600660066,1285318.6874611,-3633.7169785839,2681760.715335,18.06600660066,0,0
-183.65176511104,-59.35701684212,12.870437043704,1285318.6874611,-3633.7169785839,2681760.715335,18.070437043704,0,0
-183.65176501322,-59.385839747239,12.874867486749,1285318.6874611,-3633.7169785839,2681760.715335,18.074867486749,0,0
-183.65176491539,-59.414662652359,12.879297929793,1285318.6874611,-3633.7169785839,2681760.715335,18.079297929793,0,0
-183.65176481756,-59.443485557479,12.883728372837,1285318.6874611,-3633.7169785839,2681760.715335,18.083728372837,0,0
-183.65176471974,-59.472308462599,12.888158815882,1285318.6874611,-3633.7169785839,2681760.715335,18.088158815882,0,0
-183.65176462191,-59.501131367719,12.892589258926,1285318.6874611,-3633.7169785839,2681760.715335,18.092589258926,0,0
-183.65176452409,-59.529954272838,12.89701970197,1285318.6874611,-3633.7169785839,2681760.715335,18.09701970197,0,0
-183.65176442626,-59.558777177958,12.901450145015,1285318.6874611,-3633.7169785839,2681760.715335,18.101450145014,0,0
-183.65176432843,-59.587600083078,12.905880588059,1285318.6874611,-3633.7169785839,2681760.715335,18.105880588059,0,0
-183.65176423061,-59.616422988198,12.910311031103,1285318.6874611,-3633.7169785839,2681760.715335,18.110311031103,0,0
-183.65176413278,-59.645245893318,12.914741474147,1285318.6874611,-3633.7169785839,2681760.715335,18.114741474147,0,0
-183.65176403495,-59.674068798437,12.919171917192,1285318.6874611,-3633.7169785839,2681760.715335,18.119171917192,0,0
-183.65176393713,-59.702891703557,12.923602360236,1285318.6874611,-3633.7169785839,2681760.715335,18.123602360236,0,0
-183.6517638393,-59.731714608677,12.92803280328,1285318.6874611,-3633.7169785839,2681760.715335,18.12803280328,0,0
-183.65176374147,-59.760537513797,12.932463246325,1285318.6874611,-3633.7169785839,2681760.715335,18.132463246325,0,0
-183.65176364365,-59.789360418917,12.936893689369,1285318.6874611,-3633.7169785839,2681760.715335,18.136893689369,0,0
-183.65176354582,-59.818183324036,12.941324132413,1285318.6874611,-3633.7169785839,2681760.715335,18.141324132413,0,0
-183.651763448,-59.847006229156,12.945754575458,1285318.6874611,-3633.7169785839,2681760.715335,18.145754575458,0,0
-183.65176335017,-59.875829134276,12.950185018502,1285318.6874611,-3633.7169785839,2681760.715335,18.150185018502,0,0
-183.65176325234,-59.904652039396,12.954615461546,1285318.6874611,-3633.7169785839,2681760.715335,18.154615461546,0,0
-183.65176315452,-59.933474944516,12.95904590459,1285318.6874611,-3633.7169785839,2681760.715335,18.15904590459,0,0
-183.65176305669,-59.962297849635,12.963476347635,1285318.6874611,-3633.7169785839,2681760.715335,18.163476347635,0,0
-183.65176295886,-59.991120754755,12.967906790679,1285318.6874611,-3633.7169785839,2681760.715335,18.167906790679,0,0
-183.65176286104,-60.019943659875,12.972337233723,1285318.6874611,-3633.7169785839,2681760.715335,18.172337233723,0,0
-183.65176276321,-60.048766564995,12.976767676768,1285318.6874611,-3633.7169785839,2681760.715335,18.176767676768,0,0
-183.65176266538,-60.077589470115,12.981198119812,1285318.6874611,-3633.7169785839,2681760.715335,18.181198119812,0,0
-183.65176256756,-60.106412375234,12.985628562856,1285318.6874611,-3633.7169785839,2681760.715335,18.185628562856,0,0
-183.65176246973,-60.135235280354,12.990059005901,1285318.6874611,-3633.7169785839,2681760.715335,18.190059005901,0,0
-183.6517623719,-60.164058185474,12.994489448945,1285318.6874611,-3633.7169785839,2681760.715335,18.194489448945,0,0
-183.65176227408,-60.192881090594,12.998919891989,1285318.6874611,-3633.7169785839,2681760.715335,18.198919891989,0,0
-183.65176217625,-60.221703995714,13.003350335034,1285318.6874611,-3633.7169785839,2681760.715335,18.203350335034,0,0
-183.65176207843,-60.250526900833,13.007780778078,1285318.6874611,-3633.7169785839,2681760.715335,18.207780778078,0,0
-183.6517619806,-60.279349805953,13.012211221122,1285318.6874611,-3633.7169785839,2681760.715335,18.212211221122,0,0
-183.65176188277,-60.308172711073,13.016641664166,1285318.6874611,-3633.7169785839,2681760.715335,18.216641664166,0,0
-183.65176178495,-60.336995616193,13.021072107211,1285318.6874611,-3633.7169785839,2681760.715335,18.221072107211,0,0
-183.65176168712,-60.365818521312,13.025502550255,1285318.6874611,-3633.7169785839,2681760.715335,18.225502550255,0,0
-183.65176158929,-60.394641426432,13.029932993299,1285318.6874611,-3633.7169785839,2681760.715335,18.229932993299,0,0
-183.65176149147,-60.423464331552,13.034363436344,1285318.6874611,-3633.7169785839,2681760.715335,18.234363436344,0,0
-183.65176139364,-60.452287236672,13.038793879388,1285318.6874611,-3633.7169785839,2681760.715335,18.238793879388,0,0
-183.65176129581,-60.481110141792,13.043224322432,1285318.6874611,-3633.7169785839,2681760.715335,18.243224322432,0,0
-183.65176119799,-60.509933046911,13.047654765477,1285318.6874611,-3633.7169785839,2681760.715335,18.247654765477,0,0
-183.65176110016,-60.538755952031,13.052085208521,1285318.6874611,-3633.7169785839,2681760.715335,18.252085208521,0,0
-183.65176100234,-60.567578857151,13.056515651565,1285318.6874611,-3633.7169785839,2681760.715335,18.256515651565,0,0
-183.65176090451,-60.596401762271,13.060946094609,1285318.6874611,-3633.7169785839,2681760.715335,18.260946094609,0,0
-183.65176080668,-60.625224667391,13.065376537654,1285318.6874611,-3633.7169785839,2681760.715335,18.265376537654,0,0
-183.65176070886,-60.65404757251,13.069806980698,1285318.6874611,-3633.7169785839,2681760.715335,18.269806980698,0,0
-183.65176061103,-60.68287047763,13.074237423742,1285318.6874611,-3633.7169785839,2681760.715335,18.274237423742,0,0
-183.6517605132,-60.71169338275,13.078667866787,1285318.6874611,-3633.7169785839,2681760.715335,18.278667866787,0,0
-183.65176041538,-60.74051628787,13.083098309831,1285318.6874611,-3633.7169785839,2681760.715335,18.283098309831,0,0
-183.65176031755,-60.76933919299,13.087528752875,1285318.6874611,-3633.7169785839,2681760.715335,18.287528752875,0,0
-183.65176021972,-60.798162098109,13.09195919592,1285318.6874611,-3633.7169785839,2681760.715335,18.29195919592,0,0
-183.6517601219,-60.826985003229,13.096389638964,1285318.6874611,-3633.7169785839,2681760.715335,18.296389638964,0,0
-183.65176002407,-60.855807908349,13.100820082008,1285318.6874611,-3633.7169785839,2681760.715335,18.300820082008,0,0
-183.65175992624,-60.884630813469,13.105250525053,1285318.6874611,-3633.7169785839,2681760.715335,18.305250525053,0,0
-183.65175982842,-60.913453718589,13.109680968097,1285318.6874611,-3633.7169785839,2681760.715335,18.309680968097,0,0
-183.65175973059,-60.942276623708,13.114111411141,1285318.6874611,-3633.7169785839,2681760.715335,18.314111411141,0,0
-183.65175963277,-60.971099528828,13.118541854185,1285318.6874611,-3633.7169785839,2681760.715335,18.318541854185,0,0
-183.65175953494,-60.999922433948,13.12297229723,1285318.6874611,-3633.7169785839,2681760.715335,18.32297229723,0,0
-183.65175943711,-61.028745339068,13.127402740274,1285318.6874611,-3633.7169785839,2681760.715335,18.327402740274,0,0
-183.65175933929,-61.057568244188,13.131833183318,1285318.6874611,-3633.7169785839,2681760.715335,18.331833183318,0,0
-183.65175924146,-61.086391149307,13.136263626363,1285318.6874611,-3633.7169785839,2681760.715335,18.336263626363,0,0
-183.65175914363,-61.115214054427,13.140694069407,1285318.6874611,-3633.7169785839,2681760.715335,18.340694069407,0,0
-183.65175904581,-61.144036959547,13.145124512451,1285318.6874611,-3633.7169785839,2681760.715335,18.345124512451,0,0
-183.65175894798,-61.172859864667,13.149554955496,1285318.6874611,-3633.7169785839,2681760.715335,18.349554955496,0,0
-183.65175885015,-61.201682769786,13.15398539854,1285318.6874611,-3633.7169785839,2681760.715335,18.35398539854,0,0
-183.65175875233,-61.230505674906,13.158415841584,1285318.6874611,-3633.7169785839,2681760.715335,18.358415841584,0,0
-183.6517586545,-61.259328580026,13.162846284628,1285318.6874611,-3633.7169785839,2681760.715335,18.362846284628,0,0
-183.65175855668,-61.288151485146,13.167276727673,1285318.6874611,-3633.7169785839,2681760.715335,18.367276727673,0,0
-183.65175845885,-61.316974390266,13.171707170717,1285318.6874611,-3633.7169785839,2681760.715335,18.371707170717,0,0
-183.65175836102,-61.345797295385,13.176137613761,1285318.6874611,-3633.7169785839,2681760.715335,18.376137613761,0,0
-183.6517582632,-61.374620200505,13.180568056806,1285318.6874611,-3633.7169785839,2681760.715335,18.380568056806,0,0
-183.65175816537,-61.403443105625,13.18499849985,1285318.6874611,-3633.7169785839,2681760.715335,18.38499849985,0,0
-183.65175806754,-61.432266010745,13.189428942894,1285318.6874611,-3633.7169785839,2681760.715335,18.389428942894,0,0
-183.65175796972,-61.461088915865,13.193859385939,1285318.6874611,-3633.7169785839,2681760.715335,18.393859385939,0,0
-183.65175787189,-61.489911820984,13.198289828983,1285318.6874611,-3633.7169785839,2681760.715335,18.398289828983,0,0
-183.65175777406,-61.518734726104,13.202720272027,1285318.6874611,-3633.7169785839,2681760.715335,18.402720272027,0,0
-183.65175767624,-61.547557631224,13.207150715072,1285318.6874611,-3633.7169785839,2681760.715335,18.407150715072,0,0
-183.65175757841,-61.576380536344,13.211581158116,1285318.6874611,-3633.7169785839,2681760.715335,18.411581158116,0,0
-183.65175748058,-61.605203441464,13.21601160116,1285318.6874611,-3633.7169785839,2681760.715335,18.41601160116,0,0
-183.65175738276,-61.634026346583,13.220442044204,1285318.6874611,-3633.7169785839,2681760.715335,18.420442044204,0,0
-183.65175728493,-61.662849251703,13.224872487249,1285318.6874611,-3633.7169785839,2681760.715335,18.424872487249,0,0
-183.65175718711,-61.691672156823,13.229302930293,1285318.6874611,-3633.7169785839,2681760.715335,18.429302930293,0,0
-183.65175708928,-61.720495061943,13.233733373337,1285318.6874611,-3633.7169785839,2681760.715335,18.433733373337,0,0
-183.65175699145,-61.749317967063,13.238163816382,1285318.6874611,-3633.7169785839,2681760.715335,18.438163816382,0,0
-183.65175689363,-61.778140872182,13.242594259426,1285318.6874611,-3633.7169785839,2681760.715335,18.442594259426,0,0
-183.6517567958,-61.806963777302,13.24702470247,1285318.6874611,-3633.7169785839,2681760.715335,18.44702470247,0,0
-183.65175669797,-61.835786682422,13.251455145515,1285318.6874611,-3633.7169785839,2681760.715335,18.451455145515,0,0
-183.65175660015,-61.864609587542,13.255885588559,1285318.6874611,-3633.7169785839,2681760.715335,18.455885588559,0,0
-183.65175650232,-61.893432492662,13.260316031603,1285318.6874611,-3633.7169785839,2681760.715335,18.460316031603,0,0
-183.65175640449,-61.922255397781,13.264746474647,1285318.6874611,-3633.7169785839,2681760.715335,18.464746474647,0,0
-183.65175630667,-61.951078302901,13.269176917692,1285318.6874611,-3633.7169785839,2681760.715335,18.469176917692,0,0
-183.65175620884,-61.979901208021,13.273607360736,1285318.6874611,-3633.7169785839,2681760.715335,18.473607360736,0,0
-183.65175611102,-62.008724113141,13.27803780378,1285318.6874611,-3633.7169785839,2681760.715335,18.47803780378,0,0
-183.65175601319,-62.037547018261,13.282468246825,1285318.6874611,-3633.7169785839,2681760.715335,18.482468246825,0,0
-183.65175591536,-62.06636992338,13.286898689869,1285318.6874611,-3633.7169785839,2681760.715335,18.486898689869,0,0
-183.65175581754,-62.0951928285,13.291329132913,1285318.6874611,-3633.7169785839,2681760.715335,18.491329132913,0,0
-183.65175571971,-62.12401573362,13.295759575958,1285318.6874611,-3633.7169785839,2681760.715335,18.495759575958,0,0
-183.65175562188,-62.15283863874,13.300190019002,1285318.6874611,-3633.7169785839,2681760.715335,18.500190019002,0,0
-183.65175552406,-62.18166154386,13.304620462046,1285318.6874611,-3633.7169785839,2681760.715335,18.504620462046,0,0
-183.65175542623,-62.210484448979,13.309050905091,1285318.6874611,-3633.7169785839,2681760.715335,18.509050905091,0,0
-183.6517553284,-62.239307354099,13.313481348135,1285318.6874611,-3633.7169785839,2681760.715335,18.513481348135,0,0
-183.65175523058,-62.268130259219,13.317911791179,1285318.6874611,-3633.7169785839,2681760.715335,18.517911791179,0,0
-183.65175513275,-62.296953164339,13.322342234223,1285318.6874611,-3633.7169785839,2681760.715335,18.522342234223,0,0
-183.65175503492,-62.325776069458,13.326772677268,1285318.6874611,-3633.7169785839,2681760.715335,18.526772677268,0,0
-183.6517549371,-62.354598974578,13.331203120312,1285318.6874611,-3633.7169785839,2681760.715335,18.531203120312,0,0
-183.65175483927,-62.383421879698,13.335633563356,1285318.6874611,-3633.7169785839,2681760.715335,18.535633563356,0,0
-183.65175474145,-62.412244784818,13.340064006401,1285318.6874611,-3633.7169785839,2681760.715335,18.540064006401,0,0
-183.65175464362,-62.441067689938,13.344494449445,1285318.6874611,-3633.7169785839,2681760.715335,18.544494449445,0,0
-183.65175454579,-62.469890595057,13.348924892489,1285318.6874611,-3633.7169785839,2681760.715335,18.548924892489,0,0
-183.65175444797,-62.498713500177,13.353355335534,1285318.6874611,-3633.7169785839,2681760.715335,18.553355335534,0,0
-183.65175435014,-62.527536405297,13.357785778578,1285318.6874611,-3633.7169785839,2681760.715335,18.557785778578,0,0
-183.65175425231,-62.556359310417,13.362216221622,1285318.6874611,-3633.7169785839,2681760.715335,18.562216221622,0,0
-183.65175415449,-62.585182215537,13.366646664666,1285318.6874611,-3633.7169785839,2681760.715335,18.566646664666,0,0
-183.65175405666,-62.614005120656,13.371077107711,1285318.6874611,-3633.7169785839,2681760.715335,18.571077107711,0,0
-183.65175395883,-62.642828025776,13.375507550755,1285318.6874611,-3633.7169785839,2681760.715335,18.575507550755,0,0
-183.65175386101,-62.671650930896,13.379937993799,1285318.6874611,-3633.7169785839,2681760.715335,18.579937993799,0,0
-183.65175376318,-62.700473836016,13.384368436844,1285318.6874611,-3633.7169785839,2681760.715335,18.584368436844,0,0
-183.65175366536,-62.729296741136,13.388798879888,1285318.6874611,-3633.7169785839,2681760.715335,18.588798879888,0,0
-183.65175356753,-62.758119646255,13.393229322932,1285318.6874611,-3633.7169785839,2681760.715335,18.593229322932,0,0
-183.6517534697,-62.786942551375,13.397659765977,1285318.6874611,-3633.7169785839,2681760.715335,18.597659765977,0,0
-183.65175337188,-62.815765456495,13.402090209021,1285318.6874611,-3633.7169785839,2681760.715335,18.602090209021,0,0
-183.65175327405,-62.844588361615,13.406520652065,1285318.6874611,-3633.7169785839,2681760.715335,18.606520652065,0,0
-183.65175317622,-62.873411266735,13.41095109511,1285318.6874611,-3633.7169785839,2681760.715335,18.61095109511,0,0
-183.6517530784,-62.902234171854,13.415381538154,1285318.6874611,-3633.7169785839,2681760.715335,18.615381538154,0,0
-183.65175298057,-62.931057076974,13.419811981198,1285318.6874611,-3633.7169785839,2681760.715335,18.619811981198,0,0
-183.65175288274,-62.959879982094,13.424242424242,1285318.6874611,-3633.7169785839,2681760.715335,18.624242424242,0,0
-183.65175278492,-62.988702887214,13.428672867287,1285318.6874611,-3633.7169785839,2681760.715335,18.628672867287,0,0
-183.65175268709,-63.017525792334,13.433103310331,1285318.6874611,-3633.7169785839,2681760.715335,18.633103310331,0,0
-183.65175258926,-63.046348697453,13.437533753375,1285318.6874611,-3633.7169785839,2681760.715335,18.637533753375,0,0
-183.65175249144,-63.075171602573,13.44196419642,1285318.6874611,-3633.7169785839,2681760.715335,18.64196419642,0,0
-183.65175239361,-63.103994507693,13.446394639464,1285318.6874611,-3633.7169785839,2681760.715335,18.646394639464,0,0
-183.65175229579,-63.132817412813,13.450825082508,1285318.6874611,-3633.7169785839,2681760.715335,18.650825082508,0,0
-183.65175219796,-63.161640317933,13.455255525553,1285318.6874611,-3633.7169785839,2681760.715335,18.655255525553,0,0
-183.65175210013,-63.190463223052,13.459685968597,1285318.6874611,-3633.7169785839,2681760.715335,18.659685968597,0,0
-183.65175200231,-63.219286128172,13.464116411641,1285318.6874611,-3633.7169785839,2681760.715335,18.664116411641,0,0
-183.65175190448,-63.248109033292,13.468546854685,1285318.6874611,-3633.7169785839,2681760.715335,18.668546854685,0,0
-183.65175180665,-63.276931938412,13.47297729773,1285318.6874611,-3633.7169785839,2681760.715335,18.67297729773,0,0
-183.65175170883,-63.305754843531,13.477407740774,1285318.6874611,-3633.7169785839,2681760.715335,18.677407740774,0,0
-183.651751611,-63.334577747812,13.481838183818,1282234.322544,2635.2007313334,2672605.2410385,18.681838183818,0,0
-183.65175151318,-63.363400651598,13.486268626863,1282234.322544,2635.2007313334,2672605.2410385,18.686268626863,0,0
-183.65175141535,-63.392223555383,13.490699069907,1282234.322544,2635.2007313334,2672605.2410385,18.690699069907,0,0
-183.65175131753,-63.421046459169,13.495129512951,1282234.322544,2635.2007313334,2672605.2410385,18.695129512951,0,0
-183.65175121971,-63.449869362955,13.499559955996,1282234.322544,2635.2007313334,2672605.2410385,18.699559955996,0,0
-183.65175112188,-63.478692266741,13.50399039904,1282234.322544,2635.2007313334,2672605.2410385,18.70399039904,0,0
-183.65175102406,-63.507515170527,13.508420842084,1282234.322544,2635.2007313334,2672605.2410385,18.708420842084,0,0
-183.65175092624,-63.536338074312,13.512851285129,1282234.322544,2635.2007313334,2672605.2410385,18.712851285129,0,0
-183.65175082841,-63.565160978098,13.517281728173,1282234.322544,2635.2007313334,2672605.2410385,18.717281728173,0,0
-183.65175073059,-63.593983881884,13.521712171217,1282234.322544,2635.2007313334,2672605.2410385,18.721712171217,0,0
-183.65175063276,-63.62280678567,13.526142614261,1282234.322544,2635.2007313334,2672605.2410385,18.726142614261,0,0
-183.65175053494,-63.651629689455,13.530573057306,1282234.322544,2635.2007313334,2672605.2410385,18.730573057306,0,0
-183.65175043712,-63.680452593241,13.53500350035,1282234.322544,2635.2007313334,2672605.2410385,18.73500350035,0,0
-183.65175033929,-63.709275497027,13.539433943394,1282234.322544,2635.2007313334,2672605.2410385,18.739433943394,0,0
-183.65175024147,-63.738098400813,13.543864386439,1282234.322544,2635.2007313334,2672605.2410385,18.743864386439,0,0
-183.65175014365,-63.766921304598,13.548294829483,1282234.322544,2635.2007313334,2672605.2410385,18.748294829483,0,0
-183.65175004582,-63.795744208384,13.552725272527,1282234.322544,2635.2007313334,2672605.2410385,18.752725272527,0,0
-183.651749948,-63.82456711217,13.557155715572,1282234.322544,2635.2007313334,2672605.2410385,18.757155715572,0,0
-183.65174985017,-63.853390015956,13.561586158616,1282234.322544,2635.2007313334,2672605.2410385,18.761586158616,0,0
-183.65174975235,-63.882212919741,13.56601660166,1282234.322544,2635.2007313334,2672605.2410385,18.76601660166,0,0
-183.65174965453,-63.911035823527,13.570447044704,1282234.322544,2635.2007313334,2672605.2410385,18.770447044704,0,0
-183.6517495567,-63.939858727313,13.574877487749,1282234.322544,2635.2007313334,2672605.2410385,18.774877487749,0,0
-183.65174945888,-63.968681631099,13.579307930793,1282234.322544,2635.2007313334,2672605.2410385,18.779307930793,0,0
-183.65174936105,-63.997504534885,13.583738373837,1282234.322544,2635.2007313334,2672605.2410385,18.783738373837,0,0
-183.65174926323,-64.02632743867,13.588168816882,1282234.322544,2635.2007313334,2672605.2410385,18.788168816882,0,0
-183.65174916541,-64.055150342456,13.592599259926,1282234.322544,2635.2007313334,2672605.2410385,18.792599259926,0,0
-183.65174906758,-64.083973246242,13.59702970297,1282234.322544,2635.2007313334,2672605.2410385,18.79702970297,0,0
-183.65174896976,-64.112796150028,13.601460146015,1282234.322544,2635.2007313334,2672605.2410385,18.801460146015,0,0
-183.65174887194,-64.141619053813,13.605890589059,1282234.322544,2635.2007313334,2672605.2410385,18.805890589059,0,0
-183.65174877411,-64.170441957599,13.610321032103,1282234.322544,2635.2007313334,2672605.2410385,18.810321032103,0,0
-183.65174867629,-64.199264861385,13.614751475148,1282234.322544,2635.2007313334,2672605.2410385,18.814751475148,0,0
-183.65174857846,-64.228087765171,13.619181918192,1282234.322544,2635.2007313334,2672605.2410385,18.819181918192,0,0
-183.65174848064,-64.256910668956,13.623612361236,1282234.322544,2635.2007313334,2672605.2410385,18.823612361236,0,0
-183.65174838282,-64.285733572742,13.62804280428,1282234.322544,2635.2007313334,2672605.2410385,18.82804280428,0,0
-183.65174828499,-64.314556476528,13.632473247325,1282234.322544,2635.2007313334,2672605.2410385,18.832473247325,0,0
-183.65174818717,-64.343379380314,13.636903690369,1282234.322544,2635.2007313334,2672605.2410385,18.836903690369,0,0
-183.65174808935,-64.3722022841,13.641334133413,1282234.322544,2635.2007313334,2672605.2410385,18.841334133413,0,0
-183.65174799152,-64.401025187885,13.645764576458,1282234.322544,2635.2007313334,2672605.2410385,18.845764576458,0,0
-183.6517478937,-64.429848091671,13.650195019502,1282234.322544,2635.2007313334,2672605.2410385,18.850195019502,0,0
-183.65174779587,-64.458670995457,13.654625462546,1282234.322544,2635.2007313334,2672605.2410385,18.854625462546,0,0
-183.65174769805,-64.487493899243,13.659055905591,1282234.322544,2635.2007313334,2672605.2410385,18.859055905591,0,0
-183.65174760023,-64.516316803028,13.663486348635,1282234.322544,2635.2007313334,2672605.2410385,18.863486348635,0,0
-183.6517475024,-64.545139706814,13.667916791679,1282234.322544,2635.2007313334,2672605.2410385,18.867916791679,0,0
-183.65174740458,-64.5739626106,13.672347234723,1282234.322544,2635.2007313334,2672605.2410385,18.872347234723,0,0
-183.65174730676,-64.602785514386,13.676777677768,1282234.322544,2635.2007313334,2672605.2410385,18.876777677768,0,0
-183.65174720893,-64.631608418171,13.681208120812,1282234.322544,2635.2007313334,2672605.2410385,18.881208120812,0,0
-183.65174711111,-64.660431321957,13.685638563856,1282234.322544,2635.2007313334,2672605.2410385,18.885638563856,0,0
-183.65174701328,-64.689254225743,13.690069006901,1282234.322544,2635.2007313334,2672605.2410385,18.890069006901,0,0
-183.65174691546,-64.718077129529,13.694499449945,1282234.322544,2635.2007313334,2672605.2410385,18.894499449945,0,0
-183.65174681764,-64.746900033314,13.698929892989,1282234.322544,2635.2007313334,2672605.2410385,18.898929892989,0,0
-183.65174671981,-64.7757229371,13.703360336034,1282234.322544,2635.2007313334,2672605.2410385,18.903360336034,0,0
-183.65174662199,-64.804545840886,13.707790779078,1282234.322544,2635.2007313334,2672605.2410385,18.907790779078,0,0
-183.65174652416,-64.833368744672,13.712221222122,1282234.322544,2635.2007313334,2672605.2410385,18.912221222122,0,0
-183.65174642634,-64.862191648458,13.716651665167,1282234.322544,2635.2007313334,2672605.2410385,18.916651665167,0,0
-183.65174632852,-64.891014552243,13.721082108211,1282234.322544,2635.2007313334,2672605.2410385,18.921082108211,0,0
-183.65174623069,-64.919837456029,13.725512551255,1282234.322544,2635.2007313334,2672605.2410385,18.925512551255,0,0
-183.65174613287,-64.948660359815,13.729942994299,1282234.322544,2635.2007313334,2672605.2410385,18.929942994299,0,0
-183.65174603505,-64.977483263601,13.734373437344,1282234.322544,2635.2007313334,2672605.2410385,18.934373437344,0,0
-183.65174593722,-65.006306167386,13.738803880388,1282234.322544,2635.2007313334,2672605.2410385,18.938803880388,0,0
-183.6517458394,-65.035129071172,13.743234323432,1282234.322544,2635.2007313334,2672605.2410385,18.943234323432,0,0
-183.65174574157,-65.063951974958,13.747664766477,1282234.322544,2635.2007313334,2672605.2410385,18.947664766477,0,0
-183.65174564375,-65.092774878744,13.752095209521,1282234.322544,2635.2007313334,2672605.2410385,18.952095209521,0,0
-183.65174554593,-65.121597782529,13.756525652565,1282234.322544,2635.2007313334,2672605.2410385,18.956525652565,0,0
-183.6517454481,-65.150420686315,13.76095609561,1282234.322544,2635.2007313334,2672605.2410385,18.96095609561,0,0
-183.65174535028,-65.179243590101,13.765386538654,1282234.322544,2635.2007313334,2672605.2410385,18.965386538654,0,0
-183.65174525246,-65.208066493887,13.769816981698,1282234.322544,2635.2007313334,2672605.2410385,18.969816981698,0,0
-183.65174515463,-65.236889397672,13.774247424742,1282234.322544,2635.2007313334,2672605.2410385,18.974247424742,0,0
-183.65174505681,-65.265712301458,13.778677867787,1282234.322544,2635.2007313334,2672605.2410385,18.978677867787,0,0
-183.65174495898,-65.294535205244,13.783108310831,1282234.322544,2635.2007313334,2672605.2410385,18.983108310831,0,0
-183.65174486116,-65.32335810903,13.787538753875,1282234.322544,2635.2007313334,2672605.2410385,18.987538753875,0,0
-183.65174476334,-65.352181012816,13.79196919692,1282234.322544,2635.2007313334,2672605.2410385,18.99196919692,0,0
-183.65174466551,-65.381003916601,13.796399639964,1282234.322544,2635.2007313334,2672605.2410385,18.996399639964,0,0
-183.65174456769,-65.409826820387,13.800830083008,1282234.322544,2635.2007313334,2672605.2410385,19.000830083008,0,0
-183.65174446986,-65.438649724173,13.805260526053,1282234.322544,2635.2007313334,2672605.2410385,19.005260526053,0,0
-183.65174437204,-65.467472627959,13.809690969097,1282234.322544,2635.2007313334,2672605.2410385,19.009690969097,0,0
-183.65174427422,-65.496295531744,13.814121412141,1282234.322544,2635.2007313334,2672605.2410385,19.014121412141,0,0
-183.65174417639,-65.52511843553,13.818551855186,1282234.322544,2635.2007313334,2672605.2410385,19.018551855186,0,0
-183.65174407857,-65.553941339316,13.82298229823,1282234.322544,2635.2007313334,2672605.2410385,19.02298229823,0,0
-183.65174398075,-65.582764243102,13.827412741274,1282234.322544,2635.2007313334,2672605.2410385,19.027412741274,0,0
-183.65174388292,-65.611587146887,13.831843184318,1282234.322544,2635.2007313334,2672605.2410385,19.031843184318,0,0
-183.6517437851,-65.640410050673,13.836273627363,1282234.322544,2635.2007313334,2672605.2410385,19.036273627363,0,0
-183.65174368727,-65.669232954459,13.840704070407,1282234.322544,2635.2007313334,2672605.2410385,19.040704070407,0,0
-183.65174358945,-65.698055858245,13.845134513451,1282234.322544,2635.2007313334,2672605.2410385,19.045134513451,0,0
-183.65174349163,-65.726878762031,13.849564956496,1282234.322544,2635.2007313334,2672605.2410385,19.049564956496,0,0
-183.6517433938,-65.755701665816,13.85399539954,1282234.322544,2635.2007313334,2672605.2410385,19.05399539954,0,0
-183.65174329598,-65.784524569602,13.858425842584,1282234.322544,2635.2007313334,2672605.2410385,19.058425842584,0,0
-183.65174319816,-65.813347473388,13.862856285629,1282234.322544,2635.2007313334,2672605.2410385,19.062856285629,0,0
-183.65174310033,-65.842170377174,13.867286728673,1282234.322544,2635.2007313334,2672605.2410385,19.067286728673,0,0
-183.65174300251,-65.870993280959,13.871717171717,1282234.322544,2635.2007313334,2672605.2410385,19.071717171717,0,0
-183.65174290468,-65.899816184745,13.876147614761,1282234.322544,2635.2007313334,2672605.2410385,19.076147614761,0,0
-183.65174280686,-65.928639088531,13.880578057806,1282234.322544,2635.2007313334,2672605.2410385,19.080578057806,0,0
-183.65174270904,-65.957461992317,13.88500850085,1282234.322544,2635.2007313334,2672605.2410385,19.08500850085,0,0
-183.65174261121,-65.986284896102,13.889438943894,1282234.322544,2635.2007313334,2672605.2410385,19.089438943894,0,0
-183.65174251339,-66.015107799888,13.893869386939,1282234.322544,2635.2007313334,2672605.2410385,19.093869386939,0,0
-183.65174241556,-66.043930703674,13.898299829983,1282234.322544,2635.2007313334,2672605.2410385,19.098299829983,0,0
-183.65174231774,-66.07275360746,13.902730273027,1282234.322544,2635.2007313334,2672605.2410385,19.102730273027,0,0
-183.65174221992,-66.101576511245,13.907160716072,1282234.322544,2635.2007313334,2672605.2410385,19.107160716072,0,0
-183.65174212209,-66.130399415031,13.911591159116,1282234.322544,2635.2007313334,2672605.2410385,19.111591159116,0,0
-183.65174202427,-66.159222318817,13.91602160216,1282234.322544,2635.2007313334,2672605.2410385,19.11602160216,0,0
-183.65174192645,-66.188045222603,13.920452045205,1282234.322544,2635.2007313334,2672605.2410385,19.120452045205,0,0
-183.65174182862,-66.216868126389,13.924882488249,1282234.322544,2635.2007313334,2672605.2410385,19.124882488249,0,0
-183.6517417308,-66.245691030174,13.929312931293,1282234.322544,2635.2007313334,2672605.2410385,19.129312931293,0,0
-183.65174163297,-66.27451393396,13.933743374337,1282234.322544,2635.2007313334,2672605.2410385,19.133743374337,0,0
-183.65174153515,-66.303336837746,13.938173817382,1282234.322544,2635.2007313334,2672605.2410385,19.138173817382,0,0
-183.65174143733,-66.332159741532,13.942604260426,1282234.322544,2635.2007313334,2672605.2410385,19.142604260426,0,0
-183.6517413395,-66.360982645317,13.94703470347,1282234.322544,2635.2007313334,2672605.2410385,19.14703470347,0,0
-183.65174124168,-66.389805549103,13.951465146515,1282234.322544,2635.2007313334,2672605.2410385,19.151465146515,0,0
-183.65174114386,-66.418628452889,13.955895589559,1282234.322544,2635.2007313334,2672605.2410385,19.155895589559,0,0
-183.65174104603,-66.447451356675,13.960326032603,1282234.322544,2635.2007313334,2672605.2410385,19.160326032603,0,0
-183.65174094821,-66.47627426046,13.964756475648,1282234.322544,2635.2007313334,2672605.2410385,19.164756475648,0,0
-183.65174085038,-66.505097164246,13.969186918692,1282234.322544,2635.2007313334,2672605.2410385,19.169186918692,0,0
-183.65174075256,-66.533920068032,13.973617361736,1282234.322544,2635.2007313334,2672605.2410385,19.173617361736,0,0
-183.65174065474,-66.562742971818,13.97804780478,1282234.322544,2635.2007313334,2672605.2410385,19.17804780478,0,0
-183.65174055691,-66.591565875604,13.982478247825,1282234.322544,2635.2007313334,2672605.2410385,19.182478247825,0,0
-183.65174045909,-66.620388779389,13.986908690869,1282234.322544,2635.2007313334,2672605.2410385,19.186908690869,0,0
-183.65174036127,-66.649211683175,13.991339133913,1282234.322544,2635.2007313334,2672605.2410385,19.191339133913,0,0
-183.65174026344,-66.678034586961,13.995769576958,1282234.322544,2635.2007313334,2672605.2410385,19.195769576958,0,0
-183.65174016562,-66.706857490747,14.000200020002,1282234.322544,2635.2007313334,2672605.2410385,19.200200020002,0,0
-183.65174006779,-66.735680394532,14.004630463046,1282234.322544,2635.2007313334,2672605.2410385,19.204630463046,0,0
-183.65173996997,-66.764503298318,14.009060906091,1282234.322544,2635.2007313334,2672605.2410385,19.209060906091,0,0
-183.65173987215,-66.793326202104,14.013491349135,1282234.322544,2635.2007313334,2672605.2410385,19.213491349135,0,0
-183.65173977431,-66.82214910597,14.017921792179,1281471.9574226,-2741.350017459,2660980.9678166,19.217921792179,0,0
-183.65173967623,-66.850972011072,14.022352235224,1281471.9574226,-2741.350017459,2660980.9678166,19.222352235224,0,0
-183.65173957816,-66.879794916175,14.026782678268,1281471.9574226,-2741.350017459,2660980.9678166,19.226782678268,0,0
-183.65173948009,-66.908617821277,14.031213121312,1281471.9574226,-2741.350017459,2660980.9678166,19.231213121312,0,0
-183.65173938202,-66.93744072638,14.035643564356,1281471.9574226,-2741.350017459,2660980.9678166,19.235643564356,0,0
-183.65173928395,-66.966263631482,14.040074007401,1281471.9574226,-2741.350017459,2660980.9678166,19.240074007401,0,0
-183.65173918587,-66.995086536585,14.044504450445,1281471.9574226,-2741.350017459,2660980.9678166,19.244504450445,0,0
-183.6517390878,-67.023909441687,14.048934893489,1281471.9574226,-2741.350017459,2660980.9678166,19.248934893489,0,0
-183.65173898973,-67.05273234679,14.053365336534,1281471.9574226,-2741.350017459,2660980.9678166,19.253365336534,0,0
-183.65173889166,-67.081555251892,14.057795779578,1281471.9574226,-2741.350017459,2660980.9678166,19.257795779578,0,0
-183.65173879358,-67.110378156994,14.062226222622,1281471.9574226,-2741.350017459,2660980.9678166,19.262226222622,0,0
-183.65173869551,-67.139201062097,14.066656665667,1281471.9574226,-2741.350017459,2660980.9678166,19.266656665667,0,0
-183.65173859744,-67.168023967199,14.071087108711,1281471.9574226,-2741.350017459,2660980.9678166,19.271087108711,0,0
-183.65173849937,-67.196846872302,14.075517551755,1281471.9574226,-2741.350017459,2660980.9678166,19.275517551755,0,0
-183.65173840129,-67.225669777404,14.079947994799,1281471.9574226,-2741.350017459,2660980.9678166,19.279947994799,0,0
-183.65173830322,-67.254492682507,14.084378437844,1281471.9574226,-2741.350017459,2660980.9678166,19.284378437844,0,0
-183.65173820515,-67.283315587609,14.088808880888,1281471.9574226,-2741.350017459,2660980.9678166,19.288808880888,0,0
-183.65173810708,-67.312138492712,14.093239323932,1281471.9574226,-2741.350017459,2660980.9678166,19.293239323932,0,0
-183.651738009,-67.340961397814,14.097669766977,1281471.9574226,-2741.350017459,2660980.9678166,19.297669766977,0,0
-183.65173791093,-67.369784302917,14.102100210021,1281471.9574226,-2741.350017459,2660980.9678166,19.302100210021,0,0
-183.65173781286,-67.398607208019,14.106530653065,1281471.9574226,-2741.350017459,2660980.9678166,19.306530653065,0,0
-183.65173771479,-67.427430113122,14.11096109611,1281471.9574226,-2741.350017459,2660980.9678166,19.31096109611,0,0
-183.65173761671,-67.456253018224,14.115391539154,1281471.9574226,-2741.350017459,2660980.9678166,19.315391539154,0,0
-183.65173751864,-67.485075923326,14.119821982198,1281471.9574226,-2741.350017459,2660980.9678166,19.319821982198,0,0
-183.65173742057,-67.513898828429,14.124252425243,1281471.9574226,-2741.350017459,2660980.9678166,19.324252425243,0,0
-183.6517373225,-67.542721733531,14.128682868287,1281471.9574226,-2741.350017459,2660980.9678166,19.328682868287,0,0
-183.65173722442,-67.571544638634,14.133113311331,1281471.9574226,-2741.350017459,2660980.9678166,19.333113311331,0,0
-183.65173712635,-67.600367543736,14.137543754375,1281471.9574226,-2741.350017459,2660980.9678166,19.337543754375,0,0
-183.65173702828,-67.629190448839,14.14197419742,1281471.9574226,-2741.350017459,2660980.9678166,19.34197419742,0,0
-183.65173693021,-67.658013353941,14.146404640464,1281471.9574226,-2741.350017459,2660980.9678166,19.346404640464,0,0
-183.65173683213,-67.686836259044,14.150835083508,1281471.9574226,-2741.350017459,2660980.9678166,19.350835083508,0,0
-183.65173673406,-67.715659164146,14.155265526553,1281471.9574226,-2741.350017459,2660980.9678166,19.355265526553,0,0
-183.65173663599,-67.744482069249,14.159695969597,1281471.9574226,-2741.350017459,2660980.9678166,19.359695969597,0,0
-183.65173653792,-67.773304974351,14.164126412641,1281471.9574226,-2741.350017459,2660980.9678166,19.364126412641,0,0
-183.65173643985,-67.802127879454,14.168556855686,1281471.9574226,-2741.350017459,2660980.9678166,19.368556855686,0,0
-183.65173634177,-67.830950784556,14.17298729873,1281471.9574226,-2741.350017459,2660980.9678166,19.37298729873,0,0
-183.6517362437,-67.859773689658,14.177417741774,1281471.9574226,-2741.350017459,2660980.9678166,19.377417741774,0,0
-183.65173614563,-67.888596594761,14.181848184818,1281471.9574226,-2741.350017459,2660980.9678166,19.381848184818,0,0
-183.65173604756,-67.917419499863,14.186278627863,1281471.9574226,-2741.350017459,2660980.9678166,19.386278627863,0,0
-183.65173594948,-67.946242404966,14.190709070907,1281471.9574226,-2741.350017459,2660980.9678166,19.390709070907,0,0
-183.65173585141,-67.975065310068,14.195139513951,1281471.9574226,-2741.350017459,2660980.9678166,19.395139513951,0,0
-183.65173575334,-68.003888215171,14.199569956996,1281471.9574226,-2741.350017459,2660980.9678166,19.399569956996,0,0
-183.65173565527,-68.032711120273,14.20400040004,1281471.9574226,-2741.350017459,2660980.9678166,19.40400040004,0,0
-183.65173555719,-68.061534025376,14.208430843084,1281471.9574226,-2741.350017459,2660980.9678166,19.408430843084,0,0
-183.65173545912,-68.090356930478,14.212861286129,1281471.9574226,-2741.350017459,2660980.9678166,19.412861286129,0,0
-183.65173536105,-68.119179835581,14.217291729173,1281471.9574226,-2741.350017459,2660980.9678166,19.417291729173,0,0
-183.65173526298,-68.148002740683,14.221722172217,1281471.9574226,-2741.350017459,2660980.9678166,19.421722172217,0,0
-183.6517351649,-68.176825645785,14.226152615262,1281471.9574226,-2741.350017459,2660980.9678166,19.426152615262,0,0
-183.65173506683,-68.205648550888,14.230583058306,1281471.9574226,-2741.350017459,2660980.9678166,19.430583058306,0,0
-183.65173496876,-68.23447145599,14.23501350135,1281471.9574226,-2741.350017459,2660980.9678166,19.43501350135,0,0
-183.65173487069,-68.263294361093,14.239443944394,1281471.9574226,-2741.350017459,2660980.9678166,19.439443944394,0,0
-183.65173477261,-68.292117266195,14.243874387439,1281471.9574226,-2741.350017459,2660980.9678166,19.443874387439,0,0
-183.65173467454,-68.320940171298,14.248304830483,1281471.9574226,-2741.350017459,2660980.9678166,19.448304830483,0,0
-183.65173457647,-68.3497630764,14.252735273527,1281471.9574226,-2741.350017459,2660980.9678166,19.452735273527,0,0
-183.6517344784,-68.378585981503,14.257165716572,1281471.9574226,-2741.350017459,2660980.9678166,19.457165716572,0,0
-183.65173438032,-68.407408886605,14.261596159616,1281471.9574226,-2741.350017459,2660980.9678166,19.461596159616,0,0
-183.65173428225,-68.436231791708,14.26602660266,1281471.9574226,-2741.350017459,2660980.9678166,19.46602660266,0,0
-183.65173418418,-68.46505469681,14.270457045705,1281471.9574226,-2741.350017459,2660980.9678166,19.470457045705,0,0
-183.65173408611,-68.493877601913,14.274887488749,1281471.9574226,-2741.350017459,2660980.9678166,19.474887488749,0,0
-183.65173398804,-68.522700507015,14.279317931793,1281471.9574226,-2741.350017459,2660980.9678166,19.479317931793,0,0
-183.65173388996,-68.551523412117,14.283748374837,1281471.9574226,-2741.350017459,2660980.9678166,19.483748374837,0,0
-183.65173379189,-68.58034631722,14.288178817882,1281471.9574226,-2741.350017459,2660980.9678166,19.488178817882,0,0
-183.65173369382,-68.609169222322,14.292609260926,1281471.9574226,-2741.350017459,2660980.9678166,19.492609260926,0,0
-183.65173359575,-68.637992127425,14.29703970397,1281471.9574226,-2741.350017459,2660980.9678166,19.49703970397,0,0
-183.65173349767,-68.666815032527,14.301470147015,1281471.9574226,-2741.350017459,2660980.9678166,19.501470147015,0,0
-183.6517333996,-68.69563793763,14.305900590059,1281471.9574226,-2741.350017459,2660980.9678166,19.505900590059,0,0
-183.65173330153,-68.724460842732,14.310331033103,1281471.9574226,-2741.350017459,2660980.9678166,19.510331033103,0,0
-183.65173320346,-68.753283747835,14.314761476148,1281471.9574226,-2741.350017459,2660980.9678166,19.514761476148,0,0
-183.65173310538,-68.782106652937,14.319191919192,1281471.9574226,-2741.350017459,2660980.9678166,19.519191919192,0,0
-183.65173300731,-68.81092955804,14.323622362236,1281471.9574226,-2741.350017459,2660980.9678166,19.523622362236,0,0
-183.65173290924,-68.839752463142,14.328052805281,1281471.9574226,-2741.350017459,2660980.9678166,19.528052805281,0,0
-183.65173281117,-68.868575368245,14.332483248325,1281471.9574226,-2741.350017459,2660980.9678166,19.532483248325,0,0
-183.65173271309,-68.897398273347,14.336913691369,1281471.9574226,-2741.350017459,2660980.9678166,19.536913691369,0,0
-183.65173261502,-68.926221178449,14.341344134413,1281471.9574226,-2741.350017459,2660980.9678166,19.541344134413,0,0
-183.65173251695,-68.955044083552,14.345774577458,1281471.9574226,-2741.350017459,2660980.9678166,19.545774577458,0,0
-183.65173241888,-68.983866988654,14.350205020502,1281471.9574226,-2741.350017459,2660980.9678166,19.550205020502,0,0
-183.6517323208,-69.012689893757,14.354635463546,1281471.9574226,-2741.350017459,2660980.9678166,19.554635463546,0,0
-183.65173222273,-69.041512798859,14.359065906591,1281471.9574226,-2741.350017459,2660980.9678166,19.559065906591,0,0
-183.65173212466,-69.070335703962,14.363496349635,1281471.9574226,-2741.350017459,2660980.9678166,19.563496349635,0,0
-183.65173202659,-69.099158609064,14.367926792679,1281471.9574226,-2741.350017459,2660980.9678166,19.567926792679,0,0
-183.65173192851,-69.127981514167,14.372357235724,1281471.9574226,-2741.350017459,2660980.9678166,19.572357235724,0,0
-183.65173183044,-69.156804419269,14.376787678768,1281471.9574226,-2741.350017459,2660980.9678166,19.576787678768,0,0
-183.65173173237,-69.185627324372,14.381218121812,1281471.9574226,-2741.350017459,2660980.9678166,19.581218121812,0,0
-183.6517316343,-69.214450229474,14.385648564856,1281471.9574226,-2741.350017459,2660980.9678166,19.585648564856,0,0
-183.65173153622,-69.243273134577,14.390079007901,1281471.9574226,-2741.350017459,2660980.9678166,19.590079007901,0,0
-183.65173143815,-69.272096039679,14.394509450945,1281471.9574226,-2741.350017459,2660980.9678166,19.594509450945,0,0
-183.65173134008,-69.300918944781,14.398939893989,1281471.9574226,-2741.350017459,2660980.9678166,19.598939893989,0,0
-183.65173124201,-69.329741849884,14.403370337034,1281471.9574226,-2741.350017459,2660980.9678166,19.603370337034,0,0
-183.65173114394,-69.358564754986,14.407800780078,1281471.9574226,-2741.350017459,2660980.9678166,19.607800780078,0,0
-183.65173104586,-69.387387660089,14.412231223122,1281471.9574226,-2741.350017459,2660980.9678166,19.612231223122,0,0
-183.65173094779,-69.416210565191,14.416661666167,1281471.9574226,-2741.350017459,2660980.9678166,19.616661666167,0,0
-183.65173084972,-69.445033470294,14.421092109211,1281471.9574226,-2741.350017459,2660980.9678166,19.621092109211,0,0
-183.65173075165,-69.473856375396,14.425522552255,1281471.9574226,-2741.350017459,2660980.9678166,19.625522552255,0,0
-183.65173065357,-69.502679280499,14.4299529953,1281471.9574226,-2741.350017459,2660980.9678166,19.6299529953,0,0
-183.6517305555,-69.531502185601,14.434383438344,1281471.9574226,-2741.350017459,2660980.9678166,19.634383438344,0,0
-183.65173045743,-69.560325090704,14.438813881388,1281471.9574226,-2741.350017459,2660980.9678166,19.638813881388,0,0
-183.65173035936,-69.589147995806,14.443244324432,1281471.9574226,-2741.350017459,2660980.9678166,19.643244324432,0,0
-183.65173026128,-69.617970900909,14.447674767477,1281471.9574226,-2741.350017459,2660980.9678166,19.647674767477,0,0
-183.65173016321,-69.646793806011,14.452105210521,1281471.9574226,-2741.350017459,2660980.9678166,19.652105210521,0,0
-183.65173006514,-69.675616711113,14.456535653565,1281471.9574226,-2741.350017459,2660980.9678166,19.656535653565,0,0
-183.65172996707,-69.704439616216,14.46096609661,1281471.9574226,-2741.350017459,2660980.9678166,19.66096609661,0,0
-183.65172986899,-69.733262521318,14.465396539654,1281471.9574226,-2741.350017459,2660980.9678166,19.665396539654,0,0
-183.65172977092,-69.762085426421,14.469826982698,1281471.9574226,-2741.350017459,2660980.9678166,19.669826982698,0,0
-183.65172967285,-69.790908331523,14.474257425743,1281471.9574226,-2741.350017459,2660980.9678166,19.674257425743,0,0
-183.65172957478,-69.819731236626,14.478687868787,1281471.9574226,-2741.350017459,2660980.9678166,19.678687868787,0,0
-183.6517294767,-69.848554141728,14.483118311831,1281471.9574226,-2741.350017459,2660980.9678166,19.683118311831,0,0
-183.65172937863,-69.877377046831,14.487548754875,1281471.9574226,-2741.350017459,2660980.9678166,19.687548754875,0,0
-183.65172928056,-69.906199951933,14.49197919792,1281471.9574226,-2741.350017459,2660980.9678166,19.69197919792,0,0
-183.65172918249,-69.935022857036,14.496409640964,1281471.9574226,-2741.350017459,2660980.9678166,19.696409640964,0,0
-183.65172908441,-69.963845762138,14.500840084008,1281471.9574226,-2741.350017459,2660980.9678166,19.700840084008,0,0
-183.65172898634,-69.99266866724,14.505270527053,1281471.9574226,-2741.350017459,2660980.9678166,19.705270527053,0,0
-183.65172888827,-70.021491572343,14.509700970097,1281471.9574226,-2741.350017459,2660980.9678166,19.709700970097,0,0
-183.6517287902,-70.050314477445,14.514131413141,1281471.9574226,-2741.350017459,2660980.9678166,19.714131413141,0,0
-183.65172869213,-70.079137382548,14.518561856186,1281471.9574226,-2741.350017459,2660980.9678166,19.718561856186,0,0
-183.65172859405,-70.10796028765,14.52299229923,1281471.9574226,-2741.350017459,2660980.9678166,19.72299229923,0,0
-183.65172849598,-70.136783192753,14.527422742274,1281471.9574226,-2741.350017459,2660980.9678166,19.727422742274,0,0
-183.65172839791,-70.165606097855,14.531853185319,1281471.9574226,-2741.350017459,2660980.9678166,19.731853185319,0,0
-183.65172829984,-70.194429002958,14.536283628363,1281471.9574226,-2741.350017459,2660980.9678166,19.736283628363,0,0
-183.65172820176,-70.22325190806,14.540714071407,1281471.9574226,-2741.350017459,2660980.9678166,19.740714071407,0,0
-183.65172810369,-70.252074813163,14.545144514451,1281471.9574226,-2741.350017459,2660980.9678166,19.745144514451,0,0
-183.65172800562,-70.280897718265,14.549574957496,1281471.9574226,-2741.350017459,2660980.9678166,19.749574957496,0,0
-183.65172790755,-70.309720623368,14.55400540054,1281471.9574226,-2741.350017459,2660980.9678166,19.75400540054,0,0
-183.65172780947,-70.33854352847,14.558435843584,1281471.9574226,-2741.350017459,2660980.9678166,19.758435843584,0,0
-183.6517277114,-70.367366433572,14.562866286629,1281471.9574226,-2741.350017459,2660980.9678166,19.762866286629,0,0
-183.65172761333,-70.396189338675,14.567296729673,1281471.9574226,-2741.350017459,2660980.9678166,19.767296729673,0,0
-183.65172751526,-70.425012243777,14.571727172717,1281471.9574226,-2741.350017459,2660980.9678166,19.771727172717,0,0
-183.65172741718,-70.45383514888,14.576157615762,1281471.9574226,-2741.350017459,2660980.9678166,19.776157615762,0,0
-183.65172731911,-70.482658053982,14.580588058806,1281471.9574226,-2741.350017459,2660980.9678166,19.780588058806,0,0
-183.65172722104,-70.511480959085,14.58501850185,1281471.9574226,-2741.350017459,2660980.9678166,19.78501850185,0,0
-183.65172712297,-70.540303864187,14.589448944894,1281471.9574226,-2741.350017459,2660980.9678166,19.789448944894,0,0
-183.65172702489,-70.56912676929,14.593879387939,1281471.9574226,-2741.350017459,2660980.9678166,19.793879387939,0,0
-183.65172692682,-70.597949674392,14.598309830983,1281471.9574226,-2741.350017459,2660980.9678166,19.798309830983,0,0
-183.65172682875,-70.626772579495,14.602740274027,1281471.9574226,-2741.350017459,2660980.9678166,19.802740274027,0,0
-183.65172673068,-70.655595484597,14.607170717072,1281471.9574226,-2741.350017459,2660980.9678166,19.807170717072,0,0
-183.6517266326,-70.6844183897,14.611601160116,1281471.9574226,-2741.350017459,2660980.9678166,19.811601160116,0,0
-183.65172653453,-70.713241294802,14.61603160316,1281471.9574226,-2741.350017459,2660980.9678166,19.81603160316,0,0
-183.65172643646,-70.742064199904,14.620462046205,1281471.9574226,-2741.350017459,2660980.9678166,19.820462046205,0,0
-183.65172633839,-70.770887105007,14.624892489249,1281471.9574226,-2741.350017459,2660980.9678166,19.824892489249,0,0
-183.65172624031,-70.799710010109,14.629322932293,1281471.9574226,-2741.350017459,2660980.9678166,19.829322932293,0,0
-183.65172614224,-70.828532915212,14.633753375338,1281471.9574226,-2741.350017459,2660980.9678166,19.833753375338,0,0
-183.65172604417,-70.857355820314,14.638183818382,1281471.9574226,-2741.350017459,2660980.9678166,19.838183818382,0,0
-183.6517259461,-70.886178725417,14.642614261426,1281471.9574226,-2741.350017459,2660980.9678166,19.842614261426,0,0
-183.65172584803,-70.915001630519,14.64704470447,1281471.9574226,-2741.350017459,2660980.9678166,19.84704470447,0,0
-183.65172574995,-70.943824535622,14.651475147515,1281471.9574226,-2741.350017459,2660980.9678166,19.851475147515,0,0
-183.65172565188,-70.972647440724,14.655905590559,1281471.9574226,-2741.350017459,2660980.9678166,19.855905590559,0,0
-183.65172555381,-71.001470345827,14.660336033603,1281471.9574226,-2741.350017459,2660980.9678166,19.860336033603,0,0
-183.65172545574,-71.030293250929,14.664766476648,1281471.9574226,-2741.350017459,2660980.9678166,19.864766476648,0,0
-183.65172535766,-71.059116156032,14.669196919692,1281471.9574226,-2741.350017459,2660980.9678166,19.869196919692,0,0
-183.65172525959,-71.087939061134,14.673627362736,1281471.9574226,-2741.350017459,2660980.9678166,19.873627362736,0,0
-183.65172516152,-71.116761966236,14.678057805781,1281471.9574226,-2741.350017459,2660980.9678166,19.878057805781,0,0
-183.65172506345,-71.145584871339,14.682488248825,1281471.9574226,-2741.350017459,2660980.9678166,19.882488248825,0,0
-183.65172496537,-71.174407776441,14.686918691869,1281471.9574226,-2741.350017459,2660980.9678166,19.886918691869,0,0
-183.65172486729,-71.203230680487,14.691349134913,1278986.0368758,2373.9489225249,2653089.721652,19.891349134913,0,0
-183.65172476921,-71.232053584494,14.695779577958,1278986.0368758,2373.9489225249,2653089.721652,19.895779577958,0,0
-183.65172467112,-71.2608764885,14.700210021002,1278986.0368758,2373.9489225249,2653089.721652,19.900210021002,0,0
-183.65172457304,-71.289699392507,14.704640464046,1278986.0368758,2373.9489225249,2653089.721652,19.904640464046,0,0
-183.65172447495,-71.318522296514,14.709070907091,1278986.0368758,2373.9489225249,2653089.721652,19.909070907091,0,0
-183.65172437687,-71.347345200521,14.713501350135,1278986.0368758,2373.9489225249,2653089.721652,19.913501350135,0,0
-183.65172427879,-71.376168104528,14.717931793179,1278986.0368758,2373.9489225249,2653089.721652,19.917931793179,0,0
-183.6517241807,-71.404991008535,14.722362236224,1278986.0368758,2373.9489225249,2653089.721652,19.922362236224,0,0
-183.65172408262,-71.433813912542,14.726792679268,1278986.0368758,2373.9489225249,2653089.721652,19.926792679268,0,0
-183.65172398453,-71.462636816549,14.731223122312,1278986.0368758,2373.9489225249,2653089.721652,19.931223122312,0,0
-183.65172388645,-71.491459720556,14.735653565357,1278986.0368758,2373.9489225249,2653089.721652,19.935653565357,0,0
-183.65172378837,-71.520282624563,14.740084008401,1278986.0368758,2373.9489225249,2653089.721652,19.940084008401,0,0
-183.65172369028,-71.54910552857,14.744514451445,1278986.0368758,2373.9489225249,2653089.721652,19.944514451445,0,0
-183.6517235922,-71.577928432577,14.748944894489,1278986.0368758,2373.9489225249,2653089.721652,19.948944894489,0,0
-183.65172349411,-71.606751336584,14.753375337534,1278986.0368758,2373.9489225249,2653089.721652,19.953375337534,0,0
-183.65172339603,-71.635574240591,14.757805780578,1278986.0368758,2373.9489225249,2653089.721652,19.957805780578,0,0
-183.65172329795,-71.664397144598,14.762236223622,1278986.0368758,2373.9489225249,2653089.721652,19.962236223622,0,0
-183.65172319986,-71.693220048605,14.766666666667,1278986.0368758,2373.9489225249,2653089.721652,19.966666666667,0,0
-183.65172310178,-71.722042952612,14.771097109711,1278986.0368758,2373.9489225249,2653089.721652,19.971097109711,0,0
-183.6517230037,-71.750865856619,14.775527552755,1278986.0368758,2373.9489225249,2653089.721652,19.975527552755,0,0
-183.65172290561,-71.779688760626,14.7799579958,1278986.0368758,2373.9489225249,2653089.721652,19.9799579958,0,0
-183.65172280753,-71.808511664632,14.784388438844,1278986.0368758,2373.9489225249,2653089.721652,19.984388438844,0,0
-183.65172270944,-71.837334568639,14.788818881888,1278986.0368758,2373.9489225249,2653089.721652,19.988818881888,0,0
-183.65172261136,-71.866157472646,14.793249324932,1278986.0368758,2373.9489225249,2653089.721652,19.993249324932,0,0
-183.65172251328,-71.894980376653,14.797679767977,1278986.0368758,2373.9489225249,2653089.721652,19.997679767977,0,0
-183.65172241519,-71.92380328066,14.802110211021,1278986.0368758,2373.9489225249,2653089.721652,20.002110211021,0,0
-183.65172231711,-71.952626184667,14.806540654065,1278986.0368758,2373.9489225249,2653089.721652,20.006540654065,0,0
-183.65172221902,-71.981449088674,14.81097109711,1278986.0368758,2373.9489225249,2653089.721652,20.01097109711,0,0
-183.65172212094,-72.010271992681,14.815401540154,1278986.0368758,2373.9489225249,2653089.721652,20.015401540154,0,0
-183.65172202286,-72.039094896688,14.819831983198,1278986.0368758,2373.9489225249,2653089.721652,20.019831983198,0,0
-183.65172192477,-72.067917800695,14.824262426243,1278986.0368758,2373.9489225249,2653089.721652,20.024262426243,0,0
-183.65172182669,-72.096740704702,14.828692869287,1278986.0368758,2373.9489225249,2653089.721652,20.028692869287,0,0
-183.6517217286,-72.125563608709,14.833123312331,1278986.0368758,2373.9489225249,2653089.721652,20.033123312331,0,0
-183.65172163052,-72.154386512716,14.837553755376,1278986.0368758,2373.9489225249,2653089.721652,20.037553755376,0,0
-183.65172153244,-72.183209416723,14.84198419842,1278986.0368758,2373.9489225249,2653089.721652,20.04198419842,0,0
-183.65172143435,-72.21203232073,14.846414641464,1278986.0368758,2373.9489225249,2653089.721652,20.046414641464,0,0
-183.65172133627,-72.240855224737,14.850845084508,1278986.0368758,2373.9489225249,2653089.721652,20.050845084508,0,0
-183.65172123818,-72.269678128744,14.855275527553,1278986.0368758,2373.9489225249,2653089.721652,20.055275527553,0,0
-183.6517211401,-72.298501032751,14.859705970597,1278986.0368758,2373.9489225249,2653089.721652,20.059705970597,0,0
-183.65172104202,-72.327323936758,14.864136413641,1278986.0368758,2373.9489225249,2653089.721652,20.064136413641,0,0
-183.65172094393,-72.356146840764,14.868566856686,1278986.0368758,2373.9489225249,2653089.721652,20.068566856686,0,0
-183.65172084585,-72.384969744771,14.87299729973,1278986.0368758,2373.9489225249,2653089.721652,20.07299729973,0,0
-183.65172074776,-72.413792648778,14.877427742774,1278986.0368758,2373.9489225249,2653089.721652,20.077427742774,0,0
-183.65172064968,-72.442615552785,14.881858185819,1278986.0368758,2373.9489225249,2653089.721652,20.081858185819,0,0
-183.6517205516,-72.471438456792,14.886288628863,1278986.0368758,2373.9489225249,2653089.721652,20.086288628863,0,0
-183.65172045351,-72.500261360799,14.890719071907,1278986.0368758,2373.9489225249,2653089.721652,20.090719071907,0,0
-183.65172035543,-72.529084264806,14.895149514951,1278986.0368758,2373.9489225249,2653089.721652,20.095149514951,0,0
-183.65172025734,-72.557907168813,14.899579957996,1278986.0368758,2373.9489225249,2653089.721652,20.099579957996,0,0
-183.65172015926,-72.58673007282,14.90401040104,1278986.0368758,2373.9489225249,2653089.721652,20.10401040104,0,0
-183.65172006118,-72.615552976827,14.908440844084,1278986.0368758,2373.9489225249,2653089.721652,20.108440844084,0,0
-183.65171996309,-72.644375880834,14.912871287129,1278986.0368758,2373.9489225249,2653089.721652,20.112871287129,0,0
-183.65171986501,-72.673198784841,14.917301730173,1278986.0368758,2373.9489225249,2653089.721652,20.117301730173,0,0
-183.65171976692,-72.702021688848,14.921732173217,1278986.0368758,2373.9489225249,2653089.721652,20.121732173217,0,0
-183.65171966884,-72.730844592855,14.926162616262,1278986.0368758,2373.9489225249,2653089.721652,20.126162616262,0,0
-183.65171957076,-72.759667496862,14.930593059306,1278986.0368758,2373.9489225249,2653089.721652,20.130593059306,0,0
-183.65171947267,-72.788490400869,14.93502350235,1278986.0368758,2373.9489225249,2653089.721652,20.13502350235,0,0
-183.65171937459,-72.817313304876,14.939453945395,1278986.0368758,2373.9489225249,2653089.721652,20.139453945395,0,0
-183.65171927651,-72.846136208883,14.943884388439,1278986.0368758,2373.9489225249,2653089.721652,20.143884388439,0,0
-183.65171917842,-72.87495911289,14.948314831483,1278986.0368758,2373.9489225249,2653089.721652,20.148314831483,0,0
-183.65171908034,-72.903782016896,14.952745274527,1278986.0368758,2373.9489225249,2653089.721652,20.152745274527,0,0
-183.65171898225,-72.932604920903,14.957175717572,1278986.0368758,2373.9489225249,2653089.721652,20.157175717572,0,0
-183.65171888417,-72.96142782491,14.961606160616,1278986.0368758,2373.9489225249,2653089.721652,20.161606160616,0,0
-183.65171878609,-72.990250728917,14.96603660366,1278986.0368758,2373.9489225249,2653089.721652,20.16603660366,0,0
-183.651718688,-73.019073632924,14.970467046705,1278986.0368758,2373.9489225249,2653089.721652,20.170467046705,0,0
-183.65171858992,-73.047896536931,14.974897489749,1278986.0368758,2373.9489225249,2653089.721652,20.174897489749,0,0
-183.65171849183,-73.076719440938,14.979327932793,1278986.0368758,2373.9489225249,2653089.721652,20.179327932793,0,0
-183.65171839375,-73.105542344945,14.983758375838,1278986.0368758,2373.9489225249,2653089.721652,20.183758375838,0,0
-183.65171829567,-73.134365248952,14.988188818882,1278986.0368758,2373.9489225249,2653089.721652,20.188188818882,0,0
-183.65171819758,-73.163188152959,14.992619261926,1278986.0368758,2373.9489225249,2653089.721652,20.192619261926,0,0
-183.6517180995,-73.192011056966,14.99704970497,1278986.0368758,2373.9489225249,2653089.721652,20.19704970497,0,0
-183.65171800141,-73.220833960973,15.001480148015,1278986.0368758,2373.9489225249,2653089.721652,20.201480148015,0,0
-183.65171790333,-73.24965686498,15.005910591059,1278986.0368758,2373.9489225249,2653089.721652,20.205910591059,0,0
-183.65171780525,-73.278479768987,15.010341034103,1278986.0368758,2373.9489225249,2653089.721652,20.210341034103,0,0
-183.65171770716,-73.307302672994,15.014771477148,1278986.0368758,2373.9489225249,2653089.721652,20.214771477148,0,0
-183.65171760908,-73.336125577001,15.019201920192,1278986.0368758,2373.9489225249,2653089.721652,20.219201920192,0,0
-183.65171751099,-73.364948481008,15.023632363236,1278986.0368758,2373.9489225249,2653089.721652,20.223632363236,0,0
-183.65171741291,-73.393771385015,15.028062806281,1278986.0368758,2373.9489225249,2653089.721652,20.228062806281,0,0
-183.65171731483,-73.422594289022,15.032493249325,1278986.0368758,2373.9489225249,2653089.721652,20.232493249325,0,0
-183.65171721674,-73.451417193029,15.036923692369,1278986.0368758,2373.9489225249,2653089.721652,20.236923692369,0,0
-183.65171711866,-73.480240097035,15.041354135414,1278986.0368758,2373.9489225249,2653089.721652,20.241354135414,0,0
-183.65171702057,-73.509063001042,15.045784578458,1278986.0368758,2373.9489225249,2653089.721652,20.245784578458,0,0
-183.65171692249,-73.537885905049,15.050215021502,1278986.0368758,2373.9489225249,2653089.721652,20.250215021502,0,0
-183.65171682441,-73.566708809056,15.054645464546,1278986.0368758,2373.9489225249,2653089.721652,20.254645464546,0,0
-183.65171672632,-73.595531713063,15.059075907591,1278986.0368758,2373.9489225249,2653089.721652,20.259075907591,0,0
-183.65171662824,-73.62435461707,15.063506350635,1278986.0368758,2373.9489225249,2653089.721652,20.263506350635,0,0
-183.65171653015,-73.653177521077,15.067936793679,1278986.0368758,2373.9489225249,2653089.721652,20.267936793679,0,0
-183.65171643207,-73.682000425084,15.072367236724,1278986.0368758,2373.9489225249,2653089.721652,20.272367236724,0,0
-183.65171633399,-73.710823329091,15.076797679768,1278986.0368758,2373.9489225249,2653089.721652,20.276797679768,0,0
-183.6517162359,-73.739646233098,15.081228122812,1278986.0368758,2373.9489225249,2653089.721652,20.281228122812,0,0
-183.65171613782,-73.768469137105,15.085658565857,1278986.0368758,2373.9489225249,2653089.721652,20.285658565857,0,0
-183.65171603973,-73.797292041112,15.090089008901,1278986.0368758,2373.9489225249,2653089.721652,20.290089008901,0,0
-183.65171594165,-73.826114945119,15.094519451945,1278986.0368758,2373.9489225249,2653089.721652,20.294519451945,0,0
-183.65171584357,-73.854937849126,15.098949894989,1278986.0368758,2373.9489225249,2653089.721652,20.298949894989,0,0
-183.65171574548,-73.883760753133,15.103380338034,1278986.0368758,2373.9489225249,2653089.721652,20.303380338034,0,0
-183.6517156474,-73.91258365714,15.107810781078,1278986.0368758,2373.9489225249,2653089.721652,20.307810781078,0,0
-183.65171554931,-73.941406561147,15.112241224122,1278986.0368758,2373.9489225249,2653089.721652,20.312241224122,0,0
-183.65171545123,-73.970229465154,15.116671667167,1278986.0368758,2373.9489225249,2653089.721652,20.316671667167,0,0
-183.65171535315,-73.99905236916,15.121102110211,1278986.0368758,2373.9489225249,2653089.721652,20.321102110211,0,0
-183.65171525506,-74.027875273167,15.125532553255,1278986.0368758,2373.9489225249,2653089.721652,20.325532553255,0,0
-183.65171515698,-74.056698177174,15.1299629963,1278986.0368758,2373.9489225249,2653089.721652,20.3299629963,0,0
-183.6517150589,-74.085521081181,15.134393439344,1278986.0368758,2373.9489225249,2653089.721652,20.334393439344,0,0
-183.65171496081,-74.114343985188,15.138823882388,1278986.0368758,2373.9489225249,2653089.721652,20.338823882388,0,0
-183.65171486273,-74.143166889195,15.143254325433,1278986.0368758,2373.9489225249,2653089.721652,20.343254325433,0,0
-183.65171476464,-74.171989793202,15.147684768477,1278986.0368758,2373.9489225249,2653089.721652,20.347684768477,0,0
-183.65171466656,-74.200812697209,15.152115211521,1278986.0368758,2373.9489225249,2653089.721652,20.352115211521,0,0
-183.65171456848,-74.229635601216,15.156545654565,1278986.0368758,2373.9489225249,2653089.721652,20.356545654565,0,0
-183.65171447039,-74.258458505223,15.16097609761,1278986.0368758,2373.9489225249,2653089.721652,20.36097609761,0,0
-183.65171437231,-74.28728140923,15.165406540654,1278986.0368758,2373.9489225249,2653089.721652,20.365406540654,0,0
-183.65171427422,-74.316104313237,15.169836983698,1278986.0368758,2373.9489225249,2653089.721652,20.369836983698,0,0
-183.65171417614,-74.344927217244,15.174267426743,1278986.0368758,2373.9489225249,2653089.721652,20.374267426743,0,0
-183.65171407806,-74.373750121251,15.178697869787,1278986.0368758,2373.9489225249,2653089.721652,20.378697869787,0,0
-183.65171397997,-74.402573025258,15.183128312831,1278986.0368758,2373.9489225249,2653089.721652,20.383128312831,0,0
-183.65171388189,-74.431395929265,15.187558755876,1278986.0368758,2373.9489225249,2653089.721652,20.387558755876,0,0
-183.6517137838,-74.460218833272,15.19198919892,1278986.0368758,2373.9489225249,2653089.721652,20.39198919892,0,0
-183.65171368572,-74.489041737279,15.196419641964,1278986.0368758,2373.9489225249,2653089.721652,20.396419641964,0,0
-183.65171358764,-74.517864641286,15.200850085009,1278986.0368758,2373.9489225249,2653089.721652,20.400850085008,0,0
-183.65171348955,-74.546687545293,15.205280528053,1278986.0368758,2373.9489225249,2653089.721652,20.405280528053,0,0
-183.65171339147,-74.575510449299,15.209710971097,1278986.0368758,2373.9489225249,2653089.721652,20.409710971097,0,0
-183.65171329338,-74.604333353306,15.214141414141,1278986.0368758,2373.9489225249,2653089.721652,20.414141414141,0,0
-183.6517131953,-74.633156257313,15.218571857186,1278986.0368758,2373.9489225249,2653089.721652,20.418571857186,0,0
-183.65171309722,-74.66197916132,15.22300230023,1278986.0368758,2373.9489225249,2653089.721652,20.42300230023,0,0
-183.65171299913,-74.690802065327,15.227432743274,1278986.0368758,2373.9489225249,2653089.721652,20.427432743274,0,0
-183.65171290105,-74.719624969334,15.231863186319,1278986.0368758,2373.9489225249,2653089.721652,20.431863186319,0,0
-183.65171280296,-74.748447873341,15.236293629363,1278986.0368758,2373.9489225249,2653089.721652,20.436293629363,0,0
-183.65171270488,-74.777270777348,15.240724072407,1278986.0368758,2373.9489225249,2653089.721652,20.440724072407,0,0
-183.6517126068,-74.806093681355,15.245154515452,1278986.0368758,2373.9489225249,2653089.721652,20.445154515452,0,0
-183.65171250871,-74.834916585362,15.249584958496,1278986.0368758,2373.9489225249,2653089.721652,20.449584958496,0,0
-183.65171241063,-74.863739489369,15.25401540154,1278986.0368758,2373.9489225249,2653089.721652,20.45401540154,0,0
-183.65171231254,-74.892562393376,15.258445844584,1278986.0368758,2373.9489225249,2653089.721652,20.458445844584,0,0
-183.65171221446,-74.921385297383,15.262876287629,1278986.0368758,2373.9489225249,2653089.721652,20.462876287629,0,0
-183.65171211638,-74.95020820139,15.267306730673,1278986.0368758,2373.9489225249,2653089.721652,20.467306730673,0,0
-183.65171201829,-74.979031105397,15.271737173717,1278986.0368758,2373.9489225249,2653089.721652,20.471737173717,0,0
-183.65171192021,-75.007854009404,15.276167616762,1278986.0368758,2373.9489225249,2653089.721652,20.476167616762,0,0
-183.65171182212,-75.036676913411,15.280598059806,1278986.0368758,2373.9489225249,2653089.721652,20.480598059806,0,0
-183.65171172404,-75.065499817418,15.28502850285,1278986.0368758,2373.9489225249,2653089.721652,20.48502850285,0,0
-183.65171162596,-75.094322721425,15.289458945895,1278986.0368758,2373.9489225249,2653089.721652,20.489458945895,0,0
-183.65171152787,-75.123145625432,15.293889388939,1278986.0368758,2373.9489225249,2653089.721652,20.493889388939,0,0
-183.65171142979,-75.151968529438,15.298319831983,1278986.0368758,2373.9489225249,2653089.721652,20.498319831983,0,0
-183.65171133171,-75.180791433445,15.302750275028,1278986.0368758,2373.9489225249,2653089.721652,20.502750275028,0,0
-183.65171123362,-75.209614337452,15.307180718072,1278986.0368758,2373.9489225249,2653089.721652,20.507180718072,0,0
-183.65171113554,-75.238437241459,15.311611161116,1278986.0368758,2373.9489225249,2653089.721652,20.511611161116,0,0
-183.65171103745,-75.267260145466,15.31604160416,1278986.0368758,2373.9489225249,2653089.721652,20.51604160416,0,0
-183.65171093937,-75.296083049473,15.320472047205,1278986.0368758,2373.9489225249,2653089.721652,20.520472047205,0,0
-183.65171084129,-75.32490595348,15.324902490249,1278986.0368758,2373.9489225249,2653089.721652,20.524902490249,0,0
-183.6517107432,-75.353728857487,15.329332933293,1278986.0368758,2373.9489225249,2653089.721652,20.529332933293,0,0
-183.65171064512,-75.382551761494,15.333763376338,1278986.0368758,2373.9489225249,2653089.721652,20.533763376338,0,0
-183.65171054703,-75.411374665501,15.338193819382,1278986.0368758,2373.9489225249,2653089.721652,20.538193819382,0,0
-183.65171044895,-75.440197569508,15.342624262426,1278986.0368758,2373.9489225249,2653089.721652,20.542624262426,0,0
-183.65171035087,-75.469020473515,15.347054705471,1278986.0368758,2373.9489225249,2653089.721652,20.547054705471,0,0
-183.65171025278,-75.497843377522,15.351485148515,1278986.0368758,2373.9489225249,2653089.721652,20.551485148515,0,0
-183.65171015457,-75.526666282266,15.355915591559,1278025.6625365,-2099.5907289035,2643177.7146217,20.555915591559,0,0
-183.6517100563,-75.555489187358,15.360346034603,1278025.6625365,-2099.5907289035,2643177.7146217,20.560346034603,0,0
-183.65170995803,-75.58431209245,15.364776477648,1278025.6625365,-2099.5907289035,2643177.7146217,20.564776477648,0,0
-183.65170985976,-75.613134997542,15.369206920692,1278025.6625365,-2099.5907289035,2643177.7146217,20.569206920692,0,0
-183.65170976149,-75.641957902634,15.373637363736,1278025.6625365,-2099.5907289035,2643177.7146217,20.573637363736,0,0
-183.65170966321,-75.670780807726,15.378067806781,1278025.6625365,-2099.5907289035,2643177.7146217,20.578067806781,0,0
-183.65170956494,-75.699603712818,15.382498249825,1278025.6625365,-2099.5907289035,2643177.7146217,20.582498249825,0,0
-183.65170946667,-75.72842661791,15.386928692869,1278025.6625365,-2099.5907289035,2643177.7146217,20.586928692869,0,0
-183.6517093684,-75.757249523002,15.391359135914,1278025.6625365,-2099.5907289035,2643177.7146217,20.591359135914,0,0
-183.65170927013,-75.786072428094,15.395789578958,1278025.6625365,-2099.5907289035,2643177.7146217,20.595789578958,0,0
-183.65170917186,-75.814895333186,15.400220022002,1278025.6625365,-2099.5907289035,2643177.7146217,20.600220022002,0,0
-183.65170907359,-75.843718238278,15.404650465047,1278025.6625365,-2099.5907289035,2643177.7146217,20.604650465047,0,0
-183.65170897532,-75.87254114337,15.409080908091,1278025.6625365,-2099.5907289035,2643177.7146217,20.609080908091,0,0
-183.65170887705,-75.901364048462,15.413511351135,1278025.6625365,-2099.5907289035,2643177.7146217,20.613511351135,0,0
-183.65170877877,-75.930186953554,15.417941794179,1278025.6625365,-2099.5907289035,2643177.7146217,20.617941794179,0,0
-183.6517086805,-75.959009858646,15.422372237224,1278025.6625365,-2099.5907289035,2643177.7146217,20.622372237224,0,0
-183.65170858223,-75.987832763738,15.426802680268,1278025.6625365,-2099.5907289035,2643177.7146217,20.626802680268,0,0
-183.65170848396,-76.01665566883,15.431233123312,1278025.6625365,-2099.5907289035,2643177.7146217,20.631233123312,0,0
-183.65170838569,-76.045478573922,15.435663566357,1278025.6625365,-2099.5907289035,2643177.7146217,20.635663566357,0,0
-183.65170828742,-76.074301479014,15.440094009401,1278025.6625365,-2099.5907289035,2643177.7146217,20.640094009401,0,0
-183.65170818915,-76.103124384106,15.444524452445,1278025.6625365,-2099.5907289035,2643177.7146217,20.644524452445,0,0
-183.65170809088,-76.131947289198,15.44895489549,1278025.6625365,-2099.5907289035,2643177.7146217,20.64895489549,0,0
-183.65170799261,-76.16077019429,15.453385338534,1278025.6625365,-2099.5907289035,2643177.7146217,20.653385338534,0,0
-183.65170789433,-76.189593099382,15.457815781578,1278025.6625365,-2099.5907289035,2643177.7146217,20.657815781578,0,0
-183.65170779606,-76.218416004474,15.462246224622,1278025.6625365,-2099.5907289035,2643177.7146217,20.662246224622,0,0
-183.65170769779,-76.247238909566,15.466676667667,1278025.6625365,-2099.5907289035,2643177.7146217,20.666676667667,0,0
-183.65170759952,-76.276061814658,15.471107110711,1278025.6625365,-2099.5907289035,2643177.7146217,20.671107110711,0,0
-183.65170750125,-76.30488471975,15.475537553755,1278025.6625365,-2099.5907289035,2643177.7146217,20.675537553755,0,0
-183.65170740298,-76.333707624842,15.4799679968,1278025.6625365,-2099.5907289035,2643177.7146217,20.6799679968,0,0
-183.65170730471,-76.362530529934,15.484398439844,1278025.6625365,-2099.5907289035,2643177.7146217,20.684398439844,0,0
-183.65170720644,-76.391353435026,15.488828882888,1278025.6625365,-2099.5907289035,2643177.7146217,20.688828882888,0,0
-183.65170710817,-76.420176340118,15.493259325933,1278025.6625365,-2099.5907289035,2643177.7146217,20.693259325933,0,0
-183.65170700989,-76.44899924521,15.497689768977,1278025.6625365,-2099.5907289035,2643177.7146217,20.697689768977,0,0
-183.65170691162,-76.477822150302,15.502120212021,1278025.6625365,-2099.5907289035,2643177.7146217,20.702120212021,0,0
-183.65170681335,-76.506645055394,15.506550655066,1278025.6625365,-2099.5907289035,2643177.7146217,20.706550655066,0,0
-183.65170671508,-76.535467960486,15.51098109811,1278025.6625365,-2099.5907289035,2643177.7146217,20.71098109811,0,0
-183.65170661681,-76.564290865578,15.515411541154,1278025.6625365,-2099.5907289035,2643177.7146217,20.715411541154,0,0
-183.65170651854,-76.59311377067,15.519841984198,1278025.6625365,-2099.5907289035,2643177.7146217,20.719841984198,0,0
-183.65170642027,-76.621936675762,15.524272427243,1278025.6625365,-2099.5907289035,2643177.7146217,20.724272427243,0,0
-183.651706322,-76.650759580854,15.528702870287,1278025.6625365,-2099.5907289035,2643177.7146217,20.728702870287,0,0
-183.65170622372,-76.679582485946,15.533133313331,1278025.6625365,-2099.5907289035,2643177.7146217,20.733133313331,0,0
-183.65170612545,-76.708405391038,15.537563756376,1278025.6625365,-2099.5907289035,2643177.7146217,20.737563756376,0,0
-183.65170602718,-76.73722829613,15.54199419942,1278025.6625365,-2099.5907289035,2643177.7146217,20.74199419942,0,0
-183.65170592891,-76.766051201222,15.546424642464,1278025.6625365,-2099.5907289035,2643177.7146217,20.746424642464,0,0
-183.65170583064,-76.794874106314,15.550855085509,1278025.6625365,-2099.5907289035,2643177.7146217,20.750855085509,0,0
-183.65170573237,-76.823697011406,15.555285528553,1278025.6625365,-2099.5907289035,2643177.7146217,20.755285528553,0,0
-183.6517056341,-76.852519916498,15.559715971597,1278025.6625365,-2099.5907289035,2643177.7146217,20.759715971597,0,0
-183.65170553583,-76.88134282159,15.564146414641,1278025.6625365,-2099.5907289035,2643177.7146217,20.764146414641,0,0
-183.65170543756,-76.910165726682,15.568576857686,1278025.6625365,-2099.5907289035,2643177.7146217,20.768576857686,0,0
-183.65170533928,-76.938988631774,15.57300730073,1278025.6625365,-2099.5907289035,2643177.7146217,20.77300730073,0,0
-183.65170524101,-76.967811536866,15.577437743774,1278025.6625365,-2099.5907289035,2643177.7146217,20.777437743774,0,0
-183.65170514274,-76.996634441958,15.581868186819,1278025.6625365,-2099.5907289035,2643177.7146217,20.781868186819,0,0
-183.65170504447,-77.02545734705,15.586298629863,1278025.6625365,-2099.5907289035,2643177.7146217,20.786298629863,0,0
-183.6517049462,-77.054280252142,15.590729072907,1278025.6625365,-2099.5907289035,2643177.7146217,20.790729072907,0,0
-183.65170484793,-77.083103157234,15.595159515952,1278025.6625365,-2099.5907289035,2643177.7146217,20.795159515952,0,0
-183.65170474966,-77.111926062326,15.599589958996,1278025.6625365,-2099.5907289035,2643177.7146217,20.799589958996,0,0
-183.65170465139,-77.140748967418,15.60402040204,1278025.6625365,-2099.5907289035,2643177.7146217,20.80402040204,0,0
-183.65170455312,-77.16957187251,15.608450845085,1278025.6625365,-2099.5907289035,2643177.7146217,20.808450845085,0,0
-183.65170445484,-77.198394777602,15.612881288129,1278025.6625365,-2099.5907289035,2643177.7146217,20.812881288129,0,0
-183.65170435657,-77.227217682694,15.617311731173,1278025.6625365,-2099.5907289035,2643177.7146217,20.817311731173,0,0
-183.6517042583,-77.256040587786,15.621742174217,1278025.6625365,-2099.5907289035,2643177.7146217,20.821742174217,0,0
-183.65170416003,-77.284863492878,15.626172617262,1278025.6625365,-2099.5907289035,2643177.7146217,20.826172617262,0,0
-183.65170406176,-77.31368639797,15.630603060306,1278025.6625365,-2099.5907289035,2643177.7146217,20.830603060306,0,0
-183.65170396349,-77.342509303062,15.63503350335,1278025.6625365,-2099.5907289035,2643177.7146217,20.83503350335,0,0
-183.65170386522,-77.371332208154,15.639463946395,1278025.6625365,-2099.5907289035,2643177.7146217,20.839463946395,0,0
-183.65170376695,-77.400155113246,15.643894389439,1278025.6625365,-2099.5907289035,2643177.7146217,20.843894389439,0,0
-183.65170366867,-77.428978018338,15.648324832483,1278025.6625365,-2099.5907289035,2643177.7146217,20.848324832483,0,0
-183.6517035704,-77.45780092343,15.652755275528,1278025.6625365,-2099.5907289035,2643177.7146217,20.852755275528,0,0
-183.65170347213,-77.486623828522,15.657185718572,1278025.6625365,-2099.5907289035,2643177.7146217,20.857185718572,0,0
-183.65170337386,-77.515446733614,15.661616161616,1278025.6625365,-2099.5907289035,2643177.7146217,20.861616161616,0,0
-183.65170327559,-77.544269638706,15.66604660466,1278025.6625365,-2099.5907289035,2643177.7146217,20.86604660466,0,0
-183.65170317732,-77.573092543798,15.670477047705,1278025.6625365,-2099.5907289035,2643177.7146217,20.870477047705,0,0
-183.65170307905,-77.60191544889,15.674907490749,1278025.6625365,-2099.5907289035,2643177.7146217,20.874907490749,0,0
-183.65170298078,-77.630738353982,15.679337933793,1278025.6625365,-2099.5907289035,2643177.7146217,20.879337933793,0,0
-183.65170288251,-77.659561259074,15.683768376838,1278025.6625365,-2099.5907289035,2643177.7146217,20.883768376838,0,0
-183.65170278423,-77.688384164166,15.688198819882,1278025.6625365,-2099.5907289035,2643177.7146217,20.888198819882,0,0
-183.65170268596,-77.717207069258,15.692629262926,1278025.6625365,-2099.5907289035,2643177.7146217,20.892629262926,0,0
-183.65170258769,-77.74602997435,15.697059705971,1278025.6625365,-2099.5907289035,2643177.7146217,20.897059705971,0,0
-183.65170248942,-77.774852879442,15.701490149015,1278025.6625365,-2099.5907289035,2643177.7146217,20.901490149015,0,0
-183.65170239115,-77.803675784534,15.705920592059,1278025.6625365,-2099.5907289035,2643177.7146217,20.905920592059,0,0
-183.65170229288,-77.832498689626,15.710351035104,1278025.6625365,-2099.5907289035,2643177.7146217,20.910351035104,0,0
-183.65170219461,-77.861321594718,15.714781478148,1278025.6625365,-2099.5907289035,2643177.7146217,20.914781478148,0,0
-183.65170209634,-77.89014449981,15.719211921192,1278025.6625365,-2099.5907289035,2643177.7146217,20.919211921192,0,0
-183.65170199807,-77.918967404902,15.723642364236,1278025.6625365,-2099.5907289035,2643177.7146217,20.923642364236,0,0
-183.65170189979,-77.947790309994,15.728072807281,1278025.6625365,-2099.5907289035,2643177.7146217,20.928072807281,0,0
-183.65170180152,-77.976613215086,15.732503250325,1278025.6625365,-2099.5907289035,2643177.7146217,20.932503250325,0,0
-183.65170170325,-78.005436120178,15.736933693369,1278025.6625365,-2099.5907289035,2643177.7146217,20.936933693369,0,0
-183.65170160498,-78.03425902527,15.741364136414,1278025.6625365,-2099.5907289035,2643177.7146217,20.941364136414,0,0
-183.65170150671,-78.063081930362,15.745794579458,1278025.6625365,-2099.5907289035,2643177.7146217,20.945794579458,0,0
-183.65170140844,-78.091904835454,15.750225022502,1278025.6625365,-2099.5907289035,2643177.7146217,20.950225022502,0,0
-183.65170131017,-78.120727740546,15.754655465547,1278025.6625365,-2099.5907289035,2643177.7146217,20.954655465547,0,0
-183.6517012119,-78.149550645638,15.759085908591,1278025.6625365,-2099.5907289035,2643177.7146217,20.959085908591,0,0
-183.65170111362,-78.17837355073,15.763516351635,1278025.6625365,-2099.5907289035,2643177.7146217,20.963516351635,0,0
-183.65170101535,-78.207196455822,15.767946794679,1278025.6625365,-2099.5907289035,2643177.7146217,20.967946794679,0,0
-183.65170091708,-78.236019360914,15.772377237724,1278025.6625365,-2099.5907289035,2643177.7146217,20.972377237724,0,0
-183.65170081881,-78.264842266006,15.776807680768,1278025.6625365,-2099.5907289035,2643177.7146217,20.976807680768,0,0
-183.65170072054,-78.293665171098,15.781238123812,1278025.6625365,-2099.5907289035,2643177.7146217,20.981238123812,0,0
-183.65170062227,-78.32248807619,15.785668566857,1278025.6625365,-2099.5907289035,2643177.7146217,20.985668566857,0,0
-183.651700524,-78.351310981282,15.790099009901,1278025.6625365,-2099.5907289035,2643177.7146217,20.990099009901,0,0
-183.65170042573,-78.380133886374,15.794529452945,1278025.6625365,-2099.5907289035,2643177.7146217,20.994529452945,0,0
-183.65170032746,-78.408956791466,15.79895989599,1278025.6625365,-2099.5907289035,2643177.7146217,20.99895989599,0,0
-183.65170022918,-78.437779696558,15.803390339034,1278025.6625365,-2099.5907289035,2643177.7146217,21.003390339034,0,0
-183.65170013091,-78.46660260165,15.807820782078,1278025.6625365,-2099.5907289035,2643177.7146217,21.007820782078,0,0
-183.65170003264,-78.495425506742,15.812251225123,1278025.6625365,-2099.5907289035,2643177.7146217,21.012251225123,0,0
-183.65169993437,-78.524248411834,15.816681668167,1278025.6625365,-2099.5907289035,2643177.7146217,21.016681668167,0,0
-183.6516998361,-78.553071316926,15.821112111211,1278025.6625365,-2099.5907289035,2643177.7146217,21.021112111211,0,0
-183.65169973783,-78.581894222018,15.825542554255,1278025.6625365,-2099.5907289035,2643177.7146217,21.025542554255,0,0
-183.65169963956,-78.61071712711,15.8299729973,1278025.6625365,-2099.5907289035,2643177.7146217,21.0299729973,0,0
-183.65169954129,-78.639540032202,15.834403440344,1278025.6625365,-2099.5907289035,2643177.7146217,21.034403440344,0,0
-183.65169944302,-78.668362937294,15.838833883388,1278025.6625365,-2099.5907289035,2643177.7146217,21.038833883388,0,0
-183.65169934474,-78.697185842386,15.843264326433,1278025.6625365,-2099.5907289035,2643177.7146217,21.043264326433,0,0
-183.65169924647,-78.726008747478,15.847694769477,1278025.6625365,-2099.5907289035,2643177.7146217,21.047694769477,0,0
-183.6516991482,-78.75483165257,15.852125212521,1278025.6625365,-2099.5907289035,2643177.7146217,21.052125212521,0,0
-183.65169904993,-78.783654557662,15.856555655566,1278025.6625365,-2099.5907289035,2643177.7146217,21.056555655566,0,0
-183.65169895166,-78.812477462754,15.86098609861,1278025.6625365,-2099.5907289035,2643177.7146217,21.06098609861,0,0
-183.65169885339,-78.841300367846,15.865416541654,1278025.6625365,-2099.5907289035,2643177.7146217,21.065416541654,0,0
-183.65169875512,-78.870123272938,15.869846984698,1278025.6625365,-2099.5907289035,2643177.7146217,21.069846984698,0,0
-183.65169865685,-78.89894617803,15.874277427743,1278025.6625365,-2099.5907289035,2643177.7146217,21.074277427743,0,0
-183.65169855858,-78.927769083122,15.878707870787,1278025.6625365,-2099.5907289035,2643177.7146217,21.078707870787,0,0
-183.6516984603,-78.956591988214,15.883138313831,1278025.6625365,-2099.5907289035,2643177.7146217,21.083138313831,0,0
-183.65169836203,-78.985414893306,15.887568756876,1278025.6625365,-2099.5907289035,2643177.7146217,21.087568756876,0,0
-183.65169826376,-79.014237798398,15.89199919992,1278025.6625365,-2099.5907289035,2643177.7146217,21.09199919992,0,0
-183.65169816549,-79.04306070349,15.896429642964,1278025.6625365,-2099.5907289035,2643177.7146217,21.096429642964,0,0
-183.65169806722,-79.071883608582,15.900860086009,1278025.6625365,-2099.5907289035,2643177.7146217,21.100860086009,0,0
-183.65169796895,-79.100706513674,15.905290529053,1278025.6625365,-2099.5907289035,2643177.7146217,21.105290529053,0,0
-183.65169787068,-79.129529418766,15.909720972097,1278025.6625365,-2099.5907289035,2643177.7146217,21.109720972097,0,0
-183.65169777241,-79.158352323858,15.914151415142,1278025.6625365,-2099.5907289035,2643177.7146217,21.114151415142,0,0
-183.65169767413,-79.18717522895,15.918581858186,1278025.6625365,-2099.5907289035,2643177.7146217,21.118581858186,0,0
-183.65169757586,-79.215998134042,15.92301230123,1278025.6625365,-2099.5907289035,2643177.7146217,21.12301230123,0,0
-183.65169747759,-79.244821039134,15.927442744274,1278025.6625365,-2099.5907289035,2643177.7146217,21.127442744274,0,0
-183.65169737932,-79.273643944226,15.931873187319,1278025.6625365,-2099.5907289035,2643177.7146217,21.131873187319,0,0
-183.65169728106,-79.302466848652,15.936303630363,1275625.7217961,2035.5408753402,2636298.5698643,21.136303630363,0,0
-183.65169718279,-79.331289752868,15.940734073407,1275625.7217961,2035.5408753402,2636298.5698643,21.140734073407,0,0
-183.65169708453,-79.360112657084,15.945164516452,1275625.7217961,2035.5408753402,2636298.5698643,21.145164516452,0,0
-183.65169698627,-79.388935561299,15.949594959496,1275625.7217961,2035.5408753402,2636298.5698643,21.149594959496,0,0
-183.65169688801,-79.417758465515,15.95402540254,1275625.7217961,2035.5408753402,2636298.5698643,21.15402540254,0,0
-183.65169678974,-79.446581369731,15.958455845585,1275625.7217961,2035.5408753402,2636298.5698643,21.158455845585,0,0
-183.65169669148,-79.475404273947,15.962886288629,1275625.7217961,2035.5408753402,2636298.5698643,21.162886288629,0,0
-183.65169659322,-79.504227178163,15.967316731673,1275625.7217961,2035.5408753402,2636298.5698643,21.167316731673,0,0
-183.65169649496,-79.533050082379,15.971747174717,1275625.7217961,2035.5408753402,2636298.5698643,21.171747174717,0,0
-183.65169639669,-79.561872986595,15.976177617762,1275625.7217961,2035.5408753402,2636298.5698643,21.176177617762,0,0
-183.65169629843,-79.590695890811,15.980608060806,1275625.7217961,2035.5408753402,2636298.5698643,21.180608060806,0,0
-183.65169620017,-79.619518795027,15.98503850385,1275625.7217961,2035.5408753402,2636298.5698643,21.18503850385,0,0
-183.65169610191,-79.648341699243,15.989468946895,1275625.7217961,2035.5408753402,2636298.5698643,21.189468946895,0,0
-183.65169600364,-79.677164603459,15.993899389939,1275625.7217961,2035.5408753402,2636298.5698643,21.193899389939,0,0
-183.65169590538,-79.705987507675,15.998329832983,1275625.7217961,2035.5408753402,2636298.5698643,21.198329832983,0,0
-183.65169580712,-79.734810411891,16.002760276028,1275625.7217961,2035.5408753402,2636298.5698643,21.202760276028,0,0
-183.65169570885,-79.763633316107,16.007190719072,1275625.7217961,2035.5408753402,2636298.5698643,21.207190719072,0,0
-183.65169561059,-79.792456220323,16.011621162116,1275625.7217961,2035.5408753402,2636298.5698643,21.211621162116,0,0
-183.65169551233,-79.821279124539,16.016051605161,1275625.7217961,2035.5408753402,2636298.5698643,21.216051605161,0,0
-183.65169541407,-79.850102028755,16.020482048205,1275625.7217961,2035.5408753402,2636298.5698643,21.220482048205,0,0
-183.6516953158,-79.878924932971,16.024912491249,1275625.7217961,2035.5408753402,2636298.5698643,21.224912491249,0,0
-183.65169521754,-79.907747837186,16.029342934293,1275625.7217961,2035.5408753402,2636298.5698643,21.229342934293,0,0
-183.65169511928,-79.936570741402,16.033773377338,1275625.7217961,2035.5408753402,2636298.5698643,21.233773377338,0,0
-183.65169502102,-79.965393645618,16.038203820382,1275625.7217961,2035.5408753402,2636298.5698643,21.238203820382,0,0
-183.65169492275,-79.994216549834,16.042634263426,1275625.7217961,2035.5408753402,2636298.5698643,21.242634263426,0,0
-183.65169482449,-80.02303945405,16.047064706471,1275625.7217961,2035.5408753402,2636298.5698643,21.247064706471,0,0
-183.65169472623,-80.051862358266,16.051495149515,1275625.7217961,2035.5408753402,2636298.5698643,21.251495149515,0,0
-183.65169462797,-80.080685262482,16.055925592559,1275625.7217961,2035.5408753402,2636298.5698643,21.255925592559,0,0
-183.6516945297,-80.109508166698,16.060356035604,1275625.7217961,2035.5408753402,2636298.5698643,21.260356035604,0,0
-183.65169443144,-80.138331070914,16.064786478648,1275625.7217961,2035.5408753402,2636298.5698643,21.264786478648,0,0
-183.65169433318,-80.16715397513,16.069216921692,1275625.7217961,2035.5408753402,2636298.5698643,21.269216921692,0,0
-183.65169423492,-80.195976879346,16.073647364736,1275625.7217961,2035.5408753402,2636298.5698643,21.273647364736,0,0
-183.65169413665,-80.224799783562,16.078077807781,1275625.7217961,2035.5408753402,2636298.5698643,21.278077807781,0,0
-183.65169403839,-80.253622687778,16.082508250825,1275625.7217961,2035.5408753402,2636298.5698643,21.282508250825,0,0
-183.65169394013,-80.282445591994,16.086938693869,1275625.7217961,2035.5408753402,2636298.5698643,21.286938693869,0,0
-183.65169384187,-80.31126849621,16.091369136914,1275625.7217961,2035.5408753402,2636298.5698643,21.291369136914,0,0
-183.6516937436,-80.340091400426,16.095799579958,1275625.7217961,2035.5408753402,2636298.5698643,21.295799579958,0,0
-183.65169364534,-80.368914304642,16.100230023002,1275625.7217961,2035.5408753402,2636298.5698643,21.300230023002,0,0
-183.65169354708,-80.397737208857,16.104660466047,1275625.7217961,2035.5408753402,2636298.5698643,21.304660466047,0,0
-183.65169344881,-80.426560113073,16.109090909091,1275625.7217961,2035.5408753402,2636298.5698643,21.309090909091,0,0
-183.65169335055,-80.455383017289,16.113521352135,1275625.7217961,2035.5408753402,2636298.5698643,21.313521352135,0,0
-183.65169325229,-80.484205921505,16.11795179518,1275625.7217961,2035.5408753402,2636298.5698643,21.31795179518,0,0
-183.65169315403,-80.513028825721,16.122382238224,1275625.7217961,2035.5408753402,2636298.5698643,21.322382238224,0,0
-183.65169305576,-80.541851729937,16.126812681268,1275625.7217961,2035.5408753402,2636298.5698643,21.326812681268,0,0
-183.6516929575,-80.570674634153,16.131243124312,1275625.7217961,2035.5408753402,2636298.5698643,21.331243124312,0,0
-183.65169285924,-80.599497538369,16.135673567357,1275625.7217961,2035.5408753402,2636298.5698643,21.335673567357,0,0
-183.65169276098,-80.628320442585,16.140104010401,1275625.7217961,2035.5408753402,2636298.5698643,21.340104010401,0,0
-183.65169266271,-80.657143346801,16.144534453445,1275625.7217961,2035.5408753402,2636298.5698643,21.344534453445,0,0
-183.65169256445,-80.685966251017,16.14896489649,1275625.7217961,2035.5408753402,2636298.5698643,21.34896489649,0,0
-183.65169246619,-80.714789155233,16.153395339534,1275625.7217961,2035.5408753402,2636298.5698643,21.353395339534,0,0
-183.65169236793,-80.743612059449,16.157825782578,1275625.7217961,2035.5408753402,2636298.5698643,21.357825782578,0,0
-183.65169226966,-80.772434963665,16.162256225623,1275625.7217961,2035.5408753402,2636298.5698643,21.362256225623,0,0
-183.6516921714,-80.801257867881,16.166686668667,1275625.7217961,2035.5408753402,2636298.5698643,21.366686668667,0,0
-183.65169207314,-80.830080772097,16.171117111711,1275625.7217961,2035.5408753402,2636298.5698643,21.371117111711,0,0
-183.65169197488,-80.858903676313,16.175547554755,1275625.7217961,2035.5408753402,2636298.5698643,21.375547554755,0,0
-183.65169187661,-80.887726580529,16.1799779978,1275625.7217961,2035.5408753402,2636298.5698643,21.3799779978,0,0
-183.65169177835,-80.916549484744,16.184408440844,1275625.7217961,2035.5408753402,2636298.5698643,21.384408440844,0,0
-183.65169168009,-80.94537238896,16.188838883888,1275625.7217961,2035.5408753402,2636298.5698643,21.388838883888,0,0
-183.65169158183,-80.974195293176,16.193269326933,1275625.7217961,2035.5408753402,2636298.5698643,21.393269326933,0,0
-183.65169148356,-81.003018197392,16.197699769977,1275625.7217961,2035.5408753402,2636298.5698643,21.397699769977,0,0
-183.6516913853,-81.031841101608,16.202130213021,1275625.7217961,2035.5408753402,2636298.5698643,21.402130213021,0,0
-183.65169128704,-81.060664005824,16.206560656066,1275625.7217961,2035.5408753402,2636298.5698643,21.406560656066,0,0
-183.65169118877,-81.08948691004,16.21099109911,1275625.7217961,2035.5408753402,2636298.5698643,21.41099109911,0,0
-183.65169109051,-81.118309814256,16.215421542154,1275625.7217961,2035.5408753402,2636298.5698643,21.415421542154,0,0
-183.65169099225,-81.147132718472,16.219851985199,1275625.7217961,2035.5408753402,2636298.5698643,21.419851985199,0,0
-183.65169089399,-81.175955622688,16.224282428243,1275625.7217961,2035.5408753402,2636298.5698643,21.424282428243,0,0
-183.65169079572,-81.204778526904,16.228712871287,1275625.7217961,2035.5408753402,2636298.5698643,21.428712871287,0,0
-183.65169069746,-81.23360143112,16.233143314331,1275625.7217961,2035.5408753402,2636298.5698643,21.433143314331,0,0
-183.6516905992,-81.262424335336,16.237573757376,1275625.7217961,2035.5408753402,2636298.5698643,21.437573757376,0,0
-183.65169050094,-81.291247239552,16.24200420042,1275625.7217961,2035.5408753402,2636298.5698643,21.44200420042,0,0
-183.65169040267,-81.320070143768,16.246434643464,1275625.7217961,2035.5408753402,2636298.5698643,21.446434643464,0,0
-183.65169030441,-81.348893047984,16.250865086509,1275625.7217961,2035.5408753402,2636298.5698643,21.450865086509,0,0
-183.65169020615,-81.3777159522,16.255295529553,1275625.7217961,2035.5408753402,2636298.5698643,21.455295529553,0,0
-183.65169010789,-81.406538856415,16.259725972597,1275625.7217961,2035.5408753402,2636298.5698643,21.459725972597,0,0
-183.65169000962,-81.435361760631,16.264156415642,1275625.7217961,2035.5408753402,2636298.5698643,21.464156415642,0,0
-183.65168991136,-81.464184664847,16.268586858686,1275625.7217961,2035.5408753402,2636298.5698643,21.468586858686,0,0
-183.6516898131,-81.493007569063,16.27301730173,1275625.7217961,2035.5408753402,2636298.5698643,21.47301730173,0,0
-183.65168971484,-81.521830473279,16.277447744774,1275625.7217961,2035.5408753402,2636298.5698643,21.477447744774,0,0
-183.65168961657,-81.550653377495,16.281878187819,1275625.7217961,2035.5408753402,2636298.5698643,21.481878187819,0,0
-183.65168951831,-81.579476281711,16.286308630863,1275625.7217961,2035.5408753402,2636298.5698643,21.486308630863,0,0
-183.65168942005,-81.608299185927,16.290739073907,1275625.7217961,2035.5408753402,2636298.5698643,21.490739073907,0,0
-183.65168932179,-81.637122090143,16.295169516952,1275625.7217961,2035.5408753402,2636298.5698643,21.495169516952,0,0
-183.65168922352,-81.665944994359,16.299599959996,1275625.7217961,2035.5408753402,2636298.5698643,21.499599959996,0,0
-183.65168912526,-81.694767898575,16.30403040304,1275625.7217961,2035.5408753402,2636298.5698643,21.50403040304,0,0
-183.651689027,-81.723590802791,16.308460846085,1275625.7217961,2035.5408753402,2636298.5698643,21.508460846085,0,0
-183.65168892873,-81.752413707007,16.312891289129,1275625.7217961,2035.5408753402,2636298.5698643,21.512891289129,0,0
-183.65168883047,-81.781236611223,16.317321732173,1275625.7217961,2035.5408753402,2636298.5698643,21.517321732173,0,0
-183.65168873221,-81.810059515439,16.321752175218,1275625.7217961,2035.5408753402,2636298.5698643,21.521752175218,0,0
-183.65168863395,-81.838882419655,16.326182618262,1275625.7217961,2035.5408753402,2636298.5698643,21.526182618262,0,0
-183.65168853568,-81.867705323871,16.330613061306,1275625.7217961,2035.5408753402,2636298.5698643,21.530613061306,0,0
-183.65168843742,-81.896528228087,16.33504350435,1275625.7217961,2035.5408753402,2636298.5698643,21.53504350435,0,0
-183.65168833916,-81.925351132302,16.339473947395,1275625.7217961,2035.5408753402,2636298.5698643,21.539473947395,0,0
-183.6516882409,-81.954174036518,16.343904390439,1275625.7217961,2035.5408753402,2636298.5698643,21.543904390439,0,0
-183.65168814263,-81.982996940734,16.348334833483,1275625.7217961,2035.5408753402,2636298.5698643,21.548334833483,0,0
-183.65168804437,-82.01181984495,16.352765276528,1275625.7217961,2035.5408753402,2636298.5698643,21.552765276528,0,0
-183.65168794611,-82.040642749166,16.357195719572,1275625.7217961,2035.5408753402,2636298.5698643,21.557195719572,0,0
-183.65168784785,-82.069465653382,16.361626162616,1275625.7217961,2035.5408753402,2636298.5698643,21.561626162616,0,0
-183.65168774958,-82.098288557598,16.366056605661,1275625.7217961,2035.5408753402,2636298.5698643,21.566056605661,0,0
-183.65168765132,-82.127111461814,16.370487048705,1275625.7217961,2035.5408753402,2636298.5698643,21.570487048705,0,0
-183.65168755306,-82.15593436603,16.374917491749,1275625.7217961,2035.5408753402,2636298.5698643,21.574917491749,0,0
-183.6516874548,-82.184757270246,16.379347934793,1275625.7217961,2035.5408753402,2636298.5698643,21.579347934793,0,0
-183.65168735653,-82.213580174462,16.383778377838,1275625.7217961,2035.5408753402,2636298.5698643,21.583778377838,0,0
-183.65168725827,-82.242403078678,16.388208820882,1275625.7217961,2035.5408753402,2636298.5698643,21.588208820882,0,0
-183.65168716001,-82.271225982894,16.392639263926,1275625.7217961,2035.5408753402,2636298.5698643,21.592639263926,0,0
-183.65168706175,-82.30004888711,16.397069706971,1275625.7217961,2035.5408753402,2636298.5698643,21.597069706971,0,0
-183.65168696348,-82.328871791326,16.401500150015,1275625.7217961,2035.5408753402,2636298.5698643,21.601500150015,0,0
-183.65168686522,-82.357694695542,16.405930593059,1275625.7217961,2035.5408753402,2636298.5698643,21.605930593059,0,0
-183.65168676696,-82.386517599758,16.410361036104,1275625.7217961,2035.5408753402,2636298.5698643,21.610361036104,0,0
-183.65168666869,-82.415340503973,16.414791479148,1275625.7217961,2035.5408753402,2636298.5698643,21.614791479148,0,0
-183.65168657043,-82.444163408189,16.419221922192,1275625.7217961,2035.5408753402,2636298.5698643,21.619221922192,0,0
-183.65168647217,-82.472986312405,16.423652365237,1275625.7217961,2035.5408753402,2636298.5698643,21.623652365237,0,0
-183.65168637391,-82.501809216621,16.428082808281,1275625.7217961,2035.5408753402,2636298.5698643,21.628082808281,0,0
-183.65168627564,-82.530632120837,16.432513251325,1275625.7217961,2035.5408753402,2636298.5698643,21.632513251325,0,0
-183.65168617738,-82.559455025053,16.436943694369,1275625.7217961,2035.5408753402,2636298.5698643,21.636943694369,0,0
-183.65168607912,-82.588277929269,16.441374137414,1275625.7217961,2035.5408753402,2636298.5698643,21.641374137414,0,0
-183.65168598086,-82.617100833485,16.445804580458,1275625.7217961,2035.5408753402,2636298.5698643,21.645804580458,0,0
-183.65168588259,-82.645923737701,16.450235023502,1275625.7217961,2035.5408753402,2636298.5698643,21.650235023502,0,0
-183.65168578433,-82.674746641917,16.454665466547,1275625.7217961,2035.5408753402,2636298.5698643,21.654665466547,0,0
-183.65168568607,-82.703569546133,16.459095909591,1275625.7217961,2035.5408753402,2636298.5698643,21.659095909591,0,0
-183.65168558781,-82.732392450349,16.463526352635,1275625.7217961,2035.5408753402,2636298.5698643,21.663526352635,0,0
-183.65168548954,-82.761215354565,16.46795679568,1275625.7217961,2035.5408753402,2636298.5698643,21.66795679568,0,0
-183.65168539128,-82.790038258781,16.472387238724,1275625.7217961,2035.5408753402,2636298.5698643,21.672387238724,0,0
-183.65168529302,-82.818861162997,16.476817681768,1275625.7217961,2035.5408753402,2636298.5698643,21.676817681768,0,0
-183.65168519476,-82.847684067213,16.481248124812,1275625.7217961,2035.5408753402,2636298.5698643,21.681248124812,0,0
-183.65168509649,-82.876506971429,16.485678567857,1275625.7217961,2035.5408753402,2636298.5698643,21.685678567857,0,0
-183.65168499823,-82.905329875645,16.490109010901,1275625.7217961,2035.5408753402,2636298.5698643,21.690109010901,0,0
-183.65168489997,-82.93415277986,16.494539453945,1275625.7217961,2035.5408753402,2636298.5698643,21.694539453945,0,0
-183.65168480171,-82.962975684076,16.49896989699,1275625.7217961,2035.5408753402,2636298.5698643,21.69896989699,0,0
-183.65168470344,-82.991798588292,16.503400340034,1275625.7217961,2035.5408753402,2636298.5698643,21.703400340034,0,0
-183.65168460518,-83.020621492508,16.507830783078,1275625.7217961,2035.5408753402,2636298.5698643,21.707830783078,0,0
-183.65168450692,-83.049444396724,16.512261226123,1275625.7217961,2035.5408753402,2636298.5698643,21.712261226123,0,0
-183.65168440865,-83.07826730094,16.516691669167,1275625.7217961,2035.5408753402,2636298.5698643,21.716691669167,0,0
-183.65168431039,-83.107090205156,16.521122112211,1275625.7217961,2035.5408753402,2636298.5698643,21.721122112211,0,0
-183.65168421213,-83.135913109372,16.525552555256,1275625.7217961,2035.5408753402,2636298.5698643,21.725552555256,0,0
-183.65168411387,-83.164736013588,16.5299829983,1275625.7217961,2035.5408753402,2636298.5698643,21.7299829983,0,0
-183.6516840156,-83.193558917804,16.534413441344,1275625.7217961,2035.5408753402,2636298.5698643,21.734413441344,0,0
-183.65168391734,-83.22238182202,16.538843884388,1275625.7217961,2035.5408753402,2636298.5698643,21.738843884388,0,0
-183.65168381908,-83.251204726236,16.543274327433,1275625.7217961,2035.5408753402,2636298.5698643,21.743274327433,0,0
-183.65168372082,-83.280027630452,16.547704770477,1275625.7217961,2035.5408753402,2636298.5698643,21.747704770477,0,0
-183.65168362255,-83.308850534668,16.552135213521,1275625.7217961,2035.5408753402,2636298.5698643,21.752135213521,0,0
-183.65168352429,-83.337673438884,16.556565656566,1275625.7217961,2035.5408753402,2636298.5698643,21.756565656566,0,0
-183.65168342603,-83.3664963431,16.56099609961,1275625.7217961,2035.5408753402,2636298.5698643,21.76099609961,0,0
-183.65168332777,-83.395319247316,16.565426542654,1275625.7217961,2035.5408753402,2636298.5698643,21.765426542654,0,0
-183.6516832295,-83.424142151531,16.569856985699,1275625.7217961,2035.5408753402,2636298.5698643,21.769856985699,0,0
-183.65168313124,-83.452965055747,16.574287428743,1275625.7217961,2035.5408753402,2636298.5698643,21.774287428743,0,0
-183.65168303298,-83.481787959963,16.578717871787,1275625.7217961,2035.5408753402,2636298.5698643,21.778717871787,0,0
-183.65168293472,-83.510610864179,16.583148314831,1275625.7217961,2035.5408753402,2636298.5698643,21.783148314831,0,0
-183.65168283645,-83.539433768395,16.587578757876,1275625.7217961,2035.5408753402,2636298.5698643,21.787578757876,0,0
-183.65168273819,-83.568256672611,16.59200920092,1275625.7217961,2035.5408753402,2636298.5698643,21.79200920092,0,0
-183.65168263993,-83.597079576827,16.596439643964,1275625.7217961,2035.5408753402,2636298.5698643,21.796439643964,0,0
-183.65168254167,-83.625902481043,16.600870087009,1275625.7217961,2035.5408753402,2636298.5698643,21.800870087009,0,0
-183.6516824434,-83.654725385259,16.605300530053,1275625.7217961,2035.5408753402,2636298.5698643,21.805300530053,0,0
-183.65168234514,-83.683548289475,16.609730973097,1275625.7217961,2035.5408753402,2636298.5698643,21.809730973097,0,0
-183.65168224688,-83.712371193691,16.614161416142,1275625.7217961,2035.5408753402,2636298.5698643,21.814161416142,0,0
-183.65168214861,-83.741194097907,16.618591859186,1275625.7217961,2035.5408753402,2636298.5698643,21.818591859186,0,0
-183.65168205035,-83.770017002123,16.62302230223,1275625.7217961,2035.5408753402,2636298.5698643,21.82302230223,0,0
-183.65168195209,-83.798839906339,16.627452745275,1275625.7217961,2035.5408753402,2636298.5698643,21.827452745275,0,0
-183.65168185383,-83.827662810555,16.631883188319,1275625.7217961,2035.5408753402,2636298.5698643,21.831883188319,0,0
-183.65168175556,-83.856485714771,16.636313631363,1275625.7217961,2035.5408753402,2636298.5698643,21.836313631363,0,0
-183.6516816573,-83.885308618987,16.640744074407,1275625.7217961,2035.5408753402,2636298.5698643,21.840744074407,0,0
-183.65168155904,-83.914131523203,16.645174517452,1275625.7217961,2035.5408753402,2636298.5698643,21.845174517452,0,0
-183.65168146078,-83.942954427418,16.649604960496,1275625.7217961,2035.5408753402,2636298.5698643,21.849604960496,0,0
-183.65168136251,-83.971777331634,16.65403540354,1275625.7217961,2035.5408753402,2636298.5698643,21.85403540354,0,0
-183.65168126425,-84.00060023585,16.658465846585,1275625.7217961,2035.5408753402,2636298.5698643,21.858465846585,0,0
-183.65168116599,-84.029423140066,16.662896289629,1275625.7217961,2035.5408753402,2636298.5698643,21.862896289629,0,0
-183.65168106773,-84.058246044282,16.667326732673,1275625.7217961,2035.5408753402,2636298.5698643,21.867326732673,0,0
-183.65168096946,-84.087068948498,16.671757175718,1275625.7217961,2035.5408753402,2636298.5698643,21.871757175718,0,0
-183.6516808712,-84.115891852714,16.676187618762,1275625.7217961,2035.5408753402,2636298.5698643,21.876187618762,0,0
-183.65168077294,-84.14471475693,16.680618061806,1275625.7217961,2035.5408753402,2636298.5698643,21.880618061806,0,0
-183.65168067468,-84.173537661146,16.68504850485,1275625.7217961,2035.5408753402,2636298.5698643,21.88504850485,0,0
-183.65168057641,-84.202360565362,16.689478947895,1275625.7217961,2035.5408753402,2636298.5698643,21.889478947895,0,0
-183.65168047815,-84.231183469578,16.693909390939,1275625.7217961,2035.5408753402,2636298.5698643,21.893909390939,0,0
-183.65168037989,-84.260006373794,16.698339833983,1275625.7217961,2035.5408753402,2636298.5698643,21.898339833983,0,0
-183.65168028163,-84.28882927801,16.702770277028,1275625.7217961,2035.5408753402,2636298.5698643,21.902770277028,0,0
-183.65168018336,-84.317652182226,16.707200720072,1275625.7217961,2035.5408753402,2636298.5698643,21.907200720072,0,0
-183.6516800851,-84.346475086442,16.711631163116,1275625.7217961,2035.5408753402,2636298.5698643,21.911631163116,0,0
-183.65167998684,-84.375297990658,16.716061606161,1275625.7217961,2035.5408753402,2636298.5698643,21.916061606161,0,0
-183.65167988857,-84.404120894874,16.720492049205,1275625.7217961,2035.5408753402,2636298.5698643,21.920492049205,0,0
-183.65167979031,-84.43294379909,16.724922492249,1275625.7217961,2035.5408753402,2636298.5698643,21.924922492249,0,0
-183.65167969205,-84.461766703305,16.729352935294,1275625.7217961,2035.5408753402,2636298.5698643,21.929352935294,0,0
-183.65167959379,-84.490589607521,16.733783378338,1275625.7217961,2035.5408753402,2636298.5698643,21.933783378338,0,0
-183.65167949552,-84.519412511737,16.738213821382,1275625.7217961,2035.5408753402,2636298.5698643,21.938213821382,0,0
-183.65167939726,-84.548235415953,16.742644264426,1275625.7217961,2035.5408753402,2636298.5698643,21.942644264426,0,0
-183.651679299,-84.577058320169,16.747074707471,1275625.7217961,2035.5408753402,2636298.5698643,21.947074707471,0,0
-183.65167920074,-84.605881224385,16.751505150515,1275625.7217961,2035.5408753402,2636298.5698643,21.951505150515,0,0
-183.65167910247,-84.634704128601,16.755935593559,1275625.7217961,2035.5408753402,2636298.5698643,21.955935593559,0,0
-183.65167900421,-84.663527032817,16.760366036604,1275625.7217961,2035.5408753402,2636298.5698643,21.960366036604,0,0
-183.65167890595,-84.692349937033,16.764796479648,1275625.7217961,2035.5408753402,2636298.5698643,21.964796479648,0,0
-183.65167880769,-84.721172841249,16.769226922692,1275625.7217961,2035.5408753402,2636298.5698643,21.969226922692,0,0
-183.65167870942,-84.749995745465,16.773657365737,1275625.7217961,2035.5408753402,2636298.5698643,21.973657365737,0,0
-183.65167861116,-84.778818649681,16.778087808781,1275625.7217961,2035.5408753402,2636298.5698643,21.978087808781,0,0
-183.6516785129,-84.807641553897,16.782518251825,1275625.7217961,2035.5408753402,2636298.5698643,21.982518251825,0,0
-183.65167841456,-84.836464458464,16.786948694869,1274934.3091218,-1254.3880257,2627582.6447363,21.986948694869,0,0
-183.65167831612,-84.865287363523,16.791379137914,1274934.3091218,-1254.3880257,2627582.6447363,21.991379137914,0,0
-183.65167821768,-84.894110268581,16.795809580958,1274934.3091218,-1254.3880257,2627582.6447363,21.995809580958,0,0
-183.65167811924,-84.92293317364,16.800240024002,1274934.3091218,-1254.3880257,2627582.6447363,22.000240024002,0,0
-183.6516780208,-84.951756078699,16.804670467047,1274934.3091218,-1254.3880257,2627582.6447363,22.004670467047,0,0
-183.65167792236,-84.980578983758,16.809100910091,1274934.3091218,-1254.3880257,2627582.6447363,22.009100910091,0,0
-183.65167782393,-85.009401888817,16.813531353135,1274934.3091218,-1254.3880257,2627582.6447363,22.013531353135,0,0
-183.65167772549,-85.038224793876,16.81796179618,1274934.3091218,-1254.3880257,2627582.6447363,22.01796179618,0,0
-183.65167762705,-85.067047698935,16.822392239224,1274934.3091218,-1254.3880257,2627582.6447363,22.022392239224,0,0
-183.65167752861,-85.095870603994,16.826822682268,1274934.3091218,-1254.3880257,2627582.6447363,22.026822682268,0,0
-183.65167743017,-85.124693509053,16.831253125313,1274934.3091218,-1254.3880257,2627582.6447363,22.031253125313,0,0
-183.65167733173,-85.153516414111,16.835683568357,1274934.3091218,-1254.3880257,2627582.6447363,22.035683568357,0,0
-183.65167723329,-85.18233931917,16.840114011401,1274934.3091218,-1254.3880257,2627582.6447363,22.040114011401,0,0
-183.65167713485,-85.211162224229,16.844544454445,1274934.3091218,-1254.3880257,2627582.6447363,22.044544454445,0,0
-183.65167703641,-85.239985129288,16.84897489749,1274934.3091218,-1254.3880257,2627582.6447363,22.04897489749,0,0
-183.65167693797,-85.268808034347,16.853405340534,1274934.3091218,-1254.3880257,2627582.6447363,22.053405340534,0,0
-183.65167683953,-85.297630939406,16.857835783578,1274934.3091218,-1254.3880257,2627582.6447363,22.057835783578,0,0
-183.65167674109,-85.326453844465,16.862266226623,1274934.3091218,-1254.3880257,2627582.6447363,22.062266226623,0,0
-183.65167664265,-85.355276749524,16.866696669667,1274934.3091218,-1254.3880257,2627582.6447363,22.066696669667,0,0
-183.65167654421,-85.384099654583,16.871127112711,1274934.3091218,-1254.3880257,2627582.6447363,22.071127112711,0,0
-183.65167644577,-85.412922559641,16.875557555756,1274934.3091218,-1254.3880257,2627582.6447363,22.075557555756,0,0
-183.65167634733,-85.4417454647,16.8799879988,1274934.3091218,-1254.3880257,2627582.6447363,22.0799879988,0,0
-183.65167624889,-85.470568369759,16.884418441844,1274934.3091218,-1254.3880257,2627582.6447363,22.084418441844,0,0
-183.65167615045,-85.499391274818,16.888848884888,1274934.3091218,-1254.3880257,2627582.6447363,22.088848884888,0,0
-183.65167605202,-85.528214179877,16.893279327933,1274934.3091218,-1254.3880257,2627582.6447363,22.093279327933,0,0
-183.65167595358,-85.557037084936,16.897709770977,1274934.3091218,-1254.3880257,2627582.6447363,22.097709770977,0,0
-183.65167585514,-85.585859989995,16.902140214021,1274934.3091218,-1254.3880257,2627582.6447363,22.102140214021,0,0
-183.6516757567,-85.614682895054,16.906570657066,1274934.3091218,-1254.3880257,2627582.6447363,22.106570657066,0,0
-183.65167565826,-85.643505800113,16.91100110011,1274934.3091218,-1254.3880257,2627582.6447363,22.11100110011,0,0
-183.65167555982,-85.672328705171,16.915431543154,1274934.3091218,-1254.3880257,2627582.6447363,22.115431543154,0,0
-183.65167546138,-85.70115161023,16.919861986199,1274934.3091218,-1254.3880257,2627582.6447363,22.119861986199,0,0
-183.65167536294,-85.729974515289,16.924292429243,1274934.3091218,-1254.3880257,2627582.6447363,22.124292429243,0,0
-183.6516752645,-85.758797420348,16.928722872287,1274934.3091218,-1254.3880257,2627582.6447363,22.128722872287,0,0
-183.65167516606,-85.787620325407,16.933153315332,1274934.3091218,-1254.3880257,2627582.6447363,22.133153315332,0,0
-183.65167506762,-85.816443230466,16.937583758376,1274934.3091218,-1254.3880257,2627582.6447363,22.137583758376,0,0
-183.65167496918,-85.845266135525,16.94201420142,1274934.3091218,-1254.3880257,2627582.6447363,22.14201420142,0,0
-183.65167487074,-85.874089040584,16.946444644464,1274934.3091218,-1254.3880257,2627582.6447363,22.146444644464,0,0
-183.6516747723,-85.902911945643,16.950875087509,1274934.3091218,-1254.3880257,2627582.6447363,22.150875087509,0,0
-183.65167467386,-85.931734850702,16.955305530553,1274934.3091218,-1254.3880257,2627582.6447363,22.155305530553,0,0
-183.65167457542,-85.96055775576,16.959735973597,1274934.3091218,-1254.3880257,2627582.6447363,22.159735973597,0,0
-183.65167447698,-85.989380660819,16.964166416642,1274934.3091218,-1254.3880257,2627582.6447363,22.164166416642,0,0
-183.65167437854,-86.018203565878,16.968596859686,1274934.3091218,-1254.3880257,2627582.6447363,22.168596859686,0,0
-183.65167428011,-86.047026470937,16.97302730273,1274934.3091218,-1254.3880257,2627582.6447363,22.17302730273,0,0
-183.65167418167,-86.075849375996,16.977457745775,1274934.3091218,-1254.3880257,2627582.6447363,22.177457745775,0,0
-183.65167408323,-86.104672281055,16.981888188819,1274934.3091218,-1254.3880257,2627582.6447363,22.181888188819,0,0
-183.65167398479,-86.133495186114,16.986318631863,1274934.3091218,-1254.3880257,2627582.6447363,22.186318631863,0,0
-183.65167388635,-86.162318091173,16.990749074907,1274934.3091218,-1254.3880257,2627582.6447363,22.190749074907,0,0
-183.65167378791,-86.191140996232,16.995179517952,1274934.3091218,-1254.3880257,2627582.6447363,22.195179517952,0,0
-183.65167368947,-86.21996390129,16.999609960996,1274934.3091218,-1254.3880257,2627582.6447363,22.199609960996,0,0
-183.65167359103,-86.248786806349,17.00404040404,1274934.3091218,-1254.3880257,2627582.6447363,22.20404040404,0,0
-183.65167349259,-86.277609711408,17.008470847085,1274934.3091218,-1254.3880257,2627582.6447363,22.208470847085,0,0
-183.65167339415,-86.306432616467,17.012901290129,1274934.3091218,-1254.3880257,2627582.6447363,22.212901290129,0,0
-183.65167329571,-86.335255521526,17.017331733173,1274934.3091218,-1254.3880257,2627582.6447363,22.217331733173,0,0
-183.65167319727,-86.364078426585,17.021762176218,1274934.3091218,-1254.3880257,2627582.6447363,22.221762176218,0,0
-183.65167309883,-86.392901331644,17.026192619262,1274934.3091218,-1254.3880257,2627582.6447363,22.226192619262,0,0
-183.65167300039,-86.421724236703,17.030623062306,1274934.3091218,-1254.3880257,2627582.6447363,22.230623062306,0,0
-183.65167290195,-86.450547141762,17.035053505351,1274934.3091218,-1254.3880257,2627582.6447363,22.235053505351,0,0
-183.65167280351,-86.47937004682,17.039483948395,1274934.3091218,-1254.3880257,2627582.6447363,22.239483948395,0,0
-183.65167270507,-86.508192951879,17.043914391439,1274934.3091218,-1254.3880257,2627582.6447363,22.243914391439,0,0
-183.65167260663,-86.537015856938,17.048344834483,1274934.3091218,-1254.3880257,2627582.6447363,22.248344834483,0,0
-183.6516725082,-86.565838761997,17.052775277528,1274934.3091218,-1254.3880257,2627582.6447363,22.252775277528,0,0
-183.65167240976,-86.594661667056,17.057205720572,1274934.3091218,-1254.3880257,2627582.6447363,22.257205720572,0,0
-183.65167231132,-86.623484572115,17.061636163616,1274934.3091218,-1254.3880257,2627582.6447363,22.261636163616,0,0
-183.65167221288,-86.652307477174,17.066066606661,1274934.3091218,-1254.3880257,2627582.6447363,22.266066606661,0,0
-183.65167211444,-86.681130382233,17.070497049705,1274934.3091218,-1254.3880257,2627582.6447363,22.270497049705,0,0
-183.651672016,-86.709953287292,17.074927492749,1274934.3091218,-1254.3880257,2627582.6447363,22.274927492749,0,0
-183.65167191756,-86.73877619235,17.079357935794,1274934.3091218,-1254.3880257,2627582.6447363,22.279357935794,0,0
-183.65167181912,-86.767599097409,17.083788378838,1274934.3091218,-1254.3880257,2627582.6447363,22.283788378838,0,0
-183.65167172068,-86.796422002468,17.088218821882,1274934.3091218,-1254.3880257,2627582.6447363,22.288218821882,0,0
-183.65167162224,-86.825244907527,17.092649264926,1274934.3091218,-1254.3880257,2627582.6447363,22.292649264926,0,0
-183.6516715238,-86.854067812586,17.097079707971,1274934.3091218,-1254.3880257,2627582.6447363,22.297079707971,0,0
-183.65167142536,-86.882890717645,17.101510151015,1274934.3091218,-1254.3880257,2627582.6447363,22.301510151015,0,0
-183.65167132692,-86.911713622704,17.105940594059,1274934.3091218,-1254.3880257,2627582.6447363,22.305940594059,0,0
-183.65167122848,-86.940536527763,17.110371037104,1274934.3091218,-1254.3880257,2627582.6447363,22.310371037104,0,0
-183.65167113004,-86.969359432822,17.114801480148,1274934.3091218,-1254.3880257,2627582.6447363,22.314801480148,0,0
-183.6516710316,-86.998182337881,17.119231923192,1274934.3091218,-1254.3880257,2627582.6447363,22.319231923192,0,0
-183.65167093316,-87.027005242939,17.123662366237,1274934.3091218,-1254.3880257,2627582.6447363,22.323662366237,0,0
-183.65167083472,-87.055828147998,17.128092809281,1274934.3091218,-1254.3880257,2627582.6447363,22.328092809281,0,0
-183.65167073629,-87.084651053057,17.132523252325,1274934.3091218,-1254.3880257,2627582.6447363,22.332523252325,0,0
-183.65167063785,-87.113473958116,17.13695369537,1274934.3091218,-1254.3880257,2627582.6447363,22.33695369537,0,0
-183.65167053941,-87.142296863175,17.141384138414,1274934.3091218,-1254.3880257,2627582.6447363,22.341384138414,0,0
-183.65167044097,-87.171119768234,17.145814581458,1274934.3091218,-1254.3880257,2627582.6447363,22.345814581458,0,0
-183.65167034253,-87.199942673293,17.150245024502,1274934.3091218,-1254.3880257,2627582.6447363,22.350245024502,0,0
-183.65167024409,-87.228765578352,17.154675467547,1274934.3091218,-1254.3880257,2627582.6447363,22.354675467547,0,0
-183.65167014565,-87.257588483411,17.159105910591,1274934.3091218,-1254.3880257,2627582.6447363,22.359105910591,0,0
-183.65167004721,-87.286411388469,17.163536353635,1274934.3091218,-1254.3880257,2627582.6447363,22.363536353635,0,0
-183.65166994877,-87.315234293528,17.16796679668,1274934.3091218,-1254.3880257,2627582.6447363,22.36796679668,0,0
-183.65166985033,-87.344057198587,17.172397239724,1274934.3091218,-1254.3880257,2627582.6447363,22.372397239724,0,0
-183.65166975189,-87.372880103646,17.176827682768,1274934.3091218,-1254.3880257,2627582.6447363,22.376827682768,0,0
-183.65166965345,-87.401703008705,17.181258125813,1274934.3091218,-1254.3880257,2627582.6447363,22.381258125813,0,0
-183.65166955501,-87.430525913764,17.185688568857,1274934.3091218,-1254.3880257,2627582.6447363,22.385688568857,0,0
-183.65166945658,-87.459348818218,17.190119011901,1272795.2083469,2001.9022161932,2621669.5124322,22.390119011901,0,0
-183.65166935816,-87.488171722592,17.194549454945,1272795.2083469,2001.9022161932,2621669.5124322,22.394549454945,0,0
-183.65166925973,-87.516994626965,17.19897989799,1272795.2083469,2001.9022161932,2621669.5124322,22.39897989799,0,0
-183.65166916131,-87.545817531338,17.203410341034,1272795.2083469,2001.9022161932,2621669.5124322,22.403410341034,0,0
-183.65166906288,-87.574640435712,17.207840784078,1272795.2083469,2001.9022161932,2621669.5124322,22.407840784078,0,0
-183.65166896445,-87.603463340085,17.212271227123,1272795.2083469,2001.9022161932,2621669.5124322,22.412271227123,0,0
-183.65166886603,-87.632286244459,17.216701670167,1272795.2083469,2001.9022161932,2621669.5124322,22.416701670167,0,0
-183.6516687676,-87.661109148832,17.221132113211,1272795.2083469,2001.9022161932,2621669.5124322,22.421132113211,0,0
-183.65166866918,-87.689932053206,17.225562556256,1272795.2083469,2001.9022161932,2621669.5124322,22.425562556256,0,0
-183.65166857075,-87.718754957579,17.2299929993,1272795.2083469,2001.9022161932,2621669.5124322,22.4299929993,0,0
-183.65166847232,-87.747577861953,17.234423442344,1272795.2083469,2001.9022161932,2621669.5124322,22.434423442344,0,0
-183.6516683739,-87.776400766326,17.238853885389,1272795.2083469,2001.9022161932,2621669.5124322,22.438853885389,0,0
-183.65166827547,-87.805223670699,17.243284328433,1272795.2083469,2001.9022161932,2621669.5124322,22.443284328433,0,0
-183.65166817705,-87.834046575073,17.247714771477,1272795.2083469,2001.9022161932,2621669.5124322,22.447714771477,0,0
-183.65166807862,-87.862869479446,17.252145214521,1272795.2083469,2001.9022161932,2621669.5124322,22.452145214521,0,0
-183.65166798019,-87.89169238382,17.256575657566,1272795.2083469,2001.9022161932,2621669.5124322,22.456575657566,0,0
-183.65166788177,-87.920515288193,17.26100610061,1272795.2083469,2001.9022161932,2621669.5124322,22.46100610061,0,0
-183.65166778334,-87.949338192567,17.265436543654,1272795.2083469,2001.9022161932,2621669.5124322,22.465436543654,0,0
-183.65166768492,-87.97816109694,17.269866986699,1272795.2083469,2001.9022161932,2621669.5124322,22.469866986699,0,0
-183.65166758649,-88.006984001313,17.274297429743,1272795.2083469,2001.9022161932,2621669.5124322,22.474297429743,0,0
-183.65166748806,-88.035806905687,17.278727872787,1272795.2083469,2001.9022161932,2621669.5124322,22.478727872787,0,0
-183.65166738964,-88.06462981006,17.283158315832,1272795.2083469,2001.9022161932,2621669.5124322,22.483158315832,0,0
-183.65166729121,-88.093452714434,17.287588758876,1272795.2083469,2001.9022161932,2621669.5124322,22.487588758876,0,0
-183.65166719279,-88.122275618807,17.29201920192,1272795.2083469,2001.9022161932,2621669.5124322,22.49201920192,0,0
-183.65166709436,-88.151098523181,17.296449644964,1272795.2083469,2001.9022161932,2621669.5124322,22.496449644964,0,0
-183.65166699593,-88.179921427554,17.300880088009,1272795.2083469,2001.9022161932,2621669.5124322,22.500880088009,0,0
-183.65166689751,-88.208744331927,17.305310531053,1272795.2083469,2001.9022161932,2621669.5124322,22.505310531053,0,0
-183.65166679908,-88.237567236301,17.309740974097,1272795.2083469,2001.9022161932,2621669.5124322,22.509740974097,0,0
-183.65166670066,-88.266390140674,17.314171417142,1272795.2083469,2001.9022161932,2621669.5124322,22.514171417142,0,0
-183.65166660223,-88.295213045048,17.318601860186,1272795.2083469,2001.9022161932,2621669.5124322,22.518601860186,0,0
-183.6516665038,-88.324035949421,17.32303230323,1272795.2083469,2001.9022161932,2621669.5124322,22.52303230323,0,0
-183.65166640538,-88.352858853795,17.327462746275,1272795.2083469,2001.9022161932,2621669.5124322,22.527462746275,0,0
-183.65166630695,-88.381681758168,17.331893189319,1272795.2083469,2001.9022161932,2621669.5124322,22.531893189319,0,0
-183.65166620853,-88.410504662541,17.336323632363,1272795.2083469,2001.9022161932,2621669.5124322,22.536323632363,0,0
-183.6516661101,-88.439327566915,17.340754075408,1272795.2083469,2001.9022161932,2621669.5124322,22.540754075408,0,0
-183.65166601167,-88.468150471288,17.345184518452,1272795.2083469,2001.9022161932,2621669.5124322,22.545184518452,0,0
-183.65166591325,-88.496973375662,17.349614961496,1272795.2083469,2001.9022161932,2621669.5124322,22.549614961496,0,0
-183.65166581482,-88.525796280035,17.35404540454,1272795.2083469,2001.9022161932,2621669.5124322,22.55404540454,0,0
-183.6516657164,-88.554619184409,17.358475847585,1272795.2083469,2001.9022161932,2621669.5124322,22.558475847585,0,0
-183.65166561797,-88.583442088782,17.362906290629,1272795.2083469,2001.9022161932,2621669.5124322,22.562906290629,0,0
-183.65166551954,-88.612264993155,17.367336733673,1272795.2083469,2001.9022161932,2621669.5124322,22.567336733673,0,0
-183.65166542112,-88.641087897529,17.371767176718,1272795.2083469,2001.9022161932,2621669.5124322,22.571767176718,0,0
-183.65166532269,-88.669910801902,17.376197619762,1272795.2083469,2001.9022161932,2621669.5124322,22.576197619762,0,0
-183.65166522427,-88.698733706276,17.380628062806,1272795.2083469,2001.9022161932,2621669.5124322,22.580628062806,0,0
-183.65166512584,-88.727556610649,17.385058505851,1272795.2083469,2001.9022161932,2621669.5124322,22.585058505851,0,0
-183.65166502741,-88.756379515023,17.389488948895,1272795.2083469,2001.9022161932,2621669.5124322,22.589488948895,0,0
-183.65166492899,-88.785202419396,17.393919391939,1272795.2083469,2001.9022161932,2621669.5124322,22.593919391939,0,0
-183.65166483056,-88.814025323769,17.398349834983,1272795.2083469,2001.9022161932,2621669.5124322,22.598349834983,0,0
-183.65166473214,-88.842848228143,17.402780278028,1272795.2083469,2001.9022161932,2621669.5124322,22.602780278028,0,0
-183.65166463371,-88.871671132516,17.407210721072,1272795.2083469,2001.9022161932,2621669.5124322,22.607210721072,0,0
-183.65166453528,-88.90049403689,17.411641164116,1272795.2083469,2001.9022161932,2621669.5124322,22.611641164116,0,0
-183.65166443686,-88.929316941263,17.416071607161,1272795.2083469,2001.9022161932,2621669.5124322,22.616071607161,0,0
-183.65166433843,-88.958139845637,17.420502050205,1272795.2083469,2001.9022161932,2621669.5124322,22.620502050205,0,0
-183.65166424001,-88.98696275001,17.424932493249,1272795.2083469,2001.9022161932,2621669.5124322,22.624932493249,0,0
-183.65166414158,-89.015785654383,17.429362936294,1272795.2083469,2001.9022161932,2621669.5124322,22.629362936294,0,0
-183.65166404315,-89.044608558757,17.433793379338,1272795.2083469,2001.9022161932,2621669.5124322,22.633793379338,0,0
-183.65166394473,-89.07343146313,17.438223822382,1272795.2083469,2001.9022161932,2621669.5124322,22.638223822382,0,0
-183.6516638463,-89.102254367504,17.442654265427,1272795.2083469,2001.9022161932,2621669.5124322,22.642654265427,0,0
-183.65166374787,-89.131077271877,17.447084708471,1272795.2083469,2001.9022161932,2621669.5124322,22.647084708471,0,0
-183.65166364945,-89.159900176251,17.451515151515,1272795.2083469,2001.9022161932,2621669.5124322,22.651515151515,0,0
-183.65166355102,-89.188723080624,17.455945594559,1272795.2083469,2001.9022161932,2621669.5124322,22.655945594559,0,0
-183.6516634526,-89.217545984997,17.460376037604,1272795.2083469,2001.9022161932,2621669.5124322,22.660376037604,0,0
-183.65166335417,-89.246368889371,17.464806480648,1272795.2083469,2001.9022161932,2621669.5124322,22.664806480648,0,0
-183.65166325574,-89.275191793744,17.469236923692,1272795.2083469,2001.9022161932,2621669.5124322,22.669236923692,0,0
-183.65166315732,-89.304014698118,17.473667366737,1272795.2083469,2001.9022161932,2621669.5124322,22.673667366737,0,0
-183.65166305889,-89.332837602491,17.478097809781,1272795.2083469,2001.9022161932,2621669.5124322,22.678097809781,0,0
-183.65166296047,-89.361660506865,17.482528252825,1272795.2083469,2001.9022161932,2621669.5124322,22.682528252825,0,0
-183.65166286204,-89.390483411238,17.48695869587,1272795.2083469,2001.9022161932,2621669.5124322,22.68695869587,0,0
-183.65166276361,-89.419306315611,17.491389138914,1272795.2083469,2001.9022161932,2621669.5124322,22.691389138914,0,0
-183.65166266519,-89.448129219985,17.495819581958,1272795.2083469,2001.9022161932,2621669.5124322,22.695819581958,0,0
-183.65166256676,-89.476952124358,17.500250025002,1272795.2083469,2001.9022161932,2621669.5124322,22.700250025002,0,0
-183.65166246834,-89.505775028732,17.504680468047,1272795.2083469,2001.9022161932,2621669.5124322,22.704680468047,0,0
-183.65166236991,-89.534597933105,17.509110911091,1272795.2083469,2001.9022161932,2621669.5124322,22.709110911091,0,0
-183.65166227148,-89.563420837479,17.513541354135,1272795.2083469,2001.9022161932,2621669.5124322,22.713541354135,0,0
-183.65166217306,-89.592243741852,17.51797179718,1272795.2083469,2001.9022161932,2621669.5124322,22.71797179718,0,0
-183.65166207463,-89.621066646225,17.522402240224,1272795.2083469,2001.9022161932,2621669.5124322,22.722402240224,0,0
-183.65166197621,-89.649889550599,17.526832683268,1272795.2083469,2001.9022161932,2621669.5124322,22.726832683268,0,0
-183.65166187778,-89.678712454972,17.531263126313,1272795.2083469,2001.9022161932,2621669.5124322,22.731263126313,0,0
-183.65166177935,-89.707535359346,17.535693569357,1272795.2083469,2001.9022161932,2621669.5124322,22.735693569357,0,0
-183.65166168093,-89.736358263719,17.540124012401,1272795.2083469,2001.9022161932,2621669.5124322,22.740124012401,0,0
-183.6516615825,-89.765181168093,17.544554455446,1272795.2083469,2001.9022161932,2621669.5124322,22.744554455446,0,0
-183.65166148408,-89.794004072466,17.54898489849,1272795.2083469,2001.9022161932,2621669.5124322,22.74898489849,0,0
-183.65166138565,-89.822826976839,17.553415341534,1272795.2083469,2001.9022161932,2621669.5124322,22.753415341534,0,0
-183.65166128722,-89.851649881213,17.557845784578,1272795.2083469,2001.9022161932,2621669.5124322,22.757845784578,0,0
-183.6516611888,-89.880472785586,17.562276227623,1272795.2083469,2001.9022161932,2621669.5124322,22.762276227623,0,0
-183.65166109037,-89.90929568996,17.566706670667,1272795.2083469,2001.9022161932,2621669.5124322,22.766706670667,0,0
-183.65166099195,-89.938118594333,17.571137113711,1272795.2083469,2001.9022161932,2621669.5124322,22.771137113711,0,0
-183.65166089352,-89.966941498707,17.575567556756,1272795.2083469,2001.9022161932,2621669.5124322,22.775567556756,0,0
-183.65166079509,-89.99576440308,17.5799979998,1272795.2083469,2001.9022161932,2621669.5124322,22.7799979998,0,0
-183.65166069667,-90.024587307453,17.584428442844,1272795.2083469,2001.9022161932,2621669.5124322,22.784428442844,0,0
-183.65166059824,-90.053410211827,17.588858885889,1272795.2083469,2001.9022161932,2621669.5124322,22.788858885889,0,0
-183.65166049982,-90.0822331162,17.593289328933,1272795.2083469,2001.9022161932,2621669.5124322,22.793289328933,0,0
-183.65166040139,-90.111056020574,17.597719771977,1272795.2083469,2001.9022161932,2621669.5124322,22.797719771977,0,0
-183.65166030296,-90.139878924947,17.602150215021,1272795.2083469,2001.9022161932,2621669.5124322,22.802150215021,0,0
-183.65166020454,-90.168701829321,17.606580658066,1272795.2083469,2001.9022161932,2621669.5124322,22.806580658066,0,0
-183.65166010611,-90.197524733694,17.61101110111,1272795.2083469,2001.9022161932,2621669.5124322,22.81101110111,0,0
-183.65166000769,-90.226347638068,17.615441544154,1272795.2083469,2001.9022161932,2621669.5124322,22.815441544154,0,0
-183.65165990926,-90.255170542441,17.619871987199,1272795.2083469,2001.9022161932,2621669.5124322,22.819871987199,0,0
-183.65165981083,-90.283993446814,17.624302430243,1272795.2083469,2001.9022161932,2621669.5124322,22.824302430243,0,0
-183.65165971241,-90.312816351188,17.628732873287,1272795.2083469,2001.9022161932,2621669.5124322,22.828732873287,0,0
-183.65165961398,-90.341639255561,17.633163316332,1272795.2083469,2001.9022161932,2621669.5124322,22.833163316332,0,0
-183.65165951556,-90.370462159935,17.637593759376,1272795.2083469,2001.9022161932,2621669.5124322,22.837593759376,0,0
-183.65165941713,-90.399285064308,17.64202420242,1272795.2083469,2001.9022161932,2621669.5124322,22.84202420242,0,0
-183.6516593187,-90.428107968682,17.646454645465,1272795.2083469,2001.9022161932,2621669.5124322,22.846454645465,0,0
-183.65165922028,-90.456930873055,17.650885088509,1272795.2083469,2001.9022161932,2621669.5124322,22.850885088509,0,0
-183.65165912185,-90.485753777428,17.655315531553,1272795.2083469,2001.9022161932,2621669.5124322,22.855315531553,0,0
-183.65165902343,-90.514576681802,17.659745974597,1272795.2083469,2001.9022161932,2621669.5124322,22.859745974597,0,0
-183.651658925,-90.543399586175,17.664176417642,1272795.2083469,2001.9022161932,2621669.5124322,22.864176417642,0,0
-183.65165882657,-90.572222490549,17.668606860686,1272795.2083469,2001.9022161932,2621669.5124322,22.868606860686,0,0
-183.65165872815,-90.601045394922,17.67303730373,1272795.2083469,2001.9022161932,2621669.5124322,22.87303730373,0,0
-183.65165862972,-90.629868299295,17.677467746775,1272795.2083469,2001.9022161932,2621669.5124322,22.877467746775,0,0
-183.6516585313,-90.658691203669,17.681898189819,1272795.2083469,2001.9022161932,2621669.5124322,22.881898189819,0,0
-183.65165843287,-90.687514108042,17.686328632863,1272795.2083469,2001.9022161932,2621669.5124322,22.886328632863,0,0
-183.65165833444,-90.716337012416,17.690759075908,1272795.2083469,2001.9022161932,2621669.5124322,22.890759075908,0,0
-183.65165823602,-90.745159916789,17.695189518952,1272795.2083469,2001.9022161932,2621669.5124322,22.895189518952,0,0
-183.65165813759,-90.773982821163,17.699619961996,1272795.2083469,2001.9022161932,2621669.5124322,22.899619961996,0,0
-183.65165803917,-90.802805725536,17.704050405041,1272795.2083469,2001.9022161932,2621669.5124322,22.904050405041,0,0
-183.65165794074,-90.83162862991,17.708480848085,1272795.2083469,2001.9022161932,2621669.5124322,22.908480848085,0,0
-183.65165784231,-90.860451534283,17.712911291129,1272795.2083469,2001.9022161932,2621669.5124322,22.912911291129,0,0
-183.65165774389,-90.889274438656,17.717341734173,1272795.2083469,2001.9022161932,2621669.5124322,22.917341734173,0,0
-183.65165764546,-90.91809734303,17.721772177218,1272795.2083469,2001.9022161932,2621669.5124322,22.921772177218,0,0
-183.65165754704,-90.946920247403,17.726202620262,1272795.2083469,2001.9022161932,2621669.5124322,22.926202620262,0,0
-183.65165744861,-90.975743151777,17.730633063306,1272795.2083469,2001.9022161932,2621669.5124322,22.930633063306,0,0
-183.65165735018,-91.00456605615,17.735063506351,1272795.2083469,2001.9022161932,2621669.5124322,22.935063506351,0,0
-183.65165725176,-91.033388960524,17.739493949395,1272795.2083469,2001.9022161932,2621669.5124322,22.939493949395,0,0
-183.65165715333,-91.062211864897,17.743924392439,1272795.2083469,2001.9022161932,2621669.5124322,22.943924392439,0,0
-183.65165705491,-91.09103476927,17.748354835484,1272795.2083469,2001.9022161932,2621669.5124322,22.948354835484,0,0
-183.65165695648,-91.119857673644,17.752785278528,1272795.2083469,2001.9022161932,2621669.5124322,22.952785278528,0,0
-183.65165685805,-91.148680578017,17.757215721572,1272795.2083469,2001.9022161932,2621669.5124322,22.957215721572,0,0
-183.65165675963,-91.177503482391,17.761646164616,1272795.2083469,2001.9022161932,2621669.5124322,22.961646164616,0,0
-183.6516566612,-91.206326386764,17.766076607661,1272795.2083469,2001.9022161932,2621669.5124322,22.966076607661,0,0
-183.65165656278,-91.235149291138,17.770507050705,1272795.2083469,2001.9022161932,2621669.5124322,22.970507050705,0,0
-183.65165646435,-91.263972195511,17.774937493749,1272795.2083469,2001.9022161932,2621669.5124322,22.974937493749,0,0
-183.65165636592,-91.292795099884,17.779367936794,1272795.2083469,2001.9022161932,2621669.5124322,22.979367936794,0,0
-183.6516562675,-91.321618004258,17.783798379838,1272795.2083469,2001.9022161932,2621669.5124322,22.983798379838,0,0
-183.65165616907,-91.350440908631,17.788228822882,1272795.2083469,2001.9022161932,2621669.5124322,22.988228822882,0,0
-183.65165607065,-91.379263813005,17.792659265927,1272795.2083469,2001.9022161932,2621669.5124322,22.992659265927,0,0
-183.65165597222,-91.408086717378,17.797089708971,1272795.2083469,2001.9022161932,2621669.5124322,22.997089708971,0,0
-183.65165587379,-91.436909621752,17.801520152015,1272795.2083469,2001.9022161932,2621669.5124322,23.001520152015,0,0
-183.65165577537,-91.465732526125,17.80595059506,1272795.2083469,2001.9022161932,2621669.5124322,23.00595059506,0,0
-183.65165567694,-91.494555430498,17.810381038104,1272795.2083469,2001.9022161932,2621669.5124322,23.010381038104,0,0
-183.65165557852,-91.523378334872,17.814811481148,1272795.2083469,2001.9022161932,2621669.5124322,23.014811481148,0,0
-183.65165548009,-91.552201239245,17.819241924192,1272795.2083469,2001.9022161932,2621669.5124322,23.019241924192,0,0
-183.65165538166,-91.581024143619,17.823672367237,1272795.2083469,2001.9022161932,2621669.5124322,23.023672367237,0,0
-183.65165528324,-91.609847047992,17.828102810281,1272795.2083469,2001.9022161932,2621669.5124322,23.028102810281,0,0
-183.65165518481,-91.638669952366,17.832533253325,1272795.2083469,2001.9022161932,2621669.5124322,23.032533253325,0,0
-183.65165508638,-91.667492856739,17.83696369637,1272795.2083469,2001.9022161932,2621669.5124322,23.03696369637,0,0
-183.65165498796,-91.696315761112,17.841394139414,1272795.2083469,2001.9022161932,2621669.5124322,23.041394139414,0,0
-183.65165488953,-91.725138665486,17.845824582458,1272795.2083469,2001.9022161932,2621669.5124322,23.045824582458,0,0
-183.65165479111,-91.753961569859,17.850255025503,1272795.2083469,2001.9022161932,2621669.5124322,23.050255025503,0,0
-183.65165469268,-91.782784474233,17.854685468547,1272795.2083469,2001.9022161932,2621669.5124322,23.054685468547,0,0
-183.65165459425,-91.811607378606,17.859115911591,1272795.2083469,2001.9022161932,2621669.5124322,23.059115911591,0,0
-183.65165449583,-91.84043028298,17.863546354635,1272795.2083469,2001.9022161932,2621669.5124322,23.063546354635,0,0
-183.6516543974,-91.869253187353,17.86797679768,1272795.2083469,2001.9022161932,2621669.5124322,23.06797679768,0,0
-183.65165429898,-91.898076091726,17.872407240724,1272795.2083469,2001.9022161932,2621669.5124322,23.072407240724,0,0
-183.65165420055,-91.9268989961,17.876837683768,1272795.2083469,2001.9022161932,2621669.5124322,23.076837683768,0,0
-183.65165410212,-91.955721900473,17.881268126813,1272795.2083469,2001.9022161932,2621669.5124322,23.081268126813,0,0
-183.6516540037,-91.984544804847,17.885698569857,1272795.2083469,2001.9022161932,2621669.5124322,23.085698569857,0,0
-183.65165390527,-92.01336770922,17.890129012901,1272795.2083469,2001.9022161932,2621669.5124322,23.090129012901,0,0
-183.65165380685,-92.042190613594,17.894559455946,1272795.2083469,2001.9022161932,2621669.5124322,23.094559455946,0,0
-183.65165370842,-92.071013517967,17.89898989899,1272795.2083469,2001.9022161932,2621669.5124322,23.09898989899,0,0
-183.65165360999,-92.09983642234,17.903420342034,1272795.2083469,2001.9022161932,2621669.5124322,23.103420342034,0,0
-183.65165351157,-92.128659326714,17.907850785079,1272795.2083469,2001.9022161932,2621669.5124322,23.107850785079,0,0
-183.65165341314,-92.157482231087,17.912281228123,1272795.2083469,2001.9022161932,2621669.5124322,23.112281228123,0,0
-183.65165331472,-92.186305135461,17.916711671167,1272795.2083469,2001.9022161932,2621669.5124322,23.116711671167,0,0
-183.65165321629,-92.215128039834,17.921142114211,1272795.2083469,2001.9022161932,2621669.5124322,23.121142114211,0,0
-183.65165311786,-92.243950944208,17.925572557256,1272795.2083469,2001.9022161932,2621669.5124322,23.125572557256,0,0
-183.65165301944,-92.272773848581,17.9300030003,1272795.2083469,2001.9022161932,2621669.5124322,23.1300030003,0,0
-183.65165292101,-92.301596752954,17.934433443344,1272795.2083469,2001.9022161932,2621669.5124322,23.134433443344,0,0
-183.65165282259,-92.330419657328,17.938863886389,1272795.2083469,2001.9022161932,2621669.5124322,23.138863886389,0,0
-183.65165272416,-92.359242561701,17.943294329433,1272795.2083469,2001.9022161932,2621669.5124322,23.143294329433,0,0
-183.65165262573,-92.388065466075,17.947724772477,1272795.2083469,2001.9022161932,2621669.5124322,23.147724772477,0,0
-183.65165252731,-92.416888370448,17.952155215522,1272795.2083469,2001.9022161932,2621669.5124322,23.152155215522,0,0
-183.65165242888,-92.445711274822,17.956585658566,1272795.2083469,2001.9022161932,2621669.5124322,23.156585658566,0,0
-183.65165233046,-92.474534179195,17.96101610161,1272795.2083469,2001.9022161932,2621669.5124322,23.16101610161,0,0
-183.65165223203,-92.503357083568,17.965446544654,1272795.2083469,2001.9022161932,2621669.5124322,23.165446544654,0,0
-183.6516521336,-92.532179987942,17.969876987699,1272795.2083469,2001.9022161932,2621669.5124322,23.169876987699,0,0
-183.65165203518,-92.561002892315,17.974307430743,1272795.2083469,2001.9022161932,2621669.5124322,23.174307430743,0,0
-183.65165193675,-92.589825796689,17.978737873787,1272795.2083469,2001.9022161932,2621669.5124322,23.178737873787,0,0
-183.65165183833,-92.618648701062,17.983168316832,1272795.2083469,2001.9022161932,2621669.5124322,23.183168316832,0,0
-183.6516517399,-92.647471605436,17.987598759876,1272795.2083469,2001.9022161932,2621669.5124322,23.187598759876,0,0
-183.65165164147,-92.676294509809,17.99202920292,1272795.2083469,2001.9022161932,2621669.5124322,23.19202920292,0,0
-183.65165154305,-92.705117414182,17.996459645965,1272795.2083469,2001.9022161932,2621669.5124322,23.196459645965,0,0
-183.65165144462,-92.733940318556,18.000890089009,1272795.2083469,2001.9022161932,2621669.5124322,23.200890089009,0,0
-183.6516513462,-92.762763222929,18.005320532053,1272795.2083469,2001.9022161932,2621669.5124322,23.205320532053,0,0
-183.65165124777,-92.791586127303,18.009750975098,1272795.2083469,2001.9022161932,2621669.5124322,23.209750975098,0,0
-183.65165114934,-92.820409031676,18.014181418142,1272795.2083469,2001.9022161932,2621669.5124322,23.214181418142,0,0
-183.65165105092,-92.84923193605,18.018611861186,1272795.2083469,2001.9022161932,2621669.5124322,23.218611861186,0,0
-183.65165095249,-92.878054840423,18.02304230423,1272795.2083469,2001.9022161932,2621669.5124322,23.22304230423,0,0
-183.65165085407,-92.906877744796,18.027472747275,1272795.2083469,2001.9022161932,2621669.5124322,23.227472747275,0,0
-183.65165075564,-92.93570064917,18.031903190319,1272795.2083469,2001.9022161932,2621669.5124322,23.231903190319,0,0
-183.65165065721,-92.964523553543,18.036333633363,1272795.2083469,2001.9022161932,2621669.5124322,23.236333633363,0,0
-183.65165055879,-92.993346457917,18.040764076408,1272795.2083469,2001.9022161932,2621669.5124322,23.240764076408,0,0
-183.65165046036,-93.02216936229,18.045194519452,1272795.2083469,2001.9022161932,2621669.5124322,23.245194519452,0,0
-183.65165036194,-93.050992266664,18.049624962496,1272795.2083469,2001.9022161932,2621669.5124322,23.249624962496,0,0
-183.65165026351,-93.079815171037,18.054055405541,1272795.2083469,2001.9022161932,2621669.5124322,23.254055405541,0,0
-183.65165016508,-93.10863807541,18.058485848585,1272795.2083469,2001.9022161932,2621669.5124322,23.258485848585,0,0
-183.65165006666,-93.137460979784,18.062916291629,1272795.2083469,2001.9022161932,2621669.5124322,23.262916291629,0,0
-183.65164996823,-93.166283884157,18.067346734673,1272795.2083469,2001.9022161932,2621669.5124322,23.267346734673,0,0
-183.65164986981,-93.195106788531,18.071777177718,1272795.2083469,2001.9022161932,2621669.5124322,23.271777177718,0,0
-183.65164977138,-93.223929692904,18.076207620762,1272795.2083469,2001.9022161932,2621669.5124322,23.276207620762,0,0
-183.65164967295,-93.252752597278,18.080638063806,1272795.2083469,2001.9022161932,2621669.5124322,23.280638063806,0,0
-183.65164957453,-93.281575501651,18.085068506851,1272795.2083469,2001.9022161932,2621669.5124322,23.285068506851,0,0
-183.6516494761,-93.310398406025,18.089498949895,1272795.2083469,2001.9022161932,2621669.5124322,23.289498949895,0,0
-183.65164937768,-93.339221310398,18.093929392939,1272795.2083469,2001.9022161932,2621669.5124322,23.293929392939,0,0
-183.65164927925,-93.368044214771,18.098359835984,1272795.2083469,2001.9022161932,2621669.5124322,23.298359835984,0,0
-183.65164918082,-93.396867119145,18.102790279028,1272795.2083469,2001.9022161932,2621669.5124322,23.302790279028,0,0
-183.6516490824,-93.425690023518,18.107220722072,1272795.2083469,2001.9022161932,2621669.5124322,23.307220722072,0,0
-183.65164898397,-93.454512927892,18.111651165117,1272795.2083469,2001.9022161932,2621669.5124322,23.311651165117,0,0
-183.65164888555,-93.483335832265,18.116081608161,1272795.2083469,2001.9022161932,2621669.5124322,23.316081608161,0,0
-183.65164878712,-93.512158736638,18.120512051205,1272795.2083469,2001.9022161932,2621669.5124322,23.320512051205,0,0
-183.65164868869,-93.540981641012,18.124942494249,1272795.2083469,2001.9022161932,2621669.5124322,23.324942494249,0,0
-183.65164859027,-93.569804545385,18.129372937294,1272795.2083469,2001.9022161932,2621669.5124322,23.329372937294,0,0
-183.65164849184,-93.598627449759,18.133803380338,1272795.2083469,2001.9022161932,2621669.5124322,23.333803380338,0,0
-183.65164839342,-93.627450354132,18.138233823382,1272795.2083469,2001.9022161932,2621669.5124322,23.338233823382,0,0
-183.65164829499,-93.656273258506,18.142664266427,1272795.2083469,2001.9022161932,2621669.5124322,23.342664266427,0,0
-183.65164819656,-93.685096162879,18.147094709471,1272795.2083469,2001.9022161932,2621669.5124322,23.347094709471,0,0
-183.65164809814,-93.713919067252,18.151525152515,1272795.2083469,2001.9022161932,2621669.5124322,23.351525152515,0,0
-183.65164799971,-93.742741971626,18.15595559556,1272795.2083469,2001.9022161932,2621669.5124322,23.35595559556,0,0
-183.65164790129,-93.771564875999,18.160386038604,1272795.2083469,2001.9022161932,2621669.5124322,23.360386038604,0,0
-183.65164780286,-93.800387780373,18.164816481648,1272795.2083469,2001.9022161932,2621669.5124322,23.364816481648,0,0
-183.65164770443,-93.829210684746,18.169246924692,1272795.2083469,2001.9022161932,2621669.5124322,23.369246924692,0,0
-183.65164760601,-93.85803358912,18.173677367737,1272795.2083469,2001.9022161932,2621669.5124322,23.373677367737,0,0
-183.65164750758,-93.886856493493,18.178107810781,1272795.2083469,2001.9022161932,2621669.5124322,23.378107810781,0,0
-183.65164740916,-93.915679397867,18.182538253825,1272795.2083469,2001.9022161932,2621669.5124322,23.382538253825,0,0
-183.65164731073,-93.94450230224,18.18696869687,1272795.2083469,2001.9022161932,2621669.5124322,23.38696869687,0,0
-183.6516472123,-93.973325206613,18.191399139914,1272795.2083469,2001.9022161932,2621669.5124322,23.391399139914,0,0
-183.65164711388,-94.002148110987,18.195829582958,1272795.2083469,2001.9022161932,2621669.5124322,23.395829582958,0,0
-183.65164701545,-94.03097101536,18.200260026003,1272795.2083469,2001.9022161932,2621669.5124322,23.400260026003,0,0
-183.65164691703,-94.059793919734,18.204690469047,1272795.2083469,2001.9022161932,2621669.5124322,23.404690469047,0,0
-183.6516468186,-94.088616824107,18.209120912091,1272795.2083469,2001.9022161932,2621669.5124322,23.409120912091,0,0
-183.65164672017,-94.117439728481,18.213551355136,1272795.2083469,2001.9022161932,2621669.5124322,23.413551355136,0,0
-183.65164662175,-94.146262632854,18.21798179818,1272795.2083469,2001.9022161932,2621669.5124322,23.41798179818,0,0
-183.65164652332,-94.175085537227,18.222412241224,1272795.2083469,2001.9022161932,2621669.5124322,23.422412241224,0,0
-183.65164642489,-94.203908441601,18.226842684268,1272795.2083469,2001.9022161932,2621669.5124322,23.426842684268,0,0
-183.65164632647,-94.232731345974,18.231273127313,1272795.2083469,2001.9022161932,2621669.5124322,23.431273127313,0,0
-183.65164622804,-94.261554250348,18.235703570357,1272795.2083469,2001.9022161932,2621669.5124322,23.435703570357,0,0
-183.65164612962,-94.290377154721,18.240134013401,1272795.2083469,2001.9022161932,2621669.5124322,23.440134013401,0,0
-183.65164603119,-94.319200059095,18.244564456446,1272795.2083469,2001.9022161932,2621669.5124322,23.444564456446,0,0
-183.65164593276,-94.348022963468,18.24899489949,1272795.2083469,2001.9022161932,2621669.5124322,23.44899489949,0,0
-183.65164583434,-94.376845867841,18.253425342534,1272795.2083469,2001.9022161932,2621669.5124322,23.453425342534,0,0
-183.65164573591,-94.405668772215,18.257855785579,1272795.2083469,2001.9022161932,2621669.5124322,23.457855785579,0,0
-183.65164563749,-94.434491676588,18.262286228623,1272795.2083469,2001.9022161932,2621669.5124322,23.462286228623,0,0
-183.65164553906,-94.463314580962,18.266716671667,1272795.2083469,2001.9022161932,2621669.5124322,23.466716671667,0,0
-183.65164544063,-94.492137485335,18.271147114711,1272795.2083469,2001.9022161932,2621669.5124322,23.471147114711,0,0
-183.65164534221,-94.520960389709,18.275577557756,1272795.2083469,2001.9022161932,2621669.5124322,23.475577557756,0,0
-183.65164524378,-94.549783294082,18.2800080008,1272795.2083469,2001.9022161932,2621669.5124322,23.4800080008,0,0
-183.65164514536,-94.578606198455,18.284438443844,1272795.2083469,2001.9022161932,2621669.5124322,23.484438443844,0,0
-183.65164504693,-94.607429102829,18.288868886889,1272795.2083469,2001.9022161932,2621669.5124322,23.488868886889,0,0
-183.6516449485,-94.636252007202,18.293299329933,1272795.2083469,2001.9022161932,2621669.5124322,23.493299329933,0,0
-183.65164485008,-94.665074911576,18.297729772977,1272795.2083469,2001.9022161932,2621669.5124322,23.497729772977,0,0
-183.65164475165,-94.693897815949,18.302160216022,1272795.2083469,2001.9022161932,2621669.5124322,23.502160216022,0,0
-183.65164465323,-94.722720720323,18.306590659066,1272795.2083469,2001.9022161932,2621669.5124322,23.506590659066,0,0
-183.6516445548,-94.751543624696,18.31102110211,1272795.2083469,2001.9022161932,2621669.5124322,23.51102110211,0,0
-183.65164445637,-94.780366529069,18.315451545155,1272795.2083469,2001.9022161932,2621669.5124322,23.515451545155,0,0
-183.65164435795,-94.809189433443,18.319881988199,1272795.2083469,2001.9022161932,2621669.5124322,23.519881988199,0,0
-183.65164425952,-94.838012337816,18.324312431243,1272795.2083469,2001.9022161932,2621669.5124322,23.524312431243,0,0
-183.65164416101,-94.866835242362,18.328742874287,1274200.4656263,682.06682499287,2613467.5460173,23.528742874287,0,0
-183.65164406225,-94.895658147374,18.333173317332,1274200.4656263,682.06682499287,2613467.5460173,23.533173317332,0,0
-183.65164396349,-94.924481052387,18.337603760376,1274200.4656263,682.06682499287,2613467.5460173,23.537603760376,0,0
-183.65164386474,-94.9533039574,18.34203420342,1274200.4656263,682.06682499287,2613467.5460173,23.54203420342,0,0
-183.65164376598,-94.982126862413,18.346464646465,1274200.4656263,682.06682499287,2613467.5460173,23.546464646465,0,0
-183.65164366722,-95.010949767425,18.350895089509,1274200.4656263,682.06682499287,2613467.5460173,23.550895089509,0,0
-183.65164356847,-95.039772672438,18.355325532553,1274200.4656263,682.06682499287,2613467.5460173,23.555325532553,0,0
-183.65164346971,-95.068595577451,18.359755975598,1274200.4656263,682.06682499287,2613467.5460173,23.559755975598,0,0
-183.65164337095,-95.097418482464,18.364186418642,1274200.4656263,682.06682499287,2613467.5460173,23.564186418642,0,0
-183.6516432722,-95.126241387476,18.368616861686,1274200.4656263,682.06682499287,2613467.5460173,23.568616861686,0,0
-183.65164317344,-95.155064292489,18.37304730473,1274200.4656263,682.06682499287,2613467.5460173,23.57304730473,0,0
-183.65164307468,-95.183887197502,18.377477747775,1274200.4656263,682.06682499287,2613467.5460173,23.577477747775,0,0
-183.65164297593,-95.212710102514,18.381908190819,1274200.4656263,682.06682499287,2613467.5460173,23.581908190819,0,0
-183.65164287717,-95.241533007527,18.386338633863,1274200.4656263,682.06682499287,2613467.5460173,23.586338633863,0,0
-183.65164277841,-95.27035591254,18.390769076908,1274200.4656263,682.06682499287,2613467.5460173,23.590769076908,0,0
-183.65164267966,-95.299178817553,18.395199519952,1274200.4656263,682.06682499287,2613467.5460173,23.595199519952,0,0
-183.6516425809,-95.328001722565,18.399629962996,1274200.4656263,682.06682499287,2613467.5460173,23.599629962996,0,0
-183.65164248214,-95.356824627578,18.404060406041,1274200.4656263,682.06682499287,2613467.5460173,23.604060406041,0,0
-183.65164238339,-95.385647532591,18.408490849085,1274200.4656263,682.06682499287,2613467.5460173,23.608490849085,0,0
-183.65164228463,-95.414470437604,18.412921292129,1274200.4656263,682.06682499287,2613467.5460173,23.612921292129,0,0
-183.65164218587,-95.443293342616,18.417351735174,1274200.4656263,682.06682499287,2613467.5460173,23.617351735174,0,0
-183.65164208712,-95.472116247629,18.421782178218,1274200.4656263,682.06682499287,2613467.5460173,23.621782178218,0,0
-183.65164198836,-95.500939152642,18.426212621262,1274200.4656263,682.06682499287,2613467.5460173,23.626212621262,0,0
-183.6516418896,-95.529762057654,18.430643064306,1274200.4656263,682.06682499287,2613467.5460173,23.630643064306,0,0
-183.65164179085,-95.558584962667,18.435073507351,1274200.4656263,682.06682499287,2613467.5460173,23.635073507351,0,0
-183.65164169209,-95.58740786768,18.439503950395,1274200.4656263,682.06682499287,2613467.5460173,23.639503950395,0,0
-183.65164159333,-95.616230772693,18.443934393439,1274200.4656263,682.06682499287,2613467.5460173,23.643934393439,0,0
-183.65164149491,-95.645053677424,18.448364836484,1269239.9415147,2135.8743271093,2611596.9549568,23.648364836484,0,0
-183.6516413965,-95.673876582148,18.452795279528,1269239.9415147,2135.8743271093,2611596.9549568,23.652795279528,0,0
-183.65164129809,-95.702699486872,18.457225722572,1269239.9415147,2135.8743271093,2611596.9549568,23.657225722572,0,0
-183.65164119968,-95.731522391596,18.461656165617,1269239.9415147,2135.8743271093,2611596.9549568,23.661656165617,0,0
-183.65164110127,-95.76034529632,18.466086608661,1269239.9415147,2135.8743271093,2611596.9549568,23.666086608661,0,0
-183.65164100286,-95.789168201044,18.470517051705,1269239.9415147,2135.8743271093,2611596.9549568,23.670517051705,0,0
-183.65164090445,-95.817991105768,18.474947494749,1269239.9415147,2135.8743271093,2611596.9549568,23.674947494749,0,0
-183.65164080604,-95.846814010491,18.479377937794,1269239.9415147,2135.8743271093,2611596.9549568,23.679377937794,0,0
-183.65164070763,-95.875636915215,18.483808380838,1269239.9415147,2135.8743271093,2611596.9549568,23.683808380838,0,0
-183.65164060922,-95.904459819939,18.488238823882,1269239.9415147,2135.8743271093,2611596.9549568,23.688238823882,0,0
-183.65164051081,-95.933282724663,18.492669266927,1269239.9415147,2135.8743271093,2611596.9549568,23.692669266927,0,0
-183.6516404124,-95.962105629387,18.497099709971,1269239.9415147,2135.8743271093,2611596.9549568,23.697099709971,0,0
-183.65164031399,-95.990928534111,18.501530153015,1269239.9415147,2135.8743271093,2611596.9549568,23.701530153015,0,0
-183.65164021558,-96.019751438834,18.50596059606,1269239.9415147,2135.8743271093,2611596.9549568,23.70596059606,0,0
-183.65164011717,-96.048574343558,18.510391039104,1269239.9415147,2135.8743271093,2611596.9549568,23.710391039104,0,0
-183.65164001876,-96.077397248282,18.514821482148,1269239.9415147,2135.8743271093,2611596.9549568,23.714821482148,0,0
-183.65163992035,-96.106220153006,18.519251925193,1269239.9415147,2135.8743271093,2611596.9549568,23.719251925193,0,0
-183.65163982194,-96.13504305773,18.523682368237,1269239.9415147,2135.8743271093,2611596.9549568,23.723682368237,0,0
-183.65163972353,-96.163865962454,18.528112811281,1269239.9415147,2135.8743271093,2611596.9549568,23.728112811281,0,0
-183.65163962512,-96.192688867178,18.532543254325,1269239.9415147,2135.8743271093,2611596.9549568,23.732543254325,0,0
-183.65163952671,-96.221511771902,18.53697369737,1269239.9415147,2135.8743271093,2611596.9549568,23.73697369737,0,0
-183.6516394283,-96.250334676625,18.541404140414,1269239.9415147,2135.8743271093,2611596.9549568,23.741404140414,0,0
-183.65163932989,-96.279157581349,18.545834583458,1269239.9415147,2135.8743271093,2611596.9549568,23.745834583458,0,0
-183.65163923148,-96.307980486073,18.550265026503,1269239.9415147,2135.8743271093,2611596.9549568,23.750265026503,0,0
-183.65163913307,-96.336803390797,18.554695469547,1269239.9415147,2135.8743271093,2611596.9549568,23.754695469547,0,0
-183.65163903466,-96.365626295521,18.559125912591,1269239.9415147,2135.8743271093,2611596.9549568,23.759125912591,0,0
-183.65163893625,-96.394449200245,18.563556355636,1269239.9415147,2135.8743271093,2611596.9549568,23.763556355636,0,0
-183.65163883784,-96.423272104968,18.56798679868,1269239.9415147,2135.8743271093,2611596.9549568,23.76798679868,0,0
-183.65163873943,-96.452095009692,18.572417241724,1269239.9415147,2135.8743271093,2611596.9549568,23.772417241724,0,0
-183.65163864102,-96.480917914416,18.576847684768,1269239.9415147,2135.8743271093,2611596.9549568,23.776847684768,0,0
-183.65163854261,-96.50974081914,18.581278127813,1269239.9415147,2135.8743271093,2611596.9549568,23.781278127813,0,0
-183.6516384442,-96.538563723864,18.585708570857,1269239.9415147,2135.8743271093,2611596.9549568,23.785708570857,0,0
-183.65163834579,-96.567386628588,18.590139013901,1269239.9415147,2135.8743271093,2611596.9549568,23.790139013901,0,0
-183.65163824738,-96.596209533312,18.594569456946,1269239.9415147,2135.8743271093,2611596.9549568,23.794569456946,0,0
-183.65163814897,-96.625032438036,18.59899989999,1269239.9415147,2135.8743271093,2611596.9549568,23.79899989999,0,0
-183.65163805056,-96.653855342759,18.603430343034,1269239.9415147,2135.8743271093,2611596.9549568,23.803430343034,0,0
-183.65163795215,-96.682678247483,18.607860786079,1269239.9415147,2135.8743271093,2611596.9549568,23.807860786079,0,0
-183.65163785374,-96.711501152207,18.612291229123,1269239.9415147,2135.8743271093,2611596.9549568,23.812291229123,0,0
-183.65163775533,-96.740324056931,18.616721672167,1269239.9415147,2135.8743271093,2611596.9549568,23.816721672167,0,0
-183.65163765692,-96.769146961655,18.621152115212,1269239.9415147,2135.8743271093,2611596.9549568,23.821152115212,0,0
-183.65163755851,-96.797969866379,18.625582558256,1269239.9415147,2135.8743271093,2611596.9549568,23.825582558256,0,0
-183.6516374601,-96.826792771102,18.6300130013,1269239.9415147,2135.8743271093,2611596.9549568,23.8300130013,0,0
-183.65163736169,-96.855615675826,18.634443444344,1269239.9415147,2135.8743271093,2611596.9549568,23.834443444344,0,0
-183.65163726328,-96.88443858055,18.638873887389,1269239.9415147,2135.8743271093,2611596.9549568,23.838873887389,0,0
-183.65163716486,-96.913261485274,18.643304330433,1269239.9415147,2135.8743271093,2611596.9549568,23.843304330433,0,0
-183.65163706645,-96.942084389998,18.647734773477,1269239.9415147,2135.8743271093,2611596.9549568,23.847734773477,0,0
-183.65163696804,-96.970907294722,18.652165216522,1269239.9415147,2135.8743271093,2611596.9549568,23.852165216522,0,0
-183.65163686963,-96.999730199446,18.656595659566,1269239.9415147,2135.8743271093,2611596.9549568,23.856595659566,0,0
-183.65163677122,-97.028553104169,18.66102610261,1269239.9415147,2135.8743271093,2611596.9549568,23.86102610261,0,0
-183.65163667281,-97.057376008893,18.665456545655,1269239.9415147,2135.8743271093,2611596.9549568,23.865456545655,0,0
-183.6516365744,-97.086198913617,18.669886988699,1269239.9415147,2135.8743271093,2611596.9549568,23.869886988699,0,0
-183.65163647599,-97.115021818341,18.674317431743,1269239.9415147,2135.8743271093,2611596.9549568,23.874317431743,0,0
-183.65163637758,-97.143844723065,18.678747874787,1269239.9415147,2135.8743271093,2611596.9549568,23.878747874787,0,0
-183.65163627917,-97.172667627789,18.683178317832,1269239.9415147,2135.8743271093,2611596.9549568,23.883178317832,0,0
-183.65163618076,-97.201490532513,18.687608760876,1269239.9415147,2135.8743271093,2611596.9549568,23.887608760876,0,0
-183.65163608235,-97.230313437236,18.69203920392,1269239.9415147,2135.8743271093,2611596.9549568,23.89203920392,0,0
-183.65163598394,-97.25913634196,18.696469646965,1269239.9415147,2135.8743271093,2611596.9549568,23.896469646965,0,0
-183.65163588553,-97.287959246684,18.700900090009,1269239.9415147,2135.8743271093,2611596.9549568,23.900900090009,0,0
-183.65163578712,-97.316782151408,18.705330533053,1269239.9415147,2135.8743271093,2611596.9549568,23.905330533053,0,0
-183.65163568871,-97.345605056132,18.709760976098,1269239.9415147,2135.8743271093,2611596.9549568,23.909760976098,0,0
-183.6516355903,-97.374427960856,18.714191419142,1269239.9415147,2135.8743271093,2611596.9549568,23.914191419142,0,0
-183.65163549189,-97.40325086558,18.718621862186,1269239.9415147,2135.8743271093,2611596.9549568,23.918621862186,0,0
-183.65163539348,-97.432073770303,18.723052305231,1269239.9415147,2135.8743271093,2611596.9549568,23.923052305231,0,0
-183.65163529507,-97.460896675027,18.727482748275,1269239.9415147,2135.8743271093,2611596.9549568,23.927482748275,0,0
-183.65163519666,-97.489719579751,18.731913191319,1269239.9415147,2135.8743271093,2611596.9549568,23.931913191319,0,0
-183.65163509825,-97.518542484475,18.736343634363,1269239.9415147,2135.8743271093,2611596.9549568,23.936343634363,0,0
-183.65163499984,-97.547365389199,18.740774077408,1269239.9415147,2135.8743271093,2611596.9549568,23.940774077408,0,0
-183.65163490143,-97.576188293923,18.745204520452,1269239.9415147,2135.8743271093,2611596.9549568,23.945204520452,0,0
-183.65163480302,-97.605011198647,18.749634963496,1269239.9415147,2135.8743271093,2611596.9549568,23.949634963496,0,0
-183.65163470461,-97.63383410337,18.754065406541,1269239.9415147,2135.8743271093,2611596.9549568,23.954065406541,0,0
-183.6516346062,-97.662657008094,18.758495849585,1269239.9415147,2135.8743271093,2611596.9549568,23.958495849585,0,0
-183.65163450779,-97.691479912818,18.762926292629,1269239.9415147,2135.8743271093,2611596.9549568,23.962926292629,0,0
-183.65163440938,-97.720302817542,18.767356735674,1269239.9415147,2135.8743271093,2611596.9549568,23.967356735674,0,0
-183.65163431086,-97.749125722225,18.771787178718,1272330.4273482,-2893.5243744855,2606937.0054461,23.971787178718,0,0
-183.65163421208,-97.77794862681,18.776217621762,1272330.4273482,-2893.5243744855,2606937.0054461,23.976217621762,0,0
-183.6516341133,-97.806771531394,18.780648064806,1272330.4273482,-2893.5243744855,2606937.0054461,23.980648064806,0,0
-183.65163401452,-97.835594435979,18.785078507851,1272330.4273482,-2893.5243744855,2606937.0054461,23.985078507851,0,0
-183.65163391574,-97.864417340563,18.789508950895,1272330.4273482,-2893.5243744855,2606937.0054461,23.989508950895,0,0
-183.65163381695,-97.893240245148,18.793939393939,1272330.4273482,-2893.5243744855,2606937.0054461,23.993939393939,0,0
-183.65163371817,-97.922063149733,18.798369836984,1272330.4273482,-2893.5243744855,2606937.0054461,23.998369836984,0,0
-183.65163361939,-97.950886054317,18.802800280028,1272330.4273482,-2893.5243744855,2606937.0054461,24.002800280028,0,0
-183.65163352061,-97.979708958902,18.807230723072,1272330.4273482,-2893.5243744855,2606937.0054461,24.007230723072,0,0
-183.65163342183,-98.008531863486,18.811661166117,1272330.4273482,-2893.5243744855,2606937.0054461,24.011661166117,0,0
-183.65163332305,-98.037354768071,18.816091609161,1272330.4273482,-2893.5243744855,2606937.0054461,24.016091609161,0,0
-183.65163322427,-98.066177672656,18.820522052205,1272330.4273482,-2893.5243744855,2606937.0054461,24.020522052205,0,0
-183.65163312549,-98.09500057724,18.82495249525,1272330.4273482,-2893.5243744855,2606937.0054461,24.02495249525,0,0
-183.6516330267,-98.123823481825,18.829382938294,1272330.4273482,-2893.5243744855,2606937.0054461,24.029382938294,0,0
-183.65163292792,-98.152646386409,18.833813381338,1272330.4273482,-2893.5243744855,2606937.0054461,24.033813381338,0,0
-183.65163282914,-98.181469290994,18.838243824382,1272330.4273482,-2893.5243744855,2606937.0054461,24.038243824382,0,0
-183.65163273036,-98.210292195579,18.842674267427,1272330.4273482,-2893.5243744855,2606937.0054461,24.042674267427,0,0
-183.65163263158,-98.239115100163,18.847104710471,1272330.4273482,-2893.5243744855,2606937.0054461,24.047104710471,0,0
-183.6516325328,-98.267938004748,18.851535153515,1272330.4273482,-2893.5243744855,2606937.0054461,24.051535153515,0,0
-183.65163243402,-98.296760909332,18.85596559656,1272330.4273482,-2893.5243744855,2606937.0054461,24.05596559656,0,0
-183.65163233524,-98.325583813917,18.860396039604,1272330.4273482,-2893.5243744855,2606937.0054461,24.060396039604,0,0
-183.65163223646,-98.354406718502,18.864826482648,1272330.4273482,-2893.5243744855,2606937.0054461,24.064826482648,0,0
-183.65163213767,-98.383229623086,18.869256925693,1272330.4273482,-2893.5243744855,2606937.0054461,24.069256925693,0,0
-183.65163203889,-98.412052527671,18.873687368737,1272330.4273482,-2893.5243744855,2606937.0054461,24.073687368737,0,0
-183.65163194011,-98.440875432255,18.878117811781,1272330.4273482,-2893.5243744855,2606937.0054461,24.078117811781,0,0
-183.65163184133,-98.46969833684,18.882548254825,1272330.4273482,-2893.5243744855,2606937.0054461,24.082548254825,0,0
-183.65163174255,-98.498521241424,18.88697869787,1272330.4273482,-2893.5243744855,2606937.0054461,24.08697869787,0,0
-183.65163164377,-98.527344146009,18.891409140914,1272330.4273482,-2893.5243744855,2606937.0054461,24.091409140914,0,0
-183.65163154499,-98.556167050594,18.895839583958,1272330.4273482,-2893.5243744855,2606937.0054461,24.095839583958,0,0
-183.65163144621,-98.584989955178,18.900270027003,1272330.4273482,-2893.5243744855,2606937.0054461,24.100270027003,0,0
-183.65163134743,-98.613812859763,18.904700470047,1272330.4273482,-2893.5243744855,2606937.0054461,24.104700470047,0,0
-183.65163124864,-98.642635764347,18.909130913091,1272330.4273482,-2893.5243744855,2606937.0054461,24.109130913091,0,0
-183.65163114986,-98.671458668932,18.913561356136,1272330.4273482,-2893.5243744855,2606937.0054461,24.113561356136,0,0
-183.65163105108,-98.700281573517,18.91799179918,1272330.4273482,-2893.5243744855,2606937.0054461,24.11799179918,0,0
-183.6516309523,-98.729104478101,18.922422242224,1272330.4273482,-2893.5243744855,2606937.0054461,24.122422242224,0,0
-183.65163085352,-98.757927382686,18.926852685269,1272330.4273482,-2893.5243744855,2606937.0054461,24.126852685269,0,0
-183.65163075474,-98.78675028727,18.931283128313,1272330.4273482,-2893.5243744855,2606937.0054461,24.131283128313,0,0
-183.65163065596,-98.815573191855,18.935713571357,1272330.4273482,-2893.5243744855,2606937.0054461,24.135713571357,0,0
-183.65163055718,-98.84439609644,18.940144014401,1272330.4273482,-2893.5243744855,2606937.0054461,24.140144014401,0,0
-183.65163045839,-98.873219001024,18.944574457446,1272330.4273482,-2893.5243744855,2606937.0054461,24.144574457446,0,0
-183.65163035961,-98.902041905609,18.94900490049,1272330.4273482,-2893.5243744855,2606937.0054461,24.14900490049,0,0
-183.65163026083,-98.930864810193,18.953435343534,1272330.4273482,-2893.5243744855,2606937.0054461,24.153435343534,0,0
-183.65163016205,-98.959687714778,18.957865786579,1272330.4273482,-2893.5243744855,2606937.0054461,24.157865786579,0,0
-183.65163006327,-98.988510619363,18.962296229623,1272330.4273482,-2893.5243744855,2606937.0054461,24.162296229623,0,0
-183.65162996449,-99.017333523947,18.966726672667,1272330.4273482,-2893.5243744855,2606937.0054461,24.166726672667,0,0
-183.65162986571,-99.046156428532,18.971157115712,1272330.4273482,-2893.5243744855,2606937.0054461,24.171157115712,0,0
-183.65162976693,-99.074979333116,18.975587558756,1272330.4273482,-2893.5243744855,2606937.0054461,24.175587558756,0,0
-183.65162966815,-99.103802237701,18.9800180018,1272330.4273482,-2893.5243744855,2606937.0054461,24.1800180018,0,0
-183.65162956936,-99.132625142285,18.984448444844,1272330.4273482,-2893.5243744855,2606937.0054461,24.184448444844,0,0
-183.65162947058,-99.16144804687,18.988878887889,1272330.4273482,-2893.5243744855,2606937.0054461,24.188878887889,0,0
-183.6516293718,-99.190270951455,18.993309330933,1272330.4273482,-2893.5243744855,2606937.0054461,24.193309330933,0,0
-183.65162927302,-99.219093856039,18.997739773977,1272330.4273482,-2893.5243744855,2606937.0054461,24.197739773977,0,0
-183.65162917424,-99.247916760624,19.002170217022,1272330.4273482,-2893.5243744855,2606937.0054461,24.202170217022,0,0
-183.65162907546,-99.276739665208,19.006600660066,1272330.4273482,-2893.5243744855,2606937.0054461,24.206600660066,0,0
-183.65162897668,-99.305562569793,19.01103110311,1272330.4273482,-2893.5243744855,2606937.0054461,24.21103110311,0,0
-183.6516288779,-99.334385474378,19.015461546155,1272330.4273482,-2893.5243744855,2606937.0054461,24.215461546155,0,0
-183.65162877912,-99.363208378962,19.019891989199,1272330.4273482,-2893.5243744855,2606937.0054461,24.219891989199,0,0
-183.65162868033,-99.392031283547,19.024322432243,1272330.4273482,-2893.5243744855,2606937.0054461,24.224322432243,0,0
-183.65162858155,-99.420854188131,19.028752875288,1272330.4273482,-2893.5243744855,2606937.0054461,24.228752875288,0,0
-183.65162848277,-99.449677092716,19.033183318332,1272330.4273482,-2893.5243744855,2606937.0054461,24.233183318332,0,0
-183.65162838399,-99.478499997301,19.037613761376,1272330.4273482,-2893.5243744855,2606937.0054461,24.237613761376,0,0
-183.65162828521,-99.507322901885,19.04204420442,1272330.4273482,-2893.5243744855,2606937.0054461,24.24204420442,0,0
-183.65162818643,-99.53614580647,19.046474647465,1272330.4273482,-2893.5243744855,2606937.0054461,24.246474647465,0,0
-183.65162808765,-99.564968711054,19.050905090509,1272330.4273482,-2893.5243744855,2606937.0054461,24.250905090509,0,0
-183.65162798887,-99.593791615639,19.055335533553,1272330.4273482,-2893.5243744855,2606937.0054461,24.255335533553,0,0
-183.65162789008,-99.622614520223,19.059765976598,1272330.4273482,-2893.5243744855,2606937.0054461,24.259765976598,0,0
-183.6516277913,-99.651437424808,19.064196419642,1272330.4273482,-2893.5243744855,2606937.0054461,24.264196419642,0,0
-183.65162769252,-99.680260329393,19.068626862686,1272330.4273482,-2893.5243744855,2606937.0054461,24.268626862686,0,0
-183.65162759374,-99.709083233977,19.073057305731,1272330.4273482,-2893.5243744855,2606937.0054461,24.273057305731,0,0
-183.65162749496,-99.737906138562,19.077487748775,1272330.4273482,-2893.5243744855,2606937.0054461,24.277487748775,0,0
-183.65162739618,-99.766729043146,19.081918191819,1272330.4273482,-2893.5243744855,2606937.0054461,24.281918191819,0,0
-183.6516272974,-99.795551947731,19.086348634863,1272330.4273482,-2893.5243744855,2606937.0054461,24.286348634863,0,0
-183.65162719862,-99.824374852316,19.090779077908,1272330.4273482,-2893.5243744855,2606937.0054461,24.290779077908,0,0
-183.65162709984,-99.8531977569,19.095209520952,1272330.4273482,-2893.5243744855,2606937.0054461,24.295209520952,0,0
-183.65162700105,-99.882020661485,19.099639963996,1272330.4273482,-2893.5243744855,2606937.0054461,24.299639963996,0,0
-183.65162690227,-99.910843566069,19.104070407041,1272330.4273482,-2893.5243744855,2606937.0054461,24.304070407041,0,0
-183.65162680349,-99.939666470654,19.108500850085,1272330.4273482,-2893.5243744855,2606937.0054461,24.308500850085,0,0
-183.65162670471,-99.968489375239,19.112931293129,1272330.4273482,-2893.5243744855,2606937.0054461,24.312931293129,0,0
-183.65162660593,-99.997312279823,19.117361736174,1272330.4273482,-2893.5243744855,2606937.0054461,24.317361736174,0,0
-183.65162650715,-100.02613518441,19.121792179218,1272330.4273482,-2893.5243744855,2606937.0054461,24.321792179218,0,0
-183.65162640837,-100.05495808899,19.126222622262,1272330.4273482,-2893.5243744855,2606937.0054461,24.326222622262,0,0
-183.65162630959,-100.08378099358,19.130653065307,1272330.4273482,-2893.5243744855,2606937.0054461,24.330653065307,0,0
-183.65162621081,-100.11260389816,19.135083508351,1272330.4273482,-2893.5243744855,2606937.0054461,24.335083508351,0,0
-183.65162611202,-100.14142680275,19.139513951395,1272330.4273482,-2893.5243744855,2606937.0054461,24.339513951395,0,0
-183.65162601324,-100.17024970733,19.143944394439,1272330.4273482,-2893.5243744855,2606937.0054461,24.343944394439,0,0
-183.65162591446,-100.19907261192,19.148374837484,1272330.4273482,-2893.5243744855,2606937.0054461,24.348374837484,0,0
-183.65162581568,-100.2278955165,19.152805280528,1272330.4273482,-2893.5243744855,2606937.0054461,24.352805280528,0,0
-183.6516257169,-100.25671842108,19.157235723572,1272330.4273482,-2893.5243744855,2606937.0054461,24.357235723572,0,0
-183.65162561812,-100.28554132567,19.161666166617,1272330.4273482,-2893.5243744855,2606937.0054461,24.361666166617,0,0
-183.65162551934,-100.31436423025,19.166096609661,1272330.4273482,-2893.5243744855,2606937.0054461,24.366096609661,0,0
-183.65162542056,-100.34318713484,19.170527052705,1272330.4273482,-2893.5243744855,2606937.0054461,24.370527052705,0,0
-183.65162532177,-100.37201003942,19.17495749575,1272330.4273482,-2893.5243744855,2606937.0054461,24.37495749575,0,0
-183.65162522299,-100.40083294401,19.179387938794,1272330.4273482,-2893.5243744855,2606937.0054461,24.379387938794,0,0
-183.65162512421,-100.42965584859,19.183818381838,1272330.4273482,-2893.5243744855,2606937.0054461,24.383818381838,0,0
-183.65162502543,-100.45847875318,19.188248824882,1272330.4273482,-2893.5243744855,2606937.0054461,24.388248824882,0,0
-183.65162492665,-100.48730165776,19.192679267927,1272330.4273482,-2893.5243744855,2606937.0054461,24.392679267927,0,0
-183.65162482787,-100.51612456235,19.197109710971,1272330.4273482,-2893.5243744855,2606937.0054461,24.397109710971,0,0
-183.65162472909,-100.54494746693,19.201540154015,1272330.4273482,-2893.5243744855,2606937.0054461,24.401540154015,0,0
-183.65162463031,-100.57377037151,19.20597059706,1272330.4273482,-2893.5243744855,2606937.0054461,24.40597059706,0,0
-183.65162453153,-100.6025932761,19.210401040104,1272330.4273482,-2893.5243744855,2606937.0054461,24.410401040104,0,0
-183.65162443274,-100.63141618068,19.214831483148,1272330.4273482,-2893.5243744855,2606937.0054461,24.414831483148,0,0
-183.65162433396,-100.66023908527,19.219261926193,1272330.4273482,-2893.5243744855,2606937.0054461,24.419261926193,0,0
-183.65162423518,-100.68906198985,19.223692369237,1272330.4273482,-2893.5243744855,2606937.0054461,24.423692369237,0,0
-183.6516241364,-100.71788489444,19.228122812281,1272330.4273482,-2893.5243744855,2606937.0054461,24.428122812281,0,0
-183.65162403762,-100.74670779902,19.232553255326,1272330.4273482,-2893.5243744855,2606937.0054461,24.432553255326,0,0
-183.65162393884,-100.77553070361,19.23698369837,1272330.4273482,-2893.5243744855,2606937.0054461,24.43698369837,0,0
-183.65162384006,-100.80435360819,19.241414141414,1272330.4273482,-2893.5243744855,2606937.0054461,24.441414141414,0,0
-183.65162374128,-100.83317651278,19.245844584458,1272330.4273482,-2893.5243744855,2606937.0054461,24.445844584458,0,0
-183.65162364249,-100.86199941736,19.250275027503,1272330.4273482,-2893.5243744855,2606937.0054461,24.450275027503,0,0
-183.65162354371,-100.89082232195,19.254705470547,1272330.4273482,-2893.5243744855,2606937.0054461,24.454705470547,0,0
-183.65162344493,-100.91964522653,19.259135913591,1272330.4273482,-2893.5243744855,2606937.0054461,24.459135913591,0,0
-183.65162334615,-100.94846813111,19.263566356636,1272330.4273482,-2893.5243744855,2606937.0054461,24.463566356636,0,0
-183.65162324737,-100.9772910357,19.26799679968,1272330.4273482,-2893.5243744855,2606937.0054461,24.46799679968,0,0
-183.65162314859,-101.00611394028,19.272427242724,1272330.4273482,-2893.5243744855,2606937.0054461,24.472427242724,0,0
-183.65162304981,-101.03493684487,19.276857685769,1272330.4273482,-2893.5243744855,2606937.0054461,24.476857685769,0,0
-183.65162295103,-101.06375974945,19.281288128813,1272330.4273482,-2893.5243744855,2606937.0054461,24.481288128813,0,0
-183.65162285225,-101.09258265404,19.285718571857,1272330.4273482,-2893.5243744855,2606937.0054461,24.485718571857,0,0
-183.65162275346,-101.12140555862,19.290149014901,1272330.4273482,-2893.5243744855,2606937.0054461,24.490149014901,0,0
-183.65162265468,-101.15022846321,19.294579457946,1272330.4273482,-2893.5243744855,2606937.0054461,24.494579457946,0,0
-183.6516225559,-101.17905136779,19.29900990099,1272330.4273482,-2893.5243744855,2606937.0054461,24.49900990099,0,0
-183.65162245712,-101.20787427238,19.303440344034,1272330.4273482,-2893.5243744855,2606937.0054461,24.503440344034,0,0
-183.65162235834,-101.23669717696,19.307870787079,1272330.4273482,-2893.5243744855,2606937.0054461,24.507870787079,0,0
-183.65162225956,-101.26552008155,19.312301230123,1272330.4273482,-2893.5243744855,2606937.0054461,24.512301230123,0,0
-183.65162216078,-101.29434298613,19.316731673167,1272330.4273482,-2893.5243744855,2606937.0054461,24.516731673167,0,0
-183.651622062,-101.32316589071,19.321162116212,1272330.4273482,-2893.5243744855,2606937.0054461,24.521162116212,0,0
-183.65162196322,-101.3519887953,19.325592559256,1272330.4273482,-2893.5243744855,2606937.0054461,24.525592559256,0,0
-183.65162186443,-101.38081169988,19.3300230023,1272330.4273482,-2893.5243744855,2606937.0054461,24.5300230023,0,0
-183.65162176565,-101.40963460447,19.334453445345,1272330.4273482,-2893.5243744855,2606937.0054461,24.534453445345,0,0
-183.65162166687,-101.43845750905,19.338883888389,1272330.4273482,-2893.5243744855,2606937.0054461,24.538883888389,0,0
-183.65162156809,-101.46728041364,19.343314331433,1272330.4273482,-2893.5243744855,2606937.0054461,24.543314331433,0,0
-183.65162146931,-101.49610331822,19.347744774477,1272330.4273482,-2893.5243744855,2606937.0054461,24.547744774477,0,0
-183.65162137053,-101.52492622281,19.352175217522,1272330.4273482,-2893.5243744855,2606937.0054461,24.552175217522,0,0
-183.65162127175,-101.55374912739,19.356605660566,1272330.4273482,-2893.5243744855,2606937.0054461,24.556605660566,0,0
-183.65162117297,-101.58257203198,19.36103610361,1272330.4273482,-2893.5243744855,2606937.0054461,24.56103610361,0,0
-183.65162107418,-101.61139493656,19.365466546655,1272330.4273482,-2893.5243744855,2606937.0054461,24.565466546655,0,0
-183.6516209754,-101.64021784114,19.369896989699,1272330.4273482,-2893.5243744855,2606937.0054461,24.569896989699,0,0
-183.65162087662,-101.66904074573,19.374327432743,1272330.4273482,-2893.5243744855,2606937.0054461,24.574327432743,0,0
-183.65162077784,-101.69786365031,19.378757875788,1272330.4273482,-2893.5243744855,2606937.0054461,24.578757875788,0,0
-183.65162067906,-101.7266865549,19.383188318832,1272330.4273482,-2893.5243744855,2606937.0054461,24.583188318832,0,0
-183.65162058028,-101.75550945948,19.387618761876,1272330.4273482,-2893.5243744855,2606937.0054461,24.587618761876,0,0
-183.6516204815,-101.78433236407,19.39204920492,1272330.4273482,-2893.5243744855,2606937.0054461,24.59204920492,0,0
-183.65162038272,-101.81315526865,19.396479647965,1272330.4273482,-2893.5243744855,2606937.0054461,24.596479647965,0,0
-183.65162028394,-101.84197817324,19.400910091009,1272330.4273482,-2893.5243744855,2606937.0054461,24.600910091009,0,0
-183.65162018515,-101.87080107782,19.405340534053,1272330.4273482,-2893.5243744855,2606937.0054461,24.605340534053,0,0
-183.65162008637,-101.89962398241,19.409770977098,1272330.4273482,-2893.5243744855,2606937.0054461,24.609770977098,0,0
-183.65161998759,-101.92844688699,19.414201420142,1272330.4273482,-2893.5243744855,2606937.0054461,24.614201420142,0,0
-183.65161988881,-101.95726979158,19.418631863186,1272330.4273482,-2893.5243744855,2606937.0054461,24.618631863186,0,0
-183.65161979003,-101.98609269616,19.423062306231,1272330.4273482,-2893.5243744855,2606937.0054461,24.623062306231,0,0
-183.65161969125,-102.01491560074,19.427492749275,1272330.4273482,-2893.5243744855,2606937.0054461,24.627492749275,0,0
-183.65161959247,-102.04373850533,19.431923192319,1272330.4273482,-2893.5243744855,2606937.0054461,24.631923192319,0,0
-183.65161949369,-102.07256140991,19.436353635364,1272330.4273482,-2893.5243744855,2606937.0054461,24.636353635364,0,0
-183.65161939491,-102.1013843145,19.440784078408,1272330.4273482,-2893.5243744855,2606937.0054461,24.640784078408,0,0
-183.65161929612,-102.13020721908,19.445214521452,1272330.4273482,-2893.5243744855,2606937.0054461,24.645214521452,0,0
-183.65161919734,-102.15903012367,19.449644964496,1272330.4273482,-2893.5243744855,2606937.0054461,24.649644964496,0,0
-183.65161909856,-102.18785302825,19.454075407541,1272330.4273482,-2893.5243744855,2606937.0054461,24.654075407541,0,0
-183.65161899978,-102.21667593284,19.458505850585,1272330.4273482,-2893.5243744855,2606937.0054461,24.658505850585,0,0
-183.651618901,-102.24549883742,19.462936293629,1272330.4273482,-2893.5243744855,2606937.0054461,24.662936293629,0,0
-183.65161880222,-102.27432174201,19.467366736674,1272330.4273482,-2893.5243744855,2606937.0054461,24.667366736674,0,0
-183.65161870344,-102.30314464659,19.471797179718,1272330.4273482,-2893.5243744855,2606937.0054461,24.671797179718,0,0
-183.65161860466,-102.33196755117,19.476227622762,1272330.4273482,-2893.5243744855,2606937.0054461,24.676227622762,0,0
-183.65161850587,-102.36079045576,19.480658065807,1272330.4273482,-2893.5243744855,2606937.0054461,24.680658065807,0,0
-183.65161840709,-102.38961336034,19.485088508851,1272330.4273482,-2893.5243744855,2606937.0054461,24.685088508851,0,0
-183.65161830831,-102.41843626493,19.489518951895,1272330.4273482,-2893.5243744855,2606937.0054461,24.689518951895,0,0
-183.65161820953,-102.44725916951,19.493949394939,1272330.4273482,-2893.5243744855,2606937.0054461,24.693949394939,0,0
-183.65161811075,-102.4760820741,19.498379837984,1272330.4273482,-2893.5243744855,2606937.0054461,24.698379837984,0,0
-183.65161801197,-102.50490497868,19.502810281028,1272330.4273482,-2893.5243744855,2606937.0054461,24.702810281028,0,0
-183.65161791319,-102.53372788327,19.507240724072,1272330.4273482,-2893.5243744855,2606937.0054461,24.707240724072,0,0
-183.65161781441,-102.56255078785,19.511671167117,1272330.4273482,-2893.5243744855,2606937.0054461,24.711671167117,0,0
-183.65161771563,-102.59137369244,19.516101610161,1272330.4273482,-2893.5243744855,2606937.0054461,24.716101610161,0,0
-183.65161761684,-102.62019659702,19.520532053205,1272330.4273482,-2893.5243744855,2606937.0054461,24.720532053205,0,0
-183.65161751806,-102.64901950161,19.52496249625,1272330.4273482,-2893.5243744855,2606937.0054461,24.72496249625,0,0
-183.65161741928,-102.67784240619,19.529392939294,1272330.4273482,-2893.5243744855,2606937.0054461,24.729392939294,0,0
-183.6516173205,-102.70666531077,19.533823382338,1272330.4273482,-2893.5243744855,2606937.0054461,24.733823382338,0,0
-183.65161722172,-102.73548821536,19.538253825383,1272330.4273482,-2893.5243744855,2606937.0054461,24.738253825383,0,0
-183.65161712294,-102.76431111994,19.542684268427,1272330.4273482,-2893.5243744855,2606937.0054461,24.742684268427,0,0
-183.65161702416,-102.79313402453,19.547114711471,1272330.4273482,-2893.5243744855,2606937.0054461,24.747114711471,0,0
-183.65161692538,-102.82195692911,19.551545154515,1272330.4273482,-2893.5243744855,2606937.0054461,24.751545154515,0,0
-183.6516168266,-102.8507798337,19.55597559756,1272330.4273482,-2893.5243744855,2606937.0054461,24.75597559756,0,0
-183.65161672781,-102.87960273828,19.560406040604,1272330.4273482,-2893.5243744855,2606937.0054461,24.760406040604,0,0
-183.65161662903,-102.90842564287,19.564836483648,1272330.4273482,-2893.5243744855,2606937.0054461,24.764836483648,0,0
-183.65161653025,-102.93724854745,19.569266926693,1272330.4273482,-2893.5243744855,2606937.0054461,24.769266926693,0,0
-183.65161643165,-102.96607145138,19.573697369737,1268407.5109806,857.86556127225,2602707.0736265,24.773697369737,0,0
-183.65161633307,-102.99489435522,19.578127812781,1268407.5109806,857.86556127225,2602707.0736265,24.778127812781,0,0
-183.65161623449,-103.02371725907,19.582558255826,1268407.5109806,857.86556127225,2602707.0736265,24.782558255826,0,0
-183.65161613591,-103.05254016292,19.58698869887,1268407.5109806,857.86556127225,2602707.0736265,24.78698869887,0,0
-183.65161603733,-103.08136306677,19.591419141914,1268407.5109806,857.86556127225,2602707.0736265,24.791419141914,0,0
-183.65161593875,-103.11018597062,19.595849584958,1268407.5109806,857.86556127225,2602707.0736265,24.795849584958,0,0
-183.65161584017,-103.13900887447,19.600280028003,1268407.5109806,857.86556127225,2602707.0736265,24.800280028003,0,0
-183.65161574159,-103.16783177832,19.604710471047,1268407.5109806,857.86556127225,2602707.0736265,24.804710471047,0,0
-183.65161564301,-103.19665468217,19.609140914091,1268407.5109806,857.86556127225,2602707.0736265,24.809140914091,0,0
-183.65161554443,-103.22547758602,19.613571357136,1268407.5109806,857.86556127225,2602707.0736265,24.813571357136,0,0
-183.65161544585,-103.25430048987,19.61800180018,1268407.5109806,857.86556127225,2602707.0736265,24.81800180018,0,0
-183.65161534727,-103.28312339372,19.622432243224,1268407.5109806,857.86556127225,2602707.0736265,24.822432243224,0,0
-183.65161524869,-103.31194629757,19.626862686269,1268407.5109806,857.86556127225,2602707.0736265,24.826862686269,0,0
-183.65161515011,-103.34076920142,19.631293129313,1268407.5109806,857.86556127225,2602707.0736265,24.831293129313,0,0
-183.65161505152,-103.36959210526,19.635723572357,1268407.5109806,857.86556127225,2602707.0736265,24.835723572357,0,0
-183.65161495294,-103.39841500911,19.640154015402,1268407.5109806,857.86556127225,2602707.0736265,24.840154015402,0,0
-183.65161485436,-103.42723791296,19.644584458446,1268407.5109806,857.86556127225,2602707.0736265,24.844584458446,0,0
-183.65161475578,-103.45606081681,19.64901490149,1268407.5109806,857.86556127225,2602707.0736265,24.84901490149,0,0
-183.6516146572,-103.48488372066,19.653445344534,1268407.5109806,857.86556127225,2602707.0736265,24.853445344534,0,0
-183.65161455862,-103.51370662451,19.657875787579,1268407.5109806,857.86556127225,2602707.0736265,24.857875787579,0,0
-183.65161446004,-103.54252952836,19.662306230623,1268407.5109806,857.86556127225,2602707.0736265,24.862306230623,0,0
-183.65161436146,-103.57135243221,19.666736673667,1268407.5109806,857.86556127225,2602707.0736265,24.866736673667,0,0
-183.65161426288,-103.60017533606,19.671167116712,1268407.5109806,857.86556127225,2602707.0736265,24.871167116712,0,0
-183.6516141643,-103.62899823991,19.675597559756,1268407.5109806,857.86556127225,2602707.0736265,24.875597559756,0,0
-183.65161406572,-103.65782114376,19.6800280028,1268407.5109806,857.86556127225,2602707.0736265,24.8800280028,0,0
-183.65161396714,-103.68664404761,19.684458445845,1268407.5109806,857.86556127225,2602707.0736265,24.884458445845,0,0
-183.65161386856,-103.71546695146,19.688888888889,1268407.5109806,857.86556127225,2602707.0736265,24.888888888889,0,0
-183.65161376998,-103.74428985531,19.693319331933,1268407.5109806,857.86556127225,2602707.0736265,24.893319331933,0,0
-183.6516136714,-103.77311275915,19.697749774977,1268407.5109806,857.86556127225,2602707.0736265,24.897749774977,0,0
-183.65161357282,-103.801935663,19.702180218022,1268407.5109806,857.86556127225,2602707.0736265,24.902180218022,0,0
-183.65161347424,-103.83075856685,19.706610661066,1268407.5109806,857.86556127225,2602707.0736265,24.906610661066,0,0
-183.65161337566,-103.8595814707,19.71104110411,1268407.5109806,857.86556127225,2602707.0736265,24.91104110411,0,0
-183.65161327708,-103.88840437455,19.715471547155,1268407.5109806,857.86556127225,2602707.0736265,24.915471547155,0,0
-183.6516131785,-103.9172272784,19.719901990199,1268407.5109806,857.86556127225,2602707.0736265,24.919901990199,0,0
-183.65161307992,-103.94605018225,19.724332433243,1268407.5109806,857.86556127225,2602707.0736265,24.924332433243,0,0
-183.65161298134,-103.9748730861,19.728762876288,1268407.5109806,857.86556127225,2602707.0736265,24.928762876288,0,0
-183.65161288276,-104.00369598995,19.733193319332,1268407.5109806,857.86556127225,2602707.0736265,24.933193319332,0,0
-183.65161278418,-104.0325188938,19.737623762376,1268407.5109806,857.86556127225,2602707.0736265,24.937623762376,0,0
-183.65161268559,-104.06134179765,19.742054205421,1268407.5109806,857.86556127225,2602707.0736265,24.942054205421,0,0
-183.65161258701,-104.0901647015,19.746484648465,1268407.5109806,857.86556127225,2602707.0736265,24.946484648465,0,0
-183.65161248843,-104.11898760535,19.750915091509,1268407.5109806,857.86556127225,2602707.0736265,24.950915091509,0,0
-183.65161238985,-104.14781050919,19.755345534553,1268407.5109806,857.86556127225,2602707.0736265,24.955345534553,0,0
-183.65161229127,-104.17663341304,19.759775977598,1268407.5109806,857.86556127225,2602707.0736265,24.959775977598,0,0
-183.65161219269,-104.20545631689,19.764206420642,1268407.5109806,857.86556127225,2602707.0736265,24.964206420642,0,0
-183.65161209411,-104.23427922074,19.768636863686,1268407.5109806,857.86556127225,2602707.0736265,24.968636863686,0,0
-183.65161199553,-104.26310212459,19.773067306731,1268407.5109806,857.86556127225,2602707.0736265,24.973067306731,0,0
-183.65161189695,-104.29192502844,19.777497749775,1268407.5109806,857.86556127225,2602707.0736265,24.977497749775,0,0
-183.65161179837,-104.32074793229,19.781928192819,1268407.5109806,857.86556127225,2602707.0736265,24.981928192819,0,0
-183.65161169979,-104.34957083614,19.786358635864,1268407.5109806,857.86556127225,2602707.0736265,24.986358635864,0,0
-183.65161160121,-104.37839373999,19.790789078908,1268407.5109806,857.86556127225,2602707.0736265,24.990789078908,0,0
-183.65161150263,-104.40721664384,19.795219521952,1268407.5109806,857.86556127225,2602707.0736265,24.995219521952,0,0
-183.65161140405,-104.43603954769,19.799649964996,1268407.5109806,857.86556127225,2602707.0736265,24.999649964996,0,0
-183.65161130547,-104.46486245154,19.804080408041,1268407.5109806,857.86556127225,2602707.0736265,25.004080408041,0,0
-183.65161120689,-104.49368535539,19.808510851085,1268407.5109806,857.86556127225,2602707.0736265,25.008510851085,0,0
-183.65161110831,-104.52250825923,19.812941294129,1268407.5109806,857.86556127225,2602707.0736265,25.012941294129,0,0
-183.65161100973,-104.55133116308,19.817371737174,1268407.5109806,857.86556127225,2602707.0736265,25.017371737174,0,0
-183.65161091111,-104.58015406721,19.821802180218,1267648.9528747,-2552.0879216857,2596455.7432519,25.021802180218,0,0
-183.65161081242,-104.60897697185,19.826232623262,1267648.9528747,-2552.0879216857,2596455.7432519,25.026232623262,0,0
-183.65161071374,-104.63779987649,19.830663066307,1267648.9528747,-2552.0879216857,2596455.7432519,25.030663066307,0,0
-183.65161061505,-104.66662278113,19.835093509351,1267648.9528747,-2552.0879216857,2596455.7432519,25.035093509351,0,0
-183.65161051636,-104.69544568577,19.839523952395,1267648.9528747,-2552.0879216857,2596455.7432519,25.039523952395,0,0
-183.65161041768,-104.72426859041,19.84395439544,1267648.9528747,-2552.0879216857,2596455.7432519,25.04395439544,0,0
-183.65161031899,-104.75309149505,19.848384838484,1267648.9528747,-2552.0879216857,2596455.7432519,25.048384838484,0,0
-183.65161022031,-104.78191439969,19.852815281528,1267648.9528747,-2552.0879216857,2596455.7432519,25.052815281528,0,0
-183.65161012162,-104.81073730433,19.857245724572,1267648.9528747,-2552.0879216857,2596455.7432519,25.057245724572,0,0
-183.65161002293,-104.83956020897,19.861676167617,1267648.9528747,-2552.0879216857,2596455.7432519,25.061676167617,0,0
-183.65160992425,-104.86838311361,19.866106610661,1267648.9528747,-2552.0879216857,2596455.7432519,25.066106610661,0,0
-183.65160982556,-104.89720601825,19.870537053705,1267648.9528747,-2552.0879216857,2596455.7432519,25.070537053705,0,0
-183.65160972687,-104.92602892289,19.87496749675,1267648.9528747,-2552.0879216857,2596455.7432519,25.07496749675,0,0
-183.65160962819,-104.95485182753,19.879397939794,1267648.9528747,-2552.0879216857,2596455.7432519,25.079397939794,0,0
-183.6516095295,-104.98367473216,19.883828382838,1267648.9528747,-2552.0879216857,2596455.7432519,25.083828382838,0,0
-183.65160943082,-105.0124976368,19.888258825883,1267648.9528747,-2552.0879216857,2596455.7432519,25.088258825883,0,0
-183.65160933213,-105.04132054144,19.892689268927,1267648.9528747,-2552.0879216857,2596455.7432519,25.092689268927,0,0
-183.65160923344,-105.07014344608,19.897119711971,1267648.9528747,-2552.0879216857,2596455.7432519,25.097119711971,0,0
-183.65160913476,-105.09896635072,19.901550155015,1267648.9528747,-2552.0879216857,2596455.7432519,25.101550155015,0,0
-183.65160903607,-105.12778925536,19.90598059806,1267648.9528747,-2552.0879216857,2596455.7432519,25.10598059806,0,0
-183.65160893738,-105.15661216,19.910411041104,1267648.9528747,-2552.0879216857,2596455.7432519,25.110411041104,0,0
-183.6516088387,-105.18543506464,19.914841484148,1267648.9528747,-2552.0879216857,2596455.7432519,25.114841484148,0,0
-183.65160874001,-105.21425796928,19.919271927193,1267648.9528747,-2552.0879216857,2596455.7432519,25.119271927193,0,0
-183.65160864133,-105.24308087392,19.923702370237,1267648.9528747,-2552.0879216857,2596455.7432519,25.123702370237,0,0
-183.65160854264,-105.27190377856,19.928132813281,1267648.9528747,-2552.0879216857,2596455.7432519,25.128132813281,0,0
-183.65160844395,-105.3007266832,19.932563256326,1267648.9528747,-2552.0879216857,2596455.7432519,25.132563256326,0,0
-183.65160834527,-105.32954958784,19.93699369937,1267648.9528747,-2552.0879216857,2596455.7432519,25.13699369937,0,0
-183.65160824658,-105.35837249248,19.941424142414,1267648.9528747,-2552.0879216857,2596455.7432519,25.141424142414,0,0
-183.65160814789,-105.38719539712,19.945854585459,1267648.9528747,-2552.0879216857,2596455.7432519,25.145854585459,0,0
-183.65160804921,-105.41601830176,19.950285028503,1267648.9528747,-2552.0879216857,2596455.7432519,25.150285028503,0,0
-183.65160795052,-105.4448412064,19.954715471547,1267648.9528747,-2552.0879216857,2596455.7432519,25.154715471547,0,0
-183.65160785184,-105.47366411104,19.959145914591,1267648.9528747,-2552.0879216857,2596455.7432519,25.159145914591,0,0
-183.65160775315,-105.50248701568,19.963576357636,1267648.9528747,-2552.0879216857,2596455.7432519,25.163576357636,0,0
-183.65160765446,-105.53130992032,19.96800680068,1267648.9528747,-2552.0879216857,2596455.7432519,25.16800680068,0,0
-183.65160755578,-105.56013282496,19.972437243724,1267648.9528747,-2552.0879216857,2596455.7432519,25.172437243724,0,0
-183.65160745709,-105.5889557296,19.976867686769,1267648.9528747,-2552.0879216857,2596455.7432519,25.176867686769,0,0
-183.6516073584,-105.61777863424,19.981298129813,1267648.9528747,-2552.0879216857,2596455.7432519,25.181298129813,0,0
-183.65160725972,-105.64660153888,19.985728572857,1267648.9528747,-2552.0879216857,2596455.7432519,25.185728572857,0,0
-183.65160716103,-105.67542444352,19.990159015902,1267648.9528747,-2552.0879216857,2596455.7432519,25.190159015902,0,0
-183.65160706234,-105.70424734816,19.994589458946,1267648.9528747,-2552.0879216857,2596455.7432519,25.194589458946,0,0
-183.65160696366,-105.7330702528,19.99901990199,1267648.9528747,-2552.0879216857,2596455.7432519,25.19901990199,0,0
-183.65160686497,-105.76189315744,20.003450345035,1267648.9528747,-2552.0879216857,2596455.7432519,25.203450345035,0,0
-183.65160676629,-105.79071606208,20.007880788079,1267648.9528747,-2552.0879216857,2596455.7432519,25.207880788079,0,0
-183.6516066676,-105.81953896672,20.012311231123,1267648.9528747,-2552.0879216857,2596455.7432519,25.212311231123,0,0
-183.65160656891,-105.84836187136,20.016741674167,1267648.9528747,-2552.0879216857,2596455.7432519,25.216741674167,0,0
-183.65160647023,-105.877184776,20.021172117212,1267648.9528747,-2552.0879216857,2596455.7432519,25.221172117212,0,0
-183.65160637154,-105.90600768064,20.025602560256,1267648.9528747,-2552.0879216857,2596455.7432519,25.225602560256,0,0
-183.65160627285,-105.93483058528,20.0300330033,1267648.9528747,-2552.0879216857,2596455.7432519,25.2300330033,0,0
-183.65160617417,-105.96365348992,20.034463446345,1267648.9528747,-2552.0879216857,2596455.7432519,25.234463446345,0,0
-183.65160607548,-105.99247639456,20.038893889389,1267648.9528747,-2552.0879216857,2596455.7432519,25.238893889389,0,0
-183.6516059768,-106.0212992992,20.043324332433,1267648.9528747,-2552.0879216857,2596455.7432519,25.243324332433,0,0
-183.65160587811,-106.05012220384,20.047754775478,1267648.9528747,-2552.0879216857,2596455.7432519,25.247754775478,0,0
-183.65160577942,-106.07894510847,20.052185218522,1267648.9528747,-2552.0879216857,2596455.7432519,25.252185218522,0,0
-183.65160568074,-106.10776801311,20.056615661566,1267648.9528747,-2552.0879216857,2596455.7432519,25.256615661566,0,0
-183.65160558205,-106.13659091775,20.06104610461,1267648.9528747,-2552.0879216857,2596455.7432519,25.26104610461,0,0
-183.65160548336,-106.16541382239,20.065476547655,1267648.9528747,-2552.0879216857,2596455.7432519,25.265476547655,0,0
-183.65160538468,-106.19423672703,20.069906990699,1267648.9528747,-2552.0879216857,2596455.7432519,25.269906990699,0,0
-183.65160528599,-106.22305963167,20.074337433743,1267648.9528747,-2552.0879216857,2596455.7432519,25.274337433743,0,0
-183.65160518731,-106.25188253631,20.078767876788,1267648.9528747,-2552.0879216857,2596455.7432519,25.278767876788,0,0
-183.65160508862,-106.28070544095,20.083198319832,1267648.9528747,-2552.0879216857,2596455.7432519,25.283198319832,0,0
-183.65160498993,-106.30952834559,20.087628762876,1267648.9528747,-2552.0879216857,2596455.7432519,25.287628762876,0,0
-183.65160489125,-106.33835125023,20.092059205921,1267648.9528747,-2552.0879216857,2596455.7432519,25.292059205921,0,0
-183.65160479256,-106.36717415487,20.096489648965,1267648.9528747,-2552.0879216857,2596455.7432519,25.296489648965,0,0
-183.65160469387,-106.39599705951,20.100920092009,1267648.9528747,-2552.0879216857,2596455.7432519,25.300920092009,0,0
-183.65160459519,-106.42481996415,20.105350535054,1267648.9528747,-2552.0879216857,2596455.7432519,25.305350535054,0,0
-183.6516044965,-106.45364286879,20.109780978098,1267648.9528747,-2552.0879216857,2596455.7432519,25.309780978098,0,0
-183.65160439782,-106.48246577343,20.114211421142,1267648.9528747,-2552.0879216857,2596455.7432519,25.314211421142,0,0
-183.65160429913,-106.51128867807,20.118641864186,1267648.9528747,-2552.0879216857,2596455.7432519,25.318641864186,0,0
-183.65160420044,-106.54011158271,20.123072307231,1267648.9528747,-2552.0879216857,2596455.7432519,25.323072307231,0,0
-183.65160410176,-106.56893448735,20.127502750275,1267648.9528747,-2552.0879216857,2596455.7432519,25.327502750275,0,0
-183.65160400307,-106.59775739199,20.131933193319,1267648.9528747,-2552.0879216857,2596455.7432519,25.331933193319,0,0
-183.65160390438,-106.62658029663,20.136363636364,1267648.9528747,-2552.0879216857,2596455.7432519,25.336363636364,0,0
-183.6516038057,-106.65540320127,20.140794079408,1267648.9528747,-2552.0879216857,2596455.7432519,25.340794079408,0,0
-183.65160370701,-106.68422610591,20.145224522452,1267648.9528747,-2552.0879216857,2596455.7432519,25.345224522452,0,0
-183.65160360832,-106.71304901055,20.149654965497,1267648.9528747,-2552.0879216857,2596455.7432519,25.349654965497,0,0
-183.65160350964,-106.74187191519,20.154085408541,1267648.9528747,-2552.0879216857,2596455.7432519,25.354085408541,0,0
-183.65160341095,-106.77069481983,20.158515851585,1267648.9528747,-2552.0879216857,2596455.7432519,25.358515851585,0,0
-183.65160331227,-106.79951772447,20.162946294629,1267648.9528747,-2552.0879216857,2596455.7432519,25.362946294629,0,0
-183.65160321358,-106.82834062911,20.167376737674,1267648.9528747,-2552.0879216857,2596455.7432519,25.367376737674,0,0
-183.65160311489,-106.85716353375,20.171807180718,1267648.9528747,-2552.0879216857,2596455.7432519,25.371807180718,0,0
-183.65160301621,-106.88598643839,20.176237623762,1267648.9528747,-2552.0879216857,2596455.7432519,25.376237623762,0,0
-183.65160291752,-106.91480934303,20.180668066807,1267648.9528747,-2552.0879216857,2596455.7432519,25.380668066807,0,0
-183.65160281883,-106.94363224767,20.185098509851,1267648.9528747,-2552.0879216857,2596455.7432519,25.385098509851,0,0
-183.65160272015,-106.97245515231,20.189528952895,1267648.9528747,-2552.0879216857,2596455.7432519,25.389528952895,0,0
-183.65160262146,-107.00127805695,20.19395939594,1267648.9528747,-2552.0879216857,2596455.7432519,25.39395939594,0,0
-183.65160252278,-107.03010096159,20.198389838984,1267648.9528747,-2552.0879216857,2596455.7432519,25.398389838984,0,0
-183.65160242409,-107.05892386623,20.202820282028,1267648.9528747,-2552.0879216857,2596455.7432519,25.402820282028,0,0
-183.6516023254,-107.08774677087,20.207250725073,1267648.9528747,-2552.0879216857,2596455.7432519,25.407250725073,0,0
-183.65160222672,-107.11656967551,20.211681168117,1267648.9528747,-2552.0879216857,2596455.7432519,25.411681168117,0,0
-183.65160212803,-107.14539258015,20.216111611161,1267648.9528747,-2552.0879216857,2596455.7432519,25.416111611161,0,0
-183.65160202934,-107.17421548478,20.220542054205,1267648.9528747,-2552.0879216857,2596455.7432519,25.420542054205,0,0
-183.65160193066,-107.20303838942,20.22497249725,1267648.9528747,-2552.0879216857,2596455.7432519,25.42497249725,0,0
-183.65160183197,-107.23186129406,20.229402940294,1267648.9528747,-2552.0879216857,2596455.7432519,25.429402940294,0,0
-183.65160173329,-107.2606841987,20.233833383338,1267648.9528747,-2552.0879216857,2596455.7432519,25.433833383338,0,0
-183.6516016346,-107.28950710334,20.238263826383,1267648.9528747,-2552.0879216857,2596455.7432519,25.438263826383,0,0
-183.65160153591,-107.31833000798,20.242694269427,1267648.9528747,-2552.0879216857,2596455.7432519,25.442694269427,0,0
-183.65160143723,-107.34715291262,20.247124712471,1267648.9528747,-2552.0879216857,2596455.7432519,25.447124712471,0,0
-183.65160133854,-107.37597581726,20.251555155516,1267648.9528747,-2552.0879216857,2596455.7432519,25.451555155516,0,0
-183.65160123985,-107.4047987219,20.25598559856,1267648.9528747,-2552.0879216857,2596455.7432519,25.45598559856,0,0
-183.65160114117,-107.43362162654,20.260416041604,1267648.9528747,-2552.0879216857,2596455.7432519,25.460416041604,0,0
-183.65160104248,-107.46244453118,20.264846484648,1267648.9528747,-2552.0879216857,2596455.7432519,25.464846484648,0,0
-183.6516009438,-107.49126743582,20.269276927693,1267648.9528747,-2552.0879216857,2596455.7432519,25.469276927693,0,0
-183.65160084511,-107.52009034046,20.273707370737,1267648.9528747,-2552.0879216857,2596455.7432519,25.473707370737,0,0
-183.65160074642,-107.5489132451,20.278137813781,1267648.9528747,-2552.0879216857,2596455.7432519,25.478137813781,0,0
-183.65160064774,-107.57773614974,20.282568256826,1267648.9528747,-2552.0879216857,2596455.7432519,25.482568256826,0,0
-183.65160054905,-107.60655905438,20.28699869987,1267648.9528747,-2552.0879216857,2596455.7432519,25.48699869987,0,0
-183.65160045036,-107.63538195902,20.291429142914,1267648.9528747,-2552.0879216857,2596455.7432519,25.491429142914,0,0
-183.65160035168,-107.66420486366,20.295859585959,1267648.9528747,-2552.0879216857,2596455.7432519,25.495859585959,0,0
-183.65160025299,-107.6930277683,20.300290029003,1267648.9528747,-2552.0879216857,2596455.7432519,25.500290029003,0,0
-183.6516001543,-107.72185067294,20.304720472047,1267648.9528747,-2552.0879216857,2596455.7432519,25.504720472047,0,0
-183.65160005562,-107.75067357758,20.309150915092,1267648.9528747,-2552.0879216857,2596455.7432519,25.509150915092,0,0
-183.65159995693,-107.77949648222,20.313581358136,1267648.9528747,-2552.0879216857,2596455.7432519,25.513581358136,0,0
-183.65159985825,-107.80831938686,20.31801180118,1267648.9528747,-2552.0879216857,2596455.7432519,25.51801180118,0,0
-183.65159975956,-107.8371422915,20.322442244224,1267648.9528747,-2552.0879216857,2596455.7432519,25.522442244224,0,0
-183.65159966087,-107.86596519614,20.326872687269,1267648.9528747,-2552.0879216857,2596455.7432519,25.526872687269,0,0
-183.65159956219,-107.89478810078,20.331303130313,1267648.9528747,-2552.0879216857,2596455.7432519,25.531303130313,0,0
-183.6515994635,-107.92361100542,20.335733573357,1267648.9528747,-2552.0879216857,2596455.7432519,25.535733573357,0,0
-183.65159936481,-107.95243391006,20.340164016402,1267648.9528747,-2552.0879216857,2596455.7432519,25.540164016402,0,0
-183.65159926613,-107.9812568147,20.344594459446,1267648.9528747,-2552.0879216857,2596455.7432519,25.544594459446,0,0
-183.65159916744,-108.01007971934,20.34902490249,1267648.9528747,-2552.0879216857,2596455.7432519,25.54902490249,0,0
-183.65159906876,-108.03890262398,20.353455345535,1267648.9528747,-2552.0879216857,2596455.7432519,25.553455345535,0,0
-183.65159897007,-108.06772552862,20.357885788579,1267648.9528747,-2552.0879216857,2596455.7432519,25.557885788579,0,0
-183.65159887138,-108.09654843326,20.362316231623,1267648.9528747,-2552.0879216857,2596455.7432519,25.562316231623,0,0
-183.6515987727,-108.1253713379,20.366746674667,1267648.9528747,-2552.0879216857,2596455.7432519,25.566746674667,0,0
-183.65159867401,-108.15419424254,20.371177117712,1267648.9528747,-2552.0879216857,2596455.7432519,25.571177117712,0,0
-183.65159857532,-108.18301714718,20.375607560756,1267648.9528747,-2552.0879216857,2596455.7432519,25.575607560756,0,0
-183.65159847664,-108.21184005182,20.3800380038,1267648.9528747,-2552.0879216857,2596455.7432519,25.5800380038,0,0
-183.65159837795,-108.24066295646,20.384468446845,1267648.9528747,-2552.0879216857,2596455.7432519,25.584468446845,0,0
-183.65159827927,-108.2694858611,20.388898889889,1267648.9528747,-2552.0879216857,2596455.7432519,25.588898889889,0,0
-183.65159818058,-108.29830876573,20.393329332933,1267648.9528747,-2552.0879216857,2596455.7432519,25.593329332933,0,0
-183.65159808189,-108.32713167037,20.397759775978,1267648.9528747,-2552.0879216857,2596455.7432519,25.597759775978,0,0
-183.65159798321,-108.35595457501,20.402190219022,1267648.9528747,-2552.0879216857,2596455.7432519,25.602190219022,0,0
-183.65159788452,-108.38477747965,20.406620662066,1267648.9528747,-2552.0879216857,2596455.7432519,25.606620662066,0,0
-183.65159778583,-108.41360038429,20.411051105111,1267648.9528747,-2552.0879216857,2596455.7432519,25.611051105111,0,0
-183.65159768715,-108.44242328893,20.415481548155,1267648.9528747,-2552.0879216857,2596455.7432519,25.615481548155,0,0
-183.65159758846,-108.47124619357,20.419911991199,1267648.9528747,-2552.0879216857,2596455.7432519,25.619911991199,0,0
-183.65159748978,-108.50006909821,20.424342434243,1267648.9528747,-2552.0879216857,2596455.7432519,25.624342434243,0,0
-183.65159739109,-108.52889200285,20.428772877288,1267648.9528747,-2552.0879216857,2596455.7432519,25.628772877288,0,0
-183.6515972924,-108.55771490749,20.433203320332,1267648.9528747,-2552.0879216857,2596455.7432519,25.633203320332,0,0
-183.65159719372,-108.58653781213,20.437633763376,1267648.9528747,-2552.0879216857,2596455.7432519,25.637633763376,0,0
-183.65159709503,-108.61536071677,20.442064206421,1267648.9528747,-2552.0879216857,2596455.7432519,25.642064206421,0,0
-183.65159699634,-108.64418362141,20.446494649465,1267648.9528747,-2552.0879216857,2596455.7432519,25.646494649465,0,0
-183.65159689766,-108.67300652605,20.450925092509,1267648.9528747,-2552.0879216857,2596455.7432519,25.650925092509,0,0
-183.65159679897,-108.70182943069,20.455355535554,1267648.9528747,-2552.0879216857,2596455.7432519,25.655355535554,0,0
-183.65159670029,-108.73065233533,20.459785978598,1267648.9528747,-2552.0879216857,2596455.7432519,25.659785978598,0,0
-183.6515966016,-108.75947523997,20.464216421642,1267648.9528747,-2552.0879216857,2596455.7432519,25.664216421642,0,0
-183.65159650291,-108.78829814461,20.468646864686,1267648.9528747,-2552.0879216857,2596455.7432519,25.668646864686,0,0
-183.65159640423,-108.81712104925,20.473077307731,1267648.9528747,-2552.0879216857,2596455.7432519,25.673077307731,0,0
-183.65159630554,-108.84594395389,20.477507750775,1267648.9528747,-2552.0879216857,2596455.7432519,25.677507750775,0,0
-183.65159620685,-108.87476685853,20.481938193819,1267648.9528747,-2552.0879216857,2596455.7432519,25.681938193819,0,0
-183.65159610817,-108.90358976317,20.486368636864,1267648.9528747,-2552.0879216857,2596455.7432519,25.686368636864,0,0
-183.65159600948,-108.93241266781,20.490799079908,1267648.9528747,-2552.0879216857,2596455.7432519,25.690799079908,0,0
-183.65159591079,-108.96123557245,20.495229522952,1267648.9528747,-2552.0879216857,2596455.7432519,25.695229522952,0,0
-183.65159581211,-108.99005847709,20.499659965997,1267648.9528747,-2552.0879216857,2596455.7432519,25.699659965997,0,0
-183.65159571342,-109.01888138173,20.504090409041,1267648.9528747,-2552.0879216857,2596455.7432519,25.704090409041,0,0
-183.65159561474,-109.04770428637,20.508520852085,1267648.9528747,-2552.0879216857,2596455.7432519,25.708520852085,0,0
-183.65159551605,-109.07652719101,20.51295129513,1267648.9528747,-2552.0879216857,2596455.7432519,25.71295129513,0,0
-183.65159541736,-109.10535009565,20.517381738174,1267648.9528747,-2552.0879216857,2596455.7432519,25.717381738174,0,0
-183.65159531868,-109.13417300029,20.521812181218,1267648.9528747,-2552.0879216857,2596455.7432519,25.721812181218,0,0
-183.65159521999,-109.16299590493,20.526242624262,1267648.9528747,-2552.0879216857,2596455.7432519,25.726242624262,0,0
-183.6515951213,-109.19181880957,20.530673067307,1267648.9528747,-2552.0879216857,2596455.7432519,25.730673067307,0,0
-183.65159502262,-109.22064171421,20.535103510351,1267648.9528747,-2552.0879216857,2596455.7432519,25.735103510351,0,0
-183.65159492393,-109.24946461885,20.539533953395,1267648.9528747,-2552.0879216857,2596455.7432519,25.739533953395,0,0
-183.65159482525,-109.27828752349,20.54396439644,1267648.9528747,-2552.0879216857,2596455.7432519,25.74396439644,0,0
-183.65159472656,-109.30711042813,20.548394839484,1267648.9528747,-2552.0879216857,2596455.7432519,25.748394839484,0,0
-183.65159462787,-109.33593333277,20.552825282528,1267648.9528747,-2552.0879216857,2596455.7432519,25.752825282528,0,0
-183.65159452919,-109.36475623741,20.557255725573,1267648.9528747,-2552.0879216857,2596455.7432519,25.757255725573,0,0
-183.6515944305,-109.39357914204,20.561686168617,1267648.9528747,-2552.0879216857,2596455.7432519,25.761686168617,0,0
-183.65159433181,-109.42240204668,20.566116611661,1267648.9528747,-2552.0879216857,2596455.7432519,25.766116611661,0,0
-183.65159423313,-109.45122495132,20.570547054705,1267648.9528747,-2552.0879216857,2596455.7432519,25.770547054705,0,0
-183.65159413444,-109.48004785596,20.57497749775,1267648.9528747,-2552.0879216857,2596455.7432519,25.77497749775,0,0
-183.65159403576,-109.5088707606,20.579407940794,1267648.9528747,-2552.0879216857,2596455.7432519,25.779407940794,0,0
-183.65159393707,-109.53769366524,20.583838383838,1267648.9528747,-2552.0879216857,2596455.7432519,25.783838383838,0,0
-183.65159383838,-109.56651656988,20.588268826883,1267648.9528747,-2552.0879216857,2596455.7432519,25.788268826883,0,0
-183.6515937397,-109.59533947452,20.592699269927,1267648.9528747,-2552.0879216857,2596455.7432519,25.792699269927,0,0
-183.65159364101,-109.62416237916,20.597129712971,1267648.9528747,-2552.0879216857,2596455.7432519,25.797129712971,0,0
-183.65159354232,-109.6529852838,20.601560156016,1267648.9528747,-2552.0879216857,2596455.7432519,25.801560156016,0,0
-183.65159344364,-109.68180818844,20.60599059906,1267648.9528747,-2552.0879216857,2596455.7432519,25.80599059906,0,0
-183.65159334495,-109.71063109308,20.610421042104,1267648.9528747,-2552.0879216857,2596455.7432519,25.810421042104,0,0
-183.65159324627,-109.73945399772,20.614851485149,1267648.9528747,-2552.0879216857,2596455.7432519,25.814851485149,0,0
-183.65159314758,-109.76827690236,20.619281928193,1267648.9528747,-2552.0879216857,2596455.7432519,25.819281928193,0,0
-183.65159304889,-109.797099807,20.623712371237,1267648.9528747,-2552.0879216857,2596455.7432519,25.823712371237,0,0
-183.65159295021,-109.82592271164,20.628142814281,1267648.9528747,-2552.0879216857,2596455.7432519,25.828142814281,0,0
-183.65159285152,-109.85474561628,20.632573257326,1267648.9528747,-2552.0879216857,2596455.7432519,25.832573257326,0,0
-183.65159275283,-109.88356852092,20.63700370037,1267648.9528747,-2552.0879216857,2596455.7432519,25.83700370037,0,0
-183.65159265415,-109.91239142556,20.641434143414,1267648.9528747,-2552.0879216857,2596455.7432519,25.841434143414,0,0
-183.65159255546,-109.9412143302,20.645864586459,1267648.9528747,-2552.0879216857,2596455.7432519,25.845864586459,0,0
-183.65159245677,-109.97003723484,20.650295029503,1267648.9528747,-2552.0879216857,2596455.7432519,25.850295029503,0,0
-183.65159235809,-109.99886013948,20.654725472547,1267648.9528747,-2552.0879216857,2596455.7432519,25.854725472547,0,0
-183.6515922594,-110.02768304412,20.659155915592,1267648.9528747,-2552.0879216857,2596455.7432519,25.859155915592,0,0
-183.65159216072,-110.05650594876,20.663586358636,1267648.9528747,-2552.0879216857,2596455.7432519,25.863586358636,0,0
-183.65159206203,-110.0853288534,20.66801680168,1267648.9528747,-2552.0879216857,2596455.7432519,25.86801680168,0,0
-183.65159196334,-110.11415175804,20.672447244724,1267648.9528747,-2552.0879216857,2596455.7432519,25.872447244724,0,0
-183.65159186466,-110.14297466268,20.676877687769,1267648.9528747,-2552.0879216857,2596455.7432519,25.876877687769,0,0
-183.65159176597,-110.17179756732,20.681308130813,1267648.9528747,-2552.0879216857,2596455.7432519,25.881308130813,0,0
-183.65159166728,-110.20062047196,20.685738573857,1267648.9528747,-2552.0879216857,2596455.7432519,25.885738573857,0,0
-183.6515915686,-110.2294433766,20.690169016902,1267648.9528747,-2552.0879216857,2596455.7432519,25.890169016902,0,0
-183.65159146991,-110.25826628124,20.694599459946,1267648.9528747,-2552.0879216857,2596455.7432519,25.894599459946,0,0
-183.65159137123,-110.28708918588,20.69902990299,1267648.9528747,-2552.0879216857,2596455.7432519,25.89902990299,0,0
-183.65159127254,-110.31591209052,20.703460346035,1267648.9528747,-2552.0879216857,2596455.7432519,25.903460346035,0,0
-183.65159117385,-110.34473499516,20.707890789079,1267648.9528747,-2552.0879216857,2596455.7432519,25.907890789079,0,0
-183.65159107517,-110.3735578998,20.712321232123,1267648.9528747,-2552.0879216857,2596455.7432519,25.912321232123,0,0
-183.65159097648,-110.40238080444,20.716751675168,1267648.9528747,-2552.0879216857,2596455.7432519,25.916751675168,0,0
-183.65159087779,-110.43120370908,20.721182118212,1267648.9528747,-2552.0879216857,2596455.7432519,25.921182118212,0,0
-183.65159077911,-110.46002661372,20.725612561256,1267648.9528747,-2552.0879216857,2596455.7432519,25.925612561256,0,0
-183.65159068042,-110.48884951836,20.7300430043,1267648.9528747,-2552.0879216857,2596455.7432519,25.9300430043,0,0
-183.65159058174,-110.51767242299,20.734473447345,1267648.9528747,-2552.0879216857,2596455.7432519,25.934473447345,0,0
-183.65159048305,-110.54649532763,20.738903890389,1267648.9528747,-2552.0879216857,2596455.7432519,25.938903890389,0,0
-183.65159038436,-110.57531823227,20.743334333433,1267648.9528747,-2552.0879216857,2596455.7432519,25.943334333433,0,0
-183.65159028568,-110.60414113691,20.747764776478,1267648.9528747,-2552.0879216857,2596455.7432519,25.947764776478,0,0
-183.65159018699,-110.63296404155,20.752195219522,1267648.9528747,-2552.0879216857,2596455.7432519,25.952195219522,0,0
-183.6515900883,-110.66178694619,20.756625662566,1267648.9528747,-2552.0879216857,2596455.7432519,25.956625662566,0,0
-183.65158998962,-110.69060985083,20.761056105611,1267648.9528747,-2552.0879216857,2596455.7432519,25.961056105611,0,0
-183.65158989093,-110.71943275547,20.765486548655,1267648.9528747,-2552.0879216857,2596455.7432519,25.965486548655,0,0
-183.65158979225,-110.74825566011,20.769916991699,1267648.9528747,-2552.0879216857,2596455.7432519,25.969916991699,0,0
-183.65158969356,-110.77707856475,20.774347434743,1267648.9528747,-2552.0879216857,2596455.7432519,25.974347434743,0,0
-183.65158959487,-110.80590146939,20.778777877788,1267648.9528747,-2552.0879216857,2596455.7432519,25.978777877788,0,0
-183.65158949619,-110.83472437403,20.783208320832,1267648.9528747,-2552.0879216857,2596455.7432519,25.983208320832,0,0
-183.6515893975,-110.86354727867,20.787638763876,1267648.9528747,-2552.0879216857,2596455.7432519,25.987638763876,0,0
-183.65158929881,-110.89237018331,20.792069206921,1267648.9528747,-2552.0879216857,2596455.7432519,25.992069206921,0,0
-183.65158920013,-110.92119308795,20.796499649965,1267648.9528747,-2552.0879216857,2596455.7432519,25.996499649965,0,0
-183.65158910144,-110.95001599259,20.800930093009,1267648.9528747,-2552.0879216857,2596455.7432519,26.000930093009,0,0
-183.65158900275,-110.97883889723,20.805360536054,1267648.9528747,-2552.0879216857,2596455.7432519,26.005360536054,0,0
-183.65158890407,-111.00766180187,20.809790979098,1267648.9528747,-2552.0879216857,2596455.7432519,26.009790979098,0,0
-183.65158880538,-111.03648470651,20.814221422142,1267648.9528747,-2552.0879216857,2596455.7432519,26.014221422142,0,0
-183.6515887067,-111.06530761115,20.818651865187,1267648.9528747,-2552.0879216857,2596455.7432519,26.018651865187,0,0
-183.65158860801,-111.09413051579,20.823082308231,1267648.9528747,-2552.0879216857,2596455.7432519,26.023082308231,0,0
-183.65158850932,-111.12295342043,20.827512751275,1267648.9528747,-2552.0879216857,2596455.7432519,26.027512751275,0,0
-183.65158841064,-111.15177632507,20.831943194319,1267648.9528747,-2552.0879216857,2596455.7432519,26.031943194319,0,0
-183.65158831195,-111.18059922971,20.836373637364,1267648.9528747,-2552.0879216857,2596455.7432519,26.036373637364,0,0
-183.65158821326,-111.20942213435,20.840804080408,1267648.9528747,-2552.0879216857,2596455.7432519,26.040804080408,0,0
-183.65158811458,-111.23824503899,20.845234523452,1267648.9528747,-2552.0879216857,2596455.7432519,26.045234523452,0,0
-183.65158801589,-111.26706794363,20.849664966497,1267648.9528747,-2552.0879216857,2596455.7432519,26.049664966497,0,0
-183.65158791721,-111.29589084827,20.854095409541,1267648.9528747,-2552.0879216857,2596455.7432519,26.054095409541,0,0
-183.65158781852,-111.32471375291,20.858525852585,1267648.9528747,-2552.0879216857,2596455.7432519,26.058525852585,0,0
-183.65158771983,-111.35353665755,20.86295629563,1267648.9528747,-2552.0879216857,2596455.7432519,26.06295629563,0,0
-183.65158762115,-111.38235956219,20.867386738674,1267648.9528747,-2552.0879216857,2596455.7432519,26.067386738674,0,0
-183.65158752246,-111.41118246683,20.871817181718,1267648.9528747,-2552.0879216857,2596455.7432519,26.071817181718,0,0
-183.65158742377,-111.44000537147,20.876247624762,1267648.9528747,-2552.0879216857,2596455.7432519,26.076247624762,0,0
-183.65158732509,-111.46882827611,20.880678067807,1267648.9528747,-2552.0879216857,2596455.7432519,26.080678067807,0,0
-183.6515872264,-111.49765118075,20.885108510851,1267648.9528747,-2552.0879216857,2596455.7432519,26.085108510851,0,0
-183.65158712772,-111.52647408539,20.889538953895,1267648.9528747,-2552.0879216857,2596455.7432519,26.089538953895,0,0
-183.65158702903,-111.55529699003,20.89396939694,1267648.9528747,-2552.0879216857,2596455.7432519,26.09396939694,0,0
-183.65158693034,-111.58411989467,20.898399839984,1267648.9528747,-2552.0879216857,2596455.7432519,26.098399839984,0,0
-183.65158683166,-111.6129427993,20.902830283028,1267648.9528747,-2552.0879216857,2596455.7432519,26.102830283028,0,0
-183.65158673297,-111.64176570394,20.907260726073,1267648.9528747,-2552.0879216857,2596455.7432519,26.107260726073,0,0
-183.65158663428,-111.67058860858,20.911691169117,1267648.9528747,-2552.0879216857,2596455.7432519,26.111691169117,0,0
-183.6515865356,-111.69941151322,20.916121612161,1267648.9528747,-2552.0879216857,2596455.7432519,26.116121612161,0,0
-183.65158643691,-111.72823441786,20.920552055206,1267648.9528747,-2552.0879216857,2596455.7432519,26.120552055206,0,0
-183.65158633823,-111.7570573225,20.92498249825,1267648.9528747,-2552.0879216857,2596455.7432519,26.12498249825,0,0
-183.65158623954,-111.78588022714,20.929412941294,1267648.9528747,-2552.0879216857,2596455.7432519,26.129412941294,0,0
-183.65158614085,-111.81470313178,20.933843384338,1267648.9528747,-2552.0879216857,2596455.7432519,26.133843384338,0,0
-183.65158604217,-111.84352603642,20.938273827383,1267648.9528747,-2552.0879216857,2596455.7432519,26.138273827383,0,0
-183.65158594348,-111.87234894106,20.942704270427,1267648.9528747,-2552.0879216857,2596455.7432519,26.142704270427,0,0
-183.65158584479,-111.9011718457,20.947134713471,1267648.9528747,-2552.0879216857,2596455.7432519,26.147134713471,0,0
-183.65158574611,-111.92999475034,20.951565156516,1267648.9528747,-2552.0879216857,2596455.7432519,26.151565156516,0,0
-183.65158564742,-111.95881765498,20.95599559956,1267648.9528747,-2552.0879216857,2596455.7432519,26.15599559956,0,0
-183.65158554873,-111.98764055962,20.960426042604,1267648.9528747,-2552.0879216857,2596455.7432519,26.160426042604,0,0
-183.65158545005,-112.01646346426,20.964856485649,1267648.9528747,-2552.0879216857,2596455.7432519,26.164856485649,0,0
-183.65158535136,-112.0452863689,20.969286928693,1267648.9528747,-2552.0879216857,2596455.7432519,26.169286928693,0,0
-183.65158525268,-112.07410927354,20.973717371737,1267648.9528747,-2552.0879216857,2596455.7432519,26.173717371737,0,0
-183.65158515399,-112.10293217818,20.978147814781,1267648.9528747,-2552.0879216857,2596455.7432519,26.178147814781,0,0
-183.6515850553,-112.13175508281,20.982578257826,1267153.335998,964.67461389686,2592735.7491628,26.182578257826,0,0
-183.65158495656,-112.16057798668,20.98700870087,1267153.335998,964.67461389686,2592735.7491628,26.18700870087,0,0
-183.65158485781,-112.18940089055,20.991439143914,1267153.335998,964.67461389686,2592735.7491628,26.191439143914,0,0
-183.65158475907,-112.21822379442,20.995869586959,1267153.335998,964.67461389686,2592735.7491628,26.195869586959,0,0
-183.65158466032,-112.24704669829,21.000300030003,1267153.335998,964.67461389686,2592735.7491628,26.200300030003,0,0
-183.65158456157,-112.27586960216,21.004730473047,1267153.335998,964.67461389686,2592735.7491628,26.204730473047,0,0
-183.65158446283,-112.30469250602,21.009160916092,1267153.335998,964.67461389686,2592735.7491628,26.209160916092,0,0
-183.65158436408,-112.33351540989,21.013591359136,1267153.335998,964.67461389686,2592735.7491628,26.213591359136,0,0
-183.65158426534,-112.36233831376,21.01802180218,1267153.335998,964.67461389686,2592735.7491628,26.21802180218,0,0
-183.65158416659,-112.39116121763,21.022452245225,1267153.335998,964.67461389686,2592735.7491628,26.222452245225,0,0
-183.65158406785,-112.4199841215,21.026882688269,1267153.335998,964.67461389686,2592735.7491628,26.226882688269,0,0
-183.6515839691,-112.44880702537,21.031313131313,1267153.335998,964.67461389686,2592735.7491628,26.231313131313,0,0
-183.65158387035,-112.47762992924,21.035743574357,1267153.335998,964.67461389686,2592735.7491628,26.235743574357,0,0
-183.65158377161,-112.50645283311,21.040174017402,1267153.335998,964.67461389686,2592735.7491628,26.240174017402,0,0
-183.65158367286,-112.53527573697,21.044604460446,1267153.335998,964.67461389686,2592735.7491628,26.244604460446,0,0
-183.65158357412,-112.56409864084,21.04903490349,1267153.335998,964.67461389686,2592735.7491628,26.24903490349,0,0
-183.65158347537,-112.59292154471,21.053465346535,1267153.335998,964.67461389686,2592735.7491628,26.253465346535,0,0
-183.65158337663,-112.62174444858,21.057895789579,1267153.335998,964.67461389686,2592735.7491628,26.257895789579,0,0
-183.65158327788,-112.65056735245,21.062326232623,1267153.335998,964.67461389686,2592735.7491628,26.262326232623,0,0
-183.65158317913,-112.67939025632,21.066756675668,1267153.335998,964.67461389686,2592735.7491628,26.266756675668,0,0
-183.65158308039,-112.70821316019,21.071187118712,1267153.335998,964.67461389686,2592735.7491628,26.271187118712,0,0
-183.65158298164,-112.73703606406,21.075617561756,1267153.335998,964.67461389686,2592735.7491628,26.275617561756,0,0
-183.6515828829,-112.76585896792,21.0800480048,1267153.335998,964.67461389686,2592735.7491628,26.2800480048,0,0
-183.65158278415,-112.79468187179,21.084478447845,1267153.335998,964.67461389686,2592735.7491628,26.284478447845,0,0
-183.6515826854,-112.82350477566,21.088908890889,1267153.335998,964.67461389686,2592735.7491628,26.288908890889,0,0
-183.65158258666,-112.85232767953,21.093339333933,1267153.335998,964.67461389686,2592735.7491628,26.293339333933,0,0
-183.65158248791,-112.8811505834,21.097769776978,1267153.335998,964.67461389686,2592735.7491628,26.297769776978,0,0
-183.65158238917,-112.90997348727,21.102200220022,1267153.335998,964.67461389686,2592735.7491628,26.302200220022,0,0
-183.65158229042,-112.93879639114,21.106630663066,1267153.335998,964.67461389686,2592735.7491628,26.306630663066,0,0
-183.65158219168,-112.96761929501,21.111061106111,1267153.335998,964.67461389686,2592735.7491628,26.311061106111,0,0
-183.65158209293,-112.99644219887,21.115491549155,1267153.335998,964.67461389686,2592735.7491628,26.315491549155,0,0
-183.65158199418,-113.02526510274,21.119921992199,1267153.335998,964.67461389686,2592735.7491628,26.319921992199,0,0
-183.65158189544,-113.05408800661,21.124352435244,1267153.335998,964.67461389686,2592735.7491628,26.324352435244,0,0
-183.65158179669,-113.08291091048,21.128782878288,1267153.335998,964.67461389686,2592735.7491628,26.328782878288,0,0
-183.65158169795,-113.11173381435,21.133213321332,1267153.335998,964.67461389686,2592735.7491628,26.333213321332,0,0
-183.6515815992,-113.14055671822,21.137643764376,1267153.335998,964.67461389686,2592735.7491628,26.337643764376,0,0
-183.65158150046,-113.16937962209,21.142074207421,1267153.335998,964.67461389686,2592735.7491628,26.342074207421,0,0
-183.65158140171,-113.19820252596,21.146504650465,1267153.335998,964.67461389686,2592735.7491628,26.346504650465,0,0
-183.65158130296,-113.22702542982,21.150935093509,1267153.335998,964.67461389686,2592735.7491628,26.350935093509,0,0
-183.65158120422,-113.25584833369,21.155365536554,1267153.335998,964.67461389686,2592735.7491628,26.355365536554,0,0
-183.65158110547,-113.28467123756,21.159795979598,1267153.335998,964.67461389686,2592735.7491628,26.359795979598,0,0
-183.65158100673,-113.31349414143,21.164226422642,1267153.335998,964.67461389686,2592735.7491628,26.364226422642,0,0
-183.65158090792,-113.34231704582,21.168656865687,1266277.7486564,-2213.9223287355,2586890.1909543,26.368656865687,0,0
-183.65158080909,-113.37113995041,21.173087308731,1266277.7486564,-2213.9223287355,2586890.1909543,26.373087308731,0,0
-183.65158071026,-113.39996285501,21.177517751775,1266277.7486564,-2213.9223287355,2586890.1909543,26.377517751775,0,0
-183.65158061143,-113.42878575961,21.181948194819,1266277.7486564,-2213.9223287355,2586890.1909543,26.381948194819,0,0
-183.6515805126,-113.45760866421,21.186378637864,1266277.7486564,-2213.9223287355,2586890.1909543,26.386378637864,0,0
-183.65158041376,-113.4864315688,21.190809080908,1266277.7486564,-2213.9223287355,2586890.1909543,26.390809080908,0,0
-183.65158031493,-113.5152544734,21.195239523952,1266277.7486564,-2213.9223287355,2586890.1909543,26.395239523952,0,0
-183.6515802161,-113.544077378,21.199669966997,1266277.7486564,-2213.9223287355,2586890.1909543,26.399669966997,0,0
-183.65158011727,-113.5729002826,21.204100410041,1266277.7486564,-2213.9223287355,2586890.1909543,26.404100410041,0,0
-183.65158001844,-113.6017231872,21.208530853085,1266277.7486564,-2213.9223287355,2586890.1909543,26.408530853085,0,0
-183.65157991961,-113.63054609179,21.21296129613,1266277.7486564,-2213.9223287355,2586890.1909543,26.41296129613,0,0
-183.65157982078,-113.65936899639,21.217391739174,1266277.7486564,-2213.9223287355,2586890.1909543,26.417391739174,0,0
-183.65157972194,-113.68819190099,21.221822182218,1266277.7486564,-2213.9223287355,2586890.1909543,26.421822182218,0,0
-183.65157962311,-113.71701480559,21.226252625263,1266277.7486564,-2213.9223287355,2586890.1909543,26.426252625263,0,0
-183.65157952428,-113.74583771019,21.230683068307,1266277.7486564,-2213.9223287355,2586890.1909543,26.430683068307,0,0
-183.65157942545,-113.77466061478,21.235113511351,1266277.7486564,-2213.9223287355,2586890.1909543,26.435113511351,0,0
-183.65157932662,-113.80348351938,21.239543954395,1266277.7486564,-2213.9223287355,2586890.1909543,26.439543954395,0,0
-183.65157922779,-113.83230642398,21.24397439744,1266277.7486564,-2213.9223287355,2586890.1909543,26.44397439744,0,0
-183.65157912895,-113.86112932858,21.248404840484,1266277.7486564,-2213.9223287355,2586890.1909543,26.448404840484,0,0
-183.65157903012,-113.88995223318,21.252835283528,1266277.7486564,-2213.9223287355,2586890.1909543,26.452835283528,0,0
-183.65157893129,-113.91877513777,21.257265726573,1266277.7486564,-2213.9223287355,2586890.1909543,26.457265726573,0,0
-183.65157883246,-113.94759804237,21.261696169617,1266277.7486564,-2213.9223287355,2586890.1909543,26.461696169617,0,0
-183.65157873363,-113.97642094697,21.266126612661,1266277.7486564,-2213.9223287355,2586890.1909543,26.466126612661,0,0
-183.6515786348,-114.00524385157,21.270557055706,1266277.7486564,-2213.9223287355,2586890.1909543,26.470557055706,0,0
-183.65157853597,-114.03406675617,21.27498749875,1266277.7486564,-2213.9223287355,2586890.1909543,26.47498749875,0,0
-183.65157843713,-114.06288966076,21.279417941794,1266277.7486564,-2213.9223287355,2586890.1909543,26.479417941794,0,0
-183.6515783383,-114.09171256536,21.283848384838,1266277.7486564,-2213.9223287355,2586890.1909543,26.483848384838,0,0
-183.65157823947,-114.12053546996,21.288278827883,1266277.7486564,-2213.9223287355,2586890.1909543,26.488278827883,0,0
-183.65157814064,-114.14935837456,21.292709270927,1266277.7486564,-2213.9223287355,2586890.1909543,26.492709270927,0,0
-183.65157804181,-114.17818127916,21.297139713971,1266277.7486564,-2213.9223287355,2586890.1909543,26.497139713971,0,0
-183.65157794298,-114.20700418375,21.301570157016,1266277.7486564,-2213.9223287355,2586890.1909543,26.501570157016,0,0
-183.65157784415,-114.23582708835,21.30600060006,1266277.7486564,-2213.9223287355,2586890.1909543,26.50600060006,0,0
-183.65157774531,-114.26464999295,21.310431043104,1266277.7486564,-2213.9223287355,2586890.1909543,26.510431043104,0,0
-183.65157764648,-114.29347289755,21.314861486149,1266277.7486564,-2213.9223287355,2586890.1909543,26.514861486149,0,0
-183.65157754765,-114.32229580215,21.319291929193,1266277.7486564,-2213.9223287355,2586890.1909543,26.519291929193,0,0
-183.65157744882,-114.35111870674,21.323722372237,1266277.7486564,-2213.9223287355,2586890.1909543,26.523722372237,0,0
-183.65157734999,-114.37994161134,21.328152815282,1266277.7486564,-2213.9223287355,2586890.1909543,26.528152815282,0,0
-183.65157725116,-114.40876451594,21.332583258326,1266277.7486564,-2213.9223287355,2586890.1909543,26.532583258326,0,0
-183.65157715233,-114.43758742054,21.33701370137,1266277.7486564,-2213.9223287355,2586890.1909543,26.53701370137,0,0
-183.65157705349,-114.46641032514,21.341444144414,1266277.7486564,-2213.9223287355,2586890.1909543,26.541444144414,0,0
-183.65157695466,-114.49523322973,21.345874587459,1266277.7486564,-2213.9223287355,2586890.1909543,26.545874587459,0,0
-183.65157685583,-114.52405613433,21.350305030503,1266277.7486564,-2213.9223287355,2586890.1909543,26.550305030503,0,0
-183.651576757,-114.55287903893,21.354735473547,1266277.7486564,-2213.9223287355,2586890.1909543,26.554735473547,0,0
-183.65157665817,-114.58170194353,21.359165916592,1266277.7486564,-2213.9223287355,2586890.1909543,26.559165916592,0,0
-183.65157655934,-114.61052484812,21.363596359636,1266277.7486564,-2213.9223287355,2586890.1909543,26.563596359636,0,0
-183.65157646051,-114.63934775272,21.36802680268,1266277.7486564,-2213.9223287355,2586890.1909543,26.56802680268,0,0
-183.65157636167,-114.66817065732,21.372457245725,1266277.7486564,-2213.9223287355,2586890.1909543,26.572457245725,0,0
-183.65157626284,-114.69699356192,21.376887688769,1266277.7486564,-2213.9223287355,2586890.1909543,26.576887688769,0,0
-183.65157616401,-114.72581646652,21.381318131813,1266277.7486564,-2213.9223287355,2586890.1909543,26.581318131813,0,0
-183.65157606518,-114.75463937111,21.385748574857,1266277.7486564,-2213.9223287355,2586890.1909543,26.585748574857,0,0
-183.65157596635,-114.78346227571,21.390179017902,1266277.7486564,-2213.9223287355,2586890.1909543,26.590179017902,0,0
-183.65157586752,-114.81228518031,21.394609460946,1266277.7486564,-2213.9223287355,2586890.1909543,26.594609460946,0,0
-183.65157576869,-114.84110808491,21.39903990399,1266277.7486564,-2213.9223287355,2586890.1909543,26.59903990399,0,0
-183.65157566985,-114.86993098951,21.403470347035,1266277.7486564,-2213.9223287355,2586890.1909543,26.603470347035,0,0
-183.65157557102,-114.8987538941,21.407900790079,1266277.7486564,-2213.9223287355,2586890.1909543,26.607900790079,0,0
-183.65157547219,-114.9275767987,21.412331233123,1266277.7486564,-2213.9223287355,2586890.1909543,26.612331233123,0,0
-183.65157537336,-114.9563997033,21.416761676168,1266277.7486564,-2213.9223287355,2586890.1909543,26.616761676168,0,0
-183.65157527453,-114.9852226079,21.421192119212,1266277.7486564,-2213.9223287355,2586890.1909543,26.621192119212,0,0
-183.6515751757,-115.0140455125,21.425622562256,1266277.7486564,-2213.9223287355,2586890.1909543,26.625622562256,0,0
-183.65157507687,-115.04286841709,21.430053005301,1266277.7486564,-2213.9223287355,2586890.1909543,26.630053005301,0,0
-183.65157497803,-115.07169132169,21.434483448345,1266277.7486564,-2213.9223287355,2586890.1909543,26.634483448345,0,0
-183.6515748792,-115.10051422629,21.438913891389,1266277.7486564,-2213.9223287355,2586890.1909543,26.638913891389,0,0
-183.65157478037,-115.12933713089,21.443344334433,1266277.7486564,-2213.9223287355,2586890.1909543,26.643344334433,0,0
-183.65157468154,-115.15816003549,21.447774777478,1266277.7486564,-2213.9223287355,2586890.1909543,26.647774777478,0,0
-183.65157458271,-115.18698294008,21.452205220522,1266277.7486564,-2213.9223287355,2586890.1909543,26.652205220522,0,0
-183.65157448388,-115.21580584468,21.456635663566,1266277.7486564,-2213.9223287355,2586890.1909543,26.656635663566,0,0
-183.65157438505,-115.24462874928,21.461066106611,1266277.7486564,-2213.9223287355,2586890.1909543,26.661066106611,0,0
-183.65157428621,-115.27345165388,21.465496549655,1266277.7486564,-2213.9223287355,2586890.1909543,26.665496549655,0,0
-183.65157418738,-115.30227455848,21.469926992699,1266277.7486564,-2213.9223287355,2586890.1909543,26.669926992699,0,0
-183.65157408855,-115.33109746307,21.474357435744,1266277.7486564,-2213.9223287355,2586890.1909543,26.674357435744,0,0
-183.65157398972,-115.35992036767,21.478787878788,1266277.7486564,-2213.9223287355,2586890.1909543,26.678787878788,0,0
-183.65157389089,-115.38874327227,21.483218321832,1266277.7486564,-2213.9223287355,2586890.1909543,26.683218321832,0,0
-183.65157379206,-115.41756617687,21.487648764876,1266277.7486564,-2213.9223287355,2586890.1909543,26.687648764876,0,0
-183.65157369323,-115.44638908147,21.492079207921,1266277.7486564,-2213.9223287355,2586890.1909543,26.692079207921,0,0
-183.65157359439,-115.47521198606,21.496509650965,1266277.7486564,-2213.9223287355,2586890.1909543,26.696509650965,0,0
-183.65157349556,-115.50403489066,21.500940094009,1266277.7486564,-2213.9223287355,2586890.1909543,26.700940094009,0,0
-183.65157339673,-115.53285779526,21.505370537054,1266277.7486564,-2213.9223287355,2586890.1909543,26.705370537054,0,0
-183.6515732979,-115.56168069986,21.509800980098,1266277.7486564,-2213.9223287355,2586890.1909543,26.709800980098,0,0
-183.65157319907,-115.59050360446,21.514231423142,1266277.7486564,-2213.9223287355,2586890.1909543,26.714231423142,0,0
-183.65157310024,-115.61932650905,21.518661866187,1266277.7486564,-2213.9223287355,2586890.1909543,26.718661866187,0,0
-183.65157300141,-115.64814941365,21.523092309231,1266277.7486564,-2213.9223287355,2586890.1909543,26.723092309231,0,0
-183.65157290257,-115.67697231825,21.527522752275,1266277.7486564,-2213.9223287355,2586890.1909543,26.727522752275,0,0
-183.65157280374,-115.70579522285,21.53195319532,1266277.7486564,-2213.9223287355,2586890.1909543,26.73195319532,0,0
-183.65157270491,-115.73461812744,21.536383638364,1266277.7486564,-2213.9223287355,2586890.1909543,26.736383638364,0,0
-183.65157260608,-115.76344103204,21.540814081408,1266277.7486564,-2213.9223287355,2586890.1909543,26.740814081408,0,0
-183.65157250725,-115.79226393664,21.545244524452,1266277.7486564,-2213.9223287355,2586890.1909543,26.745244524452,0,0
-183.65157240842,-115.82108684124,21.549674967497,1266277.7486564,-2213.9223287355,2586890.1909543,26.749674967497,0,0
-183.65157230959,-115.84990974584,21.554105410541,1266277.7486564,-2213.9223287355,2586890.1909543,26.754105410541,0,0
-183.65157221075,-115.87873265043,21.558535853585,1266277.7486564,-2213.9223287355,2586890.1909543,26.758535853585,0,0
-183.65157211192,-115.90755555503,21.56296629663,1266277.7486564,-2213.9223287355,2586890.1909543,26.76296629663,0,0
-183.65157201309,-115.93637845963,21.567396739674,1266277.7486564,-2213.9223287355,2586890.1909543,26.767396739674,0,0
-183.65157191426,-115.96520136423,21.571827182718,1266277.7486564,-2213.9223287355,2586890.1909543,26.771827182718,0,0
-183.65157181543,-115.99402426883,21.576257625763,1266277.7486564,-2213.9223287355,2586890.1909543,26.776257625763,0,0
-183.6515717166,-116.02284717342,21.580688068807,1266277.7486564,-2213.9223287355,2586890.1909543,26.780688068807,0,0
-183.65157161777,-116.05167007802,21.585118511851,1266277.7486564,-2213.9223287355,2586890.1909543,26.785118511851,0,0
-183.65157151893,-116.08049298262,21.589548954895,1266277.7486564,-2213.9223287355,2586890.1909543,26.789548954895,0,0
-183.6515714201,-116.10931588722,21.59397939794,1266277.7486564,-2213.9223287355,2586890.1909543,26.79397939794,0,0
-183.65157132127,-116.13813879182,21.598409840984,1266277.7486564,-2213.9223287355,2586890.1909543,26.798409840984,0,0
-183.65157122244,-116.16696169641,21.602840284028,1266277.7486564,-2213.9223287355,2586890.1909543,26.802840284028,0,0
-183.65157112361,-116.19578460101,21.607270727073,1266277.7486564,-2213.9223287355,2586890.1909543,26.807270727073,0,0
-183.65157102478,-116.22460750561,21.611701170117,1266277.7486564,-2213.9223287355,2586890.1909543,26.811701170117,0,0
-183.65157092595,-116.25343041021,21.616131613161,1266277.7486564,-2213.9223287355,2586890.1909543,26.816131613161,0,0
-183.65157082711,-116.28225331481,21.620562056206,1266277.7486564,-2213.9223287355,2586890.1909543,26.820562056206,0,0
-183.65157072828,-116.3110762194,21.62499249925,1266277.7486564,-2213.9223287355,2586890.1909543,26.82499249925,0,0
-183.65157062945,-116.339899124,21.629422942294,1266277.7486564,-2213.9223287355,2586890.1909543,26.829422942294,0,0
-183.65157053062,-116.3687220286,21.633853385339,1266277.7486564,-2213.9223287355,2586890.1909543,26.833853385339,0,0
-183.65157043179,-116.3975449332,21.638283828383,1266277.7486564,-2213.9223287355,2586890.1909543,26.838283828383,0,0
-183.65157033296,-116.4263678378,21.642714271427,1266277.7486564,-2213.9223287355,2586890.1909543,26.842714271427,0,0
-183.65157023412,-116.45519074239,21.647144714471,1266277.7486564,-2213.9223287355,2586890.1909543,26.847144714471,0,0
-183.65157013529,-116.48401364699,21.651575157516,1266277.7486564,-2213.9223287355,2586890.1909543,26.851575157516,0,0
-183.65157003646,-116.51283655159,21.65600560056,1266277.7486564,-2213.9223287355,2586890.1909543,26.85600560056,0,0
-183.65156993763,-116.54165945619,21.660436043604,1266277.7486564,-2213.9223287355,2586890.1909543,26.860436043604,0,0
-183.6515698388,-116.57048236079,21.664866486649,1266277.7486564,-2213.9223287355,2586890.1909543,26.864866486649,0,0
-183.65156973997,-116.59930526538,21.669296929693,1266277.7486564,-2213.9223287355,2586890.1909543,26.869296929693,0,0
-183.65156964114,-116.62812816998,21.673727372737,1266277.7486564,-2213.9223287355,2586890.1909543,26.873727372737,0,0
-183.6515695423,-116.65695107458,21.678157815782,1266277.7486564,-2213.9223287355,2586890.1909543,26.878157815782,0,0
-183.65156944347,-116.68577397918,21.682588258826,1266277.7486564,-2213.9223287355,2586890.1909543,26.882588258826,0,0
-183.65156934464,-116.71459688378,21.68701870187,1266277.7486564,-2213.9223287355,2586890.1909543,26.88701870187,0,0
-183.65156924581,-116.74341978837,21.691449144914,1266277.7486564,-2213.9223287355,2586890.1909543,26.891449144914,0,0
-183.65156914698,-116.77224269297,21.695879587959,1266277.7486564,-2213.9223287355,2586890.1909543,26.895879587959,0,0
-183.65156904815,-116.80106559757,21.700310031003,1266277.7486564,-2213.9223287355,2586890.1909543,26.900310031003,0,0
-183.65156894932,-116.82988850217,21.704740474047,1266277.7486564,-2213.9223287355,2586890.1909543,26.904740474047,0,0
-183.65156885048,-116.85871140676,21.709170917092,1266277.7486564,-2213.9223287355,2586890.1909543,26.909170917092,0,0
-183.65156875165,-116.88753431136,21.713601360136,1266277.7486564,-2213.9223287355,2586890.1909543,26.913601360136,0,0
-183.65156865282,-116.91635721596,21.71803180318,1266277.7486564,-2213.9223287355,2586890.1909543,26.91803180318,0,0
-183.65156855399,-116.94518012056,21.722462246225,1266277.7486564,-2213.9223287355,2586890.1909543,26.922462246225,0,0
-183.65156845516,-116.97400302516,21.726892689269,1266277.7486564,-2213.9223287355,2586890.1909543,26.926892689269,0,0
-183.65156835633,-117.00282592975,21.731323132313,1266277.7486564,-2213.9223287355,2586890.1909543,26.931323132313,0,0
-183.6515682575,-117.03164883435,21.735753575358,1266277.7486564,-2213.9223287355,2586890.1909543,26.935753575358,0,0
-183.65156815866,-117.06047173895,21.740184018402,1266277.7486564,-2213.9223287355,2586890.1909543,26.940184018402,0,0
-183.65156805983,-117.08929464355,21.744614461446,1266277.7486564,-2213.9223287355,2586890.1909543,26.944614461446,0,0
-183.651567961,-117.11811754815,21.74904490449,1266277.7486564,-2213.9223287355,2586890.1909543,26.94904490449,0,0
-183.65156786217,-117.14694045274,21.753475347535,1266277.7486564,-2213.9223287355,2586890.1909543,26.953475347535,0,0
-183.65156776334,-117.17576335734,21.757905790579,1266277.7486564,-2213.9223287355,2586890.1909543,26.957905790579,0,0
-183.65156766451,-117.20458626194,21.762336233623,1266277.7486564,-2213.9223287355,2586890.1909543,26.962336233623,0,0
-183.65156756568,-117.23340916654,21.766766676668,1266277.7486564,-2213.9223287355,2586890.1909543,26.966766676668,0,0
-183.65156746684,-117.26223207114,21.771197119712,1266277.7486564,-2213.9223287355,2586890.1909543,26.971197119712,0,0
-183.65156736801,-117.29105497573,21.775627562756,1266277.7486564,-2213.9223287355,2586890.1909543,26.975627562756,0,0
-183.65156726918,-117.31987788033,21.780058005801,1266277.7486564,-2213.9223287355,2586890.1909543,26.980058005801,0,0
-183.65156717035,-117.34870078493,21.784488448845,1266277.7486564,-2213.9223287355,2586890.1909543,26.984488448845,0,0
-183.65156707152,-117.37752368953,21.788918891889,1266277.7486564,-2213.9223287355,2586890.1909543,26.988918891889,0,0
-183.65156697269,-117.40634659413,21.793349334933,1266277.7486564,-2213.9223287355,2586890.1909543,26.993349334933,0,0
-183.65156687386,-117.43516949872,21.797779777978,1266277.7486564,-2213.9223287355,2586890.1909543,26.997779777978,0,0
-183.65156677502,-117.46399240332,21.802210221022,1266277.7486564,-2213.9223287355,2586890.1909543,27.002210221022,0,0
-183.65156667619,-117.49281530792,21.806640664066,1266277.7486564,-2213.9223287355,2586890.1909543,27.006640664066,0,0
-183.65156657736,-117.52163821252,21.811071107111,1266277.7486564,-2213.9223287355,2586890.1909543,27.011071107111,0,0
-183.65156647853,-117.55046111712,21.815501550155,1266277.7486564,-2213.9223287355,2586890.1909543,27.015501550155,0,0
-183.6515663797,-117.57928402171,21.819931993199,1266277.7486564,-2213.9223287355,2586890.1909543,27.019931993199,0,0
-183.65156628087,-117.60810692631,21.824362436244,1266277.7486564,-2213.9223287355,2586890.1909543,27.024362436244,0,0
-183.65156618204,-117.63692983091,21.828792879288,1266277.7486564,-2213.9223287355,2586890.1909543,27.028792879288,0,0
-183.6515660832,-117.66575273551,21.833223322332,1266277.7486564,-2213.9223287355,2586890.1909543,27.033223322332,0,0
-183.65156598437,-117.69457564011,21.837653765377,1266277.7486564,-2213.9223287355,2586890.1909543,27.037653765377,0,0
-183.65156588554,-117.7233985447,21.842084208421,1266277.7486564,-2213.9223287355,2586890.1909543,27.042084208421,0,0
-183.65156578671,-117.7522214493,21.846514651465,1266277.7486564,-2213.9223287355,2586890.1909543,27.046514651465,0,0
-183.65156568788,-117.7810443539,21.850945094509,1266277.7486564,-2213.9223287355,2586890.1909543,27.050945094509,0,0
-183.65156558905,-117.8098672585,21.855375537554,1266277.7486564,-2213.9223287355,2586890.1909543,27.055375537554,0,0
-183.65156549022,-117.8386901631,21.859805980598,1266277.7486564,-2213.9223287355,2586890.1909543,27.059805980598,0,0
-183.65156539138,-117.86751306769,21.864236423642,1266277.7486564,-2213.9223287355,2586890.1909543,27.064236423642,0,0
-183.65156529255,-117.89633597229,21.868666866687,1266277.7486564,-2213.9223287355,2586890.1909543,27.068666866687,0,0
-183.65156519372,-117.92515887689,21.873097309731,1266277.7486564,-2213.9223287355,2586890.1909543,27.073097309731,0,0
-183.65156509489,-117.95398178149,21.877527752775,1266277.7486564,-2213.9223287355,2586890.1909543,27.077527752775,0,0
-183.65156499606,-117.98280468608,21.88195819582,1266277.7486564,-2213.9223287355,2586890.1909543,27.08195819582,0,0
-183.65156489723,-118.01162759068,21.886388638864,1266277.7486564,-2213.9223287355,2586890.1909543,27.086388638864,0,0
-183.6515647984,-118.04045049528,21.890819081908,1266277.7486564,-2213.9223287355,2586890.1909543,27.090819081908,0,0
-183.65156469956,-118.06927339988,21.895249524952,1266277.7486564,-2213.9223287355,2586890.1909543,27.095249524952,0,0
-183.65156460073,-118.09809630448,21.899679967997,1266277.7486564,-2213.9223287355,2586890.1909543,27.099679967997,0,0
-183.6515645019,-118.12691920907,21.904110411041,1266277.7486564,-2213.9223287355,2586890.1909543,27.104110411041,0,0
-183.65156440307,-118.15574211367,21.908540854085,1266277.7486564,-2213.9223287355,2586890.1909543,27.108540854085,0,0
-183.65156430424,-118.18456501827,21.91297129713,1266277.7486564,-2213.9223287355,2586890.1909543,27.11297129713,0,0
-183.65156420541,-118.21338792287,21.917401740174,1266277.7486564,-2213.9223287355,2586890.1909543,27.117401740174,0,0
-183.65156410658,-118.24221082747,21.921832183218,1266277.7486564,-2213.9223287355,2586890.1909543,27.121832183218,0,0
-183.65156400774,-118.27103373206,21.926262626263,1266277.7486564,-2213.9223287355,2586890.1909543,27.126262626263,0,0
-183.65156390891,-118.29985663666,21.930693069307,1266277.7486564,-2213.9223287355,2586890.1909543,27.130693069307,0,0
-183.65156381008,-118.32867954126,21.935123512351,1266277.7486564,-2213.9223287355,2586890.1909543,27.135123512351,0,0
-183.65156371125,-118.35750244586,21.939553955396,1266277.7486564,-2213.9223287355,2586890.1909543,27.139553955396,0,0
-183.65156361242,-118.38632535046,21.94398439844,1266277.7486564,-2213.9223287355,2586890.1909543,27.14398439844,0,0
-183.65156351359,-118.41514825505,21.948414841484,1266277.7486564,-2213.9223287355,2586890.1909543,27.148414841484,0,0
-183.65156341476,-118.44397115965,21.952845284528,1266277.7486564,-2213.9223287355,2586890.1909543,27.152845284528,0,0
-183.65156331592,-118.47279406425,21.957275727573,1266277.7486564,-2213.9223287355,2586890.1909543,27.157275727573,0,0
-183.65156321709,-118.50161696885,21.961706170617,1266277.7486564,-2213.9223287355,2586890.1909543,27.161706170617,0,0
-183.65156311826,-118.53043987345,21.966136613661,1266277.7486564,-2213.9223287355,2586890.1909543,27.166136613661,0,0
-183.65156301943,-118.55926277804,21.970567056706,1266277.7486564,-2213.9223287355,2586890.1909543,27.170567056706,0,0
-183.6515629206,-118.58808568264,21.97499749975,1266277.7486564,-2213.9223287355,2586890.1909543,27.17499749975,0,0
-183.65156282177,-118.61690858724,21.979427942794,1266277.7486564,-2213.9223287355,2586890.1909543,27.179427942794,0,0
-183.65156272294,-118.64573149184,21.983858385839,1266277.7486564,-2213.9223287355,2586890.1909543,27.183858385839,0,0
-183.6515626241,-118.67455439644,21.988288828883,1266277.7486564,-2213.9223287355,2586890.1909543,27.188288828883,0,0
-183.65156252527,-118.70337730103,21.992719271927,1266277.7486564,-2213.9223287355,2586890.1909543,27.192719271927,0,0
-183.65156242644,-118.73220020563,21.997149714971,1266277.7486564,-2213.9223287355,2586890.1909543,27.197149714971,0,0
-183.65156232761,-118.76102311023,22.001580158016,1266277.7486564,-2213.9223287355,2586890.1909543,27.201580158016,0,0
-183.65156222878,-118.78984601483,22.00601060106,1266277.7486564,-2213.9223287355,2586890.1909543,27.20601060106,0,0
-183.65156212995,-118.81866891943,22.010441044104,1266277.7486564,-2213.9223287355,2586890.1909543,27.210441044104,0,0
-183.65156203112,-118.84749182402,22.014871487149,1266277.7486564,-2213.9223287355,2586890.1909543,27.214871487149,0,0
-183.65156193228,-118.87631472862,22.019301930193,1266277.7486564,-2213.9223287355,2586890.1909543,27.219301930193,0,0
-183.65156183345,-118.90513763322,22.023732373237,1266277.7486564,-2213.9223287355,2586890.1909543,27.223732373237,0,0
-183.65156173462,-118.93396053782,22.028162816282,1266277.7486564,-2213.9223287355,2586890.1909543,27.228162816282,0,0
-183.65156163579,-118.96278344242,22.032593259326,1266277.7486564,-2213.9223287355,2586890.1909543,27.232593259326,0,0
-183.65156153696,-118.99160634701,22.03702370237,1266277.7486564,-2213.9223287355,2586890.1909543,27.23702370237,0,0
-183.65156143813,-119.02042925161,22.041454145415,1266277.7486564,-2213.9223287355,2586890.1909543,27.241454145415,0,0
-183.6515613393,-119.04925215621,22.045884588459,1266277.7486564,-2213.9223287355,2586890.1909543,27.245884588459,0,0
-183.65156124046,-119.07807506081,22.050315031503,1266277.7486564,-2213.9223287355,2586890.1909543,27.250315031503,0,0
-183.65156114163,-119.1068979654,22.054745474547,1266277.7486564,-2213.9223287355,2586890.1909543,27.254745474547,0,0
-183.6515610428,-119.13572087,22.059175917592,1266277.7486564,-2213.9223287355,2586890.1909543,27.259175917592,0,0
-183.65156094397,-119.1645437746,22.063606360636,1266277.7486564,-2213.9223287355,2586890.1909543,27.263606360636,0,0
-183.65156084514,-119.1933666792,22.06803680368,1266277.7486564,-2213.9223287355,2586890.1909543,27.26803680368,0,0
-183.65156074631,-119.2221895838,22.072467246725,1266277.7486564,-2213.9223287355,2586890.1909543,27.272467246725,0,0
-183.65156064747,-119.25101248839,22.076897689769,1266277.7486564,-2213.9223287355,2586890.1909543,27.276897689769,0,0
-183.65156054864,-119.27983539299,22.081328132813,1266277.7486564,-2213.9223287355,2586890.1909543,27.281328132813,0,0
-183.65156044981,-119.30865829759,22.085758575858,1266277.7486564,-2213.9223287355,2586890.1909543,27.285758575858,0,0
-183.65156035098,-119.33748120219,22.090189018902,1266277.7486564,-2213.9223287355,2586890.1909543,27.290189018902,0,0
-183.65156025215,-119.36630410679,22.094619461946,1266277.7486564,-2213.9223287355,2586890.1909543,27.294619461946,0,0
-183.65156015332,-119.39512701138,22.09904990499,1266277.7486564,-2213.9223287355,2586890.1909543,27.29904990499,0,0
-183.65156005449,-119.42394991598,22.103480348035,1266277.7486564,-2213.9223287355,2586890.1909543,27.303480348035,0,0
-183.65155995565,-119.45277282058,22.107910791079,1266277.7486564,-2213.9223287355,2586890.1909543,27.307910791079,0,0
-183.65155985682,-119.48159572518,22.112341234123,1266277.7486564,-2213.9223287355,2586890.1909543,27.312341234123,0,0
-183.65155975799,-119.51041862978,22.116771677168,1266277.7486564,-2213.9223287355,2586890.1909543,27.316771677168,0,0
-183.65155965916,-119.53924153437,22.121202120212,1266277.7486564,-2213.9223287355,2586890.1909543,27.321202120212,0,0
-183.65155956033,-119.56806443897,22.125632563256,1266277.7486564,-2213.9223287355,2586890.1909543,27.325632563256,0,0
-183.6515594615,-119.59688734357,22.130063006301,1266277.7486564,-2213.9223287355,2586890.1909543,27.330063006301,0,0
-183.65155936267,-119.62571024817,22.134493449345,1266277.7486564,-2213.9223287355,2586890.1909543,27.334493449345,0,0
-183.65155926383,-119.65453315277,22.138923892389,1266277.7486564,-2213.9223287355,2586890.1909543,27.338923892389,0,0
-183.651559165,-119.68335605736,22.143354335434,1266277.7486564,-2213.9223287355,2586890.1909543,27.343354335434,0,0
-183.65155906617,-119.71217896196,22.147784778478,1266277.7486564,-2213.9223287355,2586890.1909543,27.347784778478,0,0
-183.65155896734,-119.74100186656,22.152215221522,1266277.7486564,-2213.9223287355,2586890.1909543,27.352215221522,0,0
-183.65155886851,-119.76982477116,22.156645664566,1266277.7486564,-2213.9223287355,2586890.1909543,27.356645664566,0,0
-183.65155876968,-119.79864767576,22.161076107611,1266277.7486564,-2213.9223287355,2586890.1909543,27.361076107611,0,0
-183.65155867085,-119.82747058035,22.165506550655,1266277.7486564,-2213.9223287355,2586890.1909543,27.365506550655,0,0
-183.65155857201,-119.85629348495,22.169936993699,1266277.7486564,-2213.9223287355,2586890.1909543,27.369936993699,0,0
-183.65155847318,-119.88511638955,22.174367436744,1266277.7486564,-2213.9223287355,2586890.1909543,27.374367436744,0,0
-183.65155837435,-119.91393929415,22.178797879788,1266277.7486564,-2213.9223287355,2586890.1909543,27.378797879788,0,0
-183.65155827552,-119.94276219875,22.183228322832,1266277.7486564,-2213.9223287355,2586890.1909543,27.383228322832,0,0
-183.65155817669,-119.97158510334,22.187658765877,1266277.7486564,-2213.9223287355,2586890.1909543,27.387658765877,0,0
-183.65155807786,-120.00040800794,22.192089208921,1266277.7486564,-2213.9223287355,2586890.1909543,27.392089208921,0,0
-183.65155797903,-120.02923091254,22.196519651965,1266277.7486564,-2213.9223287355,2586890.1909543,27.396519651965,0,0
-183.65155788019,-120.05805381714,22.200950095009,1266277.7486564,-2213.9223287355,2586890.1909543,27.400950095009,0,0
-183.65155778136,-120.08687672174,22.205380538054,1266277.7486564,-2213.9223287355,2586890.1909543,27.405380538054,0,0
-183.65155768253,-120.11569962633,22.209810981098,1266277.7486564,-2213.9223287355,2586890.1909543,27.409810981098,0,0
-183.6515575837,-120.14452253093,22.214241424142,1266277.7486564,-2213.9223287355,2586890.1909543,27.414241424142,0,0
-183.65155748487,-120.17334543553,22.218671867187,1266277.7486564,-2213.9223287355,2586890.1909543,27.418671867187,0,0
-183.65155738604,-120.20216834013,22.223102310231,1266277.7486564,-2213.9223287355,2586890.1909543,27.423102310231,0,0
-183.65155728721,-120.23099124472,22.227532753275,1266277.7486564,-2213.9223287355,2586890.1909543,27.427532753275,0,0
-183.65155718837,-120.25981414932,22.23196319632,1266277.7486564,-2213.9223287355,2586890.1909543,27.43196319632,0,0
-183.65155708954,-120.28863705392,22.236393639364,1266277.7486564,-2213.9223287355,2586890.1909543,27.436393639364,0,0
-183.65155699071,-120.31745995852,22.240824082408,1266277.7486564,-2213.9223287355,2586890.1909543,27.440824082408,0,0
-183.65155689188,-120.34628286312,22.245254525453,1266277.7486564,-2213.9223287355,2586890.1909543,27.445254525453,0,0
-183.65155679305,-120.37510576771,22.249684968497,1266277.7486564,-2213.9223287355,2586890.1909543,27.449684968497,0,0
-183.65155669422,-120.40392867231,22.254115411541,1266277.7486564,-2213.9223287355,2586890.1909543,27.454115411541,0,0
-183.65155659539,-120.43275157691,22.258545854585,1266277.7486564,-2213.9223287355,2586890.1909543,27.458545854585,0,0
-183.65155649655,-120.46157448151,22.26297629763,1266277.7486564,-2213.9223287355,2586890.1909543,27.46297629763,0,0
-183.65155639772,-120.49039738611,22.267406740674,1266277.7486564,-2213.9223287355,2586890.1909543,27.467406740674,0,0
-183.65155629889,-120.5192202907,22.271837183718,1266277.7486564,-2213.9223287355,2586890.1909543,27.471837183718,0,0
-183.65155620006,-120.5480431953,22.276267626763,1266277.7486564,-2213.9223287355,2586890.1909543,27.476267626763,0,0
-183.65155610123,-120.5768660999,22.280698069807,1266277.7486564,-2213.9223287355,2586890.1909543,27.480698069807,0,0
-183.6515560024,-120.6056890045,22.285128512851,1266277.7486564,-2213.9223287355,2586890.1909543,27.485128512851,0,0
-183.65155590357,-120.6345119091,22.289558955896,1266277.7486564,-2213.9223287355,2586890.1909543,27.489558955896,0,0
-183.65155580473,-120.66333481369,22.29398939894,1266277.7486564,-2213.9223287355,2586890.1909543,27.49398939894,0,0
-183.6515557059,-120.69215771829,22.298419841984,1266277.7486564,-2213.9223287355,2586890.1909543,27.498419841984,0,0
-183.65155560707,-120.72098062289,22.302850285029,1266277.7486564,-2213.9223287355,2586890.1909543,27.502850285029,0,0
-183.65155550824,-120.74980352749,22.307280728073,1266277.7486564,-2213.9223287355,2586890.1909543,27.507280728073,0,0
-183.65155540941,-120.77862643209,22.311711171117,1266277.7486564,-2213.9223287355,2586890.1909543,27.511711171117,0,0
-183.65155531058,-120.80744933668,22.316141614161,1266277.7486564,-2213.9223287355,2586890.1909543,27.516141614161,0,0
-183.65155521175,-120.83627224128,22.320572057206,1266277.7486564,-2213.9223287355,2586890.1909543,27.520572057206,0,0
-183.65155511291,-120.86509514588,22.32500250025,1266277.7486564,-2213.9223287355,2586890.1909543,27.52500250025,0,0
-183.65155501408,-120.89391805048,22.329432943294,1266277.7486564,-2213.9223287355,2586890.1909543,27.529432943294,0,0
-183.65155491525,-120.92274095508,22.333863386339,1266277.7486564,-2213.9223287355,2586890.1909543,27.533863386339,0,0
-183.65155481642,-120.95156385967,22.338293829383,1266277.7486564,-2213.9223287355,2586890.1909543,27.538293829383,0,0
-183.65155471759,-120.98038676427,22.342724272427,1266277.7486564,-2213.9223287355,2586890.1909543,27.542724272427,0,0
-183.65155461876,-121.00920966887,22.347154715472,1266277.7486564,-2213.9223287355,2586890.1909543,27.547154715472,0,0
-183.65155451993,-121.03803257347,22.351585158516,1266277.7486564,-2213.9223287355,2586890.1909543,27.551585158516,0,0
-183.65155442109,-121.06685547807,22.35601560156,1266277.7486564,-2213.9223287355,2586890.1909543,27.55601560156,0,0
-183.65155432226,-121.09567838266,22.360446044604,1266277.7486564,-2213.9223287355,2586890.1909543,27.560446044604,0,0
-183.65155422343,-121.12450128726,22.364876487649,1266277.7486564,-2213.9223287355,2586890.1909543,27.564876487649,0,0
-183.6515541246,-121.15332419186,22.369306930693,1266277.7486564,-2213.9223287355,2586890.1909543,27.569306930693,0,0
-183.65155402577,-121.18214709646,22.373737373737,1266277.7486564,-2213.9223287355,2586890.1909543,27.573737373737,0,0
-183.65155392694,-121.21097000106,22.378167816782,1266277.7486564,-2213.9223287355,2586890.1909543,27.578167816782,0,0
-183.65155382811,-121.23979290565,22.382598259826,1266277.7486564,-2213.9223287355,2586890.1909543,27.582598259826,0,0
-183.65155372927,-121.26861581025,22.38702870287,1266277.7486564,-2213.9223287355,2586890.1909543,27.58702870287,0,0
-183.65155363044,-121.29743871485,22.391459145915,1266277.7486564,-2213.9223287355,2586890.1909543,27.591459145915,0,0
-183.65155353161,-121.32626161945,22.395889588959,1266277.7486564,-2213.9223287355,2586890.1909543,27.595889588959,0,0
-183.65155343278,-121.35508452404,22.400320032003,1266277.7486564,-2213.9223287355,2586890.1909543,27.600320032003,0,0
-183.65155333395,-121.38390742864,22.404750475048,1266277.7486564,-2213.9223287355,2586890.1909543,27.604750475048,0,0
-183.65155323512,-121.41273033324,22.409180918092,1266277.7486564,-2213.9223287355,2586890.1909543,27.609180918092,0,0
-183.65155313629,-121.44155323784,22.413611361136,1266277.7486564,-2213.9223287355,2586890.1909543,27.613611361136,0,0
-183.65155303745,-121.47037614244,22.41804180418,1266277.7486564,-2213.9223287355,2586890.1909543,27.61804180418,0,0
-183.65155293862,-121.49919904703,22.422472247225,1266277.7486564,-2213.9223287355,2586890.1909543,27.622472247225,0,0
-183.65155283979,-121.52802195163,22.426902690269,1266277.7486564,-2213.9223287355,2586890.1909543,27.626902690269,0,0
-183.65155274096,-121.55684485623,22.431333133313,1266277.7486564,-2213.9223287355,2586890.1909543,27.631333133313,0,0
-183.65155264213,-121.58566776083,22.435763576358,1266277.7486564,-2213.9223287355,2586890.1909543,27.635763576358,0,0
-183.6515525433,-121.61449066543,22.440194019402,1266277.7486564,-2213.9223287355,2586890.1909543,27.640194019402,0,0
-183.65155244447,-121.64331357002,22.444624462446,1266277.7486564,-2213.9223287355,2586890.1909543,27.644624462446,0,0
-183.65155234563,-121.67213647462,22.449054905491,1266277.7486564,-2213.9223287355,2586890.1909543,27.649054905491,0,0
-183.6515522468,-121.70095937922,22.453485348535,1266277.7486564,-2213.9223287355,2586890.1909543,27.653485348535,0,0
-183.65155214797,-121.72978228382,22.457915791579,1266277.7486564,-2213.9223287355,2586890.1909543,27.657915791579,0,0
-183.65155204914,-121.75860518842,22.462346234623,1266277.7486564,-2213.9223287355,2586890.1909543,27.662346234623,0,0
-183.65155195031,-121.78742809301,22.466776677668,1266277.7486564,-2213.9223287355,2586890.1909543,27.666776677668,0,0
-183.65155185148,-121.81625099761,22.471207120712,1266277.7486564,-2213.9223287355,2586890.1909543,27.671207120712,0,0
-183.65155175264,-121.84507390221,22.475637563756,1266277.7486564,-2213.9223287355,2586890.1909543,27.675637563756,0,0
-183.65155165381,-121.87389680681,22.480068006801,1266277.7486564,-2213.9223287355,2586890.1909543,27.680068006801,0,0
-183.65155155498,-121.90271971141,22.484498449845,1266277.7486564,-2213.9223287355,2586890.1909543,27.684498449845,0,0
-183.65155145615,-121.931542616,22.488928892889,1266277.7486564,-2213.9223287355,2586890.1909543,27.688928892889,0,0
-183.65155135732,-121.9603655206,22.493359335934,1266277.7486564,-2213.9223287355,2586890.1909543,27.693359335934,0,0
-183.65155125849,-121.9891884252,22.497789778978,1266277.7486564,-2213.9223287355,2586890.1909543,27.697789778978,0,0
-183.65155115966,-122.0180113298,22.502220222022,1266277.7486564,-2213.9223287355,2586890.1909543,27.702220222022,0,0
-183.65155106082,-122.0468342344,22.506650665067,1266277.7486564,-2213.9223287355,2586890.1909543,27.706650665067,0,0
-183.65155096199,-122.07565713899,22.511081108111,1266277.7486564,-2213.9223287355,2586890.1909543,27.711081108111,0,0
-183.65155086316,-122.10448004359,22.515511551155,1266277.7486564,-2213.9223287355,2586890.1909543,27.715511551155,0,0
-183.65155076433,-122.13330294819,22.519941994199,1266277.7486564,-2213.9223287355,2586890.1909543,27.719941994199,0,0
-183.6515506655,-122.16212585279,22.524372437244,1266277.7486564,-2213.9223287355,2586890.1909543,27.724372437244,0,0
-183.65155056667,-122.19094875739,22.528802880288,1266277.7486564,-2213.9223287355,2586890.1909543,27.728802880288,0,0
-183.65155046784,-122.21977166198,22.533233323332,1266277.7486564,-2213.9223287355,2586890.1909543,27.733233323332,0,0
-183.651550369,-122.24859456658,22.537663766377,1266277.7486564,-2213.9223287355,2586890.1909543,27.737663766377,0,0
-183.65155027017,-122.27741747118,22.542094209421,1266277.7486564,-2213.9223287355,2586890.1909543,27.742094209421,0,0
-183.65155017134,-122.30624037578,22.546524652465,1266277.7486564,-2213.9223287355,2586890.1909543,27.746524652465,0,0
-183.65155007251,-122.33506328038,22.55095509551,1266277.7486564,-2213.9223287355,2586890.1909543,27.75095509551,0,0
-183.65154997368,-122.36388618497,22.555385538554,1266277.7486564,-2213.9223287355,2586890.1909543,27.755385538554,0,0
-183.65154987485,-122.39270908957,22.559815981598,1266277.7486564,-2213.9223287355,2586890.1909543,27.759815981598,0,0
-183.65154977602,-122.42153199417,22.564246424642,1266277.7486564,-2213.9223287355,2586890.1909543,27.764246424642,0,0
-183.6515496772,-122.45035489841,22.568676867687,1264436.518436,892.75002210336,2582329.0713151,27.768676867687,0,0
-183.65154957839,-122.47917780236,22.573107310731,1264436.518436,892.75002210336,2582329.0713151,27.773107310731,0,0
-183.65154947959,-122.50800070631,22.577537753775,1264436.518436,892.75002210336,2582329.0713151,27.777537753775,0,0
-183.65154938078,-122.53682361026,22.58196819682,1264436.518436,892.75002210336,2582329.0713151,27.78196819682,0,0
-183.65154928198,-122.5656465142,22.586398639864,1264436.518436,892.75002210336,2582329.0713151,27.786398639864,0,0
-183.65154918317,-122.59446941815,22.590829082908,1264436.518436,892.75002210336,2582329.0713151,27.790829082908,0,0
-183.65154908436,-122.6232923221,22.595259525953,1264436.518436,892.75002210336,2582329.0713151,27.795259525953,0,0
-183.65154898556,-122.65211522605,22.599689968997,1264436.518436,892.75002210336,2582329.0713151,27.799689968997,0,0
-183.65154888675,-122.68093813,22.604120412041,1264436.518436,892.75002210336,2582329.0713151,27.804120412041,0,0
-183.65154878795,-122.70976103395,22.608550855086,1264436.518436,892.75002210336,2582329.0713151,27.808550855086,0,0
-183.65154868914,-122.7385839379,22.61298129813,1264436.518436,892.75002210336,2582329.0713151,27.81298129813,0,0
-183.65154859033,-122.76740684185,22.617411741174,1264436.518436,892.75002210336,2582329.0713151,27.817411741174,0,0
-183.65154849153,-122.79622974579,22.621842184218,1264436.518436,892.75002210336,2582329.0713151,27.821842184218,0,0
-183.65154839272,-122.82505264974,22.626272627263,1264436.518436,892.75002210336,2582329.0713151,27.826272627263,0,0
-183.65154829392,-122.85387555369,22.630703070307,1264436.518436,892.75002210336,2582329.0713151,27.830703070307,0,0
-183.65154819511,-122.88269845764,22.635133513351,1264436.518436,892.75002210336,2582329.0713151,27.835133513351,0,0
-183.65154809631,-122.91152136159,22.639563956396,1264436.518436,892.75002210336,2582329.0713151,27.839563956396,0,0
-183.6515479975,-122.94034426554,22.64399439944,1264436.518436,892.75002210336,2582329.0713151,27.84399439944,0,0
-183.65154789869,-122.96916716949,22.648424842484,1264436.518436,892.75002210336,2582329.0713151,27.848424842484,0,0
-183.65154779989,-122.99799007343,22.652855285529,1264436.518436,892.75002210336,2582329.0713151,27.852855285529,0,0
-183.65154770108,-123.02681297738,22.657285728573,1264436.518436,892.75002210336,2582329.0713151,27.857285728573,0,0
-183.65154760228,-123.05563588133,22.661716171617,1264436.518436,892.75002210336,2582329.0713151,27.861716171617,0,0
-183.65154750347,-123.08445878528,22.666146614661,1264436.518436,892.75002210336,2582329.0713151,27.866146614661,0,0
-183.65154740466,-123.11328168923,22.670577057706,1264436.518436,892.75002210336,2582329.0713151,27.870577057706,0,0
-183.65154730586,-123.14210459318,22.67500750075,1264436.518436,892.75002210336,2582329.0713151,27.87500750075,0,0
-183.65154720705,-123.17092749713,22.679437943794,1264436.518436,892.75002210336,2582329.0713151,27.879437943794,0,0
-183.65154710825,-123.19975040108,22.683868386839,1264436.518436,892.75002210336,2582329.0713151,27.883868386839,0,0
-183.65154700944,-123.22857330502,22.688298829883,1264436.518436,892.75002210336,2582329.0713151,27.888298829883,0,0
-183.65154691064,-123.25739620897,22.692729272927,1264436.518436,892.75002210336,2582329.0713151,27.892729272927,0,0
-183.65154681183,-123.28621911292,22.697159715972,1264436.518436,892.75002210336,2582329.0713151,27.897159715972,0,0
-183.65154671302,-123.31504201687,22.701590159016,1264436.518436,892.75002210336,2582329.0713151,27.901590159016,0,0
-183.65154661422,-123.34386492082,22.70602060206,1264436.518436,892.75002210336,2582329.0713151,27.90602060206,0,0
-183.65154651541,-123.37268782477,22.710451045105,1264436.518436,892.75002210336,2582329.0713151,27.910451045105,0,0
-183.65154641661,-123.40151072872,22.714881488149,1264436.518436,892.75002210336,2582329.0713151,27.914881488149,0,0
-183.6515463178,-123.43033363266,22.719311931193,1264436.518436,892.75002210336,2582329.0713151,27.919311931193,0,0
-183.651546219,-123.45915653661,22.723742374237,1264436.518436,892.75002210336,2582329.0713151,27.923742374237,0,0
-183.65154612019,-123.48797944056,22.728172817282,1264436.518436,892.75002210336,2582329.0713151,27.928172817282,0,0
-183.65154602138,-123.51680234451,22.732603260326,1264436.518436,892.75002210336,2582329.0713151,27.932603260326,0,0
-183.65154592258,-123.54562524846,22.73703370337,1264436.518436,892.75002210336,2582329.0713151,27.93703370337,0,0
-183.65154582377,-123.57444815241,22.741464146415,1264436.518436,892.75002210336,2582329.0713151,27.941464146415,0,0
-183.65154572497,-123.60327105636,22.745894589459,1264436.518436,892.75002210336,2582329.0713151,27.945894589459,0,0
-183.65154562616,-123.63209396031,22.750325032503,1264436.518436,892.75002210336,2582329.0713151,27.950325032503,0,0
-183.65154552735,-123.66091686425,22.754755475548,1264436.518436,892.75002210336,2582329.0713151,27.954755475548,0,0
-183.65154542855,-123.6897397682,22.759185918592,1264436.518436,892.75002210336,2582329.0713151,27.959185918592,0,0
-183.65154532974,-123.71856267215,22.763616361636,1264436.518436,892.75002210336,2582329.0713151,27.963616361636,0,0
-183.65154523094,-123.7473855761,22.76804680468,1264436.518436,892.75002210336,2582329.0713151,27.96804680468,0,0
-183.65154513213,-123.77620848005,22.772477247725,1264436.518436,892.75002210336,2582329.0713151,27.972477247725,0,0
-183.65154503333,-123.805031384,22.776907690769,1264436.518436,892.75002210336,2582329.0713151,27.976907690769,0,0
-183.65154493452,-123.83385428795,22.781338133813,1264436.518436,892.75002210336,2582329.0713151,27.981338133813,0,0
-183.65154483571,-123.86267719189,22.785768576858,1264436.518436,892.75002210336,2582329.0713151,27.985768576858,0,0
-183.65154473691,-123.89150009584,22.790199019902,1264436.518436,892.75002210336,2582329.0713151,27.990199019902,0,0
-183.6515446381,-123.92032299979,22.794629462946,1264436.518436,892.75002210336,2582329.0713151,27.994629462946,0,0
-183.6515445393,-123.94914590374,22.799059905991,1264436.518436,892.75002210336,2582329.0713151,27.999059905991,0,0
-183.65154444049,-123.97796880769,22.803490349035,1264436.518436,892.75002210336,2582329.0713151,28.003490349035,0,0
-183.65154434168,-124.00679171164,22.807920792079,1264436.518436,892.75002210336,2582329.0713151,28.007920792079,0,0
-183.65154424288,-124.03561461559,22.812351235124,1264436.518436,892.75002210336,2582329.0713151,28.012351235124,0,0
-183.65154414407,-124.06443751954,22.816781678168,1264436.518436,892.75002210336,2582329.0713151,28.016781678168,0,0
-183.65154404527,-124.09326042348,22.821212121212,1264436.518436,892.75002210336,2582329.0713151,28.021212121212,0,0
-183.65154394646,-124.12208332743,22.825642564256,1264436.518436,892.75002210336,2582329.0713151,28.025642564256,0,0
-183.65154384758,-124.15090623176,22.830073007301,1264239.3136548,-1977.5183841376,2576439.4176849,28.030073007301,0,0
-183.65154374863,-124.17972913641,22.834503450345,1264239.3136548,-1977.5183841376,2576439.4176849,28.034503450345,0,0
-183.65154364969,-124.20855204106,22.838933893389,1264239.3136548,-1977.5183841376,2576439.4176849,28.038933893389,0,0
-183.65154355074,-124.23737494572,22.843364336434,1264239.3136548,-1977.5183841376,2576439.4176849,28.043364336434,0,0
-183.65154345179,-124.26619785037,22.847794779478,1264239.3136548,-1977.5183841376,2576439.4176849,28.047794779478,0,0
-183.65154335285,-124.29502075502,22.852225222522,1264239.3136548,-1977.5183841376,2576439.4176849,28.052225222522,0,0
-183.6515432539,-124.32384365967,22.856655665567,1264239.3136548,-1977.5183841376,2576439.4176849,28.056655665567,0,0
-183.65154315495,-124.35266656433,22.861086108611,1264239.3136548,-1977.5183841376,2576439.4176849,28.061086108611,0,0
-183.65154305601,-124.38148946898,22.865516551655,1264239.3136548,-1977.5183841376,2576439.4176849,28.065516551655,0,0
-183.65154295706,-124.41031237363,22.869946994699,1264239.3136548,-1977.5183841376,2576439.4176849,28.069946994699,0,0
-183.65154285811,-124.43913527829,22.874377437744,1264239.3136548,-1977.5183841376,2576439.4176849,28.074377437744,0,0
-183.65154275917,-124.46795818294,22.878807880788,1264239.3136548,-1977.5183841376,2576439.4176849,28.078807880788,0,0
-183.65154266022,-124.49678108759,22.883238323832,1264239.3136548,-1977.5183841376,2576439.4176849,28.083238323832,0,0
-183.65154256127,-124.52560399225,22.887668766877,1264239.3136548,-1977.5183841376,2576439.4176849,28.087668766877,0,0
-183.65154246232,-124.5544268969,22.892099209921,1264239.3136548,-1977.5183841376,2576439.4176849,28.092099209921,0,0
-183.65154236338,-124.58324980155,22.896529652965,1264239.3136548,-1977.5183841376,2576439.4176849,28.096529652965,0,0
-183.65154226443,-124.61207270621,22.90096009601,1264239.3136548,-1977.5183841376,2576439.4176849,28.10096009601,0,0
-183.65154216548,-124.64089561086,22.905390539054,1264239.3136548,-1977.5183841376,2576439.4176849,28.105390539054,0,0
-183.65154206654,-124.66971851551,22.909820982098,1264239.3136548,-1977.5183841376,2576439.4176849,28.109820982098,0,0
-183.65154196759,-124.69854142017,22.914251425143,1264239.3136548,-1977.5183841376,2576439.4176849,28.114251425143,0,0
-183.65154186864,-124.72736432482,22.918681868187,1264239.3136548,-1977.5183841376,2576439.4176849,28.118681868187,0,0
-183.6515417697,-124.75618722947,22.923112311231,1264239.3136548,-1977.5183841376,2576439.4176849,28.123112311231,0,0
-183.65154167075,-124.78501013413,22.927542754275,1264239.3136548,-1977.5183841376,2576439.4176849,28.127542754275,0,0
-183.6515415718,-124.81383303878,22.93197319732,1264239.3136548,-1977.5183841376,2576439.4176849,28.13197319732,0,0
-183.65154147286,-124.84265594343,22.936403640364,1264239.3136548,-1977.5183841376,2576439.4176849,28.136403640364,0,0
-183.65154137391,-124.87147884809,22.940834083408,1264239.3136548,-1977.5183841376,2576439.4176849,28.140834083408,0,0
-183.65154127496,-124.90030175274,22.945264526453,1264239.3136548,-1977.5183841376,2576439.4176849,28.145264526453,0,0
-183.65154117601,-124.92912465739,22.949694969497,1264239.3136548,-1977.5183841376,2576439.4176849,28.149694969497,0,0
-183.65154107707,-124.95794756204,22.954125412541,1264239.3136548,-1977.5183841376,2576439.4176849,28.154125412541,0,0
-183.65154097812,-124.9867704667,22.958555855586,1264239.3136548,-1977.5183841376,2576439.4176849,28.158555855586,0,0
-183.65154087917,-125.01559337135,22.96298629863,1264239.3136548,-1977.5183841376,2576439.4176849,28.16298629863,0,0
-183.65154078023,-125.044416276,22.967416741674,1264239.3136548,-1977.5183841376,2576439.4176849,28.167416741674,0,0
-183.65154068128,-125.07323918066,22.971847184718,1264239.3136548,-1977.5183841376,2576439.4176849,28.171847184718,0,0
-183.65154058233,-125.10206208531,22.976277627763,1264239.3136548,-1977.5183841376,2576439.4176849,28.176277627763,0,0
-183.65154048339,-125.13088498996,22.980708070807,1264239.3136548,-1977.5183841376,2576439.4176849,28.180708070807,0,0
-183.65154038444,-125.15970789462,22.985138513851,1264239.3136548,-1977.5183841376,2576439.4176849,28.185138513851,0,0
-183.65154028549,-125.18853079927,22.989568956896,1264239.3136548,-1977.5183841376,2576439.4176849,28.189568956896,0,0
-183.65154018655,-125.21735370392,22.99399939994,1264239.3136548,-1977.5183841376,2576439.4176849,28.19399939994,0,0
-183.6515400876,-125.24617660858,22.998429842984,1264239.3136548,-1977.5183841376,2576439.4176849,28.198429842984,0,0
-183.65153998865,-125.27499951323,23.002860286029,1264239.3136548,-1977.5183841376,2576439.4176849,28.202860286029,0,0
-183.65153988971,-125.30382241788,23.007290729073,1264239.3136548,-1977.5183841376,2576439.4176849,28.207290729073,0,0
-183.65153979076,-125.33264532254,23.011721172117,1264239.3136548,-1977.5183841376,2576439.4176849,28.211721172117,0,0
-183.65153969181,-125.36146822719,23.016151615162,1264239.3136548,-1977.5183841376,2576439.4176849,28.216151615162,0,0
-183.65153959286,-125.39029113184,23.020582058206,1264239.3136548,-1977.5183841376,2576439.4176849,28.220582058206,0,0
-183.65153949392,-125.4191140365,23.02501250125,1264239.3136548,-1977.5183841376,2576439.4176849,28.22501250125,0,0
-183.65153939497,-125.44793694115,23.029442944294,1264239.3136548,-1977.5183841376,2576439.4176849,28.229442944294,0,0
-183.65153929602,-125.4767598458,23.033873387339,1264239.3136548,-1977.5183841376,2576439.4176849,28.233873387339,0,0
-183.65153919708,-125.50558275046,23.038303830383,1264239.3136548,-1977.5183841376,2576439.4176849,28.238303830383,0,0
-183.65153909813,-125.53440565511,23.042734273427,1264239.3136548,-1977.5183841376,2576439.4176849,28.242734273427,0,0
-183.65153899918,-125.56322855976,23.047164716472,1264239.3136548,-1977.5183841376,2576439.4176849,28.247164716472,0,0
-183.65153890024,-125.59205146441,23.051595159516,1264239.3136548,-1977.5183841376,2576439.4176849,28.251595159516,0,0
-183.65153880129,-125.62087436907,23.05602560256,1264239.3136548,-1977.5183841376,2576439.4176849,28.25602560256,0,0
-183.65153870234,-125.64969727372,23.060456045605,1264239.3136548,-1977.5183841376,2576439.4176849,28.260456045605,0,0
-183.6515386034,-125.67852017837,23.064886488649,1264239.3136548,-1977.5183841376,2576439.4176849,28.264886488649,0,0
-183.65153850445,-125.70734308303,23.069316931693,1264239.3136548,-1977.5183841376,2576439.4176849,28.269316931693,0,0
-183.6515384055,-125.73616598768,23.073747374737,1264239.3136548,-1977.5183841376,2576439.4176849,28.273747374737,0,0
-183.65153830656,-125.76498889233,23.078177817782,1264239.3136548,-1977.5183841376,2576439.4176849,28.278177817782,0,0
-183.65153820761,-125.79381179699,23.082608260826,1264239.3136548,-1977.5183841376,2576439.4176849,28.282608260826,0,0
-183.65153810866,-125.82263470164,23.08703870387,1264239.3136548,-1977.5183841376,2576439.4176849,28.28703870387,0,0
-183.65153800971,-125.85145760629,23.091469146915,1264239.3136548,-1977.5183841376,2576439.4176849,28.291469146915,0,0
-183.65153791077,-125.88028051095,23.095899589959,1264239.3136548,-1977.5183841376,2576439.4176849,28.295899589959,0,0
-183.65153781182,-125.9091034156,23.100330033003,1264239.3136548,-1977.5183841376,2576439.4176849,28.300330033003,0,0
-183.65153771287,-125.93792632025,23.104760476048,1264239.3136548,-1977.5183841376,2576439.4176849,28.304760476048,0,0
-183.65153761393,-125.96674922491,23.109190919092,1264239.3136548,-1977.5183841376,2576439.4176849,28.309190919092,0,0
-183.65153751498,-125.99557212956,23.113621362136,1264239.3136548,-1977.5183841376,2576439.4176849,28.313621362136,0,0
-183.65153741603,-126.02439503421,23.118051805181,1264239.3136548,-1977.5183841376,2576439.4176849,28.318051805181,0,0
-183.65153731709,-126.05321793887,23.122482248225,1264239.3136548,-1977.5183841376,2576439.4176849,28.322482248225,0,0
-183.65153721814,-126.08204084352,23.126912691269,1264239.3136548,-1977.5183841376,2576439.4176849,28.326912691269,0,0
-183.65153711919,-126.11086374817,23.131343134313,1264239.3136548,-1977.5183841376,2576439.4176849,28.331343134313,0,0
-183.65153702025,-126.13968665283,23.135773577358,1264239.3136548,-1977.5183841376,2576439.4176849,28.335773577358,0,0
-183.6515369213,-126.16850955748,23.140204020402,1264239.3136548,-1977.5183841376,2576439.4176849,28.340204020402,0,0
-183.65153682235,-126.19733246213,23.144634463446,1264239.3136548,-1977.5183841376,2576439.4176849,28.344634463446,0,0
-183.65153672341,-126.22615536678,23.149064906491,1264239.3136548,-1977.5183841376,2576439.4176849,28.349064906491,0,0
-183.65153662446,-126.25497827144,23.153495349535,1264239.3136548,-1977.5183841376,2576439.4176849,28.353495349535,0,0
-183.65153652551,-126.28380117609,23.157925792579,1264239.3136548,-1977.5183841376,2576439.4176849,28.357925792579,0,0
-183.65153642656,-126.31262408074,23.162356235624,1264239.3136548,-1977.5183841376,2576439.4176849,28.362356235624,0,0
-183.65153632762,-126.3414469854,23.166786678668,1264239.3136548,-1977.5183841376,2576439.4176849,28.366786678668,0,0
-183.65153622867,-126.37026989005,23.171217121712,1264239.3136548,-1977.5183841376,2576439.4176849,28.371217121712,0,0
-183.65153612972,-126.3990927947,23.175647564756,1264239.3136548,-1977.5183841376,2576439.4176849,28.375647564756,0,0
-183.65153603078,-126.42791569936,23.180078007801,1264239.3136548,-1977.5183841376,2576439.4176849,28.380078007801,0,0
-183.65153593183,-126.45673860401,23.184508450845,1264239.3136548,-1977.5183841376,2576439.4176849,28.384508450845,0,0
-183.65153583288,-126.48556150866,23.188938893889,1264239.3136548,-1977.5183841376,2576439.4176849,28.388938893889,0,0
-183.65153573394,-126.51438441332,23.193369336934,1264239.3136548,-1977.5183841376,2576439.4176849,28.393369336934,0,0
-183.65153563499,-126.54320731797,23.197799779978,1264239.3136548,-1977.5183841376,2576439.4176849,28.397799779978,0,0
-183.65153553604,-126.57203022262,23.202230223022,1264239.3136548,-1977.5183841376,2576439.4176849,28.402230223022,0,0
-183.6515354371,-126.60085312728,23.206660666067,1264239.3136548,-1977.5183841376,2576439.4176849,28.406660666067,0,0
-183.65153533815,-126.62967603193,23.211091109111,1264239.3136548,-1977.5183841376,2576439.4176849,28.411091109111,0,0
-183.6515352392,-126.65849893658,23.215521552155,1264239.3136548,-1977.5183841376,2576439.4176849,28.415521552155,0,0
-183.65153514026,-126.68732184124,23.2199519952,1264239.3136548,-1977.5183841376,2576439.4176849,28.4199519952,0,0
-183.65153504131,-126.71614474589,23.224382438244,1264239.3136548,-1977.5183841376,2576439.4176849,28.424382438244,0,0
-183.65153494236,-126.74496765054,23.228812881288,1264239.3136548,-1977.5183841376,2576439.4176849,28.428812881288,0,0
-183.65153484341,-126.7737905552,23.233243324332,1264239.3136548,-1977.5183841376,2576439.4176849,28.433243324332,0,0
-183.65153474447,-126.80261345985,23.237673767377,1264239.3136548,-1977.5183841376,2576439.4176849,28.437673767377,0,0
-183.65153464552,-126.8314363645,23.242104210421,1264239.3136548,-1977.5183841376,2576439.4176849,28.442104210421,0,0
-183.65153454657,-126.86025926915,23.246534653465,1264239.3136548,-1977.5183841376,2576439.4176849,28.446534653465,0,0
-183.65153444763,-126.88908217381,23.25096509651,1264239.3136548,-1977.5183841376,2576439.4176849,28.45096509651,0,0
-183.65153434868,-126.91790507846,23.255395539554,1264239.3136548,-1977.5183841376,2576439.4176849,28.455395539554,0,0
-183.65153424973,-126.94672798311,23.259825982598,1264239.3136548,-1977.5183841376,2576439.4176849,28.459825982598,0,0
-183.65153415079,-126.97555088777,23.264256425643,1264239.3136548,-1977.5183841376,2576439.4176849,28.464256425643,0,0
-183.65153405184,-127.00437379242,23.268686868687,1264239.3136548,-1977.5183841376,2576439.4176849,28.468686868687,0,0
-183.65153395289,-127.03319669707,23.273117311731,1264239.3136548,-1977.5183841376,2576439.4176849,28.473117311731,0,0
-183.65153385395,-127.06201960173,23.277547754775,1264239.3136548,-1977.5183841376,2576439.4176849,28.477547754775,0,0
-183.651533755,-127.09084250638,23.28197819782,1264239.3136548,-1977.5183841376,2576439.4176849,28.48197819782,0,0
-183.65153365605,-127.11966541103,23.286408640864,1264239.3136548,-1977.5183841376,2576439.4176849,28.486408640864,0,0
-183.65153355711,-127.14848831569,23.290839083908,1264239.3136548,-1977.5183841376,2576439.4176849,28.490839083908,0,0
-183.65153345816,-127.17731122034,23.295269526953,1264239.3136548,-1977.5183841376,2576439.4176849,28.495269526953,0,0
-183.65153335921,-127.20613412499,23.299699969997,1264239.3136548,-1977.5183841376,2576439.4176849,28.499699969997,0,0
-183.65153326026,-127.23495702965,23.304130413041,1264239.3136548,-1977.5183841376,2576439.4176849,28.504130413041,0,0
-183.65153316132,-127.2637799343,23.308560856086,1264239.3136548,-1977.5183841376,2576439.4176849,28.508560856086,0,0
-183.65153306237,-127.29260283895,23.31299129913,1264239.3136548,-1977.5183841376,2576439.4176849,28.51299129913,0,0
-183.65153296342,-127.32142574361,23.317421742174,1264239.3136548,-1977.5183841376,2576439.4176849,28.517421742174,0,0
-183.65153286448,-127.35024864826,23.321852185219,1264239.3136548,-1977.5183841376,2576439.4176849,28.521852185219,0,0
-183.65153276553,-127.37907155291,23.326282628263,1264239.3136548,-1977.5183841376,2576439.4176849,28.526282628263,0,0
-183.65153266658,-127.40789445757,23.330713071307,1264239.3136548,-1977.5183841376,2576439.4176849,28.530713071307,0,0
-183.65153256764,-127.43671736222,23.335143514351,1264239.3136548,-1977.5183841376,2576439.4176849,28.535143514351,0,0
-183.65153246869,-127.46554026687,23.339573957396,1264239.3136548,-1977.5183841376,2576439.4176849,28.539573957396,0,0
-183.65153236974,-127.49436317152,23.34400440044,1264239.3136548,-1977.5183841376,2576439.4176849,28.54400440044,0,0
-183.6515322708,-127.52318607618,23.348434843484,1264239.3136548,-1977.5183841376,2576439.4176849,28.548434843484,0,0
-183.65153217185,-127.55200898083,23.352865286529,1264239.3136548,-1977.5183841376,2576439.4176849,28.552865286529,0,0
-183.6515320729,-127.58083188548,23.357295729573,1264239.3136548,-1977.5183841376,2576439.4176849,28.557295729573,0,0
-183.65153197396,-127.60965479014,23.361726172617,1264239.3136548,-1977.5183841376,2576439.4176849,28.561726172617,0,0
-183.65153187501,-127.63847769479,23.366156615662,1264239.3136548,-1977.5183841376,2576439.4176849,28.566156615662,0,0
-183.65153177606,-127.66730059944,23.370587058706,1264239.3136548,-1977.5183841376,2576439.4176849,28.570587058706,0,0
-183.65153167711,-127.6961235041,23.37501750175,1264239.3136548,-1977.5183841376,2576439.4176849,28.57501750175,0,0
-183.65153157817,-127.72494640875,23.379447944794,1264239.3136548,-1977.5183841376,2576439.4176849,28.579447944794,0,0
-183.65153147922,-127.7537693134,23.383878387839,1264239.3136548,-1977.5183841376,2576439.4176849,28.583878387839,0,0
-183.65153138027,-127.78259221806,23.388308830883,1264239.3136548,-1977.5183841376,2576439.4176849,28.588308830883,0,0
-183.65153128133,-127.81141512271,23.392739273927,1264239.3136548,-1977.5183841376,2576439.4176849,28.592739273927,0,0
-183.65153118238,-127.84023802736,23.397169716972,1264239.3136548,-1977.5183841376,2576439.4176849,28.597169716972,0,0
-183.65153108343,-127.86906093202,23.401600160016,1264239.3136548,-1977.5183841376,2576439.4176849,28.601600160016,0,0
-183.65153098449,-127.89788383667,23.40603060306,1264239.3136548,-1977.5183841376,2576439.4176849,28.60603060306,0,0
-183.65153088554,-127.92670674132,23.410461046105,1264239.3136548,-1977.5183841376,2576439.4176849,28.610461046105,0,0
-183.65153078659,-127.95552964598,23.414891489149,1264239.3136548,-1977.5183841376,2576439.4176849,28.614891489149,0,0
-183.65153068765,-127.98435255063,23.419321932193,1264239.3136548,-1977.5183841376,2576439.4176849,28.619321932193,0,0
-183.6515305887,-128.01317545528,23.423752375238,1264239.3136548,-1977.5183841376,2576439.4176849,28.623752375238,0,0
-183.65153048975,-128.04199835994,23.428182818282,1264239.3136548,-1977.5183841376,2576439.4176849,28.628182818282,0,0
-183.65153039081,-128.07082126459,23.432613261326,1264239.3136548,-1977.5183841376,2576439.4176849,28.632613261326,0,0
-183.65153029186,-128.09964416924,23.43704370437,1264239.3136548,-1977.5183841376,2576439.4176849,28.63704370437,0,0
-183.65153019291,-128.12846707389,23.441474147415,1264239.3136548,-1977.5183841376,2576439.4176849,28.641474147415,0,0
-183.65153009396,-128.15728997855,23.445904590459,1264239.3136548,-1977.5183841376,2576439.4176849,28.645904590459,0,0
-183.65152999502,-128.1861128832,23.450335033503,1264239.3136548,-1977.5183841376,2576439.4176849,28.650335033503,0,0
-183.65152989607,-128.21493578785,23.454765476548,1264239.3136548,-1977.5183841376,2576439.4176849,28.654765476548,0,0
-183.65152979712,-128.24375869251,23.459195919592,1264239.3136548,-1977.5183841376,2576439.4176849,28.659195919592,0,0
-183.65152969818,-128.27258159716,23.463626362636,1264239.3136548,-1977.5183841376,2576439.4176849,28.663626362636,0,0
-183.65152959923,-128.30140450181,23.468056805681,1264239.3136548,-1977.5183841376,2576439.4176849,28.668056805681,0,0
-183.65152950028,-128.33022740647,23.472487248725,1264239.3136548,-1977.5183841376,2576439.4176849,28.672487248725,0,0
-183.65152940134,-128.35905031112,23.476917691769,1264239.3136548,-1977.5183841376,2576439.4176849,28.676917691769,0,0
-183.65152930239,-128.38787321577,23.481348134813,1264239.3136548,-1977.5183841376,2576439.4176849,28.681348134813,0,0
-183.65152920344,-128.41669612043,23.485778577858,1264239.3136548,-1977.5183841376,2576439.4176849,28.685778577858,0,0
-183.6515291045,-128.44551902508,23.490209020902,1264239.3136548,-1977.5183841376,2576439.4176849,28.690209020902,0,0
-183.65152900555,-128.47434192973,23.494639463946,1264239.3136548,-1977.5183841376,2576439.4176849,28.694639463946,0,0
-183.6515289066,-128.50316483439,23.499069906991,1264239.3136548,-1977.5183841376,2576439.4176849,28.699069906991,0,0
-183.65152880766,-128.53198773904,23.503500350035,1264239.3136548,-1977.5183841376,2576439.4176849,28.703500350035,0,0
-183.65152870871,-128.56081064369,23.507930793079,1264239.3136548,-1977.5183841376,2576439.4176849,28.707930793079,0,0
-183.65152860976,-128.58963354835,23.512361236124,1264239.3136548,-1977.5183841376,2576439.4176849,28.712361236124,0,0
-183.65152851081,-128.618456453,23.516791679168,1264239.3136548,-1977.5183841376,2576439.4176849,28.716791679168,0,0
-183.65152841187,-128.64727935765,23.521222122212,1264239.3136548,-1977.5183841376,2576439.4176849,28.721222122212,0,0
-183.65152831292,-128.67610226231,23.525652565257,1264239.3136548,-1977.5183841376,2576439.4176849,28.725652565257,0,0
-183.65152821397,-128.70492516696,23.530083008301,1264239.3136548,-1977.5183841376,2576439.4176849,28.730083008301,0,0
-183.65152811503,-128.73374807161,23.534513451345,1264239.3136548,-1977.5183841376,2576439.4176849,28.734513451345,0,0
-183.65152801608,-128.76257097626,23.538943894389,1264239.3136548,-1977.5183841376,2576439.4176849,28.738943894389,0,0
-183.65152791713,-128.79139388092,23.543374337434,1264239.3136548,-1977.5183841376,2576439.4176849,28.743374337434,0,0
-183.65152781819,-128.82021678557,23.547804780478,1264239.3136548,-1977.5183841376,2576439.4176849,28.747804780478,0,0
-183.65152771924,-128.84903969022,23.552235223522,1264239.3136548,-1977.5183841376,2576439.4176849,28.752235223522,0,0
-183.65152762029,-128.87786259488,23.556665666567,1264239.3136548,-1977.5183841376,2576439.4176849,28.756665666567,0,0
-183.65152752135,-128.90668549953,23.561096109611,1264239.3136548,-1977.5183841376,2576439.4176849,28.761096109611,0,0
-183.6515274224,-128.93550840418,23.565526552655,1264239.3136548,-1977.5183841376,2576439.4176849,28.765526552655,0,0
-183.65152732345,-128.96433130884,23.5699569957,1264239.3136548,-1977.5183841376,2576439.4176849,28.7699569957,0,0
-183.65152722451,-128.99315421349,23.574387438744,1264239.3136548,-1977.5183841376,2576439.4176849,28.774387438744,0,0
-183.65152712556,-129.02197711814,23.578817881788,1264239.3136548,-1977.5183841376,2576439.4176849,28.778817881788,0,0
-183.65152702661,-129.0508000228,23.583248324832,1264239.3136548,-1977.5183841376,2576439.4176849,28.783248324832,0,0
-183.65152692766,-129.07962292745,23.587678767877,1264239.3136548,-1977.5183841376,2576439.4176849,28.787678767877,0,0
-183.65152682872,-129.1084458321,23.592109210921,1264239.3136548,-1977.5183841376,2576439.4176849,28.792109210921,0,0
-183.65152672977,-129.13726873676,23.596539653965,1264239.3136548,-1977.5183841376,2576439.4176849,28.796539653965,0,0
-183.65152663082,-129.16609164141,23.60097009701,1264239.3136548,-1977.5183841376,2576439.4176849,28.80097009701,0,0
-183.65152653188,-129.19491454606,23.605400540054,1264239.3136548,-1977.5183841376,2576439.4176849,28.805400540054,0,0
-183.65152643293,-129.22373745072,23.609830983098,1264239.3136548,-1977.5183841376,2576439.4176849,28.809830983098,0,0
-183.65152633398,-129.25256035537,23.614261426143,1264239.3136548,-1977.5183841376,2576439.4176849,28.814261426143,0,0
-183.65152623504,-129.28138326002,23.618691869187,1264239.3136548,-1977.5183841376,2576439.4176849,28.818691869187,0,0
-183.65152613609,-129.31020616468,23.623122312231,1264239.3136548,-1977.5183841376,2576439.4176849,28.823122312231,0,0
-183.65152603714,-129.33902906933,23.627552755276,1264239.3136548,-1977.5183841376,2576439.4176849,28.827552755276,0,0
-183.6515259382,-129.36785197398,23.63198319832,1264239.3136548,-1977.5183841376,2576439.4176849,28.83198319832,0,0
-183.65152583925,-129.39667487863,23.636413641364,1264239.3136548,-1977.5183841376,2576439.4176849,28.836413641364,0,0
-183.6515257403,-129.42549778329,23.640844084408,1264239.3136548,-1977.5183841376,2576439.4176849,28.840844084408,0,0
-183.65152564136,-129.45432068794,23.645274527453,1264239.3136548,-1977.5183841376,2576439.4176849,28.845274527453,0,0
-183.65152554241,-129.48314359259,23.649704970497,1264239.3136548,-1977.5183841376,2576439.4176849,28.849704970497,0,0
-183.65152544346,-129.51196649725,23.654135413541,1264239.3136548,-1977.5183841376,2576439.4176849,28.854135413541,0,0
-183.65152534451,-129.5407894019,23.658565856586,1264239.3136548,-1977.5183841376,2576439.4176849,28.858565856586,0,0
-183.65152524557,-129.56961230655,23.66299629963,1264239.3136548,-1977.5183841376,2576439.4176849,28.86299629963,0,0
-183.65152514662,-129.59843521121,23.667426742674,1264239.3136548,-1977.5183841376,2576439.4176849,28.867426742674,0,0
-183.65152504767,-129.62725811586,23.671857185719,1264239.3136548,-1977.5183841376,2576439.4176849,28.871857185719,0,0
-183.65152494873,-129.65608102051,23.676287628763,1264239.3136548,-1977.5183841376,2576439.4176849,28.876287628763,0,0
-183.65152484978,-129.68490392517,23.680718071807,1264239.3136548,-1977.5183841376,2576439.4176849,28.880718071807,0,0
-183.65152475083,-129.71372682982,23.685148514851,1264239.3136548,-1977.5183841376,2576439.4176849,28.885148514851,0,0
-183.65152465189,-129.74254973447,23.689578957896,1264239.3136548,-1977.5183841376,2576439.4176849,28.889578957896,0,0
-183.65152455294,-129.77137263913,23.69400940094,1264239.3136548,-1977.5183841376,2576439.4176849,28.89400940094,0,0
-183.65152445399,-129.80019554378,23.698439843984,1264239.3136548,-1977.5183841376,2576439.4176849,28.898439843984,0,0
-183.65152435505,-129.82901844843,23.702870287029,1264239.3136548,-1977.5183841376,2576439.4176849,28.902870287029,0,0
-183.6515242561,-129.85784135309,23.707300730073,1264239.3136548,-1977.5183841376,2576439.4176849,28.907300730073,0,0
-183.65152415715,-129.88666425774,23.711731173117,1264239.3136548,-1977.5183841376,2576439.4176849,28.911731173117,0,0
-183.65152405821,-129.91548716239,23.716161616162,1264239.3136548,-1977.5183841376,2576439.4176849,28.916161616162,0,0
-183.65152395926,-129.94431006705,23.720592059206,1264239.3136548,-1977.5183841376,2576439.4176849,28.920592059206,0,0
-183.65152386031,-129.9731329717,23.72502250225,1264239.3136548,-1977.5183841376,2576439.4176849,28.92502250225,0,0
-183.65152376136,-130.00195587635,23.729452945295,1264239.3136548,-1977.5183841376,2576439.4176849,28.929452945295,0,0
-183.65152366242,-130.030778781,23.733883388339,1264239.3136548,-1977.5183841376,2576439.4176849,28.933883388339,0,0
-183.65152356347,-130.05960168566,23.738313831383,1264239.3136548,-1977.5183841376,2576439.4176849,28.938313831383,0,0
-183.65152346452,-130.08842459031,23.742744274427,1264239.3136548,-1977.5183841376,2576439.4176849,28.942744274427,0,0
-183.65152336558,-130.11724749496,23.747174717472,1264239.3136548,-1977.5183841376,2576439.4176849,28.947174717472,0,0
-183.65152326663,-130.14607039962,23.751605160516,1264239.3136548,-1977.5183841376,2576439.4176849,28.951605160516,0,0
-183.65152316768,-130.17489330427,23.75603560356,1264239.3136548,-1977.5183841376,2576439.4176849,28.95603560356,0,0
-183.65152306874,-130.20371620892,23.760466046605,1264239.3136548,-1977.5183841376,2576439.4176849,28.960466046605,0,0
-183.65152296979,-130.23253911358,23.764896489649,1264239.3136548,-1977.5183841376,2576439.4176849,28.964896489649,0,0
-183.65152287084,-130.26136201823,23.769326932693,1264239.3136548,-1977.5183841376,2576439.4176849,28.969326932693,0,0
-183.6515227719,-130.29018492288,23.773757375738,1264239.3136548,-1977.5183841376,2576439.4176849,28.973757375738,0,0
-183.65152267295,-130.31900782754,23.778187818782,1264239.3136548,-1977.5183841376,2576439.4176849,28.978187818782,0,0
-183.651522574,-130.34783073219,23.782618261826,1264239.3136548,-1977.5183841376,2576439.4176849,28.982618261826,0,0
-183.65152247506,-130.37665363684,23.78704870487,1264239.3136548,-1977.5183841376,2576439.4176849,28.98704870487,0,0
-183.65152237611,-130.4054765415,23.791479147915,1264239.3136548,-1977.5183841376,2576439.4176849,28.991479147915,0,0
-183.65152227716,-130.43429944615,23.795909590959,1264239.3136548,-1977.5183841376,2576439.4176849,28.995909590959,0,0
-183.65152217821,-130.4631223508,23.800340034003,1264239.3136548,-1977.5183841376,2576439.4176849,29.000340034003,0,0
-183.65152207927,-130.49194525546,23.804770477048,1264239.3136548,-1977.5183841376,2576439.4176849,29.004770477048,0,0
-183.65152198032,-130.52076816011,23.809200920092,1264239.3136548,-1977.5183841376,2576439.4176849,29.009200920092,0,0
-183.65152188137,-130.54959106476,23.813631363136,1264239.3136548,-1977.5183841376,2576439.4176849,29.013631363136,0,0
-183.65152178243,-130.57841396942,23.818061806181,1264239.3136548,-1977.5183841376,2576439.4176849,29.018061806181,0,0
-183.65152168348,-130.60723687407,23.822492249225,1264239.3136548,-1977.5183841376,2576439.4176849,29.022492249225,0,0
-183.65152158453,-130.63605977872,23.826922692269,1264239.3136548,-1977.5183841376,2576439.4176849,29.026922692269,0,0
-183.65152148559,-130.66488268337,23.831353135314,1264239.3136548,-1977.5183841376,2576439.4176849,29.031353135314,0,0
-183.65152138664,-130.69370558803,23.835783578358,1264239.3136548,-1977.5183841376,2576439.4176849,29.035783578358,0,0
-183.65152128769,-130.72252849268,23.840214021402,1264239.3136548,-1977.5183841376,2576439.4176849,29.040214021402,0,0
-183.65152118875,-130.75135139733,23.844644464446,1264239.3136548,-1977.5183841376,2576439.4176849,29.044644464446,0,0
-183.6515210898,-130.78017430199,23.849074907491,1264239.3136548,-1977.5183841376,2576439.4176849,29.049074907491,0,0
-183.65152099085,-130.80899720664,23.853505350535,1264239.3136548,-1977.5183841376,2576439.4176849,29.053505350535,0,0
-183.65152089191,-130.83782011129,23.857935793579,1264239.3136548,-1977.5183841376,2576439.4176849,29.057935793579,0,0
-183.65152079296,-130.86664301595,23.862366236624,1264239.3136548,-1977.5183841376,2576439.4176849,29.062366236624,0,0
-183.65152069401,-130.8954659206,23.866796679668,1264239.3136548,-1977.5183841376,2576439.4176849,29.066796679668,0,0
-183.65152059506,-130.92428882525,23.871227122712,1264239.3136548,-1977.5183841376,2576439.4176849,29.071227122712,0,0
-183.65152049612,-130.95311172991,23.875657565757,1264239.3136548,-1977.5183841376,2576439.4176849,29.075657565757,0,0
-183.65152039717,-130.98193463456,23.880088008801,1264239.3136548,-1977.5183841376,2576439.4176849,29.080088008801,0,0
-183.65152029822,-131.01075753921,23.884518451845,1264239.3136548,-1977.5183841376,2576439.4176849,29.084518451845,0,0
-183.65152019928,-131.03958044387,23.888948894889,1264239.3136548,-1977.5183841376,2576439.4176849,29.088948894889,0,0
-183.65152010033,-131.06840334852,23.893379337934,1264239.3136548,-1977.5183841376,2576439.4176849,29.093379337934,0,0
-183.65152000138,-131.09722625317,23.897809780978,1264239.3136548,-1977.5183841376,2576439.4176849,29.097809780978,0,0
-183.65151990244,-131.12604915783,23.902240224022,1264239.3136548,-1977.5183841376,2576439.4176849,29.102240224022,0,0
-183.65151980349,-131.15487206248,23.906670667067,1264239.3136548,-1977.5183841376,2576439.4176849,29.106670667067,0,0
-183.65151970454,-131.18369496713,23.911101110111,1264239.3136548,-1977.5183841376,2576439.4176849,29.111101110111,0,0
-183.6515196056,-131.21251787179,23.915531553155,1264239.3136548,-1977.5183841376,2576439.4176849,29.115531553155,0,0
-183.65151950665,-131.24134077644,23.9199619962,1264239.3136548,-1977.5183841376,2576439.4176849,29.1199619962,0,0
-183.6515194077,-131.27016368109,23.924392439244,1264239.3136548,-1977.5183841376,2576439.4176849,29.124392439244,0,0
-183.65151930876,-131.29898658574,23.928822882288,1264239.3136548,-1977.5183841376,2576439.4176849,29.128822882288,0,0
-183.65151920981,-131.3278094904,23.933253325333,1264239.3136548,-1977.5183841376,2576439.4176849,29.133253325333,0,0
-183.65151911086,-131.35663239505,23.937683768377,1264239.3136548,-1977.5183841376,2576439.4176849,29.137683768377,0,0
-183.65151901191,-131.3854552997,23.942114211421,1264239.3136548,-1977.5183841376,2576439.4176849,29.142114211421,0,0
-183.65151891297,-131.41427820436,23.946544654465,1264239.3136548,-1977.5183841376,2576439.4176849,29.146544654465,0,0
-183.65151881402,-131.44310110901,23.95097509751,1264239.3136548,-1977.5183841376,2576439.4176849,29.15097509751,0,0
-183.65151871507,-131.47192401366,23.955405540554,1264239.3136548,-1977.5183841376,2576439.4176849,29.155405540554,0,0
-183.65151861613,-131.50074691832,23.959835983598,1264239.3136548,-1977.5183841376,2576439.4176849,29.159835983598,0,0
-183.65151851718,-131.52956982297,23.964266426643,1264239.3136548,-1977.5183841376,2576439.4176849,29.164266426643,0,0
-183.65151841823,-131.55839272762,23.968696869687,1264239.3136548,-1977.5183841376,2576439.4176849,29.168696869687,0,0
-183.65151831929,-131.58721563228,23.973127312731,1264239.3136548,-1977.5183841376,2576439.4176849,29.173127312731,0,0
-183.65151822034,-131.61603853693,23.977557755776,1264239.3136548,-1977.5183841376,2576439.4176849,29.177557755776,0,0
-183.65151812139,-131.64486144158,23.98198819882,1264239.3136548,-1977.5183841376,2576439.4176849,29.18198819882,0,0
-183.65151802245,-131.67368434624,23.986418641864,1264239.3136548,-1977.5183841376,2576439.4176849,29.186418641864,0,0
-183.6515179235,-131.70250725089,23.990849084908,1264239.3136548,-1977.5183841376,2576439.4176849,29.190849084908,0,0
-183.65151782455,-131.73133015554,23.995279527953,1264239.3136548,-1977.5183841376,2576439.4176849,29.195279527953,0,0
-183.65151772561,-131.7601530602,23.999709970997,1264239.3136548,-1977.5183841376,2576439.4176849,29.199709970997,0,0
-183.65151762666,-131.78897596485,24.004140414041,1264239.3136548,-1977.5183841376,2576439.4176849,29.204140414041,0,0
-183.65151752771,-131.8177988695,24.008570857086,1264239.3136548,-1977.5183841376,2576439.4176849,29.208570857086,0,0
-183.65151742876,-131.84662177416,24.01300130013,1264239.3136548,-1977.5183841376,2576439.4176849,29.21300130013,0,0
-183.65151732982,-131.87544467881,24.017431743174,1264239.3136548,-1977.5183841376,2576439.4176849,29.217431743174,0,0
-183.65151723087,-131.90426758346,24.021862186219,1264239.3136548,-1977.5183841376,2576439.4176849,29.221862186219,0,0
-183.65151713192,-131.93309048811,24.026292629263,1264239.3136548,-1977.5183841376,2576439.4176849,29.226292629263,0,0
-183.65151703298,-131.96191339277,24.030723072307,1264239.3136548,-1977.5183841376,2576439.4176849,29.230723072307,0,0
-183.65151693403,-131.99073629742,24.035153515352,1264239.3136548,-1977.5183841376,2576439.4176849,29.235153515352,0,0
-183.65151683508,-132.01955920207,24.039583958396,1264239.3136548,-1977.5183841376,2576439.4176849,29.239583958396,0,0
-183.65151673614,-132.04838210673,24.04401440144,1264239.3136548,-1977.5183841376,2576439.4176849,29.24401440144,0,0
-183.65151663719,-132.07720501138,24.048444844484,1264239.3136548,-1977.5183841376,2576439.4176849,29.248444844484,0,0
-183.65151653824,-132.10602791603,24.052875287529,1264239.3136548,-1977.5183841376,2576439.4176849,29.252875287529,0,0
-183.6515164393,-132.13485082069,24.057305730573,1264239.3136548,-1977.5183841376,2576439.4176849,29.257305730573,0,0
-183.65151634035,-132.16367372534,24.061736173617,1264239.3136548,-1977.5183841376,2576439.4176849,29.261736173617,0,0
-183.6515162414,-132.19249662999,24.066166616662,1264239.3136548,-1977.5183841376,2576439.4176849,29.266166616662,0,0
-183.65151614246,-132.22131953465,24.070597059706,1264239.3136548,-1977.5183841376,2576439.4176849,29.270597059706,0,0
-183.65151604351,-132.2501424393,24.07502750275,1264239.3136548,-1977.5183841376,2576439.4176849,29.27502750275,0,0
-183.65151594456,-132.27896534395,24.079457945795,1264239.3136548,-1977.5183841376,2576439.4176849,29.279457945795,0,0
-183.65151584561,-132.30778824861,24.083888388839,1264239.3136548,-1977.5183841376,2576439.4176849,29.283888388839,0,0
-183.65151574667,-132.33661115326,24.088318831883,1264239.3136548,-1977.5183841376,2576439.4176849,29.288318831883,0,0
-183.65151564772,-132.36543405791,24.092749274927,1264239.3136548,-1977.5183841376,2576439.4176849,29.292749274927,0,0
-183.65151554877,-132.39425696257,24.097179717972,1264239.3136548,-1977.5183841376,2576439.4176849,29.297179717972,0,0
-183.65151544983,-132.42307986722,24.101610161016,1264239.3136548,-1977.5183841376,2576439.4176849,29.301610161016,0,0
-183.65151535088,-132.45190277187,24.10604060406,1264239.3136548,-1977.5183841376,2576439.4176849,29.30604060406,0,0
-183.65151525193,-132.48072567653,24.110471047105,1264239.3136548,-1977.5183841376,2576439.4176849,29.310471047105,0,0
-183.65151515299,-132.50954858118,24.114901490149,1264239.3136548,-1977.5183841376,2576439.4176849,29.314901490149,0,0
-183.65151505404,-132.53837148583,24.119331933193,1264239.3136548,-1977.5183841376,2576439.4176849,29.319331933193,0,0
-183.65151495509,-132.56719439049,24.123762376238,1264239.3136548,-1977.5183841376,2576439.4176849,29.323762376238,0,0
-183.65151485615,-132.59601729514,24.128192819282,1264239.3136548,-1977.5183841376,2576439.4176849,29.328192819282,0,0
-183.6515147572,-132.62484019979,24.132623262326,1264239.3136548,-1977.5183841376,2576439.4176849,29.332623262326,0,0
-183.65151465825,-132.65366310444,24.137053705371,1264239.3136548,-1977.5183841376,2576439.4176849,29.337053705371,0,0
-183.65151455931,-132.6824860091,24.141484148415,1264239.3136548,-1977.5183841376,2576439.4176849,29.341484148415,0,0
-183.65151446036,-132.71130891375,24.145914591459,1264239.3136548,-1977.5183841376,2576439.4176849,29.345914591459,0,0
-183.65151436141,-132.7401318184,24.150345034503,1264239.3136548,-1977.5183841376,2576439.4176849,29.350345034503,0,0
-183.65151426246,-132.76895472306,24.154775477548,1264239.3136548,-1977.5183841376,2576439.4176849,29.354775477548,0,0
-183.65151416352,-132.79777762771,24.159205920592,1264239.3136548,-1977.5183841376,2576439.4176849,29.359205920592,0,0
-183.65151406457,-132.82660053236,24.163636363636,1264239.3136548,-1977.5183841376,2576439.4176849,29.363636363636,0,0
-183.65151396562,-132.85542343702,24.168066806681,1264239.3136548,-1977.5183841376,2576439.4176849,29.368066806681,0,0
-183.65151386668,-132.88424634167,24.172497249725,1264239.3136548,-1977.5183841376,2576439.4176849,29.372497249725,0,0
-183.65151376773,-132.91306924632,24.176927692769,1264239.3136548,-1977.5183841376,2576439.4176849,29.376927692769,0,0
-183.65151366878,-132.94189215098,24.181358135814,1264239.3136548,-1977.5183841376,2576439.4176849,29.381358135814,0,0
-183.65151356984,-132.97071505563,24.185788578858,1264239.3136548,-1977.5183841376,2576439.4176849,29.385788578858,0,0
-183.65151347089,-132.99953796028,24.190219021902,1264239.3136548,-1977.5183841376,2576439.4176849,29.390219021902,0,0
-183.65151337194,-133.02836086494,24.194649464946,1264239.3136548,-1977.5183841376,2576439.4176849,29.394649464946,0,0
-183.651513273,-133.05718376959,24.199079907991,1264239.3136548,-1977.5183841376,2576439.4176849,29.399079907991,0,0
-183.65151317405,-133.08600667424,24.203510351035,1264239.3136548,-1977.5183841376,2576439.4176849,29.403510351035,0,0
-183.6515130751,-133.1148295789,24.207940794079,1264239.3136548,-1977.5183841376,2576439.4176849,29.407940794079,0,0
-183.65151297616,-133.14365248355,24.212371237124,1264239.3136548,-1977.5183841376,2576439.4176849,29.412371237124,0,0
-183.65151287721,-133.1724753882,24.216801680168,1264239.3136548,-1977.5183841376,2576439.4176849,29.416801680168,0,0
-183.65151277826,-133.20129829286,24.221232123212,1264239.3136548,-1977.5183841376,2576439.4176849,29.421232123212,0,0
-183.65151267931,-133.23012119751,24.225662566257,1264239.3136548,-1977.5183841376,2576439.4176849,29.425662566257,0,0
-183.65151258037,-133.25894410216,24.230093009301,1264239.3136548,-1977.5183841376,2576439.4176849,29.430093009301,0,0
-183.65151248142,-133.28776700681,24.234523452345,1264239.3136548,-1977.5183841376,2576439.4176849,29.434523452345,0,0
-183.65151238247,-133.31658991147,24.23895389539,1264239.3136548,-1977.5183841376,2576439.4176849,29.43895389539,0,0
-183.65151228353,-133.34541281612,24.243384338434,1264239.3136548,-1977.5183841376,2576439.4176849,29.443384338434,0,0
-183.65151218458,-133.37423572077,24.247814781478,1264239.3136548,-1977.5183841376,2576439.4176849,29.447814781478,0,0
-183.65151208563,-133.40305862543,24.252245224522,1264239.3136548,-1977.5183841376,2576439.4176849,29.452245224522,0,0
-183.65151198669,-133.43188153008,24.256675667567,1264239.3136548,-1977.5183841376,2576439.4176849,29.456675667567,0,0
-183.65151188774,-133.46070443473,24.261106110611,1264239.3136548,-1977.5183841376,2576439.4176849,29.461106110611,0,0
-183.65151178879,-133.48952733939,24.265536553655,1264239.3136548,-1977.5183841376,2576439.4176849,29.465536553655,0,0
-183.65151168985,-133.51835024404,24.2699669967,1264239.3136548,-1977.5183841376,2576439.4176849,29.4699669967,0,0
-183.6515115909,-133.54717314869,24.274397439744,1264239.3136548,-1977.5183841376,2576439.4176849,29.474397439744,0,0
-183.65151149195,-133.57599605335,24.278827882788,1264239.3136548,-1977.5183841376,2576439.4176849,29.478827882788,0,0
-183.65151139301,-133.604818958,24.283258325833,1264239.3136548,-1977.5183841376,2576439.4176849,29.483258325833,0,0
-183.65151129406,-133.63364186265,24.287688768877,1264239.3136548,-1977.5183841376,2576439.4176849,29.487688768877,0,0
-183.65151119511,-133.66246476731,24.292119211921,1264239.3136548,-1977.5183841376,2576439.4176849,29.492119211921,0,0
-183.65151109616,-133.69128767196,24.296549654965,1264239.3136548,-1977.5183841376,2576439.4176849,29.496549654965,0,0
-183.65151099722,-133.72011057661,24.30098009801,1264239.3136548,-1977.5183841376,2576439.4176849,29.50098009801,0,0
-183.65151089827,-133.74893348127,24.305410541054,1264239.3136548,-1977.5183841376,2576439.4176849,29.505410541054,0,0
-183.65151079932,-133.77775638592,24.309840984098,1264239.3136548,-1977.5183841376,2576439.4176849,29.509840984098,0,0
-183.65151070038,-133.80657929057,24.314271427143,1264239.3136548,-1977.5183841376,2576439.4176849,29.514271427143,0,0
-183.65151060143,-133.83540219523,24.318701870187,1264239.3136548,-1977.5183841376,2576439.4176849,29.518701870187,0,0
-183.65151050249,-133.86422509972,24.323132313231,1262448.8205392,809.8986586446,2571801.0407263,29.523132313231,0,0
-183.65151040356,-133.89304800379,24.327562756276,1262448.8205392,809.8986586446,2571801.0407263,29.527562756276,0,0
-183.65151030463,-133.92187090786,24.33199319932,1262448.8205392,809.8986586446,2571801.0407263,29.53199319932,0,0
-183.65151020571,-133.95069381193,24.336423642364,1262448.8205392,809.8986586446,2571801.0407263,29.536423642364,0,0
-183.65151010678,-133.979516716,24.340854085409,1262448.8205392,809.8986586446,2571801.0407263,29.540854085409,0,0
-183.65151000785,-134.00833962007,24.345284528453,1262448.8205392,809.8986586446,2571801.0407263,29.545284528453,0,0
-183.65150990892,-134.03716252414,24.349714971497,1262448.8205392,809.8986586446,2571801.0407263,29.549714971497,0,0
-183.65150981,-134.06598542821,24.354145414541,1262448.8205392,809.8986586446,2571801.0407263,29.554145414541,0,0
-183.65150971107,-134.09480833228,24.358575857586,1262448.8205392,809.8986586446,2571801.0407263,29.558575857586,0,0
-183.65150961214,-134.12363123635,24.36300630063,1262448.8205392,809.8986586446,2571801.0407263,29.56300630063,0,0
-183.65150951321,-134.15245414042,24.367436743674,1262448.8205392,809.8986586446,2571801.0407263,29.567436743674,0,0
-183.65150941429,-134.18127704449,24.371867186719,1262448.8205392,809.8986586446,2571801.0407263,29.571867186719,0,0
-183.65150931536,-134.21009994856,24.376297629763,1262448.8205392,809.8986586446,2571801.0407263,29.576297629763,0,0
-183.65150921643,-134.23892285263,24.380728072807,1262448.8205392,809.8986586446,2571801.0407263,29.580728072807,0,0
-183.65150911751,-134.2677457567,24.385158515852,1262448.8205392,809.8986586446,2571801.0407263,29.585158515852,0,0
-183.65150901858,-134.29656866077,24.389588958896,1262448.8205392,809.8986586446,2571801.0407263,29.589588958896,0,0
-183.65150891965,-134.32539156484,24.39401940194,1262448.8205392,809.8986586446,2571801.0407263,29.59401940194,0,0
-183.65150882072,-134.35421446891,24.398449844984,1262448.8205392,809.8986586446,2571801.0407263,29.598449844984,0,0
-183.6515087218,-134.38303737298,24.402880288029,1262448.8205392,809.8986586446,2571801.0407263,29.602880288029,0,0
-183.65150862287,-134.41186027705,24.407310731073,1262448.8205392,809.8986586446,2571801.0407263,29.607310731073,0,0
-183.65150852394,-134.44068318112,24.411741174117,1262448.8205392,809.8986586446,2571801.0407263,29.611741174117,0,0
-183.65150842501,-134.46950608519,24.416171617162,1262448.8205392,809.8986586446,2571801.0407263,29.616171617162,0,0
-183.65150832609,-134.49832898926,24.420602060206,1262448.8205392,809.8986586446,2571801.0407263,29.620602060206,0,0
-183.65150822716,-134.52715189333,24.42503250325,1262448.8205392,809.8986586446,2571801.0407263,29.62503250325,0,0
-183.65150812823,-134.55597479741,24.429462946295,1262448.8205392,809.8986586446,2571801.0407263,29.629462946295,0,0
-183.6515080293,-134.58479770148,24.433893389339,1262448.8205392,809.8986586446,2571801.0407263,29.633893389339,0,0
-183.65150793038,-134.61362060555,24.438323832383,1262448.8205392,809.8986586446,2571801.0407263,29.638323832383,0,0
-183.65150783145,-134.64244350962,24.442754275428,1262448.8205392,809.8986586446,2571801.0407263,29.642754275428,0,0
-183.65150773252,-134.67126641369,24.447184718472,1262448.8205392,809.8986586446,2571801.0407263,29.647184718472,0,0
-183.6515076336,-134.70008931776,24.451615161516,1262448.8205392,809.8986586446,2571801.0407263,29.651615161516,0,0
-183.65150753467,-134.72891222183,24.45604560456,1262448.8205392,809.8986586446,2571801.0407263,29.65604560456,0,0
-183.65150743574,-134.7577351259,24.460476047605,1262448.8205392,809.8986586446,2571801.0407263,29.660476047605,0,0
-183.65150733681,-134.78655802997,24.464906490649,1262448.8205392,809.8986586446,2571801.0407263,29.664906490649,0,0
-183.65150723789,-134.81538093404,24.469336933693,1262448.8205392,809.8986586446,2571801.0407263,29.669336933693,0,0
-183.65150713896,-134.84420383811,24.473767376738,1262448.8205392,809.8986586446,2571801.0407263,29.673767376738,0,0
-183.65150704003,-134.87302674218,24.478197819782,1262448.8205392,809.8986586446,2571801.0407263,29.678197819782,0,0
-183.6515069411,-134.90184964625,24.482628262826,1262448.8205392,809.8986586446,2571801.0407263,29.682628262826,0,0
-183.65150684218,-134.93067255032,24.487058705871,1262448.8205392,809.8986586446,2571801.0407263,29.687058705871,0,0
-183.65150674325,-134.95949545439,24.491489148915,1262448.8205392,809.8986586446,2571801.0407263,29.691489148915,0,0
-183.65150664432,-134.98831835846,24.495919591959,1262448.8205392,809.8986586446,2571801.0407263,29.695919591959,0,0
-183.65150654539,-135.01714126253,24.500350035003,1262448.8205392,809.8986586446,2571801.0407263,29.700350035003,0,0
-183.65150644647,-135.0459641666,24.504780478048,1262448.8205392,809.8986586446,2571801.0407263,29.704780478048,0,0
-183.65150634754,-135.07478707067,24.509210921092,1262448.8205392,809.8986586446,2571801.0407263,29.709210921092,0,0
-183.65150624861,-135.10360997474,24.513641364136,1262448.8205392,809.8986586446,2571801.0407263,29.713641364136,0,0
-183.65150614968,-135.13243287881,24.518071807181,1262448.8205392,809.8986586446,2571801.0407263,29.718071807181,0,0
-183.65150605076,-135.16125578288,24.522502250225,1262448.8205392,809.8986586446,2571801.0407263,29.722502250225,0,0
-183.65150595183,-135.19007868695,24.526932693269,1262448.8205392,809.8986586446,2571801.0407263,29.726932693269,0,0
-183.6515058529,-135.21890159102,24.531363136314,1262448.8205392,809.8986586446,2571801.0407263,29.731363136314,0,0
-183.65150575398,-135.24772449509,24.535793579358,1262448.8205392,809.8986586446,2571801.0407263,29.735793579358,0,0
-183.65150565505,-135.27654739916,24.540224022402,1262448.8205392,809.8986586446,2571801.0407263,29.740224022402,0,0
-183.65150555612,-135.30537030323,24.544654465447,1262448.8205392,809.8986586446,2571801.0407263,29.744654465447,0,0
-183.65150545719,-135.3341932073,24.549084908491,1262448.8205392,809.8986586446,2571801.0407263,29.749084908491,0,0
-183.65150535827,-135.36301611137,24.553515351535,1262448.8205392,809.8986586446,2571801.0407263,29.753515351535,0,0
-183.65150525934,-135.39183901544,24.557945794579,1262448.8205392,809.8986586446,2571801.0407263,29.757945794579,0,0
-183.65150516041,-135.42066191951,24.562376237624,1262448.8205392,809.8986586446,2571801.0407263,29.762376237624,0,0
-183.65150506148,-135.44948482358,24.566806680668,1262448.8205392,809.8986586446,2571801.0407263,29.766806680668,0,0
-183.65150496256,-135.47830772765,24.571237123712,1262448.8205392,809.8986586446,2571801.0407263,29.771237123712,0,0
-183.65150486363,-135.50713063172,24.575667566757,1262448.8205392,809.8986586446,2571801.0407263,29.775667566757,0,0
-183.6515047647,-135.53595353579,24.580098009801,1262448.8205392,809.8986586446,2571801.0407263,29.780098009801,0,0
-183.65150466577,-135.56477643986,24.584528452845,1262448.8205392,809.8986586446,2571801.0407263,29.784528452845,0,0
-183.65150456685,-135.59359934393,24.58895889589,1262448.8205392,809.8986586446,2571801.0407263,29.78895889589,0,0
-183.65150446792,-135.62242224801,24.593389338934,1262448.8205392,809.8986586446,2571801.0407263,29.793389338934,0,0
-183.65150436899,-135.65124515208,24.597819781978,1262448.8205392,809.8986586446,2571801.0407263,29.797819781978,0,0
-183.65150427006,-135.68006805615,24.602250225022,1262448.8205392,809.8986586446,2571801.0407263,29.802250225022,0,0
-183.65150417114,-135.70889096022,24.606680668067,1262448.8205392,809.8986586446,2571801.0407263,29.806680668067,0,0
-183.65150407221,-135.73771386429,24.611111111111,1262448.8205392,809.8986586446,2571801.0407263,29.811111111111,0,0
-183.65150397328,-135.76653676836,24.615541554155,1262448.8205392,809.8986586446,2571801.0407263,29.815541554155,0,0
-183.65150387436,-135.79535967243,24.6199719972,1262448.8205392,809.8986586446,2571801.0407263,29.8199719972,0,0
-183.65150377543,-135.8241825765,24.624402440244,1262448.8205392,809.8986586446,2571801.0407263,29.824402440244,0,0
-183.6515036765,-135.85300548057,24.628832883288,1262448.8205392,809.8986586446,2571801.0407263,29.828832883288,0,0
-183.65150357757,-135.88182838464,24.633263326333,1262448.8205392,809.8986586446,2571801.0407263,29.833263326333,0,0
-183.65150347865,-135.91065128871,24.637693769377,1262448.8205392,809.8986586446,2571801.0407263,29.837693769377,0,0
-183.65150337972,-135.93947419278,24.642124212421,1262448.8205392,809.8986586446,2571801.0407263,29.842124212421,0,0
-183.65150328079,-135.96829709685,24.646554655466,1262448.8205392,809.8986586446,2571801.0407263,29.846554655466,0,0
-183.65150318186,-135.99712000092,24.65098509851,1262448.8205392,809.8986586446,2571801.0407263,29.85098509851,0,0
-183.65150308294,-136.02594290499,24.655415541554,1262448.8205392,809.8986586446,2571801.0407263,29.855415541554,0,0
-183.65150298401,-136.05476580906,24.659845984598,1262448.8205392,809.8986586446,2571801.0407263,29.859845984598,0,0
-183.65150288508,-136.08358871313,24.664276427643,1262448.8205392,809.8986586446,2571801.0407263,29.864276427643,0,0
-183.65150278615,-136.1124116172,24.668706870687,1262448.8205392,809.8986586446,2571801.0407263,29.868706870687,0,0
-183.65150268723,-136.14123452127,24.673137313731,1262448.8205392,809.8986586446,2571801.0407263,29.873137313731,0,0
-183.6515025883,-136.17005742534,24.677567756776,1262448.8205392,809.8986586446,2571801.0407263,29.877567756776,0,0
-183.65150248937,-136.19888032941,24.68199819982,1262448.8205392,809.8986586446,2571801.0407263,29.88199819982,0,0
-183.65150239045,-136.22770323348,24.686428642864,1262448.8205392,809.8986586446,2571801.0407263,29.886428642864,0,0
-183.65150229152,-136.25652613755,24.690859085909,1262448.8205392,809.8986586446,2571801.0407263,29.890859085909,0,0
-183.65150219259,-136.28534904162,24.695289528953,1262448.8205392,809.8986586446,2571801.0407263,29.895289528953,0,0
-183.65150209366,-136.31417194569,24.699719971997,1262448.8205392,809.8986586446,2571801.0407263,29.899719971997,0,0
-183.65150199474,-136.34299484976,24.704150415042,1262448.8205392,809.8986586446,2571801.0407263,29.904150415041,0,0
-183.65150189581,-136.37181775383,24.708580858086,1262448.8205392,809.8986586446,2571801.0407263,29.908580858086,0,0
-183.65150179688,-136.4006406579,24.71301130113,1262448.8205392,809.8986586446,2571801.0407263,29.91301130113,0,0
-183.65150169795,-136.42946356197,24.717441744174,1262448.8205392,809.8986586446,2571801.0407263,29.917441744174,0,0
-183.65150159903,-136.45828646604,24.721872187219,1262448.8205392,809.8986586446,2571801.0407263,29.921872187219,0,0
-183.6515015001,-136.48710937011,24.726302630263,1262448.8205392,809.8986586446,2571801.0407263,29.926302630263,0,0
-183.65150140117,-136.51593227418,24.730733073307,1262448.8205392,809.8986586446,2571801.0407263,29.930733073307,0,0
-183.65150130224,-136.54475517825,24.735163516352,1262448.8205392,809.8986586446,2571801.0407263,29.935163516352,0,0
-183.65150120332,-136.57357808232,24.739593959396,1262448.8205392,809.8986586446,2571801.0407263,29.939593959396,0,0
-183.65150110439,-136.60240098639,24.74402440244,1262448.8205392,809.8986586446,2571801.0407263,29.94402440244,0,0
-183.65150100546,-136.63122389046,24.748454845485,1262448.8205392,809.8986586446,2571801.0407263,29.948454845485,0,0
-183.65150090653,-136.66004679453,24.752885288529,1262448.8205392,809.8986586446,2571801.0407263,29.952885288529,0,0
-183.65150080761,-136.6888696986,24.757315731573,1262448.8205392,809.8986586446,2571801.0407263,29.957315731573,0,0
-183.65150070868,-136.71769260268,24.761746174617,1262448.8205392,809.8986586446,2571801.0407263,29.961746174617,0,0
-183.65150060975,-136.74651550675,24.766176617662,1262448.8205392,809.8986586446,2571801.0407263,29.966176617662,0,0
-183.65150051083,-136.77533841082,24.770607060706,1262448.8205392,809.8986586446,2571801.0407263,29.970607060706,0,0
-183.6515004119,-136.80416131489,24.77503750375,1262448.8205392,809.8986586446,2571801.0407263,29.97503750375,0,0
-183.65150031297,-136.83298421896,24.779467946795,1262448.8205392,809.8986586446,2571801.0407263,29.979467946795,0,0
-183.65150021404,-136.86180712303,24.783898389839,1262448.8205392,809.8986586446,2571801.0407263,29.983898389839,0,0
-183.65150011512,-136.8906300271,24.788328832883,1262448.8205392,809.8986586446,2571801.0407263,29.988328832883,0,0
-183.65150001619,-136.91945293117,24.792759275928,1262448.8205392,809.8986586446,2571801.0407263,29.992759275928,0,0
-183.65149991726,-136.94827583524,24.797189718972,1262448.8205392,809.8986586446,2571801.0407263,29.997189718972,0,0
-183.65149981833,-136.97709873931,24.801620162016,1262448.8205392,809.8986586446,2571801.0407263,30.001620162016,0,0
-183.65149971936,-137.00592164385,24.806050605061,1261770.7276991,-1668.3423109499,2567717.6788281,30.006050605061,0,0
-183.65149962038,-137.03474454848,24.810481048105,1261770.7276991,-1668.3423109499,2567717.6788281,30.010481048105,0,0
-183.6514995214,-137.06356745311,24.814911491149,1261770.7276991,-1668.3423109499,2567717.6788281,30.014911491149,0,0
-183.65149942241,-137.09239035773,24.819341934193,1261770.7276991,-1668.3423109499,2567717.6788281,30.019341934193,0,0
-183.65149932343,-137.12121326236,24.823772377238,1261770.7276991,-1668.3423109499,2567717.6788281,30.023772377238,0,0
-183.65149922445,-137.15003616699,24.828202820282,1261770.7276991,-1668.3423109499,2567717.6788281,30.028202820282,0,0
-183.65149912547,-137.17885907162,24.832633263326,1261770.7276991,-1668.3423109499,2567717.6788281,30.032633263326,0,0
-183.65149902649,-137.20768197625,24.837063706371,1261770.7276991,-1668.3423109499,2567717.6788281,30.037063706371,0,0
-183.65149892751,-137.23650488088,24.841494149415,1261770.7276991,-1668.3423109499,2567717.6788281,30.041494149415,0,0
-183.65149882852,-137.2653277855,24.845924592459,1261770.7276991,-1668.3423109499,2567717.6788281,30.045924592459,0,0
-183.65149872954,-137.29415069013,24.850355035504,1261770.7276991,-1668.3423109499,2567717.6788281,30.050355035504,0,0
-183.65149863056,-137.32297359476,24.854785478548,1261770.7276991,-1668.3423109499,2567717.6788281,30.054785478548,0,0
-183.65149853158,-137.35179649939,24.859215921592,1261770.7276991,-1668.3423109499,2567717.6788281,30.059215921592,0,0
-183.6514984326,-137.38061940402,24.863646364636,1261770.7276991,-1668.3423109499,2567717.6788281,30.063646364636,0,0
-183.65149833361,-137.40944230865,24.868076807681,1261770.7276991,-1668.3423109499,2567717.6788281,30.068076807681,0,0
-183.65149823463,-137.43826521327,24.872507250725,1261770.7276991,-1668.3423109499,2567717.6788281,30.072507250725,0,0
-183.65149813565,-137.4670881179,24.876937693769,1261770.7276991,-1668.3423109499,2567717.6788281,30.076937693769,0,0
-183.65149803667,-137.49591102253,24.881368136814,1261770.7276991,-1668.3423109499,2567717.6788281,30.081368136814,0,0
-183.65149793769,-137.52473392716,24.885798579858,1261770.7276991,-1668.3423109499,2567717.6788281,30.085798579858,0,0
-183.6514978387,-137.55355683179,24.890229022902,1261770.7276991,-1668.3423109499,2567717.6788281,30.090229022902,0,0
-183.65149773972,-137.58237973641,24.894659465947,1261770.7276991,-1668.3423109499,2567717.6788281,30.094659465947,0,0
-183.65149764074,-137.61120264104,24.899089908991,1261770.7276991,-1668.3423109499,2567717.6788281,30.099089908991,0,0
-183.65149754176,-137.64002554567,24.903520352035,1261770.7276991,-1668.3423109499,2567717.6788281,30.103520352035,0,0
-183.65149744278,-137.6688484503,24.90795079508,1261770.7276991,-1668.3423109499,2567717.6788281,30.10795079508,0,0
-183.65149734379,-137.69767135493,24.912381238124,1261770.7276991,-1668.3423109499,2567717.6788281,30.112381238124,0,0
-183.65149724481,-137.72649425956,24.916811681168,1261770.7276991,-1668.3423109499,2567717.6788281,30.116811681168,0,0
-183.65149714583,-137.75531716418,24.921242124212,1261770.7276991,-1668.3423109499,2567717.6788281,30.121242124212,0,0
-183.65149704685,-137.78414006881,24.925672567257,1261770.7276991,-1668.3423109499,2567717.6788281,30.125672567257,0,0
-183.65149694787,-137.81296297344,24.930103010301,1261770.7276991,-1668.3423109499,2567717.6788281,30.130103010301,0,0
-183.65149684888,-137.84178587807,24.934533453345,1261770.7276991,-1668.3423109499,2567717.6788281,30.134533453345,0,0
-183.6514967499,-137.8706087827,24.93896389639,1261770.7276991,-1668.3423109499,2567717.6788281,30.13896389639,0,0
-183.65149665092,-137.89943168733,24.943394339434,1261770.7276991,-1668.3423109499,2567717.6788281,30.143394339434,0,0
-183.65149655194,-137.92825459195,24.947824782478,1261770.7276991,-1668.3423109499,2567717.6788281,30.147824782478,0,0
-183.65149645296,-137.95707749658,24.952255225523,1261770.7276991,-1668.3423109499,2567717.6788281,30.152255225523,0,0
-183.65149635398,-137.98590040121,24.956685668567,1261770.7276991,-1668.3423109499,2567717.6788281,30.156685668567,0,0
-183.65149625499,-138.01472330584,24.961116111611,1261770.7276991,-1668.3423109499,2567717.6788281,30.161116111611,0,0
-183.65149615601,-138.04354621047,24.965546554655,1261770.7276991,-1668.3423109499,2567717.6788281,30.165546554655,0,0
-183.65149605703,-138.0723691151,24.9699769977,1261770.7276991,-1668.3423109499,2567717.6788281,30.1699769977,0,0
-183.65149595805,-138.10119201972,24.974407440744,1261770.7276991,-1668.3423109499,2567717.6788281,30.174407440744,0,0
-183.65149585907,-138.13001492435,24.978837883788,1261770.7276991,-1668.3423109499,2567717.6788281,30.178837883788,0,0
-183.65149576008,-138.15883782898,24.983268326833,1261770.7276991,-1668.3423109499,2567717.6788281,30.183268326833,0,0
-183.6514956611,-138.18766073361,24.987698769877,1261770.7276991,-1668.3423109499,2567717.6788281,30.187698769877,0,0
-183.65149556212,-138.21648363824,24.992129212921,1261770.7276991,-1668.3423109499,2567717.6788281,30.192129212921,0,0
-183.65149546314,-138.24530654286,24.996559655966,1261770.7276991,-1668.3423109499,2567717.6788281,30.196559655966,0,0
-183.65149536416,-138.27412944749,25.00099009901,1261770.7276991,-1668.3423109499,2567717.6788281,30.20099009901,0,0
-183.65149526517,-138.30295235212,25.005420542054,1261770.7276991,-1668.3423109499,2567717.6788281,30.205420542054,0,0
-183.65149516619,-138.33177525675,25.009850985099,1261770.7276991,-1668.3423109499,2567717.6788281,30.209850985099,0,0
-183.65149506721,-138.36059816138,25.014281428143,1261770.7276991,-1668.3423109499,2567717.6788281,30.214281428143,0,0
-183.65149496823,-138.38942106601,25.018711871187,1261770.7276991,-1668.3423109499,2567717.6788281,30.218711871187,0,0
-183.65149486925,-138.41824397063,25.023142314231,1261770.7276991,-1668.3423109499,2567717.6788281,30.223142314231,0,0
-183.65149477026,-138.44706687526,25.027572757276,1261770.7276991,-1668.3423109499,2567717.6788281,30.227572757276,0,0
-183.65149467128,-138.47588977989,25.03200320032,1261770.7276991,-1668.3423109499,2567717.6788281,30.23200320032,0,0
-183.6514945723,-138.50471268452,25.036433643364,1261770.7276991,-1668.3423109499,2567717.6788281,30.236433643364,0,0
-183.65149447332,-138.53353558915,25.040864086409,1261770.7276991,-1668.3423109499,2567717.6788281,30.240864086409,0,0
-183.65149437434,-138.56235849378,25.045294529453,1261770.7276991,-1668.3423109499,2567717.6788281,30.245294529453,0,0
-183.65149427535,-138.5911813984,25.049724972497,1261770.7276991,-1668.3423109499,2567717.6788281,30.249724972497,0,0
-183.65149417637,-138.62000430303,25.054155415542,1261770.7276991,-1668.3423109499,2567717.6788281,30.254155415542,0,0
-183.65149407739,-138.64882720766,25.058585858586,1261770.7276991,-1668.3423109499,2567717.6788281,30.258585858586,0,0
-183.65149397841,-138.67765011229,25.06301630163,1261770.7276991,-1668.3423109499,2567717.6788281,30.26301630163,0,0
-183.65149387943,-138.70647301692,25.067446744674,1261770.7276991,-1668.3423109499,2567717.6788281,30.267446744674,0,0
-183.65149378045,-138.73529592155,25.071877187719,1261770.7276991,-1668.3423109499,2567717.6788281,30.271877187719,0,0
-183.65149368146,-138.76411882617,25.076307630763,1261770.7276991,-1668.3423109499,2567717.6788281,30.276307630763,0,0
-183.65149358248,-138.7929417308,25.080738073807,1261770.7276991,-1668.3423109499,2567717.6788281,30.280738073807,0,0
-183.6514934835,-138.82176463543,25.085168516852,1261770.7276991,-1668.3423109499,2567717.6788281,30.285168516852,0,0
-183.65149338452,-138.85058754006,25.089598959896,1261770.7276991,-1668.3423109499,2567717.6788281,30.289598959896,0,0
-183.65149328554,-138.87941044469,25.09402940294,1261770.7276991,-1668.3423109499,2567717.6788281,30.29402940294,0,0
-183.65149318655,-138.90823334931,25.098459845985,1261770.7276991,-1668.3423109499,2567717.6788281,30.298459845985,0,0
-183.65149308757,-138.93705625394,25.102890289029,1261770.7276991,-1668.3423109499,2567717.6788281,30.302890289029,0,0
-183.65149298859,-138.96587915857,25.107320732073,1261770.7276991,-1668.3423109499,2567717.6788281,30.307320732073,0,0
-183.65149288961,-138.9947020632,25.111751175118,1261770.7276991,-1668.3423109499,2567717.6788281,30.311751175118,0,0
-183.65149279063,-139.02352496783,25.116181618162,1261770.7276991,-1668.3423109499,2567717.6788281,30.316181618162,0,0
-183.65149269164,-139.05234787246,25.120612061206,1261770.7276991,-1668.3423109499,2567717.6788281,30.320612061206,0,0
-183.65149259266,-139.08117077708,25.12504250425,1261770.7276991,-1668.3423109499,2567717.6788281,30.32504250425,0,0
-183.65149249368,-139.10999368171,25.129472947295,1261770.7276991,-1668.3423109499,2567717.6788281,30.329472947295,0,0
-183.6514923947,-139.13881658634,25.133903390339,1261770.7276991,-1668.3423109499,2567717.6788281,30.333903390339,0,0
-183.65149229572,-139.16763949097,25.138333833383,1261770.7276991,-1668.3423109499,2567717.6788281,30.338333833383,0,0
-183.65149219673,-139.1964623956,25.142764276428,1261770.7276991,-1668.3423109499,2567717.6788281,30.342764276428,0,0
-183.65149209775,-139.22528530023,25.147194719472,1261770.7276991,-1668.3423109499,2567717.6788281,30.347194719472,0,0
-183.65149199877,-139.25410820485,25.151625162516,1261770.7276991,-1668.3423109499,2567717.6788281,30.351625162516,0,0
-183.65149189979,-139.28293110948,25.156055605561,1261770.7276991,-1668.3423109499,2567717.6788281,30.356055605561,0,0
-183.65149180081,-139.31175401411,25.160486048605,1261770.7276991,-1668.3423109499,2567717.6788281,30.360486048605,0,0
-183.65149170183,-139.34057691874,25.164916491649,1261770.7276991,-1668.3423109499,2567717.6788281,30.364916491649,0,0
-183.65149160284,-139.36939982337,25.169346934693,1261770.7276991,-1668.3423109499,2567717.6788281,30.369346934693,0,0
-183.65149150386,-139.398222728,25.173777377738,1261770.7276991,-1668.3423109499,2567717.6788281,30.373777377738,0,0
-183.65149140488,-139.42704563262,25.178207820782,1261770.7276991,-1668.3423109499,2567717.6788281,30.378207820782,0,0
-183.6514913059,-139.45586853725,25.182638263826,1261770.7276991,-1668.3423109499,2567717.6788281,30.382638263826,0,0
-183.65149120692,-139.48469144188,25.187068706871,1261770.7276991,-1668.3423109499,2567717.6788281,30.387068706871,0,0
-183.65149110793,-139.51351434651,25.191499149915,1261770.7276991,-1668.3423109499,2567717.6788281,30.391499149915,0,0
-183.65149100895,-139.54233725114,25.195929592959,1261770.7276991,-1668.3423109499,2567717.6788281,30.395929592959,0,0
-183.65149090997,-139.57116015576,25.200360036004,1261770.7276991,-1668.3423109499,2567717.6788281,30.400360036004,0,0
-183.65149081099,-139.59998306039,25.204790479048,1261770.7276991,-1668.3423109499,2567717.6788281,30.404790479048,0,0
-183.65149071201,-139.62880596502,25.209220922092,1261770.7276991,-1668.3423109499,2567717.6788281,30.409220922092,0,0
-183.65149061302,-139.65762886965,25.213651365137,1261770.7276991,-1668.3423109499,2567717.6788281,30.413651365137,0,0
-183.65149051404,-139.68645177428,25.218081808181,1261770.7276991,-1668.3423109499,2567717.6788281,30.418081808181,0,0
-183.65149041506,-139.71527467891,25.222512251225,1261770.7276991,-1668.3423109499,2567717.6788281,30.422512251225,0,0
-183.65149031608,-139.74409758353,25.226942694269,1261770.7276991,-1668.3423109499,2567717.6788281,30.426942694269,0,0
-183.6514902171,-139.77292048816,25.231373137314,1261770.7276991,-1668.3423109499,2567717.6788281,30.431373137314,0,0
-183.65149011811,-139.80174339279,25.235803580358,1261770.7276991,-1668.3423109499,2567717.6788281,30.435803580358,0,0
-183.65149001913,-139.83056629742,25.240234023402,1261770.7276991,-1668.3423109499,2567717.6788281,30.440234023402,0,0
-183.65148992015,-139.85938920205,25.244664466447,1261770.7276991,-1668.3423109499,2567717.6788281,30.444664466447,0,0
-183.65148982117,-139.88821210668,25.249094909491,1261770.7276991,-1668.3423109499,2567717.6788281,30.449094909491,0,0
-183.65148972219,-139.9170350113,25.253525352535,1261770.7276991,-1668.3423109499,2567717.6788281,30.453525352535,0,0
-183.65148962321,-139.94585791593,25.25795579558,1261770.7276991,-1668.3423109499,2567717.6788281,30.45795579558,0,0
-183.65148952422,-139.97468082056,25.262386238624,1261770.7276991,-1668.3423109499,2567717.6788281,30.462386238624,0,0
-183.65148942524,-140.00350372519,25.266816681668,1261770.7276991,-1668.3423109499,2567717.6788281,30.466816681668,0,0
-183.65148932626,-140.03232662982,25.271247124712,1261770.7276991,-1668.3423109499,2567717.6788281,30.471247124712,0,0
-183.65148922728,-140.06114953445,25.275677567757,1261770.7276991,-1668.3423109499,2567717.6788281,30.475677567757,0,0
-183.6514891283,-140.08997243907,25.280108010801,1261770.7276991,-1668.3423109499,2567717.6788281,30.480108010801,0,0
-183.65148902931,-140.1187953437,25.284538453845,1261770.7276991,-1668.3423109499,2567717.6788281,30.484538453845,0,0
-183.65148893033,-140.14761824833,25.28896889689,1261770.7276991,-1668.3423109499,2567717.6788281,30.48896889689,0,0
-183.65148883135,-140.17644115296,25.293399339934,1261770.7276991,-1668.3423109499,2567717.6788281,30.493399339934,0,0
-183.65148873237,-140.20526405759,25.297829782978,1261770.7276991,-1668.3423109499,2567717.6788281,30.497829782978,0,0
-183.65148863339,-140.23408696221,25.302260226023,1261770.7276991,-1668.3423109499,2567717.6788281,30.502260226023,0,0
-183.6514885344,-140.26290986684,25.306690669067,1261770.7276991,-1668.3423109499,2567717.6788281,30.506690669067,0,0
-183.65148843542,-140.29173277147,25.311121112111,1261770.7276991,-1668.3423109499,2567717.6788281,30.511121112111,0,0
-183.65148833644,-140.3205556761,25.315551555156,1261770.7276991,-1668.3423109499,2567717.6788281,30.515551555156,0,0
-183.65148823746,-140.34937858073,25.3199819982,1261770.7276991,-1668.3423109499,2567717.6788281,30.5199819982,0,0
-183.65148813848,-140.37820148536,25.324412441244,1261770.7276991,-1668.3423109499,2567717.6788281,30.524412441244,0,0
-183.65148803949,-140.40702438998,25.328842884288,1261770.7276991,-1668.3423109499,2567717.6788281,30.528842884288,0,0
-183.65148794051,-140.43584729461,25.333273327333,1261770.7276991,-1668.3423109499,2567717.6788281,30.533273327333,0,0
-183.65148784153,-140.46467019924,25.337703770377,1261770.7276991,-1668.3423109499,2567717.6788281,30.537703770377,0,0
-183.65148774255,-140.49349310387,25.342134213421,1261770.7276991,-1668.3423109499,2567717.6788281,30.542134213421,0,0
-183.65148764357,-140.5223160085,25.346564656466,1261770.7276991,-1668.3423109499,2567717.6788281,30.546564656466,0,0
-183.65148754458,-140.55113891313,25.35099509951,1261770.7276991,-1668.3423109499,2567717.6788281,30.55099509951,0,0
-183.6514874456,-140.57996181775,25.355425542554,1261770.7276991,-1668.3423109499,2567717.6788281,30.555425542554,0,0
-183.65148734662,-140.60878472238,25.359855985599,1261770.7276991,-1668.3423109499,2567717.6788281,30.559855985599,0,0
-183.65148724764,-140.63760762701,25.364286428643,1261770.7276991,-1668.3423109499,2567717.6788281,30.564286428643,0,0
-183.65148714866,-140.66643053164,25.368716871687,1261770.7276991,-1668.3423109499,2567717.6788281,30.568716871687,0,0
-183.65148704968,-140.69525343627,25.373147314731,1261770.7276991,-1668.3423109499,2567717.6788281,30.573147314731,0,0
-183.65148695069,-140.7240763409,25.377577757776,1261770.7276991,-1668.3423109499,2567717.6788281,30.577577757776,0,0
-183.65148685171,-140.75289924552,25.38200820082,1261770.7276991,-1668.3423109499,2567717.6788281,30.58200820082,0,0
-183.65148675273,-140.78172215015,25.386438643864,1261770.7276991,-1668.3423109499,2567717.6788281,30.586438643864,0,0
-183.65148665375,-140.81054505478,25.390869086909,1261770.7276991,-1668.3423109499,2567717.6788281,30.590869086909,0,0
-183.65148655477,-140.83936795941,25.395299529953,1261770.7276991,-1668.3423109499,2567717.6788281,30.595299529953,0,0
-183.65148645578,-140.86819086404,25.399729972997,1261770.7276991,-1668.3423109499,2567717.6788281,30.599729972997,0,0
-183.6514863568,-140.89701376866,25.404160416042,1261770.7276991,-1668.3423109499,2567717.6788281,30.604160416042,0,0
-183.65148625782,-140.92583667329,25.408590859086,1261770.7276991,-1668.3423109499,2567717.6788281,30.608590859086,0,0
-183.65148615884,-140.95465957792,25.41302130213,1261770.7276991,-1668.3423109499,2567717.6788281,30.61302130213,0,0
-183.65148605986,-140.98348248255,25.417451745175,1261770.7276991,-1668.3423109499,2567717.6788281,30.617451745175,0,0
-183.65148596087,-141.01230538718,25.421882188219,1261770.7276991,-1668.3423109499,2567717.6788281,30.621882188219,0,0
-183.65148586189,-141.04112829181,25.426312631263,1261770.7276991,-1668.3423109499,2567717.6788281,30.626312631263,0,0
-183.65148576291,-141.06995119643,25.430743074307,1261770.7276991,-1668.3423109499,2567717.6788281,30.630743074307,0,0
-183.65148566393,-141.09877410106,25.435173517352,1261770.7276991,-1668.3423109499,2567717.6788281,30.635173517352,0,0
-183.65148556495,-141.12759700569,25.439603960396,1261770.7276991,-1668.3423109499,2567717.6788281,30.639603960396,0,0
-183.65148546596,-141.15641991032,25.44403440344,1261770.7276991,-1668.3423109499,2567717.6788281,30.64403440344,0,0
-183.65148536698,-141.18524281495,25.448464846485,1261770.7276991,-1668.3423109499,2567717.6788281,30.648464846485,0,0
-183.651485268,-141.21406571958,25.452895289529,1261770.7276991,-1668.3423109499,2567717.6788281,30.652895289529,0,0
-183.65148516902,-141.2428886242,25.457325732573,1261770.7276991,-1668.3423109499,2567717.6788281,30.657325732573,0,0
-183.65148507004,-141.27171152883,25.461756175618,1261770.7276991,-1668.3423109499,2567717.6788281,30.661756175618,0,0
-183.65148497105,-141.30053443346,25.466186618662,1261770.7276991,-1668.3423109499,2567717.6788281,30.666186618662,0,0
-183.65148487207,-141.32935733809,25.470617061706,1261770.7276991,-1668.3423109499,2567717.6788281,30.670617061706,0,0
-183.65148477309,-141.35818024272,25.47504750475,1261770.7276991,-1668.3423109499,2567717.6788281,30.67504750475,0,0
-183.65148467411,-141.38700314735,25.479477947795,1261770.7276991,-1668.3423109499,2567717.6788281,30.679477947795,0,0
-183.65148457513,-141.41582605197,25.483908390839,1261770.7276991,-1668.3423109499,2567717.6788281,30.683908390839,0,0
-183.65148447615,-141.4446489566,25.488338833883,1261770.7276991,-1668.3423109499,2567717.6788281,30.688338833883,0,0
-183.65148437716,-141.47347186123,25.492769276928,1261770.7276991,-1668.3423109499,2567717.6788281,30.692769276928,0,0
-183.65148427818,-141.50229476586,25.497199719972,1261770.7276991,-1668.3423109499,2567717.6788281,30.697199719972,0,0
-183.6514841792,-141.53111767049,25.501630163016,1261770.7276991,-1668.3423109499,2567717.6788281,30.701630163016,0,0
-183.65148408022,-141.55994057511,25.506060606061,1261770.7276991,-1668.3423109499,2567717.6788281,30.706060606061,0,0
-183.65148398124,-141.58876347974,25.510491049105,1261770.7276991,-1668.3423109499,2567717.6788281,30.710491049105,0,0
-183.65148388225,-141.61758638437,25.514921492149,1261770.7276991,-1668.3423109499,2567717.6788281,30.714921492149,0,0
-183.65148378327,-141.646409289,25.519351935194,1261770.7276991,-1668.3423109499,2567717.6788281,30.719351935194,0,0
-183.65148368429,-141.67523219363,25.523782378238,1261770.7276991,-1668.3423109499,2567717.6788281,30.723782378238,0,0
-183.65148358531,-141.70405509826,25.528212821282,1261770.7276991,-1668.3423109499,2567717.6788281,30.728212821282,0,0
-183.65148348633,-141.73287800288,25.532643264326,1261770.7276991,-1668.3423109499,2567717.6788281,30.732643264326,0,0
-183.65148338734,-141.76170090751,25.537073707371,1261770.7276991,-1668.3423109499,2567717.6788281,30.737073707371,0,0
-183.65148328836,-141.79052381214,25.541504150415,1261770.7276991,-1668.3423109499,2567717.6788281,30.741504150415,0,0
-183.65148318938,-141.81934671677,25.545934593459,1261770.7276991,-1668.3423109499,2567717.6788281,30.745934593459,0,0
-183.6514830904,-141.8481696214,25.550365036504,1261770.7276991,-1668.3423109499,2567717.6788281,30.750365036504,0,0
-183.65148299142,-141.87699252603,25.554795479548,1261770.7276991,-1668.3423109499,2567717.6788281,30.754795479548,0,0
-183.65148289243,-141.90581543065,25.559225922592,1261770.7276991,-1668.3423109499,2567717.6788281,30.759225922592,0,0
-183.65148279345,-141.93463833528,25.563656365637,1261770.7276991,-1668.3423109499,2567717.6788281,30.763656365637,0,0
-183.65148269447,-141.96346123991,25.568086808681,1261770.7276991,-1668.3423109499,2567717.6788281,30.768086808681,0,0
-183.65148259549,-141.99228414454,25.572517251725,1261770.7276991,-1668.3423109499,2567717.6788281,30.772517251725,0,0
-183.65148249651,-142.02110704917,25.576947694769,1261770.7276991,-1668.3423109499,2567717.6788281,30.776947694769,0,0
-183.65148239753,-142.0499299538,25.581378137814,1261770.7276991,-1668.3423109499,2567717.6788281,30.781378137814,0,0
-183.65148229854,-142.07875285842,25.585808580858,1261770.7276991,-1668.3423109499,2567717.6788281,30.785808580858,0,0
-183.65148219956,-142.10757576305,25.590239023902,1261770.7276991,-1668.3423109499,2567717.6788281,30.790239023902,0,0
-183.65148210058,-142.13639866768,25.594669466947,1261770.7276991,-1668.3423109499,2567717.6788281,30.794669466947,0,0
-183.6514820016,-142.16522157231,25.599099909991,1261770.7276991,-1668.3423109499,2567717.6788281,30.799099909991,0,0
-183.65148190262,-142.19404447694,25.603530353035,1261770.7276991,-1668.3423109499,2567717.6788281,30.803530353035,0,0
-183.65148180363,-142.22286738156,25.60796079608,1261770.7276991,-1668.3423109499,2567717.6788281,30.80796079608,0,0
-183.65148170465,-142.25169028619,25.612391239124,1261770.7276991,-1668.3423109499,2567717.6788281,30.812391239124,0,0
-183.65148160567,-142.28051319082,25.616821682168,1261770.7276991,-1668.3423109499,2567717.6788281,30.816821682168,0,0
-183.65148150669,-142.30933609545,25.621252125213,1261770.7276991,-1668.3423109499,2567717.6788281,30.821252125213,0,0
-183.65148140771,-142.33815900008,25.625682568257,1261770.7276991,-1668.3423109499,2567717.6788281,30.825682568257,0,0
-183.65148130872,-142.36698190471,25.630113011301,1261770.7276991,-1668.3423109499,2567717.6788281,30.830113011301,0,0
-183.65148120974,-142.39580480933,25.634543454345,1261770.7276991,-1668.3423109499,2567717.6788281,30.834543454345,0,0
-183.65148111076,-142.42462771396,25.63897389739,1261770.7276991,-1668.3423109499,2567717.6788281,30.83897389739,0,0
-183.65148101178,-142.45345061859,25.643404340434,1261770.7276991,-1668.3423109499,2567717.6788281,30.843404340434,0,0
-183.6514809128,-142.48227352322,25.647834783478,1261770.7276991,-1668.3423109499,2567717.6788281,30.847834783478,0,0
-183.65148081381,-142.51109642785,25.652265226523,1261770.7276991,-1668.3423109499,2567717.6788281,30.852265226523,0,0
-183.65148071483,-142.53991933248,25.656695669567,1261770.7276991,-1668.3423109499,2567717.6788281,30.856695669567,0,0
-183.65148061585,-142.5687422371,25.661126112611,1261770.7276991,-1668.3423109499,2567717.6788281,30.861126112611,0,0
-183.65148051687,-142.59756514173,25.665556555656,1261770.7276991,-1668.3423109499,2567717.6788281,30.865556555656,0,0
-183.65148041789,-142.62638804636,25.6699869987,1261770.7276991,-1668.3423109499,2567717.6788281,30.8699869987,0,0
-183.6514803189,-142.65521095099,25.674417441744,1261770.7276991,-1668.3423109499,2567717.6788281,30.874417441744,0,0
-183.65148021992,-142.68403385562,25.678847884788,1261770.7276991,-1668.3423109499,2567717.6788281,30.878847884788,0,0
-183.65148012094,-142.71285676025,25.683278327833,1261770.7276991,-1668.3423109499,2567717.6788281,30.883278327833,0,0
-183.65148002196,-142.74167966487,25.687708770877,1261770.7276991,-1668.3423109499,2567717.6788281,30.887708770877,0,0
-183.65147992298,-142.7705025695,25.692139213921,1261770.7276991,-1668.3423109499,2567717.6788281,30.892139213921,0,0
-183.651479824,-142.79932547413,25.696569656966,1261770.7276991,-1668.3423109499,2567717.6788281,30.896569656966,0,0
-183.65147972501,-142.82814837876,25.70100010001,1261770.7276991,-1668.3423109499,2567717.6788281,30.90100010001,0,0
-183.65147962603,-142.85697128339,25.705430543054,1261770.7276991,-1668.3423109499,2567717.6788281,30.905430543054,0,0
-183.65147952705,-142.88579418801,25.709860986099,1261770.7276991,-1668.3423109499,2567717.6788281,30.909860986099,0,0
-183.65147942807,-142.91461709264,25.714291429143,1261770.7276991,-1668.3423109499,2567717.6788281,30.914291429143,0,0
-183.65147932909,-142.94343999727,25.718721872187,1261770.7276991,-1668.3423109499,2567717.6788281,30.918721872187,0,0
-183.6514792301,-142.9722629019,25.723152315232,1261770.7276991,-1668.3423109499,2567717.6788281,30.923152315232,0,0
-183.65147913112,-143.00108580653,25.727582758276,1261770.7276991,-1668.3423109499,2567717.6788281,30.927582758276,0,0
-183.65147903214,-143.02990871116,25.73201320132,1261770.7276991,-1668.3423109499,2567717.6788281,30.93201320132,0,0
-183.65147893316,-143.05873161578,25.736443644364,1261770.7276991,-1668.3423109499,2567717.6788281,30.936443644364,0,0
-183.65147883418,-143.08755452041,25.740874087409,1261770.7276991,-1668.3423109499,2567717.6788281,30.940874087409,0,0
-183.65147873519,-143.11637742504,25.745304530453,1261770.7276991,-1668.3423109499,2567717.6788281,30.945304530453,0,0
-183.65147863621,-143.14520032967,25.749734973497,1261770.7276991,-1668.3423109499,2567717.6788281,30.949734973497,0,0
-183.65147853723,-143.1740232343,25.754165416542,1261770.7276991,-1668.3423109499,2567717.6788281,30.954165416542,0,0
-183.65147843825,-143.20284613893,25.758595859586,1261770.7276991,-1668.3423109499,2567717.6788281,30.958595859586,0,0
-183.65147833927,-143.23166904355,25.76302630263,1261770.7276991,-1668.3423109499,2567717.6788281,30.96302630263,0,0
-183.65147824028,-143.26049194818,25.767456745675,1261770.7276991,-1668.3423109499,2567717.6788281,30.967456745675,0,0
-183.6514781413,-143.28931485281,25.771887188719,1261770.7276991,-1668.3423109499,2567717.6788281,30.971887188719,0,0
-183.65147804232,-143.31813775744,25.776317631763,1261770.7276991,-1668.3423109499,2567717.6788281,30.976317631763,0,0
-183.65147794334,-143.34696066207,25.780748074807,1261770.7276991,-1668.3423109499,2567717.6788281,30.980748074807,0,0
-183.65147784436,-143.3757835667,25.785178517852,1261770.7276991,-1668.3423109499,2567717.6788281,30.985178517852,0,0
-183.65147774538,-143.40460647132,25.789608960896,1261770.7276991,-1668.3423109499,2567717.6788281,30.989608960896,0,0
-183.65147764639,-143.43342937595,25.79403940394,1261770.7276991,-1668.3423109499,2567717.6788281,30.99403940394,0,0
-183.65147754741,-143.46225228058,25.798469846985,1261770.7276991,-1668.3423109499,2567717.6788281,30.998469846985,0,0
-183.65147744843,-143.49107518521,25.802900290029,1261770.7276991,-1668.3423109499,2567717.6788281,31.002900290029,0,0
-183.65147734945,-143.51989808984,25.807330733073,1261770.7276991,-1668.3423109499,2567717.6788281,31.007330733073,0,0
-183.65147725047,-143.54872099446,25.811761176118,1261770.7276991,-1668.3423109499,2567717.6788281,31.011761176118,0,0
-183.65147715148,-143.57754389909,25.816191619162,1261770.7276991,-1668.3423109499,2567717.6788281,31.016191619162,0,0
-183.6514770525,-143.60636680372,25.820622062206,1261770.7276991,-1668.3423109499,2567717.6788281,31.020622062206,0,0
-183.65147695352,-143.63518970835,25.825052505251,1261770.7276991,-1668.3423109499,2567717.6788281,31.025052505251,0,0
-183.65147685454,-143.66401261298,25.829482948295,1261770.7276991,-1668.3423109499,2567717.6788281,31.029482948295,0,0
-183.65147675556,-143.69283551761,25.833913391339,1261770.7276991,-1668.3423109499,2567717.6788281,31.033913391339,0,0
-183.65147665657,-143.72165842223,25.838343834383,1261770.7276991,-1668.3423109499,2567717.6788281,31.038343834383,0,0
-183.65147655759,-143.75048132686,25.842774277428,1261770.7276991,-1668.3423109499,2567717.6788281,31.042774277428,0,0
-183.65147645861,-143.77930423149,25.847204720472,1261770.7276991,-1668.3423109499,2567717.6788281,31.047204720472,0,0
-183.65147635963,-143.80812713612,25.851635163516,1261770.7276991,-1668.3423109499,2567717.6788281,31.051635163516,0,0
-183.65147626065,-143.83695004075,25.856065606561,1261770.7276991,-1668.3423109499,2567717.6788281,31.056065606561,0,0
-183.65147616166,-143.86577294538,25.860496049605,1261770.7276991,-1668.3423109499,2567717.6788281,31.060496049605,0,0
-183.65147606268,-143.89459585,25.864926492649,1261770.7276991,-1668.3423109499,2567717.6788281,31.064926492649,0,0
-183.6514759637,-143.92341875463,25.869356935694,1261770.7276991,-1668.3423109499,2567717.6788281,31.069356935694,0,0
-183.65147586472,-143.95224165926,25.873787378738,1261770.7276991,-1668.3423109499,2567717.6788281,31.073787378738,0,0
-183.65147576574,-143.98106456389,25.878217821782,1261770.7276991,-1668.3423109499,2567717.6788281,31.078217821782,0,0
-183.65147566675,-144.00988746852,25.882648264826,1261770.7276991,-1668.3423109499,2567717.6788281,31.082648264826,0,0
-183.65147556777,-144.03871037315,25.887078707871,1261770.7276991,-1668.3423109499,2567717.6788281,31.087078707871,0,0
-183.65147546879,-144.06753327777,25.891509150915,1261770.7276991,-1668.3423109499,2567717.6788281,31.091509150915,0,0
-183.65147536981,-144.0963561824,25.895939593959,1261770.7276991,-1668.3423109499,2567717.6788281,31.095939593959,0,0
-183.65147527083,-144.12517908703,25.900370037004,1261770.7276991,-1668.3423109499,2567717.6788281,31.100370037004,0,0
-183.65147517185,-144.15400199166,25.904800480048,1261770.7276991,-1668.3423109499,2567717.6788281,31.104800480048,0,0
-183.65147507286,-144.18282489629,25.909230923092,1261770.7276991,-1668.3423109499,2567717.6788281,31.109230923092,0,0
-183.65147497388,-144.21164780091,25.913661366137,1261770.7276991,-1668.3423109499,2567717.6788281,31.113661366137,0,0
-183.6514748749,-144.24047070554,25.918091809181,1261770.7276991,-1668.3423109499,2567717.6788281,31.118091809181,0,0
-183.65147477592,-144.26929361017,25.922522252225,1261770.7276991,-1668.3423109499,2567717.6788281,31.122522252225,0,0
-183.65147467694,-144.2981165148,25.92695269527,1261770.7276991,-1668.3423109499,2567717.6788281,31.12695269527,0,0
-183.65147457795,-144.32693941943,25.931383138314,1261770.7276991,-1668.3423109499,2567717.6788281,31.131383138314,0,0
-183.65147447897,-144.35576232406,25.935813581358,1261770.7276991,-1668.3423109499,2567717.6788281,31.135813581358,0,0
-183.65147437999,-144.38458522868,25.940244024402,1261770.7276991,-1668.3423109499,2567717.6788281,31.140244024402,0,0
-183.65147428101,-144.41340813331,25.944674467447,1261770.7276991,-1668.3423109499,2567717.6788281,31.144674467447,0,0
-183.65147418203,-144.44223103794,25.949104910491,1261770.7276991,-1668.3423109499,2567717.6788281,31.149104910491,0,0
-183.65147408304,-144.47105394257,25.953535353535,1261770.7276991,-1668.3423109499,2567717.6788281,31.153535353535,0,0
-183.65147398406,-144.4998768472,25.95796579658,1261770.7276991,-1668.3423109499,2567717.6788281,31.15796579658,0,0
-183.65147388508,-144.52869975183,25.962396239624,1261770.7276991,-1668.3423109499,2567717.6788281,31.162396239624,0,0
-183.6514737861,-144.55752265645,25.966826682668,1261770.7276991,-1668.3423109499,2567717.6788281,31.166826682668,0,0
-183.65147368712,-144.58634556108,25.971257125713,1261770.7276991,-1668.3423109499,2567717.6788281,31.171257125713,0,0
-183.65147358813,-144.61516846571,25.975687568757,1261770.7276991,-1668.3423109499,2567717.6788281,31.175687568757,0,0
-183.65147348915,-144.64399137034,25.980118011801,1261770.7276991,-1668.3423109499,2567717.6788281,31.180118011801,0,0
-183.65147339017,-144.67281427497,25.984548454845,1261770.7276991,-1668.3423109499,2567717.6788281,31.184548454845,0,0
-183.65147329119,-144.7016371796,25.98897889789,1261770.7276991,-1668.3423109499,2567717.6788281,31.18897889789,0,0
-183.65147319221,-144.73046008422,25.993409340934,1261770.7276991,-1668.3423109499,2567717.6788281,31.193409340934,0,0
-183.65147309323,-144.75928298885,25.997839783978,1261770.7276991,-1668.3423109499,2567717.6788281,31.197839783978,0,0
-183.65147299424,-144.78810589348,26.002270227023,1261770.7276991,-1668.3423109499,2567717.6788281,31.202270227023,0,0
-183.65147289526,-144.81692879811,26.006700670067,1261770.7276991,-1668.3423109499,2567717.6788281,31.206700670067,0,0
-183.65147279628,-144.84575170274,26.011131113111,1261770.7276991,-1668.3423109499,2567717.6788281,31.211131113111,0,0
-183.6514726973,-144.87457460736,26.015561556156,1261770.7276991,-1668.3423109499,2567717.6788281,31.215561556156,0,0
-183.65147259832,-144.90339751199,26.0199919992,1261770.7276991,-1668.3423109499,2567717.6788281,31.2199919992,0,0
-183.65147249933,-144.93222041662,26.024422442244,1261770.7276991,-1668.3423109499,2567717.6788281,31.224422442244,0,0
-183.65147240036,-144.96104332093,26.028852885289,1260450.6983666,477.16048243267,2564395.7215084,31.228852885289,0,0
-183.6514723014,-144.98986622511,26.033283328333,1260450.6983666,477.16048243267,2564395.7215084,31.233283328333,0,0
-183.65147220243,-145.01868912929,26.037713771377,1260450.6983666,477.16048243267,2564395.7215084,31.237713771377,0,0
-183.65147210347,-145.04751203347,26.042144214421,1260450.6983666,477.16048243267,2564395.7215084,31.242144214421,0,0
-183.6514720045,-145.07633493765,26.046574657466,1260450.6983666,477.16048243267,2564395.7215084,31.246574657466,0,0
-183.65147190554,-145.10515784183,26.05100510051,1260450.6983666,477.16048243267,2564395.7215084,31.25100510051,0,0
-183.65147180657,-145.13398074601,26.055435543554,1260450.6983666,477.16048243267,2564395.7215084,31.255435543554,0,0
-183.65147170761,-145.16280365019,26.059865986599,1260450.6983666,477.16048243267,2564395.7215084,31.259865986599,0,0
-183.65147160864,-145.19162655437,26.064296429643,1260450.6983666,477.16048243267,2564395.7215084,31.264296429643,0,0
-183.65147150968,-145.22044945855,26.068726872687,1260450.6983666,477.16048243267,2564395.7215084,31.268726872687,0,0
-183.65147141071,-145.24927236273,26.073157315732,1260450.6983666,477.16048243267,2564395.7215084,31.273157315732,0,0
-183.65147131175,-145.27809526691,26.077587758776,1260450.6983666,477.16048243267,2564395.7215084,31.277587758776,0,0
-183.65147121278,-145.30691817109,26.08201820182,1260450.6983666,477.16048243267,2564395.7215084,31.28201820182,0,0
-183.65147111382,-145.33574107527,26.086448644864,1260450.6983666,477.16048243267,2564395.7215084,31.286448644864,0,0
-183.65147101485,-145.36456397945,26.090879087909,1260450.6983666,477.16048243267,2564395.7215084,31.290879087909,0,0
-183.65147091589,-145.39338688363,26.095309530953,1260450.6983666,477.16048243267,2564395.7215084,31.295309530953,0,0
-183.65147081692,-145.42220978781,26.099739973997,1260450.6983666,477.16048243267,2564395.7215084,31.299739973997,0,0
-183.65147071796,-145.45103269199,26.104170417042,1260450.6983666,477.16048243267,2564395.7215084,31.304170417042,0,0
-183.651470619,-145.47985559617,26.108600860086,1260450.6983666,477.16048243267,2564395.7215084,31.308600860086,0,0
-183.65147052003,-145.50867850035,26.11303130313,1260450.6983666,477.16048243267,2564395.7215084,31.31303130313,0,0
-183.65147042107,-145.53750140453,26.117461746175,1260450.6983666,477.16048243267,2564395.7215084,31.317461746175,0,0
-183.6514703221,-145.56632430871,26.121892189219,1260450.6983666,477.16048243267,2564395.7215084,31.321892189219,0,0
-183.65147022314,-145.59514721289,26.126322632263,1260450.6983666,477.16048243267,2564395.7215084,31.326322632263,0,0
-183.65147012417,-145.62397011707,26.130753075308,1260450.6983666,477.16048243267,2564395.7215084,31.330753075308,0,0
-183.65147002521,-145.65279302125,26.135183518352,1260450.6983666,477.16048243267,2564395.7215084,31.335183518352,0,0
-183.65146992624,-145.68161592543,26.139613961396,1260450.6983666,477.16048243267,2564395.7215084,31.339613961396,0,0
-183.65146982728,-145.71043882961,26.14404440444,1260450.6983666,477.16048243267,2564395.7215084,31.34404440444,0,0
-183.65146972831,-145.73926173379,26.148474847485,1260450.6983666,477.16048243267,2564395.7215084,31.348474847485,0,0
-183.65146962935,-145.76808463797,26.152905290529,1260450.6983666,477.16048243267,2564395.7215084,31.352905290529,0,0
-183.65146953038,-145.79690754215,26.157335733573,1260450.6983666,477.16048243267,2564395.7215084,31.357335733573,0,0
-183.65146943142,-145.82573044633,26.161766176618,1260450.6983666,477.16048243267,2564395.7215084,31.361766176618,0,0
-183.65146933245,-145.85455335051,26.166196619662,1260450.6983666,477.16048243267,2564395.7215084,31.366196619662,0,0
-183.65146923349,-145.88337625469,26.170627062706,1260450.6983666,477.16048243267,2564395.7215084,31.370627062706,0,0
-183.65146913452,-145.91219915887,26.175057505751,1260450.6983666,477.16048243267,2564395.7215084,31.375057505751,0,0
-183.65146903556,-145.94102206305,26.179487948795,1260450.6983666,477.16048243267,2564395.7215084,31.379487948795,0,0
-183.65146893659,-145.96984496723,26.183918391839,1260450.6983666,477.16048243267,2564395.7215084,31.383918391839,0,0
-183.65146883763,-145.99866787141,26.188348834883,1260450.6983666,477.16048243267,2564395.7215084,31.388348834883,0,0
-183.65146873866,-146.02749077559,26.192779277928,1260450.6983666,477.16048243267,2564395.7215084,31.392779277928,0,0
-183.6514686397,-146.05631367977,26.197209720972,1260450.6983666,477.16048243267,2564395.7215084,31.397209720972,0,0
-183.65146854073,-146.08513658395,26.201640164016,1260450.6983666,477.16048243267,2564395.7215084,31.401640164016,0,0
-183.65146844177,-146.11395948813,26.206070607061,1260450.6983666,477.16048243267,2564395.7215084,31.406070607061,0,0
-183.6514683428,-146.14278239231,26.210501050105,1260450.6983666,477.16048243267,2564395.7215084,31.410501050105,0,0
-183.65146824384,-146.17160529649,26.214931493149,1260450.6983666,477.16048243267,2564395.7215084,31.414931493149,0,0
-183.65146814487,-146.20042820067,26.219361936194,1260450.6983666,477.16048243267,2564395.7215084,31.419361936194,0,0
-183.65146804591,-146.22925110485,26.223792379238,1260450.6983666,477.16048243267,2564395.7215084,31.423792379238,0,0
-183.65146794694,-146.25807400903,26.228222822282,1260450.6983666,477.16048243267,2564395.7215084,31.428222822282,0,0
-183.65146784798,-146.28689691321,26.232653265327,1260450.6983666,477.16048243267,2564395.7215084,31.432653265327,0,0
-183.65146774901,-146.31571981739,26.237083708371,1260450.6983666,477.16048243267,2564395.7215084,31.437083708371,0,0
-183.65146765005,-146.34454272157,26.241514151415,1260450.6983666,477.16048243267,2564395.7215084,31.441514151415,0,0
-183.65146755108,-146.37336562575,26.245944594459,1260450.6983666,477.16048243267,2564395.7215084,31.445944594459,0,0
-183.65146745206,-146.40218853006,26.250375037504,1261054.3780045,-525.46743745559,2557826.8267611,31.450375037504,0,0
-183.65146735287,-146.43101143471,26.254805480548,1261054.3780045,-525.46743745559,2557826.8267611,31.454805480548,0,0
-183.65146725368,-146.45983433936,26.259235923592,1261054.3780045,-525.46743745559,2557826.8267611,31.459235923592,0,0
-183.65146715449,-146.48865724401,26.263666366637,1261054.3780045,-525.46743745559,2557826.8267611,31.463666366637,0,0
-183.6514670553,-146.51748014866,26.268096809681,1261054.3780045,-525.46743745559,2557826.8267611,31.468096809681,0,0
-183.65146695612,-146.54630305331,26.272527252725,1261054.3780045,-525.46743745559,2557826.8267611,31.472527252725,0,0
-183.65146685693,-146.57512595796,26.27695769577,1261054.3780045,-525.46743745559,2557826.8267611,31.47695769577,0,0
-183.65146675774,-146.60394886261,26.281388138814,1261054.3780045,-525.46743745559,2557826.8267611,31.481388138814,0,0
-183.65146665855,-146.63277176726,26.285818581858,1261054.3780045,-525.46743745559,2557826.8267611,31.485818581858,0,0
-183.65146655936,-146.66159467191,26.290249024902,1261054.3780045,-525.46743745559,2557826.8267611,31.490249024902,0,0
-183.65146646018,-146.69041757656,26.294679467947,1261054.3780045,-525.46743745559,2557826.8267611,31.494679467947,0,0
-183.65146636099,-146.71924048121,26.299109910991,1261054.3780045,-525.46743745559,2557826.8267611,31.499109910991,0,0
-183.6514662618,-146.74806338586,26.303540354035,1261054.3780045,-525.46743745559,2557826.8267611,31.503540354035,0,0
-183.65146616261,-146.77688629051,26.30797079708,1261054.3780045,-525.46743745559,2557826.8267611,31.50797079708,0,0
-183.65146606342,-146.80570919516,26.312401240124,1261054.3780045,-525.46743745559,2557826.8267611,31.512401240124,0,0
-183.65146596424,-146.83453209981,26.316831683168,1261054.3780045,-525.46743745559,2557826.8267611,31.516831683168,0,0
-183.65146586505,-146.86335500446,26.321262126213,1261054.3780045,-525.46743745559,2557826.8267611,31.521262126213,0,0
-183.65146576586,-146.89217790911,26.325692569257,1261054.3780045,-525.46743745559,2557826.8267611,31.525692569257,0,0
-183.65146566667,-146.92100081376,26.330123012301,1261054.3780045,-525.46743745559,2557826.8267611,31.530123012301,0,0
-183.65146556748,-146.94982371841,26.334553455346,1261054.3780045,-525.46743745559,2557826.8267611,31.534553455346,0,0
-183.6514654683,-146.97864662306,26.33898389839,1261054.3780045,-525.46743745559,2557826.8267611,31.53898389839,0,0
-183.65146536911,-147.00746952771,26.343414341434,1261054.3780045,-525.46743745559,2557826.8267611,31.543414341434,0,0
-183.65146526992,-147.03629243236,26.347844784478,1261054.3780045,-525.46743745559,2557826.8267611,31.547844784478,0,0
-183.65146517073,-147.06511533701,26.352275227523,1261054.3780045,-525.46743745559,2557826.8267611,31.552275227523,0,0
-183.65146507154,-147.09393824166,26.356705670567,1261054.3780045,-525.46743745559,2557826.8267611,31.556705670567,0,0
-183.65146497236,-147.12276114631,26.361136113611,1261054.3780045,-525.46743745559,2557826.8267611,31.561136113611,0,0
-183.65146487317,-147.15158405096,26.365566556656,1261054.3780045,-525.46743745559,2557826.8267611,31.565566556656,0,0
-183.65146477398,-147.18040695561,26.3699969997,1261054.3780045,-525.46743745559,2557826.8267611,31.5699969997,0,0
-183.65146467479,-147.20922986026,26.374427442744,1261054.3780045,-525.46743745559,2557826.8267611,31.574427442744,0,0
-183.6514645756,-147.23805276491,26.378857885789,1261054.3780045,-525.46743745559,2557826.8267611,31.578857885789,0,0
-183.65146447642,-147.26687566956,26.383288328833,1261054.3780045,-525.46743745559,2557826.8267611,31.583288328833,0,0
-183.65146437723,-147.29569857421,26.387718771877,1261054.3780045,-525.46743745559,2557826.8267611,31.587718771877,0,0
-183.65146427804,-147.32452147886,26.392149214921,1261054.3780045,-525.46743745559,2557826.8267611,31.592149214921,0,0
-183.65146417885,-147.35334438351,26.396579657966,1261054.3780045,-525.46743745559,2557826.8267611,31.596579657966,0,0
-183.65146407966,-147.38216728817,26.40101010101,1261054.3780045,-525.46743745559,2557826.8267611,31.60101010101,0,0
-183.65146398048,-147.41099019282,26.405440544054,1261054.3780045,-525.46743745559,2557826.8267611,31.605440544054,0,0
-183.65146388129,-147.43981309747,26.409870987099,1261054.3780045,-525.46743745559,2557826.8267611,31.609870987099,0,0
-183.6514637821,-147.46863600212,26.414301430143,1261054.3780045,-525.46743745559,2557826.8267611,31.614301430143,0,0
-183.65146368291,-147.49745890677,26.418731873187,1261054.3780045,-525.46743745559,2557826.8267611,31.618731873187,0,0
-183.65146358372,-147.52628181142,26.423162316232,1261054.3780045,-525.46743745559,2557826.8267611,31.623162316232,0,0
-183.65146348454,-147.55510471607,26.427592759276,1261054.3780045,-525.46743745559,2557826.8267611,31.627592759276,0,0
-183.65146338535,-147.58392762072,26.43202320232,1261054.3780045,-525.46743745559,2557826.8267611,31.63202320232,0,0
-183.65146328616,-147.61275052537,26.436453645365,1261054.3780045,-525.46743745559,2557826.8267611,31.636453645365,0,0
-183.65146318697,-147.64157343002,26.440884088409,1261054.3780045,-525.46743745559,2557826.8267611,31.640884088409,0,0
-183.65146308778,-147.67039633467,26.445314531453,1261054.3780045,-525.46743745559,2557826.8267611,31.645314531453,0,0
-183.6514629886,-147.69921923932,26.449744974497,1261054.3780045,-525.46743745559,2557826.8267611,31.649744974497,0,0
-183.65146288941,-147.72804214397,26.454175417542,1261054.3780045,-525.46743745559,2557826.8267611,31.654175417542,0,0
-183.65146279022,-147.75686504862,26.458605860586,1261054.3780045,-525.46743745559,2557826.8267611,31.658605860586,0,0
-183.65146269103,-147.78568795327,26.46303630363,1261054.3780045,-525.46743745559,2557826.8267611,31.66303630363,0,0
-183.65146259184,-147.81451085792,26.467466746675,1261054.3780045,-525.46743745559,2557826.8267611,31.667466746675,0,0
-183.65146249266,-147.84333376257,26.471897189719,1261054.3780045,-525.46743745559,2557826.8267611,31.671897189719,0,0
-183.65146239347,-147.87215666722,26.476327632763,1261054.3780045,-525.46743745559,2557826.8267611,31.676327632763,0,0
-183.65146229428,-147.90097957187,26.480758075808,1261054.3780045,-525.46743745559,2557826.8267611,31.680758075808,0,0
-183.65146219509,-147.92980247652,26.485188518852,1261054.3780045,-525.46743745559,2557826.8267611,31.685188518852,0,0
-183.6514620959,-147.95862538117,26.489618961896,1261054.3780045,-525.46743745559,2557826.8267611,31.689618961896,0,0
-183.65146199671,-147.98744828582,26.49404940494,1261054.3780045,-525.46743745559,2557826.8267611,31.69404940494,0,0
-183.65146189753,-148.01627119047,26.498479847985,1261054.3780045,-525.46743745559,2557826.8267611,31.698479847985,0,0
-183.65146179834,-148.04509409512,26.502910291029,1261054.3780045,-525.46743745559,2557826.8267611,31.702910291029,0,0
-183.65146169915,-148.07391699977,26.507340734073,1261054.3780045,-525.46743745559,2557826.8267611,31.707340734073,0,0
-183.65146159996,-148.10273990442,26.511771177118,1261054.3780045,-525.46743745559,2557826.8267611,31.711771177118,0,0
-183.65146150077,-148.13156280907,26.516201620162,1261054.3780045,-525.46743745559,2557826.8267611,31.716201620162,0,0
-183.65146140159,-148.16038571372,26.520632063206,1261054.3780045,-525.46743745559,2557826.8267611,31.720632063206,0,0
-183.6514613024,-148.18920861837,26.525062506251,1261054.3780045,-525.46743745559,2557826.8267611,31.725062506251,0,0
-183.65146120321,-148.21803152302,26.529492949295,1261054.3780045,-525.46743745559,2557826.8267611,31.729492949295,0,0
-183.65146110402,-148.24685442767,26.533923392339,1261054.3780045,-525.46743745559,2557826.8267611,31.733923392339,0,0
-183.65146100483,-148.27567733232,26.538353835384,1261054.3780045,-525.46743745559,2557826.8267611,31.738353835384,0,0
-183.65146090565,-148.30450023697,26.542784278428,1261054.3780045,-525.46743745559,2557826.8267611,31.742784278428,0,0
-183.65146080646,-148.33332314162,26.547214721472,1261054.3780045,-525.46743745559,2557826.8267611,31.747214721472,0,0
-183.65146070727,-148.36214604627,26.551645164516,1261054.3780045,-525.46743745559,2557826.8267611,31.751645164516,0,0
-183.65146060808,-148.39096895092,26.556075607561,1261054.3780045,-525.46743745559,2557826.8267611,31.756075607561,0,0
-183.65146050889,-148.41979185557,26.560506050605,1261054.3780045,-525.46743745559,2557826.8267611,31.760506050605,0,0
-183.65146040971,-148.44861476022,26.564936493649,1261054.3780045,-525.46743745559,2557826.8267611,31.764936493649,0,0
-183.65146031052,-148.47743766487,26.569366936694,1261054.3780045,-525.46743745559,2557826.8267611,31.769366936694,0,0
-183.65146021133,-148.50626056952,26.573797379738,1261054.3780045,-525.46743745559,2557826.8267611,31.773797379738,0,0
-183.65146011214,-148.53508347417,26.578227822782,1261054.3780045,-525.46743745559,2557826.8267611,31.778227822782,0,0
-183.65146001295,-148.56390637882,26.582658265827,1261054.3780045,-525.46743745559,2557826.8267611,31.782658265827,0,0
-183.65145991377,-148.59272928347,26.587088708871,1261054.3780045,-525.46743745559,2557826.8267611,31.787088708871,0,0
-183.65145981458,-148.62155218812,26.591519151915,1261054.3780045,-525.46743745559,2557826.8267611,31.791519151915,0,0
-183.65145971539,-148.65037509277,26.595949594959,1261054.3780045,-525.46743745559,2557826.8267611,31.795949594959,0,0
-183.6514596162,-148.67919799742,26.600380038004,1261054.3780045,-525.46743745559,2557826.8267611,31.800380038004,0,0
-183.65145951701,-148.70802090207,26.604810481048,1261054.3780045,-525.46743745559,2557826.8267611,31.804810481048,0,0
-183.65145941783,-148.73684380672,26.609240924092,1261054.3780045,-525.46743745559,2557826.8267611,31.809240924092,0,0
-183.65145931864,-148.76566671137,26.613671367137,1261054.3780045,-525.46743745559,2557826.8267611,31.813671367137,0,0
-183.65145921945,-148.79448961602,26.618101810181,1261054.3780045,-525.46743745559,2557826.8267611,31.818101810181,0,0
-183.65145912026,-148.82331252067,26.622532253225,1261054.3780045,-525.46743745559,2557826.8267611,31.822532253225,0,0
-183.65145902107,-148.85213542532,26.62696269627,1261054.3780045,-525.46743745559,2557826.8267611,31.82696269627,0,0
-183.65145892189,-148.88095832997,26.631393139314,1261054.3780045,-525.46743745559,2557826.8267611,31.831393139314,0,0
-183.6514588227,-148.90978123462,26.635823582358,1261054.3780045,-525.46743745559,2557826.8267611,31.835823582358,0,0
-183.65145872351,-148.93860413927,26.640254025403,1261054.3780045,-525.46743745559,2557826.8267611,31.840254025403,0,0
-183.65145862432,-148.96742704392,26.644684468447,1261054.3780045,-525.46743745559,2557826.8267611,31.844684468447,0,0
-183.65145852513,-148.99624994857,26.649114911491,1261054.3780045,-525.46743745559,2557826.8267611,31.849114911491,0,0
-183.65145842595,-149.02507285322,26.653545354535,1261054.3780045,-525.46743745559,2557826.8267611,31.853545354535,0,0
-183.65145832676,-149.05389575787,26.65797579758,1261054.3780045,-525.46743745559,2557826.8267611,31.85797579758,0,0
-183.65145822757,-149.08271866252,26.662406240624,1261054.3780045,-525.46743745559,2557826.8267611,31.862406240624,0,0
-183.65145812838,-149.11154156718,26.666836683668,1261054.3780045,-525.46743745559,2557826.8267611,31.866836683668,0,0
-183.65145802919,-149.14036447183,26.671267126713,1261054.3780045,-525.46743745559,2557826.8267611,31.871267126713,0,0
-183.65145793001,-149.16918737648,26.675697569757,1261054.3780045,-525.46743745559,2557826.8267611,31.875697569757,0,0
-183.65145783082,-149.19801028113,26.680128012801,1261054.3780045,-525.46743745559,2557826.8267611,31.880128012801,0,0
-183.65145773163,-149.22683318578,26.684558455846,1261054.3780045,-525.46743745559,2557826.8267611,31.884558455846,0,0
-183.65145763244,-149.25565609043,26.68898889889,1261054.3780045,-525.46743745559,2557826.8267611,31.88898889889,0,0
-183.65145753325,-149.28447899508,26.693419341934,1261054.3780045,-525.46743745559,2557826.8267611,31.893419341934,0,0
-183.65145743406,-149.31330189973,26.697849784978,1261054.3780045,-525.46743745559,2557826.8267611,31.897849784978,0,0
-183.65145733488,-149.34212480438,26.702280228023,1261054.3780045,-525.46743745559,2557826.8267611,31.902280228023,0,0
-183.65145723569,-149.37094770903,26.706710671067,1261054.3780045,-525.46743745559,2557826.8267611,31.906710671067,0,0
-183.6514571365,-149.39977061368,26.711141114111,1261054.3780045,-525.46743745559,2557826.8267611,31.911141114111,0,0
-183.65145703731,-149.42859351833,26.715571557156,1261054.3780045,-525.46743745559,2557826.8267611,31.915571557156,0,0
-183.65145693812,-149.45741642298,26.7200020002,1261054.3780045,-525.46743745559,2557826.8267611,31.9200020002,0,0
-183.65145683894,-149.48623932763,26.724432443244,1261054.3780045,-525.46743745559,2557826.8267611,31.924432443244,0,0
-183.65145673975,-149.51506223228,26.728862886289,1261054.3780045,-525.46743745559,2557826.8267611,31.928862886289,0,0
-183.65145664056,-149.54388513693,26.733293329333,1261054.3780045,-525.46743745559,2557826.8267611,31.933293329333,0,0
-183.65145654137,-149.57270804158,26.737723772377,1261054.3780045,-525.46743745559,2557826.8267611,31.937723772377,0,0
-183.65145644218,-149.60153094623,26.742154215422,1261054.3780045,-525.46743745559,2557826.8267611,31.942154215422,0,0
-183.651456343,-149.63035385088,26.746584658466,1261054.3780045,-525.46743745559,2557826.8267611,31.946584658466,0,0
-183.65145624381,-149.65917675553,26.75101510151,1261054.3780045,-525.46743745559,2557826.8267611,31.95101510151,0,0
-183.65145614462,-149.68799966018,26.755445544554,1261054.3780045,-525.46743745559,2557826.8267611,31.955445544554,0,0
-183.65145604543,-149.71682256483,26.759875987599,1261054.3780045,-525.46743745559,2557826.8267611,31.959875987599,0,0
-183.65145594624,-149.74564546948,26.764306430643,1261054.3780045,-525.46743745559,2557826.8267611,31.964306430643,0,0
-183.65145584706,-149.77446837413,26.768736873687,1261054.3780045,-525.46743745559,2557826.8267611,31.968736873687,0,0
-183.65145574787,-149.80329127878,26.773167316732,1261054.3780045,-525.46743745559,2557826.8267611,31.973167316732,0,0
-183.65145564868,-149.83211418343,26.777597759776,1261054.3780045,-525.46743745559,2557826.8267611,31.977597759776,0,0
-183.65145554949,-149.86093708808,26.78202820282,1261054.3780045,-525.46743745559,2557826.8267611,31.98202820282,0,0
-183.6514554503,-149.88975999273,26.786458645865,1261054.3780045,-525.46743745559,2557826.8267611,31.986458645865,0,0
-183.65145535112,-149.91858289738,26.790889088909,1261054.3780045,-525.46743745559,2557826.8267611,31.990889088909,0,0
-183.65145525193,-149.94740580203,26.795319531953,1261054.3780045,-525.46743745559,2557826.8267611,31.995319531953,0,0
-183.65145515274,-149.97622870668,26.799749974997,1261054.3780045,-525.46743745559,2557826.8267611,31.999749974997,0,0
-183.65145505355,-150.00505161133,26.804180418042,1261054.3780045,-525.46743745559,2557826.8267611,32.004180418042,0,0
-183.65145495436,-150.03387451598,26.808610861086,1261054.3780045,-525.46743745559,2557826.8267611,32.008610861086,0,0
-183.65145485518,-150.06269742063,26.81304130413,1261054.3780045,-525.46743745559,2557826.8267611,32.01304130413,0,0
-183.65145475599,-150.09152032528,26.817471747175,1261054.3780045,-525.46743745559,2557826.8267611,32.017471747175,0,0
-183.6514546568,-150.12034322993,26.821902190219,1261054.3780045,-525.46743745559,2557826.8267611,32.021902190219,0,0
-183.65145455761,-150.14916613458,26.826332633263,1261054.3780045,-525.46743745559,2557826.8267611,32.026332633263,0,0
-183.65145445842,-150.17798903923,26.830763076308,1261054.3780045,-525.46743745559,2557826.8267611,32.030763076308,0,0
-183.65145435924,-150.20681194388,26.835193519352,1261054.3780045,-525.46743745559,2557826.8267611,32.035193519352,0,0
-183.65145426005,-150.23563484853,26.839623962396,1261054.3780045,-525.46743745559,2557826.8267611,32.039623962396,0,0
-183.65145416086,-150.26445775318,26.844054405441,1261054.3780045,-525.46743745559,2557826.8267611,32.044054405441,0,0
-183.65145406167,-150.29328065783,26.848484848485,1261054.3780045,-525.46743745559,2557826.8267611,32.048484848485,0,0
-183.65145396248,-150.32210356248,26.852915291529,1261054.3780045,-525.46743745559,2557826.8267611,32.052915291529,0,0
-183.6514538633,-150.35092646713,26.857345734573,1261054.3780045,-525.46743745559,2557826.8267611,32.057345734573,0,0
-183.65145376411,-150.37974937178,26.861776177618,1261054.3780045,-525.46743745559,2557826.8267611,32.061776177618,0,0
-183.65145366492,-150.40857227643,26.866206620662,1261054.3780045,-525.46743745559,2557826.8267611,32.066206620662,0,0
-183.65145356573,-150.43739518108,26.870637063706,1261054.3780045,-525.46743745559,2557826.8267611,32.070637063706,0,0
-183.65145346654,-150.46621808573,26.875067506751,1261054.3780045,-525.46743745559,2557826.8267611,32.075067506751,0,0
-183.65145336736,-150.49504099038,26.879497949795,1261054.3780045,-525.46743745559,2557826.8267611,32.079497949795,0,0
-183.65145326817,-150.52386389503,26.883928392839,1261054.3780045,-525.46743745559,2557826.8267611,32.083928392839,0,0
-183.65145316898,-150.55268679968,26.888358835884,1261054.3780045,-525.46743745559,2557826.8267611,32.088358835884,0,0
-183.65145306979,-150.58150970433,26.892789278928,1261054.3780045,-525.46743745559,2557826.8267611,32.092789278928,0,0
-183.6514529706,-150.61033260898,26.897219721972,1261054.3780045,-525.46743745559,2557826.8267611,32.097219721972,0,0
-183.65145287141,-150.63915551363,26.901650165017,1261054.3780045,-525.46743745559,2557826.8267611,32.101650165017,0,0
-183.65145277223,-150.66797841828,26.906080608061,1261054.3780045,-525.46743745559,2557826.8267611,32.106080608061,0,0
-183.65145267304,-150.69680132293,26.910511051105,1261054.3780045,-525.46743745559,2557826.8267611,32.110511051105,0,0
-183.65145257385,-150.72562422758,26.914941494149,1261054.3780045,-525.46743745559,2557826.8267611,32.114941494149,0,0
-183.65145247466,-150.75444713223,26.919371937194,1261054.3780045,-525.46743745559,2557826.8267611,32.119371937194,0,0
-183.65145237547,-150.78327003688,26.923802380238,1261054.3780045,-525.46743745559,2557826.8267611,32.123802380238,0,0
-183.65145227629,-150.81209294154,26.928232823282,1261054.3780045,-525.46743745559,2557826.8267611,32.128232823282,0,0
-183.6514521771,-150.84091584619,26.932663266327,1261054.3780045,-525.46743745559,2557826.8267611,32.132663266327,0,0
-183.65145207791,-150.86973875084,26.937093709371,1261054.3780045,-525.46743745559,2557826.8267611,32.137093709371,0,0
-183.65145197872,-150.89856165549,26.941524152415,1261054.3780045,-525.46743745559,2557826.8267611,32.141524152415,0,0
-183.65145187953,-150.92738456014,26.94595459546,1261054.3780045,-525.46743745559,2557826.8267611,32.14595459546,0,0
-183.65145178035,-150.95620746479,26.950385038504,1261054.3780045,-525.46743745559,2557826.8267611,32.150385038504,0,0
-183.65145168116,-150.98503036944,26.954815481548,1261054.3780045,-525.46743745559,2557826.8267611,32.154815481548,0,0
-183.65145158197,-151.01385327409,26.959245924592,1261054.3780045,-525.46743745559,2557826.8267611,32.159245924592,0,0
-183.65145148278,-151.04267617874,26.963676367637,1261054.3780045,-525.46743745559,2557826.8267611,32.163676367637,0,0
-183.65145138359,-151.07149908339,26.968106810681,1261054.3780045,-525.46743745559,2557826.8267611,32.168106810681,0,0
-183.65145128441,-151.10032198804,26.972537253725,1261054.3780045,-525.46743745559,2557826.8267611,32.172537253725,0,0
-183.65145118522,-151.12914489269,26.97696769677,1261054.3780045,-525.46743745559,2557826.8267611,32.17696769677,0,0
-183.65145108603,-151.15796779734,26.981398139814,1261054.3780045,-525.46743745559,2557826.8267611,32.181398139814,0,0
-183.65145098684,-151.18679070199,26.985828582858,1261054.3780045,-525.46743745559,2557826.8267611,32.185828582858,0,0
-183.65145088765,-151.21561360664,26.990259025903,1261054.3780045,-525.46743745559,2557826.8267611,32.190259025903,0,0
-183.65145078847,-151.24443651129,26.994689468947,1261054.3780045,-525.46743745559,2557826.8267611,32.194689468947,0,0
-183.65145068928,-151.27325941594,26.999119911991,1261054.3780045,-525.46743745559,2557826.8267611,32.199119911991,0,0
-183.65145059009,-151.30208232059,27.003550355036,1261054.3780045,-525.46743745559,2557826.8267611,32.203550355036,0,0
-183.6514504909,-151.33090522524,27.00798079808,1261054.3780045,-525.46743745559,2557826.8267611,32.20798079808,0,0
-183.65145039171,-151.35972812989,27.012411241124,1261054.3780045,-525.46743745559,2557826.8267611,32.212411241124,0,0
-183.65145029253,-151.38855103454,27.016841684168,1261054.3780045,-525.46743745559,2557826.8267611,32.216841684168,0,0
-183.65145019334,-151.41737393919,27.021272127213,1261054.3780045,-525.46743745559,2557826.8267611,32.221272127213,0,0
-183.65145009415,-151.44619684384,27.025702570257,1261054.3780045,-525.46743745559,2557826.8267611,32.225702570257,0,0
-183.65144999496,-151.47501974849,27.030133013301,1261054.3780045,-525.46743745559,2557826.8267611,32.230133013301,0,0
-183.65144989577,-151.50384265314,27.034563456346,1261054.3780045,-525.46743745559,2557826.8267611,32.234563456346,0,0
-183.65144979659,-151.53266555779,27.03899389939,1261054.3780045,-525.46743745559,2557826.8267611,32.23899389939,0,0
-183.6514496974,-151.56148846244,27.043424342434,1261054.3780045,-525.46743745559,2557826.8267611,32.243424342434,0,0
-183.65144959821,-151.59031136709,27.047854785479,1261054.3780045,-525.46743745559,2557826.8267611,32.247854785479,0,0
-183.65144949902,-151.61913427174,27.052285228523,1261054.3780045,-525.46743745559,2557826.8267611,32.252285228523,0,0
-183.65144939983,-151.64795717639,27.056715671567,1261054.3780045,-525.46743745559,2557826.8267611,32.256715671567,0,0
-183.65144930065,-151.67678008104,27.061146114611,1261054.3780045,-525.46743745559,2557826.8267611,32.261146114611,0,0
-183.65144920146,-151.70560298569,27.065576557656,1261054.3780045,-525.46743745559,2557826.8267611,32.265576557656,0,0
-183.65144910227,-151.73442589034,27.0700070007,1261054.3780045,-525.46743745559,2557826.8267611,32.2700070007,0,0
-183.65144900308,-151.76324879499,27.074437443744,1261054.3780045,-525.46743745559,2557826.8267611,32.274437443744,0,0
-183.65144890389,-151.79207169964,27.078867886789,1261054.3780045,-525.46743745559,2557826.8267611,32.278867886789,0,0
-183.65144880471,-151.82089460429,27.083298329833,1261054.3780045,-525.46743745559,2557826.8267611,32.283298329833,0,0
-183.65144870552,-151.84971750894,27.087728772877,1261054.3780045,-525.46743745559,2557826.8267611,32.287728772877,0,0
-183.65144860633,-151.87854041359,27.092159215922,1261054.3780045,-525.46743745559,2557826.8267611,32.292159215922,0,0
-183.65144850714,-151.90736331824,27.096589658966,1261054.3780045,-525.46743745559,2557826.8267611,32.296589658966,0,0
-183.65144840795,-151.93618622289,27.10102010201,1261054.3780045,-525.46743745559,2557826.8267611,32.30102010201,0,0
-183.65144830876,-151.96500912754,27.105450545055,1261054.3780045,-525.46743745559,2557826.8267611,32.305450545055,0,0
-183.65144820958,-151.99383203219,27.109880988099,1261054.3780045,-525.46743745559,2557826.8267611,32.309880988099,0,0
-183.65144811039,-152.02265493684,27.114311431143,1261054.3780045,-525.46743745559,2557826.8267611,32.314311431143,0,0
-183.6514480112,-152.05147784149,27.118741874187,1261054.3780045,-525.46743745559,2557826.8267611,32.318741874187,0,0
-183.65144791201,-152.08030074614,27.123172317232,1261054.3780045,-525.46743745559,2557826.8267611,32.323172317232,0,0
-183.65144781282,-152.10912365079,27.127602760276,1261054.3780045,-525.46743745559,2557826.8267611,32.327602760276,0,0
-183.65144771364,-152.13794655544,27.13203320332,1261054.3780045,-525.46743745559,2557826.8267611,32.33203320332,0,0
-183.65144761445,-152.16676946009,27.136463646365,1261054.3780045,-525.46743745559,2557826.8267611,32.336463646365,0,0
-183.65144751526,-152.19559236474,27.140894089409,1261054.3780045,-525.46743745559,2557826.8267611,32.340894089409,0,0
-183.65144741607,-152.22441526939,27.145324532453,1261054.3780045,-525.46743745559,2557826.8267611,32.345324532453,0,0
-183.65144731688,-152.25323817404,27.149754975498,1261054.3780045,-525.46743745559,2557826.8267611,32.349754975498,0,0
-183.6514472177,-152.28206107869,27.154185418542,1261054.3780045,-525.46743745559,2557826.8267611,32.354185418542,0,0
-183.65144711851,-152.31088398334,27.158615861586,1261054.3780045,-525.46743745559,2557826.8267611,32.358615861586,0,0
-183.65144701932,-152.33970688799,27.16304630463,1261054.3780045,-525.46743745559,2557826.8267611,32.36304630463,0,0
-183.65144692013,-152.36852979264,27.167476747675,1261054.3780045,-525.46743745559,2557826.8267611,32.367476747675,0,0
-183.65144682094,-152.39735269729,27.171907190719,1261054.3780045,-525.46743745559,2557826.8267611,32.371907190719,0,0
-183.65144672176,-152.42617560194,27.176337633763,1261054.3780045,-525.46743745559,2557826.8267611,32.376337633763,0,0
-183.65144662257,-152.45499850659,27.180768076808,1261054.3780045,-525.46743745559,2557826.8267611,32.380768076808,0,0
-183.65144652338,-152.48382141124,27.185198519852,1261054.3780045,-525.46743745559,2557826.8267611,32.385198519852,0,0
-183.65144642419,-152.5126443159,27.189628962896,1261054.3780045,-525.46743745559,2557826.8267611,32.389628962896,0,0
-183.651446325,-152.54146722055,27.194059405941,1261054.3780045,-525.46743745559,2557826.8267611,32.394059405941,0,0
-183.65144622582,-152.5702901252,27.198489848985,1261054.3780045,-525.46743745559,2557826.8267611,32.398489848985,0,0
-183.65144612663,-152.59911302985,27.202920292029,1261054.3780045,-525.46743745559,2557826.8267611,32.402920292029,0,0
-183.65144602744,-152.6279359345,27.207350735074,1261054.3780045,-525.46743745559,2557826.8267611,32.407350735074,0,0
-183.65144592825,-152.65675883915,27.211781178118,1261054.3780045,-525.46743745559,2557826.8267611,32.411781178118,0,0
-183.65144582906,-152.6855817438,27.216211621162,1261054.3780045,-525.46743745559,2557826.8267611,32.416211621162,0,0
-183.65144572988,-152.71440464845,27.220642064206,1261054.3780045,-525.46743745559,2557826.8267611,32.420642064206,0,0
-183.65144563069,-152.7432275531,27.225072507251,1261054.3780045,-525.46743745559,2557826.8267611,32.425072507251,0,0
-183.6514455315,-152.77205045775,27.229502950295,1261054.3780045,-525.46743745559,2557826.8267611,32.429502950295,0,0
-183.65144543231,-152.8008733624,27.233933393339,1261054.3780045,-525.46743745559,2557826.8267611,32.433933393339,0,0
-183.65144533312,-152.82969626705,27.238363836384,1261054.3780045,-525.46743745559,2557826.8267611,32.438363836384,0,0
-183.65144523394,-152.8585191717,27.242794279428,1261054.3780045,-525.46743745559,2557826.8267611,32.442794279428,0,0
-183.65144513475,-152.88734207635,27.247224722472,1261054.3780045,-525.46743745559,2557826.8267611,32.447224722472,0,0
-183.65144503556,-152.916164981,27.251655165517,1261054.3780045,-525.46743745559,2557826.8267611,32.451655165517,0,0
-183.65144493637,-152.94498788565,27.256085608561,1261054.3780045,-525.46743745559,2557826.8267611,32.456085608561,0,0
-183.65144483718,-152.9738107903,27.260516051605,1261054.3780045,-525.46743745559,2557826.8267611,32.460516051605,0,0
-183.651444738,-153.00263369495,27.264946494649,1261054.3780045,-525.46743745559,2557826.8267611,32.464946494649,0,0
-183.65144463881,-153.0314565996,27.269376937694,1261054.3780045,-525.46743745559,2557826.8267611,32.469376937694,0,0
-183.65144453962,-153.06027950425,27.273807380738,1261054.3780045,-525.46743745559,2557826.8267611,32.473807380738,0,0
-183.65144444043,-153.0891024089,27.278237823782,1261054.3780045,-525.46743745559,2557826.8267611,32.478237823782,0,0
-183.65144434124,-153.11792531355,27.282668266827,1261054.3780045,-525.46743745559,2557826.8267611,32.482668266827,0,0
-183.65144424206,-153.1467482182,27.287098709871,1261054.3780045,-525.46743745559,2557826.8267611,32.487098709871,0,0
-183.65144414287,-153.17557112285,27.291529152915,1261054.3780045,-525.46743745559,2557826.8267611,32.491529152915,0,0
-183.65144404368,-153.2043940275,27.29595959596,1261054.3780045,-525.46743745559,2557826.8267611,32.49595959596,0,0
-183.65144394449,-153.23321693215,27.300390039004,1261054.3780045,-525.46743745559,2557826.8267611,32.500390039004,0,0
-183.6514438453,-153.2620398368,27.304820482048,1261054.3780045,-525.46743745559,2557826.8267611,32.504820482048,0,0
-183.65144374611,-153.29086274145,27.309250925093,1261054.3780045,-525.46743745559,2557826.8267611,32.509250925093,0,0
-183.65144364693,-153.3196856461,27.313681368137,1261054.3780045,-525.46743745559,2557826.8267611,32.513681368137,0,0
-183.65144354774,-153.34850855075,27.318111811181,1261054.3780045,-525.46743745559,2557826.8267611,32.518111811181,0,0
-183.65144344855,-153.3773314554,27.322542254225,1261054.3780045,-525.46743745559,2557826.8267611,32.522542254225,0,0
-183.65144334936,-153.40615436005,27.32697269727,1261054.3780045,-525.46743745559,2557826.8267611,32.52697269727,0,0
-183.65144325017,-153.4349772647,27.331403140314,1261054.3780045,-525.46743745559,2557826.8267611,32.531403140314,0,0
-183.65144315099,-153.46380016935,27.335833583358,1261054.3780045,-525.46743745559,2557826.8267611,32.535833583358,0,0
-183.6514430518,-153.492623074,27.340264026403,1261054.3780045,-525.46743745559,2557826.8267611,32.540264026403,0,0
-183.65144295261,-153.52144597865,27.344694469447,1261054.3780045,-525.46743745559,2557826.8267611,32.544694469447,0,0
-183.65144285342,-153.5502688833,27.349124912491,1261054.3780045,-525.46743745559,2557826.8267611,32.549124912491,0,0
-183.65144275423,-153.57909178795,27.353555355536,1261054.3780045,-525.46743745559,2557826.8267611,32.553555355536,0,0
-183.65144265505,-153.6079146926,27.35798579858,1261054.3780045,-525.46743745559,2557826.8267611,32.55798579858,0,0
-183.65144255586,-153.63673759725,27.362416241624,1261054.3780045,-525.46743745559,2557826.8267611,32.562416241624,0,0
-183.65144245667,-153.6655605019,27.366846684668,1261054.3780045,-525.46743745559,2557826.8267611,32.566846684668,0,0
-183.65144235748,-153.69438340655,27.371277127713,1261054.3780045,-525.46743745559,2557826.8267611,32.571277127713,0,0
-183.65144225829,-153.7232063112,27.375707570757,1261054.3780045,-525.46743745559,2557826.8267611,32.575707570757,0,0
-183.65144215911,-153.75202921585,27.380138013801,1261054.3780045,-525.46743745559,2557826.8267611,32.580138013801,0,0
-183.65144205992,-153.7808521205,27.384568456846,1261054.3780045,-525.46743745559,2557826.8267611,32.584568456846,0,0
-183.65144196073,-153.80967502515,27.38899889989,1261054.3780045,-525.46743745559,2557826.8267611,32.58899889989,0,0
-183.65144186154,-153.8384979298,27.393429342934,1261054.3780045,-525.46743745559,2557826.8267611,32.593429342934,0,0
-183.65144176235,-153.86732083445,27.397859785979,1261054.3780045,-525.46743745559,2557826.8267611,32.597859785979,0,0
-183.65144166317,-153.8961437391,27.402290229023,1261054.3780045,-525.46743745559,2557826.8267611,32.602290229023,0,0
-183.65144156398,-153.92496664375,27.406720672067,1261054.3780045,-525.46743745559,2557826.8267611,32.606720672067,0,0
-183.65144146479,-153.9537895484,27.411151115112,1261054.3780045,-525.46743745559,2557826.8267611,32.611151115112,0,0
-183.6514413656,-153.98261245305,27.415581558156,1261054.3780045,-525.46743745559,2557826.8267611,32.615581558156,0,0
-183.65144126641,-154.0114353577,27.4200120012,1261054.3780045,-525.46743745559,2557826.8267611,32.6200120012,0,0
-183.65144116723,-154.04025826235,27.424442444244,1261054.3780045,-525.46743745559,2557826.8267611,32.624442444244,0,0
-183.65144106804,-154.069081167,27.428872887289,1261054.3780045,-525.46743745559,2557826.8267611,32.628872887289,0,0
-183.65144096885,-154.09790407165,27.433303330333,1261054.3780045,-525.46743745559,2557826.8267611,32.633303330333,0,0
-183.65144086966,-154.1267269763,27.437733773377,1261054.3780045,-525.46743745559,2557826.8267611,32.637733773377,0,0
-183.65144077047,-154.15554988095,27.442164216422,1261054.3780045,-525.46743745559,2557826.8267611,32.642164216422,0,0
-183.65144067129,-154.1843727856,27.446594659466,1261054.3780045,-525.46743745559,2557826.8267611,32.646594659466,0,0
-183.6514405721,-154.21319569025,27.45102510251,1261054.3780045,-525.46743745559,2557826.8267611,32.65102510251,0,0
-183.65144047291,-154.24201859491,27.455455545555,1261054.3780045,-525.46743745559,2557826.8267611,32.655455545555,0,0
-183.65144037372,-154.27084149956,27.459885988599,1261054.3780045,-525.46743745559,2557826.8267611,32.659885988599,0,0
-183.65144027453,-154.29966440421,27.464316431643,1261054.3780045,-525.46743745559,2557826.8267611,32.664316431643,0,0
-183.65144017535,-154.32848730886,27.468746874687,1261054.3780045,-525.46743745559,2557826.8267611,32.668746874687,0,0
-183.65144007616,-154.35731021351,27.473177317732,1261054.3780045,-525.46743745559,2557826.8267611,32.673177317732,0,0
-183.65143997697,-154.38613311816,27.477607760776,1261054.3780045,-525.46743745559,2557826.8267611,32.677607760776,0,0
-183.65143987778,-154.41495602281,27.48203820382,1261054.3780045,-525.46743745559,2557826.8267611,32.68203820382,0,0
-183.65143977859,-154.44377892746,27.486468646865,1261054.3780045,-525.46743745559,2557826.8267611,32.686468646865,0,0
-183.65143967941,-154.47260183211,27.490899089909,1261054.3780045,-525.46743745559,2557826.8267611,32.690899089909,0,0
-183.65143958022,-154.50142473676,27.495329532953,1261054.3780045,-525.46743745559,2557826.8267611,32.695329532953,0,0
-183.65143948103,-154.53024764141,27.499759975998,1261054.3780045,-525.46743745559,2557826.8267611,32.699759975998,0,0
-183.65143938184,-154.55907054606,27.504190419042,1261054.3780045,-525.46743745559,2557826.8267611,32.704190419042,0,0
-183.65143928265,-154.58789345071,27.508620862086,1261054.3780045,-525.46743745559,2557826.8267611,32.708620862086,0,0
-183.65143918346,-154.61671635536,27.513051305131,1261054.3780045,-525.46743745559,2557826.8267611,32.713051305131,0,0
-183.65143908428,-154.64553926001,27.517481748175,1261054.3780045,-525.46743745559,2557826.8267611,32.717481748175,0,0
-183.65143898509,-154.67436216466,27.521912191219,1261054.3780045,-525.46743745559,2557826.8267611,32.721912191219,0,0
-183.6514388859,-154.70318506931,27.526342634263,1261054.3780045,-525.46743745559,2557826.8267611,32.726342634263,0,0
-183.65143878671,-154.73200797396,27.530773077308,1261054.3780045,-525.46743745559,2557826.8267611,32.730773077308,0,0
-183.65143868752,-154.76083087861,27.535203520352,1261054.3780045,-525.46743745559,2557826.8267611,32.735203520352,0,0
-183.65143858834,-154.78965378326,27.539633963396,1261054.3780045,-525.46743745559,2557826.8267611,32.739633963396,0,0
-183.65143848915,-154.81847668791,27.544064406441,1261054.3780045,-525.46743745559,2557826.8267611,32.744064406441,0,0
-183.65143839003,-154.8472995924,27.548494849485,1258581.4139061,1149.4495697661,2555748.0084149,32.748494849485,0,0
-183.65143829099,-154.87612249674,27.552925292529,1258581.4139061,1149.4495697661,2555748.0084149,32.752925292529,0,0
-183.65143819194,-154.90494540108,27.557355735574,1258581.4139061,1149.4495697661,2555748.0084149,32.757355735574,0,0
-183.65143809289,-154.93376830542,27.561786178618,1258581.4139061,1149.4495697661,2555748.0084149,32.761786178618,0,0
-183.65143799385,-154.96259120976,27.566216621662,1258581.4139061,1149.4495697661,2555748.0084149,32.766216621662,0,0
-183.6514378948,-154.9914141141,27.570647064706,1258581.4139061,1149.4495697661,2555748.0084149,32.770647064706,0,0
-183.65143779576,-155.02023701844,27.575077507751,1258581.4139061,1149.4495697661,2555748.0084149,32.775077507751,0,0
-183.65143769671,-155.04905992278,27.579507950795,1258581.4139061,1149.4495697661,2555748.0084149,32.779507950795,0,0
-183.65143759766,-155.07788282712,27.583938393839,1258581.4139061,1149.4495697661,2555748.0084149,32.783938393839,0,0
-183.65143749862,-155.10670573146,27.588368836884,1258581.4139061,1149.4495697661,2555748.0084149,32.788368836884,0,0
-183.65143739957,-155.1355286358,27.592799279928,1258581.4139061,1149.4495697661,2555748.0084149,32.792799279928,0,0
-183.65143730053,-155.16435154013,27.597229722972,1258581.4139061,1149.4495697661,2555748.0084149,32.797229722972,0,0
-183.65143720148,-155.19317444447,27.601660166017,1258581.4139061,1149.4495697661,2555748.0084149,32.801660166017,0,0
-183.65143710244,-155.22199734881,27.606090609061,1258581.4139061,1149.4495697661,2555748.0084149,32.806090609061,0,0
-183.65143700339,-155.25082025315,27.610521052105,1258581.4139061,1149.4495697661,2555748.0084149,32.810521052105,0,0
-183.65143690434,-155.27964315749,27.61495149515,1258581.4139061,1149.4495697661,2555748.0084149,32.81495149515,0,0
-183.6514368053,-155.30846606183,27.619381938194,1258581.4139061,1149.4495697661,2555748.0084149,32.819381938194,0,0
-183.65143670625,-155.33728896617,27.623812381238,1258581.4139061,1149.4495697661,2555748.0084149,32.823812381238,0,0
-183.65143660721,-155.36611187051,27.628242824282,1258581.4139061,1149.4495697661,2555748.0084149,32.828242824282,0,0
-183.65143650816,-155.39493477485,27.632673267327,1258581.4139061,1149.4495697661,2555748.0084149,32.832673267327,0,0
-183.65143640911,-155.42375767919,27.637103710371,1258581.4139061,1149.4495697661,2555748.0084149,32.837103710371,0,0
-183.65143631007,-155.45258058353,27.641534153415,1258581.4139061,1149.4495697661,2555748.0084149,32.841534153415,0,0
-183.65143621102,-155.48140348787,27.64596459646,1258581.4139061,1149.4495697661,2555748.0084149,32.84596459646,0,0
-183.65143611198,-155.51022639221,27.650395039504,1258581.4139061,1149.4495697661,2555748.0084149,32.850395039504,0,0
-183.65143601293,-155.53904929654,27.654825482548,1258581.4139061,1149.4495697661,2555748.0084149,32.854825482548,0,0
-183.65143591389,-155.56787220088,27.659255925593,1258581.4139061,1149.4495697661,2555748.0084149,32.859255925593,0,0
-183.65143581484,-155.59669510522,27.663686368637,1258581.4139061,1149.4495697661,2555748.0084149,32.863686368637,0,0
-183.65143571579,-155.62551800956,27.668116811681,1258581.4139061,1149.4495697661,2555748.0084149,32.868116811681,0,0
-183.65143561675,-155.6543409139,27.672547254725,1258581.4139061,1149.4495697661,2555748.0084149,32.872547254725,0,0
-183.6514355177,-155.68316381824,27.67697769777,1258581.4139061,1149.4495697661,2555748.0084149,32.87697769777,0,0
-183.65143541866,-155.71198672258,27.681408140814,1258581.4139061,1149.4495697661,2555748.0084149,32.881408140814,0,0
-183.65143531961,-155.74080962692,27.685838583858,1258581.4139061,1149.4495697661,2555748.0084149,32.885838583858,0,0
-183.65143522056,-155.76963253126,27.690269026903,1258581.4139061,1149.4495697661,2555748.0084149,32.890269026903,0,0
-183.65143512152,-155.7984554356,27.694699469947,1258581.4139061,1149.4495697661,2555748.0084149,32.894699469947,0,0
-183.65143502247,-155.82727833994,27.699129912991,1258581.4139061,1149.4495697661,2555748.0084149,32.899129912991,0,0
-183.65143492343,-155.85610124428,27.703560356036,1258581.4139061,1149.4495697661,2555748.0084149,32.903560356036,0,0
-183.65143482438,-155.88492414862,27.70799079908,1258581.4139061,1149.4495697661,2555748.0084149,32.90799079908,0,0
-183.65143472533,-155.91374705295,27.712421242124,1258581.4139061,1149.4495697661,2555748.0084149,32.912421242124,0,0
-183.65143462629,-155.94256995729,27.716851685169,1258581.4139061,1149.4495697661,2555748.0084149,32.916851685169,0,0
-183.65143452724,-155.97139286163,27.721282128213,1258581.4139061,1149.4495697661,2555748.0084149,32.921282128213,0,0
-183.6514344282,-156.00021576597,27.725712571257,1258581.4139061,1149.4495697661,2555748.0084149,32.925712571257,0,0
-183.65143432915,-156.02903867031,27.730143014301,1258581.4139061,1149.4495697661,2555748.0084149,32.930143014301,0,0
-183.65143423011,-156.05786157465,27.734573457346,1258581.4139061,1149.4495697661,2555748.0084149,32.934573457346,0,0
-183.65143413106,-156.08668447899,27.73900390039,1258581.4139061,1149.4495697661,2555748.0084149,32.93900390039,0,0
-183.65143403201,-156.11550738333,27.743434343434,1258581.4139061,1149.4495697661,2555748.0084149,32.943434343434,0,0
-183.65143393297,-156.14433028767,27.747864786479,1258581.4139061,1149.4495697661,2555748.0084149,32.947864786479,0,0
-183.65143383392,-156.17315319201,27.752295229523,1258581.4139061,1149.4495697661,2555748.0084149,32.952295229523,0,0
-183.65143373488,-156.20197609635,27.756725672567,1258581.4139061,1149.4495697661,2555748.0084149,32.956725672567,0,0
-183.65143363583,-156.23079900069,27.761156115612,1258581.4139061,1149.4495697661,2555748.0084149,32.961156115612,0,0
-183.65143353678,-156.25962190503,27.765586558656,1258581.4139061,1149.4495697661,2555748.0084149,32.965586558656,0,0
-183.65143343774,-156.28844480936,27.7700170017,1258581.4139061,1149.4495697661,2555748.0084149,32.9700170017,0,0
-183.65143333869,-156.3172677137,27.774447444744,1258581.4139061,1149.4495697661,2555748.0084149,32.974447444744,0,0
-183.65143323965,-156.34609061804,27.778877887789,1258581.4139061,1149.4495697661,2555748.0084149,32.978877887789,0,0
-183.6514331406,-156.37491352238,27.783308330833,1258581.4139061,1149.4495697661,2555748.0084149,32.983308330833,0,0
-183.65143304156,-156.40373642672,27.787738773877,1258581.4139061,1149.4495697661,2555748.0084149,32.987738773877,0,0
-183.65143294251,-156.43255933106,27.792169216922,1258581.4139061,1149.4495697661,2555748.0084149,32.992169216922,0,0
-183.65143284346,-156.4613822354,27.796599659966,1258581.4139061,1149.4495697661,2555748.0084149,32.996599659966,0,0
-183.65143274442,-156.49020513974,27.80103010301,1258581.4139061,1149.4495697661,2555748.0084149,33.00103010301,0,0
-183.65143264537,-156.51902804408,27.805460546055,1258581.4139061,1149.4495697661,2555748.0084149,33.005460546055,0,0
-183.65143254633,-156.54785094842,27.809890989099,1258581.4139061,1149.4495697661,2555748.0084149,33.009890989099,0,0
-183.65143244728,-156.57667385276,27.814321432143,1258581.4139061,1149.4495697661,2555748.0084149,33.014321432143,0,0
-183.65143234823,-156.6054967571,27.818751875188,1258581.4139061,1149.4495697661,2555748.0084149,33.018751875188,0,0
-183.65143224919,-156.63431966144,27.823182318232,1258581.4139061,1149.4495697661,2555748.0084149,33.023182318232,0,0
-183.65143215014,-156.66314256577,27.827612761276,1258581.4139061,1149.4495697661,2555748.0084149,33.027612761276,0,0
-183.6514320511,-156.69196547011,27.83204320432,1258581.4139061,1149.4495697661,2555748.0084149,33.03204320432,0,0
-183.65143195205,-156.72078837445,27.836473647365,1258581.4139061,1149.4495697661,2555748.0084149,33.036473647365,0,0
-183.651431853,-156.74961127879,27.840904090409,1258581.4139061,1149.4495697661,2555748.0084149,33.040904090409,0,0
-183.65143175396,-156.77843418313,27.845334533453,1258581.4139061,1149.4495697661,2555748.0084149,33.045334533453,0,0
-183.65143165491,-156.80725708747,27.849764976498,1258581.4139061,1149.4495697661,2555748.0084149,33.049764976498,0,0
-183.65143155587,-156.83607999181,27.854195419542,1258581.4139061,1149.4495697661,2555748.0084149,33.054195419542,0,0
-183.65143145682,-156.86490289615,27.858625862586,1258581.4139061,1149.4495697661,2555748.0084149,33.058625862586,0,0
-183.65143135778,-156.89372580049,27.863056305631,1258581.4139061,1149.4495697661,2555748.0084149,33.063056305631,0,0
-183.65143125873,-156.92254870483,27.867486748675,1258581.4139061,1149.4495697661,2555748.0084149,33.067486748675,0,0
-183.65143115968,-156.95137160917,27.871917191719,1258581.4139061,1149.4495697661,2555748.0084149,33.071917191719,0,0
-183.65143106064,-156.98019451351,27.876347634763,1258581.4139061,1149.4495697661,2555748.0084149,33.076347634763,0,0
-183.65143096159,-157.00901741785,27.880778077808,1258581.4139061,1149.4495697661,2555748.0084149,33.080778077808,0,0
-183.65143086255,-157.03784032218,27.885208520852,1258581.4139061,1149.4495697661,2555748.0084149,33.085208520852,0,0
-183.6514307635,-157.06666322652,27.889638963896,1258581.4139061,1149.4495697661,2555748.0084149,33.089638963896,0,0
-183.65143066445,-157.09548613086,27.894069406941,1258581.4139061,1149.4495697661,2555748.0084149,33.094069406941,0,0
-183.65143056541,-157.1243090352,27.898499849985,1258581.4139061,1149.4495697661,2555748.0084149,33.098499849985,0,0
-183.65143046636,-157.15313193954,27.902930293029,1258581.4139061,1149.4495697661,2555748.0084149,33.102930293029,0,0
-183.65143036732,-157.18195484388,27.907360736074,1258581.4139061,1149.4495697661,2555748.0084149,33.107360736074,0,0
-183.65143026827,-157.21077774822,27.911791179118,1258581.4139061,1149.4495697661,2555748.0084149,33.111791179118,0,0
-183.65143016923,-157.23960065256,27.916221622162,1258581.4139061,1149.4495697661,2555748.0084149,33.116221622162,0,0
-183.65143007018,-157.2684235569,27.920652065207,1258581.4139061,1149.4495697661,2555748.0084149,33.120652065207,0,0
-183.65142997113,-157.29724646124,27.925082508251,1258581.4139061,1149.4495697661,2555748.0084149,33.125082508251,0,0
-183.65142987209,-157.32606936558,27.929512951295,1258581.4139061,1149.4495697661,2555748.0084149,33.129512951295,0,0
-183.65142977304,-157.35489226992,27.933943394339,1258581.4139061,1149.4495697661,2555748.0084149,33.133943394339,0,0
-183.651429674,-157.38371517426,27.938373837384,1258581.4139061,1149.4495697661,2555748.0084149,33.138373837384,0,0
-183.65142957495,-157.41253807859,27.942804280428,1258581.4139061,1149.4495697661,2555748.0084149,33.142804280428,0,0
-183.6514294759,-157.44136098293,27.947234723472,1258581.4139061,1149.4495697661,2555748.0084149,33.147234723472,0,0
-183.65142937686,-157.47018388727,27.951665166517,1258581.4139061,1149.4495697661,2555748.0084149,33.151665166517,0,0
-183.65142927781,-157.49900679161,27.956095609561,1258581.4139061,1149.4495697661,2555748.0084149,33.156095609561,0,0
-183.65142917877,-157.52782969595,27.960526052605,1258581.4139061,1149.4495697661,2555748.0084149,33.160526052605,0,0
-183.65142907972,-157.55665260029,27.96495649565,1258581.4139061,1149.4495697661,2555748.0084149,33.16495649565,0,0
-183.65142898067,-157.58547550463,27.969386938694,1258581.4139061,1149.4495697661,2555748.0084149,33.169386938694,0,0
-183.65142888163,-157.61429840897,27.973817381738,1258581.4139061,1149.4495697661,2555748.0084149,33.173817381738,0,0
-183.65142878258,-157.64312131331,27.978247824782,1258581.4139061,1149.4495697661,2555748.0084149,33.178247824782,0,0
-183.65142868354,-157.67194421765,27.982678267827,1258581.4139061,1149.4495697661,2555748.0084149,33.182678267827,0,0
-183.65142858449,-157.70076712199,27.987108710871,1258581.4139061,1149.4495697661,2555748.0084149,33.187108710871,0,0
-183.65142848545,-157.72959002633,27.991539153915,1258581.4139061,1149.4495697661,2555748.0084149,33.191539153915,0,0
-183.6514283864,-157.75841293067,27.99596959696,1258581.4139061,1149.4495697661,2555748.0084149,33.19596959696,0,0
-183.65142828735,-157.787235835,28.000400040004,1258581.4139061,1149.4495697661,2555748.0084149,33.200400040004,0,0
-183.65142818831,-157.81605873934,28.004830483048,1258581.4139061,1149.4495697661,2555748.0084149,33.204830483048,0,0
-183.65142808926,-157.84488164368,28.009260926093,1258581.4139061,1149.4495697661,2555748.0084149,33.209260926093,0,0
-183.65142799022,-157.87370454802,28.013691369137,1258581.4139061,1149.4495697661,2555748.0084149,33.213691369137,0,0
-183.65142789117,-157.90252745236,28.018121812181,1258581.4139061,1149.4495697661,2555748.0084149,33.218121812181,0,0
-183.65142779212,-157.9313503567,28.022552255226,1258581.4139061,1149.4495697661,2555748.0084149,33.222552255226,0,0
-183.65142769308,-157.96017326104,28.02698269827,1258581.4139061,1149.4495697661,2555748.0084149,33.22698269827,0,0
-183.65142759403,-157.98899616538,28.031413141314,1258581.4139061,1149.4495697661,2555748.0084149,33.231413141314,0,0
-183.65142749499,-158.01781906972,28.035843584358,1258581.4139061,1149.4495697661,2555748.0084149,33.235843584358,0,0
-183.65142739594,-158.04664197406,28.040274027403,1258581.4139061,1149.4495697661,2555748.0084149,33.240274027403,0,0
-183.6514272969,-158.0754648784,28.044704470447,1258581.4139061,1149.4495697661,2555748.0084149,33.244704470447,0,0
-183.65142719785,-158.10428778274,28.049134913491,1258581.4139061,1149.4495697661,2555748.0084149,33.249134913491,0,0
-183.6514270988,-158.13311068708,28.053565356536,1258581.4139061,1149.4495697661,2555748.0084149,33.253565356536,0,0
-183.65142699976,-158.16193359141,28.05799579958,1258581.4139061,1149.4495697661,2555748.0084149,33.25799579958,0,0
-183.65142690071,-158.19075649575,28.062426242624,1258581.4139061,1149.4495697661,2555748.0084149,33.262426242624,0,0
-183.65142680167,-158.21957940009,28.066856685669,1258581.4139061,1149.4495697661,2555748.0084149,33.266856685669,0,0
-183.65142670262,-158.24840230443,28.071287128713,1258581.4139061,1149.4495697661,2555748.0084149,33.271287128713,0,0
-183.65142660357,-158.27722520877,28.075717571757,1258581.4139061,1149.4495697661,2555748.0084149,33.275717571757,0,0
-183.65142650453,-158.30604811311,28.080148014801,1258581.4139061,1149.4495697661,2555748.0084149,33.280148014801,0,0
-183.65142640548,-158.33487101745,28.084578457846,1258581.4139061,1149.4495697661,2555748.0084149,33.284578457846,0,0
-183.65142630644,-158.36369392179,28.08900890089,1258581.4139061,1149.4495697661,2555748.0084149,33.28900890089,0,0
-183.65142620739,-158.39251682613,28.093439343934,1258581.4139061,1149.4495697661,2555748.0084149,33.293439343934,0,0
-183.65142610834,-158.42133973047,28.097869786979,1258581.4139061,1149.4495697661,2555748.0084149,33.297869786979,0,0
-183.6514260093,-158.45016263481,28.102300230023,1258581.4139061,1149.4495697661,2555748.0084149,33.302300230023,0,0
-183.65142591025,-158.47898553915,28.106730673067,1258581.4139061,1149.4495697661,2555748.0084149,33.306730673067,0,0
-183.65142581121,-158.50780844349,28.111161116112,1258581.4139061,1149.4495697661,2555748.0084149,33.311161116112,0,0
-183.65142571216,-158.53663134782,28.115591559156,1258581.4139061,1149.4495697661,2555748.0084149,33.315591559156,0,0
-183.65142561312,-158.56545425216,28.1200220022,1258581.4139061,1149.4495697661,2555748.0084149,33.3200220022,0,0
-183.65142551407,-158.5942771565,28.124452445245,1258581.4139061,1149.4495697661,2555748.0084149,33.324452445245,0,0
-183.65142541502,-158.62310006084,28.128882888289,1258581.4139061,1149.4495697661,2555748.0084149,33.328882888289,0,0
-183.65142531598,-158.65192296518,28.133313331333,1258581.4139061,1149.4495697661,2555748.0084149,33.333313331333,0,0
-183.65142521693,-158.68074586952,28.137743774377,1258581.4139061,1149.4495697661,2555748.0084149,33.337743774377,0,0
-183.65142511789,-158.70956877386,28.142174217422,1258581.4139061,1149.4495697661,2555748.0084149,33.342174217422,0,0
-183.65142501884,-158.7383916782,28.146604660466,1258581.4139061,1149.4495697661,2555748.0084149,33.346604660466,0,0
-183.65142491979,-158.76721458254,28.15103510351,1258581.4139061,1149.4495697661,2555748.0084149,33.35103510351,0,0
-183.65142482075,-158.79603748688,28.155465546555,1258581.4139061,1149.4495697661,2555748.0084149,33.355465546555,0,0
-183.6514247217,-158.82486039122,28.159895989599,1258581.4139061,1149.4495697661,2555748.0084149,33.359895989599,0,0
-183.65142462266,-158.85368329556,28.164326432643,1258581.4139061,1149.4495697661,2555748.0084149,33.364326432643,0,0
-183.65142452361,-158.88250619989,28.168756875688,1258581.4139061,1149.4495697661,2555748.0084149,33.368756875688,0,0
-183.65142442457,-158.91132910423,28.173187318732,1258581.4139061,1149.4495697661,2555748.0084149,33.373187318732,0,0
-183.65142432552,-158.94015200857,28.177617761776,1258581.4139061,1149.4495697661,2555748.0084149,33.377617761776,0,0
-183.65142422647,-158.96897491291,28.18204820482,1258581.4139061,1149.4495697661,2555748.0084149,33.38204820482,0,0
-183.65142412743,-158.99779781725,28.186478647865,1258581.4139061,1149.4495697661,2555748.0084149,33.386478647865,0,0
-183.65142402838,-159.02662072159,28.190909090909,1258581.4139061,1149.4495697661,2555748.0084149,33.390909090909,0,0
-183.65142392934,-159.05544362593,28.195339533953,1258581.4139061,1149.4495697661,2555748.0084149,33.395339533953,0,0
-183.65142383029,-159.08426653027,28.199769976998,1258581.4139061,1149.4495697661,2555748.0084149,33.399769976998,0,0
-183.65142373124,-159.11308943461,28.204200420042,1258581.4139061,1149.4495697661,2555748.0084149,33.404200420042,0,0
-183.6514236322,-159.14191233895,28.208630863086,1258581.4139061,1149.4495697661,2555748.0084149,33.408630863086,0,0
-183.65142353315,-159.17073524329,28.213061306131,1258581.4139061,1149.4495697661,2555748.0084149,33.413061306131,0,0
-183.65142343411,-159.19955814763,28.217491749175,1258581.4139061,1149.4495697661,2555748.0084149,33.417491749175,0,0
-183.65142333506,-159.22838105197,28.221922192219,1258581.4139061,1149.4495697661,2555748.0084149,33.421922192219,0,0
-183.65142323601,-159.2572039563,28.226352635264,1258581.4139061,1149.4495697661,2555748.0084149,33.426352635264,0,0
-183.65142313697,-159.28602686064,28.230783078308,1258581.4139061,1149.4495697661,2555748.0084149,33.430783078308,0,0
-183.65142303792,-159.31484976498,28.235213521352,1258581.4139061,1149.4495697661,2555748.0084149,33.435213521352,0,0
-183.65142293888,-159.34367266932,28.239643964396,1258581.4139061,1149.4495697661,2555748.0084149,33.439643964396,0,0
-183.65142283983,-159.37249557366,28.244074407441,1258581.4139061,1149.4495697661,2555748.0084149,33.444074407441,0,0
-183.65142274079,-159.401318478,28.248504850485,1258581.4139061,1149.4495697661,2555748.0084149,33.448504850485,0,0
-183.65142264174,-159.43014138234,28.252935293529,1258581.4139061,1149.4495697661,2555748.0084149,33.452935293529,0,0
-183.65142254269,-159.45896428668,28.257365736574,1258581.4139061,1149.4495697661,2555748.0084149,33.457365736574,0,0
-183.65142244365,-159.48778719102,28.261796179618,1258581.4139061,1149.4495697661,2555748.0084149,33.461796179618,0,0
-183.6514223446,-159.51661009536,28.266226622662,1258581.4139061,1149.4495697661,2555748.0084149,33.466226622662,0,0
-183.65142224556,-159.5454329997,28.270657065707,1258581.4139061,1149.4495697661,2555748.0084149,33.470657065707,0,0
-183.65142214651,-159.57425590404,28.275087508751,1258581.4139061,1149.4495697661,2555748.0084149,33.475087508751,0,0
-183.65142204746,-159.60307880838,28.279517951795,1258581.4139061,1149.4495697661,2555748.0084149,33.479517951795,0,0
-183.65142194842,-159.63190171271,28.283948394839,1258581.4139061,1149.4495697661,2555748.0084149,33.483948394839,0,0
-183.65142184937,-159.66072461705,28.288378837884,1258581.4139061,1149.4495697661,2555748.0084149,33.488378837884,0,0
-183.65142175033,-159.68954752139,28.292809280928,1258581.4139061,1149.4495697661,2555748.0084149,33.492809280928,0,0
-183.65142165128,-159.71837042573,28.297239723972,1258581.4139061,1149.4495697661,2555748.0084149,33.497239723972,0,0
-183.65142155224,-159.74719333007,28.301670167017,1258581.4139061,1149.4495697661,2555748.0084149,33.501670167017,0,0
-183.65142145319,-159.77601623441,28.306100610061,1258581.4139061,1149.4495697661,2555748.0084149,33.506100610061,0,0
-183.65142135414,-159.80483913875,28.310531053105,1258581.4139061,1149.4495697661,2555748.0084149,33.510531053105,0,0
-183.6514212551,-159.83366204309,28.31496149615,1258581.4139061,1149.4495697661,2555748.0084149,33.51496149615,0,0
-183.65142115605,-159.86248494743,28.319391939194,1258581.4139061,1149.4495697661,2555748.0084149,33.519391939194,0,0
-183.65142105701,-159.89130785177,28.323822382238,1258581.4139061,1149.4495697661,2555748.0084149,33.523822382238,0,0
-183.65142095796,-159.92013075611,28.328252825283,1258581.4139061,1149.4495697661,2555748.0084149,33.528252825283,0,0
-183.65142085891,-159.94895366045,28.332683268327,1258581.4139061,1149.4495697661,2555748.0084149,33.532683268327,0,0
-183.65142075987,-159.97777656479,28.337113711371,1258581.4139061,1149.4495697661,2555748.0084149,33.537113711371,0,0
-183.65142066082,-160.00659946912,28.341544154415,1258581.4139061,1149.4495697661,2555748.0084149,33.541544154415,0,0
-183.65142056178,-160.03542237346,28.34597459746,1258581.4139061,1149.4495697661,2555748.0084149,33.54597459746,0,0
-183.65142046273,-160.0642452778,28.350405040504,1258581.4139061,1149.4495697661,2555748.0084149,33.550405040504,0,0
-183.65142036368,-160.09306818214,28.354835483548,1258581.4139061,1149.4495697661,2555748.0084149,33.554835483548,0,0
-183.65142026464,-160.12189108648,28.359265926593,1258581.4139061,1149.4495697661,2555748.0084149,33.559265926593,0,0
-183.65142016559,-160.15071399082,28.363696369637,1258581.4139061,1149.4495697661,2555748.0084149,33.563696369637,0,0
-183.65142006655,-160.17953689516,28.368126812681,1258581.4139061,1149.4495697661,2555748.0084149,33.568126812681,0,0
-183.6514199675,-160.2083597995,28.372557255726,1258581.4139061,1149.4495697661,2555748.0084149,33.572557255726,0,0
-183.65141986846,-160.23718270384,28.37698769877,1258581.4139061,1149.4495697661,2555748.0084149,33.57698769877,0,0
-183.65141976941,-160.26600560818,28.381418141814,1258581.4139061,1149.4495697661,2555748.0084149,33.581418141814,0,0
-183.65141967036,-160.29482851252,28.385848584858,1258581.4139061,1149.4495697661,2555748.0084149,33.585848584858,0,0
-183.65141957132,-160.32365141686,28.390279027903,1258581.4139061,1149.4495697661,2555748.0084149,33.590279027903,0,0
-183.65141947227,-160.3524743212,28.394709470947,1258581.4139061,1149.4495697661,2555748.0084149,33.594709470947,0,0
-183.65141937323,-160.38129722553,28.399139913991,1258581.4139061,1149.4495697661,2555748.0084149,33.599139913991,0,0
-183.65141927418,-160.41012012987,28.403570357036,1258581.4139061,1149.4495697661,2555748.0084149,33.603570357036,0,0
-183.65141917513,-160.43894303421,28.40800080008,1258581.4139061,1149.4495697661,2555748.0084149,33.60800080008,0,0
-183.65141907609,-160.46776593855,28.412431243124,1258581.4139061,1149.4495697661,2555748.0084149,33.612431243124,0,0
-183.65141897704,-160.49658884289,28.416861686169,1258581.4139061,1149.4495697661,2555748.0084149,33.616861686169,0,0
-183.651418878,-160.52541174723,28.421292129213,1258581.4139061,1149.4495697661,2555748.0084149,33.621292129213,0,0
-183.65141877895,-160.55423465157,28.425722572257,1258581.4139061,1149.4495697661,2555748.0084149,33.625722572257,0,0
-183.65141867991,-160.58305755591,28.430153015302,1258581.4139061,1149.4495697661,2555748.0084149,33.630153015302,0,0
-183.65141858086,-160.61188046025,28.434583458346,1258581.4139061,1149.4495697661,2555748.0084149,33.634583458346,0,0
-183.65141848181,-160.64070336459,28.43901390139,1258581.4139061,1149.4495697661,2555748.0084149,33.63901390139,0,0
-183.65141838277,-160.66952626893,28.443444344434,1258581.4139061,1149.4495697661,2555748.0084149,33.643444344434,0,0
-183.65141828372,-160.69834917327,28.447874787479,1258581.4139061,1149.4495697661,2555748.0084149,33.647874787479,0,0
-183.65141818468,-160.72717207761,28.452305230523,1258581.4139061,1149.4495697661,2555748.0084149,33.652305230523,0,0
-183.65141808563,-160.75599498194,28.456735673567,1258581.4139061,1149.4495697661,2555748.0084149,33.656735673567,0,0
-183.65141798658,-160.78481788628,28.461166116612,1258581.4139061,1149.4495697661,2555748.0084149,33.661166116612,0,0
-183.65141788754,-160.81364079062,28.465596559656,1258581.4139061,1149.4495697661,2555748.0084149,33.665596559656,0,0
-183.65141778849,-160.84246369496,28.4700270027,1258581.4139061,1149.4495697661,2555748.0084149,33.6700270027,0,0
-183.65141768945,-160.8712865993,28.474457445745,1258581.4139061,1149.4495697661,2555748.0084149,33.674457445745,0,0
-183.6514175904,-160.90010950364,28.478887888789,1258581.4139061,1149.4495697661,2555748.0084149,33.678887888789,0,0
-183.65141749135,-160.92893240798,28.483318331833,1258581.4139061,1149.4495697661,2555748.0084149,33.683318331833,0,0
-183.65141739231,-160.95775531232,28.487748774877,1258581.4139061,1149.4495697661,2555748.0084149,33.687748774877,0,0
-183.65141729326,-160.98657821666,28.492179217922,1258581.4139061,1149.4495697661,2555748.0084149,33.692179217922,0,0
-183.65141719422,-161.015401121,28.496609660966,1258581.4139061,1149.4495697661,2555748.0084149,33.696609660966,0,0
-183.65141709517,-161.04422402534,28.50104010401,1258581.4139061,1149.4495697661,2555748.0084149,33.70104010401,0,0
-183.65141699613,-161.07304692968,28.505470547055,1258581.4139061,1149.4495697661,2555748.0084149,33.705470547055,0,0
-183.65141689708,-161.10186983402,28.509900990099,1258581.4139061,1149.4495697661,2555748.0084149,33.709900990099,0,0
-183.65141679803,-161.13069273835,28.514331433143,1258581.4139061,1149.4495697661,2555748.0084149,33.714331433143,0,0
-183.65141669899,-161.15951564269,28.518761876188,1258581.4139061,1149.4495697661,2555748.0084149,33.718761876188,0,0
-183.65141659994,-161.18833854703,28.523192319232,1258581.4139061,1149.4495697661,2555748.0084149,33.723192319232,0,0
-183.6514165009,-161.21716145137,28.527622762276,1258581.4139061,1149.4495697661,2555748.0084149,33.727622762276,0,0
-183.65141640185,-161.24598435571,28.532053205321,1258581.4139061,1149.4495697661,2555748.0084149,33.732053205321,0,0
-183.6514163028,-161.27480726005,28.536483648365,1258581.4139061,1149.4495697661,2555748.0084149,33.736483648365,0,0
-183.65141620376,-161.30363016439,28.540914091409,1258581.4139061,1149.4495697661,2555748.0084149,33.740914091409,0,0
-183.65141610471,-161.33245306873,28.545344534453,1258581.4139061,1149.4495697661,2555748.0084149,33.745344534453,0,0
-183.65141600567,-161.36127597307,28.549774977498,1258581.4139061,1149.4495697661,2555748.0084149,33.749774977498,0,0
-183.65141590662,-161.39009887741,28.554205420542,1258581.4139061,1149.4495697661,2555748.0084149,33.754205420542,0,0
-183.65141580758,-161.41892178175,28.558635863586,1258581.4139061,1149.4495697661,2555748.0084149,33.758635863586,0,0
-183.65141570853,-161.44774468609,28.563066306631,1258581.4139061,1149.4495697661,2555748.0084149,33.763066306631,0,0
-183.65141560948,-161.47656759043,28.567496749675,1258581.4139061,1149.4495697661,2555748.0084149,33.767496749675,0,0
-183.65141551044,-161.50539049476,28.571927192719,1258581.4139061,1149.4495697661,2555748.0084149,33.771927192719,0,0
-183.65141541139,-161.5342133991,28.576357635764,1258581.4139061,1149.4495697661,2555748.0084149,33.776357635764,0,0
-183.65141531235,-161.56303630344,28.580788078808,1258581.4139061,1149.4495697661,2555748.0084149,33.780788078808,0,0
-183.6514152133,-161.59185920778,28.585218521852,1258581.4139061,1149.4495697661,2555748.0084149,33.785218521852,0,0
-183.65141511425,-161.62068211212,28.589648964896,1258581.4139061,1149.4495697661,2555748.0084149,33.789648964896,0,0
-183.65141501521,-161.64950501646,28.594079407941,1258581.4139061,1149.4495697661,2555748.0084149,33.794079407941,0,0
-183.65141491616,-161.6783279208,28.598509850985,1258581.4139061,1149.4495697661,2555748.0084149,33.798509850985,0,0
-183.65141481712,-161.70715082514,28.602940294029,1258581.4139061,1149.4495697661,2555748.0084149,33.802940294029,0,0
-183.65141471807,-161.73597372948,28.607370737074,1258581.4139061,1149.4495697661,2555748.0084149,33.807370737074,0,0
-183.65141461902,-161.76479663382,28.611801180118,1258581.4139061,1149.4495697661,2555748.0084149,33.811801180118,0,0
-183.65141451998,-161.79361953816,28.616231623162,1258581.4139061,1149.4495697661,2555748.0084149,33.816231623162,0,0
-183.65141442093,-161.8224424425,28.620662066207,1258581.4139061,1149.4495697661,2555748.0084149,33.820662066207,0,0
-183.65141432189,-161.85126534684,28.625092509251,1258581.4139061,1149.4495697661,2555748.0084149,33.825092509251,0,0
-183.65141422284,-161.88008825117,28.629522952295,1258581.4139061,1149.4495697661,2555748.0084149,33.829522952295,0,0
-183.6514141238,-161.90891115551,28.63395339534,1258581.4139061,1149.4495697661,2555748.0084149,33.83395339534,0,0
-183.65141402475,-161.93773405985,28.638383838384,1258581.4139061,1149.4495697661,2555748.0084149,33.838383838384,0,0
-183.6514139257,-161.96655696419,28.642814281428,1258581.4139061,1149.4495697661,2555748.0084149,33.842814281428,0,0
-183.65141382666,-161.99537986853,28.647244724472,1258581.4139061,1149.4495697661,2555748.0084149,33.847244724472,0,0
-183.65141372761,-162.02420277287,28.651675167517,1258581.4139061,1149.4495697661,2555748.0084149,33.851675167517,0,0
-183.65141362857,-162.05302567721,28.656105610561,1258581.4139061,1149.4495697661,2555748.0084149,33.856105610561,0,0
-183.65141352952,-162.08184858155,28.660536053605,1258581.4139061,1149.4495697661,2555748.0084149,33.860536053605,0,0
-183.65141343047,-162.11067148589,28.66496649665,1258581.4139061,1149.4495697661,2555748.0084149,33.86496649665,0,0
-183.65141333143,-162.13949439023,28.669396939694,1258581.4139061,1149.4495697661,2555748.0084149,33.869396939694,0,0
-183.65141323238,-162.16831729457,28.673827382738,1258581.4139061,1149.4495697661,2555748.0084149,33.873827382738,0,0
-183.65141313334,-162.19714019891,28.678257825783,1258581.4139061,1149.4495697661,2555748.0084149,33.878257825783,0,0
-183.65141303429,-162.22596310325,28.682688268827,1258581.4139061,1149.4495697661,2555748.0084149,33.882688268827,0,0
-183.65141293525,-162.25478600758,28.687118711871,1258581.4139061,1149.4495697661,2555748.0084149,33.887118711871,0,0
-183.6514128362,-162.28360891192,28.691549154915,1258581.4139061,1149.4495697661,2555748.0084149,33.891549154915,0,0
-183.65141273715,-162.31243181626,28.69597959796,1258581.4139061,1149.4495697661,2555748.0084149,33.89597959796,0,0
-183.65141263811,-162.3412547206,28.700410041004,1258581.4139061,1149.4495697661,2555748.0084149,33.900410041004,0,0
-183.65141253906,-162.37007762494,28.704840484048,1258581.4139061,1149.4495697661,2555748.0084149,33.904840484048,0,0
-183.65141244002,-162.39890052928,28.709270927093,1258581.4139061,1149.4495697661,2555748.0084149,33.909270927093,0,0
-183.65141234097,-162.42772343362,28.713701370137,1258581.4139061,1149.4495697661,2555748.0084149,33.913701370137,0,0
-183.65141224192,-162.45654633796,28.718131813181,1258581.4139061,1149.4495697661,2555748.0084149,33.918131813181,0,0
-183.65141214288,-162.4853692423,28.722562256226,1258581.4139061,1149.4495697661,2555748.0084149,33.922562256226,0,0
-183.65141204383,-162.51419214664,28.72699269927,1258581.4139061,1149.4495697661,2555748.0084149,33.92699269927,0,0
-183.65141194479,-162.54301505098,28.731423142314,1258581.4139061,1149.4495697661,2555748.0084149,33.931423142314,0,0
-183.65141184574,-162.57183795532,28.735853585359,1258581.4139061,1149.4495697661,2555748.0084149,33.935853585359,0,0
-183.65141174669,-162.60066085966,28.740284028403,1258581.4139061,1149.4495697661,2555748.0084149,33.940284028403,0,0
-183.65141164765,-162.62948376399,28.744714471447,1258581.4139061,1149.4495697661,2555748.0084149,33.944714471447,0,0
-183.6514115486,-162.65830666833,28.749144914491,1258581.4139061,1149.4495697661,2555748.0084149,33.949144914491,0,0
-183.65141144956,-162.68712957267,28.753575357536,1258581.4139061,1149.4495697661,2555748.0084149,33.953575357536,0,0
-183.65141135051,-162.71595247701,28.75800580058,1258581.4139061,1149.4495697661,2555748.0084149,33.95800580058,0,0
-183.65141125147,-162.74477538135,28.762436243624,1258581.4139061,1149.4495697661,2555748.0084149,33.962436243624,0,0
-183.65141115242,-162.77359828569,28.766866686669,1258581.4139061,1149.4495697661,2555748.0084149,33.966866686669,0,0
-183.65141105337,-162.80242119003,28.771297129713,1258581.4139061,1149.4495697661,2555748.0084149,33.971297129713,0,0
-183.65141095433,-162.83124409437,28.775727572757,1258581.4139061,1149.4495697661,2555748.0084149,33.975727572757,0,0
-183.65141085528,-162.86006699871,28.780158015802,1258581.4139061,1149.4495697661,2555748.0084149,33.980158015802,0,0
-183.65141075624,-162.88888990305,28.784588458846,1258581.4139061,1149.4495697661,2555748.0084149,33.984588458846,0,0
-183.65141065719,-162.91771280739,28.78901890189,1258581.4139061,1149.4495697661,2555748.0084149,33.98901890189,0,0
-183.65141055814,-162.94653571173,28.793449344934,1258581.4139061,1149.4495697661,2555748.0084149,33.993449344934,0,0
-183.6514104591,-162.97535861607,28.797879787979,1258581.4139061,1149.4495697661,2555748.0084149,33.997879787979,0,0
-183.65141036005,-163.0041815204,28.802310231023,1258581.4139061,1149.4495697661,2555748.0084149,34.002310231023,0,0
-183.65141026101,-163.03300442474,28.806740674067,1258581.4139061,1149.4495697661,2555748.0084149,34.006740674067,0,0
-183.65141016196,-163.06182732908,28.811171117112,1258581.4139061,1149.4495697661,2555748.0084149,34.011171117112,0,0
-183.65141006292,-163.09065023342,28.815601560156,1258581.4139061,1149.4495697661,2555748.0084149,34.015601560156,0,0
-183.65140996387,-163.11947313776,28.8200320032,1258581.4139061,1149.4495697661,2555748.0084149,34.0200320032,0,0
-183.65140986482,-163.1482960421,28.824462446245,1258581.4139061,1149.4495697661,2555748.0084149,34.024462446245,0,0
-183.65140976578,-163.17711894644,28.828892889289,1258581.4139061,1149.4495697661,2555748.0084149,34.028892889289,0,0
-183.65140966673,-163.20594185078,28.833323332333,1258581.4139061,1149.4495697661,2555748.0084149,34.033323332333,0,0
-183.65140956769,-163.23476475512,28.837753775378,1258581.4139061,1149.4495697661,2555748.0084149,34.037753775378,0,0
-183.65140946864,-163.26358765946,28.842184218422,1258581.4139061,1149.4495697661,2555748.0084149,34.042184218422,0,0
-183.65140936959,-163.2924105638,28.846614661466,1258581.4139061,1149.4495697661,2555748.0084149,34.046614661466,0,0
-183.65140927055,-163.32123346814,28.85104510451,1258581.4139061,1149.4495697661,2555748.0084149,34.05104510451,0,0
-183.6514091715,-163.35005637248,28.855475547555,1258581.4139061,1149.4495697661,2555748.0084149,34.055475547555,0,0
-183.65140907246,-163.37887927681,28.859905990599,1258581.4139061,1149.4495697661,2555748.0084149,34.059905990599,0,0
-183.65140897341,-163.40770218115,28.864336433643,1258581.4139061,1149.4495697661,2555748.0084149,34.064336433643,0,0
-183.65140887436,-163.43652508549,28.868766876688,1258581.4139061,1149.4495697661,2555748.0084149,34.068766876688,0,0
-183.65140877532,-163.46534798983,28.873197319732,1258581.4139061,1149.4495697661,2555748.0084149,34.073197319732,0,0
-183.65140867627,-163.49417089417,28.877627762776,1258581.4139061,1149.4495697661,2555748.0084149,34.077627762776,0,0
-183.65140857723,-163.52299379851,28.882058205821,1258581.4139061,1149.4495697661,2555748.0084149,34.082058205821,0,0
-183.65140847818,-163.55181670285,28.886488648865,1258581.4139061,1149.4495697661,2555748.0084149,34.086488648865,0,0
-183.65140837914,-163.58063960719,28.890919091909,1258581.4139061,1149.4495697661,2555748.0084149,34.090919091909,0,0
-183.65140828009,-163.60946251153,28.895349534953,1258581.4139061,1149.4495697661,2555748.0084149,34.095349534953,0,0
-183.65140818104,-163.63828541587,28.899779977998,1258581.4139061,1149.4495697661,2555748.0084149,34.099779977998,0,0
-183.651408082,-163.66710832021,28.904210421042,1258581.4139061,1149.4495697661,2555748.0084149,34.104210421042,0,0
-183.65140798284,-163.69593122499,28.908640864086,1258493.9410959,-937.46490790643,2549884.5767532,34.108640864086,0,0
-183.65140788364,-163.72475412989,28.913071307131,1258493.9410959,-937.46490790643,2549884.5767532,34.113071307131,0,0
-183.65140778445,-163.7535770348,28.917501750175,1258493.9410959,-937.46490790643,2549884.5767532,34.117501750175,0,0
-183.65140768525,-163.7823999397,28.921932193219,1258493.9410959,-937.46490790643,2549884.5767532,34.121932193219,0,0
-183.65140758606,-163.81122284461,28.926362636264,1258493.9410959,-937.46490790643,2549884.5767532,34.126362636264,0,0
-183.65140748686,-163.84004574952,28.930793079308,1258493.9410959,-937.46490790643,2549884.5767532,34.130793079308,0,0
-183.65140738767,-163.86886865442,28.935223522352,1258493.9410959,-937.46490790643,2549884.5767532,34.135223522352,0,0
-183.65140728847,-163.89769155933,28.939653965397,1258493.9410959,-937.46490790643,2549884.5767532,34.139653965397,0,0
-183.65140718928,-163.92651446424,28.944084408441,1258493.9410959,-937.46490790643,2549884.5767532,34.144084408441,0,0
-183.65140709008,-163.95533736914,28.948514851485,1258493.9410959,-937.46490790643,2549884.5767532,34.148514851485,0,0
-183.65140699089,-163.98416027405,28.952945294529,1258493.9410959,-937.46490790643,2549884.5767532,34.152945294529,0,0
-183.65140689169,-164.01298317895,28.957375737574,1258493.9410959,-937.46490790643,2549884.5767532,34.157375737574,0,0
-183.6514067925,-164.04180608386,28.961806180618,1258493.9410959,-937.46490790643,2549884.5767532,34.161806180618,0,0
-183.6514066933,-164.07062898877,28.966236623662,1258493.9410959,-937.46490790643,2549884.5767532,34.166236623662,0,0
-183.65140659411,-164.09945189367,28.970667066707,1258493.9410959,-937.46490790643,2549884.5767532,34.170667066707,0,0
-183.65140649491,-164.12827479858,28.975097509751,1258493.9410959,-937.46490790643,2549884.5767532,34.175097509751,0,0
-183.65140639572,-164.15709770349,28.979527952795,1258493.9410959,-937.46490790643,2549884.5767532,34.179527952795,0,0
-183.65140629652,-164.18592060839,28.98395839584,1258493.9410959,-937.46490790643,2549884.5767532,34.18395839584,0,0
-183.65140619733,-164.2147435133,28.988388838884,1258493.9410959,-937.46490790643,2549884.5767532,34.188388838884,0,0
-183.65140609813,-164.24356641821,28.992819281928,1258493.9410959,-937.46490790643,2549884.5767532,34.192819281928,0,0
-183.65140599894,-164.27238932311,28.997249724972,1258493.9410959,-937.46490790643,2549884.5767532,34.197249724972,0,0
-183.65140589974,-164.30121222802,29.001680168017,1258493.9410959,-937.46490790643,2549884.5767532,34.201680168017,0,0
-183.65140580055,-164.33003513292,29.006110611061,1258493.9410959,-937.46490790643,2549884.5767532,34.206110611061,0,0
-183.65140570135,-164.35885803783,29.010541054105,1258493.9410959,-937.46490790643,2549884.5767532,34.210541054105,0,0
-183.65140560216,-164.38768094274,29.01497149715,1258493.9410959,-937.46490790643,2549884.5767532,34.21497149715,0,0
-183.65140550296,-164.41650384764,29.019401940194,1258493.9410959,-937.46490790643,2549884.5767532,34.219401940194,0,0
-183.65140540377,-164.44532675255,29.023832383238,1258493.9410959,-937.46490790643,2549884.5767532,34.223832383238,0,0
-183.65140530457,-164.47414965746,29.028262826283,1258493.9410959,-937.46490790643,2549884.5767532,34.228262826283,0,0
-183.65140520538,-164.50297256236,29.032693269327,1258493.9410959,-937.46490790643,2549884.5767532,34.232693269327,0,0
-183.65140510618,-164.53179546727,29.037123712371,1258493.9410959,-937.46490790643,2549884.5767532,34.237123712371,0,0
-183.65140500699,-164.56061837217,29.041554155416,1258493.9410959,-937.46490790643,2549884.5767532,34.241554155416,0,0
-183.65140490779,-164.58944127708,29.04598459846,1258493.9410959,-937.46490790643,2549884.5767532,34.24598459846,0,0
-183.6514048086,-164.61826418199,29.050415041504,1258493.9410959,-937.46490790643,2549884.5767532,34.250415041504,0,0
-183.6514047094,-164.64708708689,29.054845484548,1258493.9410959,-937.46490790643,2549884.5767532,34.254845484548,0,0
-183.65140461021,-164.6759099918,29.059275927593,1258493.9410959,-937.46490790643,2549884.5767532,34.259275927593,0,0
-183.65140451101,-164.70473289671,29.063706370637,1258493.9410959,-937.46490790643,2549884.5767532,34.263706370637,0,0
-183.65140441182,-164.73355580161,29.068136813681,1258493.9410959,-937.46490790643,2549884.5767532,34.268136813681,0,0
-183.65140431262,-164.76237870652,29.072567256726,1258493.9410959,-937.46490790643,2549884.5767532,34.272567256726,0,0
-183.65140421343,-164.79120161142,29.07699769977,1258493.9410959,-937.46490790643,2549884.5767532,34.27699769977,0,0
-183.65140411423,-164.82002451633,29.081428142814,1258493.9410959,-937.46490790643,2549884.5767532,34.281428142814,0,0
-183.65140401504,-164.84884742124,29.085858585859,1258493.9410959,-937.46490790643,2549884.5767532,34.285858585859,0,0
-183.65140391584,-164.87767032614,29.090289028903,1258493.9410959,-937.46490790643,2549884.5767532,34.290289028903,0,0
-183.65140381665,-164.90649323105,29.094719471947,1258493.9410959,-937.46490790643,2549884.5767532,34.294719471947,0,0
-183.65140371745,-164.93531613596,29.099149914991,1258493.9410959,-937.46490790643,2549884.5767532,34.299149914991,0,0
-183.65140361826,-164.96413904086,29.103580358036,1258493.9410959,-937.46490790643,2549884.5767532,34.303580358036,0,0
-183.65140351906,-164.99296194577,29.10801080108,1258493.9410959,-937.46490790643,2549884.5767532,34.30801080108,0,0
-183.65140341987,-165.02178485068,29.112441244124,1258493.9410959,-937.46490790643,2549884.5767532,34.312441244124,0,0
-183.65140332067,-165.05060775558,29.116871687169,1258493.9410959,-937.46490790643,2549884.5767532,34.316871687169,0,0
-183.65140322148,-165.07943066049,29.121302130213,1258493.9410959,-937.46490790643,2549884.5767532,34.321302130213,0,0
-183.65140312228,-165.10825356539,29.125732573257,1258493.9410959,-937.46490790643,2549884.5767532,34.325732573257,0,0
-183.65140302309,-165.1370764703,29.130163016302,1258493.9410959,-937.46490790643,2549884.5767532,34.330163016302,0,0
-183.65140292389,-165.16589937521,29.134593459346,1258493.9410959,-937.46490790643,2549884.5767532,34.334593459346,0,0
-183.6514028247,-165.19472228011,29.13902390239,1258493.9410959,-937.46490790643,2549884.5767532,34.33902390239,0,0
-183.6514027255,-165.22354518502,29.143454345435,1258493.9410959,-937.46490790643,2549884.5767532,34.343454345435,0,0
-183.65140262631,-165.25236808993,29.147884788479,1258493.9410959,-937.46490790643,2549884.5767532,34.347884788479,0,0
-183.65140252711,-165.28119099483,29.152315231523,1258493.9410959,-937.46490790643,2549884.5767532,34.352315231523,0,0
-183.65140242792,-165.31001389974,29.156745674567,1258493.9410959,-937.46490790643,2549884.5767532,34.356745674567,0,0
-183.65140232872,-165.33883680464,29.161176117612,1258493.9410959,-937.46490790643,2549884.5767532,34.361176117612,0,0
-183.65140222953,-165.36765970955,29.165606560656,1258493.9410959,-937.46490790643,2549884.5767532,34.365606560656,0,0
-183.65140213033,-165.39648261446,29.1700370037,1258493.9410959,-937.46490790643,2549884.5767532,34.3700370037,0,0
-183.65140203114,-165.42530551936,29.174467446745,1258493.9410959,-937.46490790643,2549884.5767532,34.374467446745,0,0
-183.65140193194,-165.45412842427,29.178897889789,1258493.9410959,-937.46490790643,2549884.5767532,34.378897889789,0,0
-183.65140183275,-165.48295132918,29.183328332833,1258493.9410959,-937.46490790643,2549884.5767532,34.383328332833,0,0
-183.65140173355,-165.51177423408,29.187758775878,1258493.9410959,-937.46490790643,2549884.5767532,34.387758775878,0,0
-183.65140163436,-165.54059713899,29.192189218922,1258493.9410959,-937.46490790643,2549884.5767532,34.392189218922,0,0
-183.65140153516,-165.56942004389,29.196619661966,1258493.9410959,-937.46490790643,2549884.5767532,34.396619661966,0,0
-183.65140143597,-165.5982429488,29.20105010501,1258493.9410959,-937.46490790643,2549884.5767532,34.40105010501,0,0
-183.65140133677,-165.62706585371,29.205480548055,1258493.9410959,-937.46490790643,2549884.5767532,34.405480548055,0,0
-183.65140123758,-165.65588875861,29.209910991099,1258493.9410959,-937.46490790643,2549884.5767532,34.409910991099,0,0
-183.65140113838,-165.68471166352,29.214341434143,1258493.9410959,-937.46490790643,2549884.5767532,34.414341434143,0,0
-183.65140103919,-165.71353456843,29.218771877188,1258493.9410959,-937.46490790643,2549884.5767532,34.418771877188,0,0
-183.65140093999,-165.74235747333,29.223202320232,1258493.9410959,-937.46490790643,2549884.5767532,34.423202320232,0,0
-183.6514008408,-165.77118037824,29.227632763276,1258493.9410959,-937.46490790643,2549884.5767532,34.427632763276,0,0
-183.6514007416,-165.80000328315,29.232063206321,1258493.9410959,-937.46490790643,2549884.5767532,34.432063206321,0,0
-183.65140064241,-165.82882618805,29.236493649365,1258493.9410959,-937.46490790643,2549884.5767532,34.436493649365,0,0
-183.65140054321,-165.85764909296,29.240924092409,1258493.9410959,-937.46490790643,2549884.5767532,34.440924092409,0,0
-183.65140044402,-165.88647199786,29.245354535454,1258493.9410959,-937.46490790643,2549884.5767532,34.445354535454,0,0
-183.65140034482,-165.91529490277,29.249784978498,1258493.9410959,-937.46490790643,2549884.5767532,34.449784978498,0,0
-183.65140024563,-165.94411780768,29.254215421542,1258493.9410959,-937.46490790643,2549884.5767532,34.454215421542,0,0
-183.65140014643,-165.97294071258,29.258645864586,1258493.9410959,-937.46490790643,2549884.5767532,34.458645864586,0,0
-183.65140004724,-166.00176361749,29.263076307631,1258493.9410959,-937.46490790643,2549884.5767532,34.463076307631,0,0
-183.65139994804,-166.0305865224,29.267506750675,1258493.9410959,-937.46490790643,2549884.5767532,34.467506750675,0,0
-183.65139984885,-166.0594094273,29.271937193719,1258493.9410959,-937.46490790643,2549884.5767532,34.471937193719,0,0
-183.65139974965,-166.08823233221,29.276367636764,1258493.9410959,-937.46490790643,2549884.5767532,34.476367636764,0,0
-183.65139965046,-166.11705523711,29.280798079808,1258493.9410959,-937.46490790643,2549884.5767532,34.480798079808,0,0
-183.65139955126,-166.14587814202,29.285228522852,1258493.9410959,-937.46490790643,2549884.5767532,34.485228522852,0,0
-183.65139945207,-166.17470104693,29.289658965897,1258493.9410959,-937.46490790643,2549884.5767532,34.489658965897,0,0
-183.65139935287,-166.20352395183,29.294089408941,1258493.9410959,-937.46490790643,2549884.5767532,34.494089408941,0,0
-183.65139925368,-166.23234685674,29.298519851985,1258493.9410959,-937.46490790643,2549884.5767532,34.498519851985,0,0
-183.65139915448,-166.26116976165,29.30295029503,1258493.9410959,-937.46490790643,2549884.5767532,34.502950295029,0,0
-183.65139905529,-166.28999266655,29.307380738074,1258493.9410959,-937.46490790643,2549884.5767532,34.507380738074,0,0
-183.65139895609,-166.31881557146,29.311811181118,1258493.9410959,-937.46490790643,2549884.5767532,34.511811181118,0,0
-183.6513988569,-166.34763847636,29.316241624162,1258493.9410959,-937.46490790643,2549884.5767532,34.516241624162,0,0
-183.6513987577,-166.37646138127,29.320672067207,1258493.9410959,-937.46490790643,2549884.5767532,34.520672067207,0,0
-183.65139865851,-166.40528428618,29.325102510251,1258493.9410959,-937.46490790643,2549884.5767532,34.525102510251,0,0
-183.65139855931,-166.43410719108,29.329532953295,1258493.9410959,-937.46490790643,2549884.5767532,34.529532953295,0,0
-183.65139846012,-166.46293009599,29.33396339634,1258493.9410959,-937.46490790643,2549884.5767532,34.53396339634,0,0
-183.65139836092,-166.4917530009,29.338393839384,1258493.9410959,-937.46490790643,2549884.5767532,34.538393839384,0,0
-183.65139826173,-166.5205759058,29.342824282428,1258493.9410959,-937.46490790643,2549884.5767532,34.542824282428,0,0
-183.65139816253,-166.54939881071,29.347254725473,1258493.9410959,-937.46490790643,2549884.5767532,34.547254725473,0,0
-183.65139806334,-166.57822171562,29.351685168517,1258493.9410959,-937.46490790643,2549884.5767532,34.551685168517,0,0
-183.65139796414,-166.60704462052,29.356115611561,1258493.9410959,-937.46490790643,2549884.5767532,34.556115611561,0,0
-183.65139786495,-166.63586752543,29.360546054605,1258493.9410959,-937.46490790643,2549884.5767532,34.560546054605,0,0
-183.65139776575,-166.66469043033,29.36497649765,1258493.9410959,-937.46490790643,2549884.5767532,34.56497649765,0,0
-183.65139766656,-166.69351333524,29.369406940694,1258493.9410959,-937.46490790643,2549884.5767532,34.569406940694,0,0
-183.65139756736,-166.72233624015,29.373837383738,1258493.9410959,-937.46490790643,2549884.5767532,34.573837383738,0,0
-183.65139746817,-166.75115914505,29.378267826783,1258493.9410959,-937.46490790643,2549884.5767532,34.578267826783,0,0
-183.65139736897,-166.77998204996,29.382698269827,1258493.9410959,-937.46490790643,2549884.5767532,34.582698269827,0,0
-183.65139726978,-166.80880495487,29.387128712871,1258493.9410959,-937.46490790643,2549884.5767532,34.587128712871,0,0
-183.65139717058,-166.83762785977,29.391559155916,1258493.9410959,-937.46490790643,2549884.5767532,34.591559155916,0,0
-183.65139707139,-166.86645076468,29.39598959896,1258493.9410959,-937.46490790643,2549884.5767532,34.59598959896,0,0
-183.65139697219,-166.89527366958,29.400420042004,1258493.9410959,-937.46490790643,2549884.5767532,34.600420042004,0,0
-183.651396873,-166.92409657449,29.404850485049,1258493.9410959,-937.46490790643,2549884.5767532,34.604850485049,0,0
-183.6513967738,-166.9529194794,29.409280928093,1258493.9410959,-937.46490790643,2549884.5767532,34.609280928093,0,0
-183.65139667461,-166.9817423843,29.413711371137,1258493.9410959,-937.46490790643,2549884.5767532,34.613711371137,0,0
-183.65139657541,-167.01056528921,29.418141814181,1258493.9410959,-937.46490790643,2549884.5767532,34.618141814181,0,0
-183.65139647622,-167.03938819412,29.422572257226,1258493.9410959,-937.46490790643,2549884.5767532,34.622572257226,0,0
-183.65139637702,-167.06821109902,29.42700270027,1258493.9410959,-937.46490790643,2549884.5767532,34.62700270027,0,0
-183.65139627783,-167.09703400393,29.431433143314,1258493.9410959,-937.46490790643,2549884.5767532,34.631433143314,0,0
-183.65139617863,-167.12585690883,29.435863586359,1258493.9410959,-937.46490790643,2549884.5767532,34.635863586359,0,0
-183.65139607944,-167.15467981374,29.440294029403,1258493.9410959,-937.46490790643,2549884.5767532,34.640294029403,0,0
-183.65139598024,-167.18350271865,29.444724472447,1258493.9410959,-937.46490790643,2549884.5767532,34.644724472447,0,0
-183.65139588105,-167.21232562355,29.449154915492,1258493.9410959,-937.46490790643,2549884.5767532,34.649154915492,0,0
-183.65139578185,-167.24114852846,29.453585358536,1258493.9410959,-937.46490790643,2549884.5767532,34.653585358536,0,0
-183.65139568266,-167.26997143337,29.45801580158,1258493.9410959,-937.46490790643,2549884.5767532,34.65801580158,0,0
-183.65139558346,-167.29879433827,29.462446244624,1258493.9410959,-937.46490790643,2549884.5767532,34.662446244624,0,0
-183.65139548427,-167.32761724318,29.466876687669,1258493.9410959,-937.46490790643,2549884.5767532,34.666876687669,0,0
-183.65139538507,-167.35644014809,29.471307130713,1258493.9410959,-937.46490790643,2549884.5767532,34.671307130713,0,0
-183.65139528588,-167.38526305299,29.475737573757,1258493.9410959,-937.46490790643,2549884.5767532,34.675737573757,0,0
-183.65139518668,-167.4140859579,29.480168016802,1258493.9410959,-937.46490790643,2549884.5767532,34.680168016802,0,0
-183.65139508749,-167.4429088628,29.484598459846,1258493.9410959,-937.46490790643,2549884.5767532,34.684598459846,0,0
-183.65139498829,-167.47173176771,29.48902890289,1258493.9410959,-937.46490790643,2549884.5767532,34.68902890289,0,0
-183.6513948891,-167.50055467262,29.493459345935,1258493.9410959,-937.46490790643,2549884.5767532,34.693459345935,0,0
-183.6513947899,-167.52937757752,29.497889788979,1258493.9410959,-937.46490790643,2549884.5767532,34.697889788979,0,0
-183.65139469071,-167.55820048243,29.502320232023,1258493.9410959,-937.46490790643,2549884.5767532,34.702320232023,0,0
-183.65139459151,-167.58702338734,29.506750675068,1258493.9410959,-937.46490790643,2549884.5767532,34.706750675068,0,0
-183.65139449232,-167.61584629224,29.511181118112,1258493.9410959,-937.46490790643,2549884.5767532,34.711181118112,0,0
-183.65139439312,-167.64466919715,29.515611561156,1258493.9410959,-937.46490790643,2549884.5767532,34.715611561156,0,0
-183.65139429393,-167.67349210205,29.5200420042,1258493.9410959,-937.46490790643,2549884.5767532,34.7200420042,0,0
-183.65139419473,-167.70231500696,29.524472447245,1258493.9410959,-937.46490790643,2549884.5767532,34.724472447245,0,0
-183.65139409554,-167.73113791187,29.528902890289,1258493.9410959,-937.46490790643,2549884.5767532,34.728902890289,0,0
-183.65139399634,-167.75996081677,29.533333333333,1258493.9410959,-937.46490790643,2549884.5767532,34.733333333333,0,0
-183.65139389715,-167.78878372168,29.537763776378,1258493.9410959,-937.46490790643,2549884.5767532,34.737763776378,0,0
-183.65139379795,-167.81760662659,29.542194219422,1258493.9410959,-937.46490790643,2549884.5767532,34.742194219422,0,0
-183.65139369876,-167.84642953149,29.546624662466,1258493.9410959,-937.46490790643,2549884.5767532,34.746624662466,0,0
-183.65139359956,-167.8752524364,29.551055105511,1258493.9410959,-937.46490790643,2549884.5767532,34.751055105511,0,0
-183.65139350037,-167.9040753413,29.555485548555,1258493.9410959,-937.46490790643,2549884.5767532,34.755485548555,0,0
-183.65139340117,-167.93289824621,29.559915991599,1258493.9410959,-937.46490790643,2549884.5767532,34.759915991599,0,0
-183.65139330198,-167.96172115112,29.564346434643,1258493.9410959,-937.46490790643,2549884.5767532,34.764346434643,0,0
-183.65139320278,-167.99054405602,29.568776877688,1258493.9410959,-937.46490790643,2549884.5767532,34.768776877688,0,0
-183.65139310359,-168.01936696093,29.573207320732,1258493.9410959,-937.46490790643,2549884.5767532,34.773207320732,0,0
-183.65139300439,-168.04818986584,29.577637763776,1258493.9410959,-937.46490790643,2549884.5767532,34.777637763776,0,0
-183.6513929052,-168.07701277074,29.582068206821,1258493.9410959,-937.46490790643,2549884.5767532,34.782068206821,0,0
-183.651392806,-168.10583567565,29.586498649865,1258493.9410959,-937.46490790643,2549884.5767532,34.786498649865,0,0
-183.65139270681,-168.13465858056,29.590929092909,1258493.9410959,-937.46490790643,2549884.5767532,34.790929092909,0,0
-183.65139260761,-168.16348148546,29.595359535954,1258493.9410959,-937.46490790643,2549884.5767532,34.795359535954,0,0
-183.65139250842,-168.19230439037,29.599789978998,1258493.9410959,-937.46490790643,2549884.5767532,34.799789978998,0,0
-183.65139240922,-168.22112729527,29.604220422042,1258493.9410959,-937.46490790643,2549884.5767532,34.804220422042,0,0
-183.65139231003,-168.24995020018,29.608650865087,1258493.9410959,-937.46490790643,2549884.5767532,34.808650865087,0,0
-183.65139221083,-168.27877310509,29.613081308131,1258493.9410959,-937.46490790643,2549884.5767532,34.813081308131,0,0
-183.65139211164,-168.30759600999,29.617511751175,1258493.9410959,-937.46490790643,2549884.5767532,34.817511751175,0,0
-183.65139201244,-168.3364189149,29.621942194219,1258493.9410959,-937.46490790643,2549884.5767532,34.821942194219,0,0
-183.65139191325,-168.36524181981,29.626372637264,1258493.9410959,-937.46490790643,2549884.5767532,34.826372637264,0,0
-183.65139181405,-168.39406472471,29.630803080308,1258493.9410959,-937.46490790643,2549884.5767532,34.830803080308,0,0
-183.65139171486,-168.42288762962,29.635233523352,1258493.9410959,-937.46490790643,2549884.5767532,34.835233523352,0,0
-183.65139161566,-168.45171053452,29.639663966397,1258493.9410959,-937.46490790643,2549884.5767532,34.839663966397,0,0
-183.65139151647,-168.48053343943,29.644094409441,1258493.9410959,-937.46490790643,2549884.5767532,34.844094409441,0,0
-183.65139141727,-168.50935634434,29.648524852485,1258493.9410959,-937.46490790643,2549884.5767532,34.848524852485,0,0
-183.65139131808,-168.53817924924,29.65295529553,1258493.9410959,-937.46490790643,2549884.5767532,34.85295529553,0,0
-183.65139121888,-168.56700215415,29.657385738574,1258493.9410959,-937.46490790643,2549884.5767532,34.857385738574,0,0
-183.65139111969,-168.59582505906,29.661816181618,1258493.9410959,-937.46490790643,2549884.5767532,34.861816181618,0,0
-183.65139102049,-168.62464796396,29.666246624662,1258493.9410959,-937.46490790643,2549884.5767532,34.866246624662,0,0
-183.6513909213,-168.65347086882,29.670677067707,1257335.27688,1512.4158994694,2545803.2536949,34.870677067707,0,0
-183.65139082209,-168.6822937732,29.675107510751,1257335.27688,1512.4158994694,2545803.2536949,34.875107510751,0,0
-183.65139072287,-168.71111667757,29.679537953795,1257335.27688,1512.4158994694,2545803.2536949,34.879537953795,0,0
-183.65139062366,-168.73993958195,29.68396839684,1257335.27688,1512.4158994694,2545803.2536949,34.88396839684,0,0
-183.65139052445,-168.76876248632,29.688398839884,1257335.27688,1512.4158994694,2545803.2536949,34.888398839884,0,0
-183.65139042524,-168.7975853907,29.692829282928,1257335.27688,1512.4158994694,2545803.2536949,34.892829282928,0,0
-183.65139032603,-168.82640829507,29.697259725973,1257335.27688,1512.4158994694,2545803.2536949,34.897259725973,0,0
-183.65139022682,-168.85523119945,29.701690169017,1257335.27688,1512.4158994694,2545803.2536949,34.901690169017,0,0
-183.65139012761,-168.88405410383,29.706120612061,1257335.27688,1512.4158994694,2545803.2536949,34.906120612061,0,0
-183.6513900284,-168.9128770082,29.710551055106,1257335.27688,1512.4158994694,2545803.2536949,34.910551055106,0,0
-183.65138992919,-168.94169991258,29.71498149815,1257335.27688,1512.4158994694,2545803.2536949,34.91498149815,0,0
-183.65138982997,-168.97052281695,29.719411941194,1257335.27688,1512.4158994694,2545803.2536949,34.919411941194,0,0
-183.65138973076,-168.99934572133,29.723842384238,1257335.27688,1512.4158994694,2545803.2536949,34.923842384238,0,0
-183.65138963155,-169.0281686257,29.728272827283,1257335.27688,1512.4158994694,2545803.2536949,34.928272827283,0,0
-183.65138953234,-169.05699153008,29.732703270327,1257335.27688,1512.4158994694,2545803.2536949,34.932703270327,0,0
-183.65138943313,-169.08581443445,29.737133713371,1257335.27688,1512.4158994694,2545803.2536949,34.937133713371,0,0
-183.65138933392,-169.11463733883,29.741564156416,1257335.27688,1512.4158994694,2545803.2536949,34.941564156416,0,0
-183.65138923471,-169.14346024321,29.74599459946,1257335.27688,1512.4158994694,2545803.2536949,34.94599459946,0,0
-183.6513891355,-169.17228314758,29.750425042504,1257335.27688,1512.4158994694,2545803.2536949,34.950425042504,0,0
-183.65138903629,-169.20110605196,29.754855485549,1257335.27688,1512.4158994694,2545803.2536949,34.954855485549,0,0
-183.65138893707,-169.22992895633,29.759285928593,1257335.27688,1512.4158994694,2545803.2536949,34.959285928593,0,0
-183.65138883786,-169.25875186071,29.763716371637,1257335.27688,1512.4158994694,2545803.2536949,34.963716371637,0,0
-183.65138873865,-169.28757476508,29.768146814681,1257335.27688,1512.4158994694,2545803.2536949,34.968146814681,0,0
-183.65138863944,-169.31639766946,29.772577257726,1257335.27688,1512.4158994694,2545803.2536949,34.972577257726,0,0
-183.65138854023,-169.34522057383,29.77700770077,1257335.27688,1512.4158994694,2545803.2536949,34.97700770077,0,0
-183.65138844102,-169.37404347821,29.781438143814,1257335.27688,1512.4158994694,2545803.2536949,34.981438143814,0,0
-183.65138834181,-169.40286638258,29.785868586859,1257335.27688,1512.4158994694,2545803.2536949,34.985868586859,0,0
-183.6513882426,-169.43168928696,29.790299029903,1257335.27688,1512.4158994694,2545803.2536949,34.990299029903,0,0
-183.65138814339,-169.46051219134,29.794729472947,1257335.27688,1512.4158994694,2545803.2536949,34.994729472947,0,0
-183.65138804417,-169.48933509571,29.799159915992,1257335.27688,1512.4158994694,2545803.2536949,34.999159915992,0,0
-183.65138794496,-169.51815800009,29.803590359036,1257335.27688,1512.4158994694,2545803.2536949,35.003590359036,0,0
-183.65138784575,-169.54698090446,29.80802080208,1257335.27688,1512.4158994694,2545803.2536949,35.00802080208,0,0
-183.65138774654,-169.57580380884,29.812451245125,1257335.27688,1512.4158994694,2545803.2536949,35.012451245125,0,0
-183.65138764733,-169.60462671321,29.816881688169,1257335.27688,1512.4158994694,2545803.2536949,35.016881688169,0,0
-183.65138754812,-169.63344961759,29.821312131213,1257335.27688,1512.4158994694,2545803.2536949,35.021312131213,0,0
-183.65138744891,-169.66227252196,29.825742574257,1257335.27688,1512.4158994694,2545803.2536949,35.025742574257,0,0
-183.6513873497,-169.69109542634,29.830173017302,1257335.27688,1512.4158994694,2545803.2536949,35.030173017302,0,0
-183.65138725049,-169.71991833072,29.834603460346,1257335.27688,1512.4158994694,2545803.2536949,35.034603460346,0,0
-183.65138715127,-169.74874123509,29.83903390339,1257335.27688,1512.4158994694,2545803.2536949,35.03903390339,0,0
-183.65138705206,-169.77756413947,29.843464346435,1257335.27688,1512.4158994694,2545803.2536949,35.043464346435,0,0
-183.65138695285,-169.80638704384,29.847894789479,1257335.27688,1512.4158994694,2545803.2536949,35.047894789479,0,0
-183.65138685364,-169.83520994822,29.852325232523,1257335.27688,1512.4158994694,2545803.2536949,35.052325232523,0,0
-183.65138675443,-169.86403285259,29.856755675568,1257335.27688,1512.4158994694,2545803.2536949,35.056755675568,0,0
-183.65138665522,-169.89285575697,29.861186118612,1257335.27688,1512.4158994694,2545803.2536949,35.061186118612,0,0
-183.65138655601,-169.92167866134,29.865616561656,1257335.27688,1512.4158994694,2545803.2536949,35.065616561656,0,0
-183.6513864568,-169.95050156572,29.8700470047,1257335.27688,1512.4158994694,2545803.2536949,35.0700470047,0,0
-183.65138635759,-169.97932447009,29.874477447745,1257335.27688,1512.4158994694,2545803.2536949,35.074477447745,0,0
-183.65138625837,-170.00814737447,29.878907890789,1257335.27688,1512.4158994694,2545803.2536949,35.078907890789,0,0
-183.65138615916,-170.03697027885,29.883338333833,1257335.27688,1512.4158994694,2545803.2536949,35.083338333833,0,0
-183.65138605995,-170.06579318322,29.887768776878,1257335.27688,1512.4158994694,2545803.2536949,35.087768776878,0,0
-183.65138596074,-170.0946160876,29.892199219922,1257335.27688,1512.4158994694,2545803.2536949,35.092199219922,0,0
-183.65138586153,-170.12343899197,29.896629662966,1257335.27688,1512.4158994694,2545803.2536949,35.096629662966,0,0
-183.65138576232,-170.15226189635,29.901060106011,1257335.27688,1512.4158994694,2545803.2536949,35.101060106011,0,0
-183.65138566311,-170.18108480072,29.905490549055,1257335.27688,1512.4158994694,2545803.2536949,35.105490549055,0,0
-183.6513855639,-170.2099077051,29.909920992099,1257335.27688,1512.4158994694,2545803.2536949,35.109920992099,0,0
-183.65138546469,-170.23873060947,29.914351435144,1257335.27688,1512.4158994694,2545803.2536949,35.114351435144,0,0
-183.65138536547,-170.26755351385,29.918781878188,1257335.27688,1512.4158994694,2545803.2536949,35.118781878188,0,0
-183.65138526626,-170.29637641823,29.923212321232,1257335.27688,1512.4158994694,2545803.2536949,35.123212321232,0,0
-183.65138516705,-170.3251993226,29.927642764276,1257335.27688,1512.4158994694,2545803.2536949,35.127642764276,0,0
-183.65138506784,-170.35402222698,29.932073207321,1257335.27688,1512.4158994694,2545803.2536949,35.132073207321,0,0
-183.65138496863,-170.38284513135,29.936503650365,1257335.27688,1512.4158994694,2545803.2536949,35.136503650365,0,0
-183.65138486942,-170.41166803573,29.940934093409,1257335.27688,1512.4158994694,2545803.2536949,35.140934093409,0,0
-183.65138477021,-170.4404909401,29.945364536454,1257335.27688,1512.4158994694,2545803.2536949,35.145364536454,0,0
-183.651384671,-170.46931384448,29.949794979498,1257335.27688,1512.4158994694,2545803.2536949,35.149794979498,0,0
-183.65138457179,-170.49813674885,29.954225422542,1257335.27688,1512.4158994694,2545803.2536949,35.154225422542,0,0
-183.65138447257,-170.52695965323,29.958655865587,1257335.27688,1512.4158994694,2545803.2536949,35.158655865587,0,0
-183.65138437336,-170.5557825576,29.963086308631,1257335.27688,1512.4158994694,2545803.2536949,35.163086308631,0,0
-183.65138427415,-170.58460546198,29.967516751675,1257335.27688,1512.4158994694,2545803.2536949,35.167516751675,0,0
-183.65138417494,-170.61342836636,29.971947194719,1257335.27688,1512.4158994694,2545803.2536949,35.171947194719,0,0
-183.65138407573,-170.64225127073,29.976377637764,1257335.27688,1512.4158994694,2545803.2536949,35.176377637764,0,0
-183.65138397652,-170.67107417511,29.980808080808,1257335.27688,1512.4158994694,2545803.2536949,35.180808080808,0,0
-183.65138387731,-170.69989707948,29.985238523852,1257335.27688,1512.4158994694,2545803.2536949,35.185238523852,0,0
-183.6513837781,-170.72871998386,29.989668966897,1257335.27688,1512.4158994694,2545803.2536949,35.189668966897,0,0
-183.65138367889,-170.75754288823,29.994099409941,1257335.27688,1512.4158994694,2545803.2536949,35.194099409941,0,0
-183.65138357967,-170.78636579261,29.998529852985,1257335.27688,1512.4158994694,2545803.2536949,35.198529852985,0,0
-183.65138348046,-170.81518869698,30.00296029603,1257335.27688,1512.4158994694,2545803.2536949,35.20296029603,0,0
-183.65138338125,-170.84401160136,30.007390739074,1257335.27688,1512.4158994694,2545803.2536949,35.207390739074,0,0
-183.65138328204,-170.87283450574,30.011821182118,1257335.27688,1512.4158994694,2545803.2536949,35.211821182118,0,0
-183.65138318283,-170.90165741011,30.016251625163,1257335.27688,1512.4158994694,2545803.2536949,35.216251625163,0,0
-183.65138308362,-170.93048031449,30.020682068207,1257335.27688,1512.4158994694,2545803.2536949,35.220682068207,0,0
-183.65138298441,-170.95930321886,30.025112511251,1257335.27688,1512.4158994694,2545803.2536949,35.225112511251,0,0
-183.6513828852,-170.98812612324,30.029542954295,1257335.27688,1512.4158994694,2545803.2536949,35.229542954295,0,0
-183.65138278599,-171.01694902761,30.03397339734,1257335.27688,1512.4158994694,2545803.2536949,35.23397339734,0,0
-183.65138268677,-171.04577193199,30.038403840384,1257335.27688,1512.4158994694,2545803.2536949,35.238403840384,0,0
-183.65138258756,-171.07459483636,30.042834283428,1257335.27688,1512.4158994694,2545803.2536949,35.242834283428,0,0
-183.65138248835,-171.10341774074,30.047264726473,1257335.27688,1512.4158994694,2545803.2536949,35.247264726473,0,0
-183.65138238914,-171.13224064512,30.051695169517,1257335.27688,1512.4158994694,2545803.2536949,35.251695169517,0,0
-183.65138228993,-171.16106354949,30.056125612561,1257335.27688,1512.4158994694,2545803.2536949,35.256125612561,0,0
-183.65138219072,-171.18988645387,30.060556055606,1257335.27688,1512.4158994694,2545803.2536949,35.260556055606,0,0
-183.65138209151,-171.21870935824,30.06498649865,1257335.27688,1512.4158994694,2545803.2536949,35.26498649865,0,0
-183.6513819923,-171.24753226262,30.069416941694,1257335.27688,1512.4158994694,2545803.2536949,35.269416941694,0,0
-183.65138189309,-171.27635516699,30.073847384738,1257335.27688,1512.4158994694,2545803.2536949,35.273847384738,0,0
-183.65138179387,-171.30517807137,30.078277827783,1257335.27688,1512.4158994694,2545803.2536949,35.278277827783,0,0
-183.65138169466,-171.33400097574,30.082708270827,1257335.27688,1512.4158994694,2545803.2536949,35.282708270827,0,0
-183.65138159545,-171.36282388012,30.087138713871,1257335.27688,1512.4158994694,2545803.2536949,35.287138713871,0,0
-183.65138149624,-171.39164678449,30.091569156916,1257335.27688,1512.4158994694,2545803.2536949,35.291569156916,0,0
-183.65138139703,-171.42046968887,30.09599959996,1257335.27688,1512.4158994694,2545803.2536949,35.29599959996,0,0
-183.65138129782,-171.44929259325,30.100430043004,1257335.27688,1512.4158994694,2545803.2536949,35.300430043004,0,0
-183.65138119861,-171.47811549762,30.104860486049,1257335.27688,1512.4158994694,2545803.2536949,35.304860486049,0,0
-183.6513810994,-171.506938402,30.109290929093,1257335.27688,1512.4158994694,2545803.2536949,35.309290929093,0,0
-183.65138100019,-171.53576130637,30.113721372137,1257335.27688,1512.4158994694,2545803.2536949,35.313721372137,0,0
-183.65138090097,-171.56458421075,30.118151815182,1257335.27688,1512.4158994694,2545803.2536949,35.318151815182,0,0
-183.65138080176,-171.59340711512,30.122582258226,1257335.27688,1512.4158994694,2545803.2536949,35.322582258226,0,0
-183.65138070255,-171.6222300195,30.12701270127,1257335.27688,1512.4158994694,2545803.2536949,35.32701270127,0,0
-183.65138060334,-171.65105292387,30.131443144314,1257335.27688,1512.4158994694,2545803.2536949,35.331443144314,0,0
-183.65138050413,-171.67987582825,30.135873587359,1257335.27688,1512.4158994694,2545803.2536949,35.335873587359,0,0
-183.65138040492,-171.70869873263,30.140304030403,1257335.27688,1512.4158994694,2545803.2536949,35.340304030403,0,0
-183.65138030571,-171.737521637,30.144734473447,1257335.27688,1512.4158994694,2545803.2536949,35.344734473447,0,0
-183.6513802065,-171.76634454138,30.149164916492,1257335.27688,1512.4158994694,2545803.2536949,35.349164916492,0,0
-183.65138010729,-171.79516744575,30.153595359536,1257335.27688,1512.4158994694,2545803.2536949,35.353595359536,0,0
-183.65138000807,-171.82399035013,30.15802580258,1257335.27688,1512.4158994694,2545803.2536949,35.35802580258,0,0
-183.65137990886,-171.8528132545,30.162456245625,1257335.27688,1512.4158994694,2545803.2536949,35.362456245625,0,0
-183.65137980965,-171.88163615888,30.166886688669,1257335.27688,1512.4158994694,2545803.2536949,35.366886688669,0,0
-183.65137971044,-171.91045906325,30.171317131713,1257335.27688,1512.4158994694,2545803.2536949,35.371317131713,0,0
-183.65137961123,-171.93928196763,30.175747574757,1257335.27688,1512.4158994694,2545803.2536949,35.375747574757,0,0
-183.65137951202,-171.968104872,30.180178017802,1257335.27688,1512.4158994694,2545803.2536949,35.380178017802,0,0
-183.65137941281,-171.99692777638,30.184608460846,1257335.27688,1512.4158994694,2545803.2536949,35.384608460846,0,0
-183.6513793136,-172.02575068076,30.18903890389,1257335.27688,1512.4158994694,2545803.2536949,35.38903890389,0,0
-183.65137921439,-172.05457358513,30.193469346935,1257335.27688,1512.4158994694,2545803.2536949,35.393469346935,0,0
-183.65137911517,-172.08339648951,30.197899789979,1257335.27688,1512.4158994694,2545803.2536949,35.397899789979,0,0
-183.65137901596,-172.11221939388,30.202330233023,1257335.27688,1512.4158994694,2545803.2536949,35.402330233023,0,0
-183.65137891675,-172.14104229826,30.206760676068,1257335.27688,1512.4158994694,2545803.2536949,35.406760676068,0,0
-183.65137881754,-172.16986520263,30.211191119112,1257335.27688,1512.4158994694,2545803.2536949,35.411191119112,0,0
-183.65137871833,-172.19868810701,30.215621562156,1257335.27688,1512.4158994694,2545803.2536949,35.415621562156,0,0
-183.65137861912,-172.22751101138,30.220052005201,1257335.27688,1512.4158994694,2545803.2536949,35.420052005201,0,0
-183.65137851991,-172.25633391576,30.224482448245,1257335.27688,1512.4158994694,2545803.2536949,35.424482448245,0,0
-183.6513784207,-172.28515682014,30.228912891289,1257335.27688,1512.4158994694,2545803.2536949,35.428912891289,0,0
-183.65137832149,-172.31397972451,30.233343334333,1257335.27688,1512.4158994694,2545803.2536949,35.433343334333,0,0
-183.65137822227,-172.34280262889,30.237773777378,1257335.27688,1512.4158994694,2545803.2536949,35.437773777378,0,0
-183.65137812306,-172.37162553326,30.242204220422,1257335.27688,1512.4158994694,2545803.2536949,35.442204220422,0,0
-183.65137802385,-172.40044843764,30.246634663466,1257335.27688,1512.4158994694,2545803.2536949,35.446634663466,0,0
-183.65137792464,-172.42927134201,30.251065106511,1257335.27688,1512.4158994694,2545803.2536949,35.451065106511,0,0
-183.65137782543,-172.45809424639,30.255495549555,1257335.27688,1512.4158994694,2545803.2536949,35.455495549555,0,0
-183.65137772622,-172.48691715076,30.259925992599,1257335.27688,1512.4158994694,2545803.2536949,35.459925992599,0,0
-183.65137762701,-172.51574005514,30.264356435644,1257335.27688,1512.4158994694,2545803.2536949,35.464356435644,0,0
-183.6513775278,-172.54456295951,30.268786878688,1257335.27688,1512.4158994694,2545803.2536949,35.468786878688,0,0
-183.65137742859,-172.57338586389,30.273217321732,1257335.27688,1512.4158994694,2545803.2536949,35.473217321732,0,0
-183.65137732937,-172.60220876827,30.277647764776,1257335.27688,1512.4158994694,2545803.2536949,35.477647764776,0,0
-183.65137723016,-172.63103167264,30.282078207821,1257335.27688,1512.4158994694,2545803.2536949,35.482078207821,0,0
-183.65137713095,-172.65985457702,30.286508650865,1257335.27688,1512.4158994694,2545803.2536949,35.486508650865,0,0
-183.65137703174,-172.68867748139,30.290939093909,1257335.27688,1512.4158994694,2545803.2536949,35.490939093909,0,0
-183.65137693253,-172.71750038577,30.295369536954,1257335.27688,1512.4158994694,2545803.2536949,35.495369536954,0,0
-183.65137683332,-172.74632329014,30.299799979998,1257335.27688,1512.4158994694,2545803.2536949,35.499799979998,0,0
-183.65137673411,-172.77514619452,30.304230423042,1257335.27688,1512.4158994694,2545803.2536949,35.504230423042,0,0
-183.6513766349,-172.80396909889,30.308660866087,1257335.27688,1512.4158994694,2545803.2536949,35.508660866087,0,0
-183.65137653569,-172.83279200327,30.313091309131,1257335.27688,1512.4158994694,2545803.2536949,35.513091309131,0,0
-183.65137643647,-172.86161490765,30.317521752175,1257335.27688,1512.4158994694,2545803.2536949,35.517521752175,0,0
-183.65137633726,-172.89043781202,30.32195219522,1257335.27688,1512.4158994694,2545803.2536949,35.52195219522,0,0
-183.65137623805,-172.9192607164,30.326382638264,1257335.27688,1512.4158994694,2545803.2536949,35.526382638264,0,0
-183.65137613884,-172.94808362077,30.330813081308,1257335.27688,1512.4158994694,2545803.2536949,35.530813081308,0,0
-183.65137603963,-172.97690652515,30.335243524352,1257335.27688,1512.4158994694,2545803.2536949,35.535243524352,0,0
-183.65137594042,-173.00572942952,30.339673967397,1257335.27688,1512.4158994694,2545803.2536949,35.539673967397,0,0
-183.65137584121,-173.0345523339,30.344104410441,1257335.27688,1512.4158994694,2545803.2536949,35.544104410441,0,0
-183.651375742,-173.06337523827,30.348534853485,1257335.27688,1512.4158994694,2545803.2536949,35.548534853485,0,0
-183.65137564279,-173.09219814265,30.35296529653,1257335.27688,1512.4158994694,2545803.2536949,35.55296529653,0,0
-183.65137554357,-173.12102104702,30.357395739574,1257335.27688,1512.4158994694,2545803.2536949,35.557395739574,0,0
-183.65137544436,-173.1498439514,30.361826182618,1257335.27688,1512.4158994694,2545803.2536949,35.561826182618,0,0
-183.65137534515,-173.17866685578,30.366256625663,1257335.27688,1512.4158994694,2545803.2536949,35.566256625663,0,0
-183.65137524594,-173.20748976015,30.370687068707,1257335.27688,1512.4158994694,2545803.2536949,35.570687068707,0,0
-183.65137514673,-173.23631266453,30.375117511751,1257335.27688,1512.4158994694,2545803.2536949,35.575117511751,0,0
-183.65137504752,-173.2651355689,30.379547954795,1257335.27688,1512.4158994694,2545803.2536949,35.579547954795,0,0
-183.65137494831,-173.29395847328,30.38397839784,1257335.27688,1512.4158994694,2545803.2536949,35.58397839784,0,0
-183.6513748491,-173.32278137765,30.388408840884,1257335.27688,1512.4158994694,2545803.2536949,35.588408840884,0,0
-183.65137474989,-173.35160428203,30.392839283928,1257335.27688,1512.4158994694,2545803.2536949,35.592839283928,0,0
-183.65137465067,-173.3804271864,30.397269726973,1257335.27688,1512.4158994694,2545803.2536949,35.597269726973,0,0
-183.65137455146,-173.40925009078,30.401700170017,1257335.27688,1512.4158994694,2545803.2536949,35.601700170017,0,0
-183.65137445225,-173.43807299516,30.406130613061,1257335.27688,1512.4158994694,2545803.2536949,35.606130613061,0,0
-183.65137435304,-173.46689589953,30.410561056106,1257335.27688,1512.4158994694,2545803.2536949,35.610561056106,0,0
-183.65137425383,-173.49571880391,30.41499149915,1257335.27688,1512.4158994694,2545803.2536949,35.61499149915,0,0
-183.65137415462,-173.52454170828,30.419421942194,1257335.27688,1512.4158994694,2545803.2536949,35.619421942194,0,0
-183.65137405541,-173.55336461266,30.423852385239,1257335.27688,1512.4158994694,2545803.2536949,35.623852385239,0,0
-183.6513739562,-173.58218751703,30.428282828283,1257335.27688,1512.4158994694,2545803.2536949,35.628282828283,0,0
-183.65137385699,-173.61101042141,30.432713271327,1257335.27688,1512.4158994694,2545803.2536949,35.632713271327,0,0
-183.65137375778,-173.63983332578,30.437143714371,1257335.27688,1512.4158994694,2545803.2536949,35.637143714371,0,0
-183.65137365856,-173.66865623016,30.441574157416,1257335.27688,1512.4158994694,2545803.2536949,35.641574157416,0,0
-183.65137355935,-173.69747913454,30.44600460046,1257335.27688,1512.4158994694,2545803.2536949,35.64600460046,0,0
-183.65137346014,-173.72630203891,30.450435043504,1257335.27688,1512.4158994694,2545803.2536949,35.650435043504,0,0
-183.65137336093,-173.75512494329,30.454865486549,1257335.27688,1512.4158994694,2545803.2536949,35.654865486549,0,0
-183.65137326172,-173.78394784766,30.459295929593,1257335.27688,1512.4158994694,2545803.2536949,35.659295929593,0,0
-183.65137316251,-173.81277075204,30.463726372637,1257335.27688,1512.4158994694,2545803.2536949,35.663726372637,0,0
-183.6513730633,-173.84159365641,30.468156815682,1257335.27688,1512.4158994694,2545803.2536949,35.668156815682,0,0
-183.65137296409,-173.87041656079,30.472587258726,1257335.27688,1512.4158994694,2545803.2536949,35.672587258726,0,0
-183.65137286488,-173.89923946516,30.47701770177,1257335.27688,1512.4158994694,2545803.2536949,35.67701770177,0,0
-183.65137276566,-173.92806236954,30.481448144814,1257335.27688,1512.4158994694,2545803.2536949,35.681448144814,0,0
-183.65137266645,-173.95688527391,30.485878587859,1257335.27688,1512.4158994694,2545803.2536949,35.685878587859,0,0
-183.65137256724,-173.98570817829,30.490309030903,1257335.27688,1512.4158994694,2545803.2536949,35.690309030903,0,0
-183.65137246803,-174.01453108267,30.494739473947,1257335.27688,1512.4158994694,2545803.2536949,35.694739473947,0,0
-183.65137236882,-174.04335398704,30.499169916992,1257335.27688,1512.4158994694,2545803.2536949,35.699169916992,0,0
-183.65137226961,-174.07217689142,30.503600360036,1257335.27688,1512.4158994694,2545803.2536949,35.703600360036,0,0
-183.6513721704,-174.10099979579,30.50803080308,1257335.27688,1512.4158994694,2545803.2536949,35.70803080308,0,0
-183.65137207119,-174.12982270017,30.512461246125,1257335.27688,1512.4158994694,2545803.2536949,35.712461246125,0,0
-183.65137197198,-174.15864560454,30.516891689169,1257335.27688,1512.4158994694,2545803.2536949,35.716891689169,0,0
-183.65137187276,-174.18746850892,30.521322132213,1257335.27688,1512.4158994694,2545803.2536949,35.721322132213,0,0
-183.65137177355,-174.21629141329,30.525752575258,1257335.27688,1512.4158994694,2545803.2536949,35.725752575258,0,0
-183.65137167434,-174.24511431767,30.530183018302,1257335.27688,1512.4158994694,2545803.2536949,35.730183018302,0,0
-183.65137157513,-174.27393722205,30.534613461346,1257335.27688,1512.4158994694,2545803.2536949,35.734613461346,0,0
-183.65137147592,-174.30276012642,30.53904390439,1257335.27688,1512.4158994694,2545803.2536949,35.73904390439,0,0
-183.65137137671,-174.3315830308,30.543474347435,1257335.27688,1512.4158994694,2545803.2536949,35.743474347435,0,0
-183.6513712775,-174.36040593517,30.547904790479,1257335.27688,1512.4158994694,2545803.2536949,35.747904790479,0,0
-183.65137117829,-174.38922883955,30.552335233523,1257335.27688,1512.4158994694,2545803.2536949,35.752335233523,0,0
-183.65137107908,-174.41805174392,30.556765676568,1257335.27688,1512.4158994694,2545803.2536949,35.756765676568,0,0
-183.65137097986,-174.4468746483,30.561196119612,1257335.27688,1512.4158994694,2545803.2536949,35.761196119612,0,0
-183.65137088065,-174.47569755267,30.565626562656,1257335.27688,1512.4158994694,2545803.2536949,35.765626562656,0,0
-183.65137078144,-174.50452045705,30.570057005701,1257335.27688,1512.4158994694,2545803.2536949,35.770057005701,0,0
-183.65137068223,-174.53334336142,30.574487448745,1257335.27688,1512.4158994694,2545803.2536949,35.774487448745,0,0
-183.65137058302,-174.5621662658,30.578917891789,1257335.27688,1512.4158994694,2545803.2536949,35.778917891789,0,0
-183.65137048381,-174.59098917018,30.583348334833,1257335.27688,1512.4158994694,2545803.2536949,35.783348334833,0,0
-183.6513703846,-174.61981207455,30.587778777878,1257335.27688,1512.4158994694,2545803.2536949,35.787778777878,0,0
-183.65137028539,-174.64863497893,30.592209220922,1257335.27688,1512.4158994694,2545803.2536949,35.792209220922,0,0
-183.65137018618,-174.6774578833,30.596639663966,1257335.27688,1512.4158994694,2545803.2536949,35.796639663966,0,0
-183.65137008696,-174.70628078768,30.601070107011,1257335.27688,1512.4158994694,2545803.2536949,35.801070107011,0,0
-183.65136998775,-174.73510369205,30.605500550055,1257335.27688,1512.4158994694,2545803.2536949,35.805500550055,0,0
-183.65136988854,-174.76392659643,30.609930993099,1257335.27688,1512.4158994694,2545803.2536949,35.809930993099,0,0
-183.65136978933,-174.7927495008,30.614361436144,1257335.27688,1512.4158994694,2545803.2536949,35.814361436144,0,0
-183.65136969012,-174.82157240518,30.618791879188,1257335.27688,1512.4158994694,2545803.2536949,35.818791879188,0,0
-183.65136959091,-174.85039530956,30.623222322232,1257335.27688,1512.4158994694,2545803.2536949,35.823222322232,0,0
-183.6513694917,-174.87921821393,30.627652765277,1257335.27688,1512.4158994694,2545803.2536949,35.827652765277,0,0
-183.65136939249,-174.90804111831,30.632083208321,1257335.27688,1512.4158994694,2545803.2536949,35.832083208321,0,0
-183.65136929328,-174.93686402268,30.636513651365,1257335.27688,1512.4158994694,2545803.2536949,35.836513651365,0,0
-183.65136919406,-174.96568692706,30.640944094409,1257335.27688,1512.4158994694,2545803.2536949,35.840944094409,0,0
-183.65136909485,-174.99450983143,30.645374537454,1257335.27688,1512.4158994694,2545803.2536949,35.845374537454,0,0
-183.65136899564,-175.02333273581,30.649804980498,1257335.27688,1512.4158994694,2545803.2536949,35.849804980498,0,0
-183.65136889643,-175.05215564018,30.654235423542,1257335.27688,1512.4158994694,2545803.2536949,35.854235423542,0,0
-183.65136879722,-175.08097854456,30.658665866587,1257335.27688,1512.4158994694,2545803.2536949,35.858665866587,0,0
-183.65136869801,-175.10980144893,30.663096309631,1257335.27688,1512.4158994694,2545803.2536949,35.863096309631,0,0
-183.6513685988,-175.13862435331,30.667526752675,1257335.27688,1512.4158994694,2545803.2536949,35.867526752675,0,0
-183.65136849959,-175.16744725769,30.67195719572,1257335.27688,1512.4158994694,2545803.2536949,35.87195719572,0,0
-183.65136840038,-175.19627016206,30.676387638764,1257335.27688,1512.4158994694,2545803.2536949,35.876387638764,0,0
-183.65136830116,-175.22509306644,30.680818081808,1257335.27688,1512.4158994694,2545803.2536949,35.880818081808,0,0
-183.65136820195,-175.25391597081,30.685248524852,1257335.27688,1512.4158994694,2545803.2536949,35.885248524852,0,0
-183.65136810274,-175.28273887519,30.689678967897,1257335.27688,1512.4158994694,2545803.2536949,35.889678967897,0,0
-183.65136800353,-175.31156177956,30.694109410941,1257335.27688,1512.4158994694,2545803.2536949,35.894109410941,0,0
-183.65136790432,-175.34038468394,30.698539853985,1257335.27688,1512.4158994694,2545803.2536949,35.898539853985,0,0
-183.65136780511,-175.36920758831,30.70297029703,1257335.27688,1512.4158994694,2545803.2536949,35.90297029703,0,0
-183.6513677059,-175.39803049269,30.707400740074,1257335.27688,1512.4158994694,2545803.2536949,35.907400740074,0,0
-183.65136760669,-175.42685339707,30.711831183118,1257335.27688,1512.4158994694,2545803.2536949,35.911831183118,0,0
-183.65136750748,-175.45567630144,30.716261626163,1257335.27688,1512.4158994694,2545803.2536949,35.916261626163,0,0
-183.65136740826,-175.48449920582,30.720692069207,1257335.27688,1512.4158994694,2545803.2536949,35.920692069207,0,0
-183.65136730905,-175.51332211019,30.725122512251,1257335.27688,1512.4158994694,2545803.2536949,35.925122512251,0,0
-183.65136720984,-175.54214501457,30.729552955296,1257335.27688,1512.4158994694,2545803.2536949,35.929552955296,0,0
-183.65136711063,-175.57096791894,30.73398339834,1257335.27688,1512.4158994694,2545803.2536949,35.93398339834,0,0
-183.65136701142,-175.59979082332,30.738413841384,1257335.27688,1512.4158994694,2545803.2536949,35.938413841384,0,0
-183.65136691221,-175.62861372769,30.742844284428,1257335.27688,1512.4158994694,2545803.2536949,35.942844284428,0,0
-183.651366813,-175.65743663207,30.747274727473,1257335.27688,1512.4158994694,2545803.2536949,35.947274727473,0,0
-183.65136671379,-175.68625953644,30.751705170517,1257335.27688,1512.4158994694,2545803.2536949,35.951705170517,0,0
-183.65136661458,-175.71508244082,30.756135613561,1257335.27688,1512.4158994694,2545803.2536949,35.956135613561,0,0
-183.65136651536,-175.7439053452,30.760566056606,1257335.27688,1512.4158994694,2545803.2536949,35.960566056606,0,0
-183.65136641615,-175.77272824957,30.76499649965,1257335.27688,1512.4158994694,2545803.2536949,35.96499649965,0,0
-183.65136631694,-175.80155115395,30.769426942694,1257335.27688,1512.4158994694,2545803.2536949,35.969426942694,0,0
-183.65136621773,-175.83037405832,30.773857385739,1257335.27688,1512.4158994694,2545803.2536949,35.973857385739,0,0
-183.65136611852,-175.8591969627,30.778287828783,1257335.27688,1512.4158994694,2545803.2536949,35.978287828783,0,0
-183.65136601931,-175.88801986707,30.782718271827,1257335.27688,1512.4158994694,2545803.2536949,35.982718271827,0,0
-183.6513659201,-175.91684277145,30.787148714871,1257335.27688,1512.4158994694,2545803.2536949,35.987148714871,0,0
-183.65136582089,-175.94566567582,30.791579157916,1257335.27688,1512.4158994694,2545803.2536949,35.991579157916,0,0
-183.65136572168,-175.9744885802,30.79600960096,1257335.27688,1512.4158994694,2545803.2536949,35.99600960096,0,0
-183.65136562246,-176.00331148458,30.800440044004,1257335.27688,1512.4158994694,2545803.2536949,36.000440044004,0,0
-183.65136552325,-176.03213438895,30.804870487049,1257335.27688,1512.4158994694,2545803.2536949,36.004870487049,0,0
-183.65136542404,-176.06095729333,30.809300930093,1257335.27688,1512.4158994694,2545803.2536949,36.009300930093,0,0
-183.65136532483,-176.0897801977,30.813731373137,1257335.27688,1512.4158994694,2545803.2536949,36.013731373137,0,0
-183.65136522562,-176.11860310208,30.818161816182,1257335.27688,1512.4158994694,2545803.2536949,36.018161816182,0,0
-183.65136512641,-176.14742600645,30.822592259226,1257335.27688,1512.4158994694,2545803.2536949,36.022592259226,0,0
-183.6513650272,-176.17624891083,30.82702270227,1257335.27688,1512.4158994694,2545803.2536949,36.02702270227,0,0
-183.65136492799,-176.2050718152,30.831453145315,1257335.27688,1512.4158994694,2545803.2536949,36.031453145315,0,0
-183.65136482878,-176.23389471958,30.835883588359,1257335.27688,1512.4158994694,2545803.2536949,36.035883588359,0,0
-183.65136472956,-176.26271762395,30.840314031403,1257335.27688,1512.4158994694,2545803.2536949,36.040314031403,0,0
-183.65136463035,-176.29154052833,30.844744474447,1257335.27688,1512.4158994694,2545803.2536949,36.044744474447,0,0
-183.65136453114,-176.32036343271,30.849174917492,1257335.27688,1512.4158994694,2545803.2536949,36.049174917492,0,0
-183.65136443193,-176.34918633708,30.853605360536,1257335.27688,1512.4158994694,2545803.2536949,36.053605360536,0,0
-183.65136433272,-176.37800924146,30.85803580358,1257335.27688,1512.4158994694,2545803.2536949,36.05803580358,0,0
-183.65136423351,-176.40683214583,30.862466246625,1257335.27688,1512.4158994694,2545803.2536949,36.062466246625,0,0
-183.6513641343,-176.43565505021,30.866896689669,1257335.27688,1512.4158994694,2545803.2536949,36.066896689669,0,0
-183.65136403509,-176.46447795458,30.871327132713,1257335.27688,1512.4158994694,2545803.2536949,36.071327132713,0,0
-183.65136393588,-176.49330085896,30.875757575758,1257335.27688,1512.4158994694,2545803.2536949,36.075757575758,0,0
-183.65136383666,-176.52212376333,30.880188018802,1257335.27688,1512.4158994694,2545803.2536949,36.080188018802,0,0
-183.65136373745,-176.55094666771,30.884618461846,1257335.27688,1512.4158994694,2545803.2536949,36.084618461846,0,0
-183.65136363824,-176.57976957209,30.88904890489,1257335.27688,1512.4158994694,2545803.2536949,36.08904890489,0,0
-183.65136353903,-176.60859247646,30.893479347935,1257335.27688,1512.4158994694,2545803.2536949,36.093479347935,0,0
-183.65136343982,-176.63741538084,30.897909790979,1257335.27688,1512.4158994694,2545803.2536949,36.097909790979,0,0
-183.65136334061,-176.66623828521,30.902340234023,1257335.27688,1512.4158994694,2545803.2536949,36.102340234023,0,0
-183.6513632414,-176.69506118959,30.906770677068,1257335.27688,1512.4158994694,2545803.2536949,36.106770677068,0,0
-183.65136314219,-176.72388409396,30.911201120112,1257335.27688,1512.4158994694,2545803.2536949,36.111201120112,0,0
-183.65136304298,-176.75270699834,30.915631563156,1257335.27688,1512.4158994694,2545803.2536949,36.115631563156,0,0
-183.65136294376,-176.78152990271,30.920062006201,1257335.27688,1512.4158994694,2545803.2536949,36.120062006201,0,0
-183.65136284455,-176.81035280709,30.924492449245,1257335.27688,1512.4158994694,2545803.2536949,36.124492449245,0,0
-183.65136274534,-176.83917571147,30.928922892289,1257335.27688,1512.4158994694,2545803.2536949,36.128922892289,0,0
-183.65136264613,-176.86799861584,30.933353335334,1257335.27688,1512.4158994694,2545803.2536949,36.133353335334,0,0
-183.65136254692,-176.89682152022,30.937783778378,1257335.27688,1512.4158994694,2545803.2536949,36.137783778378,0,0
-183.65136244771,-176.92564442459,30.942214221422,1257335.27688,1512.4158994694,2545803.2536949,36.142214221422,0,0
-183.6513623485,-176.95446732897,30.946644664466,1257335.27688,1512.4158994694,2545803.2536949,36.146644664466,0,0
-183.65136224929,-176.98329023334,30.951075107511,1257335.27688,1512.4158994694,2545803.2536949,36.151075107511,0,0
-183.65136215008,-177.01211313772,30.955505550555,1257335.27688,1512.4158994694,2545803.2536949,36.155505550555,0,0
-183.65136205086,-177.04093604209,30.959935993599,1257335.27688,1512.4158994694,2545803.2536949,36.159935993599,0,0
-183.65136195165,-177.06975894647,30.964366436644,1257335.27688,1512.4158994694,2545803.2536949,36.164366436644,0,0
-183.65136185244,-177.09858185084,30.968796879688,1257335.27688,1512.4158994694,2545803.2536949,36.168796879688,0,0
-183.65136175323,-177.12740475522,30.973227322732,1257335.27688,1512.4158994694,2545803.2536949,36.173227322732,0,0
-183.65136165402,-177.1562276596,30.977657765777,1257335.27688,1512.4158994694,2545803.2536949,36.177657765777,0,0
-183.65136155481,-177.18505056397,30.982088208821,1257335.27688,1512.4158994694,2545803.2536949,36.182088208821,0,0
-183.6513614556,-177.21387346835,30.986518651865,1257335.27688,1512.4158994694,2545803.2536949,36.186518651865,0,0
-183.65136135639,-177.24269637272,30.990949094909,1257335.27688,1512.4158994694,2545803.2536949,36.190949094909,0,0
-183.65136125718,-177.2715192771,30.995379537954,1257335.27688,1512.4158994694,2545803.2536949,36.195379537954,0,0
-183.65136115796,-177.30034218147,30.999809980998,1257335.27688,1512.4158994694,2545803.2536949,36.199809980998,0,0
-183.65136105875,-177.32916508585,31.004240424042,1257335.27688,1512.4158994694,2545803.2536949,36.204240424042,0,0
-183.65136095954,-177.35798799022,31.008670867087,1257335.27688,1512.4158994694,2545803.2536949,36.208670867087,0,0
-183.65136086033,-177.3868108946,31.013101310131,1257335.27688,1512.4158994694,2545803.2536949,36.213101310131,0,0
-183.65136076112,-177.41563379898,31.017531753175,1257335.27688,1512.4158994694,2545803.2536949,36.217531753175,0,0
-183.65136066191,-177.44445670335,31.02196219622,1257335.27688,1512.4158994694,2545803.2536949,36.22196219622,0,0
-183.6513605627,-177.47327960773,31.026392639264,1257335.27688,1512.4158994694,2545803.2536949,36.226392639264,0,0
-183.65136046349,-177.5021025121,31.030823082308,1257335.27688,1512.4158994694,2545803.2536949,36.230823082308,0,0
-183.65136036428,-177.53092541648,31.035253525353,1257335.27688,1512.4158994694,2545803.2536949,36.235253525353,0,0
-183.65136026506,-177.55974832085,31.039683968397,1257335.27688,1512.4158994694,2545803.2536949,36.239683968397,0,0
-183.65136016585,-177.58857122523,31.044114411441,1257335.27688,1512.4158994694,2545803.2536949,36.244114411441,0,0
-183.65136006664,-177.6173941296,31.048544854485,1257335.27688,1512.4158994694,2545803.2536949,36.248544854485,0,0
-183.65135996743,-177.64621703398,31.05297529753,1257335.27688,1512.4158994694,2545803.2536949,36.25297529753,0,0
-183.65135986822,-177.67503993835,31.057405740574,1257335.27688,1512.4158994694,2545803.2536949,36.257405740574,0,0
-183.65135976901,-177.70386284273,31.061836183618,1257335.27688,1512.4158994694,2545803.2536949,36.261836183618,0,0
-183.6513596698,-177.73268574711,31.066266626663,1257335.27688,1512.4158994694,2545803.2536949,36.266266626663,0,0
-183.65135957059,-177.76150865148,31.070697069707,1257335.27688,1512.4158994694,2545803.2536949,36.270697069707,0,0
-183.65135947138,-177.79033155586,31.075127512751,1257335.27688,1512.4158994694,2545803.2536949,36.275127512751,0,0
-183.65135937216,-177.81915446023,31.079557955796,1257335.27688,1512.4158994694,2545803.2536949,36.279557955796,0,0
-183.65135927295,-177.84797736461,31.08398839884,1257335.27688,1512.4158994694,2545803.2536949,36.28398839884,0,0
-183.65135917374,-177.87680026898,31.088418841884,1257335.27688,1512.4158994694,2545803.2536949,36.288418841884,0,0
-183.65135907453,-177.90562317336,31.092849284928,1257335.27688,1512.4158994694,2545803.2536949,36.292849284928,0,0
-183.65135897532,-177.93444607773,31.097279727973,1257335.27688,1512.4158994694,2545803.2536949,36.297279727973,0,0
-183.65135887611,-177.96326898211,31.101710171017,1257335.27688,1512.4158994694,2545803.2536949,36.301710171017,0,0
-183.6513587769,-177.99209188649,31.106140614061,1257335.27688,1512.4158994694,2545803.2536949,36.306140614061,0,0
-183.65135867769,-178.02091479086,31.110571057106,1257335.27688,1512.4158994694,2545803.2536949,36.310571057106,0,0
-183.65135857848,-178.04973769524,31.11500150015,1257335.27688,1512.4158994694,2545803.2536949,36.31500150015,0,0
-183.65135847926,-178.07856059961,31.119431943194,1257335.27688,1512.4158994694,2545803.2536949,36.319431943194,0,0
-183.65135838005,-178.10738350399,31.123862386239,1257335.27688,1512.4158994694,2545803.2536949,36.323862386239,0,0
-183.65135828084,-178.13620640836,31.128292829283,1257335.27688,1512.4158994694,2545803.2536949,36.328292829283,0,0
-183.65135818163,-178.16502931274,31.132723272327,1257335.27688,1512.4158994694,2545803.2536949,36.332723272327,0,0
-183.65135808242,-178.19385221711,31.137153715372,1257335.27688,1512.4158994694,2545803.2536949,36.337153715372,0,0
-183.65135798321,-178.22267512149,31.141584158416,1257335.27688,1512.4158994694,2545803.2536949,36.341584158416,0,0
-183.651357884,-178.25149802586,31.14601460146,1257335.27688,1512.4158994694,2545803.2536949,36.34601460146,0,0
-183.65135778479,-178.28032093024,31.150445044504,1257335.27688,1512.4158994694,2545803.2536949,36.350445044504,0,0
-183.65135768558,-178.30914383462,31.154875487549,1257335.27688,1512.4158994694,2545803.2536949,36.354875487549,0,0
-183.65135758636,-178.33796673899,31.159305930593,1257335.27688,1512.4158994694,2545803.2536949,36.359305930593,0,0
-183.65135748715,-178.36678964337,31.163736373637,1257335.27688,1512.4158994694,2545803.2536949,36.363736373637,0,0
-183.65135738794,-178.39561254774,31.168166816682,1257335.27688,1512.4158994694,2545803.2536949,36.368166816682,0,0
-183.65135728873,-178.42443545212,31.172597259726,1257335.27688,1512.4158994694,2545803.2536949,36.372597259726,0,0
-183.65135718952,-178.45325835649,31.17702770277,1257335.27688,1512.4158994694,2545803.2536949,36.37702770277,0,0
-183.65135709031,-178.48208126087,31.181458145815,1257335.27688,1512.4158994694,2545803.2536949,36.381458145815,0,0
-183.6513569911,-178.51090416524,31.185888588859,1257335.27688,1512.4158994694,2545803.2536949,36.385888588859,0,0
-183.65135689189,-178.53972706962,31.190319031903,1257335.27688,1512.4158994694,2545803.2536949,36.390319031903,0,0
-183.65135679268,-178.568549974,31.194749474947,1257335.27688,1512.4158994694,2545803.2536949,36.394749474947,0,0
-183.65135669346,-178.59737287837,31.199179917992,1257335.27688,1512.4158994694,2545803.2536949,36.399179917992,0,0
-183.65135659425,-178.62619578275,31.203610361036,1257335.27688,1512.4158994694,2545803.2536949,36.403610361036,0,0
-183.65135649504,-178.65501868712,31.20804080408,1257335.27688,1512.4158994694,2545803.2536949,36.40804080408,0,0
-183.65135639583,-178.6838415915,31.212471247125,1257335.27688,1512.4158994694,2545803.2536949,36.412471247125,0,0
-183.65135629662,-178.71266449587,31.216901690169,1257335.27688,1512.4158994694,2545803.2536949,36.416901690169,0,0
-183.65135619741,-178.74148740025,31.221332133213,1257335.27688,1512.4158994694,2545803.2536949,36.421332133213,0,0
-183.6513560982,-178.77031030462,31.225762576258,1257335.27688,1512.4158994694,2545803.2536949,36.425762576258,0,0
-183.65135599899,-178.799133209,31.230193019302,1257335.27688,1512.4158994694,2545803.2536949,36.430193019302,0,0
-183.65135589978,-178.82795611337,31.234623462346,1257335.27688,1512.4158994694,2545803.2536949,36.434623462346,0,0
-183.65135580056,-178.85677901775,31.239053905391,1257335.27688,1512.4158994694,2545803.2536949,36.439053905391,0,0
-183.65135570135,-178.88560192213,31.243484348435,1257335.27688,1512.4158994694,2545803.2536949,36.443484348435,0,0
-183.65135560214,-178.9144248265,31.247914791479,1257335.27688,1512.4158994694,2545803.2536949,36.447914791479,0,0
-183.65135550293,-178.94324773088,31.252345234523,1257335.27688,1512.4158994694,2545803.2536949,36.452345234523,0,0
-183.65135540372,-178.97207063525,31.256775677568,1257335.27688,1512.4158994694,2545803.2536949,36.456775677568,0,0
-183.65135530451,-179.00089353963,31.261206120612,1257335.27688,1512.4158994694,2545803.2536949,36.461206120612,0,0
-183.6513552053,-179.029716444,31.265636563656,1257335.27688,1512.4158994694,2545803.2536949,36.465636563656,0,0
-183.65135510609,-179.05853934838,31.270067006701,1257335.27688,1512.4158994694,2545803.2536949,36.470067006701,0,0
-183.65135500688,-179.08736225275,31.274497449745,1257335.27688,1512.4158994694,2545803.2536949,36.474497449745,0,0
-183.65135490766,-179.11618515713,31.278927892789,1257335.27688,1512.4158994694,2545803.2536949,36.478927892789,0,0
-183.65135480845,-179.14500806151,31.283358335834,1257335.27688,1512.4158994694,2545803.2536949,36.483358335834,0,0
-183.65135470924,-179.17383096588,31.287788778878,1257335.27688,1512.4158994694,2545803.2536949,36.487788778878,0,0
-183.65135461003,-179.20265387026,31.292219221922,1257335.27688,1512.4158994694,2545803.2536949,36.492219221922,0,0
-183.6513545108,-179.23147677498,31.296649664966,1256291.9685702,-868.65482956007,2541313.8565408,36.496649664966,0,0
-183.65135441155,-179.26029967989,31.301080108011,1256291.9685702,-868.65482956007,2541313.8565408,36.501080108011,0,0
-183.6513543123,-179.28912258479,31.305510551055,1256291.9685702,-868.65482956007,2541313.8565408,36.505510551055,0,0
-183.65135421305,-179.3179454897,31.309940994099,1256291.9685702,-868.65482956007,2541313.8565408,36.509940994099,0,0
-183.65135411381,-179.3467683946,31.314371437144,1256291.9685702,-868.65482956007,2541313.8565408,36.514371437144,0,0
-183.65135401456,-179.37559129951,31.318801880188,1256291.9685702,-868.65482956007,2541313.8565408,36.518801880188,0,0
-183.65135391531,-179.40441420441,31.323232323232,1256291.9685702,-868.65482956007,2541313.8565408,36.523232323232,0,0
-183.65135381607,-179.43323710932,31.327662766277,1256291.9685702,-868.65482956007,2541313.8565408,36.527662766277,0,0
-183.65135371682,-179.46206001422,31.332093209321,1256291.9685702,-868.65482956007,2541313.8565408,36.532093209321,0,0
-183.65135361757,-179.49088291913,31.336523652365,1256291.9685702,-868.65482956007,2541313.8565408,36.536523652365,0,0
-183.65135351832,-179.51970582403,31.34095409541,1256291.9685702,-868.65482956007,2541313.8565408,36.54095409541,0,0
-183.65135341908,-179.54852872894,31.345384538454,1256291.9685702,-868.65482956007,2541313.8565408,36.545384538454,0,0
-183.65135331983,-179.57735163384,31.349814981498,1256291.9685702,-868.65482956007,2541313.8565408,36.549814981498,0,0
-183.65135322058,-179.60617453875,31.354245424542,1256291.9685702,-868.65482956007,2541313.8565408,36.554245424542,0,0
-183.65135312133,-179.63499744366,31.358675867587,1256291.9685702,-868.65482956007,2541313.8565408,36.558675867587,0,0
-183.65135302209,-179.66382034856,31.363106310631,1256291.9685702,-868.65482956007,2541313.8565408,36.563106310631,0,0
-183.65135292284,-179.69264325347,31.367536753675,1256291.9685702,-868.65482956007,2541313.8565408,36.567536753675,0,0
-183.65135282359,-179.72146615837,31.37196719672,1256291.9685702,-868.65482956007,2541313.8565408,36.57196719672,0,0
-183.65135272434,-179.75028906328,31.376397639764,1256291.9685702,-868.65482956007,2541313.8565408,36.576397639764,0,0
-183.6513526251,-179.77911196818,31.380828082808,1256291.9685702,-868.65482956007,2541313.8565408,36.580828082808,0,0
-183.65135252585,-179.80793487309,31.385258525853,1256291.9685702,-868.65482956007,2541313.8565408,36.585258525853,0,0
-183.6513524266,-179.83675777799,31.389688968897,1256291.9685702,-868.65482956007,2541313.8565408,36.589688968897,0,0
-183.65135232736,-179.8655806829,31.394119411941,1256291.9685702,-868.65482956007,2541313.8565408,36.594119411941,0,0
-183.65135222811,-179.8944035878,31.398549854986,1256291.9685702,-868.65482956007,2541313.8565408,36.598549854985,0,0
-183.65135212886,-179.92322649271,31.40298029803,1256291.9685702,-868.65482956007,2541313.8565408,36.60298029803,0,0
-183.65135202961,-179.95204939761,31.407410741074,1256291.9685702,-868.65482956007,2541313.8565408,36.607410741074,0,0
-183.65135193037,-179.98087230252,31.411841184118,1256291.9685702,-868.65482956007,2541313.8565408,36.611841184118,0,0
-183.65135183112,-180.00969520742,31.416271627163,1256291.9685702,-868.65482956007,2541313.8565408,36.616271627163,0,0
-183.65135173187,-180.03851811233,31.420702070207,1256291.9685702,-868.65482956007,2541313.8565408,36.620702070207,0,0
-183.65135163262,-180.06734101723,31.425132513251,1256291.9685702,-868.65482956007,2541313.8565408,36.625132513251,0,0
-183.65135153338,-180.09616392214,31.429562956296,1256291.9685702,-868.65482956007,2541313.8565408,36.629562956296,0,0
-183.65135143413,-180.12498682705,31.43399339934,1256291.9685702,-868.65482956007,2541313.8565408,36.63399339934,0,0
-183.65135133488,-180.15380973195,31.438423842384,1256291.9685702,-868.65482956007,2541313.8565408,36.638423842384,0,0
-183.65135123564,-180.18263263686,31.442854285429,1256291.9685702,-868.65482956007,2541313.8565408,36.642854285429,0,0
-183.65135113639,-180.21145554176,31.447284728473,1256291.9685702,-868.65482956007,2541313.8565408,36.647284728473,0,0
-183.65135103714,-180.24027844667,31.451715171517,1256291.9685702,-868.65482956007,2541313.8565408,36.651715171517,0,0
-183.65135093789,-180.26910135157,31.456145614561,1256291.9685702,-868.65482956007,2541313.8565408,36.656145614561,0,0
-183.65135083865,-180.29792425648,31.460576057606,1256291.9685702,-868.65482956007,2541313.8565408,36.660576057606,0,0
-183.6513507394,-180.32674716138,31.46500650065,1256291.9685702,-868.65482956007,2541313.8565408,36.66500650065,0,0
-183.65135064015,-180.35557006629,31.469436943694,1256291.9685702,-868.65482956007,2541313.8565408,36.669436943694,0,0
-183.6513505409,-180.38439297119,31.473867386739,1256291.9685702,-868.65482956007,2541313.8565408,36.673867386739,0,0
-183.65135044166,-180.4132158761,31.478297829783,1256291.9685702,-868.65482956007,2541313.8565408,36.678297829783,0,0
-183.65135034241,-180.442038781,31.482728272827,1256291.9685702,-868.65482956007,2541313.8565408,36.682728272827,0,0
-183.65135024316,-180.47086168591,31.487158715872,1256291.9685702,-868.65482956007,2541313.8565408,36.687158715872,0,0
-183.65135014391,-180.49968459081,31.491589158916,1256291.9685702,-868.65482956007,2541313.8565408,36.691589158916,0,0
-183.65135004467,-180.52850749572,31.49601960196,1256291.9685702,-868.65482956007,2541313.8565408,36.69601960196,0,0
-183.65134994542,-180.55733040062,31.500450045005,1256291.9685702,-868.65482956007,2541313.8565408,36.700450045005,0,0
-183.65134984617,-180.58615330553,31.504880488049,1256291.9685702,-868.65482956007,2541313.8565408,36.704880488049,0,0
-183.65134974693,-180.61497621044,31.509310931093,1256291.9685702,-868.65482956007,2541313.8565408,36.709310931093,0,0
-183.65134964768,-180.64379911534,31.513741374137,1256291.9685702,-868.65482956007,2541313.8565408,36.713741374137,0,0
-183.65134954843,-180.67262202025,31.518171817182,1256291.9685702,-868.65482956007,2541313.8565408,36.718171817182,0,0
-183.65134944918,-180.70144492515,31.522602260226,1256291.9685702,-868.65482956007,2541313.8565408,36.722602260226,0,0
-183.65134934994,-180.73026783006,31.52703270327,1256291.9685702,-868.65482956007,2541313.8565408,36.72703270327,0,0
-183.65134925069,-180.75909073496,31.531463146315,1256291.9685702,-868.65482956007,2541313.8565408,36.731463146315,0,0
-183.65134915144,-180.78791363987,31.535893589359,1256291.9685702,-868.65482956007,2541313.8565408,36.735893589359,0,0
-183.65134905219,-180.81673654477,31.540324032403,1256291.9685702,-868.65482956007,2541313.8565408,36.740324032403,0,0
-183.65134895295,-180.84555944968,31.544754475448,1256291.9685702,-868.65482956007,2541313.8565408,36.744754475448,0,0
-183.6513488537,-180.87438235458,31.549184918492,1256291.9685702,-868.65482956007,2541313.8565408,36.749184918492,0,0
-183.65134875445,-180.90320525949,31.553615361536,1256291.9685702,-868.65482956007,2541313.8565408,36.753615361536,0,0
-183.65134865521,-180.93202816439,31.55804580458,1256291.9685702,-868.65482956007,2541313.8565408,36.75804580458,0,0
-183.65134855596,-180.9608510693,31.562476247625,1256291.9685702,-868.65482956007,2541313.8565408,36.762476247625,0,0
-183.65134845671,-180.9896739742,31.566906690669,1256291.9685702,-868.65482956007,2541313.8565408,36.766906690669,0,0
-183.65134835746,-181.01849687911,31.571337133713,1256291.9685702,-868.65482956007,2541313.8565408,36.771337133713,0,0
-183.65134825822,-181.04731978401,31.575767576758,1256291.9685702,-868.65482956007,2541313.8565408,36.775767576758,0,0
-183.65134815897,-181.07614268892,31.580198019802,1256291.9685702,-868.65482956007,2541313.8565408,36.780198019802,0,0
-183.65134805972,-181.10496559382,31.584628462846,1256291.9685702,-868.65482956007,2541313.8565408,36.784628462846,0,0
-183.65134796047,-181.13378849873,31.589058905891,1256291.9685702,-868.65482956007,2541313.8565408,36.789058905891,0,0
-183.65134786123,-181.16261140364,31.593489348935,1256291.9685702,-868.65482956007,2541313.8565408,36.793489348935,0,0
-183.65134776198,-181.19143430854,31.597919791979,1256291.9685702,-868.65482956007,2541313.8565408,36.797919791979,0,0
-183.65134766273,-181.22025721345,31.602350235024,1256291.9685702,-868.65482956007,2541313.8565408,36.802350235024,0,0
-183.65134756349,-181.24908011835,31.606780678068,1256291.9685702,-868.65482956007,2541313.8565408,36.806780678068,0,0
-183.65134746424,-181.27790302326,31.611211121112,1256291.9685702,-868.65482956007,2541313.8565408,36.811211121112,0,0
-183.65134736499,-181.30672592816,31.615641564156,1256291.9685702,-868.65482956007,2541313.8565408,36.815641564156,0,0
-183.65134726574,-181.33554883307,31.620072007201,1256291.9685702,-868.65482956007,2541313.8565408,36.820072007201,0,0
-183.6513471665,-181.36437173797,31.624502450245,1256291.9685702,-868.65482956007,2541313.8565408,36.824502450245,0,0
-183.65134706725,-181.39319464288,31.628932893289,1256291.9685702,-868.65482956007,2541313.8565408,36.828932893289,0,0
-183.651346968,-181.42201754778,31.633363336334,1256291.9685702,-868.65482956007,2541313.8565408,36.833363336334,0,0
-183.65134686875,-181.45084045269,31.637793779378,1256291.9685702,-868.65482956007,2541313.8565408,36.837793779378,0,0
-183.65134676951,-181.47966335759,31.642224222422,1256291.9685702,-868.65482956007,2541313.8565408,36.842224222422,0,0
-183.65134667026,-181.5084862625,31.646654665467,1256291.9685702,-868.65482956007,2541313.8565408,36.846654665467,0,0
-183.65134657101,-181.5373091674,31.651085108511,1256291.9685702,-868.65482956007,2541313.8565408,36.851085108511,0,0
-183.65134647176,-181.56613207231,31.655515551555,1256291.9685702,-868.65482956007,2541313.8565408,36.855515551555,0,0
-183.65134637252,-181.59495497721,31.659945994599,1256291.9685702,-868.65482956007,2541313.8565408,36.859945994599,0,0
-183.65134627327,-181.62377788212,31.664376437644,1256291.9685702,-868.65482956007,2541313.8565408,36.864376437644,0,0
-183.65134617402,-181.65260078703,31.668806880688,1256291.9685702,-868.65482956007,2541313.8565408,36.868806880688,0,0
-183.65134607478,-181.68142369193,31.673237323732,1256291.9685702,-868.65482956007,2541313.8565408,36.873237323732,0,0
-183.65134597553,-181.71024659684,31.677667766777,1256291.9685702,-868.65482956007,2541313.8565408,36.877667766777,0,0
-183.65134587628,-181.73906950174,31.682098209821,1256291.9685702,-868.65482956007,2541313.8565408,36.882098209821,0,0
-183.65134577703,-181.76789240665,31.686528652865,1256291.9685702,-868.65482956007,2541313.8565408,36.886528652865,0,0
-183.65134567779,-181.79671531155,31.69095909591,1256291.9685702,-868.65482956007,2541313.8565408,36.89095909591,0,0
-183.65134557854,-181.82553821646,31.695389538954,1256291.9685702,-868.65482956007,2541313.8565408,36.895389538954,0,0
-183.65134547929,-181.85436112136,31.699819981998,1256291.9685702,-868.65482956007,2541313.8565408,36.899819981998,0,0
-183.65134538004,-181.88318402627,31.704250425043,1256291.9685702,-868.65482956007,2541313.8565408,36.904250425043,0,0
-183.6513452808,-181.91200693117,31.708680868087,1256291.9685702,-868.65482956007,2541313.8565408,36.908680868087,0,0
-183.65134518155,-181.94082983608,31.713111311131,1256291.9685702,-868.65482956007,2541313.8565408,36.913111311131,0,0
-183.6513450823,-181.96965274098,31.717541754175,1256291.9685702,-868.65482956007,2541313.8565408,36.917541754175,0,0
-183.65134498306,-181.99847564589,31.72197219722,1256291.9685702,-868.65482956007,2541313.8565408,36.92197219722,0,0
-183.65134488381,-182.02729855079,31.726402640264,1256291.9685702,-868.65482956007,2541313.8565408,36.926402640264,0,0
-183.65134478456,-182.0561214557,31.730833083308,1256291.9685702,-868.65482956007,2541313.8565408,36.930833083308,0,0
-183.65134468531,-182.0849443606,31.735263526353,1256291.9685702,-868.65482956007,2541313.8565408,36.935263526353,0,0
-183.65134458607,-182.11376726551,31.739693969397,1256291.9685702,-868.65482956007,2541313.8565408,36.939693969397,0,0
-183.65134448682,-182.14259017041,31.744124412441,1256291.9685702,-868.65482956007,2541313.8565408,36.944124412441,0,0
-183.65134438757,-182.17141307532,31.748554855486,1256291.9685702,-868.65482956007,2541313.8565408,36.948554855486,0,0
-183.65134428832,-182.20023598023,31.75298529853,1256291.9685702,-868.65482956007,2541313.8565408,36.95298529853,0,0
-183.65134418908,-182.22905888513,31.757415741574,1256291.9685702,-868.65482956007,2541313.8565408,36.957415741574,0,0
-183.65134408983,-182.25788179004,31.761846184618,1256291.9685702,-868.65482956007,2541313.8565408,36.961846184618,0,0
-183.65134399058,-182.28670469494,31.766276627663,1256291.9685702,-868.65482956007,2541313.8565408,36.966276627663,0,0
-183.65134389133,-182.31552759985,31.770707070707,1256291.9685702,-868.65482956007,2541313.8565408,36.970707070707,0,0
-183.65134379209,-182.34435050475,31.775137513751,1256291.9685702,-868.65482956007,2541313.8565408,36.975137513751,0,0
-183.65134369284,-182.37317340966,31.779567956796,1256291.9685702,-868.65482956007,2541313.8565408,36.979567956796,0,0
-183.65134359359,-182.40199631456,31.78399839984,1256291.9685702,-868.65482956007,2541313.8565408,36.98399839984,0,0
-183.65134349435,-182.43081921947,31.788428842884,1256291.9685702,-868.65482956007,2541313.8565408,36.988428842884,0,0
-183.6513433951,-182.45964212437,31.792859285929,1256291.9685702,-868.65482956007,2541313.8565408,36.992859285929,0,0
-183.65134329585,-182.48846502928,31.797289728973,1256291.9685702,-868.65482956007,2541313.8565408,36.997289728973,0,0
-183.6513431966,-182.51728793418,31.801720172017,1256291.9685702,-868.65482956007,2541313.8565408,37.001720172017,0,0
-183.65134309736,-182.54611083909,31.806150615062,1256291.9685702,-868.65482956007,2541313.8565408,37.006150615062,0,0
-183.65134299811,-182.57493374399,31.810581058106,1256291.9685702,-868.65482956007,2541313.8565408,37.010581058106,0,0
-183.65134289886,-182.6037566489,31.81501150115,1256291.9685702,-868.65482956007,2541313.8565408,37.01501150115,0,0
-183.65134279961,-182.6325795538,31.819441944194,1256291.9685702,-868.65482956007,2541313.8565408,37.019441944194,0,0
-183.65134270037,-182.66140245871,31.823872387239,1256291.9685702,-868.65482956007,2541313.8565408,37.023872387239,0,0
-183.65134260112,-182.69022536362,31.828302830283,1256291.9685702,-868.65482956007,2541313.8565408,37.028302830283,0,0
-183.65134250187,-182.71904826852,31.832733273327,1256291.9685702,-868.65482956007,2541313.8565408,37.032733273327,0,0
-183.65134240263,-182.74787117343,31.837163716372,1256291.9685702,-868.65482956007,2541313.8565408,37.037163716372,0,0
-183.65134230338,-182.77669407833,31.841594159416,1256291.9685702,-868.65482956007,2541313.8565408,37.041594159416,0,0
-183.65134220413,-182.80551698324,31.84602460246,1256291.9685702,-868.65482956007,2541313.8565408,37.04602460246,0,0
-183.65134210488,-182.83433988814,31.850455045505,1256291.9685702,-868.65482956007,2541313.8565408,37.050455045505,0,0
-183.65134200564,-182.86316279305,31.854885488549,1256291.9685702,-868.65482956007,2541313.8565408,37.054885488549,0,0
-183.65134190639,-182.89198569795,31.859315931593,1256291.9685702,-868.65482956007,2541313.8565408,37.059315931593,0,0
-183.65134180714,-182.92080860286,31.863746374637,1256291.9685702,-868.65482956007,2541313.8565408,37.063746374637,0,0
-183.65134170789,-182.94963150776,31.868176817682,1256291.9685702,-868.65482956007,2541313.8565408,37.068176817682,0,0
-183.65134160865,-182.97845441267,31.872607260726,1256291.9685702,-868.65482956007,2541313.8565408,37.072607260726,0,0
-183.6513415094,-183.00727731757,31.87703770377,1256291.9685702,-868.65482956007,2541313.8565408,37.07703770377,0,0
-183.65134141015,-183.03610022248,31.881468146815,1256291.9685702,-868.65482956007,2541313.8565408,37.081468146815,0,0
-183.6513413109,-183.06492312738,31.885898589859,1256291.9685702,-868.65482956007,2541313.8565408,37.085898589859,0,0
-183.65134121166,-183.09374603229,31.890329032903,1256291.9685702,-868.65482956007,2541313.8565408,37.090329032903,0,0
-183.65134111241,-183.12256893719,31.894759475948,1256291.9685702,-868.65482956007,2541313.8565408,37.094759475948,0,0
-183.65134101316,-183.1513918421,31.899189918992,1256291.9685702,-868.65482956007,2541313.8565408,37.099189918992,0,0
-183.65134091392,-183.18021474701,31.903620362036,1256291.9685702,-868.65482956007,2541313.8565408,37.103620362036,0,0
-183.65134081467,-183.20903765191,31.908050805081,1256291.9685702,-868.65482956007,2541313.8565408,37.108050805081,0,0
-183.65134071542,-183.23786055682,31.912481248125,1256291.9685702,-868.65482956007,2541313.8565408,37.112481248125,0,0
-183.65134061617,-183.26668346172,31.916911691169,1256291.9685702,-868.65482956007,2541313.8565408,37.116911691169,0,0
-183.65134051693,-183.29550636663,31.921342134213,1256291.9685702,-868.65482956007,2541313.8565408,37.121342134213,0,0
-183.65134041768,-183.32432927153,31.925772577258,1256291.9685702,-868.65482956007,2541313.8565408,37.125772577258,0,0
-183.65134031843,-183.35315217644,31.930203020302,1256291.9685702,-868.65482956007,2541313.8565408,37.130203020302,0,0
-183.65134021918,-183.38197508134,31.934633463346,1256291.9685702,-868.65482956007,2541313.8565408,37.134633463346,0,0
-183.65134011994,-183.41079798625,31.939063906391,1256291.9685702,-868.65482956007,2541313.8565408,37.139063906391,0,0
-183.65134002069,-183.43962089115,31.943494349435,1256291.9685702,-868.65482956007,2541313.8565408,37.143494349435,0,0
-183.65133992143,-183.46844379576,31.947924792479,1255410.9475491,1583.9525349292,2537504.5230635,37.147924792479,0,0
-183.65133982215,-183.49726670012,31.952355235524,1255410.9475491,1583.9525349292,2537504.5230635,37.152355235524,0,0
-183.65133972287,-183.52608960449,31.956785678568,1255410.9475491,1583.9525349292,2537504.5230635,37.156785678568,0,0
-183.65133962359,-183.55491250886,31.961216121612,1255410.9475491,1583.9525349292,2537504.5230635,37.161216121612,0,0
-183.65133952431,-183.58373541322,31.965646564656,1255410.9475491,1583.9525349292,2537504.5230635,37.165646564656,0,0
-183.65133942503,-183.61255831759,31.970077007701,1255410.9475491,1583.9525349292,2537504.5230635,37.170077007701,0,0
-183.65133932576,-183.64138122196,31.974507450745,1255410.9475491,1583.9525349292,2537504.5230635,37.174507450745,0,0
-183.65133922648,-183.67020412632,31.978937893789,1255410.9475491,1583.9525349292,2537504.5230635,37.178937893789,0,0
-183.6513391272,-183.69902703069,31.983368336834,1255410.9475491,1583.9525349292,2537504.5230635,37.183368336834,0,0
-183.65133902792,-183.72784993506,31.987798779878,1255410.9475491,1583.9525349292,2537504.5230635,37.187798779878,0,0
-183.65133892864,-183.75667283942,31.992229222922,1255410.9475491,1583.9525349292,2537504.5230635,37.192229222922,0,0
-183.65133882936,-183.78549574379,31.996659665967,1255410.9475491,1583.9525349292,2537504.5230635,37.196659665967,0,0
-183.65133873009,-183.81431864816,32.001090109011,1255410.9475491,1583.9525349292,2537504.5230635,37.201090109011,0,0
-183.65133863081,-183.84314155252,32.005520552055,1255410.9475491,1583.9525349292,2537504.5230635,37.205520552055,0,0
-183.65133853153,-183.87196445689,32.0099509951,1255410.9475491,1583.9525349292,2537504.5230635,37.2099509951,0,0
-183.65133843225,-183.90078736126,32.014381438144,1255410.9475491,1583.9525349292,2537504.5230635,37.214381438144,0,0
-183.65133833297,-183.92961026562,32.018811881188,1255410.9475491,1583.9525349292,2537504.5230635,37.218811881188,0,0
-183.65133823369,-183.95843316999,32.023242324232,1255410.9475491,1583.9525349292,2537504.5230635,37.223242324232,0,0
-183.65133813441,-183.98725607436,32.027672767277,1255410.9475491,1583.9525349292,2537504.5230635,37.227672767277,0,0
-183.65133803514,-184.01607897872,32.032103210321,1255410.9475491,1583.9525349292,2537504.5230635,37.232103210321,0,0
-183.65133793586,-184.04490188309,32.036533653365,1255410.9475491,1583.9525349292,2537504.5230635,37.236533653365,0,0
-183.65133783658,-184.07372478746,32.04096409641,1255410.9475491,1583.9525349292,2537504.5230635,37.24096409641,0,0
-183.6513377373,-184.10254769182,32.045394539454,1255410.9475491,1583.9525349292,2537504.5230635,37.245394539454,0,0
-183.65133763802,-184.13137059619,32.049824982498,1255410.9475491,1583.9525349292,2537504.5230635,37.249824982498,0,0
-183.65133753874,-184.16019350056,32.054255425543,1255410.9475491,1583.9525349292,2537504.5230635,37.254255425543,0,0
-183.65133743947,-184.18901640492,32.058685868587,1255410.9475491,1583.9525349292,2537504.5230635,37.258685868587,0,0
-183.65133734019,-184.21783930929,32.063116311631,1255410.9475491,1583.9525349292,2537504.5230635,37.263116311631,0,0
-183.65133724091,-184.24666221366,32.067546754675,1255410.9475491,1583.9525349292,2537504.5230635,37.267546754675,0,0
-183.65133714163,-184.27548511802,32.07197719772,1255410.9475491,1583.9525349292,2537504.5230635,37.27197719772,0,0
-183.65133704235,-184.30430802239,32.076407640764,1255410.9475491,1583.9525349292,2537504.5230635,37.276407640764,0,0
-183.65133694307,-184.33313092676,32.080838083808,1255410.9475491,1583.9525349292,2537504.5230635,37.280838083808,0,0
-183.6513368438,-184.36195383112,32.085268526853,1255410.9475491,1583.9525349292,2537504.5230635,37.285268526853,0,0
-183.65133674452,-184.39077673549,32.089698969897,1255410.9475491,1583.9525349292,2537504.5230635,37.289698969897,0,0
-183.65133664524,-184.41959963986,32.094129412941,1255410.9475491,1583.9525349292,2537504.5230635,37.294129412941,0,0
-183.65133654596,-184.44842254422,32.098559855986,1255410.9475491,1583.9525349292,2537504.5230635,37.298559855986,0,0
-183.65133644668,-184.47724544859,32.10299029903,1255410.9475491,1583.9525349292,2537504.5230635,37.30299029903,0,0
-183.6513363474,-184.50606835296,32.107420742074,1255410.9475491,1583.9525349292,2537504.5230635,37.307420742074,0,0
-183.65133624813,-184.53489125732,32.111851185119,1255410.9475491,1583.9525349292,2537504.5230635,37.311851185119,0,0
-183.65133614885,-184.56371416169,32.116281628163,1255410.9475491,1583.9525349292,2537504.5230635,37.316281628163,0,0
-183.65133604957,-184.59253706606,32.120712071207,1255410.9475491,1583.9525349292,2537504.5230635,37.320712071207,0,0
-183.65133595029,-184.62135997042,32.125142514251,1255410.9475491,1583.9525349292,2537504.5230635,37.325142514251,0,0
-183.65133585101,-184.65018287479,32.129572957296,1255410.9475491,1583.9525349292,2537504.5230635,37.329572957296,0,0
-183.65133575173,-184.67900577916,32.13400340034,1255410.9475491,1583.9525349292,2537504.5230635,37.33400340034,0,0
-183.65133565246,-184.70782868353,32.138433843384,1255410.9475491,1583.9525349292,2537504.5230635,37.338433843384,0,0
-183.65133555318,-184.73665158789,32.142864286429,1255410.9475491,1583.9525349292,2537504.5230635,37.342864286429,0,0
-183.6513354539,-184.76547449226,32.147294729473,1255410.9475491,1583.9525349292,2537504.5230635,37.347294729473,0,0
-183.65133535462,-184.79429739663,32.151725172517,1255410.9475491,1583.9525349292,2537504.5230635,37.351725172517,0,0
-183.65133525534,-184.82312030099,32.156155615562,1255410.9475491,1583.9525349292,2537504.5230635,37.356155615562,0,0
-183.65133515606,-184.85194320536,32.160586058606,1255410.9475491,1583.9525349292,2537504.5230635,37.360586058606,0,0
-183.65133505679,-184.88076610973,32.16501650165,1255410.9475491,1583.9525349292,2537504.5230635,37.36501650165,0,0
-183.65133495751,-184.90958901409,32.169446944694,1255410.9475491,1583.9525349292,2537504.5230635,37.369446944694,0,0
-183.65133485823,-184.93841191846,32.173877387739,1255410.9475491,1583.9525349292,2537504.5230635,37.373877387739,0,0
-183.65133475895,-184.96723482283,32.178307830783,1255410.9475491,1583.9525349292,2537504.5230635,37.378307830783,0,0
-183.65133465967,-184.99605772719,32.182738273827,1255410.9475491,1583.9525349292,2537504.5230635,37.382738273827,0,0
-183.65133456039,-185.02488063156,32.187168716872,1255410.9475491,1583.9525349292,2537504.5230635,37.387168716872,0,0
-183.65133446112,-185.05370353593,32.191599159916,1255410.9475491,1583.9525349292,2537504.5230635,37.391599159916,0,0
-183.65133436184,-185.08252644029,32.19602960296,1255410.9475491,1583.9525349292,2537504.5230635,37.39602960296,0,0
-183.65133426256,-185.11134934466,32.200460046005,1255410.9475491,1583.9525349292,2537504.5230635,37.400460046005,0,0
-183.65133416328,-185.14017224903,32.204890489049,1255410.9475491,1583.9525349292,2537504.5230635,37.404890489049,0,0
-183.651334064,-185.16899515339,32.209320932093,1255410.9475491,1583.9525349292,2537504.5230635,37.409320932093,0,0
-183.65133396472,-185.19781805776,32.213751375138,1255410.9475491,1583.9525349292,2537504.5230635,37.413751375138,0,0
-183.65133386545,-185.22664096213,32.218181818182,1255410.9475491,1583.9525349292,2537504.5230635,37.418181818182,0,0
-183.65133376617,-185.25546386649,32.222612261226,1255410.9475491,1583.9525349292,2537504.5230635,37.422612261226,0,0
-183.65133366689,-185.28428677086,32.22704270427,1255410.9475491,1583.9525349292,2537504.5230635,37.42704270427,0,0
-183.65133356761,-185.31310967523,32.231473147315,1255410.9475491,1583.9525349292,2537504.5230635,37.431473147315,0,0
-183.65133346833,-185.34193257959,32.235903590359,1255410.9475491,1583.9525349292,2537504.5230635,37.435903590359,0,0
-183.65133336905,-185.37075548396,32.240334033403,1255410.9475491,1583.9525349292,2537504.5230635,37.440334033403,0,0
-183.65133326978,-185.39957838833,32.244764476448,1255410.9475491,1583.9525349292,2537504.5230635,37.444764476448,0,0
-183.6513331705,-185.42840129269,32.249194919492,1255410.9475491,1583.9525349292,2537504.5230635,37.449194919492,0,0
-183.65133307122,-185.45722419706,32.253625362536,1255410.9475491,1583.9525349292,2537504.5230635,37.453625362536,0,0
-183.65133297194,-185.48604710143,32.258055805581,1255410.9475491,1583.9525349292,2537504.5230635,37.458055805581,0,0
-183.65133287266,-185.51487000579,32.262486248625,1255410.9475491,1583.9525349292,2537504.5230635,37.462486248625,0,0
-183.65133277338,-185.54369291016,32.266916691669,1255410.9475491,1583.9525349292,2537504.5230635,37.466916691669,0,0
-183.65133267411,-185.57251581453,32.271347134713,1255410.9475491,1583.9525349292,2537504.5230635,37.471347134713,0,0
-183.65133257483,-185.60133871889,32.275777577758,1255410.9475491,1583.9525349292,2537504.5230635,37.475777577758,0,0
-183.65133247555,-185.63016162326,32.280208020802,1255410.9475491,1583.9525349292,2537504.5230635,37.480208020802,0,0
-183.65133237627,-185.65898452763,32.284638463846,1255410.9475491,1583.9525349292,2537504.5230635,37.484638463846,0,0
-183.65133227699,-185.68780743199,32.289068906891,1255410.9475491,1583.9525349292,2537504.5230635,37.489068906891,0,0
-183.65133217771,-185.71663033636,32.293499349935,1255410.9475491,1583.9525349292,2537504.5230635,37.493499349935,0,0
-183.65133207844,-185.74545324073,32.297929792979,1255410.9475491,1583.9525349292,2537504.5230635,37.497929792979,0,0
-183.65133197916,-185.77427614509,32.302360236024,1255410.9475491,1583.9525349292,2537504.5230635,37.502360236024,0,0
-183.65133187988,-185.80309904946,32.306790679068,1255410.9475491,1583.9525349292,2537504.5230635,37.506790679068,0,0
-183.6513317806,-185.83192195383,32.311221122112,1255410.9475491,1583.9525349292,2537504.5230635,37.511221122112,0,0
-183.65133168132,-185.86074485819,32.315651565157,1255410.9475491,1583.9525349292,2537504.5230635,37.515651565157,0,0
-183.65133158204,-185.88956776256,32.320082008201,1255410.9475491,1583.9525349292,2537504.5230635,37.520082008201,0,0
-183.65133148277,-185.91839066693,32.324512451245,1255410.9475491,1583.9525349292,2537504.5230635,37.524512451245,0,0
-183.65133138349,-185.94721357129,32.328942894289,1255410.9475491,1583.9525349292,2537504.5230635,37.528942894289,0,0
-183.65133128421,-185.97603647566,32.333373337334,1255410.9475491,1583.9525349292,2537504.5230635,37.533373337334,0,0
-183.65133118493,-186.00485938003,32.337803780378,1255410.9475491,1583.9525349292,2537504.5230635,37.537803780378,0,0
-183.65133108565,-186.03368228439,32.342234223422,1255410.9475491,1583.9525349292,2537504.5230635,37.542234223422,0,0
-183.65133098637,-186.06250518876,32.346664666467,1255410.9475491,1583.9525349292,2537504.5230635,37.546664666467,0,0
-183.65133088709,-186.09132809313,32.351095109511,1255410.9475491,1583.9525349292,2537504.5230635,37.551095109511,0,0
-183.65133078782,-186.12015099749,32.355525552555,1255410.9475491,1583.9525349292,2537504.5230635,37.555525552555,0,0
-183.65133068854,-186.14897390186,32.3599559956,1255410.9475491,1583.9525349292,2537504.5230635,37.5599559956,0,0
-183.65133058926,-186.17779680623,32.364386438644,1255410.9475491,1583.9525349292,2537504.5230635,37.564386438644,0,0
-183.65133048998,-186.20661971059,32.368816881688,1255410.9475491,1583.9525349292,2537504.5230635,37.568816881688,0,0
-183.6513303907,-186.23544261496,32.373247324732,1255410.9475491,1583.9525349292,2537504.5230635,37.573247324732,0,0
-183.65133029142,-186.26426551933,32.377677767777,1255410.9475491,1583.9525349292,2537504.5230635,37.577677767777,0,0
-183.65133019215,-186.29308842369,32.382108210821,1255410.9475491,1583.9525349292,2537504.5230635,37.582108210821,0,0
-183.65133009287,-186.32191132806,32.386538653865,1255410.9475491,1583.9525349292,2537504.5230635,37.586538653865,0,0
-183.65132999359,-186.35073423243,32.39096909691,1255410.9475491,1583.9525349292,2537504.5230635,37.59096909691,0,0
-183.65132989431,-186.37955713679,32.395399539954,1255410.9475491,1583.9525349292,2537504.5230635,37.595399539954,0,0
-183.65132979503,-186.40838004116,32.399829982998,1255410.9475491,1583.9525349292,2537504.5230635,37.599829982998,0,0
-183.65132969575,-186.43720294553,32.404260426043,1255410.9475491,1583.9525349292,2537504.5230635,37.604260426043,0,0
-183.65132959648,-186.46602584989,32.408690869087,1255410.9475491,1583.9525349292,2537504.5230635,37.608690869087,0,0
-183.6513294972,-186.49484875426,32.413121312131,1255410.9475491,1583.9525349292,2537504.5230635,37.613121312131,0,0
-183.65132939792,-186.52367165863,32.417551755176,1255410.9475491,1583.9525349292,2537504.5230635,37.617551755176,0,0
-183.65132929864,-186.55249456299,32.42198219822,1255410.9475491,1583.9525349292,2537504.5230635,37.62198219822,0,0
-183.65132919936,-186.58131746736,32.426412641264,1255410.9475491,1583.9525349292,2537504.5230635,37.626412641264,0,0
-183.65132910008,-186.61014037173,32.430843084308,1255410.9475491,1583.9525349292,2537504.5230635,37.630843084308,0,0
-183.65132900081,-186.63896327609,32.435273527353,1255410.9475491,1583.9525349292,2537504.5230635,37.635273527353,0,0
-183.65132890153,-186.66778618046,32.439703970397,1255410.9475491,1583.9525349292,2537504.5230635,37.639703970397,0,0
-183.65132880225,-186.69660908483,32.444134413441,1255410.9475491,1583.9525349292,2537504.5230635,37.644134413441,0,0
-183.65132870297,-186.72543198919,32.448564856486,1255410.9475491,1583.9525349292,2537504.5230635,37.648564856486,0,0
-183.65132860369,-186.75425489356,32.45299529953,1255410.9475491,1583.9525349292,2537504.5230635,37.65299529953,0,0
-183.65132850441,-186.78307779793,32.457425742574,1255410.9475491,1583.9525349292,2537504.5230635,37.657425742574,0,0
-183.65132840514,-186.81190070229,32.461856185619,1255410.9475491,1583.9525349292,2537504.5230635,37.661856185619,0,0
-183.65132830586,-186.84072360666,32.466286628663,1255410.9475491,1583.9525349292,2537504.5230635,37.666286628663,0,0
-183.65132820658,-186.86954651103,32.470717071707,1255410.9475491,1583.9525349292,2537504.5230635,37.670717071707,0,0
-183.6513281073,-186.89836941539,32.475147514751,1255410.9475491,1583.9525349292,2537504.5230635,37.675147514751,0,0
-183.65132800802,-186.92719231976,32.479577957796,1255410.9475491,1583.9525349292,2537504.5230635,37.679577957796,0,0
-183.65132790874,-186.95601522413,32.48400840084,1255410.9475491,1583.9525349292,2537504.5230635,37.68400840084,0,0
-183.65132780947,-186.98483812849,32.488438843884,1255410.9475491,1583.9525349292,2537504.5230635,37.688438843884,0,0
-183.65132771019,-187.01366103286,32.492869286929,1255410.9475491,1583.9525349292,2537504.5230635,37.692869286929,0,0
-183.65132761091,-187.04248393723,32.497299729973,1255410.9475491,1583.9525349292,2537504.5230635,37.697299729973,0,0
-183.65132751163,-187.07130684159,32.501730173017,1255410.9475491,1583.9525349292,2537504.5230635,37.701730173017,0,0
-183.65132741235,-187.10012974596,32.506160616062,1255410.9475491,1583.9525349292,2537504.5230635,37.706160616062,0,0
-183.65132731307,-187.12895265033,32.510591059106,1255410.9475491,1583.9525349292,2537504.5230635,37.710591059106,0,0
-183.6513272138,-187.15777555469,32.51502150215,1255410.9475491,1583.9525349292,2537504.5230635,37.71502150215,0,0
-183.65132711452,-187.18659845906,32.519451945195,1255410.9475491,1583.9525349292,2537504.5230635,37.719451945195,0,0
-183.65132701524,-187.21542136343,32.523882388239,1255410.9475491,1583.9525349292,2537504.5230635,37.723882388239,0,0
-183.65132691596,-187.24424426779,32.528312831283,1255410.9475491,1583.9525349292,2537504.5230635,37.728312831283,0,0
-183.65132681668,-187.27306717216,32.532743274327,1255410.9475491,1583.9525349292,2537504.5230635,37.732743274327,0,0
-183.6513267174,-187.30189007653,32.537173717372,1255410.9475491,1583.9525349292,2537504.5230635,37.737173717372,0,0
-183.65132661813,-187.33071298089,32.541604160416,1255410.9475491,1583.9525349292,2537504.5230635,37.741604160416,0,0
-183.65132651885,-187.35953588526,32.54603460346,1255410.9475491,1583.9525349292,2537504.5230635,37.74603460346,0,0
-183.65132641957,-187.38835878963,32.550465046505,1255410.9475491,1583.9525349292,2537504.5230635,37.750465046505,0,0
-183.65132632029,-187.41718169399,32.554895489549,1255410.9475491,1583.9525349292,2537504.5230635,37.754895489549,0,0
-183.65132622101,-187.44600459836,32.559325932593,1255410.9475491,1583.9525349292,2537504.5230635,37.759325932593,0,0
-183.65132612173,-187.47482750273,32.563756375638,1255410.9475491,1583.9525349292,2537504.5230635,37.763756375638,0,0
-183.65132602246,-187.50365040709,32.568186818682,1255410.9475491,1583.9525349292,2537504.5230635,37.768186818682,0,0
-183.65132592318,-187.53247331146,32.572617261726,1255410.9475491,1583.9525349292,2537504.5230635,37.772617261726,0,0
-183.6513258239,-187.56129621583,32.57704770477,1255410.9475491,1583.9525349292,2537504.5230635,37.77704770477,0,0
-183.65132572462,-187.59011912019,32.581478147815,1255410.9475491,1583.9525349292,2537504.5230635,37.781478147815,0,0
-183.65132562534,-187.61894202456,32.585908590859,1255410.9475491,1583.9525349292,2537504.5230635,37.785908590859,0,0
-183.65132552606,-187.64776492893,32.590339033903,1255410.9475491,1583.9525349292,2537504.5230635,37.790339033903,0,0
-183.65132542679,-187.67658783329,32.594769476948,1255410.9475491,1583.9525349292,2537504.5230635,37.794769476948,0,0
-183.65132532751,-187.70541073766,32.599199919992,1255410.9475491,1583.9525349292,2537504.5230635,37.799199919992,0,0
-183.65132522823,-187.73423364203,32.603630363036,1255410.9475491,1583.9525349292,2537504.5230635,37.803630363036,0,0
-183.65132512895,-187.76305654639,32.608060806081,1255410.9475491,1583.9525349292,2537504.5230635,37.808060806081,0,0
-183.65132502967,-187.79187945076,32.612491249125,1255410.9475491,1583.9525349292,2537504.5230635,37.812491249125,0,0
-183.65132493039,-187.82070235513,32.616921692169,1255410.9475491,1583.9525349292,2537504.5230635,37.816921692169,0,0
-183.65132483112,-187.84952525949,32.621352135214,1255410.9475491,1583.9525349292,2537504.5230635,37.821352135214,0,0
-183.65132473184,-187.87834816386,32.625782578258,1255410.9475491,1583.9525349292,2537504.5230635,37.825782578258,0,0
-183.65132463256,-187.90717106823,32.630213021302,1255410.9475491,1583.9525349292,2537504.5230635,37.830213021302,0,0
-183.65132453328,-187.93599397259,32.634643464346,1255410.9475491,1583.9525349292,2537504.5230635,37.834643464346,0,0
-183.651324434,-187.96481687696,32.639073907391,1255410.9475491,1583.9525349292,2537504.5230635,37.839073907391,0,0
-183.65132433472,-187.99363978133,32.643504350435,1255410.9475491,1583.9525349292,2537504.5230635,37.843504350435,0,0
-183.65132423545,-188.02246268569,32.647934793479,1255410.9475491,1583.9525349292,2537504.5230635,37.847934793479,0,0
-183.65132413617,-188.05128559006,32.652365236524,1255410.9475491,1583.9525349292,2537504.5230635,37.852365236524,0,0
-183.65132403689,-188.08010849443,32.656795679568,1255410.9475491,1583.9525349292,2537504.5230635,37.856795679568,0,0
-183.65132393761,-188.10893139879,32.661226122612,1255410.9475491,1583.9525349292,2537504.5230635,37.861226122612,0,0
-183.65132383833,-188.13775430316,32.665656565657,1255410.9475491,1583.9525349292,2537504.5230635,37.865656565657,0,0
-183.65132373905,-188.16657720753,32.670087008701,1255410.9475491,1583.9525349292,2537504.5230635,37.870087008701,0,0
-183.65132363977,-188.19540011189,32.674517451745,1255410.9475491,1583.9525349292,2537504.5230635,37.874517451745,0,0
-183.6513235405,-188.22422301626,32.678947894789,1255410.9475491,1583.9525349292,2537504.5230635,37.878947894789,0,0
-183.65132344122,-188.25304592063,32.683378337834,1255410.9475491,1583.9525349292,2537504.5230635,37.883378337834,0,0
-183.65132334194,-188.28186882499,32.687808780878,1255410.9475491,1583.9525349292,2537504.5230635,37.887808780878,0,0
-183.65132324266,-188.31069172936,32.692239223922,1255410.9475491,1583.9525349292,2537504.5230635,37.892239223922,0,0
-183.65132314338,-188.33951463373,32.696669666967,1255410.9475491,1583.9525349292,2537504.5230635,37.896669666967,0,0
-183.6513230441,-188.36833753809,32.701100110011,1255410.9475491,1583.9525349292,2537504.5230635,37.901100110011,0,0
-183.65132294483,-188.39716044246,32.705530553055,1255410.9475491,1583.9525349292,2537504.5230635,37.905530553055,0,0
-183.65132284555,-188.42598334683,32.7099609961,1255410.9475491,1583.9525349292,2537504.5230635,37.9099609961,0,0
-183.65132274627,-188.45480625119,32.714391439144,1255410.9475491,1583.9525349292,2537504.5230635,37.914391439144,0,0
-183.65132264699,-188.48362915556,32.718821882188,1255410.9475491,1583.9525349292,2537504.5230635,37.918821882188,0,0
-183.65132254771,-188.51245205993,32.723252325233,1255410.9475491,1583.9525349292,2537504.5230635,37.923252325233,0,0
-183.65132244843,-188.54127496429,32.727682768277,1255410.9475491,1583.9525349292,2537504.5230635,37.927682768277,0,0
-183.65132234916,-188.57009786866,32.732113211321,1255410.9475491,1583.9525349292,2537504.5230635,37.932113211321,0,0
-183.65132224988,-188.59892077303,32.736543654365,1255410.9475491,1583.9525349292,2537504.5230635,37.936543654365,0,0
-183.6513221506,-188.62774367739,32.74097409741,1255410.9475491,1583.9525349292,2537504.5230635,37.94097409741,0,0
-183.65132205132,-188.65656658176,32.745404540454,1255410.9475491,1583.9525349292,2537504.5230635,37.945404540454,0,0
-183.65132195204,-188.68538948613,32.749834983498,1255410.9475491,1583.9525349292,2537504.5230635,37.949834983498,0,0
-183.65132185276,-188.71421239049,32.754265426543,1255410.9475491,1583.9525349292,2537504.5230635,37.954265426543,0,0
-183.65132175349,-188.74303529486,32.758695869587,1255410.9475491,1583.9525349292,2537504.5230635,37.958695869587,0,0
-183.65132165421,-188.77185819923,32.763126312631,1255410.9475491,1583.9525349292,2537504.5230635,37.963126312631,0,0
-183.65132155493,-188.80068110359,32.767556755676,1255410.9475491,1583.9525349292,2537504.5230635,37.967556755676,0,0
-183.65132145565,-188.82950400796,32.77198719872,1255410.9475491,1583.9525349292,2537504.5230635,37.97198719872,0,0
-183.65132135637,-188.85832691233,32.776417641764,1255410.9475491,1583.9525349292,2537504.5230635,37.976417641764,0,0
-183.65132125709,-188.88714981669,32.780848084808,1255410.9475491,1583.9525349292,2537504.5230635,37.980848084808,0,0
-183.65132115782,-188.91597272106,32.785278527853,1255410.9475491,1583.9525349292,2537504.5230635,37.985278527853,0,0
-183.65132105854,-188.94479562543,32.789708970897,1255410.9475491,1583.9525349292,2537504.5230635,37.989708970897,0,0
-183.65132095926,-188.97361852979,32.794139413941,1255410.9475491,1583.9525349292,2537504.5230635,37.994139413941,0,0
-183.65132085998,-189.00244143416,32.798569856986,1255410.9475491,1583.9525349292,2537504.5230635,37.998569856986,0,0
-183.6513207607,-189.03126433853,32.80300030003,1255410.9475491,1583.9525349292,2537504.5230635,38.00300030003,0,0
-183.65132066142,-189.06008724289,32.807430743074,1255410.9475491,1583.9525349292,2537504.5230635,38.007430743074,0,0
-183.65132056215,-189.08891014726,32.811861186119,1255410.9475491,1583.9525349292,2537504.5230635,38.011861186119,0,0
-183.65132046287,-189.11773305163,32.816291629163,1255410.9475491,1583.9525349292,2537504.5230635,38.016291629163,0,0
-183.65132036359,-189.14655595599,32.820722072207,1255410.9475491,1583.9525349292,2537504.5230635,38.020722072207,0,0
-183.65132026431,-189.17537886036,32.825152515252,1255410.9475491,1583.9525349292,2537504.5230635,38.025152515252,0,0
-183.65132016503,-189.20420176473,32.829582958296,1255410.9475491,1583.9525349292,2537504.5230635,38.029582958296,0,0
-183.65132006575,-189.23302466909,32.83401340134,1255410.9475491,1583.9525349292,2537504.5230635,38.03401340134,0,0
-183.65131996648,-189.26184757346,32.838443844384,1255410.9475491,1583.9525349292,2537504.5230635,38.038443844384,0,0
-183.6513198672,-189.29067047783,32.842874287429,1255410.9475491,1583.9525349292,2537504.5230635,38.042874287429,0,0
-183.65131976792,-189.31949338219,32.847304730473,1255410.9475491,1583.9525349292,2537504.5230635,38.047304730473,0,0
-183.65131966864,-189.34831628656,32.851735173517,1255410.9475491,1583.9525349292,2537504.5230635,38.051735173517,0,0
-183.65131956936,-189.37713919093,32.856165616562,1255410.9475491,1583.9525349292,2537504.5230635,38.056165616562,0,0
-183.65131947008,-189.40596209529,32.860596059606,1255410.9475491,1583.9525349292,2537504.5230635,38.060596059606,0,0
-183.65131937081,-189.43478499966,32.86502650265,1255410.9475491,1583.9525349292,2537504.5230635,38.06502650265,0,0
-183.65131927153,-189.46360790403,32.869456945695,1255410.9475491,1583.9525349292,2537504.5230635,38.069456945695,0,0
-183.65131917225,-189.49243080839,32.873887388739,1255410.9475491,1583.9525349292,2537504.5230635,38.073887388739,0,0
-183.65131907297,-189.52125371276,32.878317831783,1255410.9475491,1583.9525349292,2537504.5230635,38.078317831783,0,0
-183.65131897369,-189.55007661713,32.882748274827,1255410.9475491,1583.9525349292,2537504.5230635,38.082748274827,0,0
-183.65131887441,-189.57889952149,32.887178717872,1255410.9475491,1583.9525349292,2537504.5230635,38.087178717872,0,0
-183.65131877514,-189.60772242586,32.891609160916,1255410.9475491,1583.9525349292,2537504.5230635,38.091609160916,0,0
-183.65131867586,-189.63654533023,32.89603960396,1255410.9475491,1583.9525349292,2537504.5230635,38.09603960396,0,0
-183.65131857658,-189.66536823459,32.900470047005,1255410.9475491,1583.9525349292,2537504.5230635,38.100470047005,0,0
-183.6513184773,-189.69419113896,32.904900490049,1255410.9475491,1583.9525349292,2537504.5230635,38.104900490049,0,0
-183.65131837802,-189.72301404333,32.909330933093,1255410.9475491,1583.9525349292,2537504.5230635,38.109330933093,0,0
-183.65131827874,-189.75183694769,32.913761376138,1255410.9475491,1583.9525349292,2537504.5230635,38.113761376138,0,0
-183.65131817947,-189.78065985206,32.918191819182,1255410.9475491,1583.9525349292,2537504.5230635,38.118191819182,0,0
-183.65131808019,-189.80948275643,32.922622262226,1255410.9475491,1583.9525349292,2537504.5230635,38.122622262226,0,0
-183.65131798091,-189.83830566079,32.927052705271,1255410.9475491,1583.9525349292,2537504.5230635,38.127052705271,0,0
-183.65131788163,-189.86712856516,32.931483148315,1255410.9475491,1583.9525349292,2537504.5230635,38.131483148315,0,0
-183.65131778235,-189.89595146953,32.935913591359,1255410.9475491,1583.9525349292,2537504.5230635,38.135913591359,0,0
-183.65131768307,-189.92477437389,32.940344034403,1255410.9475491,1583.9525349292,2537504.5230635,38.140344034403,0,0
-183.6513175838,-189.95359727826,32.944774477448,1255410.9475491,1583.9525349292,2537504.5230635,38.144774477448,0,0
-183.65131748452,-189.98242018263,32.949204920492,1255410.9475491,1583.9525349292,2537504.5230635,38.149204920492,0,0
-183.65131738524,-190.01124308699,32.953635363536,1255410.9475491,1583.9525349292,2537504.5230635,38.153635363536,0,0
-183.65131728596,-190.04006599136,32.958065806581,1255410.9475491,1583.9525349292,2537504.5230635,38.158065806581,0,0
-183.65131718668,-190.06888889573,32.962496249625,1255410.9475491,1583.9525349292,2537504.5230635,38.162496249625,0,0
-183.6513170874,-190.09771180009,32.966926692669,1255410.9475491,1583.9525349292,2537504.5230635,38.166926692669,0,0
-183.65131698813,-190.12653470446,32.971357135714,1255410.9475491,1583.9525349292,2537504.5230635,38.171357135714,0,0
-183.65131688885,-190.15535760883,32.975787578758,1255410.9475491,1583.9525349292,2537504.5230635,38.175787578758,0,0
-183.65131678957,-190.18418051319,32.980218021802,1255410.9475491,1583.9525349292,2537504.5230635,38.180218021802,0,0
-183.65131669029,-190.21300341756,32.984648464846,1255410.9475491,1583.9525349292,2537504.5230635,38.184648464846,0,0
-183.65131659101,-190.24182632193,32.989078907891,1255410.9475491,1583.9525349292,2537504.5230635,38.189078907891,0,0
-183.65131649173,-190.27064922629,32.993509350935,1255410.9475491,1583.9525349292,2537504.5230635,38.193509350935,0,0
-183.65131639245,-190.29947213066,32.997939793979,1255410.9475491,1583.9525349292,2537504.5230635,38.197939793979,0,0
-183.65131629318,-190.32829503503,33.002370237024,1255410.9475491,1583.9525349292,2537504.5230635,38.202370237024,0,0
-183.6513161939,-190.35711793939,33.006800680068,1255410.9475491,1583.9525349292,2537504.5230635,38.206800680068,0,0
-183.65131609462,-190.38594084376,33.011231123112,1255410.9475491,1583.9525349292,2537504.5230635,38.211231123112,0,0
-183.65131599534,-190.41476374813,33.015661566157,1255410.9475491,1583.9525349292,2537504.5230635,38.215661566157,0,0
-183.65131589606,-190.44358665249,33.020092009201,1255410.9475491,1583.9525349292,2537504.5230635,38.220092009201,0,0
-183.65131579678,-190.47240955686,33.024522452245,1255410.9475491,1583.9525349292,2537504.5230635,38.224522452245,0,0
-183.65131569751,-190.50123246123,33.02895289529,1255410.9475491,1583.9525349292,2537504.5230635,38.22895289529,0,0
-183.65131559823,-190.53005536559,33.033383338334,1255410.9475491,1583.9525349292,2537504.5230635,38.233383338334,0,0
-183.65131549895,-190.55887826996,33.037813781378,1255410.9475491,1583.9525349292,2537504.5230635,38.237813781378,0,0
-183.65131539967,-190.58770117433,33.042244224422,1255410.9475491,1583.9525349292,2537504.5230635,38.242244224422,0,0
-183.65131530039,-190.61652407869,33.046674667467,1255410.9475491,1583.9525349292,2537504.5230635,38.246674667467,0,0
-183.65131520111,-190.64534698306,33.051105110511,1255410.9475491,1583.9525349292,2537504.5230635,38.251105110511,0,0
-183.65131510184,-190.67416988743,33.055535553555,1255410.9475491,1583.9525349292,2537504.5230635,38.255535553555,0,0
-183.65131500256,-190.70299279179,33.0599659966,1255410.9475491,1583.9525349292,2537504.5230635,38.2599659966,0,0
-183.65131490328,-190.73181569616,33.064396439644,1255410.9475491,1583.9525349292,2537504.5230635,38.264396439644,0,0
-183.651314804,-190.76063860053,33.068826882688,1255410.9475491,1583.9525349292,2537504.5230635,38.268826882688,0,0
-183.65131470472,-190.78946150489,33.073257325733,1255410.9475491,1583.9525349292,2537504.5230635,38.273257325733,0,0
-183.65131460544,-190.81828440926,33.077687768777,1255410.9475491,1583.9525349292,2537504.5230635,38.277687768777,0,0
-183.65131450617,-190.84710731363,33.082118211821,1255410.9475491,1583.9525349292,2537504.5230635,38.282118211821,0,0
-183.65131440689,-190.87593021799,33.086548654865,1255410.9475491,1583.9525349292,2537504.5230635,38.286548654865,0,0
-183.65131430761,-190.90475312236,33.09097909791,1255410.9475491,1583.9525349292,2537504.5230635,38.29097909791,0,0
-183.65131420833,-190.93357602673,33.095409540954,1255410.9475491,1583.9525349292,2537504.5230635,38.295409540954,0,0
-183.65131410905,-190.96239893109,33.099839983998,1255410.9475491,1583.9525349292,2537504.5230635,38.299839983998,0,0
-183.65131400977,-190.99122183546,33.104270427043,1255410.9475491,1583.9525349292,2537504.5230635,38.304270427043,0,0
-183.6513139105,-191.02004473983,33.108700870087,1255410.9475491,1583.9525349292,2537504.5230635,38.308700870087,0,0
-183.65131381122,-191.04886764419,33.113131313131,1255410.9475491,1583.9525349292,2537504.5230635,38.313131313131,0,0
-183.65131371194,-191.07769054856,33.117561756176,1255410.9475491,1583.9525349292,2537504.5230635,38.317561756176,0,0
-183.65131361266,-191.10651345293,33.12199219922,1255410.9475491,1583.9525349292,2537504.5230635,38.32199219922,0,0
-183.65131351338,-191.13533635729,33.126422642264,1255410.9475491,1583.9525349292,2537504.5230635,38.326422642264,0,0
-183.6513134141,-191.16415926166,33.130853085309,1255410.9475491,1583.9525349292,2537504.5230635,38.330853085309,0,0
-183.65131331483,-191.19298216603,33.135283528353,1255410.9475491,1583.9525349292,2537504.5230635,38.335283528353,0,0
-183.65131321555,-191.22180507039,33.139713971397,1255410.9475491,1583.9525349292,2537504.5230635,38.339713971397,0,0
-183.65131311627,-191.25062797476,33.144144414441,1255410.9475491,1583.9525349292,2537504.5230635,38.344144414441,0,0
-183.65131301699,-191.27945087913,33.148574857486,1255410.9475491,1583.9525349292,2537504.5230635,38.348574857486,0,0
-183.65131291771,-191.30827378349,33.15300530053,1255410.9475491,1583.9525349292,2537504.5230635,38.35300530053,0,0
-183.65131281843,-191.33709668786,33.157435743574,1255410.9475491,1583.9525349292,2537504.5230635,38.357435743574,0,0
-183.65131271916,-191.36591959223,33.161866186619,1255410.9475491,1583.9525349292,2537504.5230635,38.361866186619,0,0
-183.65131261988,-191.39474249659,33.166296629663,1255410.9475491,1583.9525349292,2537504.5230635,38.366296629663,0,0
-183.6513125206,-191.42356540096,33.170727072707,1255410.9475491,1583.9525349292,2537504.5230635,38.370727072707,0,0
-183.65131242132,-191.45238830533,33.175157515752,1255410.9475491,1583.9525349292,2537504.5230635,38.375157515752,0,0
-183.65131232204,-191.48121120969,33.179587958796,1255410.9475491,1583.9525349292,2537504.5230635,38.379587958796,0,0
-183.65131222276,-191.51003411406,33.18401840184,1255410.9475491,1583.9525349292,2537504.5230635,38.38401840184,0,0
-183.65131212349,-191.53885701843,33.188448844884,1255410.9475491,1583.9525349292,2537504.5230635,38.388448844884,0,0
-183.65131202421,-191.56767992279,33.192879287929,1255410.9475491,1583.9525349292,2537504.5230635,38.392879287929,0,0
-183.65131192493,-191.59650282716,33.197309730973,1255410.9475491,1583.9525349292,2537504.5230635,38.397309730973,0,0
-183.65131182565,-191.62532573153,33.201740174017,1255410.9475491,1583.9525349292,2537504.5230635,38.401740174017,0,0
-183.65131172637,-191.6541486359,33.206170617062,1255410.9475491,1583.9525349292,2537504.5230635,38.406170617062,0,0
-183.65131162709,-191.68297154026,33.210601060106,1255410.9475491,1583.9525349292,2537504.5230635,38.410601060106,0,0
-183.65131152782,-191.71179444463,33.21503150315,1255410.9475491,1583.9525349292,2537504.5230635,38.41503150315,0,0
-183.65131142854,-191.740617349,33.219461946195,1255410.9475491,1583.9525349292,2537504.5230635,38.419461946195,0,0
-183.65131132926,-191.76944025336,33.223892389239,1255410.9475491,1583.9525349292,2537504.5230635,38.423892389239,0,0
-183.65131122998,-191.79826315773,33.228322832283,1255410.9475491,1583.9525349292,2537504.5230635,38.428322832283,0,0
-183.6513111307,-191.8270860621,33.232753275328,1255410.9475491,1583.9525349292,2537504.5230635,38.432753275328,0,0
-183.65131103142,-191.85590896646,33.237183718372,1255410.9475491,1583.9525349292,2537504.5230635,38.437183718372,0,0
-183.65131093215,-191.88473187083,33.241614161416,1255410.9475491,1583.9525349292,2537504.5230635,38.441614161416,0,0
-183.65131083287,-191.9135547752,33.24604460446,1255410.9475491,1583.9525349292,2537504.5230635,38.44604460446,0,0
-183.65131073359,-191.94237767956,33.250475047505,1255410.9475491,1583.9525349292,2537504.5230635,38.450475047505,0,0
-183.65131063431,-191.97120058393,33.254905490549,1255410.9475491,1583.9525349292,2537504.5230635,38.454905490549,0,0
-183.65131053503,-192.0000234883,33.259335933593,1255410.9475491,1583.9525349292,2537504.5230635,38.459335933593,0,0
-183.65131043575,-192.02884639266,33.263766376638,1255410.9475491,1583.9525349292,2537504.5230635,38.463766376638,0,0
-183.65131033648,-192.05766929703,33.268196819682,1255410.9475491,1583.9525349292,2537504.5230635,38.468196819682,0,0
-183.6513102372,-192.0864922014,33.272627262726,1255410.9475491,1583.9525349292,2537504.5230635,38.472627262726,0,0
-183.65131013792,-192.11531510576,33.277057705771,1255410.9475491,1583.9525349292,2537504.5230635,38.477057705771,0,0
-183.65131003864,-192.14413801013,33.281488148815,1255410.9475491,1583.9525349292,2537504.5230635,38.481488148815,0,0
-183.65130993936,-192.1729609145,33.285918591859,1255410.9475491,1583.9525349292,2537504.5230635,38.485918591859,0,0
-183.65130984008,-192.20178381886,33.290349034903,1255410.9475491,1583.9525349292,2537504.5230635,38.490349034903,0,0
-183.65130974081,-192.23060672323,33.294779477948,1255410.9475491,1583.9525349292,2537504.5230635,38.494779477948,0,0
-183.65130964153,-192.2594296276,33.299209920992,1255410.9475491,1583.9525349292,2537504.5230635,38.499209920992,0,0
-183.65130954225,-192.28825253196,33.303640364036,1255410.9475491,1583.9525349292,2537504.5230635,38.503640364036,0,0
-183.65130944297,-192.31707543633,33.308070807081,1255410.9475491,1583.9525349292,2537504.5230635,38.508070807081,0,0
-183.65130934369,-192.3458983407,33.312501250125,1255410.9475491,1583.9525349292,2537504.5230635,38.512501250125,0,0
-183.65130924441,-192.37472124506,33.316931693169,1255410.9475491,1583.9525349292,2537504.5230635,38.516931693169,0,0
-183.65130914513,-192.40354414943,33.321362136214,1255410.9475491,1583.9525349292,2537504.5230635,38.521362136214,0,0
-183.65130904586,-192.4323670538,33.325792579258,1255410.9475491,1583.9525349292,2537504.5230635,38.525792579258,0,0
-183.65130894658,-192.46118995816,33.330223022302,1255410.9475491,1583.9525349292,2537504.5230635,38.530223022302,0,0
-183.6513088473,-192.49001286253,33.334653465347,1255410.9475491,1583.9525349292,2537504.5230635,38.534653465347,0,0
-183.65130874802,-192.5188357669,33.339083908391,1255410.9475491,1583.9525349292,2537504.5230635,38.539083908391,0,0
-183.65130864874,-192.54765867126,33.343514351435,1255410.9475491,1583.9525349292,2537504.5230635,38.543514351435,0,0
-183.65130854946,-192.57648157563,33.347944794479,1255410.9475491,1583.9525349292,2537504.5230635,38.547944794479,0,0
-183.65130845019,-192.60530448,33.352375237524,1255410.9475491,1583.9525349292,2537504.5230635,38.552375237524,0,0
-183.65130835091,-192.63412738436,33.356805680568,1255410.9475491,1583.9525349292,2537504.5230635,38.556805680568,0,0
-183.65130825163,-192.66295028873,33.361236123612,1255410.9475491,1583.9525349292,2537504.5230635,38.561236123612,0,0
-183.65130815235,-192.6917731931,33.365666566657,1255410.9475491,1583.9525349292,2537504.5230635,38.565666566657,0,0
-183.65130805307,-192.72059609746,33.370097009701,1255410.9475491,1583.9525349292,2537504.5230635,38.570097009701,0,0
-183.65130795379,-192.74941900183,33.374527452745,1255410.9475491,1583.9525349292,2537504.5230635,38.574527452745,0,0
-183.65130785452,-192.7782419062,33.37895789579,1255410.9475491,1583.9525349292,2537504.5230635,38.57895789579,0,0
-183.65130775524,-192.80706481056,33.383388338834,1255410.9475491,1583.9525349292,2537504.5230635,38.583388338834,0,0
-183.65130765596,-192.83588771493,33.387818781878,1255410.9475491,1583.9525349292,2537504.5230635,38.587818781878,0,0
-183.65130755668,-192.8647106193,33.392249224922,1255410.9475491,1583.9525349292,2537504.5230635,38.592249224922,0,0
-183.6513074574,-192.89353352366,33.396679667967,1255410.9475491,1583.9525349292,2537504.5230635,38.596679667967,0,0
-183.65130735812,-192.92235642803,33.401110111011,1255410.9475491,1583.9525349292,2537504.5230635,38.601110111011,0,0
-183.65130725885,-192.9511793324,33.405540554055,1255410.9475491,1583.9525349292,2537504.5230635,38.605540554055,0,0
-183.65130715957,-192.98000223676,33.4099709971,1255410.9475491,1583.9525349292,2537504.5230635,38.6099709971,0,0
-183.65130706029,-193.00882514113,33.414401440144,1255410.9475491,1583.9525349292,2537504.5230635,38.614401440144,0,0
-183.65130696101,-193.0376480455,33.418831883188,1255410.9475491,1583.9525349292,2537504.5230635,38.618831883188,0,0
-183.65130686173,-193.06647094986,33.423262326233,1255410.9475491,1583.9525349292,2537504.5230635,38.623262326233,0,0
-183.65130676245,-193.09529385423,33.427692769277,1255410.9475491,1583.9525349292,2537504.5230635,38.627692769277,0,0
-183.65130666318,-193.1241167586,33.432123212321,1255410.9475491,1583.9525349292,2537504.5230635,38.632123212321,0,0
-183.6513065639,-193.15293966296,33.436553655366,1255410.9475491,1583.9525349292,2537504.5230635,38.636553655366,0,0
-183.65130646462,-193.18176256733,33.44098409841,1255410.9475491,1583.9525349292,2537504.5230635,38.64098409841,0,0
-183.65130636534,-193.2105854717,33.445414541454,1255410.9475491,1583.9525349292,2537504.5230635,38.645414541454,0,0
-183.65130626606,-193.23940837606,33.449844984498,1255410.9475491,1583.9525349292,2537504.5230635,38.649844984498,0,0
-183.65130616678,-193.26823128043,33.454275427543,1255410.9475491,1583.9525349292,2537504.5230635,38.654275427543,0,0
-183.65130606751,-193.2970541848,33.458705870587,1255410.9475491,1583.9525349292,2537504.5230635,38.658705870587,0,0
-183.65130596823,-193.32587708916,33.463136313631,1255410.9475491,1583.9525349292,2537504.5230635,38.663136313631,0,0
-183.65130586895,-193.35469999353,33.467566756676,1255410.9475491,1583.9525349292,2537504.5230635,38.667566756676,0,0
-183.65130576967,-193.3835228979,33.47199719972,1255410.9475491,1583.9525349292,2537504.5230635,38.67199719972,0,0
-183.65130567039,-193.41234580226,33.476427642764,1255410.9475491,1583.9525349292,2537504.5230635,38.676427642764,0,0
-183.65130557111,-193.44116870663,33.480858085809,1255410.9475491,1583.9525349292,2537504.5230635,38.680858085809,0,0
-183.65130547184,-193.469991611,33.485288528853,1255410.9475491,1583.9525349292,2537504.5230635,38.685288528853,0,0
-183.65130537256,-193.49881451536,33.489718971897,1255410.9475491,1583.9525349292,2537504.5230635,38.689718971897,0,0
-183.65130527328,-193.52763741973,33.494149414941,1255410.9475491,1583.9525349292,2537504.5230635,38.694149414941,0,0
-183.651305174,-193.5564603241,33.498579857986,1255410.9475491,1583.9525349292,2537504.5230635,38.698579857986,0,0
-183.65130507472,-193.58528322846,33.50301030103,1255410.9475491,1583.9525349292,2537504.5230635,38.70301030103,0,0
-183.65130497544,-193.61410613283,33.507440744074,1255410.9475491,1583.9525349292,2537504.5230635,38.707440744074,0,0
-183.65130487617,-193.6429290372,33.511871187119,1255410.9475491,1583.9525349292,2537504.5230635,38.711871187119,0,0
-183.65130477689,-193.67175194156,33.516301630163,1255410.9475491,1583.9525349292,2537504.5230635,38.716301630163,0,0
-183.65130467761,-193.70057484593,33.520732073207,1255410.9475491,1583.9525349292,2537504.5230635,38.720732073207,0,0
-183.65130457833,-193.7293977503,33.525162516252,1255410.9475491,1583.9525349292,2537504.5230635,38.725162516252,0,0
-183.65130447905,-193.75822065466,33.529592959296,1255410.9475491,1583.9525349292,2537504.5230635,38.729592959296,0,0
-183.65130437977,-193.78704355903,33.53402340234,1255410.9475491,1583.9525349292,2537504.5230635,38.73402340234,0,0
-183.6513042805,-193.8158664634,33.538453845385,1255410.9475491,1583.9525349292,2537504.5230635,38.738453845385,0,0
-183.65130418122,-193.84468936776,33.542884288429,1255410.9475491,1583.9525349292,2537504.5230635,38.742884288429,0,0
-183.65130408194,-193.87351227213,33.547314731473,1255410.9475491,1583.9525349292,2537504.5230635,38.747314731473,0,0
-183.65130398266,-193.9023351765,33.551745174517,1255410.9475491,1583.9525349292,2537504.5230635,38.751745174517,0,0
-183.65130388338,-193.93115808086,33.556175617562,1255410.9475491,1583.9525349292,2537504.5230635,38.756175617562,0,0
-183.6513037841,-193.95998098523,33.560606060606,1255410.9475491,1583.9525349292,2537504.5230635,38.760606060606,0,0
-183.65130368483,-193.9888038896,33.56503650365,1255410.9475491,1583.9525349292,2537504.5230635,38.76503650365,0,0
-183.65130358555,-194.01762679396,33.569466946695,1255410.9475491,1583.9525349292,2537504.5230635,38.769466946695,0,0
-183.65130348627,-194.04644969833,33.573897389739,1255410.9475491,1583.9525349292,2537504.5230635,38.773897389739,0,0
-183.65130338699,-194.0752726027,33.578327832783,1255410.9475491,1583.9525349292,2537504.5230635,38.778327832783,0,0
-183.65130328771,-194.10409550706,33.582758275828,1255410.9475491,1583.9525349292,2537504.5230635,38.782758275828,0,0
-183.65130318843,-194.13291841143,33.587188718872,1255410.9475491,1583.9525349292,2537504.5230635,38.787188718872,0,0
-183.65130308916,-194.1617413158,33.591619161916,1255410.9475491,1583.9525349292,2537504.5230635,38.791619161916,0,0
-183.65130298988,-194.19056422016,33.59604960496,1255410.9475491,1583.9525349292,2537504.5230635,38.79604960496,0,0
-183.6513028906,-194.21938712453,33.600480048005,1255410.9475491,1583.9525349292,2537504.5230635,38.800480048005,0,0
-183.65130279132,-194.2482100289,33.604910491049,1255410.9475491,1583.9525349292,2537504.5230635,38.804910491049,0,0
-183.65130269204,-194.27703293326,33.609340934093,1255410.9475491,1583.9525349292,2537504.5230635,38.809340934093,0,0
-183.65130259276,-194.30585583763,33.613771377138,1255410.9475491,1583.9525349292,2537504.5230635,38.813771377138,0,0
-183.65130249349,-194.334678742,33.618201820182,1255410.9475491,1583.9525349292,2537504.5230635,38.818201820182,0,0
-183.65130239421,-194.36350164636,33.622632263226,1255410.9475491,1583.9525349292,2537504.5230635,38.822632263226,0,0
-183.65130229493,-194.39232455073,33.627062706271,1255410.9475491,1583.9525349292,2537504.5230635,38.827062706271,0,0
-183.65130219565,-194.4211474551,33.631493149315,1255410.9475491,1583.9525349292,2537504.5230635,38.831493149315,0,0
-183.65130209637,-194.44997035946,33.635923592359,1255410.9475491,1583.9525349292,2537504.5230635,38.835923592359,0,0
-183.65130199709,-194.47879326383,33.640354035404,1255410.9475491,1583.9525349292,2537504.5230635,38.840354035404,0,0
-183.65130189781,-194.5076161682,33.644784478448,1255410.9475491,1583.9525349292,2537504.5230635,38.844784478448,0,0
-183.65130179854,-194.53643907256,33.649214921492,1255410.9475491,1583.9525349292,2537504.5230635,38.849214921492,0,0
-183.65130169926,-194.56526197693,33.653645364536,1255410.9475491,1583.9525349292,2537504.5230635,38.853645364536,0,0
-183.65130159998,-194.5940848813,33.658075807581,1255410.9475491,1583.9525349292,2537504.5230635,38.858075807581,0,0
-183.6513015007,-194.62290778566,33.662506250625,1255410.9475491,1583.9525349292,2537504.5230635,38.862506250625,0,0
-183.65130140142,-194.65173069003,33.666936693669,1255410.9475491,1583.9525349292,2537504.5230635,38.866936693669,0,0
-183.65130130213,-194.68055359447,33.671367136714,1254827.1845733,-734.51079856575,2532839.8575002,38.871367136714,0,0
-183.65130120278,-194.70937649939,33.675797579758,1254827.1845733,-734.51079856575,2532839.8575002,38.875797579758,0,0
-183.65130110342,-194.7381994043,33.680228022802,1254827.1845733,-734.51079856575,2532839.8575002,38.880228022802,0,0
-183.65130100407,-194.76702230921,33.684658465847,1254827.1845733,-734.51079856575,2532839.8575002,38.884658465847,0,0
-183.65130090471,-194.79584521412,33.689088908891,1254827.1845733,-734.51079856575,2532839.8575002,38.889088908891,0,0
-183.65130080535,-194.82466811903,33.693519351935,1254827.1845733,-734.51079856575,2532839.8575002,38.893519351935,0,0
-183.651300706,-194.85349102394,33.697949794979,1254827.1845733,-734.51079856575,2532839.8575002,38.897949794979,0,0
-183.65130060664,-194.88231392885,33.702380238024,1254827.1845733,-734.51079856575,2532839.8575002,38.902380238024,0,0
-183.65130050729,-194.91113683376,33.706810681068,1254827.1845733,-734.51079856575,2532839.8575002,38.906810681068,0,0
-183.65130040793,-194.93995973868,33.711241124112,1254827.1845733,-734.51079856575,2532839.8575002,38.911241124112,0,0
-183.65130030857,-194.96878264359,33.715671567157,1254827.1845733,-734.51079856575,2532839.8575002,38.915671567157,0,0
-183.65130020922,-194.9976055485,33.720102010201,1254827.1845733,-734.51079856575,2532839.8575002,38.920102010201,0,0
-183.65130010986,-195.02642845341,33.724532453245,1254827.1845733,-734.51079856575,2532839.8575002,38.924532453245,0,0
-183.65130001051,-195.05525135832,33.72896289629,1254827.1845733,-734.51079856575,2532839.8575002,38.92896289629,0,0
-183.65129991115,-195.08407426323,33.733393339334,1254827.1845733,-734.51079856575,2532839.8575002,38.933393339334,0,0
-183.65129981179,-195.11289716814,33.737823782378,1254827.1845733,-734.51079856575,2532839.8575002,38.937823782378,0,0
-183.65129971244,-195.14172007306,33.742254225423,1254827.1845733,-734.51079856575,2532839.8575002,38.942254225423,0,0
-183.65129961308,-195.17054297797,33.746684668467,1254827.1845733,-734.51079856575,2532839.8575002,38.946684668467,0,0
-183.65129951373,-195.19936588288,33.751115111511,1254827.1845733,-734.51079856575,2532839.8575002,38.951115111511,0,0
-183.65129941437,-195.22818878779,33.755545554555,1254827.1845733,-734.51079856575,2532839.8575002,38.955545554555,0,0
-183.65129931502,-195.2570116927,33.7599759976,1254827.1845733,-734.51079856575,2532839.8575002,38.9599759976,0,0
-183.65129921566,-195.28583459761,33.764406440644,1254827.1845733,-734.51079856575,2532839.8575002,38.964406440644,0,0
-183.6512991163,-195.31465750252,33.768836883688,1254827.1845733,-734.51079856575,2532839.8575002,38.968836883688,0,0
-183.65129901695,-195.34348040744,33.773267326733,1254827.1845733,-734.51079856575,2532839.8575002,38.973267326733,0,0
-183.65129891759,-195.37230331235,33.777697769777,1254827.1845733,-734.51079856575,2532839.8575002,38.977697769777,0,0
-183.65129881824,-195.40112621726,33.782128212821,1254827.1845733,-734.51079856575,2532839.8575002,38.982128212821,0,0
-183.65129871888,-195.42994912217,33.786558655866,1254827.1845733,-734.51079856575,2532839.8575002,38.986558655866,0,0
-183.65129861952,-195.45877202708,33.79098909891,1254827.1845733,-734.51079856575,2532839.8575002,38.99098909891,0,0
-183.65129852017,-195.48759493199,33.795419541954,1254827.1845733,-734.51079856575,2532839.8575002,38.995419541954,0,0
-183.65129842081,-195.5164178369,33.799849984998,1254827.1845733,-734.51079856575,2532839.8575002,38.999849984998,0,0
-183.65129832146,-195.54524074181,33.804280428043,1254827.1845733,-734.51079856575,2532839.8575002,39.004280428043,0,0
-183.6512982221,-195.57406364673,33.808710871087,1254827.1845733,-734.51079856575,2532839.8575002,39.008710871087,0,0
-183.65129812274,-195.60288655164,33.813141314131,1254827.1845733,-734.51079856575,2532839.8575002,39.013141314131,0,0
-183.65129802339,-195.63170945655,33.817571757176,1254827.1845733,-734.51079856575,2532839.8575002,39.017571757176,0,0
-183.65129792403,-195.66053236146,33.82200220022,1254827.1845733,-734.51079856575,2532839.8575002,39.02200220022,0,0
-183.65129782468,-195.68935526637,33.826432643264,1254827.1845733,-734.51079856575,2532839.8575002,39.026432643264,0,0
-183.65129772532,-195.71817817128,33.830863086309,1254827.1845733,-734.51079856575,2532839.8575002,39.030863086309,0,0
-183.65129762596,-195.74700107619,33.835293529353,1254827.1845733,-734.51079856575,2532839.8575002,39.035293529353,0,0
-183.65129752661,-195.77582398111,33.839723972397,1254827.1845733,-734.51079856575,2532839.8575002,39.039723972397,0,0
-183.65129742725,-195.80464688602,33.844154415442,1254827.1845733,-734.51079856575,2532839.8575002,39.044154415442,0,0
-183.6512973279,-195.83346979093,33.848584858486,1254827.1845733,-734.51079856575,2532839.8575002,39.048584858486,0,0
-183.65129722854,-195.86229269584,33.85301530153,1254827.1845733,-734.51079856575,2532839.8575002,39.05301530153,0,0
-183.65129712918,-195.89111560075,33.857445744574,1254827.1845733,-734.51079856575,2532839.8575002,39.057445744574,0,0
-183.65129702983,-195.91993850566,33.861876187619,1254827.1845733,-734.51079856575,2532839.8575002,39.061876187619,0,0
-183.65129693047,-195.94876141057,33.866306630663,1254827.1845733,-734.51079856575,2532839.8575002,39.066306630663,0,0
-183.65129683112,-195.97758431549,33.870737073707,1254827.1845733,-734.51079856575,2532839.8575002,39.070737073707,0,0
-183.65129673176,-196.0064072204,33.875167516752,1254827.1845733,-734.51079856575,2532839.8575002,39.075167516752,0,0
-183.65129663241,-196.03523012531,33.879597959796,1254827.1845733,-734.51079856575,2532839.8575002,39.079597959796,0,0
-183.65129653305,-196.06405303022,33.88402840284,1254827.1845733,-734.51079856575,2532839.8575002,39.08402840284,0,0
-183.65129643369,-196.09287593513,33.888458845885,1254827.1845733,-734.51079856575,2532839.8575002,39.088458845885,0,0
-183.65129633434,-196.12169884004,33.892889288929,1254827.1845733,-734.51079856575,2532839.8575002,39.092889288929,0,0
-183.65129623498,-196.15052174495,33.897319731973,1254827.1845733,-734.51079856575,2532839.8575002,39.097319731973,0,0
-183.65129613563,-196.17934464986,33.901750175017,1254827.1845733,-734.51079856575,2532839.8575002,39.101750175018,0,0
-183.65129603627,-196.20816755478,33.906180618062,1254827.1845733,-734.51079856575,2532839.8575002,39.106180618062,0,0
-183.65129593691,-196.23699045969,33.910611061106,1254827.1845733,-734.51079856575,2532839.8575002,39.110611061106,0,0
-183.65129583756,-196.2658133646,33.91504150415,1254827.1845733,-734.51079856575,2532839.8575002,39.11504150415,0,0
-183.6512957382,-196.29463626951,33.919471947195,1254827.1845733,-734.51079856575,2532839.8575002,39.119471947195,0,0
-183.65129563885,-196.32345917442,33.923902390239,1254827.1845733,-734.51079856575,2532839.8575002,39.123902390239,0,0
-183.65129553949,-196.35228207933,33.928332833283,1254827.1845733,-734.51079856575,2532839.8575002,39.128332833283,0,0
-183.65129544013,-196.38110498424,33.932763276328,1254827.1845733,-734.51079856575,2532839.8575002,39.132763276328,0,0
-183.65129534078,-196.40992788916,33.937193719372,1254827.1845733,-734.51079856575,2532839.8575002,39.137193719372,0,0
-183.65129524142,-196.43875079407,33.941624162416,1254827.1845733,-734.51079856575,2532839.8575002,39.141624162416,0,0
-183.65129514207,-196.46757369898,33.946054605461,1254827.1845733,-734.51079856575,2532839.8575002,39.146054605461,0,0
-183.65129504271,-196.49639660389,33.950485048505,1254827.1845733,-734.51079856575,2532839.8575002,39.150485048505,0,0
-183.65129494335,-196.5252195088,33.954915491549,1254827.1845733,-734.51079856575,2532839.8575002,39.154915491549,0,0
-183.651294844,-196.55404241371,33.959345934593,1254827.1845733,-734.51079856575,2532839.8575002,39.159345934593,0,0
-183.65129474464,-196.58286531862,33.963776377638,1254827.1845733,-734.51079856575,2532839.8575002,39.163776377638,0,0
-183.65129464529,-196.61168822354,33.968206820682,1254827.1845733,-734.51079856575,2532839.8575002,39.168206820682,0,0
-183.65129454593,-196.64051112845,33.972637263726,1254827.1845733,-734.51079856575,2532839.8575002,39.172637263726,0,0
-183.65129444657,-196.66933403336,33.977067706771,1254827.1845733,-734.51079856575,2532839.8575002,39.177067706771,0,0
-183.65129434722,-196.69815693827,33.981498149815,1254827.1845733,-734.51079856575,2532839.8575002,39.181498149815,0,0
-183.65129424786,-196.72697984318,33.985928592859,1254827.1845733,-734.51079856575,2532839.8575002,39.185928592859,0,0
-183.65129414851,-196.75580274809,33.990359035904,1254827.1845733,-734.51079856575,2532839.8575002,39.190359035904,0,0
-183.65129404915,-196.784625653,33.994789478948,1254827.1845733,-734.51079856575,2532839.8575002,39.194789478948,0,0
-183.6512939498,-196.81344855791,33.999219921992,1254827.1845733,-734.51079856575,2532839.8575002,39.199219921992,0,0
-183.65129385044,-196.84227146283,34.003650365036,1254827.1845733,-734.51079856575,2532839.8575002,39.203650365037,0,0
-183.65129375108,-196.87109436774,34.008080808081,1254827.1845733,-734.51079856575,2532839.8575002,39.208080808081,0,0
-183.65129365173,-196.89991727265,34.012511251125,1254827.1845733,-734.51079856575,2532839.8575002,39.212511251125,0,0
-183.65129355237,-196.92874017756,34.016941694169,1254827.1845733,-734.51079856575,2532839.8575002,39.216941694169,0,0
-183.65129345302,-196.95756308247,34.021372137214,1254827.1845733,-734.51079856575,2532839.8575002,39.221372137214,0,0
-183.65129335366,-196.98638598738,34.025802580258,1254827.1845733,-734.51079856575,2532839.8575002,39.225802580258,0,0
-183.6512932543,-197.01520889229,34.030233023302,1254827.1845733,-734.51079856575,2532839.8575002,39.230233023302,0,0
-183.65129315495,-197.04403179721,34.034663466347,1254827.1845733,-734.51079856575,2532839.8575002,39.234663466347,0,0
-183.65129305559,-197.07285470212,34.039093909391,1254827.1845733,-734.51079856575,2532839.8575002,39.239093909391,0,0
-183.65129295624,-197.10167760703,34.043524352435,1254827.1845733,-734.51079856575,2532839.8575002,39.243524352435,0,0
-183.65129285688,-197.13050051194,34.04795479548,1254827.1845733,-734.51079856575,2532839.8575002,39.24795479548,0,0
-183.65129275752,-197.15932341685,34.052385238524,1254827.1845733,-734.51079856575,2532839.8575002,39.252385238524,0,0
-183.65129265817,-197.18814632176,34.056815681568,1254827.1845733,-734.51079856575,2532839.8575002,39.256815681568,0,0
-183.65129255881,-197.21696922667,34.061246124612,1254827.1845733,-734.51079856575,2532839.8575002,39.261246124612,0,0
-183.65129245946,-197.24579213159,34.065676567657,1254827.1845733,-734.51079856575,2532839.8575002,39.265676567657,0,0
-183.6512923601,-197.2746150365,34.070107010701,1254827.1845733,-734.51079856575,2532839.8575002,39.270107010701,0,0
-183.65129226074,-197.30343794141,34.074537453745,1254827.1845733,-734.51079856575,2532839.8575002,39.274537453745,0,0
-183.65129216139,-197.33226084632,34.07896789679,1254827.1845733,-734.51079856575,2532839.8575002,39.27896789679,0,0
-183.65129206203,-197.36108375123,34.083398339834,1254827.1845733,-734.51079856575,2532839.8575002,39.283398339834,0,0
-183.65129196268,-197.38990665614,34.087828782878,1254827.1845733,-734.51079856575,2532839.8575002,39.287828782878,0,0
-183.65129186332,-197.41872956105,34.092259225923,1254827.1845733,-734.51079856575,2532839.8575002,39.292259225923,0,0
-183.65129176396,-197.44755246596,34.096689668967,1254827.1845733,-734.51079856575,2532839.8575002,39.296689668967,0,0
-183.65129166461,-197.47637537088,34.101120112011,1254827.1845733,-734.51079856575,2532839.8575002,39.301120112011,0,0
-183.65129156525,-197.50519827579,34.105550555056,1254827.1845733,-734.51079856575,2532839.8575002,39.305550555056,0,0
-183.6512914659,-197.5340211807,34.1099809981,1254827.1845733,-734.51079856575,2532839.8575002,39.3099809981,0,0
-183.65129136654,-197.56284408561,34.114411441144,1254827.1845733,-734.51079856575,2532839.8575002,39.314411441144,0,0
-183.65129126719,-197.59166699052,34.118841884188,1254827.1845733,-734.51079856575,2532839.8575002,39.318841884188,0,0
-183.65129116783,-197.62048989543,34.123272327233,1254827.1845733,-734.51079856575,2532839.8575002,39.323272327233,0,0
-183.65129106847,-197.64931280034,34.127702770277,1254827.1845733,-734.51079856575,2532839.8575002,39.327702770277,0,0
-183.65129096912,-197.67813570526,34.132133213321,1254827.1845733,-734.51079856575,2532839.8575002,39.332133213321,0,0
-183.65129086976,-197.70695861017,34.136563656366,1254827.1845733,-734.51079856575,2532839.8575002,39.336563656366,0,0
-183.65129077041,-197.73578151508,34.14099409941,1254827.1845733,-734.51079856575,2532839.8575002,39.34099409941,0,0
-183.65129067105,-197.76460441999,34.145424542454,1254827.1845733,-734.51079856575,2532839.8575002,39.345424542454,0,0
-183.65129057169,-197.7934273249,34.149854985499,1254827.1845733,-734.51079856575,2532839.8575002,39.349854985499,0,0
-183.65129047234,-197.82225022981,34.154285428543,1254827.1845733,-734.51079856575,2532839.8575002,39.354285428543,0,0
-183.65129037298,-197.85107313472,34.158715871587,1254827.1845733,-734.51079856575,2532839.8575002,39.358715871587,0,0
-183.65129027363,-197.87989603964,34.163146314631,1254827.1845733,-734.51079856575,2532839.8575002,39.363146314631,0,0
-183.65129017427,-197.90871894455,34.167576757676,1254827.1845733,-734.51079856575,2532839.8575002,39.367576757676,0,0
-183.65129007491,-197.93754184946,34.17200720072,1254827.1845733,-734.51079856575,2532839.8575002,39.37200720072,0,0
-183.65128997556,-197.96636475437,34.176437643764,1254827.1845733,-734.51079856575,2532839.8575002,39.376437643764,0,0
-183.6512898762,-197.99518765928,34.180868086809,1254827.1845733,-734.51079856575,2532839.8575002,39.380868086809,0,0
-183.65128977685,-198.02401056419,34.185298529853,1254827.1845733,-734.51079856575,2532839.8575002,39.385298529853,0,0
-183.65128967749,-198.0528334691,34.189728972897,1254827.1845733,-734.51079856575,2532839.8575002,39.389728972897,0,0
-183.65128957813,-198.08165637401,34.194159415942,1254827.1845733,-734.51079856575,2532839.8575002,39.394159415942,0,0
-183.65128947878,-198.11047927893,34.198589858986,1254827.1845733,-734.51079856575,2532839.8575002,39.398589858986,0,0
-183.65128937942,-198.13930218384,34.20302030203,1254827.1845733,-734.51079856575,2532839.8575002,39.40302030203,0,0
-183.65128928007,-198.16812508875,34.207450745075,1254827.1845733,-734.51079856575,2532839.8575002,39.407450745075,0,0
-183.65128918071,-198.19694799366,34.211881188119,1254827.1845733,-734.51079856575,2532839.8575002,39.411881188119,0,0
-183.65128908136,-198.22577089857,34.216311631163,1254827.1845733,-734.51079856575,2532839.8575002,39.416311631163,0,0
-183.651288982,-198.25459380348,34.220742074207,1254827.1845733,-734.51079856575,2532839.8575002,39.420742074207,0,0
-183.65128888264,-198.28341670839,34.225172517252,1254827.1845733,-734.51079856575,2532839.8575002,39.425172517252,0,0
-183.65128878329,-198.31223961331,34.229602960296,1254827.1845733,-734.51079856575,2532839.8575002,39.429602960296,0,0
-183.65128868393,-198.34106251822,34.23403340334,1254827.1845733,-734.51079856575,2532839.8575002,39.43403340334,0,0
-183.65128858458,-198.36988542313,34.238463846385,1254827.1845733,-734.51079856575,2532839.8575002,39.438463846385,0,0
-183.65128848522,-198.39870832804,34.242894289429,1254827.1845733,-734.51079856575,2532839.8575002,39.442894289429,0,0
-183.65128838586,-198.42753123295,34.247324732473,1254827.1845733,-734.51079856575,2532839.8575002,39.447324732473,0,0
-183.65128828651,-198.45635413786,34.251755175518,1254827.1845733,-734.51079856575,2532839.8575002,39.451755175518,0,0
-183.65128818715,-198.48517704263,34.256185618562,1253920.2910307,1586.8797208895,2529432.7136339,39.456185618562,0,0
-183.65128808777,-198.51399994704,34.260616061606,1253920.2910307,1586.8797208895,2529432.7136339,39.460616061606,0,0
-183.6512879884,-198.54282285145,34.26504650465,1253920.2910307,1586.8797208895,2529432.7136339,39.46504650465,0,0
-183.65128788902,-198.57164575586,34.269476947695,1253920.2910307,1586.8797208895,2529432.7136339,39.469476947695,0,0
-183.65128778965,-198.60046866027,34.273907390739,1253920.2910307,1586.8797208895,2529432.7136339,39.473907390739,0,0
-183.65128769028,-198.62929156467,34.278337833783,1253920.2910307,1586.8797208895,2529432.7136339,39.478337833783,0,0
-183.6512875909,-198.65811446908,34.282768276828,1253920.2910307,1586.8797208895,2529432.7136339,39.482768276828,0,0
-183.65128749153,-198.68693737349,34.287198719872,1253920.2910307,1586.8797208895,2529432.7136339,39.487198719872,0,0
-183.65128739215,-198.7157602779,34.291629162916,1253920.2910307,1586.8797208895,2529432.7136339,39.491629162916,0,0
-183.65128729278,-198.74458318231,34.296059605961,1253920.2910307,1586.8797208895,2529432.7136339,39.496059605961,0,0
-183.6512871934,-198.77340608671,34.300490049005,1253920.2910307,1586.8797208895,2529432.7136339,39.500490049005,0,0
-183.65128709403,-198.80222899112,34.304920492049,1253920.2910307,1586.8797208895,2529432.7136339,39.504920492049,0,0
-183.65128699466,-198.83105189553,34.309350935094,1253920.2910307,1586.8797208895,2529432.7136339,39.509350935094,0,0
-183.65128689528,-198.85987479994,34.313781378138,1253920.2910307,1586.8797208895,2529432.7136339,39.513781378138,0,0
-183.65128679591,-198.88869770435,34.318211821182,1253920.2910307,1586.8797208895,2529432.7136339,39.518211821182,0,0
-183.65128669653,-198.91752060875,34.322642264226,1253920.2910307,1586.8797208895,2529432.7136339,39.522642264226,0,0
-183.65128659716,-198.94634351316,34.327072707271,1253920.2910307,1586.8797208895,2529432.7136339,39.527072707271,0,0
-183.65128649779,-198.97516641757,34.331503150315,1253920.2910307,1586.8797208895,2529432.7136339,39.531503150315,0,0
-183.65128639841,-199.00398932198,34.335933593359,1253920.2910307,1586.8797208895,2529432.7136339,39.535933593359,0,0
-183.65128629904,-199.03281222639,34.340364036404,1253920.2910307,1586.8797208895,2529432.7136339,39.540364036404,0,0
-183.65128619966,-199.06163513079,34.344794479448,1253920.2910307,1586.8797208895,2529432.7136339,39.544794479448,0,0
-183.65128610029,-199.0904580352,34.349224922492,1253920.2910307,1586.8797208895,2529432.7136339,39.549224922492,0,0
-183.65128600091,-199.11928093961,34.353655365537,1253920.2910307,1586.8797208895,2529432.7136339,39.553655365537,0,0
-183.65128590154,-199.14810384402,34.358085808581,1253920.2910307,1586.8797208895,2529432.7136339,39.558085808581,0,0
-183.65128580217,-199.17692674842,34.362516251625,1253920.2910307,1586.8797208895,2529432.7136339,39.562516251625,0,0
-183.65128570279,-199.20574965283,34.366946694669,1253920.2910307,1586.8797208895,2529432.7136339,39.566946694669,0,0
-183.65128560342,-199.23457255724,34.371377137714,1253920.2910307,1586.8797208895,2529432.7136339,39.571377137714,0,0
-183.65128550404,-199.26339546165,34.375807580758,1253920.2910307,1586.8797208895,2529432.7136339,39.575807580758,0,0
-183.65128540467,-199.29221836606,34.380238023802,1253920.2910307,1586.8797208895,2529432.7136339,39.580238023802,0,0
-183.65128530529,-199.32104127046,34.384668466847,1253920.2910307,1586.8797208895,2529432.7136339,39.584668466847,0,0
-183.65128520592,-199.34986417487,34.389098909891,1253920.2910307,1586.8797208895,2529432.7136339,39.589098909891,0,0
-183.65128510655,-199.37868707928,34.393529352935,1253920.2910307,1586.8797208895,2529432.7136339,39.593529352935,0,0
-183.65128500717,-199.40750998369,34.39795979598,1253920.2910307,1586.8797208895,2529432.7136339,39.59795979598,0,0
-183.6512849078,-199.4363328881,34.402390239024,1253920.2910307,1586.8797208895,2529432.7136339,39.602390239024,0,0
-183.65128480842,-199.4651557925,34.406820682068,1253920.2910307,1586.8797208895,2529432.7136339,39.606820682068,0,0
-183.65128470905,-199.49397869691,34.411251125113,1253920.2910307,1586.8797208895,2529432.7136339,39.611251125113,0,0
-183.65128460968,-199.52280160132,34.415681568157,1253920.2910307,1586.8797208895,2529432.7136339,39.615681568157,0,0
-183.6512845103,-199.55162450573,34.420112011201,1253920.2910307,1586.8797208895,2529432.7136339,39.620112011201,0,0
-183.65128441093,-199.58044741014,34.424542454245,1253920.2910307,1586.8797208895,2529432.7136339,39.624542454245,0,0
-183.65128431155,-199.60927031454,34.42897289729,1253920.2910307,1586.8797208895,2529432.7136339,39.62897289729,0,0
-183.65128421218,-199.63809321895,34.433403340334,1253920.2910307,1586.8797208895,2529432.7136339,39.633403340334,0,0
-183.6512841128,-199.66691612336,34.437833783378,1253920.2910307,1586.8797208895,2529432.7136339,39.637833783378,0,0
-183.65128401343,-199.69573902777,34.442264226423,1253920.2910307,1586.8797208895,2529432.7136339,39.642264226423,0,0
-183.65128391406,-199.72456193217,34.446694669467,1253920.2910307,1586.8797208895,2529432.7136339,39.646694669467,0,0
-183.65128381468,-199.75338483658,34.451125112511,1253920.2910307,1586.8797208895,2529432.7136339,39.651125112511,0,0
-183.65128371531,-199.78220774099,34.455555555556,1253920.2910307,1586.8797208895,2529432.7136339,39.655555555556,0,0
-183.65128361593,-199.8110306454,34.4599859986,1253920.2910307,1586.8797208895,2529432.7136339,39.6599859986,0,0
-183.65128351656,-199.83985354981,34.464416441644,1253920.2910307,1586.8797208895,2529432.7136339,39.664416441644,0,0
-183.65128341718,-199.86867645421,34.468846884688,1253920.2910307,1586.8797208895,2529432.7136339,39.668846884688,0,0
-183.65128331781,-199.89749935862,34.473277327733,1253920.2910307,1586.8797208895,2529432.7136339,39.673277327733,0,0
-183.65128321844,-199.92632226303,34.477707770777,1253920.2910307,1586.8797208895,2529432.7136339,39.677707770777,0,0
-183.65128311906,-199.95514516744,34.482138213821,1253920.2910307,1586.8797208895,2529432.7136339,39.682138213821,0,0
-183.65128301969,-199.98396807185,34.486568656866,1253920.2910307,1586.8797208895,2529432.7136339,39.686568656866,0,0
-183.65128292031,-200.01279097625,34.49099909991,1253920.2910307,1586.8797208895,2529432.7136339,39.69099909991,0,0
-183.65128282094,-200.04161388066,34.495429542954,1253920.2910307,1586.8797208895,2529432.7136339,39.695429542954,0,0
-183.65128272157,-200.07043678507,34.499859985999,1253920.2910307,1586.8797208895,2529432.7136339,39.699859985999,0,0
-183.65128262219,-200.09925968948,34.504290429043,1253920.2910307,1586.8797208895,2529432.7136339,39.704290429043,0,0
-183.65128252282,-200.12808259389,34.508720872087,1253920.2910307,1586.8797208895,2529432.7136339,39.708720872087,0,0
-183.65128242344,-200.15690549829,34.513151315132,1253920.2910307,1586.8797208895,2529432.7136339,39.713151315132,0,0
-183.65128232407,-200.1857284027,34.517581758176,1253920.2910307,1586.8797208895,2529432.7136339,39.717581758176,0,0
-183.65128222469,-200.21455130711,34.52201220122,1253920.2910307,1586.8797208895,2529432.7136339,39.72201220122,0,0
-183.65128212532,-200.24337421152,34.526442644264,1253920.2910307,1586.8797208895,2529432.7136339,39.726442644264,0,0
-183.65128202595,-200.27219711592,34.530873087309,1253920.2910307,1586.8797208895,2529432.7136339,39.730873087309,0,0
-183.65128192657,-200.30102002033,34.535303530353,1253920.2910307,1586.8797208895,2529432.7136339,39.735303530353,0,0
-183.6512818272,-200.32984292474,34.539733973397,1253920.2910307,1586.8797208895,2529432.7136339,39.739733973397,0,0
-183.65128172782,-200.35866582915,34.544164416442,1253920.2910307,1586.8797208895,2529432.7136339,39.744164416442,0,0
-183.65128162845,-200.38748873356,34.548594859486,1253920.2910307,1586.8797208895,2529432.7136339,39.748594859486,0,0
-183.65128152908,-200.41631163796,34.55302530253,1253920.2910307,1586.8797208895,2529432.7136339,39.75302530253,0,0
-183.6512814297,-200.44513454237,34.557455745575,1253920.2910307,1586.8797208895,2529432.7136339,39.757455745575,0,0
-183.65128133033,-200.47395744678,34.561886188619,1253920.2910307,1586.8797208895,2529432.7136339,39.761886188619,0,0
-183.65128123095,-200.50278035119,34.566316631663,1253920.2910307,1586.8797208895,2529432.7136339,39.766316631663,0,0
-183.65128113158,-200.5316032556,34.570747074707,1253920.2910307,1586.8797208895,2529432.7136339,39.770747074707,0,0
-183.6512810322,-200.56042616,34.575177517752,1253920.2910307,1586.8797208895,2529432.7136339,39.775177517752,0,0
-183.65128093283,-200.58924906441,34.579607960796,1253920.2910307,1586.8797208895,2529432.7136339,39.779607960796,0,0
-183.65128083346,-200.61807196882,34.58403840384,1253920.2910307,1586.8797208895,2529432.7136339,39.78403840384,0,0
-183.65128073408,-200.64689487323,34.588468846885,1253920.2910307,1586.8797208895,2529432.7136339,39.788468846885,0,0
-183.65128063471,-200.67571777764,34.592899289929,1253920.2910307,1586.8797208895,2529432.7136339,39.792899289929,0,0
-183.65128053533,-200.70454068204,34.597329732973,1253920.2910307,1586.8797208895,2529432.7136339,39.797329732973,0,0
-183.65128043596,-200.73336358645,34.601760176018,1253920.2910307,1586.8797208895,2529432.7136339,39.801760176018,0,0
-183.65128033658,-200.76218649086,34.606190619062,1253920.2910307,1586.8797208895,2529432.7136339,39.806190619062,0,0
-183.65128023721,-200.79100939527,34.610621062106,1253920.2910307,1586.8797208895,2529432.7136339,39.810621062106,0,0
-183.65128013784,-200.81983229968,34.615051505151,1253920.2910307,1586.8797208895,2529432.7136339,39.815051505151,0,0
-183.65128003846,-200.84865520408,34.619481948195,1253920.2910307,1586.8797208895,2529432.7136339,39.819481948195,0,0
-183.65127993909,-200.87747810849,34.623912391239,1253920.2910307,1586.8797208895,2529432.7136339,39.823912391239,0,0
-183.65127983971,-200.9063010129,34.628342834283,1253920.2910307,1586.8797208895,2529432.7136339,39.828342834283,0,0
-183.65127974034,-200.93512391731,34.632773277328,1253920.2910307,1586.8797208895,2529432.7136339,39.832773277328,0,0
-183.65127964097,-200.96394682171,34.637203720372,1253920.2910307,1586.8797208895,2529432.7136339,39.837203720372,0,0
-183.65127954159,-200.99276972612,34.641634163416,1253920.2910307,1586.8797208895,2529432.7136339,39.841634163416,0,0
-183.65127944222,-201.02159263053,34.646064606461,1253920.2910307,1586.8797208895,2529432.7136339,39.846064606461,0,0
-183.65127934284,-201.05041553494,34.650495049505,1253920.2910307,1586.8797208895,2529432.7136339,39.850495049505,0,0
-183.65127924347,-201.07923843935,34.654925492549,1253920.2910307,1586.8797208895,2529432.7136339,39.854925492549,0,0
-183.65127914409,-201.10806134375,34.659355935594,1253920.2910307,1586.8797208895,2529432.7136339,39.859355935594,0,0
-183.65127904472,-201.13688424816,34.663786378638,1253920.2910307,1586.8797208895,2529432.7136339,39.863786378638,0,0
-183.65127894535,-201.16570715257,34.668216821682,1253920.2910307,1586.8797208895,2529432.7136339,39.868216821682,0,0
-183.65127884597,-201.19453005698,34.672647264726,1253920.2910307,1586.8797208895,2529432.7136339,39.872647264726,0,0
-183.6512787466,-201.22335296139,34.677077707771,1253920.2910307,1586.8797208895,2529432.7136339,39.877077707771,0,0
-183.65127864722,-201.25217586579,34.681508150815,1253920.2910307,1586.8797208895,2529432.7136339,39.881508150815,0,0
-183.65127854785,-201.2809987702,34.685938593859,1253920.2910307,1586.8797208895,2529432.7136339,39.885938593859,0,0
-183.65127844847,-201.30982167461,34.690369036904,1253920.2910307,1586.8797208895,2529432.7136339,39.890369036904,0,0
-183.6512783491,-201.33864457902,34.694799479948,1253920.2910307,1586.8797208895,2529432.7136339,39.894799479948,0,0
-183.65127824973,-201.36746748343,34.699229922992,1253920.2910307,1586.8797208895,2529432.7136339,39.899229922992,0,0
-183.65127815035,-201.39629038783,34.703660366037,1253920.2910307,1586.8797208895,2529432.7136339,39.903660366037,0,0
-183.65127805098,-201.42511329224,34.708090809081,1253920.2910307,1586.8797208895,2529432.7136339,39.908090809081,0,0
-183.6512779516,-201.45393619665,34.712521252125,1253920.2910307,1586.8797208895,2529432.7136339,39.912521252125,0,0
-183.65127785223,-201.48275910106,34.71695169517,1253920.2910307,1586.8797208895,2529432.7136339,39.91695169517,0,0
-183.65127775286,-201.51158200546,34.721382138214,1253920.2910307,1586.8797208895,2529432.7136339,39.921382138214,0,0
-183.65127765348,-201.54040490987,34.725812581258,1253920.2910307,1586.8797208895,2529432.7136339,39.925812581258,0,0
-183.65127755411,-201.56922781428,34.730243024302,1253920.2910307,1586.8797208895,2529432.7136339,39.930243024302,0,0
-183.65127745473,-201.59805071869,34.734673467347,1253920.2910307,1586.8797208895,2529432.7136339,39.934673467347,0,0
-183.65127735536,-201.6268736231,34.739103910391,1253920.2910307,1586.8797208895,2529432.7136339,39.939103910391,0,0
-183.65127725598,-201.6556965275,34.743534353435,1253920.2910307,1586.8797208895,2529432.7136339,39.943534353435,0,0
-183.65127715661,-201.68451943191,34.74796479648,1253920.2910307,1586.8797208895,2529432.7136339,39.94796479648,0,0
-183.65127705724,-201.71334233632,34.752395239524,1253920.2910307,1586.8797208895,2529432.7136339,39.952395239524,0,0
-183.65127695786,-201.74216524073,34.756825682568,1253920.2910307,1586.8797208895,2529432.7136339,39.956825682568,0,0
-183.65127685849,-201.77098814514,34.761256125613,1253920.2910307,1586.8797208895,2529432.7136339,39.961256125613,0,0
-183.65127675911,-201.79981104954,34.765686568657,1253920.2910307,1586.8797208895,2529432.7136339,39.965686568657,0,0
-183.65127665974,-201.82863395395,34.770117011701,1253920.2910307,1586.8797208895,2529432.7136339,39.970117011701,0,0
-183.65127656036,-201.85745685836,34.774547454745,1253920.2910307,1586.8797208895,2529432.7136339,39.974547454745,0,0
-183.65127646099,-201.88627976277,34.77897789779,1253920.2910307,1586.8797208895,2529432.7136339,39.97897789779,0,0
-183.65127636162,-201.91510266718,34.783408340834,1253920.2910307,1586.8797208895,2529432.7136339,39.983408340834,0,0
-183.65127626224,-201.94392557158,34.787838783878,1253920.2910307,1586.8797208895,2529432.7136339,39.987838783878,0,0
-183.65127616287,-201.97274847599,34.792269226923,1253920.2910307,1586.8797208895,2529432.7136339,39.992269226923,0,0
-183.65127606349,-202.0015713804,34.796699669967,1253920.2910307,1586.8797208895,2529432.7136339,39.996699669967,0,0
-183.65127596412,-202.03039428481,34.801130113011,1253920.2910307,1586.8797208895,2529432.7136339,40.001130113011,0,0
-183.65127586475,-202.05921718921,34.805560556056,1253920.2910307,1586.8797208895,2529432.7136339,40.005560556056,0,0
-183.65127576537,-202.08804009362,34.8099909991,1253920.2910307,1586.8797208895,2529432.7136339,40.0099909991,0,0
-183.651275666,-202.11686299803,34.814421442144,1253920.2910307,1586.8797208895,2529432.7136339,40.014421442144,0,0
-183.65127556662,-202.14568590244,34.818851885189,1253920.2910307,1586.8797208895,2529432.7136339,40.018851885189,0,0
-183.65127546725,-202.17450880685,34.823282328233,1253920.2910307,1586.8797208895,2529432.7136339,40.023282328233,0,0
-183.65127536787,-202.20333171125,34.827712771277,1253920.2910307,1586.8797208895,2529432.7136339,40.027712771277,0,0
-183.6512752685,-202.23215461566,34.832143214321,1253920.2910307,1586.8797208895,2529432.7136339,40.032143214321,0,0
-183.65127516913,-202.26097752007,34.836573657366,1253920.2910307,1586.8797208895,2529432.7136339,40.036573657366,0,0
-183.65127506975,-202.28980042448,34.84100410041,1253920.2910307,1586.8797208895,2529432.7136339,40.04100410041,0,0
-183.65127497038,-202.31862332889,34.845434543454,1253920.2910307,1586.8797208895,2529432.7136339,40.045434543454,0,0
-183.651274871,-202.34744623329,34.849864986499,1253920.2910307,1586.8797208895,2529432.7136339,40.049864986499,0,0
-183.65127477163,-202.3762691377,34.854295429543,1253920.2910307,1586.8797208895,2529432.7136339,40.054295429543,0,0
-183.65127467226,-202.40509204211,34.858725872587,1253920.2910307,1586.8797208895,2529432.7136339,40.058725872587,0,0
-183.65127457288,-202.43391494652,34.863156315632,1253920.2910307,1586.8797208895,2529432.7136339,40.063156315632,0,0
-183.65127447351,-202.46273785093,34.867586758676,1253920.2910307,1586.8797208895,2529432.7136339,40.067586758676,0,0
-183.65127437413,-202.49156075533,34.87201720172,1253920.2910307,1586.8797208895,2529432.7136339,40.07201720172,0,0
-183.65127427476,-202.52038365974,34.876447644764,1253920.2910307,1586.8797208895,2529432.7136339,40.076447644764,0,0
-183.65127417538,-202.54920656415,34.880878087809,1253920.2910307,1586.8797208895,2529432.7136339,40.080878087809,0,0
-183.65127407601,-202.57802946856,34.885308530853,1253920.2910307,1586.8797208895,2529432.7136339,40.085308530853,0,0
-183.65127397664,-202.60685237296,34.889738973897,1253920.2910307,1586.8797208895,2529432.7136339,40.089738973897,0,0
-183.65127387726,-202.63567527737,34.894169416942,1253920.2910307,1586.8797208895,2529432.7136339,40.094169416942,0,0
-183.65127377789,-202.66449818178,34.898599859986,1253920.2910307,1586.8797208895,2529432.7136339,40.098599859986,0,0
-183.65127367851,-202.69332108619,34.90303030303,1253920.2910307,1586.8797208895,2529432.7136339,40.10303030303,0,0
-183.65127357914,-202.7221439906,34.907460746075,1253920.2910307,1586.8797208895,2529432.7136339,40.107460746075,0,0
-183.65127347976,-202.750966895,34.911891189119,1253920.2910307,1586.8797208895,2529432.7136339,40.111891189119,0,0
-183.65127338039,-202.77978979941,34.916321632163,1253920.2910307,1586.8797208895,2529432.7136339,40.116321632163,0,0
-183.65127328102,-202.80861270382,34.920752075208,1253920.2910307,1586.8797208895,2529432.7136339,40.120752075208,0,0
-183.65127318164,-202.83743560823,34.925182518252,1253920.2910307,1586.8797208895,2529432.7136339,40.125182518252,0,0
-183.65127308227,-202.86625851264,34.929612961296,1253920.2910307,1586.8797208895,2529432.7136339,40.129612961296,0,0
-183.65127298289,-202.89508141704,34.93404340434,1253920.2910307,1586.8797208895,2529432.7136339,40.13404340434,0,0
-183.65127288352,-202.92390432145,34.938473847385,1253920.2910307,1586.8797208895,2529432.7136339,40.138473847385,0,0
-183.65127278415,-202.95272722586,34.942904290429,1253920.2910307,1586.8797208895,2529432.7136339,40.142904290429,0,0
-183.65127268477,-202.98155013027,34.947334733473,1253920.2910307,1586.8797208895,2529432.7136339,40.147334733473,0,0
-183.6512725854,-203.01037303468,34.951765176518,1253920.2910307,1586.8797208895,2529432.7136339,40.151765176518,0,0
-183.65127248602,-203.03919593908,34.956195619562,1253920.2910307,1586.8797208895,2529432.7136339,40.156195619562,0,0
-183.65127238665,-203.06801884349,34.960626062606,1253920.2910307,1586.8797208895,2529432.7136339,40.160626062606,0,0
-183.65127228727,-203.0968417479,34.965056505651,1253920.2910307,1586.8797208895,2529432.7136339,40.165056505651,0,0
-183.6512721879,-203.12566465231,34.969486948695,1253920.2910307,1586.8797208895,2529432.7136339,40.169486948695,0,0
-183.65127208853,-203.15448755672,34.973917391739,1253920.2910307,1586.8797208895,2529432.7136339,40.173917391739,0,0
-183.65127198915,-203.18331046112,34.978347834783,1253920.2910307,1586.8797208895,2529432.7136339,40.178347834783,0,0
-183.65127188978,-203.21213336553,34.982778277828,1253920.2910307,1586.8797208895,2529432.7136339,40.182778277828,0,0
-183.6512717904,-203.24095626994,34.987208720872,1253920.2910307,1586.8797208895,2529432.7136339,40.187208720872,0,0
-183.65127169103,-203.26977917435,34.991639163916,1253920.2910307,1586.8797208895,2529432.7136339,40.191639163916,0,0
-183.65127159165,-203.29860207875,34.996069606961,1253920.2910307,1586.8797208895,2529432.7136339,40.196069606961,0,0
-183.65127149228,-203.32742498316,35.000500050005,1253920.2910307,1586.8797208895,2529432.7136339,40.200500050005,0,0
-183.65127139291,-203.35624788757,35.004930493049,1253920.2910307,1586.8797208895,2529432.7136339,40.204930493049,0,0
-183.65127129353,-203.38507079198,35.009360936094,1253920.2910307,1586.8797208895,2529432.7136339,40.209360936094,0,0
-183.65127119416,-203.41389369639,35.013791379138,1253920.2910307,1586.8797208895,2529432.7136339,40.213791379138,0,0
-183.65127109478,-203.44271660079,35.018221822182,1253920.2910307,1586.8797208895,2529432.7136339,40.218221822182,0,0
-183.65127099541,-203.4715395052,35.022652265227,1253920.2910307,1586.8797208895,2529432.7136339,40.222652265227,0,0
-183.65127089604,-203.50036240961,35.027082708271,1253920.2910307,1586.8797208895,2529432.7136339,40.227082708271,0,0
-183.65127079666,-203.52918531402,35.031513151315,1253920.2910307,1586.8797208895,2529432.7136339,40.231513151315,0,0
-183.65127069729,-203.55800821843,35.035943594359,1253920.2910307,1586.8797208895,2529432.7136339,40.235943594359,0,0
-183.65127059791,-203.58683112283,35.040374037404,1253920.2910307,1586.8797208895,2529432.7136339,40.240374037404,0,0
-183.65127049854,-203.61565402724,35.044804480448,1253920.2910307,1586.8797208895,2529432.7136339,40.244804480448,0,0
-183.65127039916,-203.64447693165,35.049234923492,1253920.2910307,1586.8797208895,2529432.7136339,40.249234923492,0,0
-183.65127029979,-203.67329983606,35.053665366537,1253920.2910307,1586.8797208895,2529432.7136339,40.253665366537,0,0
-183.65127020042,-203.70212274047,35.058095809581,1253920.2910307,1586.8797208895,2529432.7136339,40.258095809581,0,0
-183.65127010104,-203.73094564487,35.062526252625,1253920.2910307,1586.8797208895,2529432.7136339,40.262526252625,0,0
-183.65127000167,-203.75976854928,35.06695669567,1253920.2910307,1586.8797208895,2529432.7136339,40.26695669567,0,0
-183.65126990229,-203.78859145369,35.071387138714,1253920.2910307,1586.8797208895,2529432.7136339,40.271387138714,0,0
-183.65126980292,-203.8174143581,35.075817581758,1253920.2910307,1586.8797208895,2529432.7136339,40.275817581758,0,0
-183.65126970354,-203.8462372625,35.080248024802,1253920.2910307,1586.8797208895,2529432.7136339,40.280248024802,0,0
-183.65126960417,-203.87506016691,35.084678467847,1253920.2910307,1586.8797208895,2529432.7136339,40.284678467847,0,0
-183.6512695048,-203.90388307132,35.089108910891,1253920.2910307,1586.8797208895,2529432.7136339,40.289108910891,0,0
-183.65126940542,-203.93270597573,35.093539353935,1253920.2910307,1586.8797208895,2529432.7136339,40.293539353935,0,0
-183.65126930605,-203.96152888014,35.09796979698,1253920.2910307,1586.8797208895,2529432.7136339,40.29796979698,0,0
-183.65126920667,-203.99035178454,35.102400240024,1253920.2910307,1586.8797208895,2529432.7136339,40.302400240024,0,0
-183.6512691073,-204.01917468895,35.106830683068,1253920.2910307,1586.8797208895,2529432.7136339,40.306830683068,0,0
-183.65126900793,-204.04799759336,35.111261126113,1253920.2910307,1586.8797208895,2529432.7136339,40.311261126113,0,0
-183.65126890855,-204.07682049777,35.115691569157,1253920.2910307,1586.8797208895,2529432.7136339,40.315691569157,0,0
-183.65126880918,-204.10564340218,35.120122012201,1253920.2910307,1586.8797208895,2529432.7136339,40.320122012201,0,0
-183.6512687098,-204.13446630658,35.124552455246,1253920.2910307,1586.8797208895,2529432.7136339,40.324552455246,0,0
-183.65126861043,-204.16328921099,35.12898289829,1253920.2910307,1586.8797208895,2529432.7136339,40.32898289829,0,0
-183.65126851105,-204.1921121154,35.133413341334,1253920.2910307,1586.8797208895,2529432.7136339,40.333413341334,0,0
-183.65126841168,-204.22093501981,35.137843784378,1253920.2910307,1586.8797208895,2529432.7136339,40.337843784378,0,0
-183.65126831231,-204.24975792422,35.142274227423,1253920.2910307,1586.8797208895,2529432.7136339,40.342274227423,0,0
-183.65126821293,-204.27858082862,35.146704670467,1253920.2910307,1586.8797208895,2529432.7136339,40.346704670467,0,0
-183.65126811356,-204.30740373303,35.151135113511,1253920.2910307,1586.8797208895,2529432.7136339,40.351135113511,0,0
-183.65126801418,-204.33622663744,35.155565556556,1253920.2910307,1586.8797208895,2529432.7136339,40.355565556556,0,0
-183.65126791481,-204.36504954185,35.1599959996,1253920.2910307,1586.8797208895,2529432.7136339,40.3599959996,0,0
-183.65126781544,-204.39387244625,35.164426442644,1253920.2910307,1586.8797208895,2529432.7136339,40.364426442644,0,0
-183.65126771606,-204.42269535066,35.168856885689,1253920.2910307,1586.8797208895,2529432.7136339,40.368856885689,0,0
-183.65126761669,-204.45151825507,35.173287328733,1253920.2910307,1586.8797208895,2529432.7136339,40.373287328733,0,0
-183.65126751731,-204.48034115948,35.177717771777,1253920.2910307,1586.8797208895,2529432.7136339,40.377717771777,0,0
-183.65126741794,-204.50916406389,35.182148214821,1253920.2910307,1586.8797208895,2529432.7136339,40.382148214821,0,0
-183.65126731856,-204.53798696829,35.186578657866,1253920.2910307,1586.8797208895,2529432.7136339,40.386578657866,0,0
-183.65126721919,-204.5668098727,35.19100910091,1253920.2910307,1586.8797208895,2529432.7136339,40.39100910091,0,0
-183.65126711982,-204.59563277711,35.195439543954,1253920.2910307,1586.8797208895,2529432.7136339,40.395439543954,0,0
-183.65126702044,-204.62445568152,35.199869986999,1253920.2910307,1586.8797208895,2529432.7136339,40.399869986999,0,0
-183.65126692107,-204.65327858593,35.204300430043,1253920.2910307,1586.8797208895,2529432.7136339,40.404300430043,0,0
-183.65126682169,-204.68210149033,35.208730873087,1253920.2910307,1586.8797208895,2529432.7136339,40.408730873087,0,0
-183.65126672232,-204.71092439474,35.213161316132,1253920.2910307,1586.8797208895,2529432.7136339,40.413161316132,0,0
-183.65126662294,-204.73974729915,35.217591759176,1253920.2910307,1586.8797208895,2529432.7136339,40.417591759176,0,0
-183.65126652357,-204.76857020356,35.22202220222,1253920.2910307,1586.8797208895,2529432.7136339,40.42202220222,0,0
-183.6512664242,-204.79739310797,35.226452645265,1253920.2910307,1586.8797208895,2529432.7136339,40.426452645265,0,0
-183.65126632482,-204.82621601237,35.230883088309,1253920.2910307,1586.8797208895,2529432.7136339,40.430883088309,0,0
-183.65126622545,-204.85503891678,35.235313531353,1253920.2910307,1586.8797208895,2529432.7136339,40.435313531353,0,0
-183.65126612607,-204.88386182119,35.239743974397,1253920.2910307,1586.8797208895,2529432.7136339,40.439743974397,0,0
-183.6512660267,-204.9126847256,35.244174417442,1253920.2910307,1586.8797208895,2529432.7136339,40.444174417442,0,0
-183.65126592733,-204.94150763,35.248604860486,1253920.2910307,1586.8797208895,2529432.7136339,40.448604860486,0,0
-183.65126582795,-204.97033053441,35.25303530353,1253920.2910307,1586.8797208895,2529432.7136339,40.45303530353,0,0
-183.65126572858,-204.99915343882,35.257465746575,1253920.2910307,1586.8797208895,2529432.7136339,40.457465746575,0,0
-183.6512656292,-205.02797634323,35.261896189619,1253920.2910307,1586.8797208895,2529432.7136339,40.461896189619,0,0
-183.65126552983,-205.05679924764,35.266326632663,1253920.2910307,1586.8797208895,2529432.7136339,40.466326632663,0,0
-183.65126543045,-205.08562215204,35.270757075708,1253920.2910307,1586.8797208895,2529432.7136339,40.470757075708,0,0
-183.65126533108,-205.11444505645,35.275187518752,1253920.2910307,1586.8797208895,2529432.7136339,40.475187518752,0,0
-183.65126523171,-205.14326796086,35.279617961796,1253920.2910307,1586.8797208895,2529432.7136339,40.479617961796,0,0
-183.65126513233,-205.17209086527,35.28404840484,1253920.2910307,1586.8797208895,2529432.7136339,40.48404840484,0,0
-183.65126503296,-205.20091376968,35.288478847885,1253920.2910307,1586.8797208895,2529432.7136339,40.488478847885,0,0
-183.65126493358,-205.22973667408,35.292909290929,1253920.2910307,1586.8797208895,2529432.7136339,40.492909290929,0,0
-183.65126483421,-205.25855957849,35.297339733973,1253920.2910307,1586.8797208895,2529432.7136339,40.497339733973,0,0
-183.65126473483,-205.2873824829,35.301770177018,1253920.2910307,1586.8797208895,2529432.7136339,40.501770177018,0,0
-183.65126463546,-205.31620538731,35.306200620062,1253920.2910307,1586.8797208895,2529432.7136339,40.506200620062,0,0
-183.65126453609,-205.34502829172,35.310631063106,1253920.2910307,1586.8797208895,2529432.7136339,40.510631063106,0,0
-183.65126443671,-205.37385119612,35.315061506151,1253920.2910307,1586.8797208895,2529432.7136339,40.515061506151,0,0
-183.65126433734,-205.40267410053,35.319491949195,1253920.2910307,1586.8797208895,2529432.7136339,40.519491949195,0,0
-183.65126423796,-205.43149700494,35.323922392239,1253920.2910307,1586.8797208895,2529432.7136339,40.523922392239,0,0
-183.65126413859,-205.46031990935,35.328352835284,1253920.2910307,1586.8797208895,2529432.7136339,40.528352835284,0,0
-183.65126403922,-205.48914281376,35.332783278328,1253920.2910307,1586.8797208895,2529432.7136339,40.532783278328,0,0
-183.65126393984,-205.51796571816,35.337213721372,1253920.2910307,1586.8797208895,2529432.7136339,40.537213721372,0,0
-183.65126384047,-205.54678862257,35.341644164416,1253920.2910307,1586.8797208895,2529432.7136339,40.541644164416,0,0
-183.65126374109,-205.57561152698,35.346074607461,1253920.2910307,1586.8797208895,2529432.7136339,40.546074607461,0,0
-183.65126364172,-205.60443443139,35.350505050505,1253920.2910307,1586.8797208895,2529432.7136339,40.550505050505,0,0
-183.65126354234,-205.63325733579,35.354935493549,1253920.2910307,1586.8797208895,2529432.7136339,40.554935493549,0,0
-183.65126344297,-205.6620802402,35.359365936594,1253920.2910307,1586.8797208895,2529432.7136339,40.559365936594,0,0
-183.6512633436,-205.69090314461,35.363796379638,1253920.2910307,1586.8797208895,2529432.7136339,40.563796379638,0,0
-183.65126324422,-205.71972604902,35.368226822682,1253920.2910307,1586.8797208895,2529432.7136339,40.568226822682,0,0
-183.65126314485,-205.74854895343,35.372657265727,1253920.2910307,1586.8797208895,2529432.7136339,40.572657265727,0,0
-183.65126304547,-205.77737185783,35.377087708771,1253920.2910307,1586.8797208895,2529432.7136339,40.577087708771,0,0
-183.6512629461,-205.80619476224,35.381518151815,1253920.2910307,1586.8797208895,2529432.7136339,40.581518151815,0,0
-183.65126284672,-205.83501766665,35.385948594859,1253920.2910307,1586.8797208895,2529432.7136339,40.585948594859,0,0
-183.65126274735,-205.86384057106,35.390379037904,1253920.2910307,1586.8797208895,2529432.7136339,40.590379037904,0,0
-183.65126264798,-205.89266347547,35.394809480948,1253920.2910307,1586.8797208895,2529432.7136339,40.594809480948,0,0
-183.6512625486,-205.92148637987,35.399239923992,1253920.2910307,1586.8797208895,2529432.7136339,40.599239923992,0,0
-183.65126244923,-205.95030928428,35.403670367037,1253920.2910307,1586.8797208895,2529432.7136339,40.603670367037,0,0
-183.65126234985,-205.97913218869,35.408100810081,1253920.2910307,1586.8797208895,2529432.7136339,40.608100810081,0,0
-183.65126225048,-206.0079550931,35.412531253125,1253920.2910307,1586.8797208895,2529432.7136339,40.612531253125,0,0
-183.65126215111,-206.03677799751,35.41696169617,1253920.2910307,1586.8797208895,2529432.7136339,40.61696169617,0,0
-183.65126205173,-206.06560090191,35.421392139214,1253920.2910307,1586.8797208895,2529432.7136339,40.621392139214,0,0
-183.65126195236,-206.09442380632,35.425822582258,1253920.2910307,1586.8797208895,2529432.7136339,40.625822582258,0,0
-183.65126185298,-206.12324671073,35.430253025303,1253920.2910307,1586.8797208895,2529432.7136339,40.630253025303,0,0
-183.65126175361,-206.15206961514,35.434683468347,1253920.2910307,1586.8797208895,2529432.7136339,40.634683468347,0,0
-183.65126165423,-206.18089251954,35.439113911391,1253920.2910307,1586.8797208895,2529432.7136339,40.639113911391,0,0
-183.65126155486,-206.20971542395,35.443544354435,1253920.2910307,1586.8797208895,2529432.7136339,40.643544354435,0,0
-183.65126145549,-206.23853832836,35.44797479748,1253920.2910307,1586.8797208895,2529432.7136339,40.64797479748,0,0
-183.65126135611,-206.26736123277,35.452405240524,1253920.2910307,1586.8797208895,2529432.7136339,40.652405240524,0,0
-183.65126125674,-206.29618413718,35.456835683568,1253920.2910307,1586.8797208895,2529432.7136339,40.656835683568,0,0
-183.65126115736,-206.32500704158,35.461266126613,1253920.2910307,1586.8797208895,2529432.7136339,40.661266126613,0,0
-183.65126105799,-206.35382994599,35.465696569657,1253920.2910307,1586.8797208895,2529432.7136339,40.665696569657,0,0
-183.65126095862,-206.3826528504,35.470127012701,1253920.2910307,1586.8797208895,2529432.7136339,40.670127012701,0,0
-183.65126085924,-206.41147575481,35.474557455746,1253920.2910307,1586.8797208895,2529432.7136339,40.674557455746,0,0
-183.65126075987,-206.44029865922,35.47898789879,1253920.2910307,1586.8797208895,2529432.7136339,40.67898789879,0,0
-183.65126066049,-206.46912156362,35.483418341834,1253920.2910307,1586.8797208895,2529432.7136339,40.683418341834,0,0
-183.65126056112,-206.49794446803,35.487848784878,1253920.2910307,1586.8797208895,2529432.7136339,40.687848784878,0,0
-183.65126046174,-206.52676737244,35.492279227923,1253920.2910307,1586.8797208895,2529432.7136339,40.692279227923,0,0
-183.65126036237,-206.55559027685,35.496709670967,1253920.2910307,1586.8797208895,2529432.7136339,40.696709670967,0,0
-183.651260263,-206.58441318126,35.501140114011,1253920.2910307,1586.8797208895,2529432.7136339,40.701140114011,0,0
-183.65126016362,-206.61323608566,35.505570557056,1253920.2910307,1586.8797208895,2529432.7136339,40.705570557056,0,0
-183.65126006425,-206.64205899007,35.5100010001,1253920.2910307,1586.8797208895,2529432.7136339,40.7100010001,0,0
-183.65125996487,-206.67088189448,35.514431443144,1253920.2910307,1586.8797208895,2529432.7136339,40.714431443144,0,0
-183.6512598655,-206.69970479889,35.518861886189,1253920.2910307,1586.8797208895,2529432.7136339,40.718861886189,0,0
-183.65125976612,-206.72852770329,35.523292329233,1253920.2910307,1586.8797208895,2529432.7136339,40.723292329233,0,0
-183.65125966675,-206.7573506077,35.527722772277,1253920.2910307,1586.8797208895,2529432.7136339,40.727722772277,0,0
-183.65125956738,-206.78617351211,35.532153215322,1253920.2910307,1586.8797208895,2529432.7136339,40.732153215322,0,0
-183.651259468,-206.81499641652,35.536583658366,1253920.2910307,1586.8797208895,2529432.7136339,40.736583658366,0,0
-183.65125936863,-206.84381932093,35.54101410141,1253920.2910307,1586.8797208895,2529432.7136339,40.74101410141,0,0
-183.65125926925,-206.87264222533,35.545444544454,1253920.2910307,1586.8797208895,2529432.7136339,40.745444544454,0,0
-183.65125916988,-206.90146512974,35.549874987499,1253920.2910307,1586.8797208895,2529432.7136339,40.749874987499,0,0
-183.65125907051,-206.93028803415,35.554305430543,1253920.2910307,1586.8797208895,2529432.7136339,40.754305430543,0,0
-183.65125897113,-206.95911093856,35.558735873587,1253920.2910307,1586.8797208895,2529432.7136339,40.758735873587,0,0
-183.65125887176,-206.98793384297,35.563166316632,1253920.2910307,1586.8797208895,2529432.7136339,40.763166316632,0,0
-183.65125877238,-207.01675674737,35.567596759676,1253920.2910307,1586.8797208895,2529432.7136339,40.767596759676,0,0
-183.65125867301,-207.04557965178,35.57202720272,1253920.2910307,1586.8797208895,2529432.7136339,40.77202720272,0,0
-183.65125857363,-207.07440255619,35.576457645765,1253920.2910307,1586.8797208895,2529432.7136339,40.776457645765,0,0
-183.65125847426,-207.1032254606,35.580888088809,1253920.2910307,1586.8797208895,2529432.7136339,40.780888088809,0,0
-183.65125837489,-207.13204836501,35.585318531853,1253920.2910307,1586.8797208895,2529432.7136339,40.785318531853,0,0
-183.65125827551,-207.16087126941,35.589748974897,1253920.2910307,1586.8797208895,2529432.7136339,40.789748974897,0,0
-183.65125817614,-207.18969417382,35.594179417942,1253920.2910307,1586.8797208895,2529432.7136339,40.794179417942,0,0
-183.65125807676,-207.21851707823,35.598609860986,1253920.2910307,1586.8797208895,2529432.7136339,40.798609860986,0,0
-183.65125797739,-207.24733998264,35.60304030403,1253920.2910307,1586.8797208895,2529432.7136339,40.80304030403,0,0
-183.65125787801,-207.27616288704,35.607470747075,1253920.2910307,1586.8797208895,2529432.7136339,40.807470747075,0,0
-183.65125777864,-207.30498579145,35.611901190119,1253920.2910307,1586.8797208895,2529432.7136339,40.811901190119,0,0
-183.65125767927,-207.33380869586,35.616331633163,1253920.2910307,1586.8797208895,2529432.7136339,40.816331633163,0,0
-183.65125757989,-207.36263160027,35.620762076208,1253920.2910307,1586.8797208895,2529432.7136339,40.820762076208,0,0
-183.65125748052,-207.39145450468,35.625192519252,1253920.2910307,1586.8797208895,2529432.7136339,40.825192519252,0,0
-183.65125738114,-207.42027740908,35.629622962296,1253920.2910307,1586.8797208895,2529432.7136339,40.829622962296,0,0
-183.65125728177,-207.44910031349,35.634053405341,1253920.2910307,1586.8797208895,2529432.7136339,40.834053405341,0,0
-183.6512571824,-207.4779232179,35.638483848385,1253920.2910307,1586.8797208895,2529432.7136339,40.838483848385,0,0
-183.65125708302,-207.50674612231,35.642914291429,1253920.2910307,1586.8797208895,2529432.7136339,40.842914291429,0,0
-183.65125698365,-207.53556902672,35.647344734473,1253920.2910307,1586.8797208895,2529432.7136339,40.847344734473,0,0
-183.65125688427,-207.56439193112,35.651775177518,1253920.2910307,1586.8797208895,2529432.7136339,40.851775177518,0,0
-183.6512567849,-207.59321483553,35.656205620562,1253920.2910307,1586.8797208895,2529432.7136339,40.856205620562,0,0
-183.65125668552,-207.62203773994,35.660636063606,1253920.2910307,1586.8797208895,2529432.7136339,40.860636063606,0,0
-183.65125658615,-207.65086064435,35.665066506651,1253920.2910307,1586.8797208895,2529432.7136339,40.865066506651,0,0
-183.65125648678,-207.67968354876,35.669496949695,1253920.2910307,1586.8797208895,2529432.7136339,40.869496949695,0,0
-183.6512563874,-207.70850645316,35.673927392739,1253920.2910307,1586.8797208895,2529432.7136339,40.873927392739,0,0
-183.65125628803,-207.73732935757,35.678357835784,1253920.2910307,1586.8797208895,2529432.7136339,40.878357835784,0,0
-183.65125618865,-207.76615226198,35.682788278828,1253920.2910307,1586.8797208895,2529432.7136339,40.882788278828,0,0
-183.65125608928,-207.79497516639,35.687218721872,1253920.2910307,1586.8797208895,2529432.7136339,40.887218721872,0,0
-183.6512559899,-207.8237980708,35.691649164916,1253920.2910307,1586.8797208895,2529432.7136339,40.891649164916,0,0
-183.65125589053,-207.8526209752,35.696079607961,1253920.2910307,1586.8797208895,2529432.7136339,40.896079607961,0,0
-183.65125579116,-207.88144387961,35.700510051005,1253920.2910307,1586.8797208895,2529432.7136339,40.900510051005,0,0
-183.65125569178,-207.91026678402,35.704940494049,1253920.2910307,1586.8797208895,2529432.7136339,40.904940494049,0,0
-183.65125559241,-207.93908968843,35.709370937094,1253920.2910307,1586.8797208895,2529432.7136339,40.909370937094,0,0
-183.65125549303,-207.96791259283,35.713801380138,1253920.2910307,1586.8797208895,2529432.7136339,40.913801380138,0,0
-183.65125539366,-207.99673549724,35.718231823182,1253920.2910307,1586.8797208895,2529432.7136339,40.918231823182,0,0
-183.65125529429,-208.02555840165,35.722662266227,1253920.2910307,1586.8797208895,2529432.7136339,40.922662266227,0,0
-183.65125519491,-208.05438130606,35.727092709271,1253920.2910307,1586.8797208895,2529432.7136339,40.927092709271,0,0
-183.65125509554,-208.08320421047,35.731523152315,1253920.2910307,1586.8797208895,2529432.7136339,40.931523152315,0,0
-183.65125499616,-208.11202711487,35.73595359536,1253920.2910307,1586.8797208895,2529432.7136339,40.93595359536,0,0
-183.65125489679,-208.14085001928,35.740384038404,1253920.2910307,1586.8797208895,2529432.7136339,40.940384038404,0,0
-183.65125479741,-208.16967292369,35.744814481448,1253920.2910307,1586.8797208895,2529432.7136339,40.944814481448,0,0
-183.65125469804,-208.1984958281,35.749244924492,1253920.2910307,1586.8797208895,2529432.7136339,40.949244924492,0,0
-183.65125459867,-208.22731873251,35.753675367537,1253920.2910307,1586.8797208895,2529432.7136339,40.953675367537,0,0
-183.65125449929,-208.25614163691,35.758105810581,1253920.2910307,1586.8797208895,2529432.7136339,40.958105810581,0,0
-183.65125439992,-208.28496454132,35.762536253625,1253920.2910307,1586.8797208895,2529432.7136339,40.962536253625,0,0
-183.65125430054,-208.31378744573,35.76696669667,1253920.2910307,1586.8797208895,2529432.7136339,40.96696669667,0,0
-183.65125420117,-208.34261035014,35.771397139714,1253920.2910307,1586.8797208895,2529432.7136339,40.971397139714,0,0
-183.6512541018,-208.37143325455,35.775827582758,1253920.2910307,1586.8797208895,2529432.7136339,40.975827582758,0,0
-183.65125400242,-208.40025615895,35.780258025803,1253920.2910307,1586.8797208895,2529432.7136339,40.980258025803,0,0
-183.65125390305,-208.42907906336,35.784688468847,1253920.2910307,1586.8797208895,2529432.7136339,40.984688468847,0,0
-183.65125380367,-208.45790196777,35.789118911891,1253920.2910307,1586.8797208895,2529432.7136339,40.989118911891,0,0
-183.6512537043,-208.48672487218,35.793549354935,1253920.2910307,1586.8797208895,2529432.7136339,40.993549354935,0,0
-183.65125360492,-208.51554777658,35.79797979798,1253920.2910307,1586.8797208895,2529432.7136339,40.99797979798,0,0
-183.65125350555,-208.54437068099,35.802410241024,1253920.2910307,1586.8797208895,2529432.7136339,41.002410241024,0,0
-183.65125340618,-208.5731935854,35.806840684068,1253920.2910307,1586.8797208895,2529432.7136339,41.006840684068,0,0
-183.6512533068,-208.60201648981,35.811271127113,1253920.2910307,1586.8797208895,2529432.7136339,41.011271127113,0,0
-183.65125320743,-208.63083939422,35.815701570157,1253920.2910307,1586.8797208895,2529432.7136339,41.015701570157,0,0
-183.65125310805,-208.65966229862,35.820132013201,1253920.2910307,1586.8797208895,2529432.7136339,41.020132013201,0,0
-183.65125300868,-208.68848520303,35.824562456246,1253920.2910307,1586.8797208895,2529432.7136339,41.024562456246,0,0
-183.6512529093,-208.71730810744,35.82899289929,1253920.2910307,1586.8797208895,2529432.7136339,41.02899289929,0,0
-183.65125280993,-208.74613101185,35.833423342334,1253920.2910307,1586.8797208895,2529432.7136339,41.033423342334,0,0
-183.65125271056,-208.77495391626,35.837853785379,1253920.2910307,1586.8797208895,2529432.7136339,41.037853785379,0,0
-183.65125261118,-208.80377682066,35.842284228423,1253920.2910307,1586.8797208895,2529432.7136339,41.042284228423,0,0
-183.65125251181,-208.83259972507,35.846714671467,1253920.2910307,1586.8797208895,2529432.7136339,41.046714671467,0,0
-183.65125241243,-208.86142262948,35.851145114511,1253920.2910307,1586.8797208895,2529432.7136339,41.051145114511,0,0
-183.65125231306,-208.89024553389,35.855575557556,1253920.2910307,1586.8797208895,2529432.7136339,41.055575557556,0,0
-183.65125221369,-208.9190684383,35.8600060006,1253920.2910307,1586.8797208895,2529432.7136339,41.0600060006,0,0
-183.65125211431,-208.9478913427,35.864436443644,1253920.2910307,1586.8797208895,2529432.7136339,41.064436443644,0,0
-183.65125201494,-208.97671424711,35.868866886689,1253920.2910307,1586.8797208895,2529432.7136339,41.068866886689,0,0
-183.65125191556,-209.00553715152,35.873297329733,1253920.2910307,1586.8797208895,2529432.7136339,41.073297329733,0,0
-183.65125181619,-209.03436005593,35.877727772777,1253920.2910307,1586.8797208895,2529432.7136339,41.077727772777,0,0
-183.65125171681,-209.06318296033,35.882158215822,1253920.2910307,1586.8797208895,2529432.7136339,41.082158215822,0,0
-183.65125161744,-209.09200586474,35.886588658866,1253920.2910307,1586.8797208895,2529432.7136339,41.086588658866,0,0
-183.65125151807,-209.12082876915,35.89101910191,1253920.2910307,1586.8797208895,2529432.7136339,41.09101910191,0,0
-183.65125141869,-209.14965167356,35.895449544954,1253920.2910307,1586.8797208895,2529432.7136339,41.095449544954,0,0
-183.65125131932,-209.17847457797,35.899879987999,1253920.2910307,1586.8797208895,2529432.7136339,41.099879987999,0,0
-183.65125121994,-209.20729748237,35.904310431043,1253920.2910307,1586.8797208895,2529432.7136339,41.104310431043,0,0
-183.65125112057,-209.23612038678,35.908740874087,1253920.2910307,1586.8797208895,2529432.7136339,41.108740874087,0,0
-183.65125102119,-209.26494329119,35.913171317132,1253920.2910307,1586.8797208895,2529432.7136339,41.113171317132,0,0
-183.65125092182,-209.2937661956,35.917601760176,1253920.2910307,1586.8797208895,2529432.7136339,41.117601760176,0,0
-183.65125082245,-209.32258910001,35.92203220322,1253920.2910307,1586.8797208895,2529432.7136339,41.12203220322,0,0
-183.65125072307,-209.35141200441,35.926462646265,1253920.2910307,1586.8797208895,2529432.7136339,41.126462646265,0,0
-183.6512506237,-209.38023490882,35.930893089309,1253920.2910307,1586.8797208895,2529432.7136339,41.130893089309,0,0
-183.65125052432,-209.40905781323,35.935323532353,1253920.2910307,1586.8797208895,2529432.7136339,41.135323532353,0,0
-183.65125042495,-209.43788071764,35.939753975398,1253920.2910307,1586.8797208895,2529432.7136339,41.139753975398,0,0
-183.65125032558,-209.46670362205,35.944184418442,1253920.2910307,1586.8797208895,2529432.7136339,41.144184418442,0,0
-183.6512502262,-209.49552652645,35.948614861486,1253920.2910307,1586.8797208895,2529432.7136339,41.148614861486,0,0
-183.65125012683,-209.52434943086,35.95304530453,1253920.2910307,1586.8797208895,2529432.7136339,41.15304530453,0,0
-183.65125002745,-209.55317233527,35.957475747575,1253920.2910307,1586.8797208895,2529432.7136339,41.157475747575,0,0
-183.65124992808,-209.58199523968,35.961906190619,1253920.2910307,1586.8797208895,2529432.7136339,41.161906190619,0,0
-183.6512498287,-209.61081814409,35.966336633663,1253920.2910307,1586.8797208895,2529432.7136339,41.166336633663,0,0
-183.65124972933,-209.63964104849,35.970767076708,1253920.2910307,1586.8797208895,2529432.7136339,41.170767076708,0,0
-183.65124962996,-209.6684639529,35.975197519752,1253920.2910307,1586.8797208895,2529432.7136339,41.175197519752,0,0
-183.65124953058,-209.69728685731,35.979627962796,1253920.2910307,1586.8797208895,2529432.7136339,41.179627962796,0,0
-183.65124943121,-209.72610976172,35.984058405841,1253920.2910307,1586.8797208895,2529432.7136339,41.184058405841,0,0
-183.65124933183,-209.75493266612,35.988488848885,1253920.2910307,1586.8797208895,2529432.7136339,41.188488848885,0,0
-183.65124923246,-209.78375557053,35.992919291929,1253920.2910307,1586.8797208895,2529432.7136339,41.192919291929,0,0
-183.65124913308,-209.81257847494,35.997349734973,1253920.2910307,1586.8797208895,2529432.7136339,41.197349734973,0,0
-183.65124903371,-209.84140137935,36.001780178018,1253920.2910307,1586.8797208895,2529432.7136339,41.201780178018,0,0
-183.65124893434,-209.87022428376,36.006210621062,1253920.2910307,1586.8797208895,2529432.7136339,41.206210621062,0,0
-183.65124883496,-209.89904718816,36.010641064106,1253920.2910307,1586.8797208895,2529432.7136339,41.210641064106,0,0
-183.65124873559,-209.92787009257,36.015071507151,1253920.2910307,1586.8797208895,2529432.7136339,41.215071507151,0,0
-183.65124863621,-209.95669299698,36.019501950195,1253920.2910307,1586.8797208895,2529432.7136339,41.219501950195,0,0
-183.65124853684,-209.98551590139,36.023932393239,1253920.2910307,1586.8797208895,2529432.7136339,41.223932393239,0,0
-183.65124843747,-210.0143388058,36.028362836284,1253920.2910307,1586.8797208895,2529432.7136339,41.228362836284,0,0
-183.65124833809,-210.0431617102,36.032793279328,1253920.2910307,1586.8797208895,2529432.7136339,41.232793279328,0,0
-183.65124823872,-210.07198461461,36.037223722372,1253920.2910307,1586.8797208895,2529432.7136339,41.237223722372,0,0
-183.65124813934,-210.10080751902,36.041654165417,1253920.2910307,1586.8797208895,2529432.7136339,41.241654165417,0,0
-183.65124803997,-210.12963042343,36.046084608461,1253920.2910307,1586.8797208895,2529432.7136339,41.246084608461,0,0
-183.65124794059,-210.15845332784,36.050515051505,1253920.2910307,1586.8797208895,2529432.7136339,41.250515051505,0,0
-183.65124784122,-210.18727623224,36.054945494549,1253920.2910307,1586.8797208895,2529432.7136339,41.254945494549,0,0
-183.65124774185,-210.21609913665,36.059375937594,1253920.2910307,1586.8797208895,2529432.7136339,41.259375937594,0,0
-183.65124764247,-210.24492204106,36.063806380638,1253920.2910307,1586.8797208895,2529432.7136339,41.263806380638,0,0
-183.6512475431,-210.27374494547,36.068236823682,1253920.2910307,1586.8797208895,2529432.7136339,41.268236823682,0,0
-183.65124744372,-210.30256784987,36.072667266727,1253920.2910307,1586.8797208895,2529432.7136339,41.272667266727,0,0
-183.65124734435,-210.33139075428,36.077097709771,1253920.2910307,1586.8797208895,2529432.7136339,41.277097709771,0,0
-183.65124724498,-210.36021365869,36.081528152815,1253920.2910307,1586.8797208895,2529432.7136339,41.281528152815,0,0
-183.6512471456,-210.3890365631,36.08595859586,1253920.2910307,1586.8797208895,2529432.7136339,41.28595859586,0,0
-183.65124704623,-210.41785946751,36.090389038904,1253920.2910307,1586.8797208895,2529432.7136339,41.290389038904,0,0
-183.65124694685,-210.44668237191,36.094819481948,1253920.2910307,1586.8797208895,2529432.7136339,41.294819481948,0,0
-183.65124684748,-210.47550527632,36.099249924992,1253920.2910307,1586.8797208895,2529432.7136339,41.299249924992,0,0
-183.6512467481,-210.50432818073,36.103680368037,1253920.2910307,1586.8797208895,2529432.7136339,41.303680368037,0,0
-183.65124664873,-210.53315108514,36.108110811081,1253920.2910307,1586.8797208895,2529432.7136339,41.308110811081,0,0
-183.65124654936,-210.56197398955,36.112541254125,1253920.2910307,1586.8797208895,2529432.7136339,41.312541254125,0,0
-183.65124644998,-210.59079689395,36.11697169717,1253920.2910307,1586.8797208895,2529432.7136339,41.31697169717,0,0
-183.65124635061,-210.61961979836,36.121402140214,1253920.2910307,1586.8797208895,2529432.7136339,41.321402140214,0,0
-183.65124625123,-210.64844270277,36.125832583258,1253920.2910307,1586.8797208895,2529432.7136339,41.325832583258,0,0
-183.65124615186,-210.67726560718,36.130263026303,1253920.2910307,1586.8797208895,2529432.7136339,41.330263026303,0,0
-183.65124605248,-210.70608851159,36.134693469347,1253920.2910307,1586.8797208895,2529432.7136339,41.334693469347,0,0
-183.65124595311,-210.73491141599,36.139123912391,1253920.2910307,1586.8797208895,2529432.7136339,41.339123912391,0,0
-183.65124585374,-210.7637343204,36.143554355436,1253920.2910307,1586.8797208895,2529432.7136339,41.343554355436,0,0
-183.65124575436,-210.79255722481,36.14798479848,1253920.2910307,1586.8797208895,2529432.7136339,41.34798479848,0,0
-183.65124565497,-210.82138012929,36.152415241524,1253737.2575184,-586.74310821523,2524734.0073224,41.352415241524,0,0
-183.65124555549,-210.85020303424,36.156845684568,1253737.2575184,-586.74310821523,2524734.0073224,41.356845684568,0,0
-183.651245456,-210.87902593919,36.161276127613,1253737.2575184,-586.74310821523,2524734.0073224,41.361276127613,0,0
-183.65124535652,-210.90784884414,36.165706570657,1253737.2575184,-586.74310821523,2524734.0073224,41.365706570657,0,0
-183.65124525703,-210.93667174908,36.170137013701,1253737.2575184,-586.74310821523,2524734.0073224,41.370137013701,0,0
-183.65124515755,-210.96549465403,36.174567456746,1253737.2575184,-586.74310821523,2524734.0073224,41.374567456746,0,0
-183.65124505806,-210.99431755898,36.17899789979,1253737.2575184,-586.74310821523,2524734.0073224,41.37899789979,0,0
-183.65124495858,-211.02314046392,36.183428342834,1253737.2575184,-586.74310821523,2524734.0073224,41.383428342834,0,0
-183.65124485909,-211.05196336887,36.187858785879,1253737.2575184,-586.74310821523,2524734.0073224,41.387858785879,0,0
-183.65124475961,-211.08078627382,36.192289228923,1253737.2575184,-586.74310821523,2524734.0073224,41.392289228923,0,0
-183.65124466013,-211.10960917876,36.196719671967,1253737.2575184,-586.74310821523,2524734.0073224,41.396719671967,0,0
-183.65124456064,-211.13843208371,36.201150115011,1253737.2575184,-586.74310821523,2524734.0073224,41.401150115011,0,0
-183.65124446116,-211.16725498866,36.205580558056,1253737.2575184,-586.74310821523,2524734.0073224,41.405580558056,0,0
-183.65124436167,-211.1960778936,36.2100110011,1253737.2575184,-586.74310821523,2524734.0073224,41.4100110011,0,0
-183.65124426219,-211.22490079855,36.214441444144,1253737.2575184,-586.74310821523,2524734.0073224,41.414441444144,0,0
-183.6512441627,-211.2537237035,36.218871887189,1253737.2575184,-586.74310821523,2524734.0073224,41.418871887189,0,0
-183.65124406322,-211.28254660844,36.223302330233,1253737.2575184,-586.74310821523,2524734.0073224,41.423302330233,0,0
-183.65124396373,-211.31136951339,36.227732773277,1253737.2575184,-586.74310821523,2524734.0073224,41.427732773277,0,0
-183.65124386425,-211.34019241834,36.232163216322,1253737.2575184,-586.74310821523,2524734.0073224,41.432163216322,0,0
-183.65124376476,-211.36901532328,36.236593659366,1253737.2575184,-586.74310821523,2524734.0073224,41.436593659366,0,0
-183.65124366528,-211.39783822823,36.24102410241,1253737.2575184,-586.74310821523,2524734.0073224,41.44102410241,0,0
-183.65124356579,-211.42666113318,36.245454545455,1253737.2575184,-586.74310821523,2524734.0073224,41.445454545455,0,0
-183.65124346631,-211.45548403813,36.249884988499,1253737.2575184,-586.74310821523,2524734.0073224,41.449884988499,0,0
-183.65124336682,-211.48430694307,36.254315431543,1253737.2575184,-586.74310821523,2524734.0073224,41.454315431543,0,0
-183.65124326734,-211.51312984802,36.258745874587,1253737.2575184,-586.74310821523,2524734.0073224,41.458745874587,0,0
-183.65124316785,-211.54195275297,36.263176317632,1253737.2575184,-586.74310821523,2524734.0073224,41.463176317632,0,0
-183.65124306837,-211.57077565791,36.267606760676,1253737.2575184,-586.74310821523,2524734.0073224,41.467606760676,0,0
-183.65124296889,-211.59959856286,36.27203720372,1253737.2575184,-586.74310821523,2524734.0073224,41.47203720372,0,0
-183.6512428694,-211.62842146781,36.276467646765,1253737.2575184,-586.74310821523,2524734.0073224,41.476467646765,0,0
-183.65124276992,-211.65724437275,36.280898089809,1253737.2575184,-586.74310821523,2524734.0073224,41.480898089809,0,0
-183.65124267043,-211.6860672777,36.285328532853,1253737.2575184,-586.74310821523,2524734.0073224,41.485328532853,0,0
-183.65124257095,-211.71489018265,36.289758975898,1253737.2575184,-586.74310821523,2524734.0073224,41.489758975898,0,0
-183.65124247146,-211.74371308759,36.294189418942,1253737.2575184,-586.74310821523,2524734.0073224,41.494189418942,0,0
-183.65124237198,-211.77253599254,36.298619861986,1253737.2575184,-586.74310821523,2524734.0073224,41.498619861986,0,0
-183.65124227249,-211.80135889749,36.30305030503,1253737.2575184,-586.74310821523,2524734.0073224,41.50305030503,0,0
-183.65124217301,-211.83018180243,36.307480748075,1253737.2575184,-586.74310821523,2524734.0073224,41.507480748075,0,0
-183.65124207352,-211.85900470738,36.311911191119,1253737.2575184,-586.74310821523,2524734.0073224,41.511911191119,0,0
-183.65124197404,-211.88782761233,36.316341634163,1253737.2575184,-586.74310821523,2524734.0073224,41.516341634163,0,0
-183.65124187455,-211.91665051727,36.320772077208,1253737.2575184,-586.74310821523,2524734.0073224,41.520772077208,0,0
-183.65124177507,-211.94547342222,36.325202520252,1253737.2575184,-586.74310821523,2524734.0073224,41.525202520252,0,0
-183.65124167558,-211.97429632717,36.329632963296,1253737.2575184,-586.74310821523,2524734.0073224,41.529632963296,0,0
-183.6512415761,-212.00311923212,36.334063406341,1253737.2575184,-586.74310821523,2524734.0073224,41.534063406341,0,0
-183.65124147662,-212.03194213706,36.338493849385,1253737.2575184,-586.74310821523,2524734.0073224,41.538493849385,0,0
-183.65124137713,-212.06076504201,36.342924292429,1253737.2575184,-586.74310821523,2524734.0073224,41.542924292429,0,0
-183.65124127765,-212.08958794696,36.347354735474,1253737.2575184,-586.74310821523,2524734.0073224,41.547354735474,0,0
-183.65124117816,-212.1184108519,36.351785178518,1253737.2575184,-586.74310821523,2524734.0073224,41.551785178518,0,0
-183.65124107868,-212.14723375685,36.356215621562,1253737.2575184,-586.74310821523,2524734.0073224,41.556215621562,0,0
-183.65124097919,-212.1760566618,36.360646064606,1253737.2575184,-586.74310821523,2524734.0073224,41.560646064606,0,0
-183.65124087971,-212.20487956674,36.365076507651,1253737.2575184,-586.74310821523,2524734.0073224,41.565076507651,0,0
-183.65124078022,-212.23370247169,36.369506950695,1253737.2575184,-586.74310821523,2524734.0073224,41.569506950695,0,0
-183.65124068074,-212.26252537664,36.373937393739,1253737.2575184,-586.74310821523,2524734.0073224,41.573937393739,0,0
-183.65124058125,-212.29134828158,36.378367836784,1253737.2575184,-586.74310821523,2524734.0073224,41.578367836784,0,0
-183.65124048177,-212.32017118653,36.382798279828,1253737.2575184,-586.74310821523,2524734.0073224,41.582798279828,0,0
-183.65124038228,-212.34899409148,36.387228722872,1253737.2575184,-586.74310821523,2524734.0073224,41.587228722872,0,0
-183.6512402828,-212.37781699642,36.391659165917,1253737.2575184,-586.74310821523,2524734.0073224,41.591659165917,0,0
-183.65124018331,-212.40663990137,36.396089608961,1253737.2575184,-586.74310821523,2524734.0073224,41.596089608961,0,0
-183.65124008383,-212.43546280632,36.400520052005,1253737.2575184,-586.74310821523,2524734.0073224,41.600520052005,0,0
-183.65123998434,-212.46428571126,36.404950495049,1253737.2575184,-586.74310821523,2524734.0073224,41.60495049505,0,0
-183.65123988486,-212.49310861621,36.409380938094,1253737.2575184,-586.74310821523,2524734.0073224,41.609380938094,0,0
-183.65123978538,-212.52193152116,36.413811381138,1253737.2575184,-586.74310821523,2524734.0073224,41.613811381138,0,0
-183.65123968589,-212.5507544261,36.418241824182,1253737.2575184,-586.74310821523,2524734.0073224,41.618241824182,0,0
-183.65123958641,-212.57957733105,36.422672267227,1253737.2575184,-586.74310821523,2524734.0073224,41.622672267227,0,0
-183.65123948692,-212.608400236,36.427102710271,1253737.2575184,-586.74310821523,2524734.0073224,41.627102710271,0,0
-183.65123938744,-212.63722314095,36.431533153315,1253737.2575184,-586.74310821523,2524734.0073224,41.631533153315,0,0
-183.65123928795,-212.66604604589,36.43596359636,1253737.2575184,-586.74310821523,2524734.0073224,41.63596359636,0,0
-183.65123918847,-212.69486895084,36.440394039404,1253737.2575184,-586.74310821523,2524734.0073224,41.640394039404,0,0
-183.65123908898,-212.72369185579,36.444824482448,1253737.2575184,-586.74310821523,2524734.0073224,41.644824482448,0,0
-183.6512389895,-212.75251476073,36.449254925493,1253737.2575184,-586.74310821523,2524734.0073224,41.649254925493,0,0
-183.65123889001,-212.78133766568,36.453685368537,1253737.2575184,-586.74310821523,2524734.0073224,41.653685368537,0,0
-183.65123879053,-212.81016057063,36.458115811581,1253737.2575184,-586.74310821523,2524734.0073224,41.658115811581,0,0
-183.65123869104,-212.83898347557,36.462546254625,1253737.2575184,-586.74310821523,2524734.0073224,41.662546254625,0,0
-183.65123859156,-212.86780638052,36.46697669767,1253737.2575184,-586.74310821523,2524734.0073224,41.66697669767,0,0
-183.65123849207,-212.89662928547,36.471407140714,1253737.2575184,-586.74310821523,2524734.0073224,41.671407140714,0,0
-183.65123839259,-212.92545219041,36.475837583758,1253737.2575184,-586.74310821523,2524734.0073224,41.675837583758,0,0
-183.65123829311,-212.95427509536,36.480268026803,1253737.2575184,-586.74310821523,2524734.0073224,41.680268026803,0,0
-183.65123819362,-212.98309800031,36.484698469847,1253737.2575184,-586.74310821523,2524734.0073224,41.684698469847,0,0
-183.65123809414,-213.01192090525,36.489128912891,1253737.2575184,-586.74310821523,2524734.0073224,41.689128912891,0,0
-183.65123799465,-213.0407438102,36.493559355936,1253737.2575184,-586.74310821523,2524734.0073224,41.693559355936,0,0
-183.65123789517,-213.06956671515,36.49798979898,1253737.2575184,-586.74310821523,2524734.0073224,41.69798979898,0,0
-183.65123779568,-213.09838962009,36.502420242024,1253737.2575184,-586.74310821523,2524734.0073224,41.702420242024,0,0
-183.6512376962,-213.12721252504,36.506850685068,1253737.2575184,-586.74310821523,2524734.0073224,41.706850685069,0,0
-183.65123759671,-213.15603542999,36.511281128113,1253737.2575184,-586.74310821523,2524734.0073224,41.711281128113,0,0
-183.65123749723,-213.18485833494,36.515711571157,1253737.2575184,-586.74310821523,2524734.0073224,41.715711571157,0,0
-183.65123739774,-213.21368123988,36.520142014201,1253737.2575184,-586.74310821523,2524734.0073224,41.720142014201,0,0
-183.65123729826,-213.24250414483,36.524572457246,1253737.2575184,-586.74310821523,2524734.0073224,41.724572457246,0,0
-183.65123719877,-213.27132704978,36.52900290029,1253737.2575184,-586.74310821523,2524734.0073224,41.72900290029,0,0
-183.65123709929,-213.30014995472,36.533433343334,1253737.2575184,-586.74310821523,2524734.0073224,41.733433343334,0,0
-183.6512369998,-213.32897285967,36.537863786379,1253737.2575184,-586.74310821523,2524734.0073224,41.737863786379,0,0
-183.65123690032,-213.35779576462,36.542294229423,1253737.2575184,-586.74310821523,2524734.0073224,41.742294229423,0,0
-183.65123680083,-213.38661866956,36.546724672467,1253737.2575184,-586.74310821523,2524734.0073224,41.746724672467,0,0
-183.65123670136,-213.41544157443,36.551155115512,1252096.5470276,1695.802821473,2521844.3425774,41.751155115512,0,0
-183.65123660193,-213.44426447891,36.555585558556,1252096.5470276,1695.802821473,2521844.3425774,41.755585558556,0,0
-183.6512365025,-213.47308738339,36.5600160016,1252096.5470276,1695.802821473,2521844.3425774,41.7600160016,0,0
-183.65123640307,-213.50191028787,36.564446444644,1252096.5470276,1695.802821473,2521844.3425774,41.764446444644,0,0
-183.65123630364,-213.53073319236,36.568876887689,1252096.5470276,1695.802821473,2521844.3425774,41.768876887689,0,0
-183.65123620421,-213.55955609684,36.573307330733,1252096.5470276,1695.802821473,2521844.3425774,41.773307330733,0,0
-183.65123610478,-213.58837900132,36.577737773777,1252096.5470276,1695.802821473,2521844.3425774,41.777737773777,0,0
-183.65123600535,-213.6172019058,36.582168216822,1252096.5470276,1695.802821473,2521844.3425774,41.782168216822,0,0
-183.65123590592,-213.64602481029,36.586598659866,1252096.5470276,1695.802821473,2521844.3425774,41.786598659866,0,0
-183.65123580648,-213.67484771477,36.59102910291,1252096.5470276,1695.802821473,2521844.3425774,41.79102910291,0,0
-183.65123570705,-213.70367061925,36.595459545955,1252096.5470276,1695.802821473,2521844.3425774,41.795459545955,0,0
-183.65123560762,-213.73249352373,36.599889988999,1252096.5470276,1695.802821473,2521844.3425774,41.799889988999,0,0
-183.65123550819,-213.76131642822,36.604320432043,1252096.5470276,1695.802821473,2521844.3425774,41.804320432043,0,0
-183.65123540876,-213.7901393327,36.608750875088,1252096.5470276,1695.802821473,2521844.3425774,41.808750875088,0,0
-183.65123530933,-213.81896223718,36.613181318132,1252096.5470276,1695.802821473,2521844.3425774,41.813181318132,0,0
-183.6512352099,-213.84778514166,36.617611761176,1252096.5470276,1695.802821473,2521844.3425774,41.817611761176,0,0
-183.65123511047,-213.87660804615,36.62204220422,1252096.5470276,1695.802821473,2521844.3425774,41.82204220422,0,0
-183.65123501104,-213.90543095063,36.626472647265,1252096.5470276,1695.802821473,2521844.3425774,41.826472647265,0,0
-183.65123491161,-213.93425385511,36.630903090309,1252096.5470276,1695.802821473,2521844.3425774,41.830903090309,0,0
-183.65123481218,-213.96307675959,36.635333533353,1252096.5470276,1695.802821473,2521844.3425774,41.835333533353,0,0
-183.65123471275,-213.99189966408,36.639763976398,1252096.5470276,1695.802821473,2521844.3425774,41.839763976398,0,0
-183.65123461332,-214.02072256856,36.644194419442,1252096.5470276,1695.802821473,2521844.3425774,41.844194419442,0,0
-183.65123451389,-214.04954547304,36.648624862486,1252096.5470276,1695.802821473,2521844.3425774,41.848624862486,0,0
-183.65123441446,-214.07836837752,36.653055305531,1252096.5470276,1695.802821473,2521844.3425774,41.853055305531,0,0
-183.65123431503,-214.10719128201,36.657485748575,1252096.5470276,1695.802821473,2521844.3425774,41.857485748575,0,0
-183.6512342156,-214.13601418649,36.661916191619,1252096.5470276,1695.802821473,2521844.3425774,41.861916191619,0,0
-183.65123411616,-214.16483709097,36.666346634663,1252096.5470276,1695.802821473,2521844.3425774,41.866346634663,0,0
-183.65123401673,-214.19365999545,36.670777077708,1252096.5470276,1695.802821473,2521844.3425774,41.870777077708,0,0
-183.6512339173,-214.22248289994,36.675207520752,1252096.5470276,1695.802821473,2521844.3425774,41.875207520752,0,0
-183.65123381787,-214.25130580442,36.679637963796,1252096.5470276,1695.802821473,2521844.3425774,41.879637963796,0,0
-183.65123371844,-214.2801287089,36.684068406841,1252096.5470276,1695.802821473,2521844.3425774,41.884068406841,0,0
-183.65123361901,-214.30895161338,36.688498849885,1252096.5470276,1695.802821473,2521844.3425774,41.888498849885,0,0
-183.65123351958,-214.33777451787,36.692929292929,1252096.5470276,1695.802821473,2521844.3425774,41.892929292929,0,0
-183.65123342015,-214.36659742235,36.697359735974,1252096.5470276,1695.802821473,2521844.3425774,41.897359735974,0,0
-183.65123332072,-214.39542032683,36.701790179018,1252096.5470276,1695.802821473,2521844.3425774,41.901790179018,0,0
-183.65123322129,-214.42424323131,36.706220622062,1252096.5470276,1695.802821473,2521844.3425774,41.906220622062,0,0
-183.65123312186,-214.4530661358,36.710651065107,1252096.5470276,1695.802821473,2521844.3425774,41.910651065107,0,0
-183.65123302243,-214.48188904028,36.715081508151,1252096.5470276,1695.802821473,2521844.3425774,41.915081508151,0,0
-183.651232923,-214.51071194476,36.719511951195,1252096.5470276,1695.802821473,2521844.3425774,41.919511951195,0,0
-183.65123282357,-214.53953484924,36.723942394239,1252096.5470276,1695.802821473,2521844.3425774,41.923942394239,0,0
-183.65123272414,-214.56835775373,36.728372837284,1252096.5470276,1695.802821473,2521844.3425774,41.928372837284,0,0
-183.65123262471,-214.59718065821,36.732803280328,1252096.5470276,1695.802821473,2521844.3425774,41.932803280328,0,0
-183.65123252528,-214.62600356269,36.737233723372,1252096.5470276,1695.802821473,2521844.3425774,41.937233723372,0,0
-183.65123242585,-214.65482646717,36.741664166417,1252096.5470276,1695.802821473,2521844.3425774,41.941664166417,0,0
-183.65123232641,-214.68364937165,36.746094609461,1252096.5470276,1695.802821473,2521844.3425774,41.946094609461,0,0
-183.65123222698,-214.71247227614,36.750525052505,1252096.5470276,1695.802821473,2521844.3425774,41.950525052505,0,0
-183.65123212755,-214.74129518062,36.75495549555,1252096.5470276,1695.802821473,2521844.3425774,41.95495549555,0,0
-183.65123202812,-214.7701180851,36.759385938594,1252096.5470276,1695.802821473,2521844.3425774,41.959385938594,0,0
-183.65123192869,-214.79894098958,36.763816381638,1252096.5470276,1695.802821473,2521844.3425774,41.963816381638,0,0
-183.65123182926,-214.82776389407,36.768246824682,1252096.5470276,1695.802821473,2521844.3425774,41.968246824682,0,0
-183.65123172983,-214.85658679855,36.772677267727,1252096.5470276,1695.802821473,2521844.3425774,41.972677267727,0,0
-183.6512316304,-214.88540970303,36.777107710771,1252096.5470276,1695.802821473,2521844.3425774,41.977107710771,0,0
-183.65123153097,-214.91423260751,36.781538153815,1252096.5470276,1695.802821473,2521844.3425774,41.981538153815,0,0
-183.65123143154,-214.943055512,36.78596859686,1252096.5470276,1695.802821473,2521844.3425774,41.98596859686,0,0
-183.65123133211,-214.97187841648,36.790399039904,1252096.5470276,1695.802821473,2521844.3425774,41.990399039904,0,0
-183.65123123268,-215.00070132096,36.794829482948,1252096.5470276,1695.802821473,2521844.3425774,41.994829482948,0,0
-183.65123113325,-215.02952422544,36.799259925993,1252096.5470276,1695.802821473,2521844.3425774,41.999259925993,0,0
-183.65123103382,-215.05834712993,36.803690369037,1252096.5470276,1695.802821473,2521844.3425774,42.003690369037,0,0
-183.65123093439,-215.08717003441,36.808120812081,1252096.5470276,1695.802821473,2521844.3425774,42.008120812081,0,0
-183.65123083496,-215.11599293889,36.812551255126,1252096.5470276,1695.802821473,2521844.3425774,42.012551255126,0,0
-183.65123073553,-215.14481584337,36.81698169817,1252096.5470276,1695.802821473,2521844.3425774,42.01698169817,0,0
-183.65123063609,-215.17363874786,36.821412141214,1252096.5470276,1695.802821473,2521844.3425774,42.021412141214,0,0
-183.65123053666,-215.20246165234,36.825842584258,1252096.5470276,1695.802821473,2521844.3425774,42.025842584258,0,0
-183.65123043723,-215.23128455682,36.830273027303,1252096.5470276,1695.802821473,2521844.3425774,42.030273027303,0,0
-183.6512303378,-215.2601074613,36.834703470347,1252096.5470276,1695.802821473,2521844.3425774,42.034703470347,0,0
-183.65123023837,-215.28893036579,36.839133913391,1252096.5470276,1695.802821473,2521844.3425774,42.039133913391,0,0
-183.65123013894,-215.31775327027,36.843564356436,1252096.5470276,1695.802821473,2521844.3425774,42.043564356436,0,0
-183.65123003951,-215.34657617475,36.84799479948,1252096.5470276,1695.802821473,2521844.3425774,42.04799479948,0,0
-183.65122994008,-215.37539907923,36.852425242524,1252096.5470276,1695.802821473,2521844.3425774,42.052425242524,0,0
-183.65122984065,-215.40422198372,36.856855685569,1252096.5470276,1695.802821473,2521844.3425774,42.056855685569,0,0
-183.65122974122,-215.4330448882,36.861286128613,1252096.5470276,1695.802821473,2521844.3425774,42.061286128613,0,0
-183.65122964179,-215.46186779268,36.865716571657,1252096.5470276,1695.802821473,2521844.3425774,42.065716571657,0,0
-183.65122954236,-215.49069069716,36.870147014701,1252096.5470276,1695.802821473,2521844.3425774,42.070147014701,0,0
-183.65122944293,-215.51951360165,36.874577457746,1252096.5470276,1695.802821473,2521844.3425774,42.074577457746,0,0
-183.6512293435,-215.54833650613,36.87900790079,1252096.5470276,1695.802821473,2521844.3425774,42.07900790079,0,0
-183.65122924407,-215.57715941061,36.883438343834,1252096.5470276,1695.802821473,2521844.3425774,42.083438343834,0,0
-183.65122914464,-215.60598231509,36.887868786879,1252096.5470276,1695.802821473,2521844.3425774,42.087868786879,0,0
-183.65122904521,-215.63480521958,36.892299229923,1252096.5470276,1695.802821473,2521844.3425774,42.092299229923,0,0
-183.65122894578,-215.66362812406,36.896729672967,1252096.5470276,1695.802821473,2521844.3425774,42.096729672967,0,0
-183.65122884634,-215.69245102854,36.901160116012,1252096.5470276,1695.802821473,2521844.3425774,42.101160116012,0,0
-183.65122874691,-215.72127393302,36.905590559056,1252096.5470276,1695.802821473,2521844.3425774,42.105590559056,0,0
-183.65122864748,-215.75009683751,36.9100210021,1252096.5470276,1695.802821473,2521844.3425774,42.1100210021,0,0
-183.65122854805,-215.77891974199,36.914451445145,1252096.5470276,1695.802821473,2521844.3425774,42.114451445145,0,0
-183.65122844862,-215.80774264647,36.918881888189,1252096.5470276,1695.802821473,2521844.3425774,42.118881888189,0,0
-183.65122834919,-215.83656555095,36.923312331233,1252096.5470276,1695.802821473,2521844.3425774,42.123312331233,0,0
-183.65122824976,-215.86538845544,36.927742774277,1252096.5470276,1695.802821473,2521844.3425774,42.127742774277,0,0
-183.65122815033,-215.89421135992,36.932173217322,1252096.5470276,1695.802821473,2521844.3425774,42.132173217322,0,0
-183.6512280509,-215.9230342644,36.936603660366,1252096.5470276,1695.802821473,2521844.3425774,42.136603660366,0,0
-183.65122795147,-215.95185716888,36.94103410341,1252096.5470276,1695.802821473,2521844.3425774,42.14103410341,0,0
-183.65122785204,-215.98068007337,36.945464546455,1252096.5470276,1695.802821473,2521844.3425774,42.145464546455,0,0
-183.65122775261,-216.00950297785,36.949894989499,1252096.5470276,1695.802821473,2521844.3425774,42.149894989499,0,0
-183.65122765318,-216.03832588233,36.954325432543,1252096.5470276,1695.802821473,2521844.3425774,42.154325432543,0,0
-183.65122755375,-216.06714878681,36.958755875588,1252096.5470276,1695.802821473,2521844.3425774,42.158755875588,0,0
-183.65122745432,-216.0959716913,36.963186318632,1252096.5470276,1695.802821473,2521844.3425774,42.163186318632,0,0
-183.65122735489,-216.12479459578,36.967616761676,1252096.5470276,1695.802821473,2521844.3425774,42.167616761676,0,0
-183.65122725546,-216.15361750026,36.97204720472,1252096.5470276,1695.802821473,2521844.3425774,42.17204720472,0,0
-183.65122715602,-216.18244040474,36.976477647765,1252096.5470276,1695.802821473,2521844.3425774,42.176477647765,0,0
-183.65122705659,-216.21126330922,36.980908090809,1252096.5470276,1695.802821473,2521844.3425774,42.180908090809,0,0
-183.65122695716,-216.24008621371,36.985338533853,1252096.5470276,1695.802821473,2521844.3425774,42.185338533853,0,0
-183.65122685773,-216.26890911819,36.989768976898,1252096.5470276,1695.802821473,2521844.3425774,42.189768976898,0,0
-183.6512267583,-216.29773202267,36.994199419942,1252096.5470276,1695.802821473,2521844.3425774,42.194199419942,0,0
-183.65122665887,-216.32655492715,36.998629862986,1252096.5470276,1695.802821473,2521844.3425774,42.198629862986,0,0
-183.65122655944,-216.35537783164,37.003060306031,1252096.5470276,1695.802821473,2521844.3425774,42.203060306031,0,0
-183.65122646001,-216.38420073612,37.007490749075,1252096.5470276,1695.802821473,2521844.3425774,42.207490749075,0,0
-183.65122636058,-216.4130236406,37.011921192119,1252096.5470276,1695.802821473,2521844.3425774,42.211921192119,0,0
-183.65122626115,-216.44184654508,37.016351635164,1252096.5470276,1695.802821473,2521844.3425774,42.216351635164,0,0
-183.65122616172,-216.47066944957,37.020782078208,1252096.5470276,1695.802821473,2521844.3425774,42.220782078208,0,0
-183.65122606229,-216.49949235405,37.025212521252,1252096.5470276,1695.802821473,2521844.3425774,42.225212521252,0,0
-183.65122596286,-216.52831525853,37.029642964296,1252096.5470276,1695.802821473,2521844.3425774,42.229642964296,0,0
-183.65122586343,-216.55713816301,37.034073407341,1252096.5470276,1695.802821473,2521844.3425774,42.234073407341,0,0
-183.651225764,-216.5859610675,37.038503850385,1252096.5470276,1695.802821473,2521844.3425774,42.238503850385,0,0
-183.65122566457,-216.61478397198,37.042934293429,1252096.5470276,1695.802821473,2521844.3425774,42.242934293429,0,0
-183.65122556514,-216.64360687646,37.047364736474,1252096.5470276,1695.802821473,2521844.3425774,42.247364736474,0,0
-183.65122546571,-216.67242978094,37.051795179518,1252096.5470276,1695.802821473,2521844.3425774,42.251795179518,0,0
-183.65122536627,-216.70125268543,37.056225622562,1252096.5470276,1695.802821473,2521844.3425774,42.256225622562,0,0
-183.65122526684,-216.73007558991,37.060656065607,1252096.5470276,1695.802821473,2521844.3425774,42.260656065607,0,0
-183.65122516741,-216.75889849439,37.065086508651,1252096.5470276,1695.802821473,2521844.3425774,42.265086508651,0,0
-183.65122506798,-216.78772139887,37.069516951695,1252096.5470276,1695.802821473,2521844.3425774,42.269516951695,0,0
-183.65122496855,-216.81654430336,37.073947394739,1252096.5470276,1695.802821473,2521844.3425774,42.273947394739,0,0
-183.65122486912,-216.84536720784,37.078377837784,1252096.5470276,1695.802821473,2521844.3425774,42.278377837784,0,0
-183.65122476969,-216.87419011232,37.082808280828,1252096.5470276,1695.802821473,2521844.3425774,42.282808280828,0,0
-183.65122467026,-216.9030130168,37.087238723872,1252096.5470276,1695.802821473,2521844.3425774,42.287238723872,0,0
-183.65122457083,-216.93183592129,37.091669166917,1252096.5470276,1695.802821473,2521844.3425774,42.291669166917,0,0
-183.6512244714,-216.96065882577,37.096099609961,1252096.5470276,1695.802821473,2521844.3425774,42.296099609961,0,0
-183.65122437197,-216.98948173025,37.100530053005,1252096.5470276,1695.802821473,2521844.3425774,42.300530053005,0,0
-183.65122427254,-217.01830463473,37.10496049605,1252096.5470276,1695.802821473,2521844.3425774,42.30496049605,0,0
-183.65122417311,-217.04712753922,37.109390939094,1252096.5470276,1695.802821473,2521844.3425774,42.309390939094,0,0
-183.65122407368,-217.0759504437,37.113821382138,1252096.5470276,1695.802821473,2521844.3425774,42.313821382138,0,0
-183.65122397425,-217.10477334818,37.118251825183,1252096.5470276,1695.802821473,2521844.3425774,42.318251825183,0,0
-183.65122387482,-217.13359625266,37.122682268227,1252096.5470276,1695.802821473,2521844.3425774,42.322682268227,0,0
-183.65122377539,-217.16241915715,37.127112711271,1252096.5470276,1695.802821473,2521844.3425774,42.327112711271,0,0
-183.65122367595,-217.19124206163,37.131543154315,1252096.5470276,1695.802821473,2521844.3425774,42.331543154315,0,0
-183.65122357652,-217.22006496611,37.13597359736,1252096.5470276,1695.802821473,2521844.3425774,42.33597359736,0,0
-183.65122347709,-217.24888787059,37.140404040404,1252096.5470276,1695.802821473,2521844.3425774,42.340404040404,0,0
-183.65122337766,-217.27771077508,37.144834483448,1252096.5470276,1695.802821473,2521844.3425774,42.344834483448,0,0
-183.65122327823,-217.30653367956,37.149264926493,1252096.5470276,1695.802821473,2521844.3425774,42.349264926493,0,0
-183.6512231788,-217.33535658404,37.153695369537,1252096.5470276,1695.802821473,2521844.3425774,42.353695369537,0,0
-183.65122307937,-217.36417948852,37.158125812581,1252096.5470276,1695.802821473,2521844.3425774,42.358125812581,0,0
-183.65122297994,-217.39300239301,37.162556255626,1252096.5470276,1695.802821473,2521844.3425774,42.362556255626,0,0
-183.65122288051,-217.42182529749,37.16698669867,1252096.5470276,1695.802821473,2521844.3425774,42.36698669867,0,0
-183.65122278108,-217.45064820197,37.171417141714,1252096.5470276,1695.802821473,2521844.3425774,42.371417141714,0,0
-183.65122268165,-217.47947110645,37.175847584758,1252096.5470276,1695.802821473,2521844.3425774,42.375847584758,0,0
-183.65122258222,-217.50829401094,37.180278027803,1252096.5470276,1695.802821473,2521844.3425774,42.380278027803,0,0
-183.65122248279,-217.53711691542,37.184708470847,1252096.5470276,1695.802821473,2521844.3425774,42.384708470847,0,0
-183.65122238336,-217.5659398199,37.189138913891,1252096.5470276,1695.802821473,2521844.3425774,42.389138913891,0,0
-183.65122228393,-217.59476272438,37.193569356936,1252096.5470276,1695.802821473,2521844.3425774,42.393569356936,0,0
-183.6512221845,-217.62358562886,37.19799979998,1252096.5470276,1695.802821473,2521844.3425774,42.39799979998,0,0
-183.65122208507,-217.65240853335,37.202430243024,1252096.5470276,1695.802821473,2521844.3425774,42.402430243024,0,0
-183.65122198564,-217.68123143783,37.206860686069,1252096.5470276,1695.802821473,2521844.3425774,42.406860686069,0,0
-183.6512218862,-217.71005434231,37.211291129113,1252096.5470276,1695.802821473,2521844.3425774,42.411291129113,0,0
-183.65122178677,-217.73887724679,37.215721572157,1252096.5470276,1695.802821473,2521844.3425774,42.415721572157,0,0
-183.65122168734,-217.76770015128,37.220152015202,1252096.5470276,1695.802821473,2521844.3425774,42.420152015202,0,0
-183.65122158791,-217.79652305576,37.224582458246,1252096.5470276,1695.802821473,2521844.3425774,42.424582458246,0,0
-183.65122148848,-217.82534596024,37.22901290129,1252096.5470276,1695.802821473,2521844.3425774,42.42901290129,0,0
-183.65122138905,-217.85416886472,37.233443344334,1252096.5470276,1695.802821473,2521844.3425774,42.433443344334,0,0
-183.65122128962,-217.88299176921,37.237873787379,1252096.5470276,1695.802821473,2521844.3425774,42.437873787379,0,0
-183.65122119019,-217.91181467369,37.242304230423,1252096.5470276,1695.802821473,2521844.3425774,42.442304230423,0,0
-183.65122109076,-217.94063757817,37.246734673467,1252096.5470276,1695.802821473,2521844.3425774,42.446734673467,0,0
-183.65122099133,-217.96946048265,37.251165116512,1252096.5470276,1695.802821473,2521844.3425774,42.451165116512,0,0
-183.6512208919,-217.99828338714,37.255595559556,1252096.5470276,1695.802821473,2521844.3425774,42.455595559556,0,0
-183.65122079247,-218.02710629162,37.2600260026,1252096.5470276,1695.802821473,2521844.3425774,42.4600260026,0,0
-183.65122069304,-218.0559291961,37.264456445645,1252096.5470276,1695.802821473,2521844.3425774,42.464456445645,0,0
-183.65122059361,-218.08475210058,37.268886888689,1252096.5470276,1695.802821473,2521844.3425774,42.468886888689,0,0
-183.65122049418,-218.11357500507,37.273317331733,1252096.5470276,1695.802821473,2521844.3425774,42.473317331733,0,0
-183.65122039475,-218.14239790955,37.277747774777,1252096.5470276,1695.802821473,2521844.3425774,42.477747774777,0,0
-183.65122029532,-218.17122081403,37.282178217822,1252096.5470276,1695.802821473,2521844.3425774,42.482178217822,0,0
-183.65122019588,-218.20004371851,37.286608660866,1252096.5470276,1695.802821473,2521844.3425774,42.486608660866,0,0
-183.65122009645,-218.228866623,37.29103910391,1252096.5470276,1695.802821473,2521844.3425774,42.49103910391,0,0
-183.65121999702,-218.25768952748,37.295469546955,1252096.5470276,1695.802821473,2521844.3425774,42.495469546955,0,0
-183.65121989759,-218.28651243196,37.299899989999,1252096.5470276,1695.802821473,2521844.3425774,42.499899989999,0,0
-183.65121979816,-218.31533533644,37.304330433043,1252096.5470276,1695.802821473,2521844.3425774,42.504330433043,0,0
-183.65121969873,-218.34415824093,37.308760876088,1252096.5470276,1695.802821473,2521844.3425774,42.508760876088,0,0
-183.6512195993,-218.37298114541,37.313191319132,1252096.5470276,1695.802821473,2521844.3425774,42.513191319132,0,0
-183.65121949987,-218.40180404989,37.317621762176,1252096.5470276,1695.802821473,2521844.3425774,42.517621762176,0,0
-183.65121940044,-218.43062695437,37.322052205221,1252096.5470276,1695.802821473,2521844.3425774,42.522052205221,0,0
-183.65121930101,-218.45944985886,37.326482648265,1252096.5470276,1695.802821473,2521844.3425774,42.526482648265,0,0
-183.65121920158,-218.48827276334,37.330913091309,1252096.5470276,1695.802821473,2521844.3425774,42.530913091309,0,0
-183.65121910215,-218.51709566782,37.335343534353,1252096.5470276,1695.802821473,2521844.3425774,42.535343534353,0,0
-183.65121900272,-218.5459185723,37.339773977398,1252096.5470276,1695.802821473,2521844.3425774,42.539773977398,0,0
-183.65121890329,-218.57474147679,37.344204420442,1252096.5470276,1695.802821473,2521844.3425774,42.544204420442,0,0
-183.65121880386,-218.60356438127,37.348634863486,1252096.5470276,1695.802821473,2521844.3425774,42.548634863486,0,0
-183.65121870443,-218.63238728575,37.353065306531,1252096.5470276,1695.802821473,2521844.3425774,42.553065306531,0,0
-183.651218605,-218.66121019023,37.357495749575,1252096.5470276,1695.802821473,2521844.3425774,42.557495749575,0,0
-183.65121850556,-218.69003309472,37.361926192619,1252096.5470276,1695.802821473,2521844.3425774,42.561926192619,0,0
-183.65121840613,-218.7188559992,37.366356635664,1252096.5470276,1695.802821473,2521844.3425774,42.566356635664,0,0
-183.6512183067,-218.74767890368,37.370787078708,1252096.5470276,1695.802821473,2521844.3425774,42.570787078708,0,0
-183.65121820727,-218.77650180816,37.375217521752,1252096.5470276,1695.802821473,2521844.3425774,42.575217521752,0,0
-183.65121810784,-218.80532471265,37.379647964796,1252096.5470276,1695.802821473,2521844.3425774,42.579647964796,0,0
-183.65121800841,-218.83414761713,37.384078407841,1252096.5470276,1695.802821473,2521844.3425774,42.584078407841,0,0
-183.65121790898,-218.86297052161,37.388508850885,1252096.5470276,1695.802821473,2521844.3425774,42.588508850885,0,0
-183.65121780955,-218.89179342609,37.392939293929,1252096.5470276,1695.802821473,2521844.3425774,42.592939293929,0,0
-183.65121771012,-218.92061633058,37.397369736974,1252096.5470276,1695.802821473,2521844.3425774,42.597369736974,0,0
-183.65121761069,-218.94943923506,37.401800180018,1252096.5470276,1695.802821473,2521844.3425774,42.601800180018,0,0
-183.65121751126,-218.97826213954,37.406230623062,1252096.5470276,1695.802821473,2521844.3425774,42.606230623062,0,0
-183.65121741183,-219.00708504402,37.410661066107,1252096.5470276,1695.802821473,2521844.3425774,42.610661066107,0,0
-183.6512173124,-219.0359079485,37.415091509151,1252096.5470276,1695.802821473,2521844.3425774,42.615091509151,0,0
-183.65121721297,-219.06473085299,37.419521952195,1252096.5470276,1695.802821473,2521844.3425774,42.619521952195,0,0
-183.65121711354,-219.09355375747,37.42395239524,1252096.5470276,1695.802821473,2521844.3425774,42.62395239524,0,0
-183.65121701411,-219.12237666195,37.428382838284,1252096.5470276,1695.802821473,2521844.3425774,42.628382838284,0,0
-183.65121691468,-219.15119956643,37.432813281328,1252096.5470276,1695.802821473,2521844.3425774,42.632813281328,0,0
-183.65121681525,-219.18002247092,37.437243724372,1252096.5470276,1695.802821473,2521844.3425774,42.637243724372,0,0
-183.65121671581,-219.2088453754,37.441674167417,1252096.5470276,1695.802821473,2521844.3425774,42.641674167417,0,0
-183.65121661638,-219.23766827988,37.446104610461,1252096.5470276,1695.802821473,2521844.3425774,42.646104610461,0,0
-183.65121651695,-219.26649118436,37.450535053505,1252096.5470276,1695.802821473,2521844.3425774,42.650535053505,0,0
-183.65121641752,-219.29531408885,37.45496549655,1252096.5470276,1695.802821473,2521844.3425774,42.65496549655,0,0
-183.65121631809,-219.32413699333,37.459395939594,1252096.5470276,1695.802821473,2521844.3425774,42.659395939594,0,0
-183.65121621866,-219.35295989781,37.463826382638,1252096.5470276,1695.802821473,2521844.3425774,42.663826382638,0,0
-183.65121611923,-219.38178280229,37.468256825683,1252096.5470276,1695.802821473,2521844.3425774,42.668256825683,0,0
-183.6512160198,-219.41060570678,37.472687268727,1252096.5470276,1695.802821473,2521844.3425774,42.672687268727,0,0
-183.65121592037,-219.43942861126,37.477117711771,1252096.5470276,1695.802821473,2521844.3425774,42.677117711771,0,0
-183.65121582094,-219.46825151574,37.481548154815,1252096.5470276,1695.802821473,2521844.3425774,42.681548154815,0,0
-183.65121572151,-219.49707442022,37.48597859786,1252096.5470276,1695.802821473,2521844.3425774,42.68597859786,0,0
-183.65121562208,-219.52589732471,37.490409040904,1252096.5470276,1695.802821473,2521844.3425774,42.690409040904,0,0
-183.65121552265,-219.55472022919,37.494839483948,1252096.5470276,1695.802821473,2521844.3425774,42.694839483948,0,0
-183.65121542322,-219.58354313367,37.499269926993,1252096.5470276,1695.802821473,2521844.3425774,42.699269926993,0,0
-183.65121532379,-219.61236603815,37.503700370037,1252096.5470276,1695.802821473,2521844.3425774,42.703700370037,0,0
-183.65121522436,-219.64118894264,37.508130813081,1252096.5470276,1695.802821473,2521844.3425774,42.708130813081,0,0
-183.65121512493,-219.67001184712,37.512561256126,1252096.5470276,1695.802821473,2521844.3425774,42.712561256126,0,0
-183.65121502549,-219.6988347516,37.51699169917,1252096.5470276,1695.802821473,2521844.3425774,42.71699169917,0,0
-183.65121492606,-219.72765765608,37.521422142214,1252096.5470276,1695.802821473,2521844.3425774,42.721422142214,0,0
-183.65121482663,-219.75648056057,37.525852585259,1252096.5470276,1695.802821473,2521844.3425774,42.725852585259,0,0
-183.6512147272,-219.78530346505,37.530283028303,1252096.5470276,1695.802821473,2521844.3425774,42.730283028303,0,0
-183.65121462777,-219.81412636953,37.534713471347,1252096.5470276,1695.802821473,2521844.3425774,42.734713471347,0,0
-183.65121452834,-219.84294927401,37.539143914391,1252096.5470276,1695.802821473,2521844.3425774,42.739143914391,0,0
-183.65121442891,-219.8717721785,37.543574357436,1252096.5470276,1695.802821473,2521844.3425774,42.743574357436,0,0
-183.65121432948,-219.90059508298,37.54800480048,1252096.5470276,1695.802821473,2521844.3425774,42.74800480048,0,0
-183.65121423005,-219.92941798746,37.552435243524,1252096.5470276,1695.802821473,2521844.3425774,42.752435243524,0,0
-183.65121413062,-219.95824089194,37.556865686569,1252096.5470276,1695.802821473,2521844.3425774,42.756865686569,0,0
-183.65121403119,-219.98706379643,37.561296129613,1252096.5470276,1695.802821473,2521844.3425774,42.761296129613,0,0
-183.65121393176,-220.01588670091,37.565726572657,1252096.5470276,1695.802821473,2521844.3425774,42.765726572657,0,0
-183.65121383233,-220.04470960539,37.570157015702,1252096.5470276,1695.802821473,2521844.3425774,42.770157015702,0,0
-183.6512137329,-220.07353250987,37.574587458746,1252096.5470276,1695.802821473,2521844.3425774,42.774587458746,0,0
-183.65121363347,-220.10235541436,37.57901790179,1252096.5470276,1695.802821473,2521844.3425774,42.77901790179,0,0
-183.65121353404,-220.13117831884,37.583448344834,1252096.5470276,1695.802821473,2521844.3425774,42.783448344834,0,0
-183.65121343461,-220.16000122332,37.587878787879,1252096.5470276,1695.802821473,2521844.3425774,42.787878787879,0,0
-183.65121333518,-220.1888241278,37.592309230923,1252096.5470276,1695.802821473,2521844.3425774,42.792309230923,0,0
-183.65121323574,-220.21764703229,37.596739673967,1252096.5470276,1695.802821473,2521844.3425774,42.796739673967,0,0
-183.65121313631,-220.24646993677,37.601170117012,1252096.5470276,1695.802821473,2521844.3425774,42.801170117012,0,0
-183.65121303688,-220.27529284125,37.605600560056,1252096.5470276,1695.802821473,2521844.3425774,42.805600560056,0,0
-183.65121293745,-220.30411574573,37.6100310031,1252096.5470276,1695.802821473,2521844.3425774,42.8100310031,0,0
-183.65121283802,-220.33293865022,37.614461446145,1252096.5470276,1695.802821473,2521844.3425774,42.814461446145,0,0
-183.65121273859,-220.3617615547,37.618891889189,1252096.5470276,1695.802821473,2521844.3425774,42.818891889189,0,0
-183.65121263916,-220.39058445918,37.623322332233,1252096.5470276,1695.802821473,2521844.3425774,42.823322332233,0,0
-183.65121253973,-220.41940736366,37.627752775278,1252096.5470276,1695.802821473,2521844.3425774,42.827752775278,0,0
-183.6512124403,-220.44823026815,37.632183218322,1252096.5470276,1695.802821473,2521844.3425774,42.832183218322,0,0
-183.65121234087,-220.47705317263,37.636613661366,1252096.5470276,1695.802821473,2521844.3425774,42.836613661366,0,0
-183.65121224144,-220.50587607711,37.64104410441,1252096.5470276,1695.802821473,2521844.3425774,42.84104410441,0,0
-183.65121214201,-220.53469898159,37.645474547455,1252096.5470276,1695.802821473,2521844.3425774,42.845474547455,0,0
-183.65121204258,-220.56352188607,37.649904990499,1252096.5470276,1695.802821473,2521844.3425774,42.849904990499,0,0
-183.65121194315,-220.59234479056,37.654335433543,1252096.5470276,1695.802821473,2521844.3425774,42.854335433543,0,0
-183.65121184372,-220.62116769504,37.658765876588,1252096.5470276,1695.802821473,2521844.3425774,42.858765876588,0,0
-183.65121174429,-220.64999059952,37.663196319632,1252096.5470276,1695.802821473,2521844.3425774,42.863196319632,0,0
-183.65121164486,-220.678813504,37.667626762676,1252096.5470276,1695.802821473,2521844.3425774,42.867626762676,0,0
-183.65121154542,-220.70763640849,37.672057205721,1252096.5470276,1695.802821473,2521844.3425774,42.872057205721,0,0
-183.65121144599,-220.73645931297,37.676487648765,1252096.5470276,1695.802821473,2521844.3425774,42.876487648765,0,0
-183.65121134656,-220.76528221745,37.680918091809,1252096.5470276,1695.802821473,2521844.3425774,42.880918091809,0,0
-183.65121124713,-220.79410512193,37.685348534853,1252096.5470276,1695.802821473,2521844.3425774,42.885348534853,0,0
-183.6512111477,-220.82292802642,37.689778977898,1252096.5470276,1695.802821473,2521844.3425774,42.889778977898,0,0
-183.65121104827,-220.8517509309,37.694209420942,1252096.5470276,1695.802821473,2521844.3425774,42.894209420942,0,0
-183.65121094884,-220.88057383538,37.698639863986,1252096.5470276,1695.802821473,2521844.3425774,42.898639863986,0,0
-183.65121084941,-220.90939673986,37.703070307031,1252096.5470276,1695.802821473,2521844.3425774,42.903070307031,0,0
-183.65121074998,-220.93821964435,37.707500750075,1252096.5470276,1695.802821473,2521844.3425774,42.907500750075,0,0
-183.65121065055,-220.96704254883,37.711931193119,1252096.5470276,1695.802821473,2521844.3425774,42.911931193119,0,0
-183.65121055112,-220.99586545331,37.716361636164,1252096.5470276,1695.802821473,2521844.3425774,42.916361636164,0,0
-183.65121045169,-221.02468835779,37.720792079208,1252096.5470276,1695.802821473,2521844.3425774,42.920792079208,0,0
-183.65121035226,-221.05351126228,37.725222522252,1252096.5470276,1695.802821473,2521844.3425774,42.925222522252,0,0
-183.65121025283,-221.08233416676,37.729652965297,1252096.5470276,1695.802821473,2521844.3425774,42.929652965297,0,0
-183.6512101534,-221.11115707124,37.734083408341,1252096.5470276,1695.802821473,2521844.3425774,42.934083408341,0,0
-183.65121005397,-221.13997997572,37.738513851385,1252096.5470276,1695.802821473,2521844.3425774,42.938513851385,0,0
-183.65120995454,-221.16880288021,37.742944294429,1252096.5470276,1695.802821473,2521844.3425774,42.942944294429,0,0
-183.65120985511,-221.19762578469,37.747374737474,1252096.5470276,1695.802821473,2521844.3425774,42.947374737474,0,0
-183.65120975567,-221.22644868917,37.751805180518,1252096.5470276,1695.802821473,2521844.3425774,42.951805180518,0,0
-183.65120965624,-221.25527159365,37.756235623562,1252096.5470276,1695.802821473,2521844.3425774,42.956235623562,0,0
-183.65120955681,-221.28409449814,37.760666066607,1252096.5470276,1695.802821473,2521844.3425774,42.960666066607,0,0
-183.65120945738,-221.31291740262,37.765096509651,1252096.5470276,1695.802821473,2521844.3425774,42.965096509651,0,0
-183.65120935795,-221.3417403071,37.769526952695,1252096.5470276,1695.802821473,2521844.3425774,42.969526952695,0,0
-183.65120925852,-221.37056321158,37.77395739574,1252096.5470276,1695.802821473,2521844.3425774,42.97395739574,0,0
-183.65120915909,-221.39938611607,37.778387838784,1252096.5470276,1695.802821473,2521844.3425774,42.978387838784,0,0
-183.65120905966,-221.42820902055,37.782818281828,1252096.5470276,1695.802821473,2521844.3425774,42.982818281828,0,0
-183.65120896023,-221.45703192503,37.787248724872,1252096.5470276,1695.802821473,2521844.3425774,42.987248724872,0,0
-183.6512088608,-221.48585482951,37.791679167917,1252096.5470276,1695.802821473,2521844.3425774,42.991679167917,0,0
-183.65120876137,-221.514677734,37.796109610961,1252096.5470276,1695.802821473,2521844.3425774,42.996109610961,0,0
-183.65120866194,-221.54350063848,37.800540054005,1252096.5470276,1695.802821473,2521844.3425774,43.000540054005,0,0
-183.65120856251,-221.57232354296,37.80497049705,1252096.5470276,1695.802821473,2521844.3425774,43.00497049705,0,0
-183.65120846308,-221.60114644744,37.809400940094,1252096.5470276,1695.802821473,2521844.3425774,43.009400940094,0,0
-183.65120836365,-221.62996935193,37.813831383138,1252096.5470276,1695.802821473,2521844.3425774,43.013831383138,0,0
-183.65120826422,-221.65879225641,37.818261826183,1252096.5470276,1695.802821473,2521844.3425774,43.018261826183,0,0
-183.65120816479,-221.68761516089,37.822692269227,1252096.5470276,1695.802821473,2521844.3425774,43.022692269227,0,0
-183.65120806535,-221.71643806537,37.827122712271,1252096.5470276,1695.802821473,2521844.3425774,43.027122712271,0,0
-183.65120796592,-221.74526096986,37.831553155316,1252096.5470276,1695.802821473,2521844.3425774,43.031553155316,0,0
-183.65120786649,-221.77408387434,37.83598359836,1252096.5470276,1695.802821473,2521844.3425774,43.03598359836,0,0
-183.65120776706,-221.80290677882,37.840414041404,1252096.5470276,1695.802821473,2521844.3425774,43.040414041404,0,0
-183.65120766763,-221.8317296833,37.844844484448,1252096.5470276,1695.802821473,2521844.3425774,43.044844484448,0,0
-183.6512075682,-221.86055258779,37.849274927493,1252096.5470276,1695.802821473,2521844.3425774,43.049274927493,0,0
-183.65120746877,-221.88937549227,37.853705370537,1252096.5470276,1695.802821473,2521844.3425774,43.053705370537,0,0
-183.65120736934,-221.91819839675,37.858135813581,1252096.5470276,1695.802821473,2521844.3425774,43.058135813581,0,0
-183.65120726991,-221.94702130123,37.862566256626,1252096.5470276,1695.802821473,2521844.3425774,43.062566256626,0,0
-183.65120717048,-221.97584420571,37.86699669967,1252096.5470276,1695.802821473,2521844.3425774,43.06699669967,0,0
-183.65120707105,-222.0046671102,37.871427142714,1252096.5470276,1695.802821473,2521844.3425774,43.071427142714,0,0
-183.65120697162,-222.03349001468,37.875857585759,1252096.5470276,1695.802821473,2521844.3425774,43.075857585759,0,0
-183.65120687219,-222.06231291916,37.880288028803,1252096.5470276,1695.802821473,2521844.3425774,43.080288028803,0,0
-183.65120677276,-222.09113582364,37.884718471847,1252096.5470276,1695.802821473,2521844.3425774,43.084718471847,0,0
-183.65120667333,-222.11995872813,37.889148914891,1252096.5470276,1695.802821473,2521844.3425774,43.089148914891,0,0
-183.6512065739,-222.14878163261,37.893579357936,1252096.5470276,1695.802821473,2521844.3425774,43.093579357936,0,0
-183.65120647447,-222.17760453709,37.89800980098,1252096.5470276,1695.802821473,2521844.3425774,43.09800980098,0,0
-183.65120637504,-222.20642744157,37.902440244024,1252096.5470276,1695.802821473,2521844.3425774,43.102440244024,0,0
-183.6512062756,-222.23525034606,37.906870687069,1252096.5470276,1695.802821473,2521844.3425774,43.106870687069,0,0
-183.65120617617,-222.26407325054,37.911301130113,1252096.5470276,1695.802821473,2521844.3425774,43.111301130113,0,0
-183.65120607674,-222.29289615502,37.915731573157,1252096.5470276,1695.802821473,2521844.3425774,43.115731573157,0,0
-183.65120597731,-222.3217190595,37.920162016202,1252096.5470276,1695.802821473,2521844.3425774,43.120162016202,0,0
-183.65120587788,-222.35054196399,37.924592459246,1252096.5470276,1695.802821473,2521844.3425774,43.124592459246,0,0
-183.65120577845,-222.37936486847,37.92902290229,1252096.5470276,1695.802821473,2521844.3425774,43.12902290229,0,0
-183.65120567902,-222.40818777295,37.933453345335,1252096.5470276,1695.802821473,2521844.3425774,43.133453345335,0,0
-183.65120557959,-222.43701067743,37.937883788379,1252096.5470276,1695.802821473,2521844.3425774,43.137883788379,0,0
-183.65120548016,-222.46583358192,37.942314231423,1252096.5470276,1695.802821473,2521844.3425774,43.142314231423,0,0
-183.65120538073,-222.4946564864,37.946744674467,1252096.5470276,1695.802821473,2521844.3425774,43.146744674467,0,0
-183.6512052813,-222.52347939088,37.951175117512,1252096.5470276,1695.802821473,2521844.3425774,43.151175117512,0,0
-183.65120518187,-222.55230229536,37.955605560556,1252096.5470276,1695.802821473,2521844.3425774,43.155605560556,0,0
-183.65120508244,-222.58112519985,37.9600360036,1252096.5470276,1695.802821473,2521844.3425774,43.1600360036,0,0
-183.65120498301,-222.60994810433,37.964466446645,1252096.5470276,1695.802821473,2521844.3425774,43.164466446645,0,0
-183.65120488358,-222.63877100881,37.968896889689,1252096.5470276,1695.802821473,2521844.3425774,43.168896889689,0,0
-183.65120478415,-222.66759391329,37.973327332733,1252096.5470276,1695.802821473,2521844.3425774,43.173327332733,0,0
-183.65120468472,-222.69641681778,37.977757775778,1252096.5470276,1695.802821473,2521844.3425774,43.177757775778,0,0
-183.65120458528,-222.72523972226,37.982188218822,1252096.5470276,1695.802821473,2521844.3425774,43.182188218822,0,0
-183.65120448585,-222.75406262674,37.986618661866,1252096.5470276,1695.802821473,2521844.3425774,43.186618661866,0,0
-183.65120438642,-222.78288553122,37.99104910491,1252096.5470276,1695.802821473,2521844.3425774,43.19104910491,0,0
-183.65120428699,-222.81170843571,37.995479547955,1252096.5470276,1695.802821473,2521844.3425774,43.195479547955,0,0
-183.65120418756,-222.84053134019,37.999909990999,1252096.5470276,1695.802821473,2521844.3425774,43.199909990999,0,0
-183.65120408813,-222.86935424467,38.004340434043,1252096.5470276,1695.802821473,2521844.3425774,43.204340434043,0,0
-183.6512039887,-222.89817714915,38.008770877088,1252096.5470276,1695.802821473,2521844.3425774,43.208770877088,0,0
-183.65120388927,-222.92700005364,38.013201320132,1252096.5470276,1695.802821473,2521844.3425774,43.213201320132,0,0
-183.65120378984,-222.95582295812,38.017631763176,1252096.5470276,1695.802821473,2521844.3425774,43.217631763176,0,0
-183.65120369041,-222.9846458626,38.022062206221,1252096.5470276,1695.802821473,2521844.3425774,43.222062206221,0,0
-183.65120359098,-223.01346876708,38.026492649265,1252096.5470276,1695.802821473,2521844.3425774,43.226492649265,0,0
-183.65120349155,-223.04229167157,38.030923092309,1252096.5470276,1695.802821473,2521844.3425774,43.230923092309,0,0
-183.65120339212,-223.07111457605,38.035353535354,1252096.5470276,1695.802821473,2521844.3425774,43.235353535354,0,0
-183.65120329269,-223.09993748053,38.039783978398,1252096.5470276,1695.802821473,2521844.3425774,43.239783978398,0,0
-183.65120319326,-223.12876038501,38.044214421442,1252096.5470276,1695.802821473,2521844.3425774,43.244214421442,0,0
-183.65120309383,-223.1575832895,38.048644864486,1252096.5470276,1695.802821473,2521844.3425774,43.248644864486,0,0
-183.6512029944,-223.18640619398,38.053075307531,1252096.5470276,1695.802821473,2521844.3425774,43.253075307531,0,0
-183.65120289497,-223.21522909846,38.057505750575,1252096.5470276,1695.802821473,2521844.3425774,43.257505750575,0,0
-183.65120279553,-223.24405200294,38.061936193619,1252096.5470276,1695.802821473,2521844.3425774,43.261936193619,0,0
-183.6512026961,-223.27287490743,38.066366636664,1252096.5470276,1695.802821473,2521844.3425774,43.266366636664,0,0
-183.65120259667,-223.30169781191,38.070797079708,1252096.5470276,1695.802821473,2521844.3425774,43.270797079708,0,0
-183.65120249724,-223.33052071639,38.075227522752,1252096.5470276,1695.802821473,2521844.3425774,43.275227522752,0,0
-183.65120239781,-223.35934362087,38.079657965797,1252096.5470276,1695.802821473,2521844.3425774,43.279657965797,0,0
-183.65120229838,-223.38816652535,38.084088408841,1252096.5470276,1695.802821473,2521844.3425774,43.284088408841,0,0
-183.65120219895,-223.41698942984,38.088518851885,1252096.5470276,1695.802821473,2521844.3425774,43.288518851885,0,0
-183.65120209952,-223.44581233432,38.092949294929,1252096.5470276,1695.802821473,2521844.3425774,43.292949294929,0,0
-183.65120200009,-223.4746352388,38.097379737974,1252096.5470276,1695.802821473,2521844.3425774,43.297379737974,0,0
-183.65120190066,-223.50345814328,38.101810181018,1252096.5470276,1695.802821473,2521844.3425774,43.301810181018,0,0
-183.65120180123,-223.53228104777,38.106240624062,1252096.5470276,1695.802821473,2521844.3425774,43.306240624062,0,0
-183.6512017018,-223.56110395225,38.110671067107,1252096.5470276,1695.802821473,2521844.3425774,43.310671067107,0,0
-183.65120160237,-223.58992685673,38.115101510151,1252096.5470276,1695.802821473,2521844.3425774,43.315101510151,0,0
-183.65120150294,-223.61874976121,38.119531953195,1252096.5470276,1695.802821473,2521844.3425774,43.319531953195,0,0
-183.65120140351,-223.6475726657,38.12396239624,1252096.5470276,1695.802821473,2521844.3425774,43.32396239624,0,0
-183.65120130408,-223.67639557018,38.128392839284,1252096.5470276,1695.802821473,2521844.3425774,43.328392839284,0,0
-183.65120120465,-223.70521847466,38.132823282328,1252096.5470276,1695.802821473,2521844.3425774,43.332823282328,0,0
-183.65120110521,-223.73404137914,38.137253725373,1252096.5470276,1695.802821473,2521844.3425774,43.337253725373,0,0
-183.65120100578,-223.76286428363,38.141684168417,1252096.5470276,1695.802821473,2521844.3425774,43.341684168417,0,0
-183.65120090635,-223.79168718811,38.146114611461,1252096.5470276,1695.802821473,2521844.3425774,43.346114611461,0,0
-183.65120080692,-223.82051009259,38.150545054505,1252096.5470276,1695.802821473,2521844.3425774,43.350545054505,0,0
-183.65120070749,-223.84933299707,38.15497549755,1252096.5470276,1695.802821473,2521844.3425774,43.35497549755,0,0
-183.65120060806,-223.87815590156,38.159405940594,1252096.5470276,1695.802821473,2521844.3425774,43.359405940594,0,0
-183.65120050863,-223.90697880604,38.163836383638,1252096.5470276,1695.802821473,2521844.3425774,43.363836383638,0,0
-183.6512004092,-223.93580171052,38.168266826683,1252096.5470276,1695.802821473,2521844.3425774,43.368266826683,0,0
-183.65120030977,-223.964624615,38.172697269727,1252096.5470276,1695.802821473,2521844.3425774,43.372697269727,0,0
-183.65120021034,-223.99344751949,38.177127712771,1252096.5470276,1695.802821473,2521844.3425774,43.377127712771,0,0
-183.65120011091,-224.02227042397,38.181558155816,1252096.5470276,1695.802821473,2521844.3425774,43.381558155816,0,0
-183.65120001148,-224.05109332845,38.18598859886,1252096.5470276,1695.802821473,2521844.3425774,43.38598859886,0,0
-183.65119991205,-224.07991623293,38.190419041904,1252096.5470276,1695.802821473,2521844.3425774,43.390419041904,0,0
-183.65119981262,-224.10873913742,38.194849484948,1252096.5470276,1695.802821473,2521844.3425774,43.394849484948,0,0
-183.65119971319,-224.1375620419,38.199279927993,1252096.5470276,1695.802821473,2521844.3425774,43.399279927993,0,0
-183.65119961376,-224.16638494638,38.203710371037,1252096.5470276,1695.802821473,2521844.3425774,43.403710371037,0,0
-183.65119951433,-224.19520785086,38.208140814081,1252096.5470276,1695.802821473,2521844.3425774,43.408140814081,0,0
-183.6511994149,-224.22403075535,38.212571257126,1252096.5470276,1695.802821473,2521844.3425774,43.412571257126,0,0
-183.65119931546,-224.25285365983,38.21700170017,1252096.5470276,1695.802821473,2521844.3425774,43.41700170017,0,0
-183.65119921603,-224.28167656431,38.221432143214,1252096.5470276,1695.802821473,2521844.3425774,43.421432143214,0,0
-183.6511991166,-224.31049946879,38.225862586259,1252096.5470276,1695.802821473,2521844.3425774,43.425862586259,0,0
-183.65119901717,-224.33932237328,38.230293029303,1252096.5470276,1695.802821473,2521844.3425774,43.430293029303,0,0
-183.65119891774,-224.36814527776,38.234723472347,1252096.5470276,1695.802821473,2521844.3425774,43.434723472347,0,0
-183.65119881831,-224.39696818224,38.239153915392,1252096.5470276,1695.802821473,2521844.3425774,43.439153915392,0,0
-183.65119871888,-224.42579108672,38.243584358436,1252096.5470276,1695.802821473,2521844.3425774,43.443584358436,0,0
-183.65119861945,-224.45461399121,38.24801480148,1252096.5470276,1695.802821473,2521844.3425774,43.44801480148,0,0
-183.65119852002,-224.48343689569,38.252445244524,1252096.5470276,1695.802821473,2521844.3425774,43.452445244524,0,0
-183.65119842059,-224.51225980017,38.256875687569,1252096.5470276,1695.802821473,2521844.3425774,43.456875687569,0,0
-183.65119832116,-224.54108270465,38.261306130613,1252096.5470276,1695.802821473,2521844.3425774,43.461306130613,0,0
-183.65119822173,-224.56990560914,38.265736573657,1252096.5470276,1695.802821473,2521844.3425774,43.465736573657,0,0
-183.6511981223,-224.59872851362,38.270167016702,1252096.5470276,1695.802821473,2521844.3425774,43.470167016702,0,0
-183.65119802287,-224.6275514181,38.274597459746,1252096.5470276,1695.802821473,2521844.3425774,43.474597459746,0,0
-183.65119792344,-224.65637432258,38.27902790279,1252096.5470276,1695.802821473,2521844.3425774,43.47902790279,0,0
-183.65119782401,-224.68519722707,38.283458345835,1252096.5470276,1695.802821473,2521844.3425774,43.483458345835,0,0
-183.65119772458,-224.71402013155,38.287888788879,1252096.5470276,1695.802821473,2521844.3425774,43.487888788879,0,0
-183.65119762514,-224.74284303603,38.292319231923,1252096.5470276,1695.802821473,2521844.3425774,43.492319231923,0,0
-183.65119752571,-224.77166594051,38.296749674967,1252096.5470276,1695.802821473,2521844.3425774,43.496749674967,0,0
-183.65119742628,-224.800488845,38.301180118012,1252096.5470276,1695.802821473,2521844.3425774,43.501180118012,0,0
-183.65119732685,-224.82931174948,38.305610561056,1252096.5470276,1695.802821473,2521844.3425774,43.505610561056,0,0
-183.65119722742,-224.85813465396,38.3100410041,1252096.5470276,1695.802821473,2521844.3425774,43.5100410041,0,0
-183.65119712799,-224.88695755844,38.314471447145,1252096.5470276,1695.802821473,2521844.3425774,43.514471447145,0,0
-183.65119702856,-224.91578046292,38.318901890189,1252096.5470276,1695.802821473,2521844.3425774,43.518901890189,0,0
-183.65119692913,-224.94460336741,38.323332333233,1252096.5470276,1695.802821473,2521844.3425774,43.523332333233,0,0
-183.6511968297,-224.97342627189,38.327762776278,1252096.5470276,1695.802821473,2521844.3425774,43.527762776278,0,0
-183.65119673027,-225.00224917637,38.332193219322,1252096.5470276,1695.802821473,2521844.3425774,43.532193219322,0,0
-183.65119663084,-225.03107208085,38.336623662366,1252096.5470276,1695.802821473,2521844.3425774,43.536623662366,0,0
-183.65119653141,-225.05989498534,38.341054105411,1252096.5470276,1695.802821473,2521844.3425774,43.541054105411,0,0
-183.65119643198,-225.08871788982,38.345484548455,1252096.5470276,1695.802821473,2521844.3425774,43.545484548455,0,0
-183.65119633255,-225.1175407943,38.349914991499,1252096.5470276,1695.802821473,2521844.3425774,43.549914991499,0,0
-183.65119623312,-225.14636369878,38.354345434543,1252096.5470276,1695.802821473,2521844.3425774,43.554345434543,0,0
-183.65119613369,-225.17518660327,38.358775877588,1252096.5470276,1695.802821473,2521844.3425774,43.558775877588,0,0
-183.65119603426,-225.20400950775,38.363206320632,1252096.5470276,1695.802821473,2521844.3425774,43.563206320632,0,0
-183.65119593483,-225.23283241223,38.367636763676,1252096.5470276,1695.802821473,2521844.3425774,43.567636763676,0,0
-183.65119583539,-225.26165531671,38.372067206721,1252096.5470276,1695.802821473,2521844.3425774,43.572067206721,0,0
-183.65119573596,-225.2904782212,38.376497649765,1252096.5470276,1695.802821473,2521844.3425774,43.576497649765,0,0
-183.65119563653,-225.31930112568,38.380928092809,1252096.5470276,1695.802821473,2521844.3425774,43.580928092809,0,0
-183.6511955371,-225.34812403016,38.385358535854,1252096.5470276,1695.802821473,2521844.3425774,43.585358535854,0,0
-183.65119543767,-225.37694693464,38.389788978898,1252096.5470276,1695.802821473,2521844.3425774,43.589788978898,0,0
-183.65119533824,-225.40576983913,38.394219421942,1252096.5470276,1695.802821473,2521844.3425774,43.594219421942,0,0
-183.65119523881,-225.43459274361,38.398649864986,1252096.5470276,1695.802821473,2521844.3425774,43.598649864986,0,0
-183.65119513938,-225.46341564809,38.403080308031,1252096.5470276,1695.802821473,2521844.3425774,43.603080308031,0,0
-183.65119503995,-225.49223855257,38.407510751075,1252096.5470276,1695.802821473,2521844.3425774,43.607510751075,0,0
-183.65119494052,-225.52106145706,38.411941194119,1252096.5470276,1695.802821473,2521844.3425774,43.611941194119,0,0
-183.65119484109,-225.54988436154,38.416371637164,1252096.5470276,1695.802821473,2521844.3425774,43.616371637164,0,0
-183.65119474166,-225.57870726602,38.420802080208,1252096.5470276,1695.802821473,2521844.3425774,43.620802080208,0,0
-183.65119464223,-225.6075301705,38.425232523252,1252096.5470276,1695.802821473,2521844.3425774,43.625232523252,0,0
-183.6511945428,-225.63635307499,38.429662966297,1252096.5470276,1695.802821473,2521844.3425774,43.629662966297,0,0
-183.65119444337,-225.66517597947,38.434093409341,1252096.5470276,1695.802821473,2521844.3425774,43.634093409341,0,0
-183.65119434394,-225.69399888395,38.438523852385,1252096.5470276,1695.802821473,2521844.3425774,43.638523852385,0,0
-183.65119424451,-225.72282178843,38.44295429543,1252096.5470276,1695.802821473,2521844.3425774,43.64295429543,0,0
-183.65119414507,-225.75164469292,38.447384738474,1252096.5470276,1695.802821473,2521844.3425774,43.647384738474,0,0
-183.65119404564,-225.7804675974,38.451815181518,1252096.5470276,1695.802821473,2521844.3425774,43.651815181518,0,0
-183.65119394621,-225.80929050188,38.456245624562,1252096.5470276,1695.802821473,2521844.3425774,43.656245624562,0,0
-183.65119384678,-225.83811340636,38.460676067607,1252096.5470276,1695.802821473,2521844.3425774,43.660676067607,0,0
-183.65119374735,-225.86693631085,38.465106510651,1252096.5470276,1695.802821473,2521844.3425774,43.665106510651,0,0
-183.65119364792,-225.89575921533,38.469536953695,1252096.5470276,1695.802821473,2521844.3425774,43.669536953695,0,0
-183.65119354849,-225.92458211981,38.47396739674,1252096.5470276,1695.802821473,2521844.3425774,43.67396739674,0,0
-183.65119344906,-225.95340502429,38.478397839784,1252096.5470276,1695.802821473,2521844.3425774,43.678397839784,0,0
-183.65119334963,-225.98222792878,38.482828282828,1252096.5470276,1695.802821473,2521844.3425774,43.682828282828,0,0
-183.6511932502,-226.01105083326,38.487258725873,1252096.5470276,1695.802821473,2521844.3425774,43.687258725873,0,0
-183.65119315077,-226.03987373774,38.491689168917,1252096.5470276,1695.802821473,2521844.3425774,43.691689168917,0,0
-183.65119305134,-226.06869664222,38.496119611961,1252096.5470276,1695.802821473,2521844.3425774,43.696119611961,0,0
-183.65119295191,-226.09751954671,38.500550055005,1252096.5470276,1695.802821473,2521844.3425774,43.700550055006,0,0
-183.65119285248,-226.12634245119,38.50498049805,1252096.5470276,1695.802821473,2521844.3425774,43.70498049805,0,0
-183.65119275305,-226.15516535567,38.509410941094,1252096.5470276,1695.802821473,2521844.3425774,43.709410941094,0,0
-183.65119265362,-226.18398826015,38.513841384138,1252096.5470276,1695.802821473,2521844.3425774,43.713841384138,0,0
-183.65119255419,-226.21281116464,38.518271827183,1252096.5470276,1695.802821473,2521844.3425774,43.718271827183,0,0
-183.65119245476,-226.24163406912,38.522702270227,1252096.5470276,1695.802821473,2521844.3425774,43.722702270227,0,0
-183.65119235532,-226.2704569736,38.527132713271,1252096.5470276,1695.802821473,2521844.3425774,43.727132713271,0,0
-183.65119225589,-226.29927987808,38.531563156316,1252096.5470276,1695.802821473,2521844.3425774,43.731563156316,0,0
-183.65119215646,-226.32810278256,38.53599359936,1252096.5470276,1695.802821473,2521844.3425774,43.73599359936,0,0
-183.65119205703,-226.35692568705,38.540424042404,1252096.5470276,1695.802821473,2521844.3425774,43.740424042404,0,0
-183.6511919576,-226.38574859153,38.544854485449,1252096.5470276,1695.802821473,2521844.3425774,43.744854485449,0,0
-183.65119185817,-226.41457149601,38.549284928493,1252096.5470276,1695.802821473,2521844.3425774,43.749284928493,0,0
-183.65119175874,-226.44339440049,38.553715371537,1252096.5470276,1695.802821473,2521844.3425774,43.753715371537,0,0
-183.65119165931,-226.47221730498,38.558145814581,1252096.5470276,1695.802821473,2521844.3425774,43.758145814581,0,0
-183.65119155988,-226.50104020946,38.562576257626,1252096.5470276,1695.802821473,2521844.3425774,43.762576257626,0,0
-183.65119146045,-226.52986311394,38.56700670067,1252096.5470276,1695.802821473,2521844.3425774,43.76700670067,0,0
-183.65119136102,-226.55868601842,38.571437143714,1252096.5470276,1695.802821473,2521844.3425774,43.771437143714,0,0
-183.65119126159,-226.58750892291,38.575867586759,1252096.5470276,1695.802821473,2521844.3425774,43.775867586759,0,0
-183.65119116216,-226.61633182739,38.580298029803,1252096.5470276,1695.802821473,2521844.3425774,43.780298029803,0,0
-183.65119106273,-226.64515473187,38.584728472847,1252096.5470276,1695.802821473,2521844.3425774,43.784728472847,0,0
-183.6511909633,-226.67397763635,38.589158915892,1252096.5470276,1695.802821473,2521844.3425774,43.789158915892,0,0
-183.65119086387,-226.70280054084,38.593589358936,1252096.5470276,1695.802821473,2521844.3425774,43.793589358936,0,0
-183.65119076444,-226.73162344532,38.59801980198,1252096.5470276,1695.802821473,2521844.3425774,43.79801980198,0,0
-183.651190665,-226.7604463498,38.602450245024,1252096.5470276,1695.802821473,2521844.3425774,43.802450245025,0,0
-183.65119056557,-226.78926925428,38.606880688069,1252096.5470276,1695.802821473,2521844.3425774,43.806880688069,0,0
-183.65119046614,-226.81809215877,38.611311131113,1252096.5470276,1695.802821473,2521844.3425774,43.811311131113,0,0
-183.65119036671,-226.84691506325,38.615741574157,1252096.5470276,1695.802821473,2521844.3425774,43.815741574157,0,0
-183.65119026728,-226.87573796773,38.620172017202,1252096.5470276,1695.802821473,2521844.3425774,43.820172017202,0,0
-183.65119016785,-226.90456087221,38.624602460246,1252096.5470276,1695.802821473,2521844.3425774,43.824602460246,0,0
-183.65119006842,-226.9333837767,38.62903290329,1252096.5470276,1695.802821473,2521844.3425774,43.82903290329,0,0
-183.65118996899,-226.96220668118,38.633463346335,1252096.5470276,1695.802821473,2521844.3425774,43.833463346335,0,0
-183.65118986956,-226.99102958566,38.637893789379,1252096.5470276,1695.802821473,2521844.3425774,43.837893789379,0,0
-183.65118977013,-227.01985249014,38.642324232423,1252096.5470276,1695.802821473,2521844.3425774,43.842324232423,0,0
-183.6511896707,-227.04867539463,38.646754675468,1252096.5470276,1695.802821473,2521844.3425774,43.846754675468,0,0
-183.65118957127,-227.07749829911,38.651185118512,1252096.5470276,1695.802821473,2521844.3425774,43.851185118512,0,0
-183.65118947184,-227.10632120359,38.655615561556,1252096.5470276,1695.802821473,2521844.3425774,43.855615561556,0,0
-183.65118937241,-227.13514410807,38.6600460046,1252096.5470276,1695.802821473,2521844.3425774,43.8600460046,0,0
-183.65118927298,-227.16396701256,38.664476447645,1252096.5470276,1695.802821473,2521844.3425774,43.864476447645,0,0
-183.65118917355,-227.19278991704,38.668906890689,1252096.5470276,1695.802821473,2521844.3425774,43.868906890689,0,0
-183.65118907412,-227.22161282152,38.673337333733,1252096.5470276,1695.802821473,2521844.3425774,43.873337333733,0,0
-183.65118897469,-227.250435726,38.677767776778,1252096.5470276,1695.802821473,2521844.3425774,43.877767776778,0,0
-183.65118887525,-227.27925863049,38.682198219822,1252096.5470276,1695.802821473,2521844.3425774,43.882198219822,0,0
-183.65118877582,-227.30808153497,38.686628662866,1252096.5470276,1695.802821473,2521844.3425774,43.886628662866,0,0
-183.65118867639,-227.33690443945,38.691059105911,1252096.5470276,1695.802821473,2521844.3425774,43.891059105911,0,0
-183.65118857696,-227.36572734393,38.695489548955,1252096.5470276,1695.802821473,2521844.3425774,43.895489548955,0,0
-183.65118847753,-227.39455024842,38.699919991999,1252096.5470276,1695.802821473,2521844.3425774,43.899919991999,0,0
-183.6511883781,-227.4233731529,38.704350435044,1252096.5470276,1695.802821473,2521844.3425774,43.904350435044,0,0
-183.65118827867,-227.45219605738,38.708780878088,1252096.5470276,1695.802821473,2521844.3425774,43.908780878088,0,0
-183.65118817924,-227.48101896186,38.713211321132,1252096.5470276,1695.802821473,2521844.3425774,43.913211321132,0,0
-183.65118807977,-227.50984186649,38.717641764176,1252354.2769873,-659.91152496288,2516859.1549732,43.917641764176,0,0
-183.65118798019,-227.53866477158,38.722072207221,1252354.2769873,-659.91152496288,2516859.1549732,43.922072207221,0,0
-183.6511878806,-227.56748767667,38.726502650265,1252354.2769873,-659.91152496288,2516859.1549732,43.926502650265,0,0
-183.65118778102,-227.59631058175,38.730933093309,1252354.2769873,-659.91152496288,2516859.1549732,43.930933093309,0,0
-183.65118768144,-227.62513348684,38.735363536354,1252354.2769873,-659.91152496288,2516859.1549732,43.935363536354,0,0
-183.65118758185,-227.65395639193,38.739793979398,1252354.2769873,-659.91152496288,2516859.1549732,43.939793979398,0,0
-183.65118748224,-227.68277929657,38.744224422442,1251623.6010629,1843.0339127917,2513422.8174852,43.944224422442,0,0
-183.65118738263,-227.7116022011,38.748654865487,1251623.6010629,1843.0339127917,2513422.8174852,43.948654865487,0,0
-183.65118728301,-227.74042510564,38.753085308531,1251623.6010629,1843.0339127917,2513422.8174852,43.953085308531,0,0
-183.65118718339,-227.76924801018,38.757515751575,1251623.6010629,1843.0339127917,2513422.8174852,43.957515751575,0,0
-183.65118708377,-227.79807091472,38.761946194619,1251623.6010629,1843.0339127917,2513422.8174852,43.961946194619,0,0
-183.65118698416,-227.82689381926,38.766376637664,1251623.6010629,1843.0339127917,2513422.8174852,43.966376637664,0,0
-183.65118688454,-227.8557167238,38.770807080708,1251623.6010629,1843.0339127917,2513422.8174852,43.970807080708,0,0
-183.65118678492,-227.88453962834,38.775237523752,1251623.6010629,1843.0339127917,2513422.8174852,43.975237523752,0,0
-183.65118668531,-227.91336253287,38.779667966797,1251623.6010629,1843.0339127917,2513422.8174852,43.979667966797,0,0
-183.65118658569,-227.94218543741,38.784098409841,1251623.6010629,1843.0339127917,2513422.8174852,43.984098409841,0,0
-183.65118648607,-227.97100834195,38.788528852885,1251623.6010629,1843.0339127917,2513422.8174852,43.988528852885,0,0
-183.65118638646,-227.99983124649,38.79295929593,1251623.6010629,1843.0339127917,2513422.8174852,43.99295929593,0,0
-183.65118628684,-228.02865415103,38.797389738974,1251623.6010629,1843.0339127917,2513422.8174852,43.997389738974,0,0
-183.65118618722,-228.05747705557,38.801820182018,1251623.6010629,1843.0339127917,2513422.8174852,44.001820182018,0,0
-183.6511860876,-228.0862999601,38.806250625063,1251623.6010629,1843.0339127917,2513422.8174852,44.006250625063,0,0
-183.65118598799,-228.11512286464,38.810681068107,1251623.6010629,1843.0339127917,2513422.8174852,44.010681068107,0,0
-183.65118588837,-228.14394576918,38.815111511151,1251623.6010629,1843.0339127917,2513422.8174852,44.015111511151,0,0
-183.65118578875,-228.17276867372,38.819541954195,1251623.6010629,1843.0339127917,2513422.8174852,44.019541954195,0,0
-183.65118568914,-228.20159157826,38.82397239724,1251623.6010629,1843.0339127917,2513422.8174852,44.02397239724,0,0
-183.65118558952,-228.2304144828,38.828402840284,1251623.6010629,1843.0339127917,2513422.8174852,44.028402840284,0,0
-183.6511854899,-228.25923738733,38.832833283328,1251623.6010629,1843.0339127917,2513422.8174852,44.032833283328,0,0
-183.65118539028,-228.28806029187,38.837263726373,1251623.6010629,1843.0339127917,2513422.8174852,44.037263726373,0,0
-183.65118529067,-228.31688319641,38.841694169417,1251623.6010629,1843.0339127917,2513422.8174852,44.041694169417,0,0
-183.65118519105,-228.34570610095,38.846124612461,1251623.6010629,1843.0339127917,2513422.8174852,44.046124612461,0,0
-183.65118509143,-228.37452900549,38.850555055506,1251623.6010629,1843.0339127917,2513422.8174852,44.050555055506,0,0
-183.65118499182,-228.40335191003,38.85498549855,1251623.6010629,1843.0339127917,2513422.8174852,44.05498549855,0,0
-183.6511848922,-228.43217481457,38.859415941594,1251623.6010629,1843.0339127917,2513422.8174852,44.059415941594,0,0
-183.65118479258,-228.4609977191,38.863846384638,1251623.6010629,1843.0339127917,2513422.8174852,44.063846384638,0,0
-183.65118469297,-228.48982062364,38.868276827683,1251623.6010629,1843.0339127917,2513422.8174852,44.068276827683,0,0
-183.65118459335,-228.51864352818,38.872707270727,1251623.6010629,1843.0339127917,2513422.8174852,44.072707270727,0,0
-183.65118449373,-228.54746643272,38.877137713771,1251623.6010629,1843.0339127917,2513422.8174852,44.077137713771,0,0
-183.65118439411,-228.57628933726,38.881568156816,1251623.6010629,1843.0339127917,2513422.8174852,44.081568156816,0,0
-183.6511842945,-228.6051122418,38.88599859986,1251623.6010629,1843.0339127917,2513422.8174852,44.08599859986,0,0
-183.65118419488,-228.63393514633,38.890429042904,1251623.6010629,1843.0339127917,2513422.8174852,44.090429042904,0,0
-183.65118409526,-228.66275805087,38.894859485949,1251623.6010629,1843.0339127917,2513422.8174852,44.094859485949,0,0
-183.65118399565,-228.69158095541,38.899289928993,1251623.6010629,1843.0339127917,2513422.8174852,44.099289928993,0,0
-183.65118389603,-228.72040385995,38.903720372037,1251623.6010629,1843.0339127917,2513422.8174852,44.103720372037,0,0
-183.65118379641,-228.74922676449,38.908150815082,1251623.6010629,1843.0339127917,2513422.8174852,44.108150815082,0,0
-183.6511836968,-228.77804966903,38.912581258126,1251623.6010629,1843.0339127917,2513422.8174852,44.112581258126,0,0
-183.65118359718,-228.80687257356,38.91701170117,1251623.6010629,1843.0339127917,2513422.8174852,44.11701170117,0,0
-183.65118349756,-228.8356954781,38.921442144214,1251623.6010629,1843.0339127917,2513422.8174852,44.121442144214,0,0
-183.65118339794,-228.86451838264,38.925872587259,1251623.6010629,1843.0339127917,2513422.8174852,44.125872587259,0,0
-183.65118329833,-228.89334128718,38.930303030303,1251623.6010629,1843.0339127917,2513422.8174852,44.130303030303,0,0
-183.65118319871,-228.92216419172,38.934733473347,1251623.6010629,1843.0339127917,2513422.8174852,44.134733473347,0,0
-183.65118309909,-228.95098709626,38.939163916392,1251623.6010629,1843.0339127917,2513422.8174852,44.139163916392,0,0
-183.65118299948,-228.9798100008,38.943594359436,1251623.6010629,1843.0339127917,2513422.8174852,44.143594359436,0,0
-183.65118289986,-229.00863290533,38.94802480248,1251623.6010629,1843.0339127917,2513422.8174852,44.14802480248,0,0
-183.65118280024,-229.03745580987,38.952455245525,1251623.6010629,1843.0339127917,2513422.8174852,44.152455245525,0,0
-183.65118270063,-229.06627871441,38.956885688569,1251623.6010629,1843.0339127917,2513422.8174852,44.156885688569,0,0
-183.65118260101,-229.09510161895,38.961316131613,1251623.6010629,1843.0339127917,2513422.8174852,44.161316131613,0,0
-183.65118250139,-229.12392452349,38.965746574657,1251623.6010629,1843.0339127917,2513422.8174852,44.165746574657,0,0
-183.65118240177,-229.15274742803,38.970177017702,1251623.6010629,1843.0339127917,2513422.8174852,44.170177017702,0,0
-183.65118230216,-229.18157033256,38.974607460746,1251623.6010629,1843.0339127917,2513422.8174852,44.174607460746,0,0
-183.65118220254,-229.2103932371,38.97903790379,1251623.6010629,1843.0339127917,2513422.8174852,44.17903790379,0,0
-183.65118210292,-229.23921614164,38.983468346835,1251623.6010629,1843.0339127917,2513422.8174852,44.183468346835,0,0
-183.65118200331,-229.26803904618,38.987898789879,1251623.6010629,1843.0339127917,2513422.8174852,44.187898789879,0,0
-183.65118190369,-229.29686195072,38.992329232923,1251623.6010629,1843.0339127917,2513422.8174852,44.192329232923,0,0
-183.65118180407,-229.32568485526,38.996759675968,1251623.6010629,1843.0339127917,2513422.8174852,44.196759675968,0,0
-183.65118170446,-229.35450775979,39.001190119012,1251623.6010629,1843.0339127917,2513422.8174852,44.201190119012,0,0
-183.65118160484,-229.38333066433,39.005620562056,1251623.6010629,1843.0339127917,2513422.8174852,44.205620562056,0,0
-183.65118150522,-229.41215356887,39.010051005101,1251623.6010629,1843.0339127917,2513422.8174852,44.210051005101,0,0
-183.6511814056,-229.44097647341,39.014481448145,1251623.6010629,1843.0339127917,2513422.8174852,44.214481448145,0,0
-183.65118130599,-229.46979937795,39.018911891189,1251623.6010629,1843.0339127917,2513422.8174852,44.218911891189,0,0
-183.65118120637,-229.49862228249,39.023342334233,1251623.6010629,1843.0339127917,2513422.8174852,44.223342334233,0,0
-183.65118110675,-229.52744518703,39.027772777278,1251623.6010629,1843.0339127917,2513422.8174852,44.227772777278,0,0
-183.65118100714,-229.55626809156,39.032203220322,1251623.6010629,1843.0339127917,2513422.8174852,44.232203220322,0,0
-183.65118090752,-229.5850909961,39.036633663366,1251623.6010629,1843.0339127917,2513422.8174852,44.236633663366,0,0
-183.6511808079,-229.61391390064,39.041064106411,1251623.6010629,1843.0339127917,2513422.8174852,44.241064106411,0,0
-183.65118070828,-229.64273680518,39.045494549455,1251623.6010629,1843.0339127917,2513422.8174852,44.245494549455,0,0
-183.65118060867,-229.67155970972,39.049924992499,1251623.6010629,1843.0339127917,2513422.8174852,44.249924992499,0,0
-183.65118050905,-229.70038261426,39.054355435544,1251623.6010629,1843.0339127917,2513422.8174852,44.254355435544,0,0
-183.65118040943,-229.72920551879,39.058785878588,1251623.6010629,1843.0339127917,2513422.8174852,44.258785878588,0,0
-183.65118030982,-229.75802842333,39.063216321632,1251623.6010629,1843.0339127917,2513422.8174852,44.263216321632,0,0
-183.6511802102,-229.78685132787,39.067646764676,1251623.6010629,1843.0339127917,2513422.8174852,44.267646764676,0,0
-183.65118011058,-229.81567423241,39.072077207721,1251623.6010629,1843.0339127917,2513422.8174852,44.272077207721,0,0
-183.65118001097,-229.84449713695,39.076507650765,1251623.6010629,1843.0339127917,2513422.8174852,44.276507650765,0,0
-183.65117991135,-229.87332004149,39.080938093809,1251623.6010629,1843.0339127917,2513422.8174852,44.280938093809,0,0
-183.65117981173,-229.90214294602,39.085368536854,1251623.6010629,1843.0339127917,2513422.8174852,44.285368536854,0,0
-183.65117971211,-229.93096585056,39.089798979898,1251623.6010629,1843.0339127917,2513422.8174852,44.289798979898,0,0
-183.6511796125,-229.9597887551,39.094229422942,1251623.6010629,1843.0339127917,2513422.8174852,44.294229422942,0,0
-183.65117951288,-229.98861165964,39.098659865987,1251623.6010629,1843.0339127917,2513422.8174852,44.298659865987,0,0
-183.65117941326,-230.01743456418,39.103090309031,1251623.6010629,1843.0339127917,2513422.8174852,44.303090309031,0,0
-183.65117931365,-230.04625746872,39.107520752075,1251623.6010629,1843.0339127917,2513422.8174852,44.307520752075,0,0
-183.65117921403,-230.07508037326,39.11195119512,1251623.6010629,1843.0339127917,2513422.8174852,44.31195119512,0,0
-183.65117911441,-230.10390327779,39.116381638164,1251623.6010629,1843.0339127917,2513422.8174852,44.316381638164,0,0
-183.6511790148,-230.13272618233,39.120812081208,1251623.6010629,1843.0339127917,2513422.8174852,44.320812081208,0,0
-183.65117891518,-230.16154908687,39.125242524252,1251623.6010629,1843.0339127917,2513422.8174852,44.325242524252,0,0
-183.65117881556,-230.19037199141,39.129672967297,1251623.6010629,1843.0339127917,2513422.8174852,44.329672967297,0,0
-183.65117871594,-230.21919489595,39.134103410341,1251623.6010629,1843.0339127917,2513422.8174852,44.334103410341,0,0
-183.65117861633,-230.24801780049,39.138533853385,1251623.6010629,1843.0339127917,2513422.8174852,44.338533853385,0,0
-183.65117851671,-230.27684070502,39.14296429643,1251623.6010629,1843.0339127917,2513422.8174852,44.34296429643,0,0
-183.65117841709,-230.30566360956,39.147394739474,1251623.6010629,1843.0339127917,2513422.8174852,44.347394739474,0,0
-183.65117831748,-230.3344865141,39.151825182518,1251623.6010629,1843.0339127917,2513422.8174852,44.351825182518,0,0
-183.65117821786,-230.36330941864,39.156255625563,1251623.6010629,1843.0339127917,2513422.8174852,44.356255625563,0,0
-183.65117811824,-230.39213232318,39.160686068607,1251623.6010629,1843.0339127917,2513422.8174852,44.360686068607,0,0
-183.65117801863,-230.42095522772,39.165116511651,1251623.6010629,1843.0339127917,2513422.8174852,44.365116511651,0,0
-183.65117791901,-230.44977813225,39.169546954695,1251623.6010629,1843.0339127917,2513422.8174852,44.369546954695,0,0
-183.65117781939,-230.47860103679,39.17397739774,1251623.6010629,1843.0339127917,2513422.8174852,44.37397739774,0,0
-183.65117771977,-230.50742394133,39.178407840784,1251623.6010629,1843.0339127917,2513422.8174852,44.378407840784,0,0
-183.65117762016,-230.53624684587,39.182838283828,1251623.6010629,1843.0339127917,2513422.8174852,44.382838283828,0,0
-183.65117752054,-230.56506975041,39.187268726873,1251623.6010629,1843.0339127917,2513422.8174852,44.387268726873,0,0
-183.65117742092,-230.59389265495,39.191699169917,1251623.6010629,1843.0339127917,2513422.8174852,44.391699169917,0,0
-183.65117732131,-230.62271555949,39.196129612961,1251623.6010629,1843.0339127917,2513422.8174852,44.396129612961,0,0
-183.65117722169,-230.65153846402,39.200560056006,1251623.6010629,1843.0339127917,2513422.8174852,44.400560056006,0,0
-183.65117712207,-230.68036136856,39.20499049905,1251623.6010629,1843.0339127917,2513422.8174852,44.40499049905,0,0
-183.65117702246,-230.7091842731,39.209420942094,1251623.6010629,1843.0339127917,2513422.8174852,44.409420942094,0,0
-183.65117692284,-230.73800717764,39.213851385139,1251623.6010629,1843.0339127917,2513422.8174852,44.413851385139,0,0
-183.65117682322,-230.76683008218,39.218281828183,1251623.6010629,1843.0339127917,2513422.8174852,44.418281828183,0,0
-183.6511767236,-230.79565298672,39.222712271227,1251623.6010629,1843.0339127917,2513422.8174852,44.422712271227,0,0
-183.65117662399,-230.82447589125,39.227142714271,1251623.6010629,1843.0339127917,2513422.8174852,44.427142714271,0,0
-183.65117652437,-230.85329879579,39.231573157316,1251623.6010629,1843.0339127917,2513422.8174852,44.431573157316,0,0
-183.65117642475,-230.88212170033,39.23600360036,1251623.6010629,1843.0339127917,2513422.8174852,44.43600360036,0,0
-183.65117632514,-230.91094460487,39.240434043404,1251623.6010629,1843.0339127917,2513422.8174852,44.440434043404,0,0
-183.65117622552,-230.93976750941,39.244864486449,1251623.6010629,1843.0339127917,2513422.8174852,44.444864486449,0,0
-183.6511761259,-230.96859041395,39.249294929493,1251623.6010629,1843.0339127917,2513422.8174852,44.449294929493,0,0
-183.65117602628,-230.99741331848,39.253725372537,1251623.6010629,1843.0339127917,2513422.8174852,44.453725372537,0,0
-183.65117592667,-231.02623622302,39.258155815582,1251623.6010629,1843.0339127917,2513422.8174852,44.458155815582,0,0
-183.65117582705,-231.05505912756,39.262586258626,1251623.6010629,1843.0339127917,2513422.8174852,44.462586258626,0,0
-183.65117572743,-231.0838820321,39.26701670167,1251623.6010629,1843.0339127917,2513422.8174852,44.46701670167,0,0
-183.65117562782,-231.11270493664,39.271447144714,1251623.6010629,1843.0339127917,2513422.8174852,44.471447144714,0,0
-183.6511755282,-231.14152784118,39.275877587759,1251623.6010629,1843.0339127917,2513422.8174852,44.475877587759,0,0
-183.65117542858,-231.17035074572,39.280308030803,1251623.6010629,1843.0339127917,2513422.8174852,44.480308030803,0,0
-183.65117532897,-231.19917365025,39.284738473847,1251623.6010629,1843.0339127917,2513422.8174852,44.484738473847,0,0
-183.65117522935,-231.22799655479,39.289168916892,1251623.6010629,1843.0339127917,2513422.8174852,44.489168916892,0,0
-183.65117512973,-231.25681945933,39.293599359936,1251623.6010629,1843.0339127917,2513422.8174852,44.493599359936,0,0
-183.65117503011,-231.28564236387,39.29802980298,1251623.6010629,1843.0339127917,2513422.8174852,44.49802980298,0,0
-183.6511749305,-231.31446526841,39.302460246025,1251623.6010629,1843.0339127917,2513422.8174852,44.502460246025,0,0
-183.65117483088,-231.34328817295,39.306890689069,1251623.6010629,1843.0339127917,2513422.8174852,44.506890689069,0,0
-183.65117473126,-231.37211107748,39.311321132113,1251623.6010629,1843.0339127917,2513422.8174852,44.511321132113,0,0
-183.65117463165,-231.40093398202,39.315751575158,1251623.6010629,1843.0339127917,2513422.8174852,44.515751575158,0,0
-183.65117453203,-231.42975688656,39.320182018202,1251623.6010629,1843.0339127917,2513422.8174852,44.520182018202,0,0
-183.65117443241,-231.4585797911,39.324612461246,1251623.6010629,1843.0339127917,2513422.8174852,44.524612461246,0,0
-183.6511743328,-231.48740269564,39.32904290429,1251623.6010629,1843.0339127917,2513422.8174852,44.52904290429,0,0
-183.65117423316,-231.51622560017,39.333473347335,1251697.8293024,-1729.42821564,2512631.5649504,44.533473347335,0,0
-183.65117413351,-231.54504850471,39.337903790379,1251697.8293024,-1729.42821564,2512631.5649504,44.537903790379,0,0
-183.65117403387,-231.57387140925,39.342334233423,1251697.8293024,-1729.42821564,2512631.5649504,44.542334233423,0,0
-183.65117393422,-231.60269431378,39.346764676468,1251697.8293024,-1729.42821564,2512631.5649504,44.546764676468,0,0
-183.65117383458,-231.63151721832,39.351195119512,1251697.8293024,-1729.42821564,2512631.5649504,44.551195119512,0,0
-183.65117373494,-231.66034012285,39.355625562556,1251697.8293024,-1729.42821564,2512631.5649504,44.555625562556,0,0
-183.65117363529,-231.68916302739,39.360056005601,1251697.8293024,-1729.42821564,2512631.5649504,44.560056005601,0,0
-183.65117353565,-231.71798593193,39.364486448645,1251697.8293024,-1729.42821564,2512631.5649504,44.564486448645,0,0
-183.651173436,-231.74680883646,39.368916891689,1251697.8293024,-1729.42821564,2512631.5649504,44.568916891689,0,0
-183.65117333636,-231.775631741,39.373347334733,1251697.8293024,-1729.42821564,2512631.5649504,44.573347334733,0,0
-183.65117323672,-231.80445464554,39.377777777778,1251697.8293024,-1729.42821564,2512631.5649504,44.577777777778,0,0
-183.65117313707,-231.83327755007,39.382208220822,1251697.8293024,-1729.42821564,2512631.5649504,44.582208220822,0,0
-183.65117303743,-231.86210045461,39.386638663866,1251697.8293024,-1729.42821564,2512631.5649504,44.586638663866,0,0
-183.65117293778,-231.89092335914,39.391069106911,1251697.8293024,-1729.42821564,2512631.5649504,44.591069106911,0,0
-183.65117283814,-231.91974626368,39.395499549955,1251697.8293024,-1729.42821564,2512631.5649504,44.595499549955,0,0
-183.6511727385,-231.94856916822,39.399929992999,1251697.8293024,-1729.42821564,2512631.5649504,44.599929992999,0,0
-183.65117263885,-231.97739207275,39.404360436044,1251697.8293024,-1729.42821564,2512631.5649504,44.604360436044,0,0
-183.65117253921,-232.00621497729,39.408790879088,1251697.8293024,-1729.42821564,2512631.5649504,44.608790879088,0,0
-183.65117243956,-232.03503788182,39.413221322132,1251697.8293024,-1729.42821564,2512631.5649504,44.613221322132,0,0
-183.65117233992,-232.06386078636,39.417651765177,1251697.8293024,-1729.42821564,2512631.5649504,44.617651765177,0,0
-183.65117224027,-232.0926836909,39.422082208221,1251697.8293024,-1729.42821564,2512631.5649504,44.622082208221,0,0
-183.65117214063,-232.12150659543,39.426512651265,1251697.8293024,-1729.42821564,2512631.5649504,44.626512651265,0,0
-183.65117204099,-232.15032949997,39.430943094309,1251697.8293024,-1729.42821564,2512631.5649504,44.630943094309,0,0
-183.65117194134,-232.1791524045,39.435373537354,1251697.8293024,-1729.42821564,2512631.5649504,44.635373537354,0,0
-183.6511718417,-232.20797530904,39.439803980398,1251697.8293024,-1729.42821564,2512631.5649504,44.639803980398,0,0
-183.65117174205,-232.23679821358,39.444234423442,1251697.8293024,-1729.42821564,2512631.5649504,44.644234423442,0,0
-183.65117164241,-232.26562111811,39.448664866487,1251697.8293024,-1729.42821564,2512631.5649504,44.648664866487,0,0
-183.65117154277,-232.29444402265,39.453095309531,1251697.8293024,-1729.42821564,2512631.5649504,44.653095309531,0,0
-183.65117144312,-232.32326692719,39.457525752575,1251697.8293024,-1729.42821564,2512631.5649504,44.657525752575,0,0
-183.65117134348,-232.35208983172,39.46195619562,1251697.8293024,-1729.42821564,2512631.5649504,44.66195619562,0,0
-183.65117124383,-232.38091273626,39.466386638664,1251697.8293024,-1729.42821564,2512631.5649504,44.666386638664,0,0
-183.65117114419,-232.40973564079,39.470817081708,1251697.8293024,-1729.42821564,2512631.5649504,44.670817081708,0,0
-183.65117104455,-232.43855854533,39.475247524752,1251697.8293024,-1729.42821564,2512631.5649504,44.675247524752,0,0
-183.6511709449,-232.46738144987,39.479677967797,1251697.8293024,-1729.42821564,2512631.5649504,44.679677967797,0,0
-183.65117084526,-232.4962043544,39.484108410841,1251697.8293024,-1729.42821564,2512631.5649504,44.684108410841,0,0
-183.65117074561,-232.52502725894,39.488538853885,1251697.8293024,-1729.42821564,2512631.5649504,44.688538853885,0,0
-183.65117064597,-232.55385016347,39.49296929693,1251697.8293024,-1729.42821564,2512631.5649504,44.69296929693,0,0
-183.65117054633,-232.58267306801,39.497399739974,1251697.8293024,-1729.42821564,2512631.5649504,44.697399739974,0,0
-183.65117044668,-232.61149597255,39.501830183018,1251697.8293024,-1729.42821564,2512631.5649504,44.701830183018,0,0
-183.65117034704,-232.64031887708,39.506260626063,1251697.8293024,-1729.42821564,2512631.5649504,44.706260626063,0,0
-183.65117024739,-232.66914178162,39.510691069107,1251697.8293024,-1729.42821564,2512631.5649504,44.710691069107,0,0
-183.65117014775,-232.69796468615,39.515121512151,1251697.8293024,-1729.42821564,2512631.5649504,44.715121512151,0,0
-183.65117004811,-232.72678759069,39.519551955196,1251697.8293024,-1729.42821564,2512631.5649504,44.719551955196,0,0
-183.65116994846,-232.75561049523,39.52398239824,1251697.8293024,-1729.42821564,2512631.5649504,44.72398239824,0,0
-183.65116984882,-232.78443339976,39.528412841284,1251697.8293024,-1729.42821564,2512631.5649504,44.728412841284,0,0
-183.65116974917,-232.8132563043,39.532843284328,1251697.8293024,-1729.42821564,2512631.5649504,44.732843284328,0,0
-183.65116964953,-232.84207920884,39.537273727373,1251697.8293024,-1729.42821564,2512631.5649504,44.737273727373,0,0
-183.65116954989,-232.87090211337,39.541704170417,1251697.8293024,-1729.42821564,2512631.5649504,44.741704170417,0,0
-183.65116945024,-232.89972501791,39.546134613461,1251697.8293024,-1729.42821564,2512631.5649504,44.746134613461,0,0
-183.6511693506,-232.92854792244,39.550565056506,1251697.8293024,-1729.42821564,2512631.5649504,44.750565056506,0,0
-183.65116925095,-232.95737082698,39.55499549955,1251697.8293024,-1729.42821564,2512631.5649504,44.75499549955,0,0
-183.65116915131,-232.98619373152,39.559425942594,1251697.8293024,-1729.42821564,2512631.5649504,44.759425942594,0,0
-183.65116905167,-233.01501663605,39.563856385639,1251697.8293024,-1729.42821564,2512631.5649504,44.763856385639,0,0
-183.65116895202,-233.04383954059,39.568286828683,1251697.8293024,-1729.42821564,2512631.5649504,44.768286828683,0,0
-183.65116885238,-233.07266244512,39.572717271727,1251697.8293024,-1729.42821564,2512631.5649504,44.772717271727,0,0
-183.65116875273,-233.10148534966,39.577147714771,1251697.8293024,-1729.42821564,2512631.5649504,44.777147714771,0,0
-183.65116865309,-233.1303082542,39.581578157816,1251697.8293024,-1729.42821564,2512631.5649504,44.781578157816,0,0
-183.65116855345,-233.15913115873,39.58600860086,1251697.8293024,-1729.42821564,2512631.5649504,44.78600860086,0,0
-183.6511684538,-233.18795406327,39.590439043904,1251697.8293024,-1729.42821564,2512631.5649504,44.790439043904,0,0
-183.65116835416,-233.2167769678,39.594869486949,1251697.8293024,-1729.42821564,2512631.5649504,44.794869486949,0,0
-183.65116825451,-233.24559987234,39.599299929993,1251697.8293024,-1729.42821564,2512631.5649504,44.799299929993,0,0
-183.65116815487,-233.27442277688,39.603730373037,1251697.8293024,-1729.42821564,2512631.5649504,44.803730373037,0,0
-183.65116805523,-233.30324568141,39.608160816082,1251697.8293024,-1729.42821564,2512631.5649504,44.808160816082,0,0
-183.65116795558,-233.33206858595,39.612591259126,1251697.8293024,-1729.42821564,2512631.5649504,44.812591259126,0,0
-183.65116785594,-233.36089149049,39.61702170217,1251697.8293024,-1729.42821564,2512631.5649504,44.81702170217,0,0
-183.65116775629,-233.38971439502,39.621452145215,1251697.8293024,-1729.42821564,2512631.5649504,44.821452145215,0,0
-183.65116765665,-233.41853729956,39.625882588259,1251697.8293024,-1729.42821564,2512631.5649504,44.825882588259,0,0
-183.65116755701,-233.44736020409,39.630313031303,1251697.8293024,-1729.42821564,2512631.5649504,44.830313031303,0,0
-183.65116745736,-233.47618310863,39.634743474347,1251697.8293024,-1729.42821564,2512631.5649504,44.834743474347,0,0
-183.65116735772,-233.50500601317,39.639173917392,1251697.8293024,-1729.42821564,2512631.5649504,44.839173917392,0,0
-183.65116725807,-233.5338289177,39.643604360436,1251697.8293024,-1729.42821564,2512631.5649504,44.843604360436,0,0
-183.65116715843,-233.56265182224,39.64803480348,1251697.8293024,-1729.42821564,2512631.5649504,44.84803480348,0,0
-183.65116705879,-233.59147472677,39.652465246525,1251697.8293024,-1729.42821564,2512631.5649504,44.852465246525,0,0
-183.65116695914,-233.62029763131,39.656895689569,1251697.8293024,-1729.42821564,2512631.5649504,44.856895689569,0,0
-183.6511668595,-233.64912053585,39.661326132613,1251697.8293024,-1729.42821564,2512631.5649504,44.861326132613,0,0
-183.65116675985,-233.67794344038,39.665756575658,1251697.8293024,-1729.42821564,2512631.5649504,44.865756575658,0,0
-183.65116666021,-233.70676634492,39.670187018702,1251697.8293024,-1729.42821564,2512631.5649504,44.870187018702,0,0
-183.65116656057,-233.73558924946,39.674617461746,1251697.8293024,-1729.42821564,2512631.5649504,44.874617461746,0,0
-183.65116646092,-233.76441215399,39.67904790479,1251697.8293024,-1729.42821564,2512631.5649504,44.87904790479,0,0
-183.65116636128,-233.79323505853,39.683478347835,1251697.8293024,-1729.42821564,2512631.5649504,44.883478347835,0,0
-183.65116626163,-233.82205796306,39.687908790879,1251697.8293024,-1729.42821564,2512631.5649504,44.887908790879,0,0
-183.65116616199,-233.8508808676,39.692339233923,1251697.8293024,-1729.42821564,2512631.5649504,44.892339233923,0,0
-183.65116606235,-233.87970377214,39.696769676968,1251697.8293024,-1729.42821564,2512631.5649504,44.896769676968,0,0
-183.6511659627,-233.90852667667,39.701200120012,1251697.8293024,-1729.42821564,2512631.5649504,44.901200120012,0,0
-183.65116586306,-233.93734958121,39.705630563056,1251697.8293024,-1729.42821564,2512631.5649504,44.905630563056,0,0
-183.65116576341,-233.96617248574,39.710061006101,1251697.8293024,-1729.42821564,2512631.5649504,44.910061006101,0,0
-183.65116566377,-233.99499539028,39.714491449145,1251697.8293024,-1729.42821564,2512631.5649504,44.914491449145,0,0
-183.65116556413,-234.02381829482,39.718921892189,1251697.8293024,-1729.42821564,2512631.5649504,44.918921892189,0,0
-183.65116546448,-234.05264119935,39.723352335234,1251697.8293024,-1729.42821564,2512631.5649504,44.923352335234,0,0
-183.65116536484,-234.08146410389,39.727782778278,1251697.8293024,-1729.42821564,2512631.5649504,44.927782778278,0,0
-183.65116526519,-234.11028700842,39.732213221322,1251697.8293024,-1729.42821564,2512631.5649504,44.932213221322,0,0
-183.65116516555,-234.13910991296,39.736643664366,1251697.8293024,-1729.42821564,2512631.5649504,44.936643664366,0,0
-183.65116506591,-234.1679328175,39.741074107411,1251697.8293024,-1729.42821564,2512631.5649504,44.941074107411,0,0
-183.65116496626,-234.19675572203,39.745504550455,1251697.8293024,-1729.42821564,2512631.5649504,44.945504550455,0,0
-183.65116486662,-234.22557862657,39.749934993499,1251697.8293024,-1729.42821564,2512631.5649504,44.949934993499,0,0
-183.65116476697,-234.25440153111,39.754365436544,1251697.8293024,-1729.42821564,2512631.5649504,44.954365436544,0,0
-183.65116466733,-234.28322443564,39.758795879588,1251697.8293024,-1729.42821564,2512631.5649504,44.958795879588,0,0
-183.65116456769,-234.31204734018,39.763226322632,1251697.8293024,-1729.42821564,2512631.5649504,44.963226322632,0,0
-183.65116446804,-234.34087024471,39.767656765677,1251697.8293024,-1729.42821564,2512631.5649504,44.967656765677,0,0
-183.6511643684,-234.36969314925,39.772087208721,1251697.8293024,-1729.42821564,2512631.5649504,44.972087208721,0,0
-183.65116426875,-234.39851605379,39.776517651765,1251697.8293024,-1729.42821564,2512631.5649504,44.976517651765,0,0
-183.65116416911,-234.42733895832,39.780948094809,1251697.8293024,-1729.42821564,2512631.5649504,44.980948094809,0,0
-183.65116406947,-234.45616186286,39.785378537854,1251697.8293024,-1729.42821564,2512631.5649504,44.985378537854,0,0
-183.65116396982,-234.48498476739,39.789808980898,1251697.8293024,-1729.42821564,2512631.5649504,44.989808980898,0,0
-183.65116387018,-234.51380767193,39.794239423942,1251697.8293024,-1729.42821564,2512631.5649504,44.994239423942,0,0
-183.65116377053,-234.54263057647,39.798669866987,1251697.8293024,-1729.42821564,2512631.5649504,44.998669866987,0,0
-183.65116367089,-234.571453481,39.803100310031,1251697.8293024,-1729.42821564,2512631.5649504,45.003100310031,0,0
-183.65116357125,-234.60027638554,39.807530753075,1251697.8293024,-1729.42821564,2512631.5649504,45.007530753075,0,0
-183.6511634716,-234.62909929007,39.81196119612,1251697.8293024,-1729.42821564,2512631.5649504,45.01196119612,0,0
-183.65116337196,-234.65792219461,39.816391639164,1251697.8293024,-1729.42821564,2512631.5649504,45.016391639164,0,0
-183.65116327231,-234.68674509915,39.820822082208,1251697.8293024,-1729.42821564,2512631.5649504,45.020822082208,0,0
-183.65116317267,-234.71556800368,39.825252525253,1251697.8293024,-1729.42821564,2512631.5649504,45.025252525253,0,0
-183.65116307303,-234.74439090822,39.829682968297,1251697.8293024,-1729.42821564,2512631.5649504,45.029682968297,0,0
-183.65116297338,-234.77321381276,39.834113411341,1251697.8293024,-1729.42821564,2512631.5649504,45.034113411341,0,0
-183.65116287374,-234.80203671729,39.838543854385,1251697.8293024,-1729.42821564,2512631.5649504,45.038543854385,0,0
-183.65116277409,-234.83085962183,39.84297429743,1251697.8293024,-1729.42821564,2512631.5649504,45.04297429743,0,0
-183.65116267445,-234.85968252636,39.847404740474,1251697.8293024,-1729.42821564,2512631.5649504,45.047404740474,0,0
-183.65116257481,-234.8885054309,39.851835183518,1251697.8293024,-1729.42821564,2512631.5649504,45.051835183518,0,0
-183.65116247516,-234.91732833544,39.856265626563,1251697.8293024,-1729.42821564,2512631.5649504,45.056265626563,0,0
-183.65116237552,-234.94615123997,39.860696069607,1251697.8293024,-1729.42821564,2512631.5649504,45.060696069607,0,0
-183.65116227587,-234.97497414451,39.865126512651,1251697.8293024,-1729.42821564,2512631.5649504,45.065126512651,0,0
-183.65116217623,-235.00379704904,39.869556955696,1251697.8293024,-1729.42821564,2512631.5649504,45.069556955696,0,0
-183.65116207659,-235.03261995358,39.87398739874,1251697.8293024,-1729.42821564,2512631.5649504,45.07398739874,0,0
-183.65116197694,-235.06144285812,39.878417841784,1251697.8293024,-1729.42821564,2512631.5649504,45.078417841784,0,0
-183.6511618773,-235.09026576265,39.882848284828,1251697.8293024,-1729.42821564,2512631.5649504,45.082848284828,0,0
-183.65116177765,-235.11908866719,39.887278727873,1251697.8293024,-1729.42821564,2512631.5649504,45.087278727873,0,0
-183.65116167801,-235.14791157172,39.891709170917,1251697.8293024,-1729.42821564,2512631.5649504,45.091709170917,0,0
-183.65116157837,-235.17673447626,39.896139613961,1251697.8293024,-1729.42821564,2512631.5649504,45.096139613961,0,0
-183.65116147872,-235.2055573808,39.900570057006,1251697.8293024,-1729.42821564,2512631.5649504,45.100570057006,0,0
-183.65116137908,-235.23438028533,39.90500050005,1251697.8293024,-1729.42821564,2512631.5649504,45.10500050005,0,0
-183.65116127943,-235.26320318987,39.909430943094,1251697.8293024,-1729.42821564,2512631.5649504,45.109430943094,0,0
-183.65116117979,-235.29202609441,39.913861386139,1251697.8293024,-1729.42821564,2512631.5649504,45.113861386139,0,0
-183.65116108015,-235.32084899894,39.918291829183,1251697.8293024,-1729.42821564,2512631.5649504,45.118291829183,0,0
-183.6511609805,-235.34967190348,39.922722272227,1251697.8293024,-1729.42821564,2512631.5649504,45.122722272227,0,0
-183.65116088086,-235.37849480801,39.927152715272,1251697.8293024,-1729.42821564,2512631.5649504,45.127152715272,0,0
-183.65116078121,-235.40731771255,39.931583158316,1251697.8293024,-1729.42821564,2512631.5649504,45.131583158316,0,0
-183.65116068157,-235.43614061709,39.93601360136,1251697.8293024,-1729.42821564,2512631.5649504,45.13601360136,0,0
-183.65116058193,-235.46496352162,39.940444044404,1251697.8293024,-1729.42821564,2512631.5649504,45.140444044404,0,0
-183.65116048228,-235.49378642616,39.944874487449,1251697.8293024,-1729.42821564,2512631.5649504,45.144874487449,0,0
-183.65116038264,-235.52260933069,39.949304930493,1251697.8293024,-1729.42821564,2512631.5649504,45.149304930493,0,0
-183.65116028299,-235.55143223523,39.953735373537,1251697.8293024,-1729.42821564,2512631.5649504,45.153735373537,0,0
-183.65116018335,-235.58025513977,39.958165816582,1251697.8293024,-1729.42821564,2512631.5649504,45.158165816582,0,0
-183.6511600837,-235.6090780443,39.962596259626,1251697.8293024,-1729.42821564,2512631.5649504,45.162596259626,0,0
-183.65115998406,-235.63790094884,39.96702670267,1251697.8293024,-1729.42821564,2512631.5649504,45.16702670267,0,0
-183.65115988442,-235.66672385337,39.971457145715,1251697.8293024,-1729.42821564,2512631.5649504,45.171457145715,0,0
-183.65115978477,-235.69554675791,39.975887588759,1251697.8293024,-1729.42821564,2512631.5649504,45.175887588759,0,0
-183.65115968513,-235.72436966245,39.980318031803,1251697.8293024,-1729.42821564,2512631.5649504,45.180318031803,0,0
-183.65115958548,-235.75319256698,39.984748474847,1251697.8293024,-1729.42821564,2512631.5649504,45.184748474847,0,0
-183.65115948584,-235.78201547152,39.989178917892,1251697.8293024,-1729.42821564,2512631.5649504,45.189178917892,0,0
-183.6511593862,-235.81083837606,39.993609360936,1251697.8293024,-1729.42821564,2512631.5649504,45.193609360936,0,0
-183.65115928655,-235.83966128059,39.99803980398,1251697.8293024,-1729.42821564,2512631.5649504,45.19803980398,0,0
-183.65115918691,-235.86848418513,40.002470247025,1251697.8293024,-1729.42821564,2512631.5649504,45.202470247025,0,0
-183.65115908726,-235.89730708966,40.006900690069,1251697.8293024,-1729.42821564,2512631.5649504,45.206900690069,0,0
-183.65115898762,-235.9261299942,40.011331133113,1251697.8293024,-1729.42821564,2512631.5649504,45.211331133113,0,0
-183.65115888798,-235.95495289874,40.015761576158,1251697.8293024,-1729.42821564,2512631.5649504,45.215761576158,0,0
-183.65115878833,-235.98377580327,40.020192019202,1251697.8293024,-1729.42821564,2512631.5649504,45.220192019202,0,0
-183.65115868869,-236.01259870781,40.024622462246,1251697.8293024,-1729.42821564,2512631.5649504,45.224622462246,0,0
-183.65115858904,-236.04142161234,40.029052905291,1251697.8293024,-1729.42821564,2512631.5649504,45.229052905291,0,0
-183.6511584894,-236.07024451688,40.033483348335,1251697.8293024,-1729.42821564,2512631.5649504,45.233483348335,0,0
-183.65115838976,-236.09906742142,40.037913791379,1251697.8293024,-1729.42821564,2512631.5649504,45.237913791379,0,0
-183.65115829011,-236.12789032595,40.042344234423,1251697.8293024,-1729.42821564,2512631.5649504,45.242344234423,0,0
-183.65115819047,-236.15671323049,40.046774677468,1251697.8293024,-1729.42821564,2512631.5649504,45.246774677468,0,0
-183.65115809082,-236.18553613502,40.051205120512,1251697.8293024,-1729.42821564,2512631.5649504,45.251205120512,0,0
-183.65115799118,-236.21435903956,40.055635563556,1251697.8293024,-1729.42821564,2512631.5649504,45.255635563556,0,0
-183.65115789154,-236.2431819441,40.060066006601,1251697.8293024,-1729.42821564,2512631.5649504,45.260066006601,0,0
-183.65115779189,-236.27200484863,40.064496449645,1251697.8293024,-1729.42821564,2512631.5649504,45.264496449645,0,0
-183.65115769225,-236.30082775317,40.068926892689,1251697.8293024,-1729.42821564,2512631.5649504,45.268926892689,0,0
-183.6511575926,-236.32965065771,40.073357335734,1251697.8293024,-1729.42821564,2512631.5649504,45.273357335734,0,0
-183.65115749296,-236.35847356224,40.077787778778,1251697.8293024,-1729.42821564,2512631.5649504,45.277787778778,0,0
-183.65115739332,-236.38729646678,40.082218221822,1251697.8293024,-1729.42821564,2512631.5649504,45.282218221822,0,0
-183.65115729367,-236.41611937131,40.086648664866,1251697.8293024,-1729.42821564,2512631.5649504,45.286648664866,0,0
-183.65115719403,-236.44494227585,40.091079107911,1251697.8293024,-1729.42821564,2512631.5649504,45.291079107911,0,0
-183.65115709438,-236.47376518039,40.095509550955,1251697.8293024,-1729.42821564,2512631.5649504,45.295509550955,0,0
-183.65115699474,-236.50258808492,40.099939993999,1251697.8293024,-1729.42821564,2512631.5649504,45.299939993999,0,0
-183.6511568951,-236.53141098946,40.104370437044,1251697.8293024,-1729.42821564,2512631.5649504,45.304370437044,0,0
-183.65115679545,-236.56023389399,40.108800880088,1251697.8293024,-1729.42821564,2512631.5649504,45.308800880088,0,0
-183.65115669581,-236.58905679853,40.113231323132,1251697.8293024,-1729.42821564,2512631.5649504,45.313231323132,0,0
-183.65115659616,-236.61787970307,40.117661766177,1251697.8293024,-1729.42821564,2512631.5649504,45.317661766177,0,0
-183.65115649652,-236.6467026076,40.122092209221,1251697.8293024,-1729.42821564,2512631.5649504,45.322092209221,0,0
-183.65115639688,-236.67552551214,40.126522652265,1251697.8293024,-1729.42821564,2512631.5649504,45.326522652265,0,0
-183.65115629723,-236.70434841667,40.13095309531,1251697.8293024,-1729.42821564,2512631.5649504,45.33095309531,0,0
-183.65115619759,-236.73317132121,40.135383538354,1251697.8293024,-1729.42821564,2512631.5649504,45.335383538354,0,0
-183.65115609794,-236.76199422575,40.139813981398,1251697.8293024,-1729.42821564,2512631.5649504,45.339813981398,0,0
-183.6511559983,-236.79081713028,40.144244424442,1251697.8293024,-1729.42821564,2512631.5649504,45.344244424442,0,0
-183.65115589866,-236.81964003482,40.148674867487,1251697.8293024,-1729.42821564,2512631.5649504,45.348674867487,0,0
-183.65115579901,-236.84846293936,40.153105310531,1251697.8293024,-1729.42821564,2512631.5649504,45.353105310531,0,0
-183.65115569937,-236.87728584389,40.157535753575,1251697.8293024,-1729.42821564,2512631.5649504,45.357535753575,0,0
-183.65115559972,-236.90610874843,40.16196619662,1251697.8293024,-1729.42821564,2512631.5649504,45.36196619662,0,0
-183.65115550008,-236.93493165296,40.166396639664,1251697.8293024,-1729.42821564,2512631.5649504,45.366396639664,0,0
-183.65115540044,-236.9637545575,40.170827082708,1251697.8293024,-1729.42821564,2512631.5649504,45.370827082708,0,0
-183.65115530079,-236.99257746204,40.175257525753,1251697.8293024,-1729.42821564,2512631.5649504,45.375257525753,0,0
-183.65115520115,-237.02140036657,40.179687968797,1251697.8293024,-1729.42821564,2512631.5649504,45.379687968797,0,0
-183.6511551015,-237.05022327111,40.184118411841,1251697.8293024,-1729.42821564,2512631.5649504,45.384118411841,0,0
-183.65115500186,-237.07904617564,40.188548854885,1251697.8293024,-1729.42821564,2512631.5649504,45.388548854885,0,0
-183.65115490222,-237.10786908018,40.19297929793,1251697.8293024,-1729.42821564,2512631.5649504,45.39297929793,0,0
-183.65115480257,-237.13669198472,40.197409740974,1251697.8293024,-1729.42821564,2512631.5649504,45.397409740974,0,0
-183.65115470293,-237.16551488925,40.201840184018,1251697.8293024,-1729.42821564,2512631.5649504,45.401840184018,0,0
-183.65115460328,-237.19433779379,40.206270627063,1251697.8293024,-1729.42821564,2512631.5649504,45.406270627063,0,0
-183.65115450364,-237.22316069832,40.210701070107,1251697.8293024,-1729.42821564,2512631.5649504,45.410701070107,0,0
-183.651154404,-237.25198360286,40.215131513151,1251697.8293024,-1729.42821564,2512631.5649504,45.415131513151,0,0
-183.65115430435,-237.2808065074,40.219561956196,1251697.8293024,-1729.42821564,2512631.5649504,45.419561956196,0,0
-183.65115420471,-237.30962941193,40.22399239924,1251697.8293024,-1729.42821564,2512631.5649504,45.42399239924,0,0
-183.65115410506,-237.33845231647,40.228422842284,1251697.8293024,-1729.42821564,2512631.5649504,45.428422842284,0,0
-183.65115400542,-237.36727522101,40.232853285329,1251697.8293024,-1729.42821564,2512631.5649504,45.432853285329,0,0
-183.65115390578,-237.39609812554,40.237283728373,1251697.8293024,-1729.42821564,2512631.5649504,45.437283728373,0,0
-183.65115380613,-237.42492103008,40.241714171417,1251697.8293024,-1729.42821564,2512631.5649504,45.441714171417,0,0
-183.65115370649,-237.45374393461,40.246144614461,1251697.8293024,-1729.42821564,2512631.5649504,45.446144614461,0,0
-183.65115360684,-237.48256683915,40.250575057506,1251697.8293024,-1729.42821564,2512631.5649504,45.450575057506,0,0
-183.6511535072,-237.51138974369,40.25500550055,1251697.8293024,-1729.42821564,2512631.5649504,45.45500550055,0,0
-183.65115340756,-237.54021264822,40.259435943594,1251697.8293024,-1729.42821564,2512631.5649504,45.459435943594,0,0
-183.65115330791,-237.56903555276,40.263866386639,1251697.8293024,-1729.42821564,2512631.5649504,45.463866386639,0,0
-183.65115320827,-237.59785845729,40.268296829683,1251697.8293024,-1729.42821564,2512631.5649504,45.468296829683,0,0
-183.65115310862,-237.62668136183,40.272727272727,1251697.8293024,-1729.42821564,2512631.5649504,45.472727272727,0,0
-183.65115300898,-237.65550426637,40.277157715772,1251697.8293024,-1729.42821564,2512631.5649504,45.477157715772,0,0
-183.65115290934,-237.6843271709,40.281588158816,1251697.8293024,-1729.42821564,2512631.5649504,45.481588158816,0,0
-183.65115280969,-237.71315007544,40.28601860186,1251697.8293024,-1729.42821564,2512631.5649504,45.48601860186,0,0
-183.65115271005,-237.74197297997,40.290449044904,1251697.8293024,-1729.42821564,2512631.5649504,45.490449044904,0,0
-183.6511526104,-237.77079588451,40.294879487949,1251697.8293024,-1729.42821564,2512631.5649504,45.494879487949,0,0
-183.65115251076,-237.79961878905,40.299309930993,1251697.8293024,-1729.42821564,2512631.5649504,45.499309930993,0,0
-183.65115241112,-237.82844169358,40.303740374037,1251697.8293024,-1729.42821564,2512631.5649504,45.503740374037,0,0
-183.65115231147,-237.85726459812,40.308170817082,1251697.8293024,-1729.42821564,2512631.5649504,45.508170817082,0,0
-183.65115221183,-237.88608750266,40.312601260126,1251697.8293024,-1729.42821564,2512631.5649504,45.512601260126,0,0
-183.65115211218,-237.91491040719,40.31703170317,1251697.8293024,-1729.42821564,2512631.5649504,45.51703170317,0,0
-183.65115201254,-237.94373331173,40.321462146215,1251697.8293024,-1729.42821564,2512631.5649504,45.521462146215,0,0
-183.6511519129,-237.97255621626,40.325892589259,1251697.8293024,-1729.42821564,2512631.5649504,45.525892589259,0,0
-183.65115181325,-238.0013791208,40.330323032303,1251697.8293024,-1729.42821564,2512631.5649504,45.530323032303,0,0
-183.65115171361,-238.03020202534,40.334753475348,1251697.8293024,-1729.42821564,2512631.5649504,45.534753475348,0,0
-183.65115161396,-238.05902492987,40.339183918392,1251697.8293024,-1729.42821564,2512631.5649504,45.539183918392,0,0
-183.65115151432,-238.08784783441,40.343614361436,1251697.8293024,-1729.42821564,2512631.5649504,45.543614361436,0,0
-183.65115141468,-238.11667073894,40.34804480448,1251697.8293024,-1729.42821564,2512631.5649504,45.54804480448,0,0
-183.65115131503,-238.14549364348,40.352475247525,1251697.8293024,-1729.42821564,2512631.5649504,45.552475247525,0,0
-183.65115121539,-238.17431654802,40.356905690569,1251697.8293024,-1729.42821564,2512631.5649504,45.556905690569,0,0
-183.65115111574,-238.20313945255,40.361336133613,1251697.8293024,-1729.42821564,2512631.5649504,45.561336133613,0,0
-183.6511510161,-238.23196235709,40.365766576658,1251697.8293024,-1729.42821564,2512631.5649504,45.565766576658,0,0
-183.65115091646,-238.26078526163,40.370197019702,1251697.8293024,-1729.42821564,2512631.5649504,45.570197019702,0,0
-183.65115081681,-238.28960816616,40.374627462746,1251697.8293024,-1729.42821564,2512631.5649504,45.574627462746,0,0
-183.65115071717,-238.3184310707,40.379057905791,1251697.8293024,-1729.42821564,2512631.5649504,45.579057905791,0,0
-183.65115061752,-238.34725397523,40.383488348835,1251697.8293024,-1729.42821564,2512631.5649504,45.583488348835,0,0
-183.65115051788,-238.37607687977,40.387918791879,1251697.8293024,-1729.42821564,2512631.5649504,45.587918791879,0,0
-183.65115041824,-238.40489978431,40.392349234923,1251697.8293024,-1729.42821564,2512631.5649504,45.592349234923,0,0
-183.65115031859,-238.43372268884,40.396779677968,1251697.8293024,-1729.42821564,2512631.5649504,45.596779677968,0,0
-183.65115021895,-238.46254559338,40.401210121012,1251697.8293024,-1729.42821564,2512631.5649504,45.601210121012,0,0
-183.6511501193,-238.49136849791,40.405640564056,1251697.8293024,-1729.42821564,2512631.5649504,45.605640564056,0,0
-183.65115001966,-238.52019140245,40.410071007101,1251697.8293024,-1729.42821564,2512631.5649504,45.610071007101,0,0
-183.65114992002,-238.54901430699,40.414501450145,1251697.8293024,-1729.42821564,2512631.5649504,45.614501450145,0,0
-183.65114982037,-238.57783721152,40.418931893189,1251697.8293024,-1729.42821564,2512631.5649504,45.618931893189,0,0
-183.65114972073,-238.60666011606,40.423362336234,1251697.8293024,-1729.42821564,2512631.5649504,45.623362336234,0,0
-183.65114962108,-238.63548302059,40.427792779278,1251697.8293024,-1729.42821564,2512631.5649504,45.627792779278,0,0
-183.65114952144,-238.66430592513,40.432223222322,1251697.8293024,-1729.42821564,2512631.5649504,45.632223222322,0,0
-183.6511494218,-238.69312882967,40.436653665367,1251697.8293024,-1729.42821564,2512631.5649504,45.636653665367,0,0
-183.65114932215,-238.7219517342,40.441084108411,1251697.8293024,-1729.42821564,2512631.5649504,45.641084108411,0,0
-183.65114922251,-238.75077463874,40.445514551455,1251697.8293024,-1729.42821564,2512631.5649504,45.645514551455,0,0
-183.65114912286,-238.77959754328,40.449944994499,1251697.8293024,-1729.42821564,2512631.5649504,45.649944994499,0,0
-183.65114902322,-238.80842044781,40.454375437544,1251697.8293024,-1729.42821564,2512631.5649504,45.654375437544,0,0
-183.65114892358,-238.83724335235,40.458805880588,1251697.8293024,-1729.42821564,2512631.5649504,45.658805880588,0,0
-183.65114882393,-238.86606625688,40.463236323632,1251697.8293024,-1729.42821564,2512631.5649504,45.663236323632,0,0
-183.65114872429,-238.89488916142,40.467666766677,1251697.8293024,-1729.42821564,2512631.5649504,45.667666766677,0,0
-183.65114862464,-238.92371206596,40.472097209721,1251697.8293024,-1729.42821564,2512631.5649504,45.672097209721,0,0
-183.651148525,-238.95253497049,40.476527652765,1251697.8293024,-1729.42821564,2512631.5649504,45.676527652765,0,0
-183.65114842535,-238.98135787503,40.48095809581,1251697.8293024,-1729.42821564,2512631.5649504,45.68095809581,0,0
-183.65114832571,-239.01018077956,40.485388538854,1251697.8293024,-1729.42821564,2512631.5649504,45.685388538854,0,0
-183.65114822607,-239.0390036841,40.489818981898,1251697.8293024,-1729.42821564,2512631.5649504,45.689818981898,0,0
-183.65114812642,-239.06782658864,40.494249424942,1251697.8293024,-1729.42821564,2512631.5649504,45.694249424942,0,0
-183.65114802678,-239.09664949317,40.498679867987,1251697.8293024,-1729.42821564,2512631.5649504,45.698679867987,0,0
-183.65114792713,-239.12547239771,40.503110311031,1251697.8293024,-1729.42821564,2512631.5649504,45.703110311031,0,0
-183.65114782749,-239.15429530224,40.507540754075,1251697.8293024,-1729.42821564,2512631.5649504,45.707540754075,0,0
-183.65114772785,-239.18311820678,40.51197119712,1251697.8293024,-1729.42821564,2512631.5649504,45.71197119712,0,0
-183.6511476282,-239.21194111132,40.516401640164,1251697.8293024,-1729.42821564,2512631.5649504,45.716401640164,0,0
-183.65114752856,-239.24076401585,40.520832083208,1251697.8293024,-1729.42821564,2512631.5649504,45.720832083208,0,0
-183.65114742891,-239.26958692039,40.525262526253,1251697.8293024,-1729.42821564,2512631.5649504,45.725262526253,0,0
-183.65114732927,-239.29840982493,40.529692969297,1251697.8293024,-1729.42821564,2512631.5649504,45.729692969297,0,0
-183.65114722963,-239.32723272946,40.534123412341,1251697.8293024,-1729.42821564,2512631.5649504,45.734123412341,0,0
-183.65114712998,-239.356055634,40.538553855386,1251697.8293024,-1729.42821564,2512631.5649504,45.738553855386,0,0
-183.65114703034,-239.38487853853,40.54298429843,1251697.8293024,-1729.42821564,2512631.5649504,45.74298429843,0,0
-183.65114693069,-239.41370144307,40.547414741474,1251697.8293024,-1729.42821564,2512631.5649504,45.747414741474,0,0
-183.65114683105,-239.44252434761,40.551845184518,1251697.8293024,-1729.42821564,2512631.5649504,45.751845184518,0,0
-183.65114673141,-239.47134725214,40.556275627563,1251697.8293024,-1729.42821564,2512631.5649504,45.756275627563,0,0
-183.65114663176,-239.50017015668,40.560706070607,1251697.8293024,-1729.42821564,2512631.5649504,45.760706070607,0,0
-183.65114653212,-239.52899306121,40.565136513651,1251697.8293024,-1729.42821564,2512631.5649504,45.765136513651,0,0
-183.65114643247,-239.55781596575,40.569566956696,1251697.8293024,-1729.42821564,2512631.5649504,45.769566956696,0,0
-183.65114633283,-239.58663887029,40.57399739974,1251697.8293024,-1729.42821564,2512631.5649504,45.77399739974,0,0
-183.65114623319,-239.61546177482,40.578427842784,1251697.8293024,-1729.42821564,2512631.5649504,45.778427842784,0,0
-183.65114613354,-239.64428467936,40.582858285829,1251697.8293024,-1729.42821564,2512631.5649504,45.782858285829,0,0
-183.6511460339,-239.67310758389,40.587288728873,1251697.8293024,-1729.42821564,2512631.5649504,45.787288728873,0,0
-183.65114593425,-239.70193048843,40.591719171917,1251697.8293024,-1729.42821564,2512631.5649504,45.791719171917,0,0
-183.65114583461,-239.73075339297,40.596149614961,1251697.8293024,-1729.42821564,2512631.5649504,45.796149614961,0,0
-183.65114573497,-239.7595762975,40.600580058006,1251697.8293024,-1729.42821564,2512631.5649504,45.800580058006,0,0
-183.65114563532,-239.78839920204,40.60501050105,1251697.8293024,-1729.42821564,2512631.5649504,45.80501050105,0,0
-183.65114553568,-239.81722210658,40.609440944094,1251697.8293024,-1729.42821564,2512631.5649504,45.809440944094,0,0
-183.65114543603,-239.84604501111,40.613871387139,1251697.8293024,-1729.42821564,2512631.5649504,45.813871387139,0,0
-183.65114533639,-239.87486791565,40.618301830183,1251697.8293024,-1729.42821564,2512631.5649504,45.818301830183,0,0
-183.65114523675,-239.90369082018,40.622732273227,1251697.8293024,-1729.42821564,2512631.5649504,45.822732273227,0,0
-183.6511451371,-239.93251372472,40.627162716272,1251697.8293024,-1729.42821564,2512631.5649504,45.827162716272,0,0
-183.65114503746,-239.96133662926,40.631593159316,1251697.8293024,-1729.42821564,2512631.5649504,45.831593159316,0,0
-183.65114493781,-239.99015953379,40.63602360236,1251697.8293024,-1729.42821564,2512631.5649504,45.83602360236,0,0
-183.65114483817,-240.01898243833,40.640454045405,1251697.8293024,-1729.42821564,2512631.5649504,45.840454045405,0,0
-183.65114473853,-240.04780534286,40.644884488449,1251697.8293024,-1729.42821564,2512631.5649504,45.844884488449,0,0
-183.65114463888,-240.0766282474,40.649314931493,1251697.8293024,-1729.42821564,2512631.5649504,45.849314931493,0,0
-183.65114453924,-240.10545115194,40.653745374537,1251697.8293024,-1729.42821564,2512631.5649504,45.853745374537,0,0
-183.65114443959,-240.13427405647,40.658175817582,1251697.8293024,-1729.42821564,2512631.5649504,45.858175817582,0,0
-183.65114433995,-240.16309696101,40.662606260626,1251697.8293024,-1729.42821564,2512631.5649504,45.862606260626,0,0
-183.65114424031,-240.19191986554,40.66703670367,1251697.8293024,-1729.42821564,2512631.5649504,45.86703670367,0,0
-183.65114414066,-240.22074277008,40.671467146715,1251697.8293024,-1729.42821564,2512631.5649504,45.871467146715,0,0
-183.65114404102,-240.24956567462,40.675897589759,1251697.8293024,-1729.42821564,2512631.5649504,45.875897589759,0,0
-183.65114394137,-240.27838857915,40.680328032803,1251697.8293024,-1729.42821564,2512631.5649504,45.880328032803,0,0
-183.65114384173,-240.30721148369,40.684758475848,1251697.8293024,-1729.42821564,2512631.5649504,45.884758475848,0,0
-183.65114374209,-240.33603438823,40.689188918892,1251697.8293024,-1729.42821564,2512631.5649504,45.889188918892,0,0
-183.65114364244,-240.36485729276,40.693619361936,1251697.8293024,-1729.42821564,2512631.5649504,45.893619361936,0,0
-183.6511435428,-240.3936801973,40.69804980498,1251697.8293024,-1729.42821564,2512631.5649504,45.89804980498,0,0
-183.65114344315,-240.42250310183,40.702480248025,1251697.8293024,-1729.42821564,2512631.5649504,45.902480248025,0,0
-183.65114334351,-240.45132600637,40.706910691069,1251697.8293024,-1729.42821564,2512631.5649504,45.906910691069,0,0
-183.65114324387,-240.48014891091,40.711341134113,1251697.8293024,-1729.42821564,2512631.5649504,45.911341134113,0,0
-183.65114314422,-240.50897181544,40.715771577158,1251697.8293024,-1729.42821564,2512631.5649504,45.915771577158,0,0
-183.65114304458,-240.53779471998,40.720202020202,1251697.8293024,-1729.42821564,2512631.5649504,45.920202020202,0,0
-183.65114294493,-240.56661762451,40.724632463246,1251697.8293024,-1729.42821564,2512631.5649504,45.924632463246,0,0
-183.65114284529,-240.59544052905,40.729062906291,1251697.8293024,-1729.42821564,2512631.5649504,45.929062906291,0,0
-183.65114274565,-240.62426343359,40.733493349335,1251697.8293024,-1729.42821564,2512631.5649504,45.933493349335,0,0
-183.651142646,-240.65308633812,40.737923792379,1251697.8293024,-1729.42821564,2512631.5649504,45.937923792379,0,0
-183.65114254636,-240.68190924266,40.742354235424,1251697.8293024,-1729.42821564,2512631.5649504,45.942354235424,0,0
-183.65114244671,-240.71073214719,40.746784678468,1251697.8293024,-1729.42821564,2512631.5649504,45.946784678468,0,0
-183.65114234707,-240.73955505173,40.751215121512,1251697.8293024,-1729.42821564,2512631.5649504,45.951215121512,0,0
-183.65114224743,-240.76837795627,40.755645564556,1251697.8293024,-1729.42821564,2512631.5649504,45.955645564556,0,0
-183.65114214778,-240.7972008608,40.760076007601,1251697.8293024,-1729.42821564,2512631.5649504,45.960076007601,0,0
-183.65114204814,-240.82602376534,40.764506450645,1251697.8293024,-1729.42821564,2512631.5649504,45.964506450645,0,0
-183.65114194849,-240.85484666988,40.768936893689,1251697.8293024,-1729.42821564,2512631.5649504,45.968936893689,0,0
-183.65114184885,-240.88366957441,40.773367336734,1251697.8293024,-1729.42821564,2512631.5649504,45.973367336734,0,0
-183.65114174921,-240.91249247895,40.777797779778,1251697.8293024,-1729.42821564,2512631.5649504,45.977797779778,0,0
-183.65114164956,-240.94131538348,40.782228222822,1251697.8293024,-1729.42821564,2512631.5649504,45.982228222822,0,0
-183.65114154992,-240.97013828802,40.786658665867,1251697.8293024,-1729.42821564,2512631.5649504,45.986658665867,0,0
-183.65114145027,-240.99896119256,40.791089108911,1251697.8293024,-1729.42821564,2512631.5649504,45.991089108911,0,0
-183.65114135063,-241.02778409709,40.795519551955,1251697.8293024,-1729.42821564,2512631.5649504,45.995519551955,0,0
-183.65114125099,-241.05660700163,40.799949994999,1251697.8293024,-1729.42821564,2512631.5649504,45.999949994999,0,0
-183.65114115134,-241.08542990616,40.804380438044,1251697.8293024,-1729.42821564,2512631.5649504,46.004380438044,0,0
-183.6511410517,-241.1142528107,40.808810881088,1251697.8293024,-1729.42821564,2512631.5649504,46.008810881088,0,0
-183.65114095205,-241.14307571524,40.813241324132,1251697.8293024,-1729.42821564,2512631.5649504,46.013241324132,0,0
-183.65114085241,-241.17189861977,40.817671767177,1251697.8293024,-1729.42821564,2512631.5649504,46.017671767177,0,0
-183.65114075277,-241.20072152431,40.822102210221,1251697.8293024,-1729.42821564,2512631.5649504,46.022102210221,0,0
-183.65114065312,-241.22954442884,40.826532653265,1251697.8293024,-1729.42821564,2512631.5649504,46.026532653265,0,0
-183.65114055348,-241.25836733338,40.83096309631,1251697.8293024,-1729.42821564,2512631.5649504,46.03096309631,0,0
-183.65114045383,-241.28719023792,40.835393539354,1251697.8293024,-1729.42821564,2512631.5649504,46.035393539354,0,0
-183.65114035419,-241.31601314245,40.839823982398,1251697.8293024,-1729.42821564,2512631.5649504,46.039823982398,0,0
-183.65114025455,-241.34483604699,40.844254425443,1251697.8293024,-1729.42821564,2512631.5649504,46.044254425443,0,0
-183.6511401549,-241.37365895153,40.848684868487,1251697.8293024,-1729.42821564,2512631.5649504,46.048684868487,0,0
-183.65114005526,-241.40248185606,40.853115311531,1251697.8293024,-1729.42821564,2512631.5649504,46.053115311531,0,0
-183.65113995561,-241.4313047606,40.857545754575,1251697.8293024,-1729.42821564,2512631.5649504,46.057545754575,0,0
-183.65113985597,-241.46012766513,40.86197619762,1251697.8293024,-1729.42821564,2512631.5649504,46.06197619762,0,0
-183.65113975633,-241.48895056967,40.866406640664,1251697.8293024,-1729.42821564,2512631.5649504,46.066406640664,0,0
-183.65113965668,-241.51777347421,40.870837083708,1251697.8293024,-1729.42821564,2512631.5649504,46.070837083708,0,0
-183.65113955704,-241.54659637874,40.875267526753,1251697.8293024,-1729.42821564,2512631.5649504,46.075267526753,0,0
-183.65113945739,-241.57541928328,40.879697969797,1251697.8293024,-1729.42821564,2512631.5649504,46.079697969797,0,0
-183.65113935775,-241.60424218781,40.884128412841,1251697.8293024,-1729.42821564,2512631.5649504,46.084128412841,0,0
-183.65113925811,-241.63306509235,40.888558855886,1251697.8293024,-1729.42821564,2512631.5649504,46.088558855886,0,0
-183.6511391585,-241.66188799667,40.89298929893,1249905.4351269,603.28759900578,2510077.1544817,46.09298929893,0,0
-183.65113905893,-241.69071090073,40.897419741974,1249905.4351269,603.28759900578,2510077.1544817,46.097419741974,0,0
-183.65113895936,-241.7195338048,40.901850185018,1249905.4351269,603.28759900578,2510077.1544817,46.101850185018,0,0
-183.65113885979,-241.74835670886,40.906280628063,1249905.4351269,603.28759900578,2510077.1544817,46.106280628063,0,0
-183.65113876022,-241.77717961293,40.910711071107,1249905.4351269,603.28759900578,2510077.1544817,46.110711071107,0,0
-183.65113866065,-241.80600251699,40.915141514151,1249905.4351269,603.28759900578,2510077.1544817,46.115141514151,0,0
-183.65113856108,-241.83482542105,40.919571957196,1249905.4351269,603.28759900578,2510077.1544817,46.119571957196,0,0
-183.65113846151,-241.86364832512,40.92400240024,1249905.4351269,603.28759900578,2510077.1544817,46.12400240024,0,0
-183.65113836195,-241.89247122918,40.928432843284,1249905.4351269,603.28759900578,2510077.1544817,46.128432843284,0,0
-183.65113826238,-241.92129413325,40.932863286329,1249905.4351269,603.28759900578,2510077.1544817,46.132863286329,0,0
-183.65113816281,-241.95011703731,40.937293729373,1249905.4351269,603.28759900578,2510077.1544817,46.137293729373,0,0
-183.65113806324,-241.97893994137,40.941724172417,1249905.4351269,603.28759900578,2510077.1544817,46.141724172417,0,0
-183.65113796367,-242.00776284544,40.946154615462,1249905.4351269,603.28759900578,2510077.1544817,46.146154615462,0,0
-183.6511378641,-242.0365857495,40.950585058506,1249905.4351269,603.28759900578,2510077.1544817,46.150585058506,0,0
-183.65113776453,-242.06540865357,40.95501550155,1249905.4351269,603.28759900578,2510077.1544817,46.15501550155,0,0
-183.65113766496,-242.09423155763,40.959445944594,1249905.4351269,603.28759900578,2510077.1544817,46.159445944594,0,0
-183.65113756539,-242.1230544617,40.963876387639,1249905.4351269,603.28759900578,2510077.1544817,46.163876387639,0,0
-183.65113746583,-242.15187736576,40.968306830683,1249905.4351269,603.28759900578,2510077.1544817,46.168306830683,0,0
-183.65113736626,-242.18070026982,40.972737273727,1249905.4351269,603.28759900578,2510077.1544817,46.172737273727,0,0
-183.65113726643,-242.20952317422,40.977167716772,1252269.4705825,352.71519351447,2504496.2866406,46.177167716772,0,0
-183.65113716652,-242.23834607873,40.981598159816,1252269.4705825,352.71519351447,2504496.2866406,46.181598159816,0,0
-183.65113706662,-242.26716898324,40.98602860286,1252269.4705825,352.71519351447,2504496.2866406,46.18602860286,0,0
-183.65113696671,-242.29599188774,40.990459045905,1252269.4705825,352.71519351447,2504496.2866406,46.190459045905,0,0
-183.65113686681,-242.32481479225,40.994889488949,1252269.4705825,352.71519351447,2504496.2866406,46.194889488949,0,0
-183.6511367669,-242.35363769675,40.999319931993,1252269.4705825,352.71519351447,2504496.2866406,46.199319931993,0,0
-183.65113666699,-242.38246060126,41.003750375037,1252269.4705825,352.71519351447,2504496.2866406,46.203750375038,0,0
-183.65113656709,-242.41128350577,41.008180818082,1252269.4705825,352.71519351447,2504496.2866406,46.208180818082,0,0
-183.65113646718,-242.44010641027,41.012611261126,1252269.4705825,352.71519351447,2504496.2866406,46.212611261126,0,0
-183.65113636727,-242.46892931478,41.01704170417,1252269.4705825,352.71519351447,2504496.2866406,46.21704170417,0,0
-183.65113626737,-242.49775221928,41.021472147215,1252269.4705825,352.71519351447,2504496.2866406,46.221472147215,0,0
-183.65113616746,-242.52657512379,41.025902590259,1252269.4705825,352.71519351447,2504496.2866406,46.225902590259,0,0
-183.65113606756,-242.5553980283,41.030333033303,1252269.4705825,352.71519351447,2504496.2866406,46.230333033303,0,0
-183.65113596765,-242.5842209328,41.034763476348,1252269.4705825,352.71519351447,2504496.2866406,46.234763476348,0,0
-183.65113586774,-242.61304383731,41.039193919392,1252269.4705825,352.71519351447,2504496.2866406,46.239193919392,0,0
-183.65113576784,-242.64186674181,41.043624362436,1252269.4705825,352.71519351447,2504496.2866406,46.243624362436,0,0
-183.65113566793,-242.67068964632,41.048054805481,1252269.4705825,352.71519351447,2504496.2866406,46.248054805481,0,0
-183.65113556802,-242.69951255083,41.052485248525,1252269.4705825,352.71519351447,2504496.2866406,46.252485248525,0,0
-183.65113546812,-242.72833545533,41.056915691569,1252269.4705825,352.71519351447,2504496.2866406,46.256915691569,0,0
-183.65113536821,-242.75715835984,41.061346134613,1252269.4705825,352.71519351447,2504496.2866406,46.261346134613,0,0
-183.6511352683,-242.78598126434,41.065776577658,1252269.4705825,352.71519351447,2504496.2866406,46.265776577658,0,0
-183.6511351684,-242.81480416885,41.070207020702,1252269.4705825,352.71519351447,2504496.2866406,46.270207020702,0,0
-183.65113506849,-242.84362707336,41.074637463746,1252269.4705825,352.71519351447,2504496.2866406,46.274637463746,0,0
-183.65113496859,-242.87244997786,41.079067906791,1252269.4705825,352.71519351447,2504496.2866406,46.279067906791,0,0
-183.65113486868,-242.90127288237,41.083498349835,1252269.4705825,352.71519351447,2504496.2866406,46.283498349835,0,0
-183.65113476877,-242.93009578687,41.087928792879,1252269.4705825,352.71519351447,2504496.2866406,46.287928792879,0,0
-183.65113466887,-242.95891869138,41.092359235924,1252269.4705825,352.71519351447,2504496.2866406,46.292359235924,0,0
-183.65113456896,-242.98774159589,41.096789678968,1252269.4705825,352.71519351447,2504496.2866406,46.296789678968,0,0
-183.65113446905,-243.01656450039,41.101220122012,1252269.4705825,352.71519351447,2504496.2866406,46.301220122012,0,0
-183.65113436915,-243.0453874049,41.105650565057,1252269.4705825,352.71519351447,2504496.2866406,46.305650565057,0,0
-183.65113426924,-243.0742103094,41.110081008101,1252269.4705825,352.71519351447,2504496.2866406,46.310081008101,0,0
-183.65113416934,-243.10303321391,41.114511451145,1252269.4705825,352.71519351447,2504496.2866406,46.314511451145,0,0
-183.65113406943,-243.13185611842,41.118941894189,1252269.4705825,352.71519351447,2504496.2866406,46.318941894189,0,0
-183.65113396952,-243.16067902292,41.123372337234,1252269.4705825,352.71519351447,2504496.2866406,46.323372337234,0,0
-183.65113386962,-243.18950192743,41.127802780278,1252269.4705825,352.71519351447,2504496.2866406,46.327802780278,0,0
-183.65113376971,-243.21832483193,41.132233223322,1252269.4705825,352.71519351447,2504496.2866406,46.332233223322,0,0
-183.6511336698,-243.24714773644,41.136663666367,1252269.4705825,352.71519351447,2504496.2866406,46.336663666367,0,0
-183.6511335699,-243.27597064095,41.141094109411,1252269.4705825,352.71519351447,2504496.2866406,46.341094109411,0,0
-183.65113346999,-243.30479354545,41.145524552455,1252269.4705825,352.71519351447,2504496.2866406,46.345524552455,0,0
-183.65113337009,-243.33361644996,41.1499549955,1252269.4705825,352.71519351447,2504496.2866406,46.3499549955,0,0
-183.65113327018,-243.36243935446,41.154385438544,1252269.4705825,352.71519351447,2504496.2866406,46.354385438544,0,0
-183.65113317027,-243.39126225897,41.158815881588,1252269.4705825,352.71519351447,2504496.2866406,46.358815881588,0,0
-183.65113307037,-243.42008516348,41.163246324632,1252269.4705825,352.71519351447,2504496.2866406,46.363246324632,0,0
-183.65113297046,-243.44890806798,41.167676767677,1252269.4705825,352.71519351447,2504496.2866406,46.367676767677,0,0
-183.65113287055,-243.47773097249,41.172107210721,1252269.4705825,352.71519351447,2504496.2866406,46.372107210721,0,0
-183.65113277065,-243.50655387699,41.176537653765,1252269.4705825,352.71519351447,2504496.2866406,46.376537653765,0,0
-183.65113267074,-243.5353767815,41.18096809681,1252269.4705825,352.71519351447,2504496.2866406,46.38096809681,0,0
-183.65113257084,-243.56419968601,41.185398539854,1252269.4705825,352.71519351447,2504496.2866406,46.385398539854,0,0
-183.65113247093,-243.59302259051,41.189828982898,1252269.4705825,352.71519351447,2504496.2866406,46.389828982898,0,0
-183.65113237102,-243.62184549502,41.194259425943,1252269.4705825,352.71519351447,2504496.2866406,46.394259425943,0,0
-183.65113227112,-243.65066839952,41.198689868987,1252269.4705825,352.71519351447,2504496.2866406,46.398689868987,0,0
-183.65113217121,-243.67949130403,41.203120312031,1252269.4705825,352.71519351447,2504496.2866406,46.403120312031,0,0
-183.6511320713,-243.70831420854,41.207550755076,1252269.4705825,352.71519351447,2504496.2866406,46.407550755076,0,0
-183.6511319714,-243.73713711304,41.21198119812,1252269.4705825,352.71519351447,2504496.2866406,46.41198119812,0,0
-183.65113187149,-243.76596001755,41.216411641164,1252269.4705825,352.71519351447,2504496.2866406,46.416411641164,0,0
-183.65113177158,-243.79478292205,41.220842084208,1252269.4705825,352.71519351447,2504496.2866406,46.420842084208,0,0
-183.65113167168,-243.82360582656,41.225272527253,1252269.4705825,352.71519351447,2504496.2866406,46.425272527253,0,0
-183.65113157177,-243.85242873107,41.229702970297,1252269.4705825,352.71519351447,2504496.2866406,46.429702970297,0,0
-183.65113147187,-243.88125163557,41.234133413341,1252269.4705825,352.71519351447,2504496.2866406,46.434133413341,0,0
-183.65113137196,-243.91007454008,41.238563856386,1252269.4705825,352.71519351447,2504496.2866406,46.438563856386,0,0
-183.65113127205,-243.93889744458,41.24299429943,1252269.4705825,352.71519351447,2504496.2866406,46.44299429943,0,0
-183.65113117215,-243.96772034909,41.247424742474,1252269.4705825,352.71519351447,2504496.2866406,46.447424742474,0,0
-183.65113107224,-243.9965432536,41.251855185519,1252269.4705825,352.71519351447,2504496.2866406,46.451855185519,0,0
-183.65113097233,-244.0253661581,41.256285628563,1252269.4705825,352.71519351447,2504496.2866406,46.456285628563,0,0
-183.65113087243,-244.05418906261,41.260716071607,1252269.4705825,352.71519351447,2504496.2866406,46.460716071607,0,0
-183.65113077252,-244.08301196711,41.265146514651,1252269.4705825,352.71519351447,2504496.2866406,46.465146514651,0,0
-183.65113067262,-244.11183487162,41.269576957696,1252269.4705825,352.71519351447,2504496.2866406,46.469576957696,0,0
-183.65113057271,-244.14065777613,41.27400740074,1252269.4705825,352.71519351447,2504496.2866406,46.47400740074,0,0
-183.6511304728,-244.16948068063,41.278437843784,1252269.4705825,352.71519351447,2504496.2866406,46.478437843784,0,0
-183.6511303729,-244.19830358514,41.282868286829,1252269.4705825,352.71519351447,2504496.2866406,46.482868286829,0,0
-183.65113027299,-244.22712648964,41.287298729873,1252269.4705825,352.71519351447,2504496.2866406,46.487298729873,0,0
-183.65113017308,-244.25594939415,41.291729172917,1252269.4705825,352.71519351447,2504496.2866406,46.491729172917,0,0
-183.65113007318,-244.28477229866,41.296159615962,1252269.4705825,352.71519351447,2504496.2866406,46.496159615962,0,0
-183.65112997327,-244.31359520316,41.300590059006,1252269.4705825,352.71519351447,2504496.2866406,46.500590059006,0,0
-183.65112987337,-244.34241810767,41.30502050205,1252269.4705825,352.71519351447,2504496.2866406,46.50502050205,0,0
-183.65112977346,-244.37124101217,41.309450945095,1252269.4705825,352.71519351447,2504496.2866406,46.509450945095,0,0
-183.65112967355,-244.40006391668,41.313881388139,1252269.4705825,352.71519351447,2504496.2866406,46.513881388139,0,0
-183.65112957365,-244.42888682119,41.318311831183,1252269.4705825,352.71519351447,2504496.2866406,46.518311831183,0,0
-183.65112947374,-244.45770972569,41.322742274227,1252269.4705825,352.71519351447,2504496.2866406,46.522742274227,0,0
-183.65112937383,-244.4865326302,41.327172717272,1252269.4705825,352.71519351447,2504496.2866406,46.527172717272,0,0
-183.65112927393,-244.5153555347,41.331603160316,1252269.4705825,352.71519351447,2504496.2866406,46.531603160316,0,0
-183.65112917402,-244.54417843921,41.33603360336,1252269.4705825,352.71519351447,2504496.2866406,46.53603360336,0,0
-183.65112907412,-244.57300134372,41.340464046405,1252269.4705825,352.71519351447,2504496.2866406,46.540464046405,0,0
-183.65112897421,-244.60182424822,41.344894489449,1252269.4705825,352.71519351447,2504496.2866406,46.544894489449,0,0
-183.6511288743,-244.63064715273,41.349324932493,1252269.4705825,352.71519351447,2504496.2866406,46.549324932493,0,0
-183.6511287744,-244.65947005723,41.353755375538,1252269.4705825,352.71519351447,2504496.2866406,46.553755375538,0,0
-183.65112867449,-244.68829296174,41.358185818582,1252269.4705825,352.71519351447,2504496.2866406,46.558185818582,0,0
-183.65112857458,-244.71711586625,41.362616261626,1252269.4705825,352.71519351447,2504496.2866406,46.562616261626,0,0
-183.65112847468,-244.74593877075,41.36704670467,1252269.4705825,352.71519351447,2504496.2866406,46.56704670467,0,0
-183.65112837477,-244.77476167526,41.371477147715,1252269.4705825,352.71519351447,2504496.2866406,46.571477147715,0,0
-183.65112827487,-244.80358457976,41.375907590759,1252269.4705825,352.71519351447,2504496.2866406,46.575907590759,0,0
-183.65112817496,-244.83240748427,41.380338033803,1252269.4705825,352.71519351447,2504496.2866406,46.580338033803,0,0
-183.65112807505,-244.86123038878,41.384768476848,1252269.4705825,352.71519351447,2504496.2866406,46.584768476848,0,0
-183.65112797515,-244.89005329328,41.389198919892,1252269.4705825,352.71519351447,2504496.2866406,46.589198919892,0,0
-183.65112787524,-244.91887619779,41.393629362936,1252269.4705825,352.71519351447,2504496.2866406,46.593629362936,0,0
-183.65112777533,-244.94769910229,41.398059805981,1252269.4705825,352.71519351447,2504496.2866406,46.598059805981,0,0
-183.65112767543,-244.9765220068,41.402490249025,1252269.4705825,352.71519351447,2504496.2866406,46.602490249025,0,0
-183.65112757552,-245.00534491131,41.406920692069,1252269.4705825,352.71519351447,2504496.2866406,46.606920692069,0,0
-183.65112747561,-245.03416781581,41.411351135114,1252269.4705825,352.71519351447,2504496.2866406,46.611351135114,0,0
-183.65112737571,-245.06299072032,41.415781578158,1252269.4705825,352.71519351447,2504496.2866406,46.615781578158,0,0
-183.6511272758,-245.09181362482,41.420212021202,1252269.4705825,352.71519351447,2504496.2866406,46.620212021202,0,0
-183.6511271759,-245.12063652933,41.424642464246,1252269.4705825,352.71519351447,2504496.2866406,46.624642464246,0,0
-183.65112707599,-245.14945943384,41.429072907291,1252269.4705825,352.71519351447,2504496.2866406,46.629072907291,0,0
-183.65112697608,-245.17828233834,41.433503350335,1252269.4705825,352.71519351447,2504496.2866406,46.633503350335,0,0
-183.65112687618,-245.20710524285,41.437933793379,1252269.4705825,352.71519351447,2504496.2866406,46.637933793379,0,0
-183.65112677627,-245.23592814735,41.442364236424,1252269.4705825,352.71519351447,2504496.2866406,46.642364236424,0,0
-183.65112667636,-245.26475105186,41.446794679468,1252269.4705825,352.71519351447,2504496.2866406,46.646794679468,0,0
-183.65112657646,-245.29357395637,41.451225122512,1252269.4705825,352.71519351447,2504496.2866406,46.651225122512,0,0
-183.65112647655,-245.32239686087,41.455655565557,1252269.4705825,352.71519351447,2504496.2866406,46.655655565557,0,0
-183.65112637665,-245.35121976538,41.460086008601,1252269.4705825,352.71519351447,2504496.2866406,46.660086008601,0,0
-183.65112627674,-245.38004266988,41.464516451645,1252269.4705825,352.71519351447,2504496.2866406,46.664516451645,0,0
-183.65112617683,-245.40886557439,41.468946894689,1252269.4705825,352.71519351447,2504496.2866406,46.668946894689,0,0
-183.65112607693,-245.4376884789,41.473377337734,1252269.4705825,352.71519351447,2504496.2866406,46.673377337734,0,0
-183.65112597702,-245.4665113834,41.477807780778,1252269.4705825,352.71519351447,2504496.2866406,46.677807780778,0,0
-183.65112587711,-245.49533428791,41.482238223822,1252269.4705825,352.71519351447,2504496.2866406,46.682238223822,0,0
-183.65112577721,-245.52415719241,41.486668666867,1252269.4705825,352.71519351447,2504496.2866406,46.686668666867,0,0
-183.6511256773,-245.55298009692,41.491099109911,1252269.4705825,352.71519351447,2504496.2866406,46.691099109911,0,0
-183.6511255774,-245.58180300143,41.495529552955,1252269.4705825,352.71519351447,2504496.2866406,46.695529552955,0,0
-183.65112547749,-245.61062590593,41.499959996,1252269.4705825,352.71519351447,2504496.2866406,46.699959996,0,0
-183.65112537758,-245.63944881044,41.504390439044,1252269.4705825,352.71519351447,2504496.2866406,46.704390439044,0,0
-183.65112527768,-245.66827171494,41.508820882088,1252269.4705825,352.71519351447,2504496.2866406,46.708820882088,0,0
-183.65112517777,-245.69709461945,41.513251325133,1252269.4705825,352.71519351447,2504496.2866406,46.713251325133,0,0
-183.65112507786,-245.72591752396,41.517681768177,1252269.4705825,352.71519351447,2504496.2866406,46.717681768177,0,0
-183.65112497796,-245.75474042846,41.522112211221,1252269.4705825,352.71519351447,2504496.2866406,46.722112211221,0,0
-183.65112487805,-245.78356333297,41.526542654265,1252269.4705825,352.71519351447,2504496.2866406,46.726542654265,0,0
-183.65112477815,-245.81238623747,41.53097309731,1252269.4705825,352.71519351447,2504496.2866406,46.73097309731,0,0
-183.65112467824,-245.84120914198,41.535403540354,1252269.4705825,352.71519351447,2504496.2866406,46.735403540354,0,0
-183.65112457833,-245.87003204649,41.539833983398,1252269.4705825,352.71519351447,2504496.2866406,46.739833983398,0,0
-183.65112447843,-245.89885495099,41.544264426443,1252269.4705825,352.71519351447,2504496.2866406,46.744264426443,0,0
-183.65112437852,-245.9276778555,41.548694869487,1252269.4705825,352.71519351447,2504496.2866406,46.748694869487,0,0
-183.65112427861,-245.95650076,41.553125312531,1252269.4705825,352.71519351447,2504496.2866406,46.753125312531,0,0
-183.65112417871,-245.98532366451,41.557555755576,1252269.4705825,352.71519351447,2504496.2866406,46.757555755576,0,0
-183.6511240788,-246.01414656902,41.56198619862,1252269.4705825,352.71519351447,2504496.2866406,46.76198619862,0,0
-183.65112397889,-246.04296947352,41.566416641664,1252269.4705825,352.71519351447,2504496.2866406,46.766416641664,0,0
-183.65112387899,-246.07179237803,41.570847084708,1252269.4705825,352.71519351447,2504496.2866406,46.770847084708,0,0
-183.65112377908,-246.10061528253,41.575277527753,1252269.4705825,352.71519351447,2504496.2866406,46.775277527753,0,0
-183.65112367918,-246.12943818704,41.579707970797,1252269.4705825,352.71519351447,2504496.2866406,46.779707970797,0,0
-183.65112357927,-246.15826109154,41.584138413841,1252269.4705825,352.71519351447,2504496.2866406,46.784138413841,0,0
-183.65112347936,-246.18708399605,41.588568856886,1252269.4705825,352.71519351447,2504496.2866406,46.788568856886,0,0
-183.65112337946,-246.21590690056,41.59299929993,1252269.4705825,352.71519351447,2504496.2866406,46.79299929993,0,0
-183.65112327955,-246.24472980506,41.597429742974,1252269.4705825,352.71519351447,2504496.2866406,46.797429742974,0,0
-183.65112317964,-246.27355270957,41.601860186019,1252269.4705825,352.71519351447,2504496.2866406,46.801860186019,0,0
-183.65112307974,-246.30237561407,41.606290629063,1252269.4705825,352.71519351447,2504496.2866406,46.806290629063,0,0
-183.65112297983,-246.33119851858,41.610721072107,1252269.4705825,352.71519351447,2504496.2866406,46.810721072107,0,0
-183.65112287993,-246.36002142309,41.615151515152,1252269.4705825,352.71519351447,2504496.2866406,46.815151515152,0,0
-183.65112278002,-246.38884432759,41.619581958196,1252269.4705825,352.71519351447,2504496.2866406,46.819581958196,0,0
-183.65112268011,-246.4176672321,41.62401240124,1252269.4705825,352.71519351447,2504496.2866406,46.82401240124,0,0
-183.65112258021,-246.4464901366,41.628442844284,1252269.4705825,352.71519351447,2504496.2866406,46.828442844284,0,0
-183.6511224803,-246.47531304111,41.632873287329,1252269.4705825,352.71519351447,2504496.2866406,46.832873287329,0,0
-183.65112238039,-246.50413594562,41.637303730373,1252269.4705825,352.71519351447,2504496.2866406,46.837303730373,0,0
-183.65112228049,-246.53295885012,41.641734173417,1252269.4705825,352.71519351447,2504496.2866406,46.841734173417,0,0
-183.65112218058,-246.56178175463,41.646164616462,1252269.4705825,352.71519351447,2504496.2866406,46.846164616462,0,0
-183.65112208068,-246.59060465913,41.650595059506,1252269.4705825,352.71519351447,2504496.2866406,46.850595059506,0,0
-183.65112198077,-246.61942756364,41.65502550255,1252269.4705825,352.71519351447,2504496.2866406,46.85502550255,0,0
-183.65112188086,-246.64825046815,41.659455945595,1252269.4705825,352.71519351447,2504496.2866406,46.859455945595,0,0
-183.65112178096,-246.67707337265,41.663886388639,1252269.4705825,352.71519351447,2504496.2866406,46.863886388639,0,0
-183.65112168105,-246.70589627716,41.668316831683,1252269.4705825,352.71519351447,2504496.2866406,46.868316831683,0,0
-183.65112158114,-246.73471918166,41.672747274727,1252269.4705825,352.71519351447,2504496.2866406,46.872747274727,0,0
-183.65112148124,-246.76354208617,41.677177717772,1252269.4705825,352.71519351447,2504496.2866406,46.877177717772,0,0
-183.65112138133,-246.79236499068,41.681608160816,1252269.4705825,352.71519351447,2504496.2866406,46.881608160816,0,0
-183.65112128143,-246.82118789518,41.68603860386,1252269.4705825,352.71519351447,2504496.2866406,46.88603860386,0,0
-183.65112118152,-246.85001079969,41.690469046905,1252269.4705825,352.71519351447,2504496.2866406,46.890469046905,0,0
-183.65112108161,-246.87883370419,41.694899489949,1252269.4705825,352.71519351447,2504496.2866406,46.894899489949,0,0
-183.65112098171,-246.9076566087,41.699329932993,1252269.4705825,352.71519351447,2504496.2866406,46.899329932993,0,0
-183.6511208818,-246.93647951321,41.703760376038,1252269.4705825,352.71519351447,2504496.2866406,46.903760376038,0,0
-183.65112078189,-246.96530241771,41.708190819082,1252269.4705825,352.71519351447,2504496.2866406,46.908190819082,0,0
-183.65112068199,-246.99412532222,41.712621262126,1252269.4705825,352.71519351447,2504496.2866406,46.912621262126,0,0
-183.65112058208,-247.02294822672,41.717051705171,1252269.4705825,352.71519351447,2504496.2866406,46.917051705171,0,0
-183.65112048218,-247.05177113123,41.721482148215,1252269.4705825,352.71519351447,2504496.2866406,46.921482148215,0,0
-183.65112038227,-247.08059403574,41.725912591259,1252269.4705825,352.71519351447,2504496.2866406,46.925912591259,0,0
-183.65112028236,-247.10941694024,41.730343034303,1252269.4705825,352.71519351447,2504496.2866406,46.930343034303,0,0
-183.65112018246,-247.13823984475,41.734773477348,1252269.4705825,352.71519351447,2504496.2866406,46.934773477348,0,0
-183.65112008255,-247.16706274925,41.739203920392,1252269.4705825,352.71519351447,2504496.2866406,46.939203920392,0,0
-183.65111998264,-247.19588565376,41.743634363436,1252269.4705825,352.71519351447,2504496.2866406,46.943634363436,0,0
-183.65111988274,-247.22470855827,41.748064806481,1252269.4705825,352.71519351447,2504496.2866406,46.948064806481,0,0
-183.65111978283,-247.25353146277,41.752495249525,1252269.4705825,352.71519351447,2504496.2866406,46.952495249525,0,0
-183.65111968292,-247.28235436728,41.756925692569,1252269.4705825,352.71519351447,2504496.2866406,46.956925692569,0,0
-183.65111958302,-247.31117727178,41.761356135614,1252269.4705825,352.71519351447,2504496.2866406,46.961356135614,0,0
-183.65111948311,-247.34000017629,41.765786578658,1252269.4705825,352.71519351447,2504496.2866406,46.965786578658,0,0
-183.65111938321,-247.3688230808,41.770217021702,1252269.4705825,352.71519351447,2504496.2866406,46.970217021702,0,0
-183.6511192833,-247.3976459853,41.774647464746,1252269.4705825,352.71519351447,2504496.2866406,46.974647464746,0,0
-183.65111918339,-247.42646888981,41.779077907791,1252269.4705825,352.71519351447,2504496.2866406,46.979077907791,0,0
-183.65111908349,-247.45529179431,41.783508350835,1252269.4705825,352.71519351447,2504496.2866406,46.983508350835,0,0
-183.65111898358,-247.48411469882,41.787938793879,1252269.4705825,352.71519351447,2504496.2866406,46.987938793879,0,0
-183.65111888367,-247.51293760333,41.792369236924,1252269.4705825,352.71519351447,2504496.2866406,46.992369236924,0,0
-183.65111878377,-247.54176050783,41.796799679968,1252269.4705825,352.71519351447,2504496.2866406,46.996799679968,0,0
-183.65111868386,-247.57058341234,41.801230123012,1252269.4705825,352.71519351447,2504496.2866406,47.001230123012,0,0
-183.65111858396,-247.59940631684,41.805660566057,1252269.4705825,352.71519351447,2504496.2866406,47.005660566057,0,0
-183.65111848405,-247.62822922135,41.810091009101,1252269.4705825,352.71519351447,2504496.2866406,47.010091009101,0,0
-183.65111838414,-247.65705212586,41.814521452145,1252269.4705825,352.71519351447,2504496.2866406,47.014521452145,0,0
-183.65111828424,-247.68587503036,41.81895189519,1252269.4705825,352.71519351447,2504496.2866406,47.01895189519,0,0
-183.65111818433,-247.71469793487,41.823382338234,1252269.4705825,352.71519351447,2504496.2866406,47.023382338234,0,0
-183.65111808442,-247.74352083937,41.827812781278,1252269.4705825,352.71519351447,2504496.2866406,47.027812781278,0,0
-183.65111798452,-247.77234374388,41.832243224322,1252269.4705825,352.71519351447,2504496.2866406,47.032243224322,0,0
-183.65111788461,-247.80116664839,41.836673667367,1252269.4705825,352.71519351447,2504496.2866406,47.036673667367,0,0
-183.65111778471,-247.82998955289,41.841104110411,1252269.4705825,352.71519351447,2504496.2866406,47.041104110411,0,0
-183.6511176848,-247.8588124574,41.845534553455,1252269.4705825,352.71519351447,2504496.2866406,47.045534553455,0,0
-183.65111758489,-247.8876353619,41.8499649965,1252269.4705825,352.71519351447,2504496.2866406,47.0499649965,0,0
-183.65111748499,-247.91645826641,41.854395439544,1252269.4705825,352.71519351447,2504496.2866406,47.054395439544,0,0
-183.65111738508,-247.94528117092,41.858825882588,1252269.4705825,352.71519351447,2504496.2866406,47.058825882588,0,0
-183.65111728517,-247.97410407542,41.863256325633,1252269.4705825,352.71519351447,2504496.2866406,47.063256325633,0,0
-183.65111718527,-248.00292697993,41.867686768677,1252269.4705825,352.71519351447,2504496.2866406,47.067686768677,0,0
-183.65111708536,-248.03174988443,41.872117211721,1252269.4705825,352.71519351447,2504496.2866406,47.072117211721,0,0
-183.65111698546,-248.06057278894,41.876547654765,1252269.4705825,352.71519351447,2504496.2866406,47.076547654765,0,0
-183.65111688555,-248.08939569345,41.88097809781,1252269.4705825,352.71519351447,2504496.2866406,47.08097809781,0,0
-183.65111678564,-248.11821859795,41.885408540854,1252269.4705825,352.71519351447,2504496.2866406,47.085408540854,0,0
-183.65111668574,-248.14704150246,41.889838983898,1252269.4705825,352.71519351447,2504496.2866406,47.089838983898,0,0
-183.65111658583,-248.17586440696,41.894269426943,1252269.4705825,352.71519351447,2504496.2866406,47.094269426943,0,0
-183.65111648592,-248.20468731147,41.898699869987,1252269.4705825,352.71519351447,2504496.2866406,47.098699869987,0,0
-183.65111638602,-248.23351021598,41.903130313031,1252269.4705825,352.71519351447,2504496.2866406,47.103130313031,0,0
-183.65111628611,-248.26233312048,41.907560756076,1252269.4705825,352.71519351447,2504496.2866406,47.107560756076,0,0
-183.65111618621,-248.29115602499,41.91199119912,1252269.4705825,352.71519351447,2504496.2866406,47.11199119912,0,0
-183.6511160863,-248.31997892949,41.916421642164,1252269.4705825,352.71519351447,2504496.2866406,47.116421642164,0,0
-183.65111598639,-248.348801834,41.920852085209,1252269.4705825,352.71519351447,2504496.2866406,47.120852085209,0,0
-183.65111588649,-248.37762473851,41.925282528253,1252269.4705825,352.71519351447,2504496.2866406,47.125282528253,0,0
-183.65111578658,-248.40644764301,41.929712971297,1252269.4705825,352.71519351447,2504496.2866406,47.129712971297,0,0
-183.65111568667,-248.43527054752,41.934143414341,1252269.4705825,352.71519351447,2504496.2866406,47.134143414341,0,0
-183.65111558677,-248.46409345202,41.938573857386,1252269.4705825,352.71519351447,2504496.2866406,47.138573857386,0,0
-183.65111548686,-248.49291635653,41.94300430043,1252269.4705825,352.71519351447,2504496.2866406,47.14300430043,0,0
-183.65111538695,-248.52173926104,41.947434743474,1252269.4705825,352.71519351447,2504496.2866406,47.147434743474,0,0
-183.65111528705,-248.55056216554,41.951865186519,1252269.4705825,352.71519351447,2504496.2866406,47.151865186519,0,0
-183.65111518714,-248.57938507005,41.956295629563,1252269.4705825,352.71519351447,2504496.2866406,47.156295629563,0,0
-183.65111508724,-248.60820797455,41.960726072607,1252269.4705825,352.71519351447,2504496.2866406,47.160726072607,0,0
-183.65111498733,-248.63703087906,41.965156515652,1252269.4705825,352.71519351447,2504496.2866406,47.165156515652,0,0
-183.65111488742,-248.66585378357,41.969586958696,1252269.4705825,352.71519351447,2504496.2866406,47.169586958696,0,0
-183.65111478752,-248.69467668807,41.97401740174,1252269.4705825,352.71519351447,2504496.2866406,47.17401740174,0,0
-183.65111468761,-248.72349959258,41.978447844784,1252269.4705825,352.71519351447,2504496.2866406,47.178447844784,0,0
-183.6511145877,-248.75232249708,41.982878287829,1252269.4705825,352.71519351447,2504496.2866406,47.182878287829,0,0
-183.6511144878,-248.78114540159,41.987308730873,1252269.4705825,352.71519351447,2504496.2866406,47.187308730873,0,0
-183.65111438789,-248.8099683061,41.991739173917,1252269.4705825,352.71519351447,2504496.2866406,47.191739173917,0,0
-183.65111428799,-248.8387912106,41.996169616962,1252269.4705825,352.71519351447,2504496.2866406,47.196169616962,0,0
-183.65111418808,-248.86761411511,42.000600060006,1252269.4705825,352.71519351447,2504496.2866406,47.200600060006,0,0
-183.65111408817,-248.89643701961,42.00503050305,1252269.4705825,352.71519351447,2504496.2866406,47.20503050305,0,0
-183.65111398827,-248.92525992412,42.009460946095,1252269.4705825,352.71519351447,2504496.2866406,47.209460946095,0,0
-183.65111388836,-248.95408282863,42.013891389139,1252269.4705825,352.71519351447,2504496.2866406,47.213891389139,0,0
-183.65111378845,-248.98290573313,42.018321832183,1252269.4705825,352.71519351447,2504496.2866406,47.218321832183,0,0
-183.65111368855,-249.01172863764,42.022752275228,1252269.4705825,352.71519351447,2504496.2866406,47.222752275228,0,0
-183.65111358864,-249.04055154214,42.027182718272,1252269.4705825,352.71519351447,2504496.2866406,47.227182718272,0,0
-183.65111348874,-249.06937444665,42.031613161316,1252269.4705825,352.71519351447,2504496.2866406,47.231613161316,0,0
-183.65111338883,-249.09819735116,42.03604360436,1252269.4705825,352.71519351447,2504496.2866406,47.23604360436,0,0
-183.65111328892,-249.12702025566,42.040474047405,1252269.4705825,352.71519351447,2504496.2866406,47.240474047405,0,0
-183.65111318902,-249.15584316017,42.044904490449,1252269.4705825,352.71519351447,2504496.2866406,47.244904490449,0,0
-183.65111308911,-249.18466606467,42.049334933493,1252269.4705825,352.71519351447,2504496.2866406,47.249334933493,0,0
-183.6511129892,-249.21348896918,42.053765376538,1252269.4705825,352.71519351447,2504496.2866406,47.253765376538,0,0
-183.6511128893,-249.24231187369,42.058195819582,1252269.4705825,352.71519351447,2504496.2866406,47.258195819582,0,0
-183.65111278939,-249.27113477819,42.062626262626,1252269.4705825,352.71519351447,2504496.2866406,47.262626262626,0,0
-183.65111268949,-249.2999576827,42.067056705671,1252269.4705825,352.71519351447,2504496.2866406,47.267056705671,0,0
-183.65111258958,-249.3287805872,42.071487148715,1252269.4705825,352.71519351447,2504496.2866406,47.271487148715,0,0
-183.65111248967,-249.35760349171,42.075917591759,1252269.4705825,352.71519351447,2504496.2866406,47.275917591759,0,0
-183.65111238977,-249.38642639622,42.080348034803,1252269.4705825,352.71519351447,2504496.2866406,47.280348034803,0,0
-183.65111228986,-249.41524930072,42.084778477848,1252269.4705825,352.71519351447,2504496.2866406,47.284778477848,0,0
-183.65111218995,-249.44407220523,42.089208920892,1252269.4705825,352.71519351447,2504496.2866406,47.289208920892,0,0
-183.65111209005,-249.47289510973,42.093639363936,1252269.4705825,352.71519351447,2504496.2866406,47.293639363936,0,0
-183.65111199014,-249.50171801424,42.098069806981,1252269.4705825,352.71519351447,2504496.2866406,47.298069806981,0,0
-183.65111189024,-249.53054091875,42.102500250025,1252269.4705825,352.71519351447,2504496.2866406,47.302500250025,0,0
-183.65111179033,-249.55936382325,42.106930693069,1252269.4705825,352.71519351447,2504496.2866406,47.306930693069,0,0
-183.65111169042,-249.58818672776,42.111361136114,1252269.4705825,352.71519351447,2504496.2866406,47.311361136114,0,0
-183.65111159052,-249.61700963226,42.115791579158,1252269.4705825,352.71519351447,2504496.2866406,47.315791579158,0,0
-183.65111149061,-249.64583253677,42.120222022202,1252269.4705825,352.71519351447,2504496.2866406,47.320222022202,0,0
-183.6511113907,-249.67465544128,42.124652465247,1252269.4705825,352.71519351447,2504496.2866406,47.324652465247,0,0
-183.6511112908,-249.70347834578,42.129082908291,1252269.4705825,352.71519351447,2504496.2866406,47.329082908291,0,0
-183.65111119089,-249.73230125029,42.133513351335,1252269.4705825,352.71519351447,2504496.2866406,47.333513351335,0,0
-183.65111109098,-249.76112415479,42.137943794379,1252269.4705825,352.71519351447,2504496.2866406,47.337943794379,0,0
-183.65111099108,-249.7899470593,42.142374237424,1252269.4705825,352.71519351447,2504496.2866406,47.342374237424,0,0
-183.65111089117,-249.81876996381,42.146804680468,1252269.4705825,352.71519351447,2504496.2866406,47.346804680468,0,0
-183.65111079127,-249.84759286831,42.151235123512,1252269.4705825,352.71519351447,2504496.2866406,47.351235123512,0,0
-183.65111069136,-249.87641577282,42.155665566557,1252269.4705825,352.71519351447,2504496.2866406,47.355665566557,0,0
-183.65111059145,-249.90523867732,42.160096009601,1252269.4705825,352.71519351447,2504496.2866406,47.360096009601,0,0
-183.65111049155,-249.93406158183,42.164526452645,1252269.4705825,352.71519351447,2504496.2866406,47.364526452645,0,0
-183.65111039164,-249.96288448634,42.16895689569,1252269.4705825,352.71519351447,2504496.2866406,47.36895689569,0,0
-183.65111029173,-249.99170739084,42.173387338734,1252269.4705825,352.71519351447,2504496.2866406,47.373387338734,0,0
-183.65111019183,-250.02053029535,42.177817781778,1252269.4705825,352.71519351447,2504496.2866406,47.377817781778,0,0
-183.65111009192,-250.04935319985,42.182248224822,1252269.4705825,352.71519351447,2504496.2866406,47.382248224822,0,0
-183.65110999202,-250.07817610436,42.186678667867,1252269.4705825,352.71519351447,2504496.2866406,47.386678667867,0,0
-183.65110989211,-250.10699900887,42.191109110911,1252269.4705825,352.71519351447,2504496.2866406,47.391109110911,0,0
-183.6511097922,-250.13582191337,42.195539553955,1252269.4705825,352.71519351447,2504496.2866406,47.395539553955,0,0
-183.6511096923,-250.16464481788,42.199969997,1252269.4705825,352.71519351447,2504496.2866406,47.399969997,0,0
-183.65110959239,-250.19346772238,42.204400440044,1252269.4705825,352.71519351447,2504496.2866406,47.404400440044,0,0
-183.65110949248,-250.22229062689,42.208830883088,1252269.4705825,352.71519351447,2504496.2866406,47.408830883088,0,0
-183.65110939258,-250.2511135314,42.213261326133,1252269.4705825,352.71519351447,2504496.2866406,47.413261326133,0,0
-183.65110929267,-250.2799364359,42.217691769177,1252269.4705825,352.71519351447,2504496.2866406,47.417691769177,0,0
-183.65110919277,-250.30875934041,42.222122212221,1252269.4705825,352.71519351447,2504496.2866406,47.422122212221,0,0
-183.65110909286,-250.33758224491,42.226552655266,1252269.4705825,352.71519351447,2504496.2866406,47.426552655266,0,0
-183.65110899295,-250.36640514942,42.23098309831,1252269.4705825,352.71519351447,2504496.2866406,47.43098309831,0,0
-183.65110889305,-250.39522805392,42.235413541354,1252269.4705825,352.71519351447,2504496.2866406,47.435413541354,0,0
-183.65110879314,-250.42405095843,42.239843984398,1252269.4705825,352.71519351447,2504496.2866406,47.439843984398,0,0
-183.65110869323,-250.45287386294,42.244274427443,1252269.4705825,352.71519351447,2504496.2866406,47.444274427443,0,0
-183.65110859333,-250.48169676744,42.248704870487,1252269.4705825,352.71519351447,2504496.2866406,47.448704870487,0,0
-183.65110849342,-250.51051967195,42.253135313531,1252269.4705825,352.71519351447,2504496.2866406,47.453135313531,0,0
-183.65110839352,-250.53934257645,42.257565756576,1252269.4705825,352.71519351447,2504496.2866406,47.457565756576,0,0
-183.65110829361,-250.56816548096,42.26199619962,1252269.4705825,352.71519351447,2504496.2866406,47.46199619962,0,0
-183.6511081937,-250.59698838547,42.266426642664,1252269.4705825,352.71519351447,2504496.2866406,47.466426642664,0,0
-183.6511080938,-250.62581128997,42.270857085709,1252269.4705825,352.71519351447,2504496.2866406,47.470857085709,0,0
-183.65110799389,-250.65463419448,42.275287528753,1252269.4705825,352.71519351447,2504496.2866406,47.475287528753,0,0
-183.65110789398,-250.68345709898,42.279717971797,1252269.4705825,352.71519351447,2504496.2866406,47.479717971797,0,0
-183.65110779408,-250.71228000349,42.284148414841,1252269.4705825,352.71519351447,2504496.2866406,47.484148414841,0,0
-183.65110769417,-250.741102908,42.288578857886,1252269.4705825,352.71519351447,2504496.2866406,47.488578857886,0,0
-183.65110759426,-250.7699258125,42.29300930093,1252269.4705825,352.71519351447,2504496.2866406,47.49300930093,0,0
-183.65110749436,-250.79874871701,42.297439743974,1252269.4705825,352.71519351447,2504496.2866406,47.497439743974,0,0
-183.65110739445,-250.82757162151,42.301870187019,1252269.4705825,352.71519351447,2504496.2866406,47.501870187019,0,0
-183.65110729455,-250.85639452602,42.306300630063,1252269.4705825,352.71519351447,2504496.2866406,47.506300630063,0,0
-183.65110719464,-250.88521743053,42.310731073107,1252269.4705825,352.71519351447,2504496.2866406,47.510731073107,0,0
-183.65110709473,-250.91404033503,42.315161516152,1252269.4705825,352.71519351447,2504496.2866406,47.515161516152,0,0
-183.65110699483,-250.94286323954,42.319591959196,1252269.4705825,352.71519351447,2504496.2866406,47.519591959196,0,0
-183.65110689492,-250.97168614404,42.32402240224,1252269.4705825,352.71519351447,2504496.2866406,47.52402240224,0,0
-183.65110679501,-251.00050904855,42.328452845285,1252269.4705825,352.71519351447,2504496.2866406,47.528452845285,0,0
-183.65110669511,-251.02933195306,42.332883288329,1252269.4705825,352.71519351447,2504496.2866406,47.532883288329,0,0
-183.6511065952,-251.05815485756,42.337313731373,1252269.4705825,352.71519351447,2504496.2866406,47.537313731373,0,0
-183.6511064953,-251.08697776207,42.341744174417,1252269.4705825,352.71519351447,2504496.2866406,47.541744174417,0,0
-183.65110639539,-251.11580066657,42.346174617462,1252269.4705825,352.71519351447,2504496.2866406,47.546174617462,0,0
-183.65110629548,-251.14462357108,42.350605060506,1252269.4705825,352.71519351447,2504496.2866406,47.550605060506,0,0
-183.65110619558,-251.17344647559,42.35503550355,1252269.4705825,352.71519351447,2504496.2866406,47.55503550355,0,0
-183.65110609567,-251.20226938009,42.359465946595,1252269.4705825,352.71519351447,2504496.2866406,47.559465946595,0,0
-183.65110599576,-251.2310922846,42.363896389639,1252269.4705825,352.71519351447,2504496.2866406,47.563896389639,0,0
-183.65110589586,-251.2599151891,42.368326832683,1252269.4705825,352.71519351447,2504496.2866406,47.568326832683,0,0
-183.65110579595,-251.28873809361,42.372757275728,1252269.4705825,352.71519351447,2504496.2866406,47.572757275728,0,0
-183.65110569605,-251.31756099812,42.377187718772,1252269.4705825,352.71519351447,2504496.2866406,47.577187718772,0,0
-183.65110559614,-251.34638390262,42.381618161816,1252269.4705825,352.71519351447,2504496.2866406,47.581618161816,0,0
-183.65110549623,-251.37520680713,42.38604860486,1252269.4705825,352.71519351447,2504496.2866406,47.58604860486,0,0
-183.65110539633,-251.40402971163,42.390479047905,1252269.4705825,352.71519351447,2504496.2866406,47.590479047905,0,0
-183.65110529642,-251.43285261614,42.394909490949,1252269.4705825,352.71519351447,2504496.2866406,47.594909490949,0,0
-183.65110519651,-251.46167552065,42.399339933993,1252269.4705825,352.71519351447,2504496.2866406,47.599339933993,0,0
-183.65110509661,-251.49049842515,42.403770377038,1252269.4705825,352.71519351447,2504496.2866406,47.603770377038,0,0
-183.6511049967,-251.51932132966,42.408200820082,1252269.4705825,352.71519351447,2504496.2866406,47.608200820082,0,0
-183.6511048968,-251.54814423416,42.412631263126,1252269.4705825,352.71519351447,2504496.2866406,47.612631263126,0,0
-183.65110479689,-251.57696713867,42.417061706171,1252269.4705825,352.71519351447,2504496.2866406,47.617061706171,0,0
-183.65110469698,-251.60579004318,42.421492149215,1252269.4705825,352.71519351447,2504496.2866406,47.621492149215,0,0
-183.65110459708,-251.63461294768,42.425922592259,1252269.4705825,352.71519351447,2504496.2866406,47.625922592259,0,0
-183.65110449727,-251.66343585222,42.430353035304,1249860.3473591,75.44928621421,2503659.5914503,47.630353035304,0,0
-183.65110439753,-251.69225875677,42.434783478348,1249860.3473591,75.44928621421,2503659.5914503,47.634783478348,0,0
-183.65110429779,-251.72108166133,42.439213921392,1249860.3473591,75.44928621421,2503659.5914503,47.639213921392,0,0
-183.65110419806,-251.74990456588,42.443644364436,1249860.3473591,75.44928621421,2503659.5914503,47.643644364436,0,0
-183.65110409832,-251.77872747044,42.448074807481,1249860.3473591,75.44928621421,2503659.5914503,47.648074807481,0,0
-183.65110399858,-251.807550375,42.452505250525,1249860.3473591,75.44928621421,2503659.5914503,47.652505250525,0,0
-183.65110389885,-251.83637327955,42.456935693569,1249860.3473591,75.44928621421,2503659.5914503,47.656935693569,0,0
-183.65110379911,-251.86519618411,42.461366136614,1249860.3473591,75.44928621421,2503659.5914503,47.661366136614,0,0
-183.65110369938,-251.89401908866,42.465796579658,1249860.3473591,75.44928621421,2503659.5914503,47.665796579658,0,0
-183.65110359964,-251.92284199322,42.470227022702,1249860.3473591,75.44928621421,2503659.5914503,47.670227022702,0,0
-183.6511034999,-251.95166489778,42.474657465747,1249860.3473591,75.44928621421,2503659.5914503,47.674657465747,0,0
-183.65110340017,-251.98048780233,42.479087908791,1249860.3473591,75.44928621421,2503659.5914503,47.679087908791,0,0
-183.65110330043,-252.00931070689,42.483518351835,1249860.3473591,75.44928621421,2503659.5914503,47.683518351835,0,0
-183.6511032007,-252.03813361144,42.487948794879,1249860.3473591,75.44928621421,2503659.5914503,47.687948794879,0,0
-183.65110310096,-252.066956516,42.492379237924,1249860.3473591,75.44928621421,2503659.5914503,47.692379237924,0,0
-183.65110300122,-252.09577942055,42.496809680968,1249860.3473591,75.44928621421,2503659.5914503,47.696809680968,0,0
-183.65110290149,-252.12460232511,42.501240124012,1249860.3473591,75.44928621421,2503659.5914503,47.701240124012,0,0
-183.65110280175,-252.15342522967,42.505670567057,1249860.3473591,75.44928621421,2503659.5914503,47.705670567057,0,0
-183.65110270202,-252.18224813422,42.510101010101,1249860.3473591,75.44928621421,2503659.5914503,47.710101010101,0,0
-183.65110260228,-252.21107103878,42.514531453145,1249860.3473591,75.44928621421,2503659.5914503,47.714531453145,0,0
-183.65110250254,-252.23989394333,42.51896189619,1249860.3473591,75.44928621421,2503659.5914503,47.71896189619,0,0
-183.65110240281,-252.26871684789,42.523392339234,1249860.3473591,75.44928621421,2503659.5914503,47.723392339234,0,0
-183.65110230307,-252.29753975245,42.527822782278,1249860.3473591,75.44928621421,2503659.5914503,47.727822782278,0,0
-183.65110220333,-252.326362657,42.532253225323,1249860.3473591,75.44928621421,2503659.5914503,47.732253225323,0,0
-183.6511021036,-252.35518556156,42.536683668367,1249860.3473591,75.44928621421,2503659.5914503,47.736683668367,0,0
-183.65110200386,-252.38400846611,42.541114111411,1249860.3473591,75.44928621421,2503659.5914503,47.741114111411,0,0
-183.65110190413,-252.41283137067,42.545544554455,1249860.3473591,75.44928621421,2503659.5914503,47.745544554455,0,0
-183.65110180439,-252.44165427523,42.5499749975,1249860.3473591,75.44928621421,2503659.5914503,47.7499749975,0,0
-183.65110170465,-252.47047717978,42.554405440544,1249860.3473591,75.44928621421,2503659.5914503,47.754405440544,0,0
-183.65110160492,-252.49930008434,42.558835883588,1249860.3473591,75.44928621421,2503659.5914503,47.758835883588,0,0
-183.65110150518,-252.52812298889,42.563266326633,1249860.3473591,75.44928621421,2503659.5914503,47.763266326633,0,0
-183.65110140545,-252.55694589345,42.567696769677,1249860.3473591,75.44928621421,2503659.5914503,47.767696769677,0,0
-183.65110130571,-252.585768798,42.572127212721,1249860.3473591,75.44928621421,2503659.5914503,47.772127212721,0,0
-183.65110120597,-252.61459170256,42.576557655766,1249860.3473591,75.44928621421,2503659.5914503,47.776557655766,0,0
-183.65110110624,-252.64341460712,42.58098809881,1249860.3473591,75.44928621421,2503659.5914503,47.78098809881,0,0
-183.6511010065,-252.67223751167,42.585418541854,1249860.3473591,75.44928621421,2503659.5914503,47.785418541854,0,0
-183.65110090676,-252.70106041623,42.589848984898,1249860.3473591,75.44928621421,2503659.5914503,47.789848984898,0,0
-183.65110080703,-252.72988332078,42.594279427943,1249860.3473591,75.44928621421,2503659.5914503,47.794279427943,0,0
-183.65110070729,-252.75870622534,42.598709870987,1249860.3473591,75.44928621421,2503659.5914503,47.798709870987,0,0
-183.65110060756,-252.7875291299,42.603140314031,1249860.3473591,75.44928621421,2503659.5914503,47.803140314031,0,0
-183.65110050782,-252.81635203445,42.607570757076,1249860.3473591,75.44928621421,2503659.5914503,47.807570757076,0,0
-183.65110040808,-252.84517493901,42.61200120012,1249860.3473591,75.44928621421,2503659.5914503,47.81200120012,0,0
-183.65110030835,-252.87399784356,42.616431643164,1249860.3473591,75.44928621421,2503659.5914503,47.816431643164,0,0
-183.65110020861,-252.90282074812,42.620862086209,1249860.3473591,75.44928621421,2503659.5914503,47.820862086209,0,0
-183.65110010888,-252.93164365267,42.625292529253,1249860.3473591,75.44928621421,2503659.5914503,47.825292529253,0,0
-183.65110000914,-252.96046655723,42.629722972297,1249860.3473591,75.44928621421,2503659.5914503,47.829722972297,0,0
-183.6510999094,-252.98928946179,42.634153415342,1249860.3473591,75.44928621421,2503659.5914503,47.834153415342,0,0
-183.65109980967,-253.01811236634,42.638583858386,1249860.3473591,75.44928621421,2503659.5914503,47.838583858386,0,0
-183.65109970993,-253.0469352709,42.64301430143,1249860.3473591,75.44928621421,2503659.5914503,47.84301430143,0,0
-183.6510996102,-253.07575817545,42.647444744474,1249860.3473591,75.44928621421,2503659.5914503,47.847444744474,0,0
-183.65109951046,-253.10458108001,42.651875187519,1249860.3473591,75.44928621421,2503659.5914503,47.851875187519,0,0
-183.65109941072,-253.13340398457,42.656305630563,1249860.3473591,75.44928621421,2503659.5914503,47.856305630563,0,0
-183.65109931099,-253.16222688912,42.660736073607,1249860.3473591,75.44928621421,2503659.5914503,47.860736073607,0,0
-183.65109921125,-253.19104979368,42.665166516652,1249860.3473591,75.44928621421,2503659.5914503,47.865166516652,0,0
-183.65109911151,-253.21987269823,42.669596959696,1249860.3473591,75.44928621421,2503659.5914503,47.869596959696,0,0
-183.65109901178,-253.24869560279,42.67402740274,1249860.3473591,75.44928621421,2503659.5914503,47.87402740274,0,0
-183.65109891204,-253.27751850735,42.678457845785,1249860.3473591,75.44928621421,2503659.5914503,47.878457845785,0,0
-183.65109881231,-253.3063414119,42.682888288829,1249860.3473591,75.44928621421,2503659.5914503,47.882888288829,0,0
-183.65109871257,-253.33516431646,42.687318731873,1249860.3473591,75.44928621421,2503659.5914503,47.887318731873,0,0
-183.65109861283,-253.36398722101,42.691749174917,1249860.3473591,75.44928621421,2503659.5914503,47.891749174917,0,0
-183.6510985131,-253.39281012557,42.696179617962,1249860.3473591,75.44928621421,2503659.5914503,47.896179617962,0,0
-183.65109841336,-253.42163303012,42.700610061006,1249860.3473591,75.44928621421,2503659.5914503,47.900610061006,0,0
-183.65109831363,-253.45045593468,42.70504050405,1249860.3473591,75.44928621421,2503659.5914503,47.90504050405,0,0
-183.65109821389,-253.47927883924,42.709470947095,1249860.3473591,75.44928621421,2503659.5914503,47.909470947095,0,0
-183.65109811415,-253.50810174379,42.713901390139,1249860.3473591,75.44928621421,2503659.5914503,47.913901390139,0,0
-183.65109801442,-253.53692464835,42.718331833183,1249860.3473591,75.44928621421,2503659.5914503,47.918331833183,0,0
-183.65109791468,-253.5657475529,42.722762276228,1249860.3473591,75.44928621421,2503659.5914503,47.922762276228,0,0
-183.65109781494,-253.59457045746,42.727192719272,1249860.3473591,75.44928621421,2503659.5914503,47.927192719272,0,0
-183.65109771521,-253.62339336202,42.731623162316,1249860.3473591,75.44928621421,2503659.5914503,47.931623162316,0,0
-183.65109761547,-253.65221626657,42.736053605361,1249860.3473591,75.44928621421,2503659.5914503,47.936053605361,0,0
-183.65109751574,-253.68103917113,42.740484048405,1249860.3473591,75.44928621421,2503659.5914503,47.940484048405,0,0
-183.651097416,-253.70986207568,42.744914491449,1249860.3473591,75.44928621421,2503659.5914503,47.944914491449,0,0
-183.65109731626,-253.73868498024,42.749344934493,1249860.3473591,75.44928621421,2503659.5914503,47.949344934493,0,0
-183.65109721653,-253.7675078848,42.753775377538,1249860.3473591,75.44928621421,2503659.5914503,47.953775377538,0,0
-183.65109711679,-253.79633078935,42.758205820582,1249860.3473591,75.44928621421,2503659.5914503,47.958205820582,0,0
-183.65109701706,-253.82515369391,42.762636263626,1249860.3473591,75.44928621421,2503659.5914503,47.962636263626,0,0
-183.65109691732,-253.85397659846,42.767066706671,1249860.3473591,75.44928621421,2503659.5914503,47.967066706671,0,0
-183.65109681758,-253.88279950302,42.771497149715,1249860.3473591,75.44928621421,2503659.5914503,47.971497149715,0,0
-183.65109671785,-253.91162240757,42.775927592759,1249860.3473591,75.44928621421,2503659.5914503,47.975927592759,0,0
-183.65109661811,-253.94044531213,42.780358035804,1249860.3473591,75.44928621421,2503659.5914503,47.980358035804,0,0
-183.65109651838,-253.96926821669,42.784788478848,1249860.3473591,75.44928621421,2503659.5914503,47.984788478848,0,0
-183.65109641864,-253.99809112124,42.789218921892,1249860.3473591,75.44928621421,2503659.5914503,47.989218921892,0,0
-183.6510963189,-254.0269140258,42.793649364936,1249860.3473591,75.44928621421,2503659.5914503,47.993649364936,0,0
-183.65109621917,-254.05573693035,42.798079807981,1249860.3473591,75.44928621421,2503659.5914503,47.998079807981,0,0
-183.65109611943,-254.08455983491,42.802510251025,1249860.3473591,75.44928621421,2503659.5914503,48.002510251025,0,0
-183.65109601969,-254.11338273947,42.806940694069,1249860.3473591,75.44928621421,2503659.5914503,48.006940694069,0,0
-183.65109591996,-254.14220564402,42.811371137114,1249860.3473591,75.44928621421,2503659.5914503,48.011371137114,0,0
-183.65109582022,-254.17102854858,42.815801580158,1249860.3473591,75.44928621421,2503659.5914503,48.015801580158,0,0
-183.65109572049,-254.19985145313,42.820232023202,1249860.3473591,75.44928621421,2503659.5914503,48.020232023202,0,0
-183.65109562075,-254.22867435769,42.824662466247,1249860.3473591,75.44928621421,2503659.5914503,48.024662466247,0,0
-183.65109552101,-254.25749726225,42.829092909291,1249860.3473591,75.44928621421,2503659.5914503,48.029092909291,0,0
-183.65109542128,-254.2863201668,42.833523352335,1249860.3473591,75.44928621421,2503659.5914503,48.033523352335,0,0
-183.65109532154,-254.31514307136,42.83795379538,1249860.3473591,75.44928621421,2503659.5914503,48.03795379538,0,0
-183.65109522181,-254.34396597591,42.842384238424,1249860.3473591,75.44928621421,2503659.5914503,48.042384238424,0,0
-183.65109512207,-254.37278888047,42.846814681468,1249860.3473591,75.44928621421,2503659.5914503,48.046814681468,0,0
-183.65109502233,-254.40161178502,42.851245124512,1249860.3473591,75.44928621421,2503659.5914503,48.051245124512,0,0
-183.6510949226,-254.43043468958,42.855675567557,1249860.3473591,75.44928621421,2503659.5914503,48.055675567557,0,0
-183.65109482286,-254.45925759414,42.860106010601,1249860.3473591,75.44928621421,2503659.5914503,48.060106010601,0,0
-183.65109472312,-254.48808049869,42.864536453645,1249860.3473591,75.44928621421,2503659.5914503,48.064536453645,0,0
-183.65109462339,-254.51690340325,42.86896689669,1249860.3473591,75.44928621421,2503659.5914503,48.06896689669,0,0
-183.65109452365,-254.5457263078,42.873397339734,1249860.3473591,75.44928621421,2503659.5914503,48.073397339734,0,0
-183.65109442392,-254.57454921236,42.877827782778,1249860.3473591,75.44928621421,2503659.5914503,48.077827782778,0,0
-183.65109432418,-254.60337211692,42.882258225823,1249860.3473591,75.44928621421,2503659.5914503,48.082258225823,0,0
-183.65109422444,-254.63219502147,42.886688668867,1249860.3473591,75.44928621421,2503659.5914503,48.086688668867,0,0
-183.65109412471,-254.66101792603,42.891119111911,1249860.3473591,75.44928621421,2503659.5914503,48.091119111911,0,0
-183.65109402497,-254.68984083058,42.895549554955,1249860.3473591,75.44928621421,2503659.5914503,48.095549554955,0,0
-183.65109392524,-254.71866373514,42.899979998,1249860.3473591,75.44928621421,2503659.5914503,48.099979998,0,0
-183.6510938255,-254.7474866397,42.904410441044,1249860.3473591,75.44928621421,2503659.5914503,48.104410441044,0,0
-183.65109372576,-254.77630954425,42.908840884088,1249860.3473591,75.44928621421,2503659.5914503,48.108840884088,0,0
-183.65109362603,-254.80513244881,42.913271327133,1249860.3473591,75.44928621421,2503659.5914503,48.113271327133,0,0
-183.65109352629,-254.83395535336,42.917701770177,1249860.3473591,75.44928621421,2503659.5914503,48.117701770177,0,0
-183.65109342656,-254.86277825792,42.922132213221,1249860.3473591,75.44928621421,2503659.5914503,48.122132213221,0,0
-183.65109332682,-254.89160116247,42.926562656266,1249860.3473591,75.44928621421,2503659.5914503,48.126562656266,0,0
-183.65109322708,-254.92042406703,42.93099309931,1249860.3473591,75.44928621421,2503659.5914503,48.13099309931,0,0
-183.65109312735,-254.94924697159,42.935423542354,1249860.3473591,75.44928621421,2503659.5914503,48.135423542354,0,0
-183.65109302761,-254.97806987614,42.939853985399,1249860.3473591,75.44928621421,2503659.5914503,48.139853985399,0,0
-183.65109292787,-255.0068927807,42.944284428443,1249860.3473591,75.44928621421,2503659.5914503,48.144284428443,0,0
-183.65109282814,-255.03571568525,42.948714871487,1249860.3473591,75.44928621421,2503659.5914503,48.148714871487,0,0
-183.6510927284,-255.06453858981,42.953145314531,1249860.3473591,75.44928621421,2503659.5914503,48.153145314531,0,0
-183.65109262867,-255.09336149437,42.957575757576,1249860.3473591,75.44928621421,2503659.5914503,48.157575757576,0,0
-183.65109252893,-255.12218439892,42.96200620062,1249860.3473591,75.44928621421,2503659.5914503,48.16200620062,0,0
-183.65109242919,-255.15100730348,42.966436643664,1249860.3473591,75.44928621421,2503659.5914503,48.166436643664,0,0
-183.65109232946,-255.17983020803,42.970867086709,1249860.3473591,75.44928621421,2503659.5914503,48.170867086709,0,0
-183.65109222972,-255.20865311259,42.975297529753,1249860.3473591,75.44928621421,2503659.5914503,48.175297529753,0,0
-183.65109212999,-255.23747601715,42.979727972797,1249860.3473591,75.44928621421,2503659.5914503,48.179727972797,0,0
-183.65109203025,-255.2662989217,42.984158415842,1249860.3473591,75.44928621421,2503659.5914503,48.184158415842,0,0
-183.65109193051,-255.29512182626,42.988588858886,1249860.3473591,75.44928621421,2503659.5914503,48.188588858886,0,0
-183.65109183078,-255.32394473081,42.99301930193,1249860.3473591,75.44928621421,2503659.5914503,48.19301930193,0,0
-183.65109173104,-255.35276763537,42.997449744974,1249860.3473591,75.44928621421,2503659.5914503,48.197449744974,0,0
-183.6510916313,-255.38159053992,43.001880188019,1249860.3473591,75.44928621421,2503659.5914503,48.201880188019,0,0
-183.65109153157,-255.41041344448,43.006310631063,1249860.3473591,75.44928621421,2503659.5914503,48.206310631063,0,0
-183.65109143183,-255.43923634904,43.010741074107,1249860.3473591,75.44928621421,2503659.5914503,48.210741074107,0,0
-183.6510913321,-255.46805925359,43.015171517152,1249860.3473591,75.44928621421,2503659.5914503,48.215171517152,0,0
-183.65109123236,-255.49688215815,43.019601960196,1249860.3473591,75.44928621421,2503659.5914503,48.219601960196,0,0
-183.65109113262,-255.5257050627,43.02403240324,1249860.3473591,75.44928621421,2503659.5914503,48.22403240324,0,0
-183.65109103289,-255.55452796726,43.028462846285,1249860.3473591,75.44928621421,2503659.5914503,48.228462846285,0,0
-183.65109093315,-255.58335087182,43.032893289329,1249860.3473591,75.44928621421,2503659.5914503,48.232893289329,0,0
-183.65109083342,-255.61217377637,43.037323732373,1249860.3473591,75.44928621421,2503659.5914503,48.237323732373,0,0
-183.65109073368,-255.64099668093,43.041754175418,1249860.3473591,75.44928621421,2503659.5914503,48.241754175418,0,0
-183.65109063394,-255.66981958548,43.046184618462,1249860.3473591,75.44928621421,2503659.5914503,48.246184618462,0,0
-183.65109053421,-255.69864249004,43.050615061506,1249860.3473591,75.44928621421,2503659.5914503,48.250615061506,0,0
-183.65109043447,-255.7274653946,43.05504550455,1249860.3473591,75.44928621421,2503659.5914503,48.25504550455,0,0
-183.65109033474,-255.75628829915,43.059475947595,1249860.3473591,75.44928621421,2503659.5914503,48.259475947595,0,0
-183.651090235,-255.78511120371,43.063906390639,1249860.3473591,75.44928621421,2503659.5914503,48.263906390639,0,0
-183.65109013526,-255.81393410826,43.068336833683,1249860.3473591,75.44928621421,2503659.5914503,48.268336833683,0,0
-183.65109003553,-255.84275701282,43.072767276728,1249860.3473591,75.44928621421,2503659.5914503,48.272767276728,0,0
-183.65108993579,-255.87157991737,43.077197719772,1249860.3473591,75.44928621421,2503659.5914503,48.277197719772,0,0
-183.65108983605,-255.90040282193,43.081628162816,1249860.3473591,75.44928621421,2503659.5914503,48.281628162816,0,0
-183.65108973632,-255.92922572649,43.086058605861,1249860.3473591,75.44928621421,2503659.5914503,48.286058605861,0,0
-183.65108963658,-255.95804863104,43.090489048905,1249860.3473591,75.44928621421,2503659.5914503,48.290489048905,0,0
-183.65108953685,-255.9868715356,43.094919491949,1249860.3473591,75.44928621421,2503659.5914503,48.294919491949,0,0
-183.65108943711,-256.01569444015,43.099349934993,1249860.3473591,75.44928621421,2503659.5914503,48.299349934994,0,0
-183.65108933737,-256.04451734471,43.103780378038,1249860.3473591,75.44928621421,2503659.5914503,48.303780378038,0,0
-183.65108923764,-256.07334024927,43.108210821082,1249860.3473591,75.44928621421,2503659.5914503,48.308210821082,0,0
-183.6510891379,-256.10216315382,43.112641264126,1249860.3473591,75.44928621421,2503659.5914503,48.312641264126,0,0
-183.65108903817,-256.13098605838,43.117071707171,1249860.3473591,75.44928621421,2503659.5914503,48.317071707171,0,0
-183.65108893843,-256.15980896293,43.121502150215,1249860.3473591,75.44928621421,2503659.5914503,48.321502150215,0,0
-183.65108883869,-256.18863186749,43.125932593259,1249860.3473591,75.44928621421,2503659.5914503,48.325932593259,0,0
-183.65108873896,-256.21745477204,43.130363036304,1249860.3473591,75.44928621421,2503659.5914503,48.330363036304,0,0
-183.65108863922,-256.2462776766,43.134793479348,1249860.3473591,75.44928621421,2503659.5914503,48.334793479348,0,0
-183.65108853948,-256.27510058116,43.139223922392,1249860.3473591,75.44928621421,2503659.5914503,48.339223922392,0,0
-183.65108843975,-256.30392348571,43.143654365437,1249860.3473591,75.44928621421,2503659.5914503,48.343654365437,0,0
-183.65108834001,-256.33274639027,43.148084808481,1249860.3473591,75.44928621421,2503659.5914503,48.348084808481,0,0
-183.65108824028,-256.36156929482,43.152515251525,1249860.3473591,75.44928621421,2503659.5914503,48.352515251525,0,0
-183.65108814054,-256.39039219938,43.156945694569,1249860.3473591,75.44928621421,2503659.5914503,48.356945694569,0,0
-183.6510880408,-256.41921510394,43.161376137614,1249860.3473591,75.44928621421,2503659.5914503,48.361376137614,0,0
-183.65108794107,-256.44803800849,43.165806580658,1249860.3473591,75.44928621421,2503659.5914503,48.365806580658,0,0
-183.65108784133,-256.47686091305,43.170237023702,1249860.3473591,75.44928621421,2503659.5914503,48.370237023702,0,0
-183.6510877416,-256.5056838176,43.174667466747,1249860.3473591,75.44928621421,2503659.5914503,48.374667466747,0,0
-183.65108764186,-256.53450672216,43.179097909791,1249860.3473591,75.44928621421,2503659.5914503,48.379097909791,0,0
-183.65108754212,-256.56332962672,43.183528352835,1249860.3473591,75.44928621421,2503659.5914503,48.383528352835,0,0
-183.65108744239,-256.59215253127,43.18795879588,1249860.3473591,75.44928621421,2503659.5914503,48.38795879588,0,0
-183.65108734265,-256.62097543583,43.192389238924,1249860.3473591,75.44928621421,2503659.5914503,48.392389238924,0,0
-183.65108724292,-256.64979834038,43.196819681968,1249860.3473591,75.44928621421,2503659.5914503,48.396819681968,0,0
-183.65108714318,-256.67862124494,43.201250125012,1249860.3473591,75.44928621421,2503659.5914503,48.401250125013,0,0
-183.65108704344,-256.70744414949,43.205680568057,1249860.3473591,75.44928621421,2503659.5914503,48.405680568057,0,0
-183.65108694371,-256.73626705405,43.210111011101,1249860.3473591,75.44928621421,2503659.5914503,48.410111011101,0,0
-183.65108684397,-256.76508995861,43.214541454145,1249860.3473591,75.44928621421,2503659.5914503,48.414541454145,0,0
-183.65108674423,-256.79391286316,43.21897189719,1249860.3473591,75.44928621421,2503659.5914503,48.41897189719,0,0
-183.6510866445,-256.82273576772,43.223402340234,1249860.3473591,75.44928621421,2503659.5914503,48.423402340234,0,0
-183.65108654476,-256.85155867227,43.227832783278,1249860.3473591,75.44928621421,2503659.5914503,48.427832783278,0,0
-183.65108644503,-256.88038157683,43.232263226323,1249860.3473591,75.44928621421,2503659.5914503,48.432263226323,0,0
-183.65108634529,-256.90920448139,43.236693669367,1249860.3473591,75.44928621421,2503659.5914503,48.436693669367,0,0
-183.65108624555,-256.93802738594,43.241124112411,1249860.3473591,75.44928621421,2503659.5914503,48.441124112411,0,0
-183.65108614582,-256.9668502905,43.245554555456,1249860.3473591,75.44928621421,2503659.5914503,48.445554555456,0,0
-183.65108604608,-256.99567319505,43.2499849985,1249860.3473591,75.44928621421,2503659.5914503,48.4499849985,0,0
-183.65108594635,-257.02449609961,43.254415441544,1249860.3473591,75.44928621421,2503659.5914503,48.454415441544,0,0
-183.65108584661,-257.05331900417,43.258845884588,1249860.3473591,75.44928621421,2503659.5914503,48.458845884588,0,0
-183.65108574687,-257.08214190872,43.263276327633,1249860.3473591,75.44928621421,2503659.5914503,48.463276327633,0,0
-183.65108564714,-257.11096481328,43.267706770677,1249860.3473591,75.44928621421,2503659.5914503,48.467706770677,0,0
-183.6510855474,-257.13978771783,43.272137213721,1249860.3473591,75.44928621421,2503659.5914503,48.472137213721,0,0
-183.65108544767,-257.16861062239,43.276567656766,1249860.3473591,75.44928621421,2503659.5914503,48.476567656766,0,0
-183.65108534793,-257.19743352694,43.28099809981,1249860.3473591,75.44928621421,2503659.5914503,48.48099809981,0,0
-183.65108524819,-257.2262564315,43.285428542854,1249860.3473591,75.44928621421,2503659.5914503,48.485428542854,0,0
-183.65108514846,-257.25507933606,43.289858985899,1249860.3473591,75.44928621421,2503659.5914503,48.489858985899,0,0
-183.65108504872,-257.28390224061,43.294289428943,1249860.3473591,75.44928621421,2503659.5914503,48.494289428943,0,0
-183.65108494898,-257.31272514517,43.298719871987,1249860.3473591,75.44928621421,2503659.5914503,48.498719871987,0,0
-183.65108484925,-257.34154804972,43.303150315032,1249860.3473591,75.44928621421,2503659.5914503,48.503150315032,0,0
-183.65108474951,-257.37037095428,43.307580758076,1249860.3473591,75.44928621421,2503659.5914503,48.507580758076,0,0
-183.65108464978,-257.39919385884,43.31201120112,1249860.3473591,75.44928621421,2503659.5914503,48.51201120112,0,0
-183.65108455004,-257.42801676339,43.316441644164,1249860.3473591,75.44928621421,2503659.5914503,48.516441644164,0,0
-183.6510844503,-257.45683966795,43.320872087209,1249860.3473591,75.44928621421,2503659.5914503,48.520872087209,0,0
-183.65108435057,-257.4856625725,43.325302530253,1249860.3473591,75.44928621421,2503659.5914503,48.525302530253,0,0
-183.65108425083,-257.51448547706,43.329732973297,1249860.3473591,75.44928621421,2503659.5914503,48.529732973297,0,0
-183.6510841511,-257.54330838162,43.334163416342,1249860.3473591,75.44928621421,2503659.5914503,48.534163416342,0,0
-183.65108405136,-257.57213128617,43.338593859386,1249860.3473591,75.44928621421,2503659.5914503,48.538593859386,0,0
-183.65108395162,-257.60095419073,43.34302430243,1249860.3473591,75.44928621421,2503659.5914503,48.54302430243,0,0
-183.65108385189,-257.62977709528,43.347454745475,1249860.3473591,75.44928621421,2503659.5914503,48.547454745475,0,0
-183.65108375215,-257.65859999984,43.351885188519,1249860.3473591,75.44928621421,2503659.5914503,48.551885188519,0,0
-183.65108365241,-257.68742290439,43.356315631563,1249860.3473591,75.44928621421,2503659.5914503,48.556315631563,0,0
-183.65108355268,-257.71624580895,43.360746074607,1249860.3473591,75.44928621421,2503659.5914503,48.560746074607,0,0
-183.65108345294,-257.74506871351,43.365176517652,1249860.3473591,75.44928621421,2503659.5914503,48.565176517652,0,0
-183.65108335321,-257.77389161806,43.369606960696,1249860.3473591,75.44928621421,2503659.5914503,48.569606960696,0,0
-183.65108325347,-257.80271452262,43.37403740374,1249860.3473591,75.44928621421,2503659.5914503,48.57403740374,0,0
-183.65108315373,-257.83153742717,43.378467846785,1249860.3473591,75.44928621421,2503659.5914503,48.578467846785,0,0
-183.651083054,-257.86036033173,43.382898289829,1249860.3473591,75.44928621421,2503659.5914503,48.582898289829,0,0
-183.65108295426,-257.88918323629,43.387328732873,1249860.3473591,75.44928621421,2503659.5914503,48.587328732873,0,0
-183.65108285453,-257.91800614084,43.391759175918,1249860.3473591,75.44928621421,2503659.5914503,48.591759175918,0,0
-183.65108275479,-257.9468290454,43.396189618962,1249860.3473591,75.44928621421,2503659.5914503,48.596189618962,0,0
-183.65108265505,-257.97565194995,43.400620062006,1249860.3473591,75.44928621421,2503659.5914503,48.600620062006,0,0
-183.65108255532,-258.00447485451,43.405050505051,1249860.3473591,75.44928621421,2503659.5914503,48.605050505051,0,0
-183.65108245558,-258.03329775907,43.409480948095,1249860.3473591,75.44928621421,2503659.5914503,48.609480948095,0,0
-183.65108235585,-258.06212066362,43.413911391139,1249860.3473591,75.44928621421,2503659.5914503,48.613911391139,0,0
-183.65108225611,-258.09094356818,43.418341834183,1249860.3473591,75.44928621421,2503659.5914503,48.618341834183,0,0
-183.65108215637,-258.11976647273,43.422772277228,1249860.3473591,75.44928621421,2503659.5914503,48.622772277228,0,0
-183.65108205664,-258.14858937729,43.427202720272,1249860.3473591,75.44928621421,2503659.5914503,48.627202720272,0,0
-183.6510819569,-258.17741228184,43.431633163316,1249860.3473591,75.44928621421,2503659.5914503,48.631633163316,0,0
-183.65108185716,-258.2062351864,43.436063606361,1249860.3473591,75.44928621421,2503659.5914503,48.636063606361,0,0
-183.65108175743,-258.23505809096,43.440494049405,1249860.3473591,75.44928621421,2503659.5914503,48.640494049405,0,0
-183.65108165769,-258.26388099551,43.444924492449,1249860.3473591,75.44928621421,2503659.5914503,48.644924492449,0,0
-183.65108155796,-258.29270390007,43.449354935494,1249860.3473591,75.44928621421,2503659.5914503,48.649354935494,0,0
-183.65108145822,-258.32152680462,43.453785378538,1249860.3473591,75.44928621421,2503659.5914503,48.653785378538,0,0
-183.65108135848,-258.35034970918,43.458215821582,1249860.3473591,75.44928621421,2503659.5914503,48.658215821582,0,0
-183.65108125875,-258.37917261374,43.462646264626,1249860.3473591,75.44928621421,2503659.5914503,48.662646264626,0,0
-183.65108115901,-258.40799551829,43.467076707671,1249860.3473591,75.44928621421,2503659.5914503,48.667076707671,0,0
-183.65108105928,-258.43681842285,43.471507150715,1249860.3473591,75.44928621421,2503659.5914503,48.671507150715,0,0
-183.65108095954,-258.4656413274,43.475937593759,1249860.3473591,75.44928621421,2503659.5914503,48.675937593759,0,0
-183.6510808598,-258.49446423196,43.480368036804,1249860.3473591,75.44928621421,2503659.5914503,48.680368036804,0,0
-183.65108076007,-258.52328713652,43.484798479848,1249860.3473591,75.44928621421,2503659.5914503,48.684798479848,0,0
-183.65108066033,-258.55211004107,43.489228922892,1249860.3473591,75.44928621421,2503659.5914503,48.689228922892,0,0
-183.65108056059,-258.58093294563,43.493659365937,1249860.3473591,75.44928621421,2503659.5914503,48.693659365937,0,0
-183.65108046086,-258.60975585018,43.498089808981,1249860.3473591,75.44928621421,2503659.5914503,48.698089808981,0,0
-183.65108036112,-258.63857875474,43.502520252025,1249860.3473591,75.44928621421,2503659.5914503,48.702520252025,0,0
-183.65108026139,-258.66740165929,43.50695069507,1249860.3473591,75.44928621421,2503659.5914503,48.70695069507,0,0
-183.65108016165,-258.69622456385,43.511381138114,1249860.3473591,75.44928621421,2503659.5914503,48.711381138114,0,0
-183.65108006191,-258.72504746841,43.515811581158,1249860.3473591,75.44928621421,2503659.5914503,48.715811581158,0,0
-183.65107996218,-258.75387037296,43.520242024202,1249860.3473591,75.44928621421,2503659.5914503,48.720242024202,0,0
-183.65107986244,-258.78269327752,43.524672467247,1249860.3473591,75.44928621421,2503659.5914503,48.724672467247,0,0
-183.65107976271,-258.81151618207,43.529102910291,1249860.3473591,75.44928621421,2503659.5914503,48.729102910291,0,0
-183.65107966297,-258.84033908663,43.533533353335,1249860.3473591,75.44928621421,2503659.5914503,48.733533353335,0,0
-183.65107956323,-258.86916199119,43.53796379638,1249860.3473591,75.44928621421,2503659.5914503,48.73796379638,0,0
-183.6510794635,-258.89798489574,43.542394239424,1249860.3473591,75.44928621421,2503659.5914503,48.742394239424,0,0
-183.65107936376,-258.9268078003,43.546824682468,1249860.3473591,75.44928621421,2503659.5914503,48.746824682468,0,0
-183.65107926403,-258.95563070485,43.551255125513,1249860.3473591,75.44928621421,2503659.5914503,48.751255125513,0,0
-183.65107916429,-258.98445360941,43.555685568557,1249860.3473591,75.44928621421,2503659.5914503,48.755685568557,0,0
-183.65107906455,-259.01327651397,43.560116011601,1249860.3473591,75.44928621421,2503659.5914503,48.760116011601,0,0
-183.65107896482,-259.04209941852,43.564546454645,1249860.3473591,75.44928621421,2503659.5914503,48.764546454645,0,0
-183.65107886508,-259.07092232308,43.56897689769,1249860.3473591,75.44928621421,2503659.5914503,48.76897689769,0,0
-183.65107876534,-259.09974522763,43.573407340734,1249860.3473591,75.44928621421,2503659.5914503,48.773407340734,0,0
-183.65107866561,-259.12856813219,43.577837783778,1249860.3473591,75.44928621421,2503659.5914503,48.777837783778,0,0
-183.65107856587,-259.15739103674,43.582268226823,1249860.3473591,75.44928621421,2503659.5914503,48.782268226823,0,0
-183.65107846614,-259.1862139413,43.586698669867,1249860.3473591,75.44928621421,2503659.5914503,48.786698669867,0,0
-183.6510783664,-259.21503684586,43.591129112911,1249860.3473591,75.44928621421,2503659.5914503,48.791129112911,0,0
-183.65107826666,-259.24385975041,43.595559555956,1249860.3473591,75.44928621421,2503659.5914503,48.795559555956,0,0
-183.65107816693,-259.27268265497,43.599989999,1249860.3473591,75.44928621421,2503659.5914503,48.799989999,0,0
-183.65107806719,-259.30150555952,43.604420442044,1249860.3473591,75.44928621421,2503659.5914503,48.804420442044,0,0
-183.65107796746,-259.33032846408,43.608850885089,1249860.3473591,75.44928621421,2503659.5914503,48.808850885089,0,0
-183.65107786772,-259.35915136864,43.613281328133,1249860.3473591,75.44928621421,2503659.5914503,48.813281328133,0,0
-183.65107776798,-259.38797427319,43.617711771177,1249860.3473591,75.44928621421,2503659.5914503,48.817711771177,0,0
-183.65107766825,-259.41679717775,43.622142214221,1249860.3473591,75.44928621421,2503659.5914503,48.822142214221,0,0
-183.65107756851,-259.4456200823,43.626572657266,1249860.3473591,75.44928621421,2503659.5914503,48.826572657266,0,0
-183.65107746877,-259.47444298686,43.63100310031,1249860.3473591,75.44928621421,2503659.5914503,48.83100310031,0,0
-183.65107736904,-259.50326589141,43.635433543354,1249860.3473591,75.44928621421,2503659.5914503,48.835433543354,0,0
-183.6510772693,-259.53208879597,43.639863986399,1249860.3473591,75.44928621421,2503659.5914503,48.839863986399,0,0
-183.65107716957,-259.56091170053,43.644294429443,1249860.3473591,75.44928621421,2503659.5914503,48.844294429443,0,0
-183.65107706983,-259.58973460508,43.648724872487,1249860.3473591,75.44928621421,2503659.5914503,48.848724872487,0,0
-183.65107697009,-259.61855750964,43.653155315532,1249860.3473591,75.44928621421,2503659.5914503,48.853155315532,0,0
-183.65107687036,-259.64738041419,43.657585758576,1249860.3473591,75.44928621421,2503659.5914503,48.857585758576,0,0
-183.65107677062,-259.67620331875,43.66201620162,1249860.3473591,75.44928621421,2503659.5914503,48.86201620162,0,0
-183.65107667089,-259.70502622331,43.666446644664,1249860.3473591,75.44928621421,2503659.5914503,48.866446644664,0,0
-183.65107657115,-259.73384912786,43.670877087709,1249860.3473591,75.44928621421,2503659.5914503,48.870877087709,0,0
-183.65107647141,-259.76267203242,43.675307530753,1249860.3473591,75.44928621421,2503659.5914503,48.875307530753,0,0
-183.65107637168,-259.79149493697,43.679737973797,1249860.3473591,75.44928621421,2503659.5914503,48.879737973797,0,0
-183.65107627194,-259.82031784153,43.684168416842,1249860.3473591,75.44928621421,2503659.5914503,48.884168416842,0,0
-183.65107617221,-259.84914074609,43.688598859886,1249860.3473591,75.44928621421,2503659.5914503,48.888598859886,0,0
-183.65107607247,-259.87796365064,43.69302930293,1249860.3473591,75.44928621421,2503659.5914503,48.89302930293,0,0
-183.65107597273,-259.9067865552,43.697459745975,1249860.3473591,75.44928621421,2503659.5914503,48.897459745975,0,0
-183.651075873,-259.93560945975,43.701890189019,1249860.3473591,75.44928621421,2503659.5914503,48.901890189019,0,0
-183.65107577326,-259.96443236431,43.706320632063,1249860.3473591,75.44928621421,2503659.5914503,48.906320632063,0,0
-183.65107567352,-259.99325526886,43.710751075108,1249860.3473591,75.44928621421,2503659.5914503,48.910751075108,0,0
-183.65107557379,-260.02207817342,43.715181518152,1249860.3473591,75.44928621421,2503659.5914503,48.915181518152,0,0
-183.65107547405,-260.05090107798,43.719611961196,1249860.3473591,75.44928621421,2503659.5914503,48.919611961196,0,0
-183.65107537432,-260.07972398253,43.72404240424,1249860.3473591,75.44928621421,2503659.5914503,48.92404240424,0,0
-183.65107527458,-260.10854688709,43.728472847285,1249860.3473591,75.44928621421,2503659.5914503,48.928472847285,0,0
-183.65107517484,-260.13736979164,43.732903290329,1249860.3473591,75.44928621421,2503659.5914503,48.932903290329,0,0
-183.65107507511,-260.1661926962,43.737333733373,1249860.3473591,75.44928621421,2503659.5914503,48.937333733373,0,0
-183.65107497537,-260.19501560076,43.741764176418,1249860.3473591,75.44928621421,2503659.5914503,48.941764176418,0,0
-183.65107487564,-260.22383850531,43.746194619462,1249860.3473591,75.44928621421,2503659.5914503,48.946194619462,0,0
-183.6510747759,-260.25266140987,43.750625062506,1249860.3473591,75.44928621421,2503659.5914503,48.950625062506,0,0
-183.65107467616,-260.28148431442,43.755055505551,1249860.3473591,75.44928621421,2503659.5914503,48.955055505551,0,0
-183.65107457643,-260.31030721898,43.759485948595,1249860.3473591,75.44928621421,2503659.5914503,48.959485948595,0,0
-183.65107447669,-260.33913012354,43.763916391639,1249860.3473591,75.44928621421,2503659.5914503,48.963916391639,0,0
-183.65107437695,-260.36795302809,43.768346834683,1249860.3473591,75.44928621421,2503659.5914503,48.968346834683,0,0
-183.65107427722,-260.39677593265,43.772777277728,1249860.3473591,75.44928621421,2503659.5914503,48.972777277728,0,0
-183.65107417748,-260.4255988372,43.777207720772,1249860.3473591,75.44928621421,2503659.5914503,48.977207720772,0,0
-183.65107407775,-260.45442174176,43.781638163816,1249860.3473591,75.44928621421,2503659.5914503,48.981638163816,0,0
-183.65107397801,-260.48324464631,43.786068606861,1249860.3473591,75.44928621421,2503659.5914503,48.986068606861,0,0
-183.65107387827,-260.51206755087,43.790499049905,1249860.3473591,75.44928621421,2503659.5914503,48.990499049905,0,0
-183.65107377854,-260.54089045543,43.794929492949,1249860.3473591,75.44928621421,2503659.5914503,48.994929492949,0,0
-183.6510736788,-260.56971335998,43.799359935994,1249860.3473591,75.44928621421,2503659.5914503,48.999359935994,0,0
-183.65107357907,-260.59853626454,43.803790379038,1249860.3473591,75.44928621421,2503659.5914503,49.003790379038,0,0
-183.65107347933,-260.62735916909,43.808220822082,1249860.3473591,75.44928621421,2503659.5914503,49.008220822082,0,0
-183.65107337959,-260.65618207365,43.812651265127,1249860.3473591,75.44928621421,2503659.5914503,49.012651265127,0,0
-183.65107327986,-260.68500497821,43.817081708171,1249860.3473591,75.44928621421,2503659.5914503,49.017081708171,0,0
-183.65107318012,-260.71382788276,43.821512151215,1249860.3473591,75.44928621421,2503659.5914503,49.021512151215,0,0
-183.65107308039,-260.74265078732,43.825942594259,1249860.3473591,75.44928621421,2503659.5914503,49.025942594259,0,0
-183.65107298065,-260.77147369187,43.830373037304,1249860.3473591,75.44928621421,2503659.5914503,49.030373037304,0,0
-183.65107288091,-260.80029659643,43.834803480348,1249860.3473591,75.44928621421,2503659.5914503,49.034803480348,0,0
-183.65107278118,-260.82911950099,43.839233923392,1249860.3473591,75.44928621421,2503659.5914503,49.039233923392,0,0
-183.65107268144,-260.85794240554,43.843664366437,1249860.3473591,75.44928621421,2503659.5914503,49.043664366437,0,0
-183.6510725817,-260.8867653101,43.848094809481,1249860.3473591,75.44928621421,2503659.5914503,49.048094809481,0,0
-183.65107248197,-260.91558821465,43.852525252525,1249860.3473591,75.44928621421,2503659.5914503,49.052525252525,0,0
-183.65107238223,-260.94441111921,43.85695569557,1249860.3473591,75.44928621421,2503659.5914503,49.05695569557,0,0
-183.6510722825,-260.97323402376,43.861386138614,1249860.3473591,75.44928621421,2503659.5914503,49.061386138614,0,0
-183.65107218276,-261.00205692832,43.865816581658,1249860.3473591,75.44928621421,2503659.5914503,49.065816581658,0,0
-183.65107208302,-261.03087983288,43.870247024702,1249860.3473591,75.44928621421,2503659.5914503,49.070247024702,0,0
-183.65107198329,-261.05970273743,43.874677467747,1249860.3473591,75.44928621421,2503659.5914503,49.074677467747,0,0
-183.65107188355,-261.08852564199,43.879107910791,1249860.3473591,75.44928621421,2503659.5914503,49.079107910791,0,0
-183.65107178382,-261.11734854654,43.883538353835,1249860.3473591,75.44928621421,2503659.5914503,49.083538353835,0,0
-183.65107168408,-261.1461714511,43.88796879688,1249860.3473591,75.44928621421,2503659.5914503,49.08796879688,0,0
-183.65107158434,-261.17499435566,43.892399239924,1249860.3473591,75.44928621421,2503659.5914503,49.092399239924,0,0
-183.65107148461,-261.20381726021,43.896829682968,1249860.3473591,75.44928621421,2503659.5914503,49.096829682968,0,0
-183.65107138487,-261.23264016477,43.901260126013,1249860.3473591,75.44928621421,2503659.5914503,49.101260126013,0,0
-183.65107128513,-261.26146306932,43.905690569057,1249860.3473591,75.44928621421,2503659.5914503,49.105690569057,0,0
-183.6510711854,-261.29028597388,43.910121012101,1249860.3473591,75.44928621421,2503659.5914503,49.110121012101,0,0
-183.65107108566,-261.31910887844,43.914551455146,1249860.3473591,75.44928621421,2503659.5914503,49.114551455146,0,0
-183.65107098593,-261.34793178299,43.91898189819,1249860.3473591,75.44928621421,2503659.5914503,49.11898189819,0,0
-183.65107088619,-261.37675468755,43.923412341234,1249860.3473591,75.44928621421,2503659.5914503,49.123412341234,0,0
-183.65107078645,-261.4055775921,43.927842784278,1249860.3473591,75.44928621421,2503659.5914503,49.127842784278,0,0
-183.65107068672,-261.43440049666,43.932273227323,1249860.3473591,75.44928621421,2503659.5914503,49.132273227323,0,0
-183.65107058698,-261.46322340121,43.936703670367,1249860.3473591,75.44928621421,2503659.5914503,49.136703670367,0,0
-183.65107048725,-261.49204630577,43.941134113411,1249860.3473591,75.44928621421,2503659.5914503,49.141134113411,0,0
-183.65107038751,-261.52086921033,43.945564556456,1249860.3473591,75.44928621421,2503659.5914503,49.145564556456,0,0
-183.65107028777,-261.54969211488,43.9499949995,1249860.3473591,75.44928621421,2503659.5914503,49.1499949995,0,0
-183.65107018804,-261.57851501944,43.954425442544,1249860.3473591,75.44928621421,2503659.5914503,49.154425442544,0,0
-183.6510700883,-261.60733792399,43.958855885589,1249860.3473591,75.44928621421,2503659.5914503,49.158855885589,0,0
-183.65106998857,-261.63616082855,43.963286328633,1249860.3473591,75.44928621421,2503659.5914503,49.163286328633,0,0
-183.65106988883,-261.66498373311,43.967716771677,1249860.3473591,75.44928621421,2503659.5914503,49.167716771677,0,0
-183.65106978909,-261.69380663766,43.972147214721,1249860.3473591,75.44928621421,2503659.5914503,49.172147214721,0,0
-183.65106968936,-261.72262954222,43.976577657766,1249860.3473591,75.44928621421,2503659.5914503,49.176577657766,0,0
-183.65106958962,-261.75145244677,43.98100810081,1249860.3473591,75.44928621421,2503659.5914503,49.18100810081,0,0
-183.65106948988,-261.78027535133,43.985438543854,1249860.3473591,75.44928621421,2503659.5914503,49.185438543854,0,0
-183.65106939015,-261.80909825589,43.989868986899,1249860.3473591,75.44928621421,2503659.5914503,49.189868986899,0,0
-183.65106929041,-261.83792116044,43.994299429943,1249860.3473591,75.44928621421,2503659.5914503,49.194299429943,0,0
-183.65106919068,-261.866744065,43.998729872987,1249860.3473591,75.44928621421,2503659.5914503,49.198729872987,0,0
-183.65106909094,-261.89556696955,44.003160316032,1249860.3473591,75.44928621421,2503659.5914503,49.203160316032,0,0
-183.6510689912,-261.92438987411,44.007590759076,1249860.3473591,75.44928621421,2503659.5914503,49.207590759076,0,0
-183.65106889147,-261.95321277866,44.01202120212,1249860.3473591,75.44928621421,2503659.5914503,49.21202120212,0,0
-183.65106879173,-261.98203568322,44.016451645165,1249860.3473591,75.44928621421,2503659.5914503,49.216451645165,0,0
-183.651068692,-262.01085858778,44.020882088209,1249860.3473591,75.44928621421,2503659.5914503,49.220882088209,0,0
-183.65106859226,-262.03968149233,44.025312531253,1249860.3473591,75.44928621421,2503659.5914503,49.225312531253,0,0
-183.65106849252,-262.06850439689,44.029742974297,1249860.3473591,75.44928621421,2503659.5914503,49.229742974297,0,0
-183.65106839279,-262.09732730144,44.034173417342,1249860.3473591,75.44928621421,2503659.5914503,49.234173417342,0,0
-183.65106829305,-262.126150206,44.038603860386,1249860.3473591,75.44928621421,2503659.5914503,49.238603860386,0,0
-183.65106819331,-262.15497311056,44.04303430343,1249860.3473591,75.44928621421,2503659.5914503,49.24303430343,0,0
-183.65106809358,-262.18379601511,44.047464746475,1249860.3473591,75.44928621421,2503659.5914503,49.247464746475,0,0
-183.65106799384,-262.21261891967,44.051895189519,1249860.3473591,75.44928621421,2503659.5914503,49.251895189519,0,0
-183.65106789411,-262.24144182422,44.056325632563,1249860.3473591,75.44928621421,2503659.5914503,49.256325632563,0,0
-183.65106779437,-262.27026472878,44.060756075608,1249860.3473591,75.44928621421,2503659.5914503,49.260756075608,0,0
-183.65106769463,-262.29908763334,44.065186518652,1249860.3473591,75.44928621421,2503659.5914503,49.265186518652,0,0
-183.6510675949,-262.32791053789,44.069616961696,1249860.3473591,75.44928621421,2503659.5914503,49.269616961696,0,0
-183.65106749516,-262.35673344245,44.07404740474,1249860.3473591,75.44928621421,2503659.5914503,49.27404740474,0,0
-183.65106739543,-262.385556347,44.078477847785,1249860.3473591,75.44928621421,2503659.5914503,49.278477847785,0,0
-183.65106729569,-262.41437925156,44.082908290829,1249860.3473591,75.44928621421,2503659.5914503,49.282908290829,0,0
-183.65106719595,-262.44320215611,44.087338733873,1249860.3473591,75.44928621421,2503659.5914503,49.287338733873,0,0
-183.65106709622,-262.47202506067,44.091769176918,1249860.3473591,75.44928621421,2503659.5914503,49.291769176918,0,0
-183.65106699648,-262.50084796523,44.096199619962,1249860.3473591,75.44928621421,2503659.5914503,49.296199619962,0,0
-183.65106689675,-262.52967086978,44.100630063006,1249860.3473591,75.44928621421,2503659.5914503,49.300630063006,0,0
-183.65106679701,-262.55849377434,44.105060506051,1249860.3473591,75.44928621421,2503659.5914503,49.305060506051,0,0
-183.65106669727,-262.58731667889,44.109490949095,1249860.3473591,75.44928621421,2503659.5914503,49.309490949095,0,0
-183.65106659754,-262.61613958345,44.113921392139,1249860.3473591,75.44928621421,2503659.5914503,49.313921392139,0,0
-183.6510664978,-262.64496248801,44.118351835184,1249860.3473591,75.44928621421,2503659.5914503,49.318351835184,0,0
-183.65106639806,-262.67378539256,44.122782278228,1249860.3473591,75.44928621421,2503659.5914503,49.322782278228,0,0
-183.65106629833,-262.70260829712,44.127212721272,1249860.3473591,75.44928621421,2503659.5914503,49.327212721272,0,0
-183.65106619859,-262.73143120167,44.131643164316,1249860.3473591,75.44928621421,2503659.5914503,49.331643164316,0,0
-183.65106609886,-262.76025410623,44.136073607361,1249860.3473591,75.44928621421,2503659.5914503,49.336073607361,0,0
-183.65106599912,-262.78907701078,44.140504050405,1249860.3473591,75.44928621421,2503659.5914503,49.340504050405,0,0
-183.65106589938,-262.81789991534,44.144934493449,1249860.3473591,75.44928621421,2503659.5914503,49.344934493449,0,0
-183.65106579965,-262.8467228199,44.149364936494,1249860.3473591,75.44928621421,2503659.5914503,49.349364936494,0,0
-183.65106569991,-262.87554572445,44.153795379538,1249860.3473591,75.44928621421,2503659.5914503,49.353795379538,0,0
-183.65106560018,-262.90436862901,44.158225822582,1249860.3473591,75.44928621421,2503659.5914503,49.358225822582,0,0
-183.65106550044,-262.93319153356,44.162656265627,1249860.3473591,75.44928621421,2503659.5914503,49.362656265627,0,0
-183.6510654007,-262.96201443812,44.167086708671,1249860.3473591,75.44928621421,2503659.5914503,49.367086708671,0,0
-183.65106530097,-262.99083734268,44.171517151715,1249860.3473591,75.44928621421,2503659.5914503,49.371517151715,0,0
-183.65106520123,-263.01966024723,44.175947594759,1249860.3473591,75.44928621421,2503659.5914503,49.375947594759,0,0
-183.65106510149,-263.04848315179,44.180378037804,1249860.3473591,75.44928621421,2503659.5914503,49.380378037804,0,0
-183.65106500176,-263.07730605634,44.184808480848,1249860.3473591,75.44928621421,2503659.5914503,49.384808480848,0,0
-183.65106490202,-263.1061289609,44.189238923892,1249860.3473591,75.44928621421,2503659.5914503,49.389238923892,0,0
-183.65106480229,-263.13495186546,44.193669366937,1249860.3473591,75.44928621421,2503659.5914503,49.393669366937,0,0
-183.65106470255,-263.16377477001,44.198099809981,1249860.3473591,75.44928621421,2503659.5914503,49.398099809981,0,0
-183.65106460281,-263.19259767457,44.202530253025,1249860.3473591,75.44928621421,2503659.5914503,49.402530253025,0,0
-183.65106450308,-263.22142057912,44.20696069607,1249860.3473591,75.44928621421,2503659.5914503,49.40696069607,0,0
-183.65106440334,-263.25024348368,44.211391139114,1249860.3473591,75.44928621421,2503659.5914503,49.411391139114,0,0
-183.65106430361,-263.27906638823,44.215821582158,1249860.3473591,75.44928621421,2503659.5914503,49.415821582158,0,0
-183.65106420387,-263.30788929279,44.220252025203,1249860.3473591,75.44928621421,2503659.5914503,49.420252025203,0,0
-183.65106410413,-263.33671219735,44.224682468247,1249860.3473591,75.44928621421,2503659.5914503,49.424682468247,0,0
-183.6510640044,-263.3655351019,44.229112911291,1249860.3473591,75.44928621421,2503659.5914503,49.429112911291,0,0
-183.65106390466,-263.39435800646,44.233543354335,1249860.3473591,75.44928621421,2503659.5914503,49.433543354335,0,0
-183.65106380493,-263.42318091101,44.23797379738,1249860.3473591,75.44928621421,2503659.5914503,49.43797379738,0,0
-183.65106370519,-263.45200381557,44.242404240424,1249860.3473591,75.44928621421,2503659.5914503,49.442404240424,0,0
-183.65106360545,-263.48082672013,44.246834683468,1249860.3473591,75.44928621421,2503659.5914503,49.446834683468,0,0
-183.65106350572,-263.50964962468,44.251265126513,1249860.3473591,75.44928621421,2503659.5914503,49.451265126513,0,0
-183.65106340598,-263.53847252924,44.255695569557,1249860.3473591,75.44928621421,2503659.5914503,49.455695569557,0,0
-183.65106330624,-263.56729543379,44.260126012601,1249860.3473591,75.44928621421,2503659.5914503,49.460126012601,0,0
-183.65106320651,-263.59611833835,44.264556455646,1249860.3473591,75.44928621421,2503659.5914503,49.464556455646,0,0
-183.65106310677,-263.62494124291,44.26898689869,1249860.3473591,75.44928621421,2503659.5914503,49.46898689869,0,0
-183.65106300704,-263.65376414746,44.273417341734,1249860.3473591,75.44928621421,2503659.5914503,49.473417341734,0,0
-183.6510629073,-263.68258705202,44.277847784778,1249860.3473591,75.44928621421,2503659.5914503,49.477847784778,0,0
-183.65106280756,-263.71140995657,44.282278227823,1249860.3473591,75.44928621421,2503659.5914503,49.482278227823,0,0
-183.65106270783,-263.74023286113,44.286708670867,1249860.3473591,75.44928621421,2503659.5914503,49.486708670867,0,0
-183.65106260809,-263.76905576568,44.291139113911,1249860.3473591,75.44928621421,2503659.5914503,49.491139113911,0,0
-183.65106250836,-263.79787867024,44.295569556956,1249860.3473591,75.44928621421,2503659.5914503,49.495569556956,0,0
-183.65106240862,-263.8267015748,44.3,1249860.3473591,75.44928621421,2503659.5914503,49.5,0,0
