disp_x,disp_y,id,stress_xx,stress_xy,stress_yy,x,y,z
-31.845349122727,47.637220947017,0,297640.80922178,-47127.286661635,6572564.4659688,5.2,0,0
-31.845349240668,47.658778665963,0.0044304430443045,297640.80922178,-47127.286661635,6572564.4659688,5.2044304430443,0,0
-31.845349358608,47.680336384909,0.008860886088609,297640.80922178,-47127.286661635,6572564.4659688,5.2088608860886,0,0
-31.845349476548,47.701894103855,0.013291329132914,297640.80922178,-47127.286661635,6572564.4659688,5.2132913291329,0,0
-31.845349594489,47.723451822801,0.017721772177218,297640.80922178,-47127.286661635,6572564.4659688,5.2177217721772,0,0
-31.845349708328,47.74500955864,0.022152215221523,280383.51714713,42914.619693874,6298469.1088241,5.2221522152215,0,0
-31.845349820349,47.766567301969,0.026582658265826,280383.51714713,42914.619693874,6298469.1088241,5.2265826582658,0,0
-31.84534993237,47.788125045298,0.031013101310131,280383.51714713,42914.619693874,6298469.1088241,5.2310131013101,0,0
-31.845350044391,47.809682788626,0.035443544354435,280383.51714713,42914.619693874,6298469.1088241,5.2354435443544,0,0
-31.845350156412,47.831240531955,0.03987398739874,280383.51714713,42914.619693874,6298469.1088241,5.2398739873987,0,0
-31.845350268433,47.852798275284,0.044304430443044,280383.51714713,42914.619693874,6298469.1088241,5.244304430443,0,0
-31.845350380454,47.874356018612,0.048734873487349,280383.51714713,42914.619693874,6298469.1088241,5.2487348734873,0,0
-31.845350492474,47.895913761941,0.053165316531653,280383.51714713,42914.619693874,6298469.1088241,5.2531653165317,0,0
-31.845350604495,47.917471505269,0.057595759575958,280383.51714713,42914.619693874,6298469.1088241,5.257595759576,0,0
-31.845350716516,47.939029248598,0.062026202620262,280383.51714713,42914.619693874,6298469.1088241,5.2620262026203,0,0
-31.845350828537,47.960586991927,0.066456645664567,280383.51714713,42914.619693874,6298469.1088241,5.2664566456646,0,0
-31.845350940558,47.982144735255,0.070887088708871,280383.51714713,42914.619693874,6298469.1088241,5.2708870887089,0,0
-31.845351052579,48.003702478584,0.075317531753175,280383.51714713,42914.619693874,6298469.1088241,5.2753175317532,0,0
-31.8453511646,48.025260221913,0.079747974797479,280383.51714713,42914.619693874,6298469.1088241,5.2797479747975,0,0
-31.845351276621,48.046817965241,0.084178417841784,280383.51714713,42914.619693874,6298469.1088241,5.2841784178418,0,0
-31.845351388642,48.06837570857,0.088608860886088,280383.51714713,42914.619693874,6298469.1088241,5.2886088608861,0,0
-31.845351499566,48.089933449923,0.093039303930393,411632.46486576,-37812.65933867,6226253.0605858,5.2930393039304,0,0
-31.845351599181,48.111491170913,0.097469746974697,411632.46486576,-37812.65933867,6226253.0605858,5.2974697469747,0,0
-31.845351698795,48.133048891902,0.101900190019,411632.46486576,-37812.65933867,6226253.0605858,5.301900190019,0,0
-31.84535179841,48.154606612891,0.10633063306331,411632.46486576,-37812.65933867,6226253.0605858,5.3063306330633,0,0
-31.845351898024,48.176164333881,0.11076107610761,411632.46486576,-37812.65933867,6226253.0605858,5.3107610761076,0,0
-31.845351997639,48.19772205487,0.11519151915192,411632.46486576,-37812.65933867,6226253.0605858,5.3151915191519,0,0
-31.845352097253,48.219279775859,0.11962196219622,411632.46486576,-37812.65933867,6226253.0605858,5.3196219621962,0,0
-31.845352196868,48.240837496849,0.12405240524052,411632.46486576,-37812.65933867,6226253.0605858,5.3240524052405,0,0
-31.845352296483,48.262395217838,0.12848284828483,411632.46486576,-37812.65933867,6226253.0605858,5.3284828482848,0,0
-31.845352396097,48.283952938827,0.13291329132913,411632.46486576,-37812.65933867,6226253.0605858,5.3329132913291,0,0
-31.845352495712,48.305510659817,0.13734373437344,411632.46486576,-37812.65933867,6226253.0605858,5.3373437343734,0,0
-31.845352595326,48.327068380806,0.14177417741774,411632.46486576,-37812.65933867,6226253.0605858,5.3417741774177,0,0
-31.845352694941,48.348626101795,0.14620462046205,411632.46486576,-37812.65933867,6226253.0605858,5.346204620462,0,0
-31.845352794555,48.370183822785,0.15063506350635,411632.46486576,-37812.65933867,6226253.0605858,5.3506350635064,0,0
-31.84535289417,48.391741543774,0.15506550655066,411632.46486576,-37812.65933867,6226253.0605858,5.3550655065507,0,0
-31.845352993784,48.413299264763,0.15949594959496,411632.46486576,-37812.65933867,6226253.0605858,5.359495949595,0,0
-31.845353093399,48.434856985753,0.16392639263926,411632.46486576,-37812.65933867,6226253.0605858,5.3639263926393,0,0
-31.845353193014,48.456414706742,0.16835683568357,411632.46486576,-37812.65933867,6226253.0605858,5.3683568356836,0,0
-31.845353292628,48.477972427731,0.17278727872787,411632.46486576,-37812.65933867,6226253.0605858,5.3727872787279,0,0
-31.845353392243,48.499530148721,0.17721772177218,411632.46486576,-37812.65933867,6226253.0605858,5.3772177217722,0,0
-31.845353491857,48.52108786971,0.18164816481648,411632.46486576,-37812.65933867,6226253.0605858,5.3816481648165,0,0
-31.845353589093,48.542645600354,0.18607860786079,412597.50454628,66626.938523768,5978034.9702487,5.3860786078608,0,0
-31.845353682022,48.56420334848,0.19050905090509,412597.50454628,66626.938523768,5978034.9702487,5.3905090509051,0,0
-31.84535377495,48.585761096606,0.19493949394939,412597.50454628,66626.938523768,5978034.9702487,5.3949394939494,0,0
-31.845353867879,48.607318844733,0.1993699369937,412597.50454628,66626.938523768,5978034.9702487,5.3993699369937,0,0
-31.845353960808,48.628876592859,0.203800380038,412597.50454628,66626.938523768,5978034.9702487,5.403800380038,0,0
-31.845354053736,48.650434340985,0.20823082308231,412597.50454628,66626.938523768,5978034.9702487,5.4082308230823,0,0
-31.845354146665,48.671992089112,0.21266126612661,412597.50454628,66626.938523768,5978034.9702487,5.4126612661266,0,0
-31.845354239593,48.693549837238,0.21709170917092,412597.50454628,66626.938523768,5978034.9702487,5.4170917091709,0,0
-31.845354332522,48.715107585364,0.22152215221522,412597.50454628,66626.938523768,5978034.9702487,5.4215221522152,0,0
-31.845354425451,48.736665333491,0.22595259525953,412597.50454628,66626.938523768,5978034.9702487,5.4259525952595,0,0
-31.845354518379,48.758223081617,0.23038303830383,412597.50454628,66626.938523768,5978034.9702487,5.4303830383038,0,0
-31.845354608016,48.779780823301,0.23481348134813,534759.9658046,-18906.656448508,5908920.6841088,5.4348134813481,0,0
-31.845354689347,48.801338548726,0.23924392439244,534759.9658046,-18906.656448507,5908920.6841088,5.4392439243924,0,0
-31.845354770677,48.822896274151,0.24367436743674,534759.9658046,-18906.656448507,5908920.6841088,5.4436743674367,0,0
-31.845354852008,48.844453999576,0.24810481048105,534759.9658046,-18906.656448507,5908920.6841088,5.448104810481,0,0
-31.845354933339,48.866011725002,0.25253525352535,534759.9658046,-18906.656448507,5908920.6841088,5.4525352535254,0,0
-31.845355014669,48.887569450427,0.25696569656966,534759.9658046,-18906.656448507,5908920.6841088,5.4569656965697,0,0
-31.845355096,48.909127175852,0.26139613961396,534759.9658046,-18906.656448507,5908920.6841088,5.461396139614,0,0
-31.84535517733,48.930684901278,0.26582658265827,534759.9658046,-18906.656448507,5908920.6841088,5.4658265826583,0,0
-31.845355258661,48.952242626703,0.27025702570257,534759.9658046,-18906.656448507,5908920.6841088,5.4702570257026,0,0
-31.845355339992,48.973800352128,0.27468746874687,534759.9658046,-18906.656448507,5908920.6841088,5.4746874687469,0,0
-31.845355421322,48.995358077553,0.27911791179118,534759.9658046,-18906.656448507,5908920.6841088,5.4791179117912,0,0
-31.845355502653,49.016915802979,0.28354835483548,534759.9658046,-18906.656448507,5908920.6841088,5.4835483548355,0,0
-31.845355583983,49.038473528404,0.28797879787979,534759.9658046,-18906.656448507,5908920.6841088,5.4879787978798,0,0
-31.845355665314,49.060031253829,0.29240924092409,534759.9658046,-18906.656448507,5908920.6841088,5.4924092409241,0,0
-31.845355746645,49.081588979255,0.2968396839684,534759.9658046,-18906.656448507,5908920.6841088,5.4968396839684,0,0
-31.845355827975,49.10314670468,0.3012701270127,534759.9658046,-18906.656448507,5908920.6841088,5.5012701270127,0,0
-31.845355909306,49.124704430105,0.30570057005701,534759.9658046,-18906.656448507,5908920.6841088,5.505700570057,0,0
-31.845355990636,49.146262155531,0.31013101310131,534759.9658046,-18906.656448507,5908920.6841088,5.5101310131013,0,0
-31.845356071967,49.167819880956,0.31456145614561,534759.9658046,-18906.656448507,5908920.6841088,5.5145614561456,0,0
-31.845356153298,49.189377606381,0.31899189918992,534759.9658046,-18906.656448507,5908920.6841088,5.5189918991899,0,0
-31.845356234628,49.210935331806,0.32342234223422,534759.9658046,-18906.656448507,5908920.6841088,5.5234223422342,0,0
-31.845356315959,49.232493057232,0.32785278527853,534759.9658046,-18906.656448507,5908920.6841088,5.5278527852785,0,0
-31.845356397289,49.254050782657,0.33228322832283,534759.9658046,-18906.656448507,5908920.6841088,5.5322832283228,0,0
-31.84535647862,49.275608508082,0.33671367136714,534759.9658046,-18906.656448507,5908920.6841088,5.5367136713671,0,0
-31.845356559951,49.297166233508,0.34114411441144,534759.9658046,-18906.656448507,5908920.6841088,5.5411441144114,0,0
-31.845356641281,49.318723958933,0.34557455745575,534759.9658046,-18906.656448507,5908920.6841088,5.5455745574557,0,0
-31.845356722612,49.340281684358,0.35000500050005,534759.9658046,-18906.656448507,5908920.6841088,5.5500050005001,0,0
-31.845356801162,49.361839419402,0.35443544354435,547734.09750851,69904.69099037,5685365.1092206,5.5544354435444,0,0
-31.845356875504,49.383397169006,0.35886588658866,547734.09750851,69904.69099037,5685365.1092206,5.5588658865887,0,0
-31.845356949846,49.404954918609,0.36329632963296,547734.09750851,69904.69099037,5685365.1092206,5.563296329633,0,0
-31.845357024188,49.426512668213,0.36772677267727,547734.09750851,69904.69099037,5685365.1092206,5.5677267726773,0,0
-31.84535709853,49.448070417816,0.37215721572157,547734.09750851,69904.69099037,5685365.1092206,5.5721572157216,0,0
-31.845357172872,49.46962816742,0.37658765876588,547734.09750851,69904.69099037,5685365.1092206,5.5765876587659,0,0
-31.845357247215,49.491185917023,0.38101810181018,547734.09750851,69904.69099037,5685365.1092206,5.5810181018102,0,0
-31.845357320058,49.512743663513,0.38544854485449,648431.73519421,-7459.7148523026,5622920.6045054,5.5854485448545,0,0
-31.845357384694,49.534301392947,0.38987898789879,648431.73519421,-7459.7148523026,5622920.6045054,5.5898789878988,0,0
-31.84535744933,49.555859122382,0.39430943094309,648431.73519421,-7459.7148523026,5622920.6045054,5.5943094309431,0,0
-31.845357513967,49.577416851816,0.3987398739874,648431.73519421,-7459.7148523026,5622920.6045054,5.5987398739874,0,0
-31.845357578603,49.59897458125,0.4031703170317,648431.73519421,-7459.7148523026,5622920.6045054,5.6031703170317,0,0
-31.845357643239,49.620532310684,0.40760076007601,648431.73519421,-7459.7148523026,5622920.6045054,5.607600760076,0,0
-31.845357707875,49.642090040119,0.41203120312031,648431.73519421,-7459.7148523026,5622920.6045054,5.6120312031203,0,0
-31.845357772511,49.663647769553,0.41646164616462,648431.73519421,-7459.7148523026,5622920.6045054,5.6164616461646,0,0
-31.845357837147,49.685205498987,0.42089208920892,648431.73519421,-7459.7148523026,5622920.6045054,5.6208920892089,0,0
-31.845357901784,49.706763228421,0.42532253225323,648431.73519421,-7459.7148523026,5622920.6045054,5.6253225322532,0,0
-31.84535796642,49.728320957856,0.42975297529753,648431.73519421,-7459.7148523026,5622920.6045054,5.6297529752975,0,0
-31.845358031056,49.74987868729,0.43418341834183,648431.73519421,-7459.7148523026,5622920.6045054,5.6341834183418,0,0
-31.845358095692,49.771436416724,0.43861386138614,648431.73519421,-7459.7148523026,5622920.6045054,5.6386138613861,0,0
-31.845358160328,49.792994146159,0.44304430443044,648431.73519421,-7459.7148523026,5622920.6045054,5.6430443044304,0,0
-31.845358224964,49.814551875593,0.44747474747475,648431.73519421,-7459.7148523026,5622920.6045055,5.6474747474747,0,0
-31.8453582896,49.836109605027,0.45190519051905,648431.73519421,-7459.7148523026,5622920.6045054,5.6519051905191,0,0
-31.845358354237,49.857667334461,0.45633563356336,648431.73519421,-7459.7148523026,5622920.6045054,5.6563356335634,0,0
-31.845358418873,49.879225063896,0.46076607660766,648431.73519421,-7459.7148523026,5622920.6045055,5.6607660766077,0,0
-31.845358483509,49.90078279333,0.46519651965196,648431.73519421,-7459.7148523026,5622920.6045055,5.665196519652,0,0
-31.845358548145,49.922340522764,0.46962696269627,648431.73519421,-7459.7148523026,5622920.6045055,5.6696269626963,0,0
-31.845358612781,49.943898252198,0.47405740574057,648431.73519421,-7459.7148523026,5622920.6045055,5.6740574057406,0,0
-31.845358677417,49.965455981633,0.47848784878488,648431.73519421,-7459.7148523026,5622920.6045055,5.6784878487849,0,0
-31.845358742054,49.987013711067,0.48291829182918,648431.73519421,-7459.7148523026,5622920.6045055,5.6829182918292,0,0
-31.84535880669,50.008571440501,0.48734873487349,648431.73519421,-7459.7148523026,5622920.6045055,5.6873487348735,0,0
-31.845358871326,50.030129169935,0.49177917791779,648431.73519421,-7459.7148523026,5622920.6045055,5.6917791779178,0,0
-31.845358935962,50.05168689937,0.4962096209621,648431.73519421,-7459.7148523026,5622920.6045055,5.6962096209621,0,0
-31.845359000598,50.073244628804,0.5006400640064,648431.73519421,-7459.7148523026,5622920.6045055,5.7006400640064,0,0
-31.845359065234,50.094802358238,0.50507050705071,648431.73519421,-7459.7148523026,5622920.6045055,5.7050705070507,0,0
-31.84535912987,50.116360087672,0.50950095009501,648431.73519421,-7459.7148523026,5622920.6045055,5.709500950095,0,0
-31.845359194507,50.137917817107,0.51393139313931,648431.73519421,-7459.7148523026,5622920.6045055,5.7139313931393,0,0
-31.845359259143,50.159475546541,0.51836183618362,648431.73519421,-7459.7148523026,5622920.6045055,5.7183618361836,0,0
-31.845359323779,50.181033275975,0.52279227922792,648431.73519421,-7459.7148523026,5622920.6045055,5.7227922792279,0,0
-31.845359388415,50.202591005409,0.52722272227223,648431.73519421,-7459.7148523026,5622920.6045055,5.7272227222722,0,0
-31.845359453051,50.224148734844,0.53165316531653,648431.73519421,-7459.7148523026,5622920.6045055,5.7316531653165,0,0
-31.845359513385,50.245706478812,0.53608360836084,656379.01699574,68826.38239631,5409264.1035504,5.7360836083608,0,0
-31.845359571698,50.26726422961,0.54051405140514,656379.01699574,68826.38239631,5409264.1035504,5.7405140514051,0,0
-31.845359622934,50.288821965766,0.54494449444945,743274.74025267,1376.5305357082,5340968.9867658,5.7449444944494,0,0
-31.845359672488,50.310379698442,0.54937493749375,743274.74025267,1376.5305357082,5340968.9867658,5.7493749374937,0,0
-31.845359722041,50.331937431117,0.55380538053805,743274.74025267,1376.5305357082,5340968.9867658,5.7538053805381,0,0
-31.845359771595,50.353495163793,0.55823582358236,743274.74025267,1376.5305357082,5340968.9867658,5.7582358235824,0,0
-31.845359821148,50.375052896468,0.56266626662666,743274.74025267,1376.5305357082,5340968.9867658,5.7626662666267,0,0
-31.845359870701,50.396610629144,0.56709670967097,743274.74025267,1376.5305357082,5340968.9867658,5.767096709671,0,0
-31.845359920255,50.418168361819,0.57152715271527,743274.74025267,1376.5305357082,5340968.9867658,5.7715271527153,0,0
-31.845359969808,50.439726094495,0.57595759575958,743274.74025267,1376.5305357082,5340968.9867658,5.7759575957596,0,0
-31.845360019362,50.46128382717,0.58038803880388,743274.74025267,1376.5305357082,5340968.9867658,5.7803880388039,0,0
-31.845360068915,50.482841559846,0.58481848184818,743274.74025267,1376.5305357082,5340968.9867658,5.7848184818482,0,0
-31.845360118469,50.504399292521,0.58924892489249,743274.74025267,1376.5305357082,5340968.9867658,5.7892489248925,0,0
-31.845360168022,50.525957025197,0.59367936793679,743274.74025267,1376.5305357082,5340968.9867658,5.7936793679368,0,0
-31.845360217537,50.547514757216,0.5981098109811,692811.77460652,-1573.5189845146,5186704.8394706,5.7981098109811,0,0
-31.845360267013,50.569072488608,0.6025402540254,692811.77460652,-1573.5189845146,5186704.8394706,5.8025402540254,0,0
-31.84536031649,50.59063022,0.60697069706971,692811.77460652,-1573.5189845146,5186704.8394706,5.8069706970697,0,0
-31.845360365967,50.612187951392,0.61140114011401,692811.77460652,-1573.5189845146,5186704.8394706,5.811401140114,0,0
-31.845360415444,50.633745682784,0.61583158315832,692811.77460652,-1573.5189845146,5186704.8394706,5.8158315831583,0,0
-31.845360464921,50.655303414177,0.62026202620262,692811.77460652,-1573.5189845146,5186704.8394706,5.8202620262026,0,0
-31.845360514398,50.676861145569,0.62469246924692,692811.77460652,-1573.5189845146,5186704.8394706,5.8246924692469,0,0
-31.845360563875,50.698418876961,0.62912291229123,692811.77460653,-1573.5189845146,5186704.8394706,5.8291229122912,0,0
-31.845360613352,50.719976608353,0.63355335533553,692811.77460653,-1573.5189845146,5186704.8394706,5.8335533553355,0,0
-31.845360662829,50.741534339746,0.63798379837984,692811.77460653,-1573.5189845146,5186704.8394706,5.8379837983798,0,0
-31.845360712306,50.763092071138,0.64241424142414,692811.77460652,-1573.5189845146,5186704.8394706,5.8424142414241,0,0
-31.845360761782,50.78464980253,0.64684468446845,692811.77460653,-1573.5189845146,5186704.8394706,5.8468446844684,0,0
-31.845360811259,50.806207533922,0.65127512751275,692811.77460653,-1573.5189845146,5186704.8394706,5.8512751275128,0,0
-31.845360860736,50.827765265314,0.65570557055706,692811.77460653,-1573.5189845146,5186704.8394706,5.8557055705571,0,0
-31.845360910213,50.849322996707,0.66013601360136,692811.77460653,-1573.5189845146,5186704.8394706,5.8601360136014,0,0
-31.84536095969,50.870880728099,0.66456645664566,692811.77460653,-1573.5189845146,5186704.8394706,5.8645664566457,0,0
-31.845361009167,50.892438459491,0.66899689968997,692811.77460653,-1573.5189845146,5186704.8394706,5.86899689969,0,0
-31.845361058644,50.913996190883,0.67342734273427,692811.77460653,-1573.5189845146,5186704.8394706,5.8734273427343,0,0
-31.845361108121,50.935553922276,0.67785778577858,692811.77460653,-1573.5189845146,5186704.8394706,5.8778577857786,0,0
-31.845361157598,50.957111653668,0.68228822882288,692811.77460653,-1573.5189845146,5186704.8394706,5.8822882288229,0,0
-31.845361207075,50.97866938506,0.68671867186719,692811.77460653,-1573.5189845146,5186704.8394706,5.8867186718672,0,0
-31.845361256552,51.000227116452,0.69114911491149,692811.77460653,-1573.5189845146,5186704.8394706,5.8911491149115,0,0
-31.845361302062,51.021784843697,0.6955795579558,829117.56376461,-42506.952258918,5203345.9331847,5.8955795579558,0,0
-31.845361341094,51.043342564171,0.7000100010001,829117.56376461,-42506.952258918,5203345.9331847,5.9000100010001,0,0
-31.845361380126,51.064900284644,0.7044404440444,829117.56376461,-42506.952258918,5203345.9331847,5.9044404440444,0,0
-31.845361419159,51.086458005117,0.70887088708871,829117.56376461,-42506.952258918,5203345.9331847,5.9088708870887,0,0
-31.845361458191,51.10801572559,0.71330133013301,829117.56376461,-42506.952258918,5203345.9331847,5.913301330133,0,0
-31.845361497224,51.129573446064,0.71773177317732,829117.56376461,-42506.952258918,5203345.9331847,5.9177317731773,0,0
-31.845361535786,51.151131170048,0.72216221622162,777461.56115609,-18882.404374381,5013820.2294329,5.9221622162216,0,0
-31.845361573899,51.172688897396,0.72659265926593,777461.56115609,-18882.404374381,5013820.2294329,5.9265926592659,0,0
-31.845361612011,51.194246624743,0.73102310231023,777461.56115609,-18882.404374381,5013820.2294329,5.9310231023102,0,0
-31.845361650123,51.215804352091,0.73545354535454,777461.56115609,-18882.404374381,5013820.2294329,5.9354535453545,0,0
-31.845361688236,51.237362079438,0.73988398839884,777461.56115609,-18882.404374381,5013820.2294329,5.9398839883988,0,0
-31.845361726348,51.258919806786,0.74431443144314,777461.56115609,-18882.404374381,5013820.2294329,5.9443144314431,0,0
-31.84536176446,51.280477534134,0.74874487448745,777461.56115609,-18882.404374381,5013820.2294329,5.9487448744874,0,0
-31.845361802573,51.302035261481,0.75317531753175,777461.56115609,-18882.404374381,5013820.2294329,5.9531753175318,0,0
-31.845361840685,51.323592988829,0.75760576057606,777461.56115609,-18882.404374381,5013820.2294329,5.9576057605761,0,0
-31.845361878797,51.345150716176,0.76203620362036,777461.56115609,-18882.404374381,5013820.2294329,5.9620362036204,0,0
-31.84536191691,51.366708443524,0.76646664666467,777461.56115609,-18882.404374381,5013820.2294329,5.9664666466647,0,0
-31.845361955022,51.388266170871,0.77089708970897,777461.56115609,-18882.404374381,5013820.2294329,5.970897089709,0,0
-31.845361993134,51.409823898219,0.77532753275328,777461.56115609,-18882.404374381,5013820.2294329,5.9753275327533,0,0
-31.845362031247,51.431381625566,0.77975797579758,777461.56115609,-18882.404374381,5013820.2294329,5.9797579757976,0,0
-31.845362069359,51.452939352914,0.78418841884188,777461.56115609,-18882.404374381,5013820.2294329,5.9841884188419,0,0
-31.845362107471,51.474497080261,0.78861886188619,777461.56115609,-18882.404374381,5013820.2294329,5.9886188618862,0,0
-31.845362145584,51.496054807609,0.79304930493049,777461.56115609,-18882.404374381,5013820.2294329,5.9930493049305,0,0
-31.845362183696,51.517612534957,0.7974797479748,777461.56115609,-18882.404374381,5013820.2294329,5.9974797479748,0,0
-31.845362221808,51.539170262304,0.8019101910191,777461.56115609,-18882.404374381,5013820.2294329,6.0019101910191,0,0
-31.845362259921,51.560727989652,0.80634063406341,777461.56115609,-18882.404374381,5013820.2294329,6.0063406340634,0,0
-31.845362298033,51.582285716999,0.81077107710771,777461.56115609,-18882.404374381,5013820.2294329,6.0107710771077,0,0
-31.845362336145,51.603843444347,0.81520152015201,777461.56115609,-18882.404374381,5013820.2294329,6.015201520152,0,0
-31.845362374258,51.625401171694,0.81963196319632,777461.56115609,-18882.404374381,5013820.2294329,6.0196319631963,0,0
-31.84536241237,51.646958899042,0.82406240624062,777461.56115609,-18882.404374381,5013820.2294329,6.0240624062406,0,0
-31.845362450483,51.668516626389,0.82849284928493,777461.56115609,-18882.404374381,5013820.2294329,6.0284928492849,0,0
-31.845362488595,51.690074353737,0.83292329232923,777461.56115609,-18882.404374381,5013820.2294329,6.0329232923292,0,0
-31.845362526707,51.711632081085,0.83735373537354,777461.56115609,-18882.404374381,5013820.2294329,6.0373537353735,0,0
-31.84536256482,51.733189808432,0.84178417841784,777461.56115609,-18882.404374381,5013820.2294329,6.0417841784178,0,0
-31.845362602932,51.75474753578,0.84621462146215,777461.56115609,-18882.404374381,5013820.2294329,6.0462146214621,0,0
-31.845362640191,51.776305265229,0.85064506450645,843542.18091903,49876.83883428,4942760.7817415,6.0506450645065,0,0
-31.845362671133,51.797863010241,0.85507550755076,843542.18091903,49876.83883428,4942760.7817415,6.0550755075508,0,0
-31.845362702075,51.819420755252,0.85950595059506,843542.18091903,49876.83883428,4942760.7817415,6.0595059505951,0,0
-31.845362733017,51.840978500264,0.86393639363936,843542.18091903,49876.83883428,4942760.7817415,6.0639363936394,0,0
-31.84536276396,51.862536245275,0.86836683668367,843542.18091903,49876.83883428,4942760.7817415,6.0683668366837,0,0
-31.845362794902,51.884093990287,0.87279727972797,843542.18091903,49876.83883428,4942760.7817415,6.072797279728,0,0
-31.845362825844,51.905651735298,0.87722772277228,843542.18091903,49876.83883428,4942760.7817415,6.0772277227723,0,0
-31.845362856786,51.92720948031,0.88165816581658,843542.18091903,49876.83883428,4942760.7817415,6.0816581658166,0,0
-31.845362887728,51.948767225322,0.88608860886089,843542.18091903,49876.83883428,4942760.7817415,6.0860886088609,0,0
-31.84536291867,51.970324970333,0.89051905190519,843542.18091903,49876.83883428,4942760.7817415,6.0905190519052,0,0
-31.845362949612,51.991882715345,0.8949494949495,843542.18091903,49876.83883428,4942760.7817415,6.0949494949495,0,0
-31.845362980554,52.013440460356,0.8993799379938,843542.18091903,49876.83883428,4942760.7817415,6.0993799379938,0,0
-31.845363011497,52.034998205368,0.9038103810381,843542.18091903,49876.83883428,4942760.7817415,6.1038103810381,0,0
-31.845363042439,52.05655595038,0.90824082408241,843542.18091903,49876.83883428,4942760.7817415,6.1082408240824,0,0
-31.845363073381,52.078113695391,0.91267126712671,843542.18091903,49876.83883428,4942760.7817415,6.1126712671267,0,0
-31.845363104323,52.099671440403,0.91710171017102,843542.18091903,49876.83883428,4942760.7817415,6.117101710171,0,0
-31.845363135265,52.121229185414,0.92153215321532,843542.18091903,49876.83883428,4942760.7817415,6.1215321532153,0,0
-31.845363166207,52.142786930426,0.92596259625963,843542.18091903,49876.83883428,4942760.7817415,6.1259625962596,0,0
-31.845363197149,52.164344675437,0.93039303930393,843542.18091903,49876.83883428,4942760.7817415,6.1303930393039,0,0
-31.845363228091,52.185902420449,0.93482348234823,843542.18091903,49876.83883428,4942760.7817415,6.1348234823482,0,0
-31.845363257419,52.207460161052,0.93925392539254,887856.32066447,-25399.945157005,4786238.3564416,6.1392539253925,0,0
-31.845363280654,52.229017885018,0.94368436843684,887856.32066447,-25399.945157005,4786238.3564416,6.1436843684368,0,0
-31.845363303889,52.250575608985,0.94811481148115,887856.32066447,-25399.945157005,4786238.3564416,6.1481148114811,0,0
-31.845363327124,52.272133332952,0.95254525452545,887856.32066447,-25399.945157005,4786238.3564416,6.1525452545255,0,0
-31.845363350359,52.293691056919,0.95697569756976,887856.32066447,-25399.945157005,4786238.3564416,6.1569756975698,0,0
-31.845363373594,52.315248780885,0.96140614061406,887856.32066447,-25399.945157005,4786238.3564416,6.1614061406141,0,0
-31.845363396829,52.336806504852,0.96583658365837,887856.32066447,-25399.945157005,4786238.3564416,6.1658365836584,0,0
-31.845363420064,52.358364228819,0.97026702670267,887856.32066447,-25399.945157005,4786238.3564416,6.1702670267027,0,0
-31.845363443299,52.379921952785,0.97469746974697,887856.32066447,-25399.945157005,4786238.3564416,6.174697469747,0,0
-31.845363466534,52.401479676752,0.97912791279128,887856.32066447,-25399.945157005,4786238.3564416,6.1791279127913,0,0
-31.845363489769,52.423037400719,0.98355835583558,887856.32066447,-25399.945157005,4786238.3564416,6.1835583558356,0,0
-31.845363513004,52.444595124686,0.98798879887989,887856.32066447,-25399.945157005,4786238.3564416,6.1879887988799,0,0
-31.845363536239,52.466152848652,0.99241924192419,887856.32066447,-25399.945157005,4786238.3564416,6.1924192419242,0,0
-31.845363559474,52.487710572619,0.9968496849685,887856.32066447,-25399.945157005,4786238.3564416,6.1968496849685,0,0
-31.84536358271,52.509268296586,1.0012801280128,887856.32066447,-25399.945157005,4786238.3564416,6.2012801280128,0,0
-31.845363605945,52.530826020553,1.0057105710571,887856.32066447,-25399.945157005,4786238.3564416,6.2057105710571,0,0
-31.84536362918,52.552383744519,1.0101410141014,887856.32066447,-25399.945157005,4786238.3564416,6.2101410141014,0,0
-31.845363652415,52.573941468486,1.0145714571457,887856.32066447,-25399.945157005,4786238.3564416,6.2145714571457,0,0
-31.84536367565,52.595499192453,1.01900190019,887856.32066447,-25399.945157005,4786238.3564416,6.21900190019,0,0
-31.845363698885,52.61705691642,1.0234323432343,887856.32066447,-25399.945157005,4786238.3564416,6.2234323432343,0,0
-31.84536372212,52.638614640386,1.0278627862786,887856.32066447,-25399.945157005,4786238.3564416,6.2278627862786,0,0
-31.845363745355,52.660172364353,1.0322932293229,887856.32066447,-25399.945157005,4786238.3564416,6.2322932293229,0,0
-31.84536376859,52.68173008832,1.0367236723672,887856.32066447,-25399.945157005,4786238.3564416,6.2367236723672,0,0
-31.845363791825,52.703287812287,1.0411541154115,887856.32066447,-25399.945157005,4786238.3564416,6.2411541154115,0,0
-31.84536381506,52.724845536253,1.0455845584558,887856.32066447,-25399.945157005,4786238.3564416,6.2455845584558,0,0
-31.845363838295,52.74640326022,1.0500150015002,887856.32066447,-25399.945157005,4786238.3564416,6.2500150015002,0,0
-31.84536386153,52.767960984187,1.0544454445445,887856.32066447,-25399.945157005,4786238.3564416,6.2544454445445,0,0
-31.845363884765,52.789518708154,1.0588758875888,887856.32066447,-25399.945157005,4786238.3564416,6.2588758875888,0,0
-31.845363908,52.81107643212,1.0633063306331,887856.32066447,-25399.945157005,4786238.3564416,6.2633063306331,0,0
-31.845363931235,52.832634156087,1.0677367736774,887856.32066447,-25399.945157005,4786238.3564416,6.2677367736774,0,0
-31.84536395447,52.854191880054,1.0721672167217,887856.32066447,-25399.945157005,4786238.3564416,6.2721672167217,0,0
-31.845363977705,52.87574960402,1.076597659766,887856.32066447,-25399.945157005,4786238.3564416,6.276597659766,0,0
-31.84536400094,52.897307327987,1.0810281028103,887856.32066447,-25399.945157005,4786238.3564416,6.2810281028103,0,0
-31.845364024175,52.918865051954,1.0854585458546,887856.32066447,-25399.945157005,4786238.3564416,6.2854585458546,0,0
-31.84536404741,52.940422775921,1.0898889888989,887856.32066447,-25399.945157005,4786238.3564416,6.2898889888989,0,0
-31.845364070646,52.961980499887,1.0943194319432,887856.32066447,-25399.945157005,4786238.3564416,6.2943194319432,0,0
-31.845364093881,52.983538223854,1.0987498749875,887856.32066447,-25399.945157005,4786238.3564416,6.2987498749875,0,0
-31.845364117116,53.005095947821,1.1031803180318,887856.32066447,-25399.945157005,4786238.3564416,6.3031803180318,0,0
-31.845364134977,53.026653689315,1.1076107610761,910540.3067332,45737.863136992,4635016.1672586,6.3076107610761,0,0
-31.845364152374,53.048211432322,1.1120412041204,910540.3067332,45737.863136992,4635016.1672586,6.3120412041204,0,0
-31.84536416977,53.06976917533,1.1164716471647,910540.3067332,45737.863136992,4635016.1672586,6.3164716471647,0,0
-31.845364187167,53.091326918338,1.120902090209,910540.3067332,45737.863136992,4635016.1672586,6.320902090209,0,0
-31.845364204564,53.112884661346,1.1253325332533,910540.3067332,45737.863136992,4635016.1672586,6.3253325332533,0,0
-31.845364221961,53.134442404354,1.1297629762976,910540.3067332,45737.863136992,4635016.1672586,6.3297629762976,0,0
-31.845364239358,53.156000147362,1.1341934193419,910540.3067332,45737.863136992,4635016.1672586,6.3341934193419,0,0
-31.845364256754,53.17755789037,1.1386238623862,910540.3067332,45737.863136992,4635016.1672586,6.3386238623862,0,0
-31.845364274151,53.199115633378,1.1430543054305,910540.3067332,45737.863136992,4635016.1672586,6.3430543054305,0,0
-31.845364291548,53.220673376386,1.1474847484748,910540.3067332,45737.863136992,4635016.1672586,6.3474847484748,0,0
-31.845364308945,53.242231119394,1.1519151915192,910540.3067332,45737.863136992,4635016.1672586,6.3519151915192,0,0
-31.845364326342,53.263788862402,1.1563456345635,910540.3067332,45737.863136992,4635016.1672586,6.3563456345635,0,0
-31.845364343739,53.28534660541,1.1607760776078,910540.3067332,45737.863136992,4635016.1672586,6.3607760776078,0,0
-31.845364361135,53.306904348418,1.1652065206521,910540.3067332,45737.863136992,4635016.1672586,6.3652065206521,0,0
-31.845364378532,53.328462091426,1.1696369636964,910540.3067332,45737.863136992,4635016.1672586,6.3696369636964,0,0
-31.845364395929,53.350019834434,1.1740674067407,910540.3067332,45737.863136992,4635016.1672586,6.3740674067407,0,0
-31.845364413326,53.371577577442,1.178497849785,910540.3067332,45737.863136992,4635016.1672586,6.378497849785,0,0
-31.845364430723,53.39313532045,1.1829282928293,910540.3067332,45737.863136992,4635016.1672586,6.3829282928293,0,0
-31.845364448119,53.414693063458,1.1873587358736,910540.3067332,45737.863136992,4635016.1672586,6.3873587358736,0,0
-31.845364464081,53.436250801783,1.1917891789179,946405.98262231,-27497.117384883,4530208.3008119,6.3917891789179,0,0
-31.845364475823,53.457808526334,1.1962196219622,946405.98262231,-27497.117384883,4530208.3008119,6.3962196219622,0,0
-31.845364487564,53.479366250885,1.2006500650065,946405.98262231,-27497.117384883,4530208.3008119,6.4006500650065,0,0
-31.845364499306,53.500923975436,1.2050805080508,946405.98262231,-27497.117384883,4530208.3008119,6.4050805080508,0,0
-31.845364511047,53.522481699987,1.2095109510951,946405.98262231,-27497.117384883,4530208.3008119,6.4095109510951,0,0
-31.845364522789,53.544039424538,1.2139413941394,946405.98262231,-27497.117384883,4530208.3008119,6.4139413941394,0,0
-31.84536453453,53.565597149089,1.2183718371837,946405.98262231,-27497.117384883,4530208.3008119,6.4183718371837,0,0
-31.845364546272,53.58715487364,1.222802280228,946405.98262231,-27497.117384883,4530208.3008119,6.422802280228,0,0
-31.845364558013,53.608712598191,1.2272327232723,946405.98262231,-27497.117384883,4530208.3008119,6.4272327232723,0,0
-31.845364569755,53.630270322742,1.2316631663166,946405.98262231,-27497.117384883,4530208.3008119,6.4316631663166,0,0
-31.845364581496,53.651828047293,1.2360936093609,946405.98262231,-27497.117384883,4530208.3008119,6.4360936093609,0,0
-31.845364593238,53.673385771844,1.2405240524052,946405.98262231,-27497.117384883,4530208.3008119,6.4405240524052,0,0
-31.845364604979,53.694943496395,1.2449544954495,946405.98262231,-27497.117384883,4530208.3008119,6.4449544954495,0,0
-31.845364616721,53.716501220946,1.2493849384938,946405.98262231,-27497.117384883,4530208.3008119,6.4493849384938,0,0
-31.845364628462,53.738058945497,1.2538153815382,946405.98262231,-27497.117384883,4530208.3008119,6.4538153815382,0,0
-31.845364640204,53.759616670048,1.2582458245825,946405.98262231,-27497.117384883,4530208.3008119,6.4582458245825,0,0
-31.845364651945,53.781174394599,1.2626762676268,946405.98262231,-27497.117384883,4530208.3008119,6.4626762676268,0,0
-31.845364663687,53.80273211915,1.2671067106711,946405.98262231,-27497.117384883,4530208.3008119,6.4671067106711,0,0
-31.845364675428,53.824289843701,1.2715371537154,946405.98262231,-27497.117384883,4530208.3008119,6.4715371537154,0,0
-31.845364687169,53.845847568252,1.2759675967597,946405.98262231,-27497.117384883,4530208.3008119,6.4759675967597,0,0
-31.845364698911,53.867405292803,1.280398039804,946405.98262231,-27497.117384883,4530208.3008119,6.480398039804,0,0
-31.845364710652,53.888963017354,1.2848284828483,946405.98262231,-27497.117384883,4530208.3008119,6.4848284828483,0,0
-31.845364722394,53.910520741905,1.2892589258926,946405.98262231,-27497.117384883,4530208.3008119,6.4892589258926,0,0
-31.845364734135,53.932078466456,1.2936893689369,946405.98262231,-27497.117384883,4530208.3008119,6.4936893689369,0,0
-31.845364745877,53.953636191007,1.2981198119812,946405.98262231,-27497.117384883,4530208.3008119,6.4981198119812,0,0
-31.845364757618,53.975193915559,1.3025502550255,946405.98262231,-27497.117384883,4530208.3008119,6.5025502550255,0,0
-31.84536476936,53.99675164011,1.3069806980698,946405.98262231,-27497.117384883,4530208.3008119,6.5069806980698,0,0
-31.845364781101,54.018309364661,1.3114111411141,946405.98262231,-27497.117384883,4530208.3008119,6.5114111411141,0,0
-31.845364792843,54.039867089212,1.3158415841584,946405.98262231,-27497.117384883,4530208.3008119,6.5158415841584,0,0
-31.845364804584,54.061424813763,1.3202720272027,946405.98262231,-27497.117384883,4530208.3008119,6.5202720272027,0,0
-31.845364816326,54.082982538314,1.324702470247,946405.98262231,-27497.117384883,4530208.3008119,6.524702470247,0,0
-31.845364828067,54.104540262865,1.3291329132913,946405.98262231,-27497.117384883,4530208.3008119,6.5291329132913,0,0
-31.845364839809,54.126097987416,1.3335633563356,946405.98262231,-27497.117384883,4530208.3008119,6.5335633563356,0,0
-31.84536485155,54.147655711967,1.3379937993799,946405.98262231,-27497.117384883,4530208.3008119,6.5379937993799,0,0
-31.845364863292,54.169213436518,1.3424242424242,946405.98262231,-27497.117384883,4530208.3008119,6.5424242424242,0,0
-31.845364874961,54.190771161336,1.3468546854685,968898.2543048,42031.254649828,4421020.5572563,6.5468546854685,0,0
-31.845364881999,54.212328903225,1.3512851285129,968898.2543048,42031.254649828,4421020.5572563,6.5512851285129,0,0
-31.845364889036,54.233886645114,1.3557155715572,968898.2543048,42031.254649828,4421020.5572563,6.5557155715572,0,0
-31.845364896074,54.255444387003,1.3601460146015,968898.2543048,42031.254649828,4421020.5572563,6.5601460146015,0,0
-31.845364903112,54.277002128893,1.3645764576458,968898.2543048,42031.254649828,4421020.5572563,6.5645764576458,0,0
-31.84536491015,54.298559870782,1.3690069006901,968898.2543048,42031.254649828,4421020.5572563,6.5690069006901,0,0
-31.845364917187,54.320117612671,1.3734373437344,968898.2543048,42031.254649828,4421020.5572563,6.5734373437344,0,0
-31.845364924225,54.341675354561,1.3778677867787,968898.2543048,42031.254649828,4421020.5572563,6.5778677867787,0,0
-31.845364931263,54.36323309645,1.382298229823,968898.2543048,42031.254649828,4421020.5572563,6.582298229823,0,0
-31.845364938301,54.384790838339,1.3867286728673,968898.2543048,42031.254649828,4421020.5572563,6.5867286728673,0,0
-31.845364945338,54.406348580228,1.3911591159116,968898.2543048,42031.254649828,4421020.5572563,6.5911591159116,0,0
-31.845364952376,54.427906322118,1.3955895589559,968898.2543048,42031.254649828,4421020.5572563,6.5955895589559,0,0
-31.845364959414,54.449464064007,1.4000200020002,968898.2543048,42031.254649828,4421020.5572563,6.6000200020002,0,0
-31.845364966452,54.471021805896,1.4044504450445,968898.2543048,42031.254649828,4421020.5572563,6.6044504450445,0,0
-31.845364973489,54.492579547785,1.4088808880888,968898.2543048,42031.254649828,4421020.5572563,6.6088808880888,0,0
-31.845364980527,54.514137289675,1.4133113311331,968898.2543048,42031.254649828,4421020.5572563,6.6133113311331,0,0
-31.845364987565,54.535695031564,1.4177417741774,968898.2543048,42031.254649828,4421020.5572563,6.6177417741774,0,0
-31.845364994602,54.557252773453,1.4221722172217,968898.2543048,42031.254649828,4421020.5572563,6.6221722172217,0,0
-31.84536500164,54.578810515342,1.426602660266,968898.2543048,42031.254649828,4421020.5572563,6.626602660266,0,0
-31.845365008678,54.600368257232,1.4310331033103,968898.2543048,42031.254649828,4421020.5572563,6.6310331033103,0,0
-31.845365015716,54.621925999121,1.4354635463546,968898.2543048,42031.254649828,4421020.5572563,6.6354635463546,0,0
-31.845365022753,54.64348374101,1.4398939893989,968898.2543048,42031.254649828,4421020.5572563,6.6398939893989,0,0
-31.845365029791,54.665041482899,1.4443244324432,968898.2543048,42031.254649828,4421020.5572563,6.6443244324432,0,0
-31.845365035793,54.686599220876,1.4487548754875,988564.21909318,-32481.499222286,4294150.303084,6.6487548754875,0,0
-31.845365037882,54.708156944072,1.4531853185319,988564.21909318,-32481.499222286,4294150.303084,6.6531853185319,0,0
-31.845365039971,54.729714667268,1.4576157615762,988564.21909318,-32481.499222286,4294150.303084,6.6576157615762,0,0
-31.84536504206,54.751272390465,1.4620462046205,988564.21909318,-32481.499222286,4294150.303084,6.6620462046205,0,0
-31.845365044149,54.772830113661,1.4664766476648,988564.21909318,-32481.499222286,4294150.303084,6.6664766476648,0,0
-31.845365046238,54.794387836858,1.4709070907091,988564.21909318,-32481.499222286,4294150.303084,6.6709070907091,0,0
-31.845365048327,54.815945560054,1.4753375337534,988564.21909318,-32481.499222286,4294150.303084,6.6753375337534,0,0
-31.845365050416,54.83750328325,1.4797679767977,988564.21909318,-32481.499222286,4294150.303084,6.6797679767977,0,0
-31.845365052505,54.859061006447,1.484198419842,988564.21909318,-32481.499222286,4294150.303084,6.684198419842,0,0
-31.845365054594,54.880618729643,1.4886288628863,988564.21909318,-32481.499222286,4294150.303084,6.6886288628863,0,0
-31.845365056683,54.90217645284,1.4930593059306,988564.21909318,-32481.499222286,4294150.303084,6.6930593059306,0,0
-31.845365058771,54.923734176036,1.4974897489749,988564.21909318,-32481.499222286,4294150.303084,6.6974897489749,0,0
-31.84536506086,54.945291899233,1.5019201920192,988564.21909318,-32481.499222286,4294150.303084,6.7019201920192,0,0
-31.845365062949,54.966849622429,1.5063506350635,988564.21909318,-32481.499222286,4294150.303084,6.7063506350635,0,0
-31.845365065038,54.988407345625,1.5107810781078,988564.21909318,-32481.499222286,4294150.303084,6.7107810781078,0,0
-31.845365067127,55.009965068822,1.5152115211521,988564.21909318,-32481.499222286,4294150.3030841,6.7152115211521,0,0
-31.845365069216,55.031522792018,1.5196419641964,988564.21909318,-32481.499222286,4294150.3030841,6.7196419641964,0,0
-31.845365071305,55.053080515215,1.5240724072407,988564.21909318,-32481.499222286,4294150.3030841,6.7240724072407,0,0
-31.845365073394,55.074638238411,1.528502850285,988564.21909318,-32481.499222286,4294150.3030841,6.728502850285,0,0
-31.845365075483,55.096195961607,1.5329332933293,988564.21909318,-32481.499222286,4294150.3030841,6.7329332933293,0,0
-31.845365077572,55.117753684804,1.5373637363736,988564.21909318,-32481.499222286,4294150.3030841,6.7373637363736,0,0
-31.845365079661,55.139311408,1.5417941794179,988564.21909318,-32481.499222286,4294150.3030841,6.7417941794179,0,0
-31.84536508175,55.160869131197,1.5462246224622,988564.21909318,-32481.499222286,4294150.3030841,6.7462246224622,0,0
-31.845365083839,55.182426854393,1.5506550655066,988564.21909318,-32481.499222286,4294150.3030841,6.7506550655066,0,0
-31.845365085928,55.203984577589,1.5550855085509,988564.21909318,-32481.499222286,4294150.3030841,6.7550855085509,0,0
-31.845365088017,55.225542300786,1.5595159515952,988564.21909318,-32481.499222286,4294150.3030841,6.7595159515952,0,0
-31.845365090106,55.247100023982,1.5639463946395,988564.21909318,-32481.499222286,4294150.3030841,6.7639463946395,0,0
-31.845365092195,55.268657747179,1.5683768376838,988564.21909318,-32481.499222286,4294150.3030841,6.7683768376838,0,0
-31.845365094284,55.290215470375,1.5728072807281,988564.21909318,-32481.499222286,4294150.3030841,6.7728072807281,0,0
-31.845365096373,55.311773193571,1.5772377237724,988564.21909318,-32481.499222286,4294150.3030841,6.7772377237724,0,0
-31.845365098462,55.333330916768,1.5816681668167,988564.21909318,-32481.499222286,4294150.3030841,6.7816681668167,0,0
-31.845365100551,55.354888639964,1.586098609861,988564.21909318,-32481.499222286,4294150.3030841,6.786098609861,0,0
-31.84536510264,55.376446363161,1.5905290529053,988564.21909318,-32481.499222286,4294150.3030841,6.7905290529053,0,0
-31.845365104728,55.398004086357,1.5949594959496,988564.21909318,-32481.499222286,4294150.3030841,6.7949594959496,0,0
-31.845365106817,55.419561809554,1.5993899389939,988564.21909318,-32481.499222286,4294150.3030841,6.7993899389939,0,0
-31.845365108906,55.44111953275,1.6038203820382,988564.21909318,-32481.499222286,4294150.3030841,6.8038203820382,0,0
-31.845365107845,55.462677269193,1.6082508250825,1005702.0353224,33411.44973092,4203899.3366668,6.8082508250825,0,0
-31.845365106162,55.484235008247,1.6126812681268,1005702.0353224,33411.44973092,4203899.3366668,6.8126812681268,0,0
-31.845365104479,55.505792747302,1.6171117111711,1005702.0353224,33411.44973092,4203899.3366668,6.8171117111711,0,0
-31.845365102796,55.527350486357,1.6215421542154,1005702.0353224,33411.44973092,4203899.3366668,6.8215421542154,0,0
-31.845365101113,55.548908225412,1.6259725972597,1005702.0353224,33411.44973092,4203899.3366668,6.8259725972597,0,0
-31.84536509943,55.570465964467,1.630403040304,1005702.0353224,33411.44973092,4203899.3366668,6.830403040304,0,0
-31.845365097747,55.592023703522,1.6348334833483,1005702.0353224,33411.44973092,4203899.3366668,6.8348334833483,0,0
-31.845365096065,55.613581442577,1.6392639263926,1005702.0353224,33411.44973092,4203899.3366668,6.8392639263926,0,0
-31.845365094382,55.635139181631,1.6436943694369,1005702.0353224,33411.44973092,4203899.3366668,6.8436943694369,0,0
-31.845365092699,55.656696920686,1.6481248124812,1005702.0353224,33411.44973092,4203899.3366668,6.8481248124812,0,0
-31.845365091016,55.678254659741,1.6525552555256,1005702.0353224,33411.44973092,4203899.3366668,6.8525552555256,0,0
-31.845365089333,55.699812398796,1.6569856985699,1005702.0353224,33411.44973092,4203899.3366668,6.8569856985699,0,0
-31.84536508765,55.721370137851,1.6614161416142,1005702.0353224,33411.44973092,4203899.3366668,6.8614161416142,0,0
-31.845365085967,55.742927876906,1.6658465846585,1005702.0353224,33411.44973092,4203899.3366668,6.8658465846585,0,0
-31.845365084284,55.764485615961,1.6702770277028,1005702.0353224,33411.44973092,4203899.3366668,6.8702770277028,0,0
-31.845365082601,55.786043355016,1.6747074707471,1005702.0353224,33411.44973092,4203899.3366668,6.8747074707471,0,0
-31.845365080918,55.80760109407,1.6791379137914,1005702.0353224,33411.44973092,4203899.3366668,6.8791379137914,0,0
-31.845365079236,55.829158833125,1.6835683568357,1005702.0353224,33411.44973092,4203899.3366668,6.8835683568357,0,0
-31.845365077553,55.85071657218,1.68799879988,1005702.0353224,33411.44973092,4203899.3366668,6.88799879988,0,0
-31.84536507587,55.872274311235,1.6924292429243,1005702.0353224,33411.44973092,4203899.3366668,6.8924292429243,0,0
-31.845365074187,55.89383205029,1.6968596859686,1005702.0353224,33411.44973092,4203899.3366668,6.8968596859686,0,0
-31.845365072504,55.915389789345,1.7012901290129,1005702.0353224,33411.44973092,4203899.3366668,6.9012901290129,0,0
-31.845365070821,55.9369475284,1.7057205720572,1005702.0353224,33411.44973092,4203899.3366668,6.9057205720572,0,0
-31.845365069138,55.958505267454,1.7101510151015,1005702.0353224,33411.44973092,4203899.3366668,6.9101510151015,0,0
-31.845365067455,55.980063006509,1.7145814581458,1005702.0353224,33411.44973092,4203899.3366668,6.9145814581458,0,0
-31.845365065772,56.001620745564,1.7190119011901,1005702.0353224,33411.44973092,4203899.3366668,6.9190119011901,0,0
-31.845365064089,56.023178484619,1.7234423442344,1005702.0353224,33411.44973092,4203899.3366668,6.9234423442344,0,0
-31.845365062407,56.044736223674,1.7278727872787,1005702.0353224,33411.44973092,4203899.3366668,6.9278727872787,0,0
-31.845365060724,56.066293962729,1.732303230323,1005702.0353224,33411.44973092,4203899.3366668,6.932303230323,0,0
-31.845365059041,56.087851701784,1.7367336733673,1005702.0353224,33411.44973092,4203899.3366668,6.9367336733673,0,0
-31.845365057358,56.109409440838,1.7411641164116,1005702.0353224,33411.44973092,4203899.3366668,6.9411641164116,0,0
-31.845365055675,56.130967179893,1.7455945594559,1005702.0353224,33411.44973092,4203899.3366668,6.9455945594559,0,0
-31.845365053992,56.152524918948,1.7500250025002,1005702.0353224,33411.44973092,4203899.3366668,6.9500250025002,0,0
-31.845365052309,56.174082658003,1.7544554455446,1005702.0353224,33411.44973092,4203899.3366668,6.9544554455446,0,0
-31.845365050626,56.195640397058,1.7588858885889,1005702.0353224,33411.44973092,4203899.3366668,6.9588858885889,0,0
-31.84536504506,56.217198123147,1.7633163316332,1029596.3575481,-34255.907150964,4077176.2165969,6.9633163316332,0,0
-31.845365038094,56.238755844566,1.7677467746775,1029596.3575481,-34255.907150964,4077176.2165969,6.9677467746775,0,0
-31.845365031129,56.260313565985,1.7721772177218,1029596.3575481,-34255.907150964,4077176.2165969,6.9721772177218,0,0
-31.845365024163,56.281871287404,1.7766076607661,1029596.3575481,-34255.907150964,4077176.2165969,6.9766076607661,0,0
-31.845365017198,56.303429008823,1.7810381038104,1029596.3575481,-34255.907150964,4077176.2165969,6.9810381038104,0,0
-31.845365010232,56.324986730243,1.7854685468547,1029596.3575481,-34255.907150964,4077176.2165969,6.9854685468547,0,0
-31.845365003267,56.346544451662,1.789898989899,1029596.3575481,-34255.907150964,4077176.2165969,6.989898989899,0,0
-31.845364996301,56.368102173081,1.7943294329433,1029596.3575481,-34255.907150964,4077176.2165969,6.9943294329433,0,0
-31.845364989336,56.3896598945,1.7987598759876,1029596.3575481,-34255.907150964,4077176.2165969,6.9987598759876,0,0
-31.84536498237,56.411217615919,1.8031903190319,1029596.3575481,-34255.907150964,4077176.2165969,7.0031903190319,0,0
-31.845364975405,56.432775337338,1.8076207620762,1029596.3575481,-34255.907150964,4077176.2165969,7.0076207620762,0,0
-31.845364968439,56.454333058757,1.8120512051205,1029596.3575481,-34255.907150964,4077176.2165969,7.0120512051205,0,0
-31.845364961474,56.475890780176,1.8164816481648,1029596.3575481,-34255.907150964,4077176.2165969,7.0164816481648,0,0
-31.845364954508,56.497448501595,1.8209120912091,1029596.3575481,-34255.907150964,4077176.2165969,7.0209120912091,0,0
-31.845364947543,56.519006223014,1.8253425342534,1029596.3575481,-34255.907150964,4077176.2165969,7.0253425342534,0,0
-31.845364940577,56.540563944433,1.8297729772977,1029596.3575481,-34255.907150964,4077176.2165969,7.0297729772977,0,0
-31.845364933612,56.562121665852,1.834203420342,1029596.3575481,-34255.907150964,4077176.2165969,7.034203420342,0,0
-31.845364926646,56.583679387271,1.8386338633863,1029596.3575481,-34255.907150964,4077176.2165969,7.0386338633863,0,0
-31.845364919681,56.60523710869,1.8430643064306,1029596.3575481,-34255.907150964,4077176.2165969,7.0430643064306,0,0
-31.845364912715,56.626794830109,1.8474947494749,1029596.3575481,-34255.907150964,4077176.2165969,7.0474947494749,0,0
-31.84536490575,56.648352551528,1.8519251925193,1029596.3575481,-34255.907150964,4077176.2165969,7.0519251925193,0,0
-31.845364898784,56.669910272947,1.8563556355636,1029596.3575481,-34255.907150964,4077176.2165969,7.0563556355636,0,0
-31.845364891819,56.691467994366,1.8607860786079,1029596.3575481,-34255.907150964,4077176.2165969,7.0607860786079,0,0
-31.845364884853,56.713025715785,1.8652165216522,1029596.3575481,-34255.907150964,4077176.2165969,7.0652165216522,0,0
-31.845364877888,56.734583437204,1.8696469646965,1029596.3575481,-34255.907150964,4077176.2165969,7.0696469646965,0,0
-31.845364870922,56.756141158623,1.8740774077408,1029596.3575481,-34255.907150964,4077176.2165969,7.0740774077408,0,0
-31.845364863956,56.777698880043,1.8785078507851,1029596.3575481,-34255.907150964,4077176.2165969,7.0785078507851,0,0
-31.845364856991,56.799256601462,1.8829382938294,1029596.3575481,-34255.907150964,4077176.2165969,7.0829382938294,0,0
-31.845364850025,56.820814322881,1.8873687368737,1029596.3575481,-34255.907150964,4077176.2165969,7.0873687368737,0,0
-31.84536484306,56.8423720443,1.891799179918,1029596.3575481,-34255.907150964,4077176.2165969,7.091799179918,0,0
-31.845364832903,56.863929781077,1.8962296229623,1038088.2889558,31746.254392146,3979949.9583887,7.0962296229623,0,0
-31.84536482267,56.885487518215,1.9006600660066,1038088.2889558,31746.254392146,3979949.9583887,7.1006600660066,0,0
-31.845364812438,56.907045255354,1.9050905090509,1038088.2889558,31746.254392146,3979949.9583887,7.1050905090509,0,0
-31.845364802205,56.928602992493,1.9095209520952,1038088.2889558,31746.254392146,3979949.9583887,7.1095209520952,0,0
-31.845364791973,56.950160729631,1.9139513951395,1038088.2889558,31746.254392146,3979949.9583887,7.1139513951395,0,0
-31.84536478174,56.97171846677,1.9183818381838,1038088.2889558,31746.254392146,3979949.9583887,7.1183818381838,0,0
-31.845364771508,56.993276203909,1.9228122812281,1038088.2889558,31746.254392146,3979949.9583887,7.1228122812281,0,0
-31.845364761275,57.014833941047,1.9272427242724,1038088.2889558,31746.254392146,3979949.9583887,7.1272427242724,0,0
-31.845364751043,57.036391678186,1.9316731673167,1038088.2889558,31746.254392146,3979949.9583887,7.1316731673167,0,0
-31.84536474081,57.057949415325,1.936103610361,1038088.2889558,31746.254392146,3979949.9583887,7.136103610361,0,0
-31.845364730578,57.079507152463,1.9405340534053,1038088.2889558,31746.254392146,3979949.9583887,7.1405340534053,0,0
-31.845364720345,57.101064889602,1.9449644964496,1038088.2889558,31746.254392146,3979949.9583887,7.1449644964496,0,0
-31.845364710113,57.12262262674,1.9493949394939,1038088.2889558,31746.254392146,3979949.9583887,7.1493949394939,0,0
-31.84536469988,57.144180363879,1.9538253825383,1038088.2889558,31746.254392146,3979949.9583887,7.1538253825383,0,0
-31.845364689648,57.165738101018,1.9582558255826,1038088.2889558,31746.254392146,3979949.9583887,7.1582558255826,0,0
-31.845364679415,57.187295838156,1.9626862686269,1038088.2889558,31746.254392146,3979949.9583887,7.1626862686269,0,0
-31.845364669183,57.208853575295,1.9671167116712,1038088.2889558,31746.254392146,3979949.9583887,7.1671167116712,0,0
-31.84536465895,57.230411312434,1.9715471547155,1038088.2889558,31746.254392146,3979949.9583887,7.1715471547155,0,0
-31.845364648718,57.251969049572,1.9759775977598,1038088.2889558,31746.254392146,3979949.9583887,7.1759775977598,0,0
-31.845364638485,57.273526786711,1.9804080408041,1038088.2889558,31746.254392146,3979949.9583887,7.1804080408041,0,0
-31.845364628253,57.29508452385,1.9848384838484,1038088.2889558,31746.254392146,3979949.9583887,7.1848384838484,0,0
-31.84536461802,57.316642260988,1.9892689268927,1038088.2889558,31746.254392146,3979949.9583887,7.1892689268927,0,0
-31.845364607788,57.338199998127,1.993699369937,1038088.2889558,31746.254392146,3979949.9583887,7.193699369937,0,0
-31.845364597555,57.359757735265,1.9981298129813,1038088.2889558,31746.254392146,3979949.9583887,7.1981298129813,0,0
-31.845364587323,57.381315472404,2.0025602560256,1038088.2889558,31746.254392146,3979949.9583887,7.2025602560256,0,0
-31.84536457709,57.402873209543,2.0069906990699,1038088.2889558,31746.254392146,3979949.9583887,7.2069906990699,0,0
-31.845364566858,57.424430946681,2.0114211421142,1038088.2889558,31746.254392146,3979949.9583887,7.2114211421142,0,0
-31.845364556626,57.44598868382,2.0158515851585,1038088.2889558,31746.254392146,3979949.9583887,7.2158515851585,0,0
-31.845364546393,57.467546420959,2.0202820282028,1038088.2889558,31746.254392146,3979949.9583887,7.2202820282028,0,0
-31.845364536161,57.489104158097,2.0247124712471,1038088.2889558,31746.254392146,3979949.9583887,7.2247124712471,0,0
-31.845364525928,57.510661895236,2.0291429142914,1038088.2889558,31746.254392146,3979949.9583887,7.2291429142914,0,0
-31.845364515696,57.532219632375,2.0335733573357,1038088.2889558,31746.254392146,3979949.9583887,7.2335733573357,0,0
-31.845364505463,57.553777369513,2.03800380038,1038088.2889558,31746.254392146,3979949.9583887,7.23800380038,0,0
-31.845364495231,57.575335106652,2.0424342434243,1038088.2889558,31746.254392146,3979949.9583887,7.2424342434243,0,0
-31.845364484998,57.59689284379,2.0468646864686,1038088.2889558,31746.254392146,3979949.9583887,7.2468646864686,0,0
-31.845364474766,57.618450580929,2.051295129513,1038088.2889558,31746.254392146,3979949.9583887,7.251295129513,0,0
-31.845364464533,57.640008318068,2.0557255725573,1038088.2889558,31746.254392146,3979949.9583887,7.2557255725573,0,0
-31.845364454301,57.661566055206,2.0601560156016,1038088.2889558,31746.254392146,3979949.9583887,7.2601560156016,0,0
-31.845364444068,57.683123792345,2.0645864586459,1038088.2889558,31746.254392146,3979949.9583887,7.2645864586459,0,0
-31.845364433836,57.704681529484,2.0690169016902,1038088.2889558,31746.254392146,3979949.9583887,7.2690169016902,0,0
-31.845364423603,57.726239266622,2.0734473447345,1038088.2889558,31746.254392146,3979949.9583887,7.2734473447345,0,0
-31.845364413371,57.747797003761,2.0778777877788,1038088.2889558,31746.254392146,3979949.9583887,7.2778777877788,0,0
-31.845364403138,57.769354740899,2.0823082308231,1038088.2889558,31746.254392146,3979949.9583887,7.2823082308231,0,0
-31.845364392906,57.790912478038,2.0867386738674,1038088.2889558,31746.254392146,3979949.9583887,7.2867386738674,0,0
-31.845364382673,57.812470215177,2.0911691169117,1038088.2889558,31746.254392146,3979949.9583887,7.2911691169117,0,0
-31.845364372441,57.834027952315,2.095599559956,1038088.2889558,31746.254392146,3979949.9583887,7.295599559956,0,0
-31.845364362208,57.855585689454,2.1000300030003,1038088.2889558,31746.254392146,3979949.9583887,7.3000300030003,0,0
-31.845364351976,57.877143426593,2.1044604460446,1038088.2889558,31746.254392146,3979949.9583887,7.3044604460446,0,0
-31.845364340088,57.898701155982,2.1088908890889,1048898.0379159,-27038.288449148,3900536.2270837,7.3088908890889,0,0
-31.845364326877,57.920258879183,2.1133213321332,1048898.0379159,-27038.288449148,3900536.2270837,7.3133213321332,0,0
-31.845364313667,57.941816602383,2.1177517751775,1048898.0379159,-27038.288449148,3900536.2270837,7.3177517751775,0,0
-31.845364300457,57.963374325584,2.1221822182218,1048898.0379159,-27038.288449148,3900536.2270837,7.3221822182218,0,0
-31.845364287246,57.984932048785,2.1266126612661,1048898.0379159,-27038.288449148,3900536.2270837,7.3266126612661,0,0
-31.845364274036,58.006489771986,2.1310431043104,1048898.0379159,-27038.288449148,3900536.2270837,7.3310431043104,0,0
-31.845364260826,58.028047495186,2.1354735473547,1048898.0379159,-27038.288449148,3900536.2270837,7.3354735473547,0,0
-31.845364247615,58.049605218387,2.139903990399,1048898.0379159,-27038.288449148,3900536.2270837,7.339903990399,0,0
-31.845364234405,58.071162941588,2.1443344334433,1048898.0379159,-27038.288449148,3900536.2270837,7.3443344334433,0,0
-31.845364221195,58.092720664788,2.1487648764876,1048898.0379159,-27038.288449148,3900536.2270837,7.3487648764876,0,0
-31.845364207984,58.114278387989,2.153195319532,1048898.0379159,-27038.288449148,3900536.2270837,7.353195319532,0,0
-31.845364194774,58.13583611119,2.1576257625763,1048898.0379159,-27038.288449148,3900536.2270837,7.3576257625763,0,0
-31.845364181564,58.15739383439,2.1620562056206,1048898.0379159,-27038.288449148,3900536.2270837,7.3620562056206,0,0
-31.845364168353,58.178951557591,2.1664866486649,1048898.0379159,-27038.288449148,3900536.2270837,7.3664866486649,0,0
-31.845364155143,58.200509280792,2.1709170917092,1048898.0379159,-27038.288449148,3900536.2270837,7.3709170917092,0,0
-31.845364141933,58.222067003992,2.1753475347535,1048898.0379159,-27038.288449148,3900536.2270837,7.3753475347535,0,0
-31.845364128722,58.243624727193,2.1797779777978,1048898.0379159,-27038.288449148,3900536.2270837,7.3797779777978,0,0
-31.845364115512,58.265182450394,2.1842084208421,1048898.0379159,-27038.288449148,3900536.2270837,7.3842084208421,0,0
-31.845364102302,58.286740173594,2.1886388638864,1048898.0379159,-27038.288449148,3900536.2270837,7.3886388638864,0,0
-31.845364089091,58.308297896795,2.1930693069307,1048898.0379159,-27038.288449148,3900536.2270837,7.3930693069307,0,0
-31.845364075881,58.329855619996,2.197499749975,1048898.0379159,-27038.288449148,3900536.2270837,7.397499749975,0,0
-31.845364062671,58.351413343196,2.2019301930193,1048898.0379159,-27038.288449148,3900536.2270837,7.4019301930193,0,0
-31.84536404946,58.372971066397,2.2063606360636,1048898.0379159,-27038.288449148,3900536.2270837,7.4063606360636,0,0
-31.84536403625,58.394528789598,2.2107910791079,1048898.0379159,-27038.288449148,3900536.2270837,7.4107910791079,0,0
-31.84536402304,58.416086512798,2.2152215221522,1048898.0379159,-27038.288449148,3900536.2270837,7.4152215221522,0,0
-31.845364009829,58.437644235999,2.2196519651965,1048898.0379159,-27038.288449148,3900536.2270837,7.4196519651965,0,0
-31.845363996619,58.4592019592,2.2240824082408,1048898.0379159,-27038.288449148,3900536.2270837,7.4240824082408,0,0
-31.845363983409,58.4807596824,2.2285128512851,1048898.0379159,-27038.288449148,3900536.2270837,7.4285128512851,0,0
-31.845363970198,58.502317405601,2.2329432943294,1048898.0379159,-27038.288449148,3900536.2270837,7.4329432943294,0,0
-31.845363956988,58.523875128802,2.2373737373737,1048898.0379159,-27038.288449148,3900536.2270837,7.4373737373737,0,0
-31.845363943778,58.545432852003,2.241804180418,1048898.0379159,-27038.288449148,3900536.2270837,7.441804180418,0,0
-31.845363930567,58.566990575203,2.2462346234623,1048898.0379159,-27038.288449148,3900536.2270837,7.4462346234623,0,0
-31.845363917357,58.588548298404,2.2506650665067,1048898.0379159,-27038.288449148,3900536.2270837,7.4506650665067,0,0
-31.845363904147,58.610106021605,2.255095509551,1048898.0379159,-27038.288449148,3900536.2270837,7.455095509551,0,0
-31.845363890936,58.631663744805,2.2595259525953,1048898.0379159,-27038.288449148,3900536.2270837,7.4595259525953,0,0
-31.845363877726,58.653221468006,2.2639563956396,1048898.0379159,-27038.288449148,3900536.2270837,7.4639563956396,0,0
-31.845363862726,58.674779198773,2.2683868386839,1050895.4990848,27853.918350047,3782805.0947007,7.4683868386839,0,0
-31.845363846222,58.696336935903,2.2728172817282,1050895.4990848,27853.918350047,3782805.0947007,7.4728172817282,0,0
-31.845363829717,58.717894673032,2.2772477247725,1050895.4990848,27853.918350047,3782805.0947007,7.4772477247725,0,0
-31.845363813213,58.739452410162,2.2816781678168,1050895.4990848,27853.918350047,3782805.0947007,7.4816781678168,0,0
-31.845363796708,58.761010147291,2.2861086108611,1050895.4990848,27853.918350047,3782805.0947007,7.4861086108611,0,0
-31.845363780204,58.78256788442,2.2905390539054,1050895.4990848,27853.918350047,3782805.0947007,7.4905390539054,0,0
-31.845363763699,58.80412562155,2.2949694969497,1050895.4990848,27853.918350047,3782805.0947007,7.4949694969497,0,0
-31.845363747195,58.825683358679,2.299399939994,1050895.4990848,27853.918350047,3782805.0947007,7.499399939994,0,0
-31.84536373069,58.847241095809,2.3038303830383,1050895.4990848,27853.918350047,3782805.0947007,7.5038303830383,0,0
-31.845363714186,58.868798832938,2.3082608260826,1050895.4990848,27853.918350047,3782805.0947007,7.5082608260826,0,0
-31.845363697681,58.890356570068,2.3126912691269,1050895.4990848,27853.918350047,3782805.0947007,7.5126912691269,0,0
-31.845363681177,58.911914307197,2.3171217121712,1050895.4990848,27853.918350047,3782805.0947007,7.5171217121712,0,0
-31.845363664672,58.933472044327,2.3215521552155,1050895.4990848,27853.918350047,3782805.0947007,7.5215521552155,0,0
-31.845363648168,58.955029781456,2.3259825982598,1050895.4990848,27853.918350047,3782805.0947007,7.5259825982598,0,0
-31.845363631663,58.976587518585,2.3304130413041,1050895.4990848,27853.918350047,3782805.0947007,7.5304130413041,0,0
-31.845363615159,58.998145255715,2.3348434843484,1050895.4990848,27853.918350047,3782805.0947007,7.5348434843484,0,0
-31.845363598654,59.019702992844,2.3392739273927,1050895.4990848,27853.918350047,3782805.0947007,7.5392739273927,0,0
-31.84536358215,59.041260729974,2.343704370437,1050895.4990848,27853.918350047,3782805.0947007,7.543704370437,0,0
-31.845363565645,59.062818467103,2.3481348134813,1050895.4990848,27853.918350047,3782805.0947007,7.5481348134813,0,0
-31.845363549141,59.084376204233,2.3525652565257,1050895.4990848,27853.918350047,3782805.0947007,7.5525652565257,0,0
-31.845363532636,59.105933941362,2.35699569957,1050895.4990848,27853.918350047,3782805.0947007,7.55699569957,0,0
-31.845363516132,59.127491678491,2.3614261426143,1050895.4990848,27853.918350047,3782805.0947007,7.5614261426143,0,0
-31.845363499627,59.149049415621,2.3658565856586,1050895.4990848,27853.918350047,3782805.0947007,7.5658565856586,0,0
-31.845363483123,59.17060715275,2.3702870287029,1050895.4990848,27853.918350047,3782805.0947007,7.5702870287029,0,0
-31.845363466618,59.19216488988,2.3747174717472,1050895.4990848,27853.918350047,3782805.0947007,7.5747174717472,0,0
-31.845363450114,59.213722627009,2.3791479147915,1050895.4990848,27853.918350047,3782805.0947007,7.5791479147915,0,0
-31.845363433609,59.235280364139,2.3835783578358,1050895.4990848,27853.918350047,3782805.0947007,7.5835783578358,0,0
-31.845363417105,59.256838101268,2.3880088008801,1050895.4990848,27853.918350047,3782805.0947007,7.5880088008801,0,0
-31.8453634006,59.278395838398,2.3924392439244,1050895.4990848,27853.918350047,3782805.0947007,7.5924392439244,0,0
-31.845363384096,59.299953575527,2.3968696869687,1050895.4990848,27853.918350047,3782805.0947007,7.5968696869687,0,0
-31.845363367591,59.321511312656,2.401300130013,1050895.4990848,27853.918350047,3782805.0947007,7.601300130013,0,0
-31.845363351087,59.343069049786,2.4057305730573,1050895.4990848,27853.918350047,3782805.0947007,7.6057305730573,0,0
-31.845363334582,59.364626786915,2.4101610161016,1050895.4990848,27853.918350047,3782805.0947007,7.6101610161016,0,0
-31.845363318078,59.386184524045,2.4145914591459,1050895.4990848,27853.918350047,3782805.0947007,7.6145914591459,0,0
-31.845363301573,59.407742261174,2.4190219021902,1050895.4990848,27853.918350047,3782805.0947007,7.6190219021902,0,0
-31.845363285069,59.429299998304,2.4234523452345,1050895.4990848,27853.918350047,3782805.0947007,7.6234523452345,0,0
-31.845363268564,59.450857735433,2.4278827882788,1050895.4990848,27853.918350047,3782805.0947007,7.6278827882788,0,0
-31.84536325206,59.472415472563,2.4323132313231,1050895.4990848,27853.918350047,3782805.0947007,7.6323132313231,0,0
-31.845363235555,59.493973209692,2.4367436743674,1050895.4990848,27853.918350047,3782805.0947007,7.6367436743674,0,0
-31.845363219051,59.515530946821,2.4411741174117,1050895.4990848,27853.918350047,3782805.0947007,7.6411741174117,0,0
-31.845363202546,59.537088683951,2.445604560456,1050895.4990848,27853.918350047,3782805.0947007,7.645604560456,0,0
-31.845363186042,59.55864642108,2.4500350035003,1050895.4990848,27853.918350047,3782805.0947007,7.6500350035004,0,0
-31.845363169537,59.58020415821,2.4544654465447,1050895.4990848,27853.918350047,3782805.0947007,7.6544654465447,0,0
-31.845363150752,59.601761886842,2.458895889589,1072068.3881027,-28523.21149021,3707500.5289716,7.658895889589,0,0
-31.845363130552,59.623319610198,2.4633263326333,1072068.3881027,-28523.21149021,3707500.5289716,7.6633263326333,0,0
-31.845363110351,59.644877333553,2.4677567756776,1072068.3881027,-28523.21149021,3707500.5289716,7.6677567756776,0,0
-31.84536309015,59.666435056909,2.4721872187219,1072068.3881027,-28523.21149021,3707500.5289716,7.6721872187219,0,0
-31.84536306995,59.687992780264,2.4766176617662,1072068.3881027,-28523.21149021,3707500.5289716,7.6766176617662,0,0
-31.845363049749,59.70955050362,2.4810481048105,1072068.3881027,-28523.21149021,3707500.5289716,7.6810481048105,0,0
-31.845363029548,59.731108226976,2.4854785478548,1072068.3881027,-28523.21149021,3707500.5289716,7.6854785478548,0,0
-31.845363009348,59.752665950331,2.4899089908991,1072068.3881027,-28523.21149021,3707500.5289716,7.6899089908991,0,0
-31.845362989147,59.774223673687,2.4943394339434,1072068.3881027,-28523.21149021,3707500.5289716,7.6943394339434,0,0
-31.845362968946,59.795781397042,2.4987698769877,1072068.3881027,-28523.21149021,3707500.5289716,7.6987698769877,0,0
-31.845362948745,59.817339120398,2.503200320032,1072068.3881027,-28523.21149021,3707500.5289716,7.703200320032,0,0
-31.845362928545,59.838896843754,2.5076307630763,1072068.3881027,-28523.21149021,3707500.5289716,7.7076307630763,0,0
-31.845362908344,59.860454567109,2.5120612061206,1072068.3881027,-28523.21149021,3707500.5289716,7.7120612061206,0,0
-31.845362888143,59.882012290465,2.5164916491649,1072068.3881027,-28523.21149021,3707500.5289716,7.7164916491649,0,0
-31.845362867943,59.90357001382,2.5209220922092,1072068.3881027,-28523.21149021,3707500.5289716,7.7209220922092,0,0
-31.845362847742,59.925127737176,2.5253525352535,1072068.3881027,-28523.21149021,3707500.5289716,7.7253525352535,0,0
-31.845362827541,59.946685460532,2.5297829782978,1072068.3881027,-28523.21149021,3707500.5289716,7.7297829782978,0,0
-31.84536280734,59.968243183887,2.5342134213421,1072068.3881027,-28523.21149021,3707500.5289716,7.7342134213421,0,0
-31.84536278714,59.989800907243,2.5386438643864,1072068.3881027,-28523.21149021,3707500.5289716,7.7386438643864,0,0
-31.845362766939,60.011358630598,2.5430743074307,1072068.3881027,-28523.21149021,3707500.5289716,7.7430743074307,0,0
-31.845362746738,60.032916353954,2.547504750475,1072068.3881027,-28523.21149021,3707500.5289716,7.747504750475,0,0
-31.845362726538,60.05447407731,2.5519351935194,1072068.3881027,-28523.21149021,3707500.5289716,7.7519351935194,0,0
-31.845362706337,60.076031800665,2.5563656365637,1072068.3881027,-28523.21149021,3707500.5289716,7.7563656365637,0,0
-31.845362686136,60.097589524021,2.560796079608,1072068.3881027,-28523.21149021,3707500.5289716,7.760796079608,0,0
-31.845362665936,60.119147247376,2.5652265226523,1072068.3881027,-28523.21149021,3707500.5289716,7.7652265226523,0,0
-31.845362645735,60.140704970732,2.5696569656966,1072068.3881027,-28523.21149021,3707500.5289716,7.7696569656966,0,0
-31.845362625534,60.162262694087,2.5740874087409,1072068.3881027,-28523.21149021,3707500.5289716,7.7740874087409,0,0
-31.845362605333,60.183820417443,2.5785178517852,1072068.3881027,-28523.21149021,3707500.5289716,7.7785178517852,0,0
-31.845362585133,60.205378140799,2.5829482948295,1072068.3881027,-28523.21149021,3707500.5289716,7.7829482948295,0,0
-31.845362564932,60.226935864154,2.5873787378738,1072068.3881027,-28523.21149021,3707500.5289716,7.7873787378738,0,0
-31.845362544731,60.24849358751,2.5918091809181,1072068.3881027,-28523.21149021,3707500.5289716,7.7918091809181,0,0
-31.845362524531,60.270051310865,2.5962396239624,1072068.3881027,-28523.21149021,3707500.5289716,7.7962396239624,0,0
-31.84536250433,60.291609034221,2.6006700670067,1072068.3881027,-28523.21149021,3707500.5289716,7.8006700670067,0,0
-31.845362484129,60.313166757577,2.605100510051,1072068.3881027,-28523.21149021,3707500.5289716,7.805100510051,0,0
-31.845362463928,60.334724480932,2.6095309530953,1072068.3881027,-28523.21149021,3707500.5289716,7.8095309530953,0,0
-31.845362443728,60.356282204288,2.6139613961396,1072068.3881027,-28523.21149021,3707500.5289716,7.8139613961396,0,0
-31.845362423527,60.377839927643,2.6183918391839,1072068.3881027,-28523.21149021,3707500.5289716,7.8183918391839,0,0
-31.845362403326,60.399397650999,2.6228222822282,1072068.3881027,-28523.21149021,3707500.5289716,7.8228222822282,0,0
-31.845362382833,60.420955377773,2.6272527252725,1055089.9583988,28318.796042299,3615761.4709401,7.8272527252725,0,0
-31.845362361546,60.442513113825,2.6316831683168,1055089.9583988,28318.796042299,3615761.4709401,7.8316831683168,0,0
-31.845362340259,60.464070849876,2.6361136113611,1055089.9583988,28318.796042299,3615761.4709401,7.8361136113611,0,0
-31.845362318972,60.485628585928,2.6405440544054,1055089.9583988,28318.796042299,3615761.4709401,7.8405440544054,0,0
-31.845362297685,60.507186321979,2.6449744974497,1055089.9583988,28318.796042299,3615761.4709401,7.8449744974497,0,0
-31.845362276397,60.52874405803,2.649404940494,1055089.9583988,28318.796042299,3615761.4709401,7.849404940494,0,0
-31.84536225511,60.550301794082,2.6538353835384,1055089.9583988,28318.796042299,3615761.4709401,7.8538353835384,0,0
-31.845362233823,60.571859530133,2.6582658265827,1055089.9583988,28318.796042299,3615761.4709401,7.8582658265827,0,0
-31.845362212536,60.593417266185,2.662696269627,1055089.9583988,28318.796042299,3615761.4709401,7.862696269627,0,0
-31.845362191249,60.614975002236,2.6671267126713,1055089.9583988,28318.796042299,3615761.4709401,7.8671267126713,0,0
-31.845362169962,60.636532738288,2.6715571557156,1055089.9583988,28318.796042299,3615761.4709401,7.8715571557156,0,0
-31.845362148675,60.658090474339,2.6759875987599,1055089.9583988,28318.796042299,3615761.4709401,7.8759875987599,0,0
-31.845362127388,60.67964821039,2.6804180418042,1055089.9583988,28318.796042299,3615761.4709401,7.8804180418042,0,0
-31.845362106101,60.701205946442,2.6848484848485,1055089.9583988,28318.796042299,3615761.4709401,7.8848484848485,0,0
-31.845362084813,60.722763682493,2.6892789278928,1055089.9583988,28318.796042299,3615761.4709401,7.8892789278928,0,0
-31.845362063526,60.744321418545,2.6937093709371,1055089.9583988,28318.796042299,3615761.4709401,7.8937093709371,0,0
-31.845362042239,60.765879154596,2.6981398139814,1055089.9583988,28318.796042299,3615761.4709401,7.8981398139814,0,0
-31.845362020952,60.787436890648,2.7025702570257,1055089.9583988,28318.796042299,3615761.4709401,7.9025702570257,0,0
-31.845361999665,60.808994626699,2.70700070007,1055089.9583988,28318.796042299,3615761.4709401,7.90700070007,0,0
-31.845361978378,60.83055236275,2.7114311431143,1055089.9583988,28318.796042299,3615761.4709401,7.9114311431143,0,0
-31.845361957091,60.852110098802,2.7158615861586,1055089.9583988,28318.796042299,3615761.4709401,7.9158615861586,0,0
-31.845361935804,60.873667834853,2.7202920292029,1055089.9583988,28318.796042299,3615761.4709401,7.9202920292029,0,0
-31.845361914516,60.895225570905,2.7247224722472,1055089.9583988,28318.796042299,3615761.4709401,7.9247224722472,0,0
-31.845361893229,60.916783306956,2.7291529152915,1055089.9583988,28318.796042299,3615761.4709401,7.9291529152915,0,0
-31.845361871942,60.938341043007,2.7335833583358,1055089.9583988,28318.796042299,3615761.4709401,7.9335833583358,0,0
-31.845361850655,60.959898779059,2.7380138013801,1055089.9583988,28318.796042299,3615761.4709401,7.9380138013801,0,0
-31.845361829368,60.98145651511,2.7424442444244,1055089.9583988,28318.796042299,3615761.4709401,7.9424442444244,0,0
-31.845361808081,61.003014251162,2.7468746874687,1055089.9583988,28318.796042299,3615761.4709401,7.9468746874687,0,0
-31.845361786794,61.024571987213,2.7513051305131,1055089.9583988,28318.796042299,3615761.4709401,7.9513051305131,0,0
-31.845361765507,61.046129723265,2.7557355735574,1055089.9583988,28318.796042299,3615761.4709401,7.9557355735574,0,0
-31.84536174422,61.067687459316,2.7601660166017,1055089.9583988,28318.796042299,3615761.4709401,7.9601660166017,0,0
-31.845361722932,61.089245195367,2.764596459646,1055089.9583988,28318.796042299,3615761.4709401,7.964596459646,0,0
-31.845361701645,61.110802931419,2.7690269026903,1055089.9583988,28318.796042299,3615761.4709401,7.9690269026903,0,0
-31.845361680358,61.13236066747,2.7734573457346,1055089.9583988,28318.796042299,3615761.4709401,7.9734573457346,0,0
-31.845361659071,61.153918403522,2.7778877887789,1055089.9583988,28318.796042299,3615761.4709401,7.9778877887789,0,0
-31.845361637784,61.175476139573,2.7823182318232,1055089.9583988,28318.796042299,3615761.4709401,7.9823182318232,0,0
-31.845361616497,61.197033875625,2.7867486748675,1055089.9583988,28318.796042299,3615761.4709401,7.9867486748675,0,0
-31.84536159521,61.218591611676,2.7911791179118,1055089.9583988,28318.796042299,3615761.4709401,7.9911791179118,0,0
-31.845361573923,61.240149347727,2.7956095609561,1055089.9583988,28318.796042299,3615761.4709401,7.9956095609561,0,0
-31.845361552635,61.261707083779,2.8000400040004,1055089.9583988,28318.796042299,3615761.4709401,8.0000400040004,0,0
-31.845361531348,61.28326481983,2.8044704470447,1055089.9583988,28318.796042299,3615761.4709401,8.0044704470447,0,0
-31.845361510061,61.304822555882,2.808900890089,1055089.9583988,28318.796042299,3615761.4709401,8.008900890089,0,0
-31.845361488774,61.326380291933,2.8133313331333,1055089.9583988,28318.796042299,3615761.4709401,8.0133313331333,0,0
-31.845361467487,61.347938027985,2.8177617761776,1055089.9583988,28318.796042299,3615761.4709401,8.0177617761776,0,0
-31.8453614462,61.369495764036,2.8221922192219,1055089.9583988,28318.796042299,3615761.4709401,8.0221922192219,0,0
-31.845361424913,61.391053500087,2.8266226622662,1055089.9583988,28318.796042299,3615761.4709401,8.0266226622662,0,0
-31.845361403626,61.412611236139,2.8310531053105,1055089.9583988,28318.796042299,3615761.4709401,8.0310531053105,0,0
-31.845361382338,61.43416897219,2.8354835483548,1055089.9583988,28318.796042299,3615761.4709401,8.0354835483548,0,0
-31.845361361051,61.455726708242,2.8399139913991,1055089.9583988,28318.796042299,3615761.4709401,8.0399139913991,0,0
-31.845361339764,61.477284444293,2.8443444344434,1055089.9583988,28318.796042299,3615761.4709401,8.0443444344434,0,0
-31.845361318477,61.498842180344,2.8487748774877,1055089.9583988,28318.796042299,3615761.4709401,8.0487748774877,0,0
-31.84536129719,61.520399916396,2.8532053205321,1055089.9583988,28318.796042299,3615761.4709401,8.0532053205321,0,0
-31.845361275903,61.541957652447,2.8576357635764,1055089.9583988,28318.796042299,3615761.4709401,8.0576357635764,0,0
-31.845361254616,61.563515388499,2.8620662066207,1055089.9583988,28318.796042299,3615761.4709401,8.0620662066207,0,0
-31.845361233329,61.58507312455,2.866496649665,1055089.9583988,28318.796042299,3615761.4709401,8.066496649665,0,0
-31.845361212042,61.606630860602,2.8709270927093,1055089.9583988,28318.796042299,3615761.4709401,8.0709270927093,0,0
-31.845361190091,61.628188590631,2.8753575357536,1051281.5572406,-21901.017528308,3558030.1662571,8.0753575357536,0,0
-31.845361167571,61.649746315489,2.8797879787979,1051281.5572406,-21901.017528308,3558030.1662571,8.0797879787979,0,0
-31.845361145051,61.671304040347,2.8842184218422,1051281.5572406,-21901.017528308,3558030.1662571,8.0842184218422,0,0
-31.845361122531,61.692861765205,2.8886488648865,1051281.5572406,-21901.017528308,3558030.1662571,8.0886488648865,0,0
-31.845361100011,61.714419490062,2.8930793079308,1051281.5572406,-21901.017528308,3558030.1662571,8.0930793079308,0,0
-31.845361077491,61.73597721492,2.8975097509751,1051281.5572406,-21901.017528308,3558030.1662571,8.0975097509751,0,0
-31.845361054971,61.757534939778,2.9019401940194,1051281.5572406,-21901.017528308,3558030.1662571,8.1019401940194,0,0
-31.845361032451,61.779092664636,2.9063706370637,1051281.5572406,-21901.017528308,3558030.1662571,8.1063706370637,0,0
-31.845361009931,61.800650389493,2.910801080108,1051281.5572406,-21901.017528308,3558030.1662571,8.110801080108,0,0
-31.845360987411,61.822208114351,2.9152315231523,1051281.5572406,-21901.017528308,3558030.1662571,8.1152315231523,0,0
-31.845360964891,61.843765839209,2.9196619661966,1051281.5572406,-21901.017528308,3558030.1662571,8.1196619661966,0,0
-31.845360942371,61.865323564067,2.9240924092409,1051281.5572406,-21901.017528308,3558030.1662571,8.1240924092409,0,0
-31.845360919851,61.886881288924,2.9285228522852,1051281.5572406,-21901.017528308,3558030.1662571,8.1285228522852,0,0
-31.845360897331,61.908439013782,2.9329532953295,1051281.5572406,-21901.017528308,3558030.1662571,8.1329532953295,0,0
-31.845360874811,61.92999673864,2.9373837383738,1051281.5572406,-21901.017528308,3558030.1662571,8.1373837383738,0,0
-31.845360852291,61.951554463498,2.9418141814181,1051281.5572406,-21901.017528308,3558030.1662571,8.1418141814181,0,0
-31.845360829771,61.973112188356,2.9462446244624,1051281.5572406,-21901.017528308,3558030.1662571,8.1462446244624,0,0
-31.845360807251,61.994669913213,2.9506750675067,1051281.5572406,-21901.017528308,3558030.1662571,8.1506750675068,0,0
-31.845360784731,62.016227638071,2.9551055105511,1051281.5572406,-21901.017528308,3558030.1662571,8.1551055105511,0,0
-31.845360762211,62.037785362929,2.9595359535954,1051281.5572406,-21901.017528308,3558030.1662571,8.1595359535954,0,0
-31.845360739691,62.059343087787,2.9639663966397,1051281.5572406,-21901.017528308,3558030.1662571,8.1639663966397,0,0
-31.845360717171,62.080900812644,2.968396839684,1051281.5572406,-21901.017528308,3558030.1662571,8.168396839684,0,0
-31.845360694651,62.102458537502,2.9728272827283,1051281.5572406,-21901.017528308,3558030.1662571,8.1728272827283,0,0
-31.845360672131,62.12401626236,2.9772577257726,1051281.5572406,-21901.017528308,3558030.1662571,8.1772577257726,0,0
-31.84536064961,62.145573987218,2.9816881688169,1051281.5572406,-21901.017528308,3558030.1662571,8.1816881688169,0,0
-31.84536062709,62.167131712075,2.9861186118612,1051281.5572406,-21901.017528308,3558030.1662571,8.1861186118612,0,0
-31.84536060457,62.188689436933,2.9905490549055,1051281.5572406,-21901.017528308,3558030.1662571,8.1905490549055,0,0
-31.84536058205,62.210247161791,2.9949794979498,1051281.5572406,-21901.017528308,3558030.1662571,8.1949794979498,0,0
-31.84536055953,62.231804886649,2.9994099409941,1051281.5572406,-21901.017528308,3558030.1662571,8.1994099409941,0,0
-31.84536053701,62.253362611506,3.0038403840384,1051281.5572406,-21901.017528308,3558030.1662571,8.2038403840384,0,0
-31.84536051449,62.274920336364,3.0082708270827,1051281.5572406,-21901.017528308,3558030.1662571,8.2082708270827,0,0
-31.84536049197,62.296478061222,3.012701270127,1051281.5572406,-21901.017528308,3558030.1662571,8.212701270127,0,0
-31.84536046945,62.31803578608,3.0171317131713,1051281.5572406,-21901.017528308,3558030.1662571,8.2171317131713,0,0
-31.84536044693,62.339593510937,3.0215621562156,1051281.5572406,-21901.017528308,3558030.1662571,8.2215621562156,0,0
-31.84536042441,62.361151235795,3.0259925992599,1051281.5572406,-21901.017528308,3558030.1662571,8.2259925992599,0,0
-31.84536040189,62.382708960653,3.0304230423042,1051281.5572406,-21901.017528308,3558030.1662571,8.2304230423042,0,0
-31.84536037937,62.404266685511,3.0348534853485,1051281.5572406,-21901.017528308,3558030.1662571,8.2348534853485,0,0
-31.84536035685,62.425824410368,3.0392839283928,1051281.5572406,-21901.017528308,3558030.1662571,8.2392839283928,0,0
-31.84536033433,62.447382135226,3.0437143714371,1051281.5572406,-21901.017528308,3558030.1662571,8.2437143714371,0,0
-31.84536031181,62.468939860084,3.0481448144814,1051281.5572406,-21901.017528308,3558030.1662571,8.2481448144814,0,0
-31.84536028929,62.490497584942,3.0525752575258,1051281.5572406,-21901.017528308,3558030.1662571,8.2525752575258,0,0
-31.84536026677,62.512055309799,3.0570057005701,1051281.5572406,-21901.017528308,3558030.1662571,8.2570057005701,0,0
-31.84536024425,62.533613034657,3.0614361436144,1051281.5572406,-21901.017528308,3558030.1662571,8.2614361436144,0,0
-31.84536022173,62.555170759515,3.0658665866587,1051281.5572406,-21901.017528308,3558030.1662571,8.2658665866587,0,0
-31.84536019921,62.576728484373,3.070297029703,1051281.5572406,-21901.017528308,3558030.1662571,8.270297029703,0,0
-31.84536017669,62.59828620923,3.0747274727473,1051281.5572406,-21901.017528308,3558030.1662571,8.2747274727473,0,0
-31.84536015417,62.619843934088,3.0791579157916,1051281.5572406,-21901.017528308,3558030.1662571,8.2791579157916,0,0
-31.84536013165,62.641401658946,3.0835883588359,1051281.5572406,-21901.017528308,3558030.1662571,8.2835883588359,0,0
-31.845360107609,62.66295938808,3.0880188018802,1063215.8164407,12929.964372006,3453701.109384,8.2880188018802,0,0
-31.845360081358,62.684517123433,3.0924492449245,1063215.8164407,12929.964372006,3453701.109384,8.2924492449245,0,0
-31.845360055107,62.706074858785,3.0968796879688,1063215.8164407,12929.964372006,3453701.109384,8.2968796879688,0,0
-31.845360028856,62.727632594137,3.1013101310131,1063215.8164407,12929.964372006,3453701.109384,8.3013101310131,0,0
-31.845360002605,62.74919032949,3.1057405740574,1063215.8164407,12929.964372006,3453701.109384,8.3057405740574,0,0
-31.845359976354,62.770748064842,3.1101710171017,1063215.8164407,12929.964372006,3453701.109384,8.3101710171017,0,0
-31.845359950103,62.792305800195,3.114601460146,1063215.8164407,12929.964372006,3453701.109384,8.314601460146,0,0
-31.845359923852,62.813863535547,3.1190319031903,1063215.8164407,12929.964372006,3453701.109384,8.3190319031903,0,0
-31.845359897601,62.8354212709,3.1234623462346,1063215.8164407,12929.964372006,3453701.109384,8.3234623462346,0,0
-31.84535987135,62.856979006252,3.1278927892789,1063215.8164407,12929.964372006,3453701.109384,8.3278927892789,0,0
-31.845359845099,62.878536741605,3.1323232323232,1063215.8164407,12929.964372006,3453701.109384,8.3323232323232,0,0
-31.845359818848,62.900094476957,3.1367536753675,1063215.8164407,12929.964372006,3453701.109384,8.3367536753675,0,0
-31.845359792597,62.92165221231,3.1411841184118,1063215.8164407,12929.964372006,3453701.109384,8.3411841184118,0,0
-31.845359766345,62.943209947662,3.1456145614561,1063215.8164407,12929.964372006,3453701.109384,8.3456145614561,0,0
-31.845359740094,62.964767683014,3.1500450045004,1063215.8164407,12929.964372006,3453701.109384,8.3500450045004,0,0
-31.845359713843,62.986325418367,3.1544754475448,1063215.8164407,12929.964372006,3453701.109384,8.3544754475448,0,0
-31.845359687592,63.007883153719,3.1589058905891,1063215.8164407,12929.964372006,3453701.109384,8.3589058905891,0,0
-31.845359661341,63.029440889072,3.1633363336334,1063215.8164407,12929.964372006,3453701.109384,8.3633363336334,0,0
-31.84535963509,63.050998624424,3.1677667766777,1063215.8164407,12929.964372006,3453701.109384,8.3677667766777,0,0
-31.845359608839,63.072556359777,3.172197219722,1063215.8164407,12929.964372006,3453701.109384,8.372197219722,0,0
-31.845359582588,63.094114095129,3.1766276627663,1063215.8164407,12929.964372006,3453701.109384,8.3766276627663,0,0
-31.845359556337,63.115671830482,3.1810581058106,1063215.8164407,12929.964372006,3453701.109384,8.3810581058106,0,0
-31.845359530086,63.137229565834,3.1854885488549,1063215.8164407,12929.964372006,3453701.109384,8.3854885488549,0,0
-31.845359503835,63.158787301186,3.1899189918992,1063215.8164407,12929.964372006,3453701.109384,8.3899189918992,0,0
-31.845359477584,63.180345036539,3.1943494349435,1063215.8164407,12929.964372006,3453701.109384,8.3943494349435,0,0
-31.845359451333,63.201902771891,3.1987798779878,1063215.8164407,12929.964372006,3453701.109384,8.3987798779878,0,0
-31.845359425081,63.223460507244,3.2032103210321,1063215.8164407,12929.964372006,3453701.109384,8.4032103210321,0,0
-31.84535939883,63.245018242596,3.2076407640764,1063215.8164407,12929.964372006,3453701.109384,8.4076407640764,0,0
-31.845359372579,63.266575977949,3.2120712071207,1063215.8164407,12929.964372006,3453701.109384,8.4120712071207,0,0
-31.845359346328,63.288133713301,3.216501650165,1063215.8164407,12929.964372006,3453701.109384,8.416501650165,0,0
-31.845359320077,63.309691448654,3.2209320932093,1063215.8164407,12929.964372006,3453701.109384,8.4209320932093,0,0
-31.845359293826,63.331249184006,3.2253625362536,1063215.8164407,12929.964372006,3453701.109384,8.4253625362536,0,0
-31.845359267575,63.352806919359,3.2297929792979,1063215.8164407,12929.964372006,3453701.109384,8.4297929792979,0,0
-31.845359241324,63.374364654711,3.2342234223422,1063215.8164407,12929.964372006,3453701.109384,8.4342234223422,0,0
-31.845359215073,63.395922390063,3.2386538653865,1063215.8164407,12929.964372006,3453701.109384,8.4386538653865,0,0
-31.845359188822,63.417480125416,3.2430843084308,1063215.8164407,12929.964372006,3453701.109384,8.4430843084308,0,0
-31.845359162571,63.439037860768,3.2475147514751,1063215.8164407,12929.964372006,3453701.109384,8.4475147514751,0,0
-31.84535913632,63.460595596121,3.2519451945195,1063215.8164407,12929.964372006,3453701.109384,8.4519451945195,0,0
-31.845359110069,63.482153331473,3.2563756375638,1063215.8164407,12929.964372006,3453701.109384,8.4563756375638,0,0
-31.845359083817,63.503711066826,3.2608060806081,1063215.8164407,12929.964372006,3453701.109384,8.4608060806081,0,0
-31.845359057566,63.525268802178,3.2652365236524,1063215.8164407,12929.964372006,3453701.109384,8.4652365236524,0,0
-31.845359031315,63.546826537531,3.2696669666967,1063215.8164407,12929.964372006,3453701.109384,8.4696669666967,0,0
-31.845359005064,63.568384272883,3.274097409741,1063215.8164407,12929.964372006,3453701.109384,8.474097409741,0,0
-31.845358978813,63.589942008236,3.2785278527853,1063215.8164407,12929.964372006,3453701.109384,8.4785278527853,0,0
-31.845358953364,63.611499742584,3.2829582958296,1041912.454013,3790.6214106442,3444843.1878042,8.4829582958296,0,0
-31.845358928579,63.633057476102,3.2873887388739,1041912.454013,3790.6214106442,3444843.1878042,8.4873887388739,0,0
-31.845358903793,63.65461520962,3.2918191819182,1041912.454013,3790.6214106442,3444843.1878042,8.4918191819182,0,0
-31.845358879008,63.676172943138,3.2962496249625,1041912.454013,3790.6214106442,3444843.1878042,8.4962496249625,0,0
-31.845358854223,63.697730676656,3.3006800680068,1041912.454013,3790.6214106442,3444843.1878042,8.5006800680068,0,0
-31.845358829438,63.719288410174,3.3051105110511,1041912.454013,3790.6214106442,3444843.1878042,8.5051105110511,0,0
-31.845358804652,63.740846143691,3.3095409540954,1041912.454013,3790.6214106442,3444843.1878042,8.5095409540954,0,0
-31.845358779867,63.762403877209,3.3139713971397,1041912.454013,3790.6214106442,3444843.1878042,8.5139713971397,0,0
-31.845358755082,63.783961610727,3.318401840184,1041912.454013,3790.6214106442,3444843.1878042,8.518401840184,0,0
-31.845358730296,63.805519344245,3.3228322832283,1041912.454013,3790.6214106442,3444843.1878042,8.5228322832283,0,0
-31.845358705511,63.827077077763,3.3272627262726,1041912.454013,3790.6214106442,3444843.1878042,8.5272627262726,0,0
-31.845358680726,63.848634811281,3.3316931693169,1041912.454013,3790.6214106442,3444843.1878042,8.5316931693169,0,0
-31.84535865594,63.870192544799,3.3361236123612,1041912.454013,3790.6214106442,3444843.1878042,8.5361236123612,0,0
-31.845358631155,63.891750278316,3.3405540554055,1041912.454013,3790.6214106442,3444843.1878042,8.5405540554055,0,0
-31.84535860637,63.913308011834,3.3449844984498,1041912.454013,3790.6214106442,3444843.1878042,8.5449844984498,0,0
-31.845358581585,63.934865745352,3.3494149414941,1041912.454013,3790.6214106442,3444843.1878042,8.5494149414941,0,0
-31.845358556799,63.95642347887,3.3538453845385,1041912.454013,3790.6214106442,3444843.1878042,8.5538453845385,0,0
-31.845358532014,63.977981212388,3.3582758275828,1041912.454013,3790.6214106442,3444843.1878042,8.5582758275828,0,0
-31.845358507229,63.999538945906,3.3627062706271,1041912.454013,3790.6214106442,3444843.1878042,8.5627062706271,0,0
-31.845358482443,64.021096679424,3.3671367136714,1041912.454013,3790.6214106442,3444843.1878042,8.5671367136714,0,0
-31.845358457658,64.042654412942,3.3715671567157,1041912.454013,3790.6214106442,3444843.1878042,8.5715671567157,0,0
-31.845358432873,64.064212146459,3.37599759976,1041912.454013,3790.6214106442,3444843.1878042,8.57599759976,0,0
-31.845358408088,64.085769879977,3.3804280428043,1041912.454013,3790.6214106442,3444843.1878042,8.5804280428043,0,0
-31.845358383302,64.107327613495,3.3848584858486,1041912.454013,3790.6214106442,3444843.1878042,8.5848584858486,0,0
-31.845358358517,64.128885347013,3.3892889288929,1041912.454013,3790.6214106442,3444843.1878042,8.5892889288929,0,0
-31.845358333732,64.150443080531,3.3937193719372,1041912.454013,3790.6214106442,3444843.1878042,8.5937193719372,0,0
-31.845358308946,64.172000814049,3.3981498149815,1041912.454013,3790.6214106442,3444843.1878042,8.5981498149815,0,0
-31.845358284161,64.193558547567,3.4025802580258,1041912.454013,3790.6214106442,3444843.1878042,8.6025802580258,0,0
-31.845358259376,64.215116281084,3.4070107010701,1041912.454013,3790.6214106442,3444843.1878042,8.6070107010701,0,0
-31.84535823459,64.236674014602,3.4114411441144,1041912.454013,3790.6214106442,3444843.1878042,8.6114411441144,0,0
-31.845358209805,64.25823174812,3.4158715871587,1041912.454013,3790.6214106442,3444843.1878042,8.6158715871587,0,0
-31.84535818502,64.279789481638,3.420302030203,1041912.454013,3790.6214106442,3444843.1878042,8.620302030203,0,0
-31.845358160235,64.301347215156,3.4247324732473,1041912.454013,3790.6214106442,3444843.1878042,8.6247324732473,0,0
-31.845358135449,64.322904948674,3.4291629162916,1041912.454013,3790.6214106442,3444843.1878042,8.6291629162916,0,0
-31.845358110664,64.344462682192,3.4335933593359,1041912.454013,3790.6214106442,3444843.1878042,8.6335933593359,0,0
-31.845358085879,64.36602041571,3.4380238023802,1041912.454013,3790.6214106442,3444843.1878042,8.6380238023802,0,0
-31.845358061093,64.387578149227,3.4424542454245,1041912.454013,3790.6214106442,3444843.1878042,8.6424542454245,0,0
-31.845358036308,64.409135882745,3.4468846884688,1041912.454013,3790.6214106442,3444843.1878042,8.6468846884688,0,0
-31.845358011523,64.430693616263,3.4513151315132,1041912.454013,3790.6214106442,3444843.1878042,8.6513151315132,0,0
-31.845357986737,64.452251349781,3.4557455745575,1041912.454013,3790.6214106442,3444843.1878042,8.6557455745575,0,0
-31.845357961952,64.473809083299,3.4601760176018,1041912.454013,3790.6214106442,3444843.1878042,8.6601760176018,0,0
-31.845357937167,64.495366816817,3.4646064606461,1041912.454013,3790.6214106442,3444843.1878042,8.6646064606461,0,0
-31.845357912382,64.516924550335,3.4690369036904,1041912.454013,3790.6214106442,3444843.1878042,8.6690369036904,0,0
-31.845357887596,64.538482283853,3.4734673467347,1041912.454013,3790.6214106442,3444843.1878042,8.6734673467347,0,0
-31.845357862811,64.56004001737,3.477897789779,1041912.454013,3790.6214106442,3444843.1878042,8.677897789779,0,0
-31.845357838026,64.581597750888,3.4823282328233,1041912.454013,3790.6214106442,3444843.1878042,8.6823282328233,0,0
-31.84535781324,64.603155484406,3.4867586758676,1041912.454013,3790.6214106442,3444843.1878042,8.6867586758676,0,0
-31.845357788455,64.624713217924,3.4911891189119,1041912.454013,3790.6214106442,3444843.1878042,8.6911891189119,0,0
-31.84535776367,64.646270951442,3.4956195619562,1041912.454013,3790.6214106442,3444843.1878042,8.6956195619562,0,0
-31.845357738205,64.667828683393,3.5000500050005,1049065.897717,-14007.509504381,3349143.969694,8.7000500050005,0,0
-31.8453577103,64.689386409721,3.5044804480448,1049065.897717,-14007.509504381,3349143.969694,8.7044804480448,0,0
-31.845357682395,64.710944136048,3.5089108910891,1049065.897717,-14007.509504381,3349143.969694,8.7089108910891,0,0
-31.845357654491,64.732501862376,3.5133413341334,1049065.897717,-14007.509504381,3349143.969694,8.7133413341334,0,0
-31.845357626586,64.754059588704,3.5177717771777,1049065.897717,-14007.509504381,3349143.969694,8.7177717771777,0,0
-31.845357598681,64.775617315032,3.522202220222,1049065.897717,-14007.509504381,3349143.969694,8.722202220222,0,0
-31.845357570776,64.79717504136,3.5266326632663,1049065.897717,-14007.509504381,3349143.969694,8.7266326632663,0,0
-31.845357542872,64.818732767688,3.5310631063106,1049065.897717,-14007.509504381,3349143.969694,8.7310631063106,0,0
-31.845357514967,64.840290494015,3.5354935493549,1049065.897717,-14007.509504381,3349143.969694,8.7354935493549,0,0
-31.845357487062,64.861848220343,3.5399239923992,1049065.897717,-14007.509504381,3349143.969694,8.7399239923992,0,0
-31.845357459158,64.883405946671,3.5443544354435,1049065.897717,-14007.509504381,3349143.969694,8.7443544354435,0,0
-31.845357431253,64.904963672999,3.5487848784878,1049065.897717,-14007.509504381,3349143.969694,8.7487848784878,0,0
-31.845357403348,64.926521399327,3.5532153215322,1049065.897717,-14007.509504381,3349143.969694,8.7532153215322,0,0
-31.845357375444,64.948079125654,3.5576457645765,1049065.897717,-14007.509504381,3349143.969694,8.7576457645765,0,0
-31.845357347539,64.969636851982,3.5620762076208,1049065.897717,-14007.509504381,3349143.969694,8.7620762076208,0,0
-31.845357319634,64.99119457831,3.5665066506651,1049065.897717,-14007.509504381,3349143.969694,8.7665066506651,0,0
-31.845357291729,65.012752304638,3.5709370937094,1049065.897717,-14007.509504381,3349143.969694,8.7709370937094,0,0
-31.845357263825,65.034310030966,3.5753675367537,1049065.897717,-14007.509504381,3349143.969694,8.7753675367537,0,0
-31.84535723592,65.055867757294,3.579797979798,1049065.897717,-14007.509504381,3349143.969694,8.779797979798,0,0
-31.845357208015,65.077425483621,3.5842284228423,1049065.897717,-14007.509504381,3349143.969694,8.7842284228423,0,0
-31.845357180111,65.098983209949,3.5886588658866,1049065.897717,-14007.509504381,3349143.969694,8.7886588658866,0,0
-31.845357152206,65.120540936277,3.5930893089309,1049065.897717,-14007.509504381,3349143.969694,8.7930893089309,0,0
-31.845357124301,65.142098662605,3.5975197519752,1049065.897717,-14007.509504381,3349143.969694,8.7975197519752,0,0
-31.845357096397,65.163656388933,3.6019501950195,1049065.897717,-14007.509504381,3349143.969694,8.8019501950195,0,0
-31.845357068492,65.185214115261,3.6063806380638,1049065.897717,-14007.509504381,3349143.969694,8.8063806380638,0,0
-31.845357040587,65.206771841588,3.6108110811081,1049065.897717,-14007.509504381,3349143.969694,8.8108110811081,0,0
-31.845357012682,65.228329567916,3.6152415241524,1049065.897717,-14007.509504381,3349143.969694,8.8152415241524,0,0
-31.845356984778,65.249887294244,3.6196719671967,1049065.897717,-14007.509504381,3349143.969694,8.8196719671967,0,0
-31.845356956873,65.271445020572,3.624102410241,1049065.897717,-14007.509504381,3349143.969694,8.824102410241,0,0
-31.845356928968,65.2930027469,3.6285328532853,1049065.897717,-14007.509504381,3349143.969694,8.8285328532853,0,0
-31.845356901064,65.314560473228,3.6329632963296,1049065.897717,-14007.509504381,3349143.969694,8.8329632963296,0,0
-31.845356873159,65.336118199555,3.6373937393739,1049065.897717,-14007.509504381,3349143.969694,8.8373937393739,0,0
-31.845356845254,65.357675925883,3.6418241824182,1049065.897717,-14007.509504381,3349143.969694,8.8418241824182,0,0
-31.845356817349,65.379233652211,3.6462546254625,1049065.897717,-14007.509504381,3349143.969694,8.8462546254625,0,0
-31.845356789445,65.400791378539,3.6506850685069,1049065.897717,-14007.509504381,3349143.969694,8.8506850685069,0,0
-31.84535676154,65.422349104867,3.6551155115512,1049065.897717,-14007.509504381,3349143.969694,8.8551155115512,0,0
-31.845356733635,65.443906831194,3.6595459545955,1049065.897717,-14007.509504381,3349143.969694,8.8595459545955,0,0
-31.845356705731,65.465464557522,3.6639763976398,1049065.897717,-14007.509504381,3349143.969694,8.8639763976398,0,0
-31.845356677826,65.48702228385,3.6684068406841,1049065.897717,-14007.509504381,3349143.969694,8.8684068406841,0,0
-31.845356649921,65.508580010178,3.6728372837284,1049065.897717,-14007.509504381,3349143.969694,8.8728372837284,0,0
-31.845356622017,65.530137736506,3.6772677267727,1049065.897717,-14007.509504381,3349143.969694,8.8772677267727,0,0
-31.845356594112,65.551695462834,3.681698169817,1049065.897717,-14007.509504381,3349143.969694,8.881698169817,0,0
-31.845356566207,65.573253189161,3.6861286128613,1049065.897717,-14007.509504381,3349143.969694,8.8861286128613,0,0
-31.845356538302,65.594810915489,3.6905590559056,1049065.897717,-14007.509504381,3349143.969694,8.8905590559056,0,0
-31.845356510614,65.616368647079,3.6949894989499,1036209.2262221,21323.33868758,3322051.2952903,8.8949894989499,0,0
-31.845356483014,65.637926380857,3.6994199419942,1036209.2262221,21323.33868758,3322051.2952903,8.8994199419942,0,0
-31.845356455415,65.659484114636,3.7038503850385,1036209.2262221,21323.33868758,3322051.2952903,8.9038503850385,0,0
-31.845356427816,65.681041848415,3.7082808280828,1036209.2262221,21323.33868758,3322051.2952903,8.9082808280828,0,0
-31.845356400217,65.702599582193,3.7127112711271,1036209.2262221,21323.33868758,3322051.2952903,8.9127112711271,0,0
-31.845356372618,65.724157315972,3.7171417141714,1036209.2262221,21323.33868758,3322051.2952903,8.9171417141714,0,0
-31.845356345019,65.745715049751,3.7215721572157,1036209.2262221,21323.33868758,3322051.2952903,8.9215721572157,0,0
-31.84535631742,65.767272783529,3.72600260026,1036209.2262221,21323.33868758,3322051.2952903,8.92600260026,0,0
-31.845356289821,65.788830517308,3.7304330433043,1036209.2262221,21323.33868758,3322051.2952903,8.9304330433043,0,0
-31.845356262222,65.810388251086,3.7348634863486,1036209.2262221,21323.33868758,3322051.2952903,8.9348634863486,0,0
-31.845356234622,65.831945984865,3.7392939293929,1036209.2262221,21323.33868758,3322051.2952903,8.9392939293929,0,0
-31.845356207023,65.853503718644,3.7437243724372,1036209.2262221,21323.33868758,3322051.2952903,8.9437243724372,0,0
-31.845356179424,65.875061452422,3.7481548154815,1036209.2262221,21323.33868758,3322051.2952903,8.9481548154815,0,0
-31.845356151825,65.896619186201,3.7525852585259,1036209.2262221,21323.33868758,3322051.2952903,8.9525852585259,0,0
-31.845356124226,65.91817691998,3.7570157015702,1036209.2262221,21323.33868758,3322051.2952903,8.9570157015702,0,0
-31.845356096627,65.939734653758,3.7614461446145,1036209.2262221,21323.33868758,3322051.2952903,8.9614461446145,0,0
-31.845356069028,65.961292387537,3.7658765876588,1036209.2262221,21323.33868758,3322051.2952903,8.9658765876588,0,0
-31.845356041429,65.982850121316,3.7703070307031,1036209.2262221,21323.33868758,3322051.2952903,8.9703070307031,0,0
-31.84535601383,66.004407855094,3.7747374737474,1036209.2262221,21323.33868758,3322051.2952903,8.9747374737474,0,0
-31.84535598623,66.025965588873,3.7791679167917,1036209.2262221,21323.33868758,3322051.2952903,8.9791679167917,0,0
-31.845355958631,66.047523322652,3.783598359836,1036209.2262221,21323.33868758,3322051.2952903,8.983598359836,0,0
-31.845355931032,66.06908105643,3.7880288028803,1036209.2262221,21323.33868758,3322051.2952903,8.9880288028803,0,0
-31.845355903433,66.090638790209,3.7924592459246,1036209.2262221,21323.33868758,3322051.2952903,8.9924592459246,0,0
-31.845355875834,66.112196523988,3.7968896889689,1036209.2262221,21323.33868758,3322051.2952903,8.9968896889689,0,0
-31.845355848235,66.133754257766,3.8013201320132,1036209.2262221,21323.33868758,3322051.2952903,9.0013201320132,0,0
-31.845355820636,66.155311991545,3.8057505750575,1036209.2262221,21323.33868758,3322051.2952903,9.0057505750575,0,0
-31.845355793037,66.176869725324,3.8101810181018,1036209.2262221,21323.33868758,3322051.2952903,9.0101810181018,0,0
-31.845355765437,66.198427459102,3.8146114611461,1036209.2262221,21323.33868758,3322051.2952903,9.0146114611461,0,0
-31.845355737838,66.219985192881,3.8190419041904,1036209.2262221,21323.33868758,3322051.2952903,9.0190419041904,0,0
-31.845355710239,66.24154292666,3.8234723472347,1036209.2262221,21323.33868758,3322051.2952903,9.0234723472347,0,0
-31.84535568264,66.263100660438,3.827902790279,1036209.2262221,21323.33868758,3322051.2952903,9.027902790279,0,0
-31.845355655041,66.284658394217,3.8323332333233,1036209.2262221,21323.33868758,3322051.2952903,9.0323332333233,0,0
-31.845355627442,66.306216127995,3.8367636763676,1036209.2262221,21323.33868758,3322051.2952903,9.0367636763676,0,0
-31.845355599843,66.327773861774,3.8411941194119,1036209.2262221,21323.33868758,3322051.2952903,9.0411941194119,0,0
-31.845355572244,66.349331595553,3.8456245624562,1036209.2262221,21323.33868758,3322051.2952903,9.0456245624562,0,0
-31.845355544645,66.370889329331,3.8500550055005,1036209.2262221,21323.33868758,3322051.2952903,9.0500550055005,0,0
-31.845355517045,66.39244706311,3.8544854485449,1036209.2262221,21323.33868758,3322051.2952903,9.0544854485449,0,0
-31.845355489446,66.414004796889,3.8589158915892,1036209.2262221,21323.33868758,3322051.2952903,9.0589158915892,0,0
-31.845355461847,66.435562530667,3.8633463346335,1036209.2262221,21323.33868758,3322051.2952903,9.0633463346335,0,0
-31.845355434248,66.457120264446,3.8677767776778,1036209.2262221,21323.33868758,3322051.2952903,9.0677767776778,0,0
-31.845355406649,66.478677998225,3.8722072207221,1036209.2262221,21323.33868758,3322051.2952903,9.0722072207221,0,0
-31.84535537905,66.500235732003,3.8766376637664,1036209.2262221,21323.33868758,3322051.2952903,9.0766376637664,0,0
-31.845355351451,66.521793465782,3.8810681068107,1036209.2262221,21323.33868758,3322051.2952903,9.0810681068107,0,0
-31.845355323852,66.543351199561,3.885498549855,1036209.2262221,21323.33868758,3322051.2952903,9.085498549855,0,0
-31.845355296253,66.564908933339,3.8899289928993,1036209.2262221,21323.33868758,3322051.2952903,9.0899289928993,0,0
-31.845355268653,66.586466667118,3.8943594359436,1036209.2262221,21323.33868758,3322051.2952903,9.0943594359436,0,0
-31.845355241054,66.608024400897,3.8987898789879,1036209.2262221,21323.33868758,3322051.2952903,9.0987898789879,0,0
-31.845355213455,66.629582134675,3.9032203220322,1036209.2262221,21323.33868758,3322051.2952903,9.1032203220322,0,0
-31.845355185856,66.651139868454,3.9076507650765,1036209.2262221,21323.33868758,3322051.2952903,9.1076507650765,0,0
-31.845355158257,66.672697602233,3.9120812081208,1036209.2262221,21323.33868758,3322051.2952903,9.1120812081208,0,0
-31.845355130658,66.694255336011,3.9165116511651,1036209.2262221,21323.33868758,3322051.2952903,9.1165116511651,0,0
-31.845355103059,66.71581306979,3.9209420942094,1036209.2262221,21323.33868758,3322051.2952903,9.1209420942094,0,0
-31.84535507546,66.737370803569,3.9253725372537,1036209.2262221,21323.33868758,3322051.2952903,9.1253725372537,0,0
-31.845355047861,66.758928537347,3.929802980298,1036209.2262221,21323.33868758,3322051.2952903,9.129802980298,0,0
-31.845355020261,66.780486271126,3.9342334233423,1036209.2262221,21323.33868758,3322051.2952903,9.1342334233423,0,0
-31.845354992662,66.802044004904,3.9386638663866,1036209.2262221,21323.33868758,3322051.2952903,9.1386638663866,0,0
-31.845354965063,66.823601738683,3.9430943094309,1036209.2262221,21323.33868758,3322051.2952903,9.1430943094309,0,0
-31.845354937464,66.845159472462,3.9475247524752,1036209.2262221,21323.33868758,3322051.2952903,9.1475247524752,0,0
-31.845354909865,66.86671720624,3.9519551955196,1036209.2262221,21323.33868758,3322051.2952903,9.1519551955196,0,0
-31.845354882266,66.888274940019,3.9563856385639,1036209.2262221,21323.33868758,3322051.2952903,9.1563856385639,0,0
-31.845354854667,66.909832673798,3.9608160816082,1036209.2262221,21323.33868758,3322051.2952903,9.1608160816082,0,0
-31.845354827068,66.931390407576,3.9652465246525,1036209.2262221,21323.33868758,3322051.2952903,9.1652465246525,0,0
-31.845354799468,66.952948141355,3.9696769676968,1036209.2262221,21323.33868758,3322051.2952903,9.1696769676968,0,0
-31.845354771869,66.974505875134,3.9741074107411,1036209.2262221,21323.33868758,3322051.2952903,9.1741074107411,0,0
-31.84535474427,66.996063608912,3.9785378537854,1036209.2262221,21323.33868758,3322051.2952903,9.1785378537854,0,0
-31.845354716671,67.017621342691,3.9829682968297,1036209.2262221,21323.33868758,3322051.2952903,9.1829682968297,0,0
-31.845354689072,67.03917907647,3.987398739874,1036209.2262221,21323.33868758,3322051.2952903,9.187398739874,0,0
-31.845354661473,67.060736810248,3.9918291829183,1036209.2262221,21323.33868758,3322051.2952903,9.1918291829183,0,0
-31.845354633874,67.082294544027,3.9962596259626,1036209.2262221,21323.33868758,3322051.2952903,9.1962596259626,0,0
-31.845354606275,67.103852277806,4.0006900690069,1036209.2262221,21323.33868758,3322051.2952903,9.2006900690069,0,0
-31.845354578676,67.125410011584,4.0051205120512,1036209.2262221,21323.33868758,3322051.2952903,9.2051205120512,0,0
-31.84535455053,67.146967742313,4.0095509550955,1027751.2267317,-10112.989822346,3244446.2517356,9.2095509550955,0,0
-31.845354521541,67.168525468326,4.0139813981398,1027751.2267317,-10112.989822346,3244446.2517356,9.2139813981398,0,0
-31.845354492551,67.190083194339,4.0184118411841,1027751.2267317,-10112.989822346,3244446.2517356,9.2184118411841,0,0
-31.845354463561,67.211640920352,4.0228422842284,1027751.2267317,-10112.989822346,3244446.2517356,9.2228422842284,0,0
-31.845354434571,67.233198646365,4.0272727272727,1027751.2267317,-10112.989822346,3244446.2517356,9.2272727272727,0,0
-31.845354405581,67.254756372378,4.031703170317,1027751.2267317,-10112.989822346,3244446.2517356,9.231703170317,0,0
-31.845354376592,67.276314098391,4.0361336133613,1027751.2267317,-10112.989822346,3244446.2517356,9.2361336133613,0,0
-31.845354347602,67.297871824404,4.0405640564056,1027751.2267317,-10112.989822346,3244446.2517356,9.2405640564056,0,0
-31.845354318612,67.319429550417,4.0449944994499,1027751.2267317,-10112.989822346,3244446.2517356,9.2449944994499,0,0
-31.845354289622,67.34098727643,4.0494249424942,1027751.2267317,-10112.989822346,3244446.2517356,9.2494249424942,0,0
-31.845354260633,67.362545002443,4.0538553855386,1027751.2267317,-10112.989822346,3244446.2517356,9.2538553855386,0,0
-31.845354231643,67.384102728456,4.0582858285829,1027751.2267317,-10112.989822346,3244446.2517356,9.2582858285829,0,0
-31.845354202653,67.405660454468,4.0627162716272,1027751.2267317,-10112.989822346,3244446.2517356,9.2627162716272,0,0
-31.845354173663,67.427218180481,4.0671467146715,1027751.2267317,-10112.989822346,3244446.2517356,9.2671467146715,0,0
-31.845354144673,67.448775906494,4.0715771577158,1027751.2267317,-10112.989822346,3244446.2517356,9.2715771577158,0,0
-31.845354115684,67.470333632507,4.0760076007601,1027751.2267317,-10112.989822346,3244446.2517356,9.2760076007601,0,0
-31.845354086694,67.49189135852,4.0804380438044,1027751.2267317,-10112.989822346,3244446.2517356,9.2804380438044,0,0
-31.845354057704,67.513449084533,4.0848684868487,1027751.2267317,-10112.989822346,3244446.2517356,9.2848684868487,0,0
-31.845354028714,67.535006810546,4.089298929893,1027751.2267317,-10112.989822346,3244446.2517356,9.289298929893,0,0
-31.845353999725,67.556564536559,4.0937293729373,1027751.2267317,-10112.989822346,3244446.2517356,9.2937293729373,0,0
-31.845353970735,67.578122262572,4.0981598159816,1027751.2267317,-10112.989822346,3244446.2517356,9.2981598159816,0,0
-31.845353941745,67.599679988585,4.1025902590259,1027751.2267317,-10112.989822346,3244446.2517356,9.3025902590259,0,0
-31.845353912755,67.621237714598,4.1070207020702,1027751.2267317,-10112.989822346,3244446.2517356,9.3070207020702,0,0
-31.845353883765,67.642795440611,4.1114511451145,1027751.2267317,-10112.989822346,3244446.2517356,9.3114511451145,0,0
-31.845353854776,67.664353166623,4.1158815881588,1027751.2267317,-10112.989822346,3244446.2517356,9.3158815881588,0,0
-31.845353825786,67.685910892636,4.1203120312031,1027751.2267317,-10112.989822346,3244446.2517356,9.3203120312031,0,0
-31.845353796796,67.707468618649,4.1247424742474,1027751.2267317,-10112.989822346,3244446.2517356,9.3247424742474,0,0
-31.845353767806,67.729026344662,4.1291729172917,1027751.2267317,-10112.989822346,3244446.2517356,9.3291729172917,0,0
-31.845353738817,67.750584070675,4.133603360336,1027751.2267317,-10112.989822346,3244446.2517356,9.333603360336,0,0
-31.845353709827,67.772141796688,4.1380338033803,1027751.2267317,-10112.989822346,3244446.2517356,9.3380338033803,0,0
-31.845353680837,67.793699522701,4.1424642464246,1027751.2267317,-10112.989822346,3244446.2517356,9.3424642464246,0,0
-31.845353651786,67.815257252712,4.1468946894689,1017897.109474,19966.993464777,3211158.7015686,9.3468946894689,0,0
-31.845353622697,67.836814985169,4.1513251325133,1017897.109474,19966.993464777,3211158.7015686,9.3513251325133,0,0
-31.845353593608,67.858372717625,4.1557555755576,1017897.109474,19966.993464777,3211158.7015686,9.3557555755576,0,0
-31.845353564519,67.879930450082,4.1601860186019,1017897.109474,19966.993464777,3211158.7015686,9.3601860186019,0,0
-31.84535353543,67.901488182539,4.1646164616462,1017897.109474,19966.993464777,3211158.7015686,9.3646164616462,0,0
-31.845353506341,67.923045914996,4.1690469046905,1017897.109474,19966.993464777,3211158.7015686,9.3690469046905,0,0
-31.845353477252,67.944603647453,4.1734773477348,1017897.109474,19966.993464777,3211158.7015686,9.3734773477348,0,0
-31.845353448163,67.96616137991,4.1779077907791,1017897.109474,19966.993464777,3211158.7015686,9.3779077907791,0,0
-31.845353419074,67.987719112367,4.1823382338234,1017897.109474,19966.993464777,3211158.7015686,9.3823382338234,0,0
-31.845353389985,68.009276844824,4.1867686768677,1017897.109474,19966.993464777,3211158.7015686,9.3867686768677,0,0
-31.845353360896,68.030834577281,4.191199119912,1017897.109474,19966.993464777,3211158.7015686,9.391199119912,0,0
-31.845353331807,68.052392309738,4.1956295629563,1017897.109474,19966.993464777,3211158.7015686,9.3956295629563,0,0
-31.845353302718,68.073950042194,4.2000600060006,1017897.109474,19966.993464777,3211158.7015686,9.4000600060006,0,0
-31.845353273629,68.095507774651,4.2044904490449,1017897.109474,19966.993464777,3211158.7015686,9.4044904490449,0,0
-31.84535324454,68.117065507108,4.2089208920892,1017897.109474,19966.993464777,3211158.7015686,9.4089208920892,0,0
-31.845353215451,68.138623239565,4.2133513351335,1017897.109474,19966.993464777,3211158.7015686,9.4133513351335,0,0
-31.845353186362,68.160180972022,4.2177817781778,1017897.109474,19966.993464777,3211158.7015686,9.4177817781778,0,0
-31.845353157273,68.181738704479,4.2222122212221,1017897.109474,19966.993464777,3211158.7015686,9.4222122212221,0,0
-31.845353128184,68.203296436936,4.2266426642664,1017897.109474,19966.993464777,3211158.7015686,9.4266426642664,0,0
-31.845353099095,68.224854169393,4.2310731073107,1017897.109474,19966.993464777,3211158.7015686,9.4310731073107,0,0
-31.845353070006,68.24641190185,4.235503550355,1017897.109474,19966.993464777,3211158.7015686,9.435503550355,0,0
-31.845353040917,68.267969634307,4.2399339933993,1017897.109474,19966.993464777,3211158.7015686,9.4399339933993,0,0
-31.845353011828,68.289527366764,4.2443644364436,1017897.109474,19966.993464777,3211158.7015686,9.4443644364436,0,0
-31.84535298274,68.31108509922,4.2487948794879,1017897.109474,19966.993464777,3211158.7015686,9.4487948794879,0,0
-31.845352953651,68.332642831677,4.2532253225323,1017897.109474,19966.993464777,3211158.7015686,9.4532253225323,0,0
-31.845352924562,68.354200564134,4.2576557655766,1017897.109474,19966.993464777,3211158.7015686,9.4576557655766,0,0
-31.845352895473,68.375758296591,4.2620862086209,1017897.109474,19966.993464777,3211158.7015686,9.4620862086209,0,0
-31.845352866384,68.397316029048,4.2665166516652,1017897.109474,19966.993464777,3211158.7015686,9.4665166516652,0,0
-31.845352837295,68.418873761505,4.2709470947095,1017897.109474,19966.993464777,3211158.7015686,9.4709470947095,0,0
-31.845352808206,68.440431493962,4.2753775377538,1017897.109474,19966.993464777,3211158.7015686,9.4753775377538,0,0
-31.845352779117,68.461989226419,4.2798079807981,1017897.109474,19966.993464777,3211158.7015686,9.4798079807981,0,0
-31.845352750028,68.483546958876,4.2842384238424,1017897.109474,19966.993464777,3211158.7015686,9.4842384238424,0,0
-31.845352720939,68.505104691333,4.2886688668867,1017897.109474,19966.993464777,3211158.7015686,9.4886688668867,0,0
-31.84535269185,68.526662423789,4.293099309931,1017897.109474,19966.993464777,3211158.7015686,9.493099309931,0,0
-31.845352662761,68.548220156246,4.2975297529753,1017897.109474,19966.993464777,3211158.7015686,9.4975297529753,0,0
-31.845352633672,68.569777888703,4.3019601960196,1017897.109474,19966.993464777,3211158.7015686,9.5019601960196,0,0
-31.845352604583,68.59133562116,4.3063906390639,1017897.109474,19966.993464777,3211158.7015686,9.5063906390639,0,0
-31.845352575494,68.612893353617,4.3108210821082,1017897.109474,19966.993464777,3211158.7015686,9.5108210821082,0,0
-31.845352546405,68.634451086074,4.3152515251525,1017897.109474,19966.993464777,3211158.7015686,9.5152515251525,0,0
-31.845352517316,68.656008818531,4.3196819681968,1017897.109474,19966.993464777,3211158.7015686,9.5196819681968,0,0
-31.845352488227,68.677566550988,4.3241124112411,1017897.109474,19966.993464777,3211158.7015686,9.5241124112411,0,0
-31.845352459138,68.699124283445,4.3285428542854,1017897.109474,19966.993464777,3211158.7015686,9.5285428542854,0,0
-31.845352430049,68.720682015902,4.3329732973297,1017897.109474,19966.993464777,3211158.7015686,9.5329732973297,0,0
-31.84535240096,68.742239748359,4.337403740374,1017897.109474,19966.993464777,3211158.7015686,9.537403740374,0,0
-31.845352371871,68.763797480815,4.3418341834183,1017897.109474,19966.993464777,3211158.7015686,9.5418341834183,0,0
-31.845352342782,68.785355213272,4.3462646264626,1017897.109474,19966.993464777,3211158.7015686,9.5462646264626,0,0
-31.845352313693,68.806912945729,4.350695069507,1017897.109474,19966.993464777,3211158.7015686,9.550695069507,0,0
-31.845352284604,68.828470678186,4.3551255125513,1017897.109474,19966.993464777,3211158.7015686,9.5551255125513,0,0
-31.845352255515,68.850028410643,4.3595559555956,1017897.109474,19966.993464777,3211158.7015686,9.5595559555956,0,0
-31.845352226426,68.8715861431,4.3639863986399,1017897.109474,19966.993464777,3211158.7015686,9.5639863986399,0,0
-31.845352197337,68.893143875557,4.3684168416842,1017897.109474,19966.993464777,3211158.7015686,9.5684168416842,0,0
-31.845352168249,68.914701608014,4.3728472847285,1017897.109474,19966.993464777,3211158.7015686,9.5728472847285,0,0
-31.84535213916,68.936259340471,4.3772777277728,1017897.109474,19966.993464777,3211158.7015686,9.5772777277728,0,0
-31.845352110071,68.957817072928,4.3817081708171,1017897.109474,19966.993464777,3211158.7015686,9.5817081708171,0,0
-31.845352080982,68.979374805384,4.3861386138614,1017897.109474,19966.993464777,3211158.7015686,9.5861386138614,0,0
-31.845352051893,69.000932537841,4.3905690569057,1017897.109474,19966.993464777,3211158.7015686,9.5905690569057,0,0
-31.845352022804,69.022490270298,4.39499949995,1017897.109474,19966.993464777,3211158.7015686,9.59499949995,0,0
-31.845351993715,69.044048002755,4.3994299429943,1017897.109474,19966.993464777,3211158.7015686,9.5994299429943,0,0
-31.845351964626,69.065605735212,4.4038603860386,1017897.109474,19966.993464777,3211158.7015686,9.6038603860386,0,0
-31.845351935537,69.087163467669,4.4082908290829,1017897.109474,19966.993464777,3211158.7015686,9.6082908290829,0,0
-31.845351906448,69.108721200126,4.4127212721272,1017897.109474,19966.993464777,3211158.7015686,9.6127212721272,0,0
-31.845351877359,69.130278932583,4.4171517151715,1017897.109474,19966.993464777,3211158.7015686,9.6171517151715,0,0
-31.84535184827,69.15183666504,4.4215821582158,1017897.109474,19966.993464777,3211158.7015686,9.6215821582158,0,0
-31.845351819181,69.173394397497,4.4260126012601,1017897.109474,19966.993464777,3211158.7015686,9.6260126012601,0,0
-31.845351790092,69.194952129954,4.4304430443044,1017897.109474,19966.993464777,3211158.7015686,9.6304430443044,0,0
-31.845351761003,69.21650986241,4.4348734873487,1017897.109474,19966.993464777,3211158.7015686,9.6348734873487,0,0
-31.845351731914,69.238067594867,4.439303930393,1017897.109474,19966.993464777,3211158.7015686,9.639303930393,0,0
-31.845351702825,69.259625327324,4.4437343734373,1017897.109474,19966.993464777,3211158.7015686,9.6437343734373,0,0
-31.845351673736,69.281183059781,4.4481648164816,1017897.109474,19966.993464777,3211158.7015686,9.6481648164816,0,0
-31.845351644647,69.302740792238,4.452595259526,1017897.109474,19966.993464777,3211158.7015686,9.652595259526,0,0
-31.845351615558,69.324298524695,4.4570257025703,1017897.109474,19966.993464777,3211158.7015686,9.6570257025703,0,0
-31.845351586469,69.345856257152,4.4614561456146,1017897.109474,19966.993464777,3211158.7015686,9.6614561456146,0,0
-31.84535155738,69.367413989609,4.4658865886589,1017897.109474,19966.993464777,3211158.7015686,9.6658865886589,0,0
-31.845351528291,69.388971722066,4.4703170317032,1017897.109474,19966.993464777,3211158.7015686,9.6703170317032,0,0
-31.845351499202,69.410529454523,4.4747474747475,1017897.109474,19966.993464777,3211158.7015686,9.6747474747475,0,0
-31.845351470113,69.432087186979,4.4791779177918,1017897.109474,19966.993464777,3211158.7015686,9.6791779177918,0,0
-31.845351441024,69.453644919436,4.4836083608361,1017897.109474,19966.993464777,3211158.7015686,9.6836083608361,0,0
-31.845351411935,69.475202651893,4.4880388038804,1017897.109474,19966.993464777,3211158.7015686,9.6880388038804,0,0
-31.845351382846,69.49676038435,4.4924692469247,1017897.109474,19966.993464777,3211158.7015686,9.6924692469247,0,0
-31.845351353758,69.518318116807,4.496899689969,1017897.109474,19966.993464777,3211158.7015686,9.696899689969,0,0
-31.845351324669,69.539875849264,4.5013301330133,1017897.109474,19966.993464777,3211158.7015686,9.7013301330133,0,0
-31.84535129558,69.561433581721,4.5057605760576,1017897.109474,19966.993464777,3211158.7015686,9.7057605760576,0,0
-31.845351266491,69.582991314178,4.5101910191019,1017897.109474,19966.993464777,3211158.7015686,9.7101910191019,0,0
-31.845351237402,69.604549046635,4.5146214621462,1017897.109474,19966.993464777,3211158.7015686,9.7146214621462,0,0
-31.845351208313,69.626106779092,4.5190519051905,1017897.109474,19966.993464777,3211158.7015686,9.7190519051905,0,0
-31.845351179224,69.647664511548,4.5234823482348,1017897.109474,19966.993464777,3211158.7015686,9.7234823482348,0,0
-31.845351150135,69.669222244005,4.5279127912791,1017897.109474,19966.993464777,3211158.7015686,9.7279127912791,0,0
-31.845351121046,69.690779976462,4.5323432343234,1017897.109474,19966.993464777,3211158.7015686,9.7323432343234,0,0
-31.845351091957,69.712337708919,4.5367736773677,1017897.109474,19966.993464777,3211158.7015686,9.7367736773677,0,0
-31.845351062868,69.733895441376,4.541204120412,1017897.109474,19966.993464777,3211158.7015686,9.741204120412,0,0
-31.845351033779,69.755453173833,4.5456345634563,1017897.109474,19966.993464777,3211158.7015686,9.7456345634563,0,0
-31.84535100469,69.77701090629,4.5500650065006,1017897.109474,19966.993464777,3211158.7015686,9.7500650065007,0,0
-31.845350975601,69.798568638747,4.554495449545,1017897.109474,19966.993464777,3211158.7015686,9.754495449545,0,0
-31.845350946168,69.820126366732,4.5589258925893,1004201.1776954,-4758.4776166332,3153904.7199908,9.7589258925893,0,0
-31.845350916648,69.841684093599,4.5633563356336,1004201.1776954,-4758.4776166332,3153904.7199908,9.7633563356336,0,0
-31.845350887129,69.863241820465,4.5677867786779,1004201.1776954,-4758.4776166332,3153904.7199908,9.7677867786779,0,0
-31.84535085761,69.884799547331,4.5722172217222,1004201.1776954,-4758.4776166332,3153904.7199908,9.7722172217222,0,0
-31.84535082809,69.906357274198,4.5766476647665,1004201.1776954,-4758.4776166332,3153904.7199908,9.7766476647665,0,0
-31.845350798571,69.927915001064,4.5810781078108,1004201.1776954,-4758.4776166332,3153904.7199908,9.7810781078108,0,0
-31.845350769051,69.94947272793,4.5855085508551,1004201.1776954,-4758.4776166332,3153904.7199908,9.7855085508551,0,0
-31.845350739532,69.971030454797,4.5899389938994,1004201.1776954,-4758.4776166332,3153904.7199908,9.7899389938994,0,0
-31.845350710013,69.992588181663,4.5943694369437,1004201.1776954,-4758.4776166332,3153904.7199908,9.7943694369437,0,0
-31.845350680493,70.014145908529,4.598799879988,1004201.1776954,-4758.4776166332,3153904.7199908,9.798799879988,0,0
-31.845350650974,70.035703635395,4.6032303230323,1004201.1776954,-4758.4776166332,3153904.7199908,9.8032303230323,0,0
-31.845350621454,70.057261362262,4.6076607660766,1004201.1776954,-4758.4776166332,3153904.7199908,9.8076607660766,0,0
-31.845350591935,70.078819089128,4.6120912091209,1004201.1776954,-4758.4776166332,3153904.7199908,9.8120912091209,0,0
-31.845350562416,70.100376815994,4.6165216521652,1004201.1776954,-4758.4776166332,3153904.7199908,9.8165216521652,0,0
-31.845350532896,70.121934542861,4.6209520952095,1004201.1776954,-4758.4776166332,3153904.7199908,9.8209520952095,0,0
-31.845350503377,70.143492269727,4.6253825382538,1004201.1776954,-4758.4776166332,3153904.7199908,9.8253825382538,0,0
-31.845350473857,70.165049996593,4.6298129812981,1004201.1776954,-4758.4776166332,3153904.7199908,9.8298129812981,0,0
-31.845350444338,70.18660772346,4.6342434243424,1004201.1776954,-4758.4776166332,3153904.7199908,9.8342434243424,0,0
-31.845350414819,70.208165450326,4.6386738673867,1004201.1776954,-4758.4776166332,3153904.7199908,9.8386738673867,0,0
-31.845350385299,70.229723177192,4.643104310431,1004201.1776954,-4758.4776166332,3153904.7199908,9.843104310431,0,0
-31.84535035578,70.251280904058,4.6475347534753,1004201.1776954,-4758.4776166332,3153904.7199908,9.8475347534753,0,0
-31.845350326261,70.272838630925,4.6519651965197,1004201.1776954,-4758.4776166332,3153904.7199908,9.8519651965197,0,0
-31.845350296741,70.294396357791,4.656395639564,1004201.1776954,-4758.4776166332,3153904.7199908,9.856395639564,0,0
-31.845350266647,70.315954087632,4.6608260826083,1006528.2862479,18188.314247709,3121704.9743327,9.8608260826083,0,0
-31.845350236084,70.337511819895,4.6652565256526,1006528.2862479,18188.314247709,3121704.9743327,9.8652565256526,0,0
-31.845350205522,70.359069552158,4.6696869686969,1006528.2862479,18188.314247709,3121704.9743327,9.8696869686969,0,0
-31.845350174959,70.380627284421,4.6741174117412,1006528.2862479,18188.314247709,3121704.9743327,9.8741174117412,0,0
-31.845350144396,70.402185016685,4.6785478547855,1006528.2862479,18188.314247709,3121704.9743327,9.8785478547855,0,0
-31.845350113834,70.423742748948,4.6829782978298,1006528.2862479,18188.314247709,3121704.9743327,9.8829782978298,0,0
-31.845350083271,70.445300481211,4.6874087408741,1006528.2862479,18188.314247709,3121704.9743327,9.8874087408741,0,0
-31.845350052709,70.466858213474,4.6918391839184,1006528.2862479,18188.314247709,3121704.9743327,9.8918391839184,0,0
-31.845350022146,70.488415945737,4.6962696269627,1006528.2862479,18188.314247709,3121704.9743327,9.8962696269627,0,0
-31.845349991583,70.509973678,4.700700070007,1006528.2862479,18188.314247709,3121704.9743327,9.900700070007,0,0
-31.845349961021,70.531531410264,4.7051305130513,1006528.2862479,18188.314247709,3121704.9743327,9.9051305130513,0,0
-31.845349930458,70.553089142527,4.7095609560956,1006528.2862479,18188.314247709,3121704.9743327,9.9095609560956,0,0
-31.845349899896,70.57464687479,4.7139913991399,1006528.2862479,18188.314247709,3121704.9743327,9.9139913991399,0,0
-31.845349869333,70.596204607053,4.7184218421842,1006528.2862479,18188.314247709,3121704.9743327,9.9184218421842,0,0
-31.84534983877,70.617762339316,4.7228522852285,1006528.2862479,18188.314247709,3121704.9743327,9.9228522852285,0,0
-31.845349808208,70.639320071579,4.7272827282728,1006528.2862479,18188.314247709,3121704.9743327,9.9272827282728,0,0
-31.845349777645,70.660877803842,4.7317131713171,1006528.2862479,18188.314247709,3121704.9743327,9.9317131713171,0,0
-31.845349747083,70.682435536106,4.7361436143614,1006528.2862479,18188.314247709,3121704.9743327,9.9361436143614,0,0
-31.84534971652,70.703993268369,4.7405740574057,1006528.2862479,18188.314247709,3121704.9743327,9.9405740574057,0,0
-31.845349685957,70.725551000632,4.74500450045,1006528.2862479,18188.314247709,3121704.9743327,9.94500450045,0,0
-31.845349655395,70.747108732895,4.7494349434943,1006528.2862479,18188.314247709,3121704.9743327,9.9494349434943,0,0
-31.845349624832,70.768666465158,4.7538653865387,1006528.2862479,18188.314247709,3121704.9743327,9.9538653865387,0,0
-31.84534959427,70.790224197421,4.758295829583,1006528.2862479,18188.314247709,3121704.9743327,9.958295829583,0,0
-31.845349563707,70.811781929685,4.7627262726273,1006528.2862479,18188.314247709,3121704.9743327,9.9627262726273,0,0
-31.845349533144,70.833339661948,4.7671567156716,1006528.2862479,18188.314247709,3121704.9743327,9.9671567156716,0,0
-31.845349502582,70.854897394211,4.7715871587159,1006528.2862479,18188.314247709,3121704.9743327,9.9715871587159,0,0
-31.845349472019,70.876455126474,4.7760176017602,1006528.2862479,18188.314247709,3121704.9743327,9.9760176017602,0,0
-31.845349441457,70.898012858737,4.7804480448045,1006528.2862479,18188.314247709,3121704.9743327,9.9804480448045,0,0
-31.845349410894,70.919570591,4.7848784878488,1006528.2862479,18188.314247709,3121704.9743327,9.9848784878488,0,0
-31.845349380331,70.941128323264,4.7893089308931,1006528.2862479,18188.314247709,3121704.9743327,9.9893089308931,0,0
-31.845349349769,70.962686055527,4.7937393739374,1006528.2862479,18188.314247709,3121704.9743327,9.9937393739374,0,0
-31.845349319206,70.98424378779,4.7981698169817,1006528.2862479,18188.314247709,3121704.9743327,9.9981698169817,0,0
-31.845349288644,71.005801520053,4.802600260026,1006528.2862479,18188.314247709,3121704.9743327,10.002600260026,0,0
-31.845349258081,71.027359252316,4.8070307030703,1006528.2862479,18188.314247709,3121704.9743327,10.00703070307,0,0
-31.845349227518,71.048916984579,4.8114611461146,1006528.2862479,18188.314247709,3121704.9743327,10.011461146115,0,0
-31.845349196956,71.070474716842,4.8158915891589,1006528.2862479,18188.314247709,3121704.9743327,10.015891589159,0,0
-31.845349166393,71.092032449106,4.8203220322032,1006528.2862479,18188.314247709,3121704.9743327,10.020322032203,0,0
-31.845349135831,71.113590181369,4.8247524752475,1006528.2862479,18188.314247709,3121704.9743327,10.024752475248,0,0
-31.845349105268,71.135147913632,4.8291829182918,1006528.2862479,18188.314247709,3121704.9743327,10.029182918292,0,0
-31.845349074705,71.156705645895,4.8336133613361,1006528.2862479,18188.314247709,3121704.9743327,10.033613361336,0,0
-31.845349044143,71.178263378158,4.8380438043804,1006528.2862479,18188.314247709,3121704.9743327,10.03804380438,0,0
-31.84534901358,71.199821110421,4.8424742474247,1006528.2862479,18188.314247709,3121704.9743327,10.042474247425,0,0
-31.845348983018,71.221378842685,4.846904690469,1006528.2862479,18188.314247709,3121704.9743327,10.046904690469,0,0
-31.845348952455,71.242936574948,4.8513351335134,1006528.2862479,18188.314247709,3121704.9743327,10.051335133513,0,0
-31.845348921892,71.264494307211,4.8557655765577,1006528.2862479,18188.314247709,3121704.9743327,10.055765576558,0,0
-31.84534889133,71.286052039474,4.860196019602,1006528.2862479,18188.314247709,3121704.9743327,10.060196019602,0,0
-31.845348860767,71.307609771737,4.8646264626463,1006528.2862479,18188.314247709,3121704.9743327,10.064626462646,0,0
-31.845348830205,71.329167504,4.8690569056906,1006528.2862479,18188.314247709,3121704.9743327,10.069056905691,0,0
-31.845348799642,71.350725236264,4.8734873487349,1006528.2862479,18188.314247709,3121704.9743327,10.073487348735,0,0
-31.845348769079,71.372282968527,4.8779177917792,1006528.2862479,18188.314247709,3121704.9743327,10.077917791779,0,0
-31.845348738517,71.39384070079,4.8823482348235,1006528.2862479,18188.314247709,3121704.9743327,10.082348234823,0,0
-31.845348707954,71.415398433053,4.8867786778678,1006528.2862479,18188.314247709,3121704.9743327,10.086778677868,0,0
-31.845348677392,71.436956165316,4.8912091209121,1006528.2862479,18188.314247709,3121704.9743327,10.091209120912,0,0
-31.845348646829,71.458513897579,4.8956395639564,1006528.2862479,18188.314247709,3121704.9743327,10.095639563956,0,0
-31.845348616266,71.480071629842,4.9000700070007,1006528.2862479,18188.314247709,3121704.9743327,10.100070007001,0,0
-31.845348585704,71.501629362106,4.904500450045,1006528.2862479,18188.314247709,3121704.9743327,10.104500450045,0,0
-31.845348555141,71.523187094369,4.9089308930893,1006528.2862479,18188.314247709,3121704.9743327,10.108930893089,0,0
-31.845348524579,71.544744826632,4.9133613361336,1006528.2862479,18188.314247709,3121704.9743327,10.113361336134,0,0
-31.845348494016,71.566302558895,4.9177917791779,1006528.2862479,18188.314247709,3121704.9743327,10.117791779178,0,0
-31.845348463453,71.587860291158,4.9222222222222,1006528.2862479,18188.314247709,3121704.9743327,10.122222222222,0,0
-31.845348432891,71.609418023421,4.9266526652665,1006528.2862479,18188.314247709,3121704.9743327,10.126652665267,0,0
-31.845348402328,71.630975755685,4.9310831083108,1006528.2862479,18188.314247709,3121704.9743327,10.131083108311,0,0
-31.845348371766,71.652533487948,4.9355135513551,1006528.2862479,18188.314247709,3121704.9743327,10.135513551355,0,0
-31.845348341203,71.674091220211,4.9399439943994,1006528.2862479,18188.314247709,3121704.9743327,10.139943994399,0,0
-31.84534831064,71.695648952474,4.9443744374437,1006528.2862479,18188.314247709,3121704.9743327,10.144374437444,0,0
-31.845348280078,71.717206684737,4.948804880488,1006528.2862479,18188.314247709,3121704.9743327,10.148804880488,0,0
-31.845348249515,71.738764417,4.9532353235324,1006528.2862479,18188.314247709,3121704.9743327,10.153235323532,0,0
-31.845348218953,71.760322149264,4.9576657665767,1006528.2862479,18188.314247709,3121704.9743327,10.157665766577,0,0
-31.84534818839,71.781879881527,4.962096209621,1006528.2862479,18188.314247709,3121704.9743327,10.162096209621,0,0
-31.845348157827,71.80343761379,4.9665266526653,1006528.2862479,18188.314247709,3121704.9743327,10.166526652665,0,0
-31.845348127265,71.824995346053,4.9709570957096,1006528.2862479,18188.314247709,3121704.9743327,10.17095709571,0,0
-31.845348096702,71.846553078316,4.9753875387539,1006528.2862479,18188.314247709,3121704.9743327,10.175387538754,0,0
-31.84534806614,71.868110810579,4.9798179817982,1006528.2862479,18188.314247709,3121704.9743327,10.179817981798,0,0
-31.845348035577,71.889668542842,4.9842484248425,1006528.2862479,18188.314247709,3121704.9743327,10.184248424842,0,0
-31.845348005014,71.911226275106,4.9886788678868,1006528.2862479,18188.314247709,3121704.9743327,10.188678867887,0,0
-31.845347974452,71.932784007369,4.9931093109311,1006528.2862479,18188.314247709,3121704.9743327,10.193109310931,0,0
-31.845347946235,71.954341736255,4.9975397539754,963955.97755304,-3882.9763366267,3087145.5637873,10.197539753975,0,0
-31.845347918153,71.975899464947,5.0019701970197,963955.97755304,-3882.9763366267,3087145.5637873,10.20197019702,0,0
-31.84534789007,71.997457193639,5.006400640064,963955.97755304,-3882.9763366267,3087145.5637873,10.206400640064,0,0
-31.845347861988,72.019014922331,5.0108310831083,963955.97755304,-3882.9763366267,3087145.5637873,10.210831083108,0,0
-31.845347833906,72.040572651022,5.0152615261526,963955.97755304,-3882.9763366267,3087145.5637873,10.215261526153,0,0
-31.845347805823,72.062130379714,5.0196919691969,963955.97755304,-3882.9763366267,3087145.5637873,10.219691969197,0,0
-31.845347777741,72.083688108406,5.0241224122412,963955.97755304,-3882.9763366267,3087145.5637873,10.224122412241,0,0
-31.845347749659,72.105245837098,5.0285528552855,963955.97755304,-3882.9763366267,3087145.5637873,10.228552855286,0,0
-31.845347721577,72.12680356579,5.0329832983298,963955.97755304,-3882.9763366267,3087145.5637873,10.23298329833,0,0
-31.845347693494,72.148361294482,5.0374137413741,963955.97755304,-3882.9763366267,3087145.5637873,10.237413741374,0,0
-31.845347665412,72.169919023174,5.0418441844184,963955.97755304,-3882.9763366267,3087145.5637873,10.241844184418,0,0
-31.84534763733,72.191476751866,5.0462746274627,963955.97755304,-3882.9763366267,3087145.5637873,10.246274627463,0,0
-31.845347609248,72.213034480558,5.050705070507,963955.97755304,-3882.9763366267,3087145.5637873,10.250705070507,0,0
-31.845347581165,72.234592209249,5.0551355135514,963955.97755304,-3882.9763366267,3087145.5637873,10.255135513551,0,0
-31.845347553083,72.256149937941,5.0595659565957,963955.97755304,-3882.9763366267,3087145.5637873,10.259565956596,0,0
-31.845347525001,72.277707666633,5.06399639964,963955.97755304,-3882.9763366267,3087145.5637873,10.26399639964,0,0
-31.845347496919,72.299265395325,5.0684268426843,963955.97755304,-3882.9763366267,3087145.5637873,10.268426842684,0,0
-31.845347468836,72.320823124017,5.0728572857286,963955.97755304,-3882.9763366267,3087145.5637873,10.272857285729,0,0
-31.845347440754,72.342380852709,5.0772877287729,963955.97755304,-3882.9763366267,3087145.5637873,10.277287728773,0,0
-31.845347412672,72.363938581401,5.0817181718172,963955.97755304,-3882.9763366267,3087145.5637873,10.281718171817,0,0
-31.84534738459,72.385496310093,5.0861486148615,963955.97755304,-3882.9763366267,3087145.5637873,10.286148614861,0,0
-31.845347356507,72.407054038785,5.0905790579058,963955.97755304,-3882.9763366267,3087145.5637873,10.290579057906,0,0
-31.845347328425,72.428611767477,5.0950095009501,963955.97755304,-3882.9763366267,3087145.5637873,10.29500950095,0,0
-31.845347300343,72.450169496168,5.0994399439944,963955.97755304,-3882.9763366267,3087145.5637873,10.299439943994,0,0
-31.845347272261,72.47172722486,5.1038703870387,963955.97755304,-3882.9763366267,3087145.5637873,10.303870387039,0,0
-31.845347244178,72.493284953552,5.108300830083,963955.97755304,-3882.9763366267,3087145.5637873,10.308300830083,0,0
-31.845347216096,72.514842682244,5.1127312731273,963955.97755304,-3882.9763366267,3087145.5637873,10.312731273127,0,0
-31.845347188014,72.536400410936,5.1171617161716,963955.97755304,-3882.9763366267,3087145.5637873,10.317161716172,0,0
-31.845347159932,72.557958139628,5.1215921592159,963955.97755304,-3882.9763366267,3087145.5637873,10.321592159216,0,0
-31.845347131849,72.57951586832,5.1260226022602,963955.97755304,-3882.9763366267,3087145.5637873,10.32602260226,0,0
-31.845347103767,72.601073597012,5.1304530453045,963955.97755304,-3882.9763366267,3087145.5637873,10.330453045305,0,0
-31.845347075685,72.622631325704,5.1348834883488,963955.97755304,-3882.9763366267,3087145.5637873,10.334883488349,0,0
-31.845347047603,72.644189054396,5.1393139313931,963955.97755304,-3882.9763366267,3087145.5637873,10.339313931393,0,0
-31.84534701952,72.665746783087,5.1437443744374,963955.97755304,-3882.9763366267,3087145.5637873,10.343744374437,0,0
-31.845346991438,72.687304511779,5.1481748174817,963955.97755304,-3882.9763366267,3087145.5637873,10.348174817482,0,0
-31.845346963356,72.708862240471,5.1526052605261,963955.97755304,-3882.9763366267,3087145.5637873,10.352605260526,0,0
-31.845346935274,72.730419969163,5.1570357035704,963955.97755304,-3882.9763366267,3087145.5637873,10.35703570357,0,0
-31.845346907191,72.751977697855,5.1614661466147,963955.97755304,-3882.9763366267,3087145.5637873,10.361466146615,0,0
-31.845346879109,72.773535426547,5.165896589659,963955.97755304,-3882.9763366267,3087145.5637873,10.365896589659,0,0
-31.845346851027,72.795093155239,5.1703270327033,963955.97755304,-3882.9763366267,3087145.5637873,10.370327032703,0,0
-31.845346822945,72.816650883931,5.1747574757476,963955.97755304,-3882.9763366267,3087145.5637873,10.374757475748,0,0
-31.845346794862,72.838208612623,5.1791879187919,963955.97755304,-3882.9763366267,3087145.5637873,10.379187918792,0,0
-31.84534676678,72.859766341315,5.1836183618362,963955.97755304,-3882.9763366267,3087145.5637873,10.383618361836,0,0
-31.845346738698,72.881324070006,5.1880488048805,963955.97755304,-3882.9763366267,3087145.5637873,10.38804880488,0,0
-31.845346710616,72.902881798698,5.1924792479248,963955.97755304,-3882.9763366267,3087145.5637873,10.392479247925,0,0
-31.845346682533,72.92443952739,5.1969096909691,963955.97755304,-3882.9763366267,3087145.5637873,10.396909690969,0,0
-31.845346654451,72.945997256082,5.2013401340134,963955.97755304,-3882.9763366267,3087145.5637873,10.401340134013,0,0
-31.845346626369,72.967554984774,5.2057705770577,963955.97755304,-3882.9763366267,3087145.5637873,10.405770577058,0,0
-31.845346598286,72.989112713466,5.210201020102,963955.97755304,-3882.9763366267,3087145.5637873,10.410201020102,0,0
-31.845346570204,73.010670442158,5.2146314631463,963955.97755304,-3882.9763366267,3087145.5637873,10.414631463146,0,0
-31.845346542122,73.03222817085,5.2190619061906,963955.97755304,-3882.9763366267,3087145.5637873,10.419061906191,0,0
-31.84534651404,73.053785899542,5.2234923492349,963955.97755304,-3882.9763366267,3087145.5637873,10.423492349235,0,0
-31.845346485957,73.075343628234,5.2279227922792,963955.97755304,-3882.9763366267,3087145.5637873,10.427922792279,0,0
-31.845346457875,73.096901356925,5.2323532353235,963955.97755304,-3882.9763366267,3087145.5637873,10.432353235324,0,0
-31.845346429793,73.118459085617,5.2367836783678,963955.97755304,-3882.9763366267,3087145.5637873,10.436783678368,0,0
-31.845346399654,73.140016816162,5.2412141214121,993917.01512786,-11960.266665483,3040901.6140334,10.441214121412,0,0
-31.845346367947,73.161574548119,5.2456445644564,993917.01512786,-11960.266665483,3040901.6140334,10.445644564456,0,0
-31.84534633624,73.183132280076,5.2500750075008,993917.01512786,-11960.266665483,3040901.6140334,10.450075007501,0,0
-31.845346304534,73.204690012034,5.2545054505451,993917.01512786,-11960.266665483,3040901.6140334,10.454505450545,0,0
-31.845346272827,73.226247743991,5.2589358935894,993917.01512786,-11960.266665483,3040901.6140334,10.458935893589,0,0
-31.84534624112,73.247805475948,5.2633663366337,993917.01512786,-11960.266665483,3040901.6140334,10.463366336634,0,0
-31.845346209414,73.269363207905,5.267796779678,993917.01512786,-11960.266665483,3040901.6140334,10.467796779678,0,0
-31.845346177707,73.290920939862,5.2722272227223,993917.01512786,-11960.266665483,3040901.6140334,10.472227222722,0,0
-31.845346146,73.312478671819,5.2766576657666,993917.01512786,-11960.266665483,3040901.6140334,10.476657665767,0,0
-31.845346114294,73.334036403776,5.2810881088109,993917.01512786,-11960.266665483,3040901.6140334,10.481088108811,0,0
-31.845346082587,73.355594135733,5.2855185518552,993917.01512786,-11960.266665483,3040901.6140334,10.485518551855,0,0
-31.84534605088,73.37715186769,5.2899489948995,993917.01512786,-11960.266665483,3040901.6140334,10.489948994899,0,0
-31.845346019174,73.398709599647,5.2943794379438,993917.01512786,-11960.266665483,3040901.6140334,10.494379437944,0,0
-31.845345987467,73.420267331604,5.2988098809881,993917.01512786,-11960.266665483,3040901.6140334,10.498809880988,0,0
-31.84534595576,73.441825063561,5.3032403240324,993917.01512786,-11960.266665483,3040901.6140334,10.503240324032,0,0
-31.845345924054,73.463382795518,5.3076707670767,993917.01512786,-11960.266665483,3040901.6140334,10.507670767077,0,0
-31.845345892347,73.484940527476,5.312101210121,993917.01512786,-11960.266665483,3040901.6140334,10.512101210121,0,0
-31.84534586064,73.506498259433,5.3165316531653,993917.01512786,-11960.266665483,3040901.6140334,10.516531653165,0,0
-31.845345828934,73.52805599139,5.3209620962096,993917.01512786,-11960.266665483,3040901.6140334,10.52096209621,0,0
-31.845345797227,73.549613723347,5.3253925392539,993917.01512786,-11960.266665483,3040901.6140334,10.525392539254,0,0
-31.84534576552,73.571171455304,5.3298229822982,993917.01512786,-11960.266665483,3040901.6140334,10.529822982298,0,0
-31.845345733814,73.592729187261,5.3342534253425,993917.01512786,-11960.266665483,3040901.6140334,10.534253425343,0,0
-31.845345702107,73.614286919218,5.3386838683868,993917.01512786,-11960.266665483,3040901.6140334,10.538683868387,0,0
-31.8453456704,73.635844651175,5.3431143114311,993917.01512786,-11960.266665483,3040901.6140334,10.543114311431,0,0
-31.845345638694,73.657402383132,5.3475447544754,993917.01512786,-11960.266665483,3040901.6140334,10.547544754475,0,0
-31.845345606987,73.678960115089,5.3519751975198,993917.01512786,-11960.266665483,3040901.6140334,10.55197519752,0,0
-31.84534557528,73.700517847046,5.3564056405641,993917.01512786,-11960.266665483,3040901.6140334,10.556405640564,0,0
-31.845345543573,73.722075579003,5.3608360836084,993917.01512786,-11960.266665483,3040901.6140334,10.560836083608,0,0
-31.845345511867,73.74363331096,5.3652665266527,993917.01512786,-11960.266665483,3040901.6140334,10.565266526653,0,0
-31.84534548016,73.765191042918,5.369696969697,993917.01512786,-11960.266665483,3040901.6140334,10.569696969697,0,0
-31.845345448453,73.786748774875,5.3741274127413,993917.01512786,-11960.266665483,3040901.6140334,10.574127412741,0,0
-31.845345416747,73.808306506832,5.3785578557856,993917.01512786,-11960.266665483,3040901.6140334,10.578557855786,0,0
-31.84534538504,73.829864238789,5.3829882988299,993917.01512786,-11960.266665483,3040901.6140334,10.58298829883,0,0
-31.845345353333,73.851421970746,5.3874187418742,993917.01512786,-11960.266665483,3040901.6140334,10.587418741874,0,0
-31.845345321627,73.872979702703,5.3918491849185,993917.01512786,-11960.266665483,3040901.6140334,10.591849184918,0,0
-31.84534528992,73.89453743466,5.3962796279628,993917.01512786,-11960.266665483,3040901.6140334,10.596279627963,0,0
-31.845345258213,73.916095166617,5.4007100710071,993917.01512786,-11960.266665483,3040901.6140334,10.600710071007,0,0
-31.845345226507,73.937652898574,5.4051405140514,993917.01512786,-11960.266665483,3040901.6140334,10.605140514051,0,0
-31.8453451948,73.959210630531,5.4095709570957,993917.01512786,-11960.266665483,3040901.6140334,10.609570957096,0,0
-31.845345163093,73.980768362488,5.41400140014,993917.01512786,-11960.266665483,3040901.6140334,10.61400140014,0,0
-31.845345131387,74.002326094445,5.4184318431843,993917.01512786,-11960.266665483,3040901.6140334,10.618431843184,0,0
-31.84534509968,74.023883826402,5.4228622862286,993917.01512786,-11960.266665483,3040901.6140334,10.622862286229,0,0
-31.845345067973,74.045441558359,5.4272927292729,993917.01512786,-11960.266665483,3040901.6140334,10.627292729273,0,0
-31.845345036267,74.066999290317,5.4317231723172,993917.01512786,-11960.266665483,3040901.6140334,10.631723172317,0,0
-31.84534500456,74.088557022274,5.4361536153615,993917.01512786,-11960.266665483,3040901.6140334,10.636153615362,0,0
-31.845344972853,74.110114754231,5.4405840584058,993917.01512786,-11960.266665483,3040901.6140334,10.640584058406,0,0
-31.845344941147,74.131672486188,5.4450145014501,993917.01512786,-11960.266665483,3040901.6140334,10.64501450145,0,0
-31.84534490944,74.153230218145,5.4494449444944,993917.01512786,-11960.266665483,3040901.6140334,10.649444944494,0,0
-31.845344877733,74.174787950102,5.4538753875388,993917.01512786,-11960.266665483,3040901.6140334,10.653875387539,0,0
-31.845344846027,74.196345682059,5.4583058305831,993917.01512786,-11960.266665483,3040901.6140334,10.658305830583,0,0
-31.84534481432,74.217903414016,5.4627362736274,993917.01512786,-11960.266665483,3040901.6140334,10.662736273627,0,0
-31.845344782613,74.239461145973,5.4671667166717,993917.01512786,-11960.266665483,3040901.6140334,10.667166716672,0,0
-31.845344753242,74.261018879279,5.471597159716,943578.2664491,-445.01076217791,3020960.4101879,10.671597159716,0,0
-31.845344725025,74.282576613252,5.4760276027603,943578.2664491,-445.01076217791,3020960.4101879,10.67602760276,0,0
-31.845344696809,74.304134347224,5.4804580458046,943578.2664491,-445.01076217791,3020960.4101879,10.680458045805,0,0
-31.845344668592,74.325692081197,5.4848884888489,943578.2664491,-445.01076217791,3020960.4101879,10.684888488849,0,0
-31.845344640375,74.347249815169,5.4893189318932,943578.2664491,-445.01076217791,3020960.4101879,10.689318931893,0,0
-31.845344612158,74.368807549142,5.4937493749375,943578.2664491,-445.01076217791,3020960.4101879,10.693749374937,0,0
-31.845344583942,74.390365283115,5.4981798179818,943578.2664491,-445.01076217791,3020960.4101879,10.698179817982,0,0
-31.845344555725,74.411923017087,5.5026102610261,943578.2664491,-445.01076217791,3020960.4101879,10.702610261026,0,0
-31.845344527508,74.43348075106,5.5070407040704,943578.2664491,-445.01076217791,3020960.4101879,10.70704070407,0,0
-31.845344499291,74.455038485032,5.5114711471147,943578.2664491,-445.01076217791,3020960.4101879,10.711471147115,0,0
-31.845344471075,74.476596219005,5.515901590159,943578.2664491,-445.01076217791,3020960.4101879,10.715901590159,0,0
-31.845344442858,74.498153952977,5.5203320332033,943578.2664491,-445.01076217791,3020960.4101879,10.720332033203,0,0
-31.845344414641,74.51971168695,5.5247624762476,943578.2664491,-445.01076217791,3020960.4101879,10.724762476248,0,0
-31.845344386424,74.541269420923,5.5291929192919,943578.2664491,-445.01076217791,3020960.4101879,10.729192919292,0,0
-31.845344358207,74.562827154895,5.5336233623362,943578.2664491,-445.01076217791,3020960.4101879,10.733623362336,0,0
-31.845344329991,74.584384888868,5.5380538053805,943578.2664491,-445.01076217791,3020960.4101879,10.738053805381,0,0
-31.845344301774,74.60594262284,5.5424842484248,943578.26644909,-445.01076217791,3020960.4101879,10.742484248425,0,0
-31.845344273557,74.627500356813,5.5469146914691,943578.26644909,-445.01076217791,3020960.4101879,10.746914691469,0,0
-31.84534424534,74.649058090785,5.5513451345134,943578.26644909,-445.01076217791,3020960.4101879,10.751345134513,0,0
-31.845344217124,74.670615824758,5.5557755775578,943578.26644909,-445.01076217791,3020960.4101879,10.755775577558,0,0
-31.845344188907,74.69217355873,5.5602060206021,943578.26644909,-445.01076217791,3020960.4101879,10.760206020602,0,0
-31.84534416069,74.713731292703,5.5646364636464,943578.26644909,-445.01076217791,3020960.4101879,10.764636463646,0,0
-31.845344132473,74.735289026676,5.5690669066907,943578.26644909,-445.01076217791,3020960.4101879,10.769066906691,0,0
-31.845344104257,74.756846760648,5.573497349735,943578.26644909,-445.01076217791,3020960.4101879,10.773497349735,0,0
-31.84534407604,74.778404494621,5.5779277927793,943578.26644909,-445.01076217791,3020960.4101879,10.777927792779,0,0
-31.845344047823,74.799962228593,5.5823582358236,943578.26644909,-445.01076217791,3020960.4101879,10.782358235824,0,0
-31.845344019606,74.821519962566,5.5867886788679,943578.26644909,-445.01076217791,3020960.4101879,10.786788678868,0,0
-31.84534399139,74.843077696538,5.5912191219122,943578.26644909,-445.01076217791,3020960.4101879,10.791219121912,0,0
-31.845343963173,74.864635430511,5.5956495649565,943578.26644909,-445.01076217791,3020960.4101879,10.795649564956,0,0
-31.845343934956,74.886193164484,5.6000800080008,943578.26644909,-445.01076217791,3020960.4101879,10.800080008001,0,0
-31.845343906739,74.907750898456,5.6045104510451,943578.26644909,-445.01076217791,3020960.4101879,10.804510451045,0,0
-31.845343878522,74.929308632429,5.6089408940894,943578.26644909,-445.01076217791,3020960.4101879,10.808940894089,0,0
-31.845343850306,74.950866366401,5.6133713371337,943578.26644909,-445.01076217791,3020960.4101879,10.813371337134,0,0
-31.845343822089,74.972424100374,5.617801780178,943578.26644909,-445.01076217791,3020960.4101879,10.817801780178,0,0
-31.845343793872,74.993981834346,5.6222322232223,943578.26644909,-445.01076217791,3020960.4101879,10.822232223222,0,0
-31.845343765655,75.015539568319,5.6266626662666,943578.26644909,-445.01076217791,3020960.4101879,10.826662666267,0,0
-31.845343737439,75.037097302292,5.6310931093109,943578.26644909,-445.01076217791,3020960.4101879,10.831093109311,0,0
-31.845343709222,75.058655036264,5.6355235523552,943578.26644909,-445.01076217791,3020960.4101879,10.835523552355,0,0
-31.845343681005,75.080212770237,5.6399539953995,943578.26644909,-445.01076217791,3020960.4101879,10.8399539954,0,0
-31.845343651699,75.101770502465,5.6443844384438,965407.4178934,-10539.075428255,2982880.432105,10.844384438444,0,0
-31.845343620724,75.123328232024,5.6488148814881,965407.4178934,-10539.075428255,2982880.432105,10.848814881488,0,0
-31.84534358975,75.144885961583,5.6532453245325,965407.4178934,-10539.075428255,2982880.432105,10.853245324532,0,0
-31.845343558776,75.166443691142,5.6576757675768,965407.4178934,-10539.075428255,2982880.432105,10.857675767577,0,0
-31.845343527802,75.188001420701,5.6621062106211,965407.4178934,-10539.075428255,2982880.432105,10.862106210621,0,0
-31.845343496827,75.20955915026,5.6665366536654,965407.4178934,-10539.075428255,2982880.432105,10.866536653665,0,0
-31.845343465853,75.231116879819,5.6709670967097,965407.4178934,-10539.075428255,2982880.432105,10.87096709671,0,0
-31.845343434879,75.252674609378,5.675397539754,965407.4178934,-10539.075428255,2982880.432105,10.875397539754,0,0
-31.845343403905,75.274232338937,5.6798279827983,965407.4178934,-10539.075428255,2982880.432105,10.879827982798,0,0
-31.84534337293,75.295790068497,5.6842584258426,965407.4178934,-10539.075428255,2982880.432105,10.884258425843,0,0
-31.845343341956,75.317347798056,5.6886888688869,965407.4178934,-10539.075428255,2982880.432105,10.888688868887,0,0
-31.845343310982,75.338905527615,5.6931193119312,965407.4178934,-10539.075428255,2982880.432105,10.893119311931,0,0
-31.845343280007,75.360463257174,5.6975497549755,965407.4178934,-10539.075428255,2982880.432105,10.897549754975,0,0
-31.845343249033,75.382020986733,5.7019801980198,965407.4178934,-10539.075428255,2982880.432105,10.90198019802,0,0
-31.845343218059,75.403578716292,5.7064106410641,965407.4178934,-10539.075428255,2982880.432105,10.906410641064,0,0
-31.845343187085,75.425136445851,5.7108410841084,965407.4178934,-10539.075428255,2982880.432105,10.910841084108,0,0
-31.84534315611,75.44669417541,5.7152715271527,965407.4178934,-10539.075428255,2982880.432105,10.915271527153,0,0
-31.845343125136,75.468251904969,5.719701970197,965407.4178934,-10539.075428255,2982880.432105,10.919701970197,0,0
-31.845343094162,75.489809634528,5.7241324132413,965407.4178934,-10539.075428255,2982880.432105,10.924132413241,0,0
-31.845343063187,75.511367364087,5.7285628562856,965407.4178934,-10539.075428255,2982880.432105,10.928562856286,0,0
-31.845343032213,75.532925093646,5.7329932993299,965407.4178934,-10539.075428255,2982880.432105,10.93299329933,0,0
-31.845343001239,75.554482823205,5.7374237423742,965407.4178934,-10539.075428255,2982880.432105,10.937423742374,0,0
-31.845342970265,75.576040552764,5.7418541854185,965407.4178934,-10539.075428255,2982880.432105,10.941854185419,0,0
-31.84534293929,75.597598282323,5.7462846284628,965407.4178934,-10539.075428255,2982880.432105,10.946284628463,0,0
-31.845342908316,75.619156011882,5.7507150715072,965407.4178934,-10539.075428255,2982880.432105,10.950715071507,0,0
-31.845342877342,75.640713741441,5.7551455145515,965407.4178934,-10539.075428255,2982880.432105,10.955145514551,0,0
-31.845342846368,75.662271471,5.7595759575958,965407.4178934,-10539.075428255,2982880.432105,10.959575957596,0,0
-31.845342815393,75.683829200559,5.7640064006401,965407.4178934,-10539.075428255,2982880.432105,10.96400640064,0,0
-31.845342784419,75.705386930118,5.7684368436844,965407.4178934,-10539.075428255,2982880.432105,10.968436843684,0,0
-31.845342753445,75.726944659677,5.7728672867287,965407.4178934,-10539.075428255,2982880.432105,10.972867286729,0,0
-31.84534272247,75.748502389236,5.777297729773,965407.4178934,-10539.075428255,2982880.432105,10.977297729773,0,0
-31.845342691496,75.770060118795,5.7817281728173,965407.4178934,-10539.075428255,2982880.432105,10.981728172817,0,0
-31.845342660522,75.791617848354,5.7861586158616,965407.4178934,-10539.075428255,2982880.432105,10.986158615862,0,0
-31.845342629548,75.813175577913,5.7905890589059,965407.4178934,-10539.075428255,2982880.432105,10.990589058906,0,0
-31.845342598573,75.834733307472,5.7950195019502,965407.4178934,-10539.075428255,2982880.432105,10.99501950195,0,0
-31.845342567599,75.856291037031,5.7994499449945,965407.4178934,-10539.075428255,2982880.432105,10.999449944994,0,0
-31.845342536625,75.87784876659,5.8038803880388,965407.4178934,-10539.075428255,2982880.432105,11.003880388039,0,0
-31.84534250565,75.899406496149,5.8083108310831,965407.4178934,-10539.075428255,2982880.432105,11.008310831083,0,0
-31.845342474676,75.920964225708,5.8127412741274,965407.4178934,-10539.075428255,2982880.432105,11.012741274127,0,0
-31.845342443702,75.942521955267,5.8171717171717,965407.4178934,-10539.075428255,2982880.432105,11.017171717172,0,0
-31.845342412728,75.964079684826,5.821602160216,965407.4178934,-10539.075428255,2982880.432105,11.021602160216,0,0
-31.845342381753,75.985637414385,5.8260326032603,965407.4178934,-10539.075428255,2982880.432105,11.02603260326,0,0
-31.845342350779,76.007195143944,5.8304630463046,965407.4178934,-10539.075428255,2982880.432105,11.030463046305,0,0
-31.845342319805,76.028752873503,5.8348934893489,965407.4178934,-10539.075428255,2982880.432105,11.034893489349,0,0
-31.845342288831,76.050310603062,5.8393239323932,965407.4178934,-10539.075428255,2982880.432105,11.039323932393,0,0
-31.845342257856,76.071868332621,5.8437543754375,965407.4178934,-10539.075428255,2982880.432105,11.043754375438,0,0
-31.845342226882,76.09342606218,5.8481848184818,965407.4178934,-10539.075428255,2982880.432105,11.048184818482,0,0
-31.845342195908,76.114983791739,5.8526152615262,965407.4178934,-10539.075428255,2982880.432105,11.052615261526,0,0
-31.845342164933,76.136541521298,5.8570457045705,965407.4178934,-10539.075428255,2982880.432105,11.05704570457,0,0
-31.845342133959,76.158099250857,5.8614761476148,965407.4178934,-10539.075428255,2982880.432105,11.061476147615,0,0
-31.845342102985,76.179656980416,5.8659065906591,965407.4178934,-10539.075428255,2982880.432105,11.065906590659,0,0
-31.845342072011,76.201214709975,5.8703370337034,965407.4178934,-10539.075428255,2982880.432105,11.070337033703,0,0
-31.845342041036,76.222772439534,5.8747674767477,965407.4178934,-10539.075428255,2982880.432105,11.074767476748,0,0
-31.845342010062,76.244330169093,5.879197919792,965407.4178934,-10539.075428255,2982880.432105,11.079197919792,0,0
-31.845341979088,76.265887898652,5.8836283628363,965407.4178934,-10539.075428255,2982880.432105,11.083628362836,0,0
-31.845341948113,76.287445628211,5.8880588058806,965407.4178934,-10539.075428255,2982880.432105,11.088058805881,0,0
-31.845341917139,76.30900335777,5.8924892489249,965407.4178934,-10539.075428255,2982880.432105,11.092489248925,0,0
-31.845341886165,76.330561087329,5.8969196919692,965407.4178934,-10539.075428255,2982880.432105,11.096919691969,0,0
-31.845341855191,76.352118816888,5.9013501350135,965407.4178934,-10539.075428255,2982880.432105,11.101350135014,0,0
-31.845341824216,76.373676546447,5.9057805780578,965407.4178934,-10539.075428255,2982880.432105,11.105780578058,0,0
-31.845341793242,76.395234276006,5.9102110211021,965407.4178934,-10539.075428255,2982880.432105,11.110211021102,0,0
-31.845341762268,76.416792005565,5.9146414641464,965407.4178934,-10539.075428255,2982880.432105,11.114641464146,0,0
-31.845341731294,76.438349735124,5.9190719071907,965407.4178934,-10539.075428255,2982880.432105,11.119071907191,0,0
-31.845341700319,76.459907464683,5.923502350235,965407.4178934,-10539.075428255,2982880.432105,11.123502350235,0,0
-31.845341669345,76.481465194242,5.9279327932793,965407.4178934,-10539.075428255,2982880.432105,11.127932793279,0,0
-31.845341638371,76.503022923801,5.9323632363236,965407.4178934,-10539.075428255,2982880.432105,11.132363236324,0,0
-31.845341607396,76.52458065336,5.9367936793679,965407.4178934,-10539.075428255,2982880.432105,11.136793679368,0,0
-31.845341576422,76.546138382919,5.9412241224122,965407.4178934,-10539.075428255,2982880.432105,11.141224122412,0,0
-31.845341545448,76.567696112478,5.9456545654565,965407.4178934,-10539.075428255,2982880.432105,11.145654565457,0,0
-31.845341514474,76.589253842037,5.9500850085008,965407.4178934,-10539.075428255,2982880.432105,11.150085008501,0,0
-31.845341483499,76.610811571596,5.9545154515452,965407.4178934,-10539.075428255,2982880.432105,11.154515451545,0,0
-31.845341452525,76.632369301155,5.9589458945895,965407.4178934,-10539.075428255,2982880.432105,11.158945894589,0,0
-31.845341421551,76.653927030714,5.9633763376338,965407.4178934,-10539.075428255,2982880.432105,11.163376337634,0,0
-31.845341390577,76.675484760273,5.9678067806781,965407.4178934,-10539.075428255,2982880.432105,11.167806780678,0,0
-31.845341359602,76.697042489832,5.9722372237224,965407.4178934,-10539.075428255,2982880.432105,11.172237223722,0,0
-31.845341328628,76.718600219391,5.9766676667667,965407.4178934,-10539.075428255,2982880.432105,11.176667666767,0,0
-31.845341297654,76.74015794895,5.981098109811,965407.4178934,-10539.075428255,2982880.432105,11.181098109811,0,0
-31.845341266679,76.761715678509,5.9855285528553,965407.4178934,-10539.075428255,2982880.432105,11.185528552855,0,0
-31.845341235705,76.783273408068,5.9899589958996,965407.4178934,-10539.075428255,2982880.432105,11.1899589959,0,0
-31.845341204731,76.804831137627,5.9943894389439,965407.4178934,-10539.075428255,2982880.432105,11.194389438944,0,0
-31.845341173757,76.826388867186,5.9988198819882,965407.4178934,-10539.075428255,2982880.432105,11.198819881988,0,0
-31.845341142782,76.847946596745,6.0032503250325,965407.4178934,-10539.075428255,2982880.432105,11.203250325033,0,0
-31.845341111808,76.869504326304,6.0076807680768,965407.4178934,-10539.075428255,2982880.432105,11.207680768077,0,0
-31.845341080834,76.891062055863,6.0121112111211,965407.4178934,-10539.075428255,2982880.432105,11.212111211121,0,0
-31.845341049859,76.912619785422,6.0165416541654,965407.4178934,-10539.075428255,2982880.432105,11.216541654165,0,0
-31.845341018885,76.934177514981,6.0209720972097,965407.4178934,-10539.075428255,2982880.432105,11.22097209721,0,0
-31.845340987911,76.95573524454,6.025402540254,965407.4178934,-10539.075428255,2982880.432105,11.225402540254,0,0
-31.845340956937,76.977292974099,6.0298329832983,965407.4178934,-10539.075428255,2982880.432105,11.229832983298,0,0
-31.845340925962,76.998850703658,6.0342634263426,965407.4178934,-10539.075428255,2982880.432105,11.234263426343,0,0
-31.845340894988,77.020408433217,6.0386938693869,965407.4178934,-10539.075428255,2982880.432105,11.238693869387,0,0
-31.845340864014,77.041966162776,6.0431243124312,965407.4178934,-10539.075428255,2982880.432105,11.243124312431,0,0
-31.84534083304,77.063523892335,6.0475547554755,965407.4178934,-10539.075428255,2982880.432105,11.247554755476,0,0
-31.845340802065,77.085081621894,6.0519851985199,965407.4178934,-10539.075428255,2982880.432105,11.25198519852,0,0
-31.845340771091,77.106639351453,6.0564156415642,965407.4178934,-10539.075428255,2982880.432105,11.256415641564,0,0
-31.845340740117,77.128197081012,6.0608460846085,965407.4178934,-10539.075428255,2982880.432105,11.260846084608,0,0
-31.845340709931,77.14975481151,6.0652765276528,924028.89536004,7860.1461996185,2957119.3771,11.265276527653,0,0
-31.845340681576,77.171312544184,6.0697069706971,924028.89536004,7860.1461996185,2957119.3771,11.269706970697,0,0
-31.845340653221,77.192870276858,6.0741374137414,924028.89536004,7860.1461996185,2957119.3771,11.274137413741,0,0
-31.845340624866,77.214428009533,6.0785678567857,924028.89536004,7860.1461996185,2957119.3771,11.278567856786,0,0
-31.845340596511,77.235985742207,6.08299829983,924028.89536004,7860.1461996185,2957119.3771,11.28299829983,0,0
-31.845340568156,77.257543474881,6.0874287428743,924028.89536004,7860.1461996185,2957119.3771,11.287428742874,0,0
-31.845340539801,77.279101207556,6.0918591859186,924028.89536004,7860.1461996185,2957119.3771,11.291859185919,0,0
-31.845340511446,77.30065894023,6.0962896289629,924028.89536004,7860.1461996185,2957119.3771,11.296289628963,0,0
-31.845340483091,77.322216672904,6.1007200720072,924028.89536004,7860.1461996185,2957119.3771,11.300720072007,0,0
-31.845340454736,77.343774405579,6.1051505150515,924028.89536004,7860.1461996185,2957119.3771,11.305150515052,0,0
-31.845340426381,77.365332138253,6.1095809580958,924028.89536004,7860.1461996185,2957119.3771,11.309580958096,0,0
-31.845340398026,77.386889870927,6.1140114011401,924028.89536004,7860.1461996185,2957119.3771,11.31401140114,0,0
-31.845340369671,77.408447603602,6.1184418441844,924028.89536004,7860.1461996185,2957119.3771,11.318441844184,0,0
-31.845340341316,77.430005336276,6.1228722872287,924028.89536004,7860.1461996185,2957119.3771,11.322872287229,0,0
-31.845340312961,77.45156306895,6.127302730273,924028.89536004,7860.1461996185,2957119.3771,11.327302730273,0,0
-31.845340284606,77.473120801625,6.1317331733173,924028.89536004,7860.1461996185,2957119.3771,11.331733173317,0,0
-31.845340256251,77.494678534299,6.1361636163616,924028.89536004,7860.1461996185,2957119.3771,11.336163616362,0,0
-31.845340227896,77.516236266973,6.1405940594059,924028.89536004,7860.1461996185,2957119.3771,11.340594059406,0,0
-31.845340199541,77.537793999648,6.1450245024502,924028.89536004,7860.1461996185,2957119.3771,11.34502450245,0,0
-31.845340171186,77.559351732322,6.1494549454945,924028.89536004,7860.1461996185,2957119.3771,11.349454945495,0,0
-31.845340142831,77.580909464997,6.1538853885389,924028.89536004,7860.1461996185,2957119.3771,11.353885388539,0,0
-31.845340114476,77.602467197671,6.1583158315832,924028.89536004,7860.1461996185,2957119.3771,11.358315831583,0,0
-31.845340086121,77.624024930345,6.1627462746275,924028.89536004,7860.1461996185,2957119.3771,11.362746274627,0,0
-31.845340057766,77.64558266302,6.1671767176718,924028.89536004,7860.1461996185,2957119.3771,11.367176717672,0,0
-31.845340029411,77.667140395694,6.1716071607161,924028.89536004,7860.1461996185,2957119.3771,11.371607160716,0,0
-31.845340001056,77.688698128368,6.1760376037604,924028.89536004,7860.1461996185,2957119.3771,11.37603760376,0,0
-31.845339972701,77.710255861043,6.1804680468047,924028.89536004,7860.1461996185,2957119.3771,11.380468046805,0,0
-31.845339944346,77.731813593717,6.184898489849,924028.89536004,7860.1461996185,2957119.3771,11.384898489849,0,0
-31.84533991599,77.753371326391,6.1893289328933,924028.89536004,7860.1461996185,2957119.3771,11.389328932893,0,0
-31.845339887635,77.774929059066,6.1937593759376,924028.89536004,7860.1461996185,2957119.3771,11.393759375938,0,0
-31.84533985928,77.79648679174,6.1981898189819,924028.89536004,7860.1461996185,2957119.3771,11.398189818982,0,0
-31.845339830925,77.818044524414,6.2026202620262,924028.89536004,7860.1461996185,2957119.3771,11.402620262026,0,0
-31.84533980257,77.839602257089,6.2070507050705,924028.89536004,7860.1461996185,2957119.3771,11.407050705071,0,0
-31.845339774215,77.861159989763,6.2114811481148,924028.89536004,7860.1461996185,2957119.3771,11.411481148115,0,0
-31.84533974586,77.882717722437,6.2159115911591,924028.89536004,7860.1461996185,2957119.3771,11.415911591159,0,0
-31.845339717505,77.904275455112,6.2203420342034,924028.89536004,7860.1461996185,2957119.3771,11.420342034203,0,0
-31.84533968915,77.925833187786,6.2247724772477,924028.89536004,7860.1461996185,2957119.3771,11.424772477248,0,0
-31.845339660795,77.94739092046,6.229202920292,924028.89536004,7860.1461996185,2957119.3771,11.429202920292,0,0
-31.84533963244,77.968948653135,6.2336333633363,924028.89536004,7860.1461996185,2957119.3771,11.433633363336,0,0
-31.845339604085,77.990506385809,6.2380638063806,924028.89536004,7860.1461996185,2957119.3771,11.438063806381,0,0
-31.84533957573,78.012064118483,6.2424942494249,924028.89536004,7860.1461996185,2957119.3771,11.442494249425,0,0
-31.845339547375,78.033621851158,6.2469246924692,924028.89536004,7860.1461996185,2957119.3771,11.446924692469,0,0
-31.84533951902,78.055179583832,6.2513551355136,924028.89536004,7860.1461996185,2957119.3771,11.451355135514,0,0
-31.845339490665,78.076737316506,6.2557855785579,924028.89536004,7860.1461996185,2957119.3771,11.455785578558,0,0
-31.84533946231,78.098295049181,6.2602160216022,924028.89536004,7860.1461996185,2957119.3771,11.460216021602,0,0
-31.845339433955,78.119852781855,6.2646464646465,924028.89536004,7860.1461996185,2957119.3771,11.464646464646,0,0
-31.8453394056,78.141410514529,6.2690769076908,924028.89536004,7860.1461996185,2957119.3771,11.469076907691,0,0
-31.845339377245,78.162968247204,6.2735073507351,924028.89536004,7860.1461996185,2957119.3771,11.473507350735,0,0
-31.84533934889,78.184525979878,6.2779377937794,924028.89536004,7860.1461996185,2957119.3771,11.477937793779,0,0
-31.845339320535,78.206083712552,6.2823682368237,924028.89536004,7860.1461996185,2957119.3771,11.482368236824,0,0
-31.84533929218,78.227641445227,6.286798679868,924028.89536004,7860.1461996185,2957119.3771,11.486798679868,0,0
-31.845339263825,78.249199177901,6.2912291229123,924028.89536004,7860.1461996185,2957119.3771,11.491229122912,0,0
-31.84533923547,78.270756910575,6.2956595659566,924028.89536004,7860.1461996185,2957119.3771,11.495659565957,0,0
-31.845339207115,78.29231464325,6.3000900090009,924028.89536004,7860.1461996185,2957119.3771,11.500090009001,0,0
-31.84533917876,78.313872375924,6.3045204520452,924028.89536004,7860.1461996185,2957119.3771,11.504520452045,0,0
-31.845339150405,78.335430108598,6.3089508950895,924028.89536004,7860.1461996185,2957119.3771,11.50895089509,0,0
-31.84533912205,78.356987841273,6.3133813381338,924028.89536004,7860.1461996185,2957119.3771,11.513381338134,0,0
-31.845339093695,78.378545573947,6.3178117811781,924028.89536004,7860.1461996185,2957119.3771,11.517811781178,0,0
-31.84533906534,78.400103306621,6.3222422242224,924028.89536004,7860.1461996185,2957119.3771,11.522242224222,0,0
-31.845339036985,78.421661039296,6.3266726672667,924028.89536004,7860.1461996185,2957119.3771,11.526672667267,0,0
-31.84533900863,78.44321877197,6.331103110311,924028.89536004,7860.1461996185,2957119.3771,11.531103110311,0,0
-31.845338980274,78.464776504644,6.3355335533553,924028.89536004,7860.1461996185,2957119.3771,11.535533553355,0,0
-31.845338951919,78.486334237319,6.3399639963996,924028.89536004,7860.1461996185,2957119.3771,11.5399639964,0,0
-31.845338923564,78.507891969993,6.3443944394439,924028.89536004,7860.1461996185,2957119.3771,11.544394439444,0,0
-31.845338895209,78.529449702667,6.3488248824882,924028.89536004,7860.1461996185,2957119.3771,11.548824882488,0,0
-31.845338866854,78.551007435342,6.3532553255326,924028.89536004,7860.1461996185,2957119.3771,11.553255325533,0,0
-31.845338838499,78.572565168016,6.3576857685769,924028.89536004,7860.1461996185,2957119.3771,11.557685768577,0,0
-31.845338810144,78.594122900691,6.3621162116212,924028.89536004,7860.1461996185,2957119.3771,11.562116211621,0,0
-31.845338781789,78.615680633365,6.3665466546655,924028.89536004,7860.1461996185,2957119.3771,11.566546654665,0,0
-31.845338753434,78.637238366039,6.3709770977098,924028.89536004,7860.1461996185,2957119.3771,11.57097709771,0,0
-31.845338725079,78.658796098714,6.3754075407541,924028.89536004,7860.1461996185,2957119.3771,11.575407540754,0,0
-31.845338696724,78.680353831388,6.3798379837984,924028.89536004,7860.1461996185,2957119.3771,11.579837983798,0,0
-31.845338668369,78.701911564062,6.3842684268427,924028.89536004,7860.1461996185,2957119.3771,11.584268426843,0,0
-31.845338640014,78.723469296737,6.388698869887,924028.89536004,7860.1461996185,2957119.3771,11.588698869887,0,0
-31.845338611659,78.745027029411,6.3931293129313,924028.89536004,7860.1461996185,2957119.3771,11.593129312931,0,0
-31.845338583304,78.766584762085,6.3975597559756,924028.89536004,7860.1461996185,2957119.3771,11.597559755976,0,0
-31.845338554949,78.78814249476,6.4019901990199,924028.89536004,7860.1461996185,2957119.3771,11.60199019902,0,0
-31.845338526594,78.809700227434,6.4064206420642,924028.89536004,7860.1461996185,2957119.3771,11.606420642064,0,0
-31.845338498239,78.831257960108,6.4108510851085,924028.89536004,7860.1461996185,2957119.3771,11.610851085109,0,0
-31.845338469884,78.852815692783,6.4152815281528,924028.89536004,7860.1461996185,2957119.3771,11.615281528153,0,0
-31.845338441529,78.874373425457,6.4197119711971,924028.89536004,7860.1461996185,2957119.3771,11.619711971197,0,0
-31.845338413174,78.895931158131,6.4241424142414,924028.89536004,7860.1461996185,2957119.3771,11.624142414241,0,0
-31.845338384819,78.917488890806,6.4285728572857,924028.89536004,7860.1461996185,2957119.3771,11.628572857286,0,0
-31.845338356464,78.93904662348,6.43300330033,924028.89536004,7860.1461996185,2957119.3771,11.63300330033,0,0
-31.845338328109,78.960604356154,6.4374337433743,924028.89536004,7860.1461996185,2957119.3771,11.637433743374,0,0
-31.845338299754,78.982162088829,6.4418641864186,924028.89536004,7860.1461996185,2957119.3771,11.641864186419,0,0
-31.845338271399,79.003719821503,6.4462946294629,924028.89536004,7860.1461996185,2957119.3771,11.646294629463,0,0
-31.845338243044,79.025277554177,6.4507250725072,924028.89536004,7860.1461996185,2957119.3771,11.650725072507,0,0
-31.845338214689,79.046835286852,6.4551555155516,924028.89536004,7860.1461996185,2957119.3771,11.655155515552,0,0
-31.845338186334,79.068393019526,6.4595859585959,924028.89536004,7860.1461996185,2957119.3771,11.659585958596,0,0
-31.845338157135,79.08995075034,6.4640164016402,932895.896633,-2904.935611241,2920004.0539558,11.66401640164,0,0
-31.845338127084,79.11150847927,6.4684468446845,932895.896633,-2904.935611241,2920004.0539558,11.668446844684,0,0
-31.845338097032,79.133066208201,6.4728772877288,932895.896633,-2904.935611241,2920004.0539558,11.672877287729,0,0
-31.845338066981,79.154623937132,6.4773077307731,932895.896633,-2904.935611241,2920004.0539558,11.677307730773,0,0
-31.845338036929,79.176181666063,6.4817381738174,932895.896633,-2904.935611241,2920004.0539558,11.681738173817,0,0
-31.845338006878,79.197739394994,6.4861686168617,932895.896633,-2904.935611241,2920004.0539558,11.686168616862,0,0
-31.845337976826,79.219297123925,6.490599059906,932895.896633,-2904.935611241,2920004.0539558,11.690599059906,0,0
-31.845337946775,79.240854852856,6.4950295029503,932895.896633,-2904.935611241,2920004.0539558,11.69502950295,0,0
-31.845337916723,79.262412581787,6.4994599459946,932895.896633,-2904.935611241,2920004.0539558,11.699459945995,0,0
-31.845337886672,79.283970310717,6.5038903890389,932895.896633,-2904.935611241,2920004.0539558,11.703890389039,0,0
-31.84533785662,79.305528039648,6.5083208320832,932895.896633,-2904.935611241,2920004.0539558,11.708320832083,0,0
-31.845337826569,79.327085768579,6.5127512751275,932895.896633,-2904.935611241,2920004.0539558,11.712751275128,0,0
-31.845337796517,79.34864349751,6.5171817181718,932895.896633,-2904.935611241,2920004.0539558,11.717181718172,0,0
-31.845337766466,79.370201226441,6.5216121612161,932895.896633,-2904.935611241,2920004.0539558,11.721612161216,0,0
-31.845337736414,79.391758955372,6.5260426042604,932895.896633,-2904.935611241,2920004.0539558,11.72604260426,0,0
-31.845337706363,79.413316684303,6.5304730473047,932895.896633,-2904.935611241,2920004.0539558,11.730473047305,0,0
-31.845337676311,79.434874413233,6.534903490349,932895.896633,-2904.935611241,2920004.0539558,11.734903490349,0,0
-31.84533764626,79.456432142164,6.5393339333933,932895.896633,-2904.935611241,2920004.0539558,11.739333933393,0,0
-31.845337616208,79.477989871095,6.5437643764376,932895.896633,-2904.935611241,2920004.0539558,11.743764376438,0,0
-31.845337586157,79.499547600026,6.5481948194819,932895.896633,-2904.935611241,2920004.0539558,11.748194819482,0,0
-31.845337556105,79.521105328957,6.5526252625263,932895.896633,-2904.935611241,2920004.0539558,11.752625262526,0,0
-31.845337526054,79.542663057888,6.5570557055706,932895.896633,-2904.935611241,2920004.0539558,11.757055705571,0,0
-31.845337496003,79.564220786819,6.5614861486149,932895.896633,-2904.935611241,2920004.0539558,11.761486148615,0,0
-31.845337465951,79.58577851575,6.5659165916592,932895.896633,-2904.935611241,2920004.0539558,11.765916591659,0,0
-31.8453374359,79.60733624468,6.5703470347035,932895.896633,-2904.935611241,2920004.0539558,11.770347034703,0,0
-31.845337405848,79.628893973611,6.5747774777478,932895.896633,-2904.935611241,2920004.0539558,11.774777477748,0,0
-31.845337375797,79.650451702542,6.5792079207921,932895.896633,-2904.935611241,2920004.0539558,11.779207920792,0,0
-31.845337345745,79.672009431473,6.5836383638364,932895.896633,-2904.935611241,2920004.0539558,11.783638363836,0,0
-31.845337315694,79.693567160404,6.5880688068807,932895.896633,-2904.935611241,2920004.0539558,11.788068806881,0,0
-31.845337285642,79.715124889335,6.592499249925,932895.896633,-2904.935611241,2920004.0539558,11.792499249925,0,0
-31.845337255591,79.736682618266,6.5969296929693,932895.896633,-2904.935611241,2920004.0539558,11.796929692969,0,0
-31.845337225539,79.758240347196,6.6013601360136,932895.896633,-2904.935611241,2920004.0539558,11.801360136014,0,0
-31.845337195488,79.779798076127,6.6057905790579,932895.896633,-2904.935611241,2920004.0539558,11.805790579058,0,0
-31.845337165436,79.801355805058,6.6102210221022,932895.896633,-2904.935611241,2920004.0539558,11.810221022102,0,0
-31.845337135385,79.822913533989,6.6146514651465,932895.896633,-2904.935611241,2920004.0539558,11.814651465147,0,0
-31.845337105333,79.84447126292,6.6190819081908,932895.896633,-2904.935611241,2920004.0539558,11.819081908191,0,0
-31.845337075282,79.866028991851,6.6235123512351,932895.896633,-2904.935611241,2920004.0539558,11.823512351235,0,0
-31.84533704523,79.887586720782,6.6279427942794,932895.896633,-2904.935611241,2920004.0539558,11.827942794279,0,0
-31.845337015179,79.909144449713,6.6323732373237,932895.896633,-2904.935611241,2920004.0539558,11.832373237324,0,0
-31.845336985127,79.930702178643,6.636803680368,932895.896633,-2904.935611241,2920004.0539558,11.836803680368,0,0
-31.845336955076,79.952259907574,6.6412341234123,932895.896633,-2904.935611241,2920004.0539558,11.841234123412,0,0
-31.845336925024,79.973817636505,6.6456645664566,932895.896633,-2904.935611241,2920004.0539558,11.845664566457,0,0
-31.845336894973,79.995375365436,6.650095009501,932895.896633,-2904.935611241,2920004.0539558,11.850095009501,0,0
-31.845336864921,80.016933094367,6.6545254525453,932895.896633,-2904.935611241,2920004.0539558,11.854525452545,0,0
-31.84533683487,80.038490823298,6.6589558955896,932895.896633,-2904.935611241,2920004.0539558,11.85895589559,0,0
-31.845336804818,80.060048552229,6.6633863386339,932895.896633,-2904.935611241,2920004.0539558,11.863386338634,0,0
-31.845336774767,80.081606281159,6.6678167816782,932895.896633,-2904.935611241,2920004.0539558,11.867816781678,0,0
-31.845336744715,80.10316401009,6.6722472247225,932895.896633,-2904.935611241,2920004.0539558,11.872247224722,0,0
-31.845336714664,80.124721739021,6.6766776677668,932895.896633,-2904.935611241,2920004.0539558,11.876677667767,0,0
-31.845336684612,80.146279467952,6.6811081108111,932895.896633,-2904.935611241,2920004.0539558,11.881108110811,0,0
-31.845336654561,80.167837196883,6.6855385538554,932895.896633,-2904.935611241,2920004.0539558,11.885538553855,0,0
-31.845336624509,80.189394925814,6.6899689968997,932895.896633,-2904.935611241,2920004.0539558,11.8899689969,0,0
-31.845336594458,80.210952654745,6.694399439944,932895.896633,-2904.935611241,2920004.0539558,11.894399439944,0,0
-31.845336564406,80.232510383675,6.6988298829883,932895.896633,-2904.935611241,2920004.0539558,11.898829882988,0,0
-31.845336534355,80.254068112606,6.7032603260326,932895.896633,-2904.935611241,2920004.0539558,11.903260326033,0,0
-31.845336504303,80.275625841537,6.7076907690769,932895.896633,-2904.935611241,2920004.0539558,11.907690769077,0,0
-31.845336474252,80.297183570468,6.7121212121212,932895.896633,-2904.935611241,2920004.0539558,11.912121212121,0,0
-31.8453364442,80.318741299399,6.7165516551655,932895.896633,-2904.935611241,2920004.0539558,11.916551655166,0,0
-31.845336414149,80.34029902833,6.7209820982098,932895.896633,-2904.935611241,2920004.0539558,11.92098209821,0,0
-31.845336384097,80.361856757261,6.7254125412541,932895.896633,-2904.935611241,2920004.0539558,11.925412541254,0,0
-31.845336354046,80.383414486192,6.7298429842984,932895.896633,-2904.935611241,2920004.0539558,11.929842984298,0,0
-31.845336324896,80.404972216313,6.7342734273427,898363.52738303,13892.488839247,2895027.5986995,11.934273427343,0,0
-31.845336296938,80.426529948007,6.738703870387,898363.52738303,13892.488839247,2895027.5986995,11.938703870387,0,0
-31.84533626898,80.448087679701,6.7431343134313,898363.52738303,13892.488839247,2895027.5986995,11.943134313431,0,0
-31.845336241022,80.469645411394,6.7475647564756,898363.52738303,13892.488839247,2895027.5986995,11.947564756476,0,0
-31.845336213063,80.491203143088,6.75199519952,898363.52738303,13892.488839247,2895027.5986995,11.95199519952,0,0
-31.845336185105,80.512760874782,6.7564256425643,898363.52738303,13892.488839247,2895027.5986995,11.956425642564,0,0
-31.845336157147,80.534318606476,6.7608560856086,898363.52738303,13892.488839247,2895027.5986995,11.960856085609,0,0
-31.845336129189,80.55587633817,6.7652865286529,898363.52738303,13892.488839247,2895027.5986995,11.965286528653,0,0
-31.845336101231,80.577434069864,6.7697169716972,898363.52738303,13892.488839247,2895027.5986995,11.969716971697,0,0
-31.845336073272,80.598991801558,6.7741474147415,898363.52738303,13892.488839247,2895027.5986995,11.974147414741,0,0
-31.845336045314,80.620549533252,6.7785778577858,898363.52738303,13892.488839247,2895027.5986995,11.978577857786,0,0
-31.845336017356,80.642107264945,6.7830083008301,898363.52738303,13892.488839247,2895027.5986995,11.98300830083,0,0
-31.845335989398,80.663664996639,6.7874387438744,898363.52738303,13892.488839247,2895027.5986995,11.987438743874,0,0
-31.84533596144,80.685222728333,6.7918691869187,898363.52738303,13892.488839247,2895027.5986995,11.991869186919,0,0
-31.845335933481,80.706780460027,6.796299629963,898363.52738303,13892.488839247,2895027.5986995,11.996299629963,0,0
-31.845335905523,80.728338191721,6.8007300730073,898363.52738303,13892.488839247,2895027.5986995,12.000730073007,0,0
-31.845335877565,80.749895923415,6.8051605160516,898363.52738303,13892.488839247,2895027.5986995,12.005160516052,0,0
-31.845335849607,80.771453655109,6.8095909590959,898363.52738303,13892.488839247,2895027.5986995,12.009590959096,0,0
-31.845335821649,80.793011386803,6.8140214021402,898363.52738303,13892.488839247,2895027.5986995,12.01402140214,0,0
-31.84533579369,80.814569118497,6.8184518451845,898363.52738303,13892.488839247,2895027.5986995,12.018451845185,0,0
-31.845335765732,80.83612685019,6.8228822882288,898363.52738303,13892.488839247,2895027.5986995,12.022882288229,0,0
-31.845335737774,80.857684581884,6.8273127312731,898363.52738303,13892.488839247,2895027.5986995,12.027312731273,0,0
-31.845335709816,80.879242313578,6.8317431743174,898363.52738303,13892.488839247,2895027.5986995,12.031743174317,0,0
-31.845335681858,80.900800045272,6.8361736173617,898363.52738303,13892.488839247,2895027.5986995,12.036173617362,0,0
-31.845335653899,80.922357776966,6.840604060406,898363.52738303,13892.488839247,2895027.5986995,12.040604060406,0,0
-31.845335625941,80.94391550866,6.8450345034503,898363.52738303,13892.488839247,2895027.5986995,12.04503450345,0,0
-31.845335597983,80.965473240354,6.8494649464946,898363.52738303,13892.488839247,2895027.5986995,12.049464946495,0,0
-31.845335570025,80.987030972048,6.853895389539,898363.52738303,13892.488839247,2895027.5986995,12.053895389539,0,0
-31.845335542067,81.008588703741,6.8583258325833,898363.52738303,13892.488839247,2895027.5986995,12.058325832583,0,0
-31.845335514108,81.030146435435,6.8627562756276,898363.52738303,13892.488839247,2895027.5986995,12.062756275628,0,0
-31.84533548615,81.051704167129,6.8671867186719,898363.52738303,13892.488839247,2895027.5986995,12.067186718672,0,0
-31.845335458192,81.073261898823,6.8716171617162,898363.52738303,13892.488839247,2895027.5986995,12.071617161716,0,0
-31.845335430234,81.094819630517,6.8760476047605,898363.52738303,13892.488839247,2895027.5986995,12.07604760476,0,0
-31.845335402276,81.116377362211,6.8804780478048,898363.52738303,13892.488839247,2895027.5986995,12.080478047805,0,0
-31.845335374317,81.137935093905,6.8849084908491,898363.52738303,13892.488839247,2895027.5986995,12.084908490849,0,0
-31.845335346359,81.159492825599,6.8893389338934,898363.52738303,13892.488839247,2895027.5986995,12.089338933893,0,0
-31.845335318401,81.181050557292,6.8937693769377,898363.52738303,13892.488839247,2895027.5986995,12.093769376938,0,0
-31.845335290443,81.202608288986,6.898199819982,898363.52738303,13892.488839247,2895027.5986995,12.098199819982,0,0
-31.845335262485,81.22416602068,6.9026302630263,898363.52738303,13892.488839247,2895027.5986995,12.102630263026,0,0
-31.845335234526,81.245723752374,6.9070607060706,898363.52738303,13892.488839247,2895027.5986995,12.107060706071,0,0
-31.845335206568,81.267281484068,6.9114911491149,898363.52738303,13892.488839247,2895027.5986995,12.111491149115,0,0
-31.84533517861,81.288839215762,6.9159215921592,898363.52738303,13892.488839247,2895027.5986995,12.115921592159,0,0
-31.845335150652,81.310396947456,6.9203520352035,898363.52738303,13892.488839247,2895027.5986995,12.120352035204,0,0
-31.845335122694,81.33195467915,6.9247824782478,898363.52738303,13892.488839247,2895027.5986995,12.124782478248,0,0
-31.845335094735,81.353512410843,6.9292129212921,898363.52738303,13892.488839247,2895027.5986995,12.129212921292,0,0
-31.845335066777,81.375070142537,6.9336433643364,898363.52738303,13892.488839247,2895027.5986995,12.133643364336,0,0
-31.845335038819,81.396627874231,6.9380738073807,898363.52738303,13892.488839247,2895027.5986995,12.138073807381,0,0
-31.845335010861,81.418185605925,6.942504250425,898363.52738303,13892.488839247,2895027.5986995,12.142504250425,0,0
-31.845334982903,81.439743337619,6.9469346934693,898363.52738303,13892.488839247,2895027.5986995,12.146934693469,0,0
-31.845334954944,81.461301069313,6.9513651365137,898363.52738303,13892.488839247,2895027.5986995,12.151365136514,0,0
-31.845334926986,81.482858801007,6.955795579558,898363.52738303,13892.488839247,2895027.5986995,12.155795579558,0,0
-31.845334899028,81.504416532701,6.9602260226023,898363.52738303,13892.488839247,2895027.5986995,12.160226022602,0,0
-31.84533487107,81.525974264394,6.9646564656466,898363.52738303,13892.488839247,2895027.5986995,12.164656465647,0,0
-31.845334843112,81.547531996088,6.9690869086909,898363.52738303,13892.488839247,2895027.5986995,12.169086908691,0,0
-31.845334815153,81.569089727782,6.9735173517352,898363.52738303,13892.488839247,2895027.5986995,12.173517351735,0,0
-31.845334787195,81.590647459476,6.9779477947795,898363.52738303,13892.488839247,2895027.5986995,12.177947794779,0,0
-31.845334759237,81.61220519117,6.9823782378238,898363.52738303,13892.488839247,2895027.5986995,12.182378237824,0,0
-31.845334731279,81.633762922864,6.9868086808681,898363.52738303,13892.488839247,2895027.5986995,12.186808680868,0,0
-31.845334703321,81.655320654558,6.9912391239124,898363.52738303,13892.488839247,2895027.5986995,12.191239123912,0,0
-31.845334675362,81.676878386252,6.9956695669567,898363.52738303,13892.488839247,2895027.5986995,12.195669566957,0,0
-31.845334647404,81.698436117945,7.000100010001,898363.52738303,13892.488839247,2895027.5986995,12.200100010001,0,0
-31.845334619446,81.719993849639,7.0045304530453,898363.52738303,13892.488839247,2895027.5986995,12.204530453045,0,0
-31.845334591488,81.741551581333,7.0089608960896,898363.52738303,13892.488839247,2895027.5986995,12.20896089609,0,0
-31.84533456353,81.763109313027,7.0133913391339,898363.52738303,13892.488839247,2895027.5986995,12.213391339134,0,0
-31.845334535571,81.784667044721,7.0178217821782,898363.52738303,13892.488839247,2895027.5986995,12.217821782178,0,0
-31.845334507613,81.806224776415,7.0222522252225,898363.52738303,13892.488839247,2895027.5986995,12.222252225223,0,0
-31.845334479655,81.827782508109,7.0266826682668,898363.52738303,13892.488839247,2895027.5986995,12.226682668267,0,0
-31.845334451697,81.849340239803,7.0311131113111,898363.52738303,13892.488839247,2895027.5986995,12.231113111311,0,0
-31.845334423739,81.870897971496,7.0355435543554,898363.52738303,13892.488839247,2895027.5986995,12.235543554355,0,0
-31.84533439578,81.89245570319,7.0399739973997,898363.52738303,13892.488839247,2895027.5986995,12.2399739974,0,0
-31.845334367822,81.914013434884,7.044404440444,898363.52738303,13892.488839247,2895027.5986995,12.244404440444,0,0
-31.845334339864,81.935571166578,7.0488348834883,898363.52738303,13892.488839247,2895027.5986995,12.248834883488,0,0
-31.845334311906,81.957128898272,7.0532653265327,898363.52738303,13892.488839247,2895027.5986995,12.253265326533,0,0
-31.845334283948,81.978686629966,7.057695769577,898363.52738303,13892.488839247,2895027.5986995,12.257695769577,0,0
-31.845334255989,82.00024436166,7.0621262126213,898363.52738303,13892.488839247,2895027.5986995,12.262126212621,0,0
-31.845334228031,82.021802093354,7.0665566556656,898363.52738303,13892.488839247,2895027.5986995,12.266556655666,0,0
-31.845334200073,82.043359825048,7.0709870987099,898363.52738303,13892.488839247,2895027.5986995,12.27098709871,0,0
-31.845334172115,82.064917556741,7.0754175417542,898363.52738303,13892.488839247,2895027.5986995,12.275417541754,0,0
-31.845334144157,82.086475288435,7.0798479847985,898363.52738303,13892.488839247,2895027.5986995,12.279847984798,0,0
-31.845334116198,82.108033020129,7.0842784278428,898363.52738303,13892.488839247,2895027.5986995,12.284278427843,0,0
-31.84533408824,82.129590751823,7.0887088708871,898363.52738303,13892.488839247,2895027.5986995,12.288708870887,0,0
-31.845334060282,82.151148483517,7.0931393139314,898363.52738303,13892.488839247,2895027.5986995,12.293139313931,0,0
-31.845334032324,82.172706215211,7.0975697569757,898363.52738303,13892.488839247,2895027.5986995,12.297569756976,0,0
-31.845334004366,82.194263946905,7.10200020002,898363.52738303,13892.488839247,2895027.5986995,12.30200020002,0,0
-31.845333976407,82.215821678599,7.1064306430643,898363.52738303,13892.488839247,2895027.5986995,12.306430643064,0,0
-31.845333948449,82.237379410292,7.1108610861086,898363.52738303,13892.488839247,2895027.5986995,12.310861086109,0,0
-31.845333920491,82.258937141986,7.1152915291529,898363.52738303,13892.488839247,2895027.5986995,12.315291529153,0,0
-31.845333892533,82.28049487368,7.1197219721972,898363.52738303,13892.488839247,2895027.5986995,12.319721972197,0,0
-31.845333864575,82.302052605374,7.1241524152415,898363.52738303,13892.488839247,2895027.5986995,12.324152415242,0,0
-31.845333836616,82.323610337068,7.1285828582858,898363.52738303,13892.488839247,2895027.5986995,12.328582858286,0,0
-31.845333808658,82.345168068762,7.1330133013301,898363.52738303,13892.488839247,2895027.5986995,12.33301330133,0,0
-31.8453337807,82.366725800456,7.1374437443744,898363.52738303,13892.488839247,2895027.5986995,12.337443744374,0,0
-31.845333752742,82.38828353215,7.1418741874187,898363.52738303,13892.488839247,2895027.5986995,12.341874187419,0,0
-31.845333724784,82.409841263843,7.146304630463,898363.52738303,13892.488839247,2895027.5986995,12.346304630463,0,0
-31.845333696825,82.431398995537,7.1507350735073,898363.52738303,13892.488839247,2895027.5986995,12.350735073507,0,0
-31.845333668867,82.452956727231,7.1551655165517,898363.52738303,13892.488839247,2895027.5986995,12.355165516552,0,0
-31.845333640909,82.474514458925,7.159595959596,898363.52738303,13892.488839247,2895027.5986995,12.359595959596,0,0
-31.845333612951,82.496072190619,7.1640264026403,898363.52738303,13892.488839247,2895027.5986995,12.36402640264,0,0
-31.845333584993,82.517629922313,7.1684568456846,898363.52738303,13892.488839247,2895027.5986995,12.368456845685,0,0
-31.845333557034,82.539187654007,7.1728872887289,898363.52738303,13892.488839247,2895027.5986995,12.372887288729,0,0
-31.845333529076,82.560745385701,7.1773177317732,898363.52738303,13892.488839247,2895027.5986995,12.377317731773,0,0
-31.845333501118,82.582303117394,7.1817481748175,898363.52738303,13892.488839247,2895027.5986995,12.381748174817,0,0
-31.84533347316,82.603860849088,7.1861786178618,898363.52738303,13892.488839247,2895027.5986995,12.386178617862,0,0
-31.845333445202,82.625418580782,7.1906090609061,898363.52738303,13892.488839247,2895027.5986995,12.390609060906,0,0
-31.845333417243,82.646976312476,7.1950395039504,898363.52738303,13892.488839247,2895027.5986995,12.39503950395,0,0
-31.845333389285,82.66853404417,7.1994699469947,898363.52738303,13892.488839247,2895027.5986995,12.399469946995,0,0
-31.845333361327,82.690091775864,7.203900390039,898363.52738303,13892.488839247,2895027.5986995,12.403900390039,0,0
-31.845333333369,82.711649507558,7.2083308330833,898363.52738303,13892.488839247,2895027.5986995,12.408330833083,0,0
-31.845333305411,82.733207239252,7.2127612761276,898363.52738303,13892.488839247,2895027.5986995,12.412761276128,0,0
-31.845333277452,82.754764970945,7.2171917191719,898363.52738303,13892.488839247,2895027.5986995,12.417191719172,0,0
-31.845333249494,82.776322702639,7.2216221622162,898363.52738303,13892.488839247,2895027.5986995,12.421622162216,0,0
-31.845333221536,82.797880434333,7.2260526052605,898363.52738303,13892.488839247,2895027.5986995,12.426052605261,0,0
-31.845333193578,82.819438166027,7.2304830483048,898363.52738303,13892.488839247,2895027.5986995,12.430483048305,0,0
-31.84533316562,82.840995897721,7.2349134913491,898363.52738303,13892.488839247,2895027.5986995,12.434913491349,0,0
-31.845333137662,82.862553629415,7.2393439343934,898363.52738303,13892.488839247,2895027.5986995,12.439343934393,0,0
-31.845333109703,82.884111361109,7.2437743774377,898363.52738303,13892.488839247,2895027.5986995,12.443774377438,0,0
-31.845333081745,82.905669092803,7.248204820482,898363.52738303,13892.488839247,2895027.5986995,12.448204820482,0,0
-31.845333053787,82.927226824496,7.2526352635264,898363.52738303,13892.488839247,2895027.5986995,12.452635263526,0,0
-31.845333025829,82.94878455619,7.2570657065707,898363.52738303,13892.488839247,2895027.5986995,12.457065706571,0,0
-31.845332997871,82.970342287884,7.261496149615,898363.52738303,13892.488839247,2895027.5986995,12.461496149615,0,0
-31.845332969912,82.991900019578,7.2659265926593,898363.52738303,13892.488839247,2895027.5986995,12.465926592659,0,0
-31.845332941954,83.013457751272,7.2703570357036,898363.52738303,13892.488839247,2895027.5986995,12.470357035704,0,0
-31.845332913996,83.035015482966,7.2747874787479,898363.52738303,13892.488839247,2895027.5986995,12.474787478748,0,0
-31.845332886038,83.05657321466,7.2792179217922,898363.52738303,13892.488839247,2895027.5986995,12.479217921792,0,0
-31.84533285808,83.078130946354,7.2836483648365,898363.52738303,13892.488839247,2895027.5986995,12.483648364836,0,0
-31.845332830121,83.099688678047,7.2880788078808,898363.52738303,13892.488839247,2895027.5986995,12.488078807881,0,0
-31.845332802163,83.121246409741,7.2925092509251,898363.52738303,13892.488839247,2895027.5986995,12.492509250925,0,0
-31.845332774205,83.142804141435,7.2969396939694,898363.52738303,13892.488839247,2895027.5986995,12.496939693969,0,0
-31.845332746247,83.164361873129,7.3013701370137,898363.52738303,13892.488839247,2895027.5986995,12.501370137014,0,0
-31.845332718289,83.185919604823,7.305800580058,898363.52738303,13892.488839247,2895027.5986995,12.505800580058,0,0
-31.84533269033,83.207477336517,7.3102310231023,898363.52738303,13892.488839247,2895027.5986995,12.510231023102,0,0
-31.845332662372,83.229035068211,7.3146614661466,898363.52738303,13892.488839247,2895027.5986995,12.514661466147,0,0
-31.845332634414,83.250592799905,7.3190919091909,898363.52738303,13892.488839247,2895027.5986995,12.519091909191,0,0
-31.845332606456,83.272150531599,7.3235223522352,898363.52738303,13892.488839247,2895027.5986995,12.523522352235,0,0
-31.845332578498,83.293708263292,7.3279527952795,898363.52738303,13892.488839247,2895027.5986995,12.52795279528,0,0
-31.845332550539,83.315265994986,7.3323832383238,898363.52738303,13892.488839247,2895027.5986995,12.532383238324,0,0
-31.845332522581,83.33682372668,7.3368136813681,898363.52738303,13892.488839247,2895027.5986995,12.536813681368,0,0
-31.845332494623,83.358381458374,7.3412441244124,898363.52738303,13892.488839247,2895027.5986995,12.541244124412,0,0
-31.845332466665,83.379939190068,7.3456745674567,898363.52738303,13892.488839247,2895027.5986995,12.545674567457,0,0
-31.845332438707,83.401496921762,7.350105010501,898363.52738303,13892.488839247,2895027.5986995,12.550105010501,0,0
-31.845332410748,83.423054653456,7.3545354535454,898363.52738303,13892.488839247,2895027.5986995,12.554535453545,0,0
-31.84533238279,83.44461238515,7.3589658965897,898363.52738303,13892.488839247,2895027.5986995,12.55896589659,0,0
-31.845332354832,83.466170116843,7.363396339634,898363.52738303,13892.488839247,2895027.5986995,12.563396339634,0,0
-31.845332326874,83.487727848537,7.3678267826783,898363.52738303,13892.488839247,2895027.5986995,12.567826782678,0,0
-31.845332298916,83.509285580231,7.3722572257226,898363.52738303,13892.488839247,2895027.5986995,12.572257225723,0,0
-31.845332270957,83.530843311925,7.3766876687669,898363.52738303,13892.488839247,2895027.5986995,12.576687668767,0,0
-31.845332242999,83.552401043619,7.3811181118112,898363.52738303,13892.488839247,2895027.5986995,12.581118111811,0,0
-31.845332215041,83.573958775313,7.3855485548555,898363.52738303,13892.488839247,2895027.5986995,12.585548554855,0,0
-31.845332187083,83.595516507007,7.3899789978998,898363.52738303,13892.488839247,2895027.5986995,12.5899789979,0,0
-31.845332159125,83.617074238701,7.3944094409441,898363.52738303,13892.488839247,2895027.5986995,12.594409440944,0,0
-31.845332130571,83.638631967947,7.3988398839884,896608.17701485,2111.323083227,2860898.6932846,12.598839883988,0,0
-31.845332101845,83.66018969648,7.4032703270327,896608.17701485,2111.323083227,2860898.6932846,12.603270327033,0,0
-31.845332073118,83.681747425013,7.407700770077,896608.17701485,2111.323083227,2860898.6932846,12.607700770077,0,0
-31.845332044391,83.703305153546,7.4121312131213,896608.17701485,2111.323083227,2860898.6932846,12.612131213121,0,0
-31.845332015665,83.724862882079,7.4165616561656,896608.17701485,2111.323083227,2860898.6932846,12.616561656166,0,0
-31.845331986938,83.746420610612,7.4209920992099,896608.17701485,2111.323083227,2860898.6932846,12.62099209921,0,0
-31.845331958211,83.767978339145,7.4254225422542,896608.17701485,2111.323083227,2860898.6932846,12.625422542254,0,0
-31.845331929484,83.789536067678,7.4298529852985,896608.17701485,2111.323083227,2860898.6932846,12.629852985299,0,0
-31.845331900758,83.811093796211,7.4342834283428,896608.17701485,2111.323083227,2860898.6932846,12.634283428343,0,0
-31.845331872031,83.832651524744,7.4387138713871,896608.17701485,2111.323083227,2860898.6932846,12.638713871387,0,0
-31.845331843304,83.854209253277,7.4431443144314,896608.17701485,2111.323083227,2860898.6932846,12.643144314431,0,0
-31.845331814578,83.87576698181,7.4475747574757,896608.17701485,2111.323083227,2860898.6932846,12.647574757476,0,0
-31.845331785851,83.897324710343,7.4520052005201,896608.17701485,2111.323083227,2860898.6932846,12.65200520052,0,0
-31.845331757124,83.918882438876,7.4564356435644,896608.17701485,2111.323083227,2860898.6932846,12.656435643564,0,0
-31.845331728398,83.940440167409,7.4608660866087,896608.17701485,2111.323083227,2860898.6932846,12.660866086609,0,0
-31.845331699671,83.961997895942,7.465296529653,896608.17701485,2111.323083227,2860898.6932846,12.665296529653,0,0
-31.845331670944,83.983555624475,7.4697269726973,896608.17701485,2111.323083227,2860898.6932846,12.669726972697,0,0
-31.845331642218,84.005113353008,7.4741574157416,896608.17701485,2111.323083227,2860898.6932846,12.674157415742,0,0
-31.845331613491,84.026671081541,7.4785878587859,896608.17701485,2111.323083227,2860898.6932846,12.678587858786,0,0
-31.845331584764,84.048228810075,7.4830183018302,896608.17701485,2111.323083227,2860898.6932846,12.68301830183,0,0
-31.845331556038,84.069786538608,7.4874487448745,896608.17701485,2111.323083227,2860898.6932846,12.687448744874,0,0
-31.845331527311,84.091344267141,7.4918791879188,896608.17701485,2111.323083227,2860898.6932846,12.691879187919,0,0
-31.845331498584,84.112901995674,7.4963096309631,896608.17701485,2111.323083227,2860898.6932846,12.696309630963,0,0
-31.845331469858,84.134459724207,7.5007400740074,896608.17701485,2111.323083227,2860898.6932846,12.700740074007,0,0
-31.845331441473,84.156017453576,7.5051705170517,874404.75607764,17630.792693808,2836464.4232988,12.705170517052,0,0
-31.845331413869,84.17757518486,7.509600960096,874404.75607764,17630.792693808,2836464.4232988,12.709600960096,0,0
-31.845331386265,84.199132916143,7.5140314031403,874404.75607764,17630.792693808,2836464.4232988,12.71403140314,0,0
-31.845331358661,84.220690647426,7.5184618461846,874404.75607764,17630.792693808,2836464.4232988,12.718461846185,0,0
-31.845331331058,84.242248378709,7.5228922892289,874404.75607764,17630.792693808,2836464.4232988,12.722892289229,0,0
-31.845331303454,84.263806109992,7.5273227322732,874404.75607764,17630.792693808,2836464.4232988,12.727322732273,0,0
-31.84533127585,84.285363841276,7.5317531753175,874404.75607764,17630.792693808,2836464.4232988,12.731753175318,0,0
-31.845331248246,84.306921572559,7.5361836183618,874404.75607764,17630.792693808,2836464.4232988,12.736183618362,0,0
-31.845331220643,84.328479303842,7.5406140614061,874404.75607764,17630.792693808,2836464.4232988,12.740614061406,0,0
-31.845331193039,84.350037035125,7.5450445044504,874404.75607764,17630.792693808,2836464.4232988,12.74504450445,0,0
-31.845331165435,84.371594766408,7.5494749474947,874404.75607764,17630.792693808,2836464.4232988,12.749474947495,0,0
-31.845331137831,84.393152497691,7.5539053905391,874404.75607764,17630.792693808,2836464.4232988,12.753905390539,0,0
-31.845331110228,84.414710228975,7.5583358335834,874404.75607764,17630.792693808,2836464.4232988,12.758335833583,0,0
-31.845331082624,84.436267960258,7.5627662766277,874404.75607764,17630.792693808,2836464.4232988,12.762766276628,0,0
-31.84533105502,84.457825691541,7.567196719672,874404.75607764,17630.792693808,2836464.4232988,12.767196719672,0,0
-31.845331027417,84.479383422824,7.5716271627163,874404.75607764,17630.792693808,2836464.4232988,12.771627162716,0,0
-31.845330999813,84.500941154107,7.5760576057606,874404.75607764,17630.792693808,2836464.4232988,12.776057605761,0,0
-31.845330972209,84.522498885391,7.5804880488049,874404.75607764,17630.792693808,2836464.4232988,12.780488048805,0,0
-31.845330944605,84.544056616674,7.5849184918492,874404.75607764,17630.792693808,2836464.4232988,12.784918491849,0,0
-31.845330917002,84.565614347957,7.5893489348935,874404.75607764,17630.792693808,2836464.4232988,12.789348934893,0,0
-31.845330889398,84.58717207924,7.5937793779378,874404.75607764,17630.792693808,2836464.4232988,12.793779377938,0,0
-31.845330861794,84.608729810523,7.5982098209821,874404.75607764,17630.792693808,2836464.4232988,12.798209820982,0,0
-31.84533083419,84.630287541807,7.6026402640264,874404.75607764,17630.792693808,2836464.4232988,12.802640264026,0,0
-31.845330806587,84.65184527309,7.6070707070707,874404.75607764,17630.792693808,2836464.4232988,12.807070707071,0,0
-31.845330778983,84.673403004373,7.611501150115,874404.75607764,17630.792693808,2836464.4232988,12.811501150115,0,0
-31.845330751379,84.694960735656,7.6159315931593,874404.75607764,17630.792693808,2836464.4232988,12.815931593159,0,0
-31.845330723775,84.716518466939,7.6203620362036,874404.75607764,17630.792693808,2836464.4232988,12.820362036204,0,0
-31.845330696172,84.738076198222,7.6247924792479,874404.75607764,17630.792693808,2836464.4232988,12.824792479248,0,0
-31.845330668568,84.759633929506,7.6292229222922,874404.75607764,17630.792693808,2836464.4232988,12.829222922292,0,0
-31.845330640964,84.781191660789,7.6336533653365,874404.75607764,17630.792693808,2836464.4232988,12.833653365337,0,0
-31.845330613361,84.802749392072,7.6380838083808,874404.75607764,17630.792693808,2836464.4232988,12.838083808381,0,0
-31.845330585757,84.824307123355,7.6425142514251,874404.75607764,17630.792693808,2836464.4232988,12.842514251425,0,0
-31.845330558153,84.845864854638,7.6469446944694,874404.75607764,17630.792693808,2836464.4232988,12.846944694469,0,0
-31.845330530549,84.867422585922,7.6513751375138,874404.75607764,17630.792693808,2836464.4232988,12.851375137514,0,0
-31.845330502946,84.888980317205,7.6558055805581,874404.75607764,17630.792693808,2836464.4232988,12.855805580558,0,0
-31.845330475342,84.910538048488,7.6602360236024,874404.75607764,17630.792693808,2836464.4232988,12.860236023602,0,0
-31.845330447738,84.932095779771,7.6646664666467,874404.75607764,17630.792693808,2836464.4232988,12.864666466647,0,0
-31.845330420134,84.953653511054,7.669096909691,874404.75607764,17630.792693808,2836464.4232988,12.869096909691,0,0
-31.845330392531,84.975211242338,7.6735273527353,874404.75607764,17630.792693808,2836464.4232988,12.873527352735,0,0
-31.845330364927,84.996768973621,7.6779577957796,874404.75607764,17630.792693808,2836464.4232988,12.87795779578,0,0
-31.845330337323,85.018326704904,7.6823882388239,874404.75607764,17630.792693808,2836464.4232988,12.882388238824,0,0
-31.845330309719,85.039884436187,7.6868186818682,874404.75607764,17630.792693808,2836464.4232988,12.886818681868,0,0
-31.845330282116,85.06144216747,7.6912491249125,874404.75607764,17630.792693808,2836464.4232988,12.891249124912,0,0
-31.845330254512,85.082999898753,7.6956795679568,874404.75607764,17630.792693808,2836464.4232988,12.895679567957,0,0
-31.845330226908,85.104557630037,7.7001100110011,874404.75607764,17630.792693808,2836464.4232988,12.900110011001,0,0
-31.845330199305,85.12611536132,7.7045404540454,874404.75607764,17630.792693808,2836464.4232988,12.904540454045,0,0
-31.845330171701,85.147673092603,7.7089708970897,874404.75607764,17630.792693808,2836464.4232988,12.90897089709,0,0
-31.845330144097,85.169230823886,7.713401340134,874404.75607764,17630.792693808,2836464.4232988,12.913401340134,0,0
-31.845330116493,85.190788555169,7.7178317831783,874404.75607764,17630.792693808,2836464.4232988,12.917831783178,0,0
-31.84533008889,85.212346286453,7.7222622262226,874404.75607764,17630.792693808,2836464.4232988,12.922262226223,0,0
-31.845330061286,85.233904017736,7.7266926692669,874404.75607764,17630.792693808,2836464.4232988,12.926692669267,0,0
-31.845330033682,85.255461749019,7.7311231123112,874404.75607764,17630.792693808,2836464.4232988,12.931123112311,0,0
-31.845330006078,85.277019480302,7.7355535553555,874404.75607764,17630.792693808,2836464.4232988,12.935553555356,0,0
-31.845329978475,85.298577211585,7.7399839983998,874404.75607764,17630.792693808,2836464.4232988,12.9399839984,0,0
-31.845329950871,85.320134942869,7.7444144414441,874404.75607764,17630.792693808,2836464.4232988,12.944414441444,0,0
-31.845329923267,85.341692674152,7.7488448844884,874404.75607764,17630.792693808,2836464.4232988,12.948844884488,0,0
-31.845329895663,85.363250405435,7.7532753275328,874404.75607764,17630.792693808,2836464.4232988,12.953275327533,0,0
-31.84532986806,85.384808136718,7.7577057705771,874404.75607764,17630.792693808,2836464.4232988,12.957705770577,0,0
-31.845329840456,85.406365868001,7.7621362136214,874404.75607764,17630.792693808,2836464.4232988,12.962136213621,0,0
-31.845329812852,85.427923599285,7.7665666566657,874404.75607764,17630.792693808,2836464.4232988,12.966566656666,0,0
-31.845329785249,85.449481330568,7.77099709971,874404.75607764,17630.792693808,2836464.4232988,12.97099709971,0,0
-31.845329757645,85.471039061851,7.7754275427543,874404.75607764,17630.792693808,2836464.4232988,12.975427542754,0,0
-31.845329730041,85.492596793134,7.7798579857986,874404.75607764,17630.792693808,2836464.4232988,12.979857985799,0,0
-31.845329702437,85.514154524417,7.7842884288429,874404.75607764,17630.792693808,2836464.4232988,12.984288428843,0,0
-31.845329674834,85.5357122557,7.7887188718872,874404.75607764,17630.792693808,2836464.4232988,12.988718871887,0,0
-31.84532964723,85.557269986984,7.7931493149315,874404.75607764,17630.792693808,2836464.4232988,12.993149314931,0,0
-31.845329619626,85.578827718267,7.7975797579758,874404.75607764,17630.792693808,2836464.4232988,12.997579757976,0,0
-31.845329592022,85.60038544955,7.8020102010201,874404.75607764,17630.792693808,2836464.4232988,13.00201020102,0,0
-31.845329564419,85.621943180833,7.8064406440644,874404.75607764,17630.792693808,2836464.4232988,13.006440644064,0,0
-31.845329536815,85.643500912116,7.8108710871087,874404.75607764,17630.792693808,2836464.4232988,13.010871087109,0,0
-31.845329509211,85.6650586434,7.815301530153,874404.75607764,17630.792693808,2836464.4232988,13.015301530153,0,0
-31.845329481608,85.686616374683,7.8197319731973,874404.75607764,17630.792693808,2836464.4232988,13.019731973197,0,0
-31.845329454004,85.708174105966,7.8241624162416,874404.75607764,17630.792693808,2836464.4232988,13.024162416242,0,0
-31.8453294264,85.729731837249,7.8285928592859,874404.75607764,17630.792693808,2836464.4232988,13.028592859286,0,0
-31.845329398796,85.751289568532,7.8330233023302,874404.75607764,17630.792693808,2836464.4232988,13.03302330233,0,0
-31.845329371193,85.772847299816,7.8374537453745,874404.75607764,17630.792693808,2836464.4232988,13.037453745375,0,0
-31.845329343589,85.794405031099,7.8418841884188,874404.75607764,17630.792693808,2836464.4232988,13.041884188419,0,0
-31.845329315985,85.815962762382,7.8463146314631,874404.75607764,17630.792693808,2836464.4232988,13.046314631463,0,0
-31.845329288381,85.837520493665,7.8507450745074,874404.75607764,17630.792693808,2836464.4232988,13.050745074507,0,0
-31.845329260778,85.859078224948,7.8551755175518,874404.75607764,17630.792693808,2836464.4232988,13.055175517552,0,0
-31.845329233174,85.880635956231,7.8596059605961,874404.75607764,17630.792693808,2836464.4232988,13.059605960596,0,0
-31.84532920557,85.902193687515,7.8640364036404,874404.75607764,17630.792693808,2836464.4232988,13.06403640364,0,0
-31.845329177966,85.923751418798,7.8684668466847,874404.75607764,17630.792693808,2836464.4232988,13.068466846685,0,0
-31.845329150363,85.945309150081,7.872897289729,874404.75607764,17630.792693808,2836464.4232988,13.072897289729,0,0
-31.845329122759,85.966866881364,7.8773277327733,874404.75607764,17630.792693808,2836464.4232988,13.077327732773,0,0
-31.845329095155,85.988424612647,7.8817581758176,874404.75607764,17630.792693808,2836464.4232988,13.081758175818,0,0
-31.845329067552,86.009982343931,7.8861886188619,874404.75607764,17630.792693808,2836464.4232988,13.086188618862,0,0
-31.845329039948,86.031540075214,7.8906190619062,874404.75607764,17630.792693808,2836464.4232988,13.090619061906,0,0
-31.845329012344,86.053097806497,7.8950495049505,874404.75607764,17630.792693808,2836464.4232988,13.09504950495,0,0
-31.84532898474,86.07465553778,7.8994799479948,874404.75607764,17630.792693808,2836464.4232988,13.099479947995,0,0
-31.845328957137,86.096213269063,7.9039103910391,874404.75607764,17630.792693808,2836464.4232988,13.103910391039,0,0
-31.845328929533,86.117771000347,7.9083408340834,874404.75607764,17630.792693808,2836464.4232988,13.108340834083,0,0
-31.845328901929,86.13932873163,7.9127712771277,874404.75607764,17630.792693808,2836464.4232988,13.112771277128,0,0
-31.845328874325,86.160886462913,7.917201720172,874404.75607764,17630.792693808,2836464.4232988,13.117201720172,0,0
-31.845328846722,86.182444194196,7.9216321632163,874404.75607764,17630.792693808,2836464.4232988,13.121632163216,0,0
-31.845328819118,86.204001925479,7.9260626062606,874404.75607764,17630.792693808,2836464.4232988,13.126062606261,0,0
-31.845328791514,86.225559656763,7.9304930493049,874404.75607764,17630.792693808,2836464.4232988,13.130493049305,0,0
-31.84532876391,86.247117388046,7.9349234923492,874404.75607764,17630.792693808,2836464.4232988,13.134923492349,0,0
-31.845328736307,86.268675119329,7.9393539353935,874404.75607764,17630.792693808,2836464.4232988,13.139353935394,0,0
-31.845328708703,86.290232850612,7.9437843784378,874404.75607764,17630.792693808,2836464.4232988,13.143784378438,0,0
-31.845328681099,86.311790581895,7.9482148214821,874404.75607764,17630.792693808,2836464.4232988,13.148214821482,0,0
-31.845328653496,86.333348313178,7.9526452645265,874404.75607764,17630.792693808,2836464.4232988,13.152645264526,0,0
-31.845328625892,86.354906044462,7.9570757075708,874404.75607764,17630.792693808,2836464.4232988,13.157075707571,0,0
-31.845328598288,86.376463775745,7.9615061506151,874404.75607764,17630.792693808,2836464.4232988,13.161506150615,0,0
-31.845328570684,86.398021507028,7.9659365936594,874404.75607764,17630.792693808,2836464.4232988,13.165936593659,0,0
-31.845328543081,86.419579238311,7.9703670367037,874404.75607764,17630.792693808,2836464.4232988,13.170367036704,0,0
-31.845328515477,86.441136969594,7.974797479748,874404.75607764,17630.792693808,2836464.4232988,13.174797479748,0,0
-31.845328487873,86.462694700878,7.9792279227923,874404.75607764,17630.792693808,2836464.4232988,13.179227922792,0,0
-31.845328460269,86.484252432161,7.9836583658366,874404.75607764,17630.792693808,2836464.4232988,13.183658365837,0,0
-31.845328432666,86.505810163444,7.9880888088809,874404.75607764,17630.792693808,2836464.4232988,13.188088808881,0,0
-31.845328405062,86.527367894727,7.9925192519252,874404.75607764,17630.792693808,2836464.4232988,13.192519251925,0,0
-31.845328377458,86.54892562601,7.9969496949695,874404.75607764,17630.792693808,2836464.4232988,13.196949694969,0,0
-31.845328349854,86.570483357294,8.0013801380138,874404.75607764,17630.792693808,2836464.4232988,13.201380138014,0,0
-31.845328322251,86.592041088577,8.0058105810581,874404.75607764,17630.792693808,2836464.4232988,13.205810581058,0,0
-31.845328294647,86.61359881986,8.0102410241024,874404.75607764,17630.792693808,2836464.4232988,13.210241024102,0,0
-31.845328267043,86.635156551143,8.0146714671467,874404.75607764,17630.792693808,2836464.4232988,13.214671467147,0,0
-31.84532823944,86.656714282426,8.019101910191,874404.75607764,17630.792693808,2836464.4232988,13.219101910191,0,0
-31.845328211836,86.678272013709,8.0235323532353,874404.75607764,17630.792693808,2836464.4232988,13.223532353235,0,0
-31.845328184232,86.699829744993,8.0279627962796,874404.75607764,17630.792693808,2836464.4232988,13.22796279628,0,0
-31.845328156628,86.721387476276,8.0323932393239,874404.75607764,17630.792693808,2836464.4232988,13.232393239324,0,0
-31.845328129025,86.742945207559,8.0368236823682,874404.75607764,17630.792693808,2836464.4232988,13.236823682368,0,0
-31.845328101421,86.764502938842,8.0412541254125,874404.75607764,17630.792693808,2836464.4232988,13.241254125413,0,0
-31.845328073817,86.786060670125,8.0456845684568,874404.75607764,17630.792693808,2836464.4232988,13.245684568457,0,0
-31.845328046213,86.807618401409,8.0501150115011,874404.75607764,17630.792693808,2836464.4232988,13.250115011501,0,0
-31.84532801861,86.829176132692,8.0545454545455,874404.75607764,17630.792693808,2836464.4232988,13.254545454545,0,0
-31.845327991006,86.850733863975,8.0589758975898,874404.75607764,17630.792693808,2836464.4232988,13.25897589759,0,0
-31.845327963402,86.872291595258,8.0634063406341,874404.75607764,17630.792693808,2836464.4232988,13.263406340634,0,0
-31.845327935798,86.893849326541,8.0678367836784,874404.75607764,17630.792693808,2836464.4232988,13.267836783678,0,0
-31.845327908195,86.915407057825,8.0722672267227,874404.75607764,17630.792693808,2836464.4232988,13.272267226723,0,0
-31.845327880591,86.936964789108,8.076697669767,874404.75607764,17630.792693808,2836464.4232988,13.276697669767,0,0
-31.845327852987,86.958522520391,8.0811281128113,874404.75607764,17630.792693808,2836464.4232988,13.281128112811,0,0
-31.845327825384,86.980080251674,8.0855585558556,874404.75607764,17630.792693808,2836464.4232988,13.285558555856,0,0
-31.84532779778,87.001637982957,8.0899889988999,874404.75607764,17630.792693808,2836464.4232988,13.2899889989,0,0
-31.845327770176,87.02319571424,8.0944194419442,874404.75607764,17630.792693808,2836464.4232988,13.294419441944,0,0
-31.845327742572,87.044753445524,8.0988498849885,874404.75607764,17630.792693808,2836464.4232988,13.298849884988,0,0
-31.845327714969,87.066311176807,8.1032803280328,874404.75607764,17630.792693808,2836464.4232988,13.303280328033,0,0
-31.845327687365,87.08786890809,8.1077107710771,874404.75607764,17630.792693808,2836464.4232988,13.307710771077,0,0
-31.845327659761,87.109426639373,8.1121412141214,874404.75607764,17630.792693808,2836464.4232988,13.312141214121,0,0
-31.845327632157,87.130984370656,8.1165716571657,874404.75607764,17630.792693808,2836464.4232988,13.316571657166,0,0
-31.845327604554,87.15254210194,8.12100210021,874404.75607764,17630.792693808,2836464.4232988,13.32100210021,0,0
-31.84532757695,87.174099833223,8.1254325432543,874404.75607764,17630.792693808,2836464.4232988,13.325432543254,0,0
-31.845327549346,87.195657564506,8.1298629862986,874404.75607764,17630.792693808,2836464.4232988,13.329862986299,0,0
-31.845327521742,87.217215295789,8.1342934293429,874404.75607764,17630.792693808,2836464.4232988,13.334293429343,0,0
-31.845327494139,87.238773027072,8.1387238723872,874404.75607764,17630.792693808,2836464.4232988,13.338723872387,0,0
-31.845327466535,87.260330758356,8.1431543154315,874404.75607764,17630.792693808,2836464.4232988,13.343154315432,0,0
-31.845327438931,87.281888489639,8.1475847584758,874404.75607764,17630.792693808,2836464.4232988,13.347584758476,0,0
-31.845327411328,87.303446220922,8.1520152015202,874404.75607764,17630.792693808,2836464.4232988,13.35201520152,0,0
-31.845327383724,87.325003952205,8.1564456445645,874404.75607764,17630.792693808,2836464.4232988,13.356445644564,0,0
-31.84532735612,87.346561683488,8.1608760876088,874404.75607764,17630.792693808,2836464.4232988,13.360876087609,0,0
-31.845327328516,87.368119414772,8.1653065306531,874404.75607764,17630.792693808,2836464.4232988,13.365306530653,0,0
-31.845327300913,87.389677146055,8.1697369736974,874404.75607764,17630.792693808,2836464.4232988,13.369736973697,0,0
-31.845327273309,87.411234877338,8.1741674167417,874404.75607764,17630.792693808,2836464.4232988,13.374167416742,0,0
-31.845327245705,87.432792608621,8.178597859786,874404.75607764,17630.792693808,2836464.4232988,13.378597859786,0,0
-31.845327218101,87.454350339904,8.1830283028303,874404.75607764,17630.792693808,2836464.4232988,13.38302830283,0,0
-31.845327190498,87.475908071187,8.1874587458746,874404.75607764,17630.792693808,2836464.4232988,13.387458745875,0,0
-31.845327162894,87.497465802471,8.1918891889189,874404.75607764,17630.792693808,2836464.4232988,13.391889188919,0,0
-31.84532713529,87.519023533754,8.1963196319632,874404.75607764,17630.792693808,2836464.4232988,13.396319631963,0,0
-31.845327107686,87.540581265037,8.2007500750075,874404.75607764,17630.792693808,2836464.4232988,13.400750075008,0,0
-31.845327080083,87.56213899632,8.2051805180518,874404.75607764,17630.792693808,2836464.4232988,13.405180518052,0,0
-31.845327052479,87.583696727603,8.2096109610961,874404.75607764,17630.792693808,2836464.4232988,13.409610961096,0,0
-31.845327024875,87.605254458887,8.2140414041404,874404.75607764,17630.792693808,2836464.4232988,13.41404140414,0,0
-31.845326997272,87.62681219017,8.2184718471847,874404.75607764,17630.792693808,2836464.4232988,13.418471847185,0,0
-31.845326969668,87.648369921453,8.222902290229,874404.75607764,17630.792693808,2836464.4232988,13.422902290229,0,0
-31.845326942064,87.669927652736,8.2273327332733,874404.75607764,17630.792693808,2836464.4232988,13.427332733273,0,0
-31.84532691446,87.691485384019,8.2317631763176,874404.75607764,17630.792693808,2836464.4232988,13.431763176318,0,0
-31.845326886857,87.713043115303,8.2361936193619,874404.75607764,17630.792693808,2836464.4232988,13.436193619362,0,0
-31.845326859253,87.734600846586,8.2406240624062,874404.75607764,17630.792693808,2836464.4232988,13.440624062406,0,0
-31.845326831649,87.756158577869,8.2450545054505,874404.75607764,17630.792693808,2836464.4232988,13.445054505451,0,0
-31.845326804045,87.777716309152,8.2494849484948,874404.75607764,17630.792693808,2836464.4232988,13.449484948495,0,0
-31.845326776442,87.799274040435,8.2539153915392,874404.75607764,17630.792693808,2836464.4232988,13.453915391539,0,0
-31.845326748838,87.820831771718,8.2583458345835,874404.75607764,17630.792693808,2836464.4232988,13.458345834583,0,0
-31.845326721234,87.842389503002,8.2627762776278,874404.75607764,17630.792693808,2836464.4232988,13.462776277628,0,0
-31.84532669363,87.863947234285,8.2672067206721,874404.75607764,17630.792693808,2836464.4232988,13.467206720672,0,0
-31.845326666027,87.885504965568,8.2716371637164,874404.75607764,17630.792693808,2836464.4232988,13.471637163716,0,0
-31.845326638423,87.907062696851,8.2760676067607,874404.75607764,17630.792693808,2836464.4232988,13.476067606761,0,0
-31.845326610819,87.928620428134,8.280498049805,874404.75607764,17630.792693808,2836464.4232988,13.480498049805,0,0
-31.845326583216,87.950178159418,8.2849284928493,874404.75607764,17630.792693808,2836464.4232988,13.484928492849,0,0
-31.845326555612,87.971735890701,8.2893589358936,874404.75607764,17630.792693808,2836464.4232988,13.489358935894,0,0
-31.845326528008,87.993293621984,8.2937893789379,874404.75607764,17630.792693808,2836464.4232988,13.493789378938,0,0
-31.845326500404,88.014851353267,8.2982198219822,874404.75607764,17630.792693808,2836464.4232988,13.498219821982,0,0
-31.845326472801,88.03640908455,8.3026502650265,874404.75607764,17630.792693808,2836464.4232988,13.502650265027,0,0
-31.845326445197,88.057966815834,8.3070807080708,874404.75607764,17630.792693808,2836464.4232988,13.507080708071,0,0
-31.845326417593,88.079524547117,8.3115111511151,874404.75607764,17630.792693808,2836464.4232988,13.511511151115,0,0
-31.845326389989,88.1010822784,8.3159415941594,874404.75607764,17630.792693808,2836464.4232988,13.515941594159,0,0
-31.845326362386,88.122640009683,8.3203720372037,874404.75607764,17630.792693808,2836464.4232988,13.520372037204,0,0
-31.845326334782,88.144197740966,8.324802480248,874404.75607764,17630.792693808,2836464.4232988,13.524802480248,0,0
-31.845326307178,88.16575547225,8.3292329232923,874404.75607764,17630.792693808,2836464.4232988,13.529232923292,0,0
-31.845326279574,88.187313203533,8.3336633663366,874404.75607764,17630.792693808,2836464.4232988,13.533663366337,0,0
-31.845326251971,88.208870934816,8.3380938093809,874404.75607764,17630.792693808,2836464.4232988,13.538093809381,0,0
-31.845326224579,88.230428664617,8.3425242524252,861811.06817321,5150.4730936357,2811708.6436646,13.542524252425,0,0
-31.845326197322,88.251986393477,8.3469546954695,861811.06817321,5150.4730936357,2811708.6436646,13.54695469547,0,0
-31.845326170168,88.273544122678,8.3513851385139,847618.53274188,16798.536573788,2793536.2796137,13.551385138514,0,0
-31.845326143561,88.295101853695,8.3558155815582,847618.53274188,16798.536573788,2793536.2796137,13.555815581558,0,0
-31.845326116954,88.316659584713,8.3602460246025,847618.53274188,16798.536573788,2793536.2796137,13.560246024602,0,0
-31.845326090347,88.33821731573,8.3646764676468,847618.53274188,16798.536573788,2793536.2796137,13.564676467647,0,0
-31.845326063739,88.359775046748,8.3691069106911,847618.53274188,16798.536573788,2793536.2796137,13.569106910691,0,0
-31.845326037132,88.381332777765,8.3735373537354,847618.53274188,16798.536573788,2793536.2796137,13.573537353735,0,0
-31.845326010525,88.402890508783,8.3779677967797,847618.53274188,16798.536573788,2793536.2796137,13.57796779678,0,0
-31.845325983918,88.424448239801,8.382398239824,847618.53274188,16798.536573788,2793536.2796137,13.582398239824,0,0
-31.845325957311,88.446005970818,8.3868286828683,847618.53274188,16798.536573788,2793536.2796137,13.586828682868,0,0
-31.845325930704,88.467563701836,8.3912591259126,847618.53274188,16798.536573788,2793536.2796137,13.591259125913,0,0
-31.845325904097,88.489121432853,8.3956895689569,847618.53274188,16798.536573788,2793536.2796137,13.595689568957,0,0
-31.845325877489,88.510679163871,8.4001200120012,847618.53274188,16798.536573788,2793536.2796137,13.600120012001,0,0
-31.845325850882,88.532236894889,8.4045504550455,847618.53274188,16798.536573788,2793536.2796137,13.604550455046,0,0
-31.845325824275,88.553794625906,8.4089808980898,847618.53274188,16798.536573788,2793536.2796137,13.60898089809,0,0
-31.845325797668,88.575352356924,8.4134113411341,847618.53274188,16798.536573788,2793536.2796137,13.613411341134,0,0
-31.845325771061,88.596910087941,8.4178417841784,847618.53274188,16798.536573788,2793536.2796137,13.617841784178,0,0
-31.845325744454,88.618467818959,8.4222722272227,847618.53274188,16798.536573788,2793536.2796137,13.622272227223,0,0
-31.845325717847,88.640025549976,8.426702670267,847618.53274188,16798.536573788,2793536.2796137,13.626702670267,0,0
-31.845325691239,88.661583280994,8.4311331133113,847618.53274188,16798.536573788,2793536.2796137,13.631133113311,0,0
-31.845325664632,88.683141012012,8.4355635563556,847618.53274188,16798.536573788,2793536.2796137,13.635563556356,0,0
-31.845325638025,88.704698743029,8.4399939993999,847618.53274188,16798.536573788,2793536.2796137,13.6399939994,0,0
-31.845325611418,88.726256474047,8.4444244424442,847618.53274188,16798.536573788,2793536.2796137,13.644424442444,0,0
-31.845325584811,88.747814205064,8.4488548854885,847618.53274188,16798.536573788,2793536.2796137,13.648854885489,0,0
-31.845325558204,88.769371936082,8.4532853285329,847618.53274188,16798.536573788,2793536.2796137,13.653285328533,0,0
-31.845325531597,88.7909296671,8.4577157715772,847618.53274188,16798.536573788,2793536.2796137,13.657715771577,0,0
-31.84532550499,88.812487398117,8.4621462146215,847618.53274188,16798.536573788,2793536.2796137,13.662146214621,0,0
-31.845325478382,88.834045129135,8.4665766576658,847618.53274188,16798.536573788,2793536.2796137,13.666576657666,0,0
-31.845325451775,88.855602860152,8.4710071007101,847618.53274188,16798.536573788,2793536.2796137,13.67100710071,0,0
-31.845325425168,88.87716059117,8.4754375437544,847618.53274188,16798.536573788,2793536.2796137,13.675437543754,0,0
-31.845325398561,88.898718322188,8.4798679867987,847618.53274188,16798.536573788,2793536.2796137,13.679867986799,0,0
-31.845325371954,88.920276053205,8.484298429843,847618.53274188,16798.536573788,2793536.2796137,13.684298429843,0,0
-31.845325345347,88.941833784223,8.4887288728873,847618.53274188,16798.536573788,2793536.2796137,13.688728872887,0,0
-31.845325318671,88.963391515244,8.4931593159316,851914.58985264,-16145.3360829,2789709.208505,13.693159315932,0,0
-31.845325291619,88.984949246288,8.4975897589759,851914.58985264,-16145.3360829,2789709.208505,13.697589758976,0,0
-31.845325264567,89.006506977333,8.5020202020202,851914.58985264,-16145.3360829,2789709.208505,13.70202020202,0,0
-31.845325237515,89.028064708377,8.5064506450645,851914.58985264,-16145.3360829,2789709.208505,13.706450645065,0,0
-31.845325210463,89.049622439421,8.5108810881088,851914.58985264,-16145.3360829,2789709.208505,13.710881088109,0,0
-31.845325183411,89.071180170465,8.5153115311531,851914.58985264,-16145.3360829,2789709.208505,13.715311531153,0,0
-31.845325156358,89.092737901509,8.5197419741974,851914.58985264,-16145.3360829,2789709.208505,13.719741974197,0,0
-31.845325129306,89.114295632553,8.5241724172417,851914.58985264,-16145.3360829,2789709.208505,13.724172417242,0,0
-31.845325102254,89.135853363597,8.528602860286,851914.58985264,-16145.3360829,2789709.208505,13.728602860286,0,0
-31.845325075202,89.157411094641,8.5330333033303,851914.58985264,-16145.3360829,2789709.208505,13.73303330333,0,0
-31.84532504815,89.178968825686,8.5374637463746,851914.58985264,-16145.3360829,2789709.208505,13.737463746375,0,0
-31.845325021097,89.20052655673,8.5418941894189,851914.58985264,-16145.3360829,2789709.208505,13.741894189419,0,0
-31.845324994045,89.222084287774,8.5463246324632,851914.58985264,-16145.3360829,2789709.208505,13.746324632463,0,0
-31.845324966993,89.243642018818,8.5507550755075,851914.58985264,-16145.3360829,2789709.208505,13.750755075508,0,0
-31.845324939941,89.265199749862,8.5551855185519,851914.58985264,-16145.3360829,2789709.208505,13.755185518552,0,0
-31.845324912889,89.286757480906,8.5596159615962,851914.58985264,-16145.3360829,2789709.208505,13.759615961596,0,0
-31.845324885837,89.30831521195,8.5640464046405,851914.58985264,-16145.3360829,2789709.208505,13.76404640464,0,0
-31.845324858784,89.329872942994,8.5684768476848,851914.58985264,-16145.3360829,2789709.208505,13.768476847685,0,0
-31.845324831732,89.351430674039,8.5729072907291,851914.58985264,-16145.3360829,2789709.208505,13.772907290729,0,0
-31.84532480468,89.372988405083,8.5773377337734,851914.58985264,-16145.3360829,2789709.208505,13.777337733773,0,0
-31.845324777628,89.394546136127,8.5817681768177,851914.58985264,-16145.3360829,2789709.208505,13.781768176818,0,0
-31.845324750576,89.416103867171,8.586198619862,851914.58985264,-16145.3360829,2789709.208505,13.786198619862,0,0
-31.845324723523,89.437661598215,8.5906290629063,851914.58985264,-16145.3360829,2789709.208505,13.790629062906,0,0
-31.845324696471,89.459219329259,8.5950595059506,851914.58985264,-16145.3360829,2789709.208505,13.795059505951,0,0
-31.845324669419,89.480777060303,8.5994899489949,851914.58985264,-16145.3360829,2789709.208505,13.799489948995,0,0
-31.845324642367,89.502334791347,8.6039203920392,851914.58985264,-16145.3360829,2789709.208505,13.803920392039,0,0
-31.845324615315,89.523892522392,8.6083508350835,851914.58985264,-16145.3360829,2789709.208505,13.808350835084,0,0
-31.845324588263,89.545450253436,8.6127812781278,851914.58985264,-16145.3360829,2789709.208505,13.812781278128,0,0
-31.84532456121,89.56700798448,8.6172117211721,851914.58985264,-16145.3360829,2789709.208505,13.817211721172,0,0
-31.845324534158,89.588565715524,8.6216421642164,851914.58985264,-16145.3360829,2789709.208505,13.821642164216,0,0
-31.845324507106,89.610123446568,8.6260726072607,851914.58985264,-16145.3360829,2789709.208505,13.826072607261,0,0
-31.845324480054,89.631681177612,8.630503050305,851914.58985264,-16145.3360829,2789709.208505,13.830503050305,0,0
-31.845324453002,89.653238908656,8.6349334933493,851914.58985264,-16145.3360829,2789709.208505,13.834933493349,0,0
-31.845324425949,89.674796639701,8.6393639363936,851914.58985264,-16145.3360829,2789709.208505,13.839363936394,0,0
-31.845324398897,89.696354370745,8.6437943794379,851914.58985264,-16145.3360829,2789709.208505,13.843794379438,0,0
-31.845324371845,89.717912101789,8.6482248224822,851914.58985264,-16145.3360829,2789709.208505,13.848224822482,0,0
-31.845324344793,89.739469832833,8.6526552655266,851914.58985264,-16145.3360829,2789709.208505,13.852655265527,0,0
-31.845324317741,89.761027563877,8.6570857085709,851914.58985264,-16145.3360829,2789709.208505,13.857085708571,0,0
-31.845324290689,89.782585294921,8.6615161516152,851914.58985264,-16145.3360829,2789709.208505,13.861516151615,0,0
-31.845324263636,89.804143025965,8.6659465946595,851914.58985264,-16145.3360829,2789709.208505,13.865946594659,0,0
-31.845324236584,89.825700757009,8.6703770377038,851914.58985264,-16145.3360829,2789709.208505,13.870377037704,0,0
-31.845324209532,89.847258488054,8.6748074807481,851914.58985264,-16145.3360829,2789709.208505,13.874807480748,0,0
-31.84532418248,89.868816219098,8.6792379237924,851914.58985264,-16145.3360829,2789709.208505,13.879237923792,0,0
-31.845324155428,89.890373950142,8.6836683668367,851914.58985264,-16145.3360829,2789709.208505,13.883668366837,0,0
-31.845324128375,89.911931681186,8.688098809881,851914.58985264,-16145.3360829,2789709.208505,13.888098809881,0,0
-31.845324101323,89.93348941223,8.6925292529253,851914.58985264,-16145.3360829,2789709.208505,13.892529252925,0,0
-31.845324074271,89.955047143274,8.6969596959696,851914.58985264,-16145.3360829,2789709.208505,13.89695969597,0,0
-31.845324047219,89.976604874318,8.7013901390139,851914.58985264,-16145.3360829,2789709.208505,13.901390139014,0,0
-31.845324020167,89.998162605362,8.7058205820582,851914.58985264,-16145.3360829,2789709.208505,13.905820582058,0,0
-31.845323993115,90.019720336407,8.7102510251025,851914.58985264,-16145.3360829,2789709.208505,13.910251025103,0,0
-31.845323966062,90.041278067451,8.7146814681468,851914.58985264,-16145.3360829,2789709.208505,13.914681468147,0,0
-31.84532393901,90.062835798495,8.7191119111911,851914.58985264,-16145.3360829,2789709.208505,13.919111911191,0,0
-31.845323911958,90.084393529539,8.7235423542354,851914.58985264,-16145.3360829,2789709.208505,13.923542354235,0,0
-31.845323884906,90.105951260583,8.7279727972797,851914.58985264,-16145.3360829,2789709.208505,13.92797279728,0,0
-31.845323857854,90.127508991627,8.732403240324,851914.58985264,-16145.3360829,2789709.208505,13.932403240324,0,0
-31.845323830801,90.149066722671,8.7368336833683,851914.58985264,-16145.3360829,2789709.208505,13.936833683368,0,0
-31.845323803749,90.170624453715,8.7412641264126,851914.58985264,-16145.3360829,2789709.208505,13.941264126413,0,0
-31.845323776697,90.19218218476,8.7456945694569,851914.58985264,-16145.3360829,2789709.208505,13.945694569457,0,0
-31.845323749645,90.213739915804,8.7501250125013,851914.58985264,-16145.3360829,2789709.208505,13.950125012501,0,0
-31.845323722593,90.235297646848,8.7545554555456,851914.58985264,-16145.3360829,2789709.208505,13.954555455546,0,0
-31.84532369554,90.256855377892,8.7589858985899,851914.58985264,-16145.3360829,2789709.208505,13.95898589859,0,0
-31.845323668488,90.278413108936,8.7634163416342,851914.58985264,-16145.3360829,2789709.208505,13.963416341634,0,0
-31.845323641436,90.29997083998,8.7678467846785,851914.58985264,-16145.3360829,2789709.208505,13.967846784678,0,0
-31.845323614384,90.321528571024,8.7722772277228,851914.58985264,-16145.3360829,2789709.208505,13.972277227723,0,0
-31.845323587332,90.343086302068,8.7767076707671,851914.58985264,-16145.3360829,2789709.208505,13.976707670767,0,0
-31.84532356028,90.364644033113,8.7811381138114,851914.58985264,-16145.3360829,2789709.208505,13.981138113811,0,0
-31.845323533227,90.386201764157,8.7855685568557,851914.58985264,-16145.3360829,2789709.208505,13.985568556856,0,0
-31.845323506175,90.407759495201,8.7899989999,851914.58985264,-16145.3360829,2789709.208505,13.9899989999,0,0
-31.845323479123,90.429317226245,8.7944294429443,851914.58985264,-16145.3360829,2789709.208505,13.994429442944,0,0
-31.845323452071,90.450874957289,8.7988598859886,851914.58985264,-16145.3360829,2789709.208505,13.998859885989,0,0
-31.845323425019,90.472432688333,8.8032903290329,851914.58985264,-16145.3360829,2789709.208505,14.003290329033,0,0
-31.845323397966,90.493990419377,8.8077207720772,851914.58985264,-16145.3360829,2789709.208505,14.007720772077,0,0
-31.845323370914,90.515548150421,8.8121512151215,851914.58985264,-16145.3360829,2789709.208505,14.012151215122,0,0
-31.845323343862,90.537105881466,8.8165816581658,851914.58985264,-16145.3360829,2789709.208505,14.016581658166,0,0
-31.84532331681,90.55866361251,8.8210121012101,851914.58985264,-16145.3360829,2789709.208505,14.02101210121,0,0
-31.845323289758,90.580221343554,8.8254425442544,851914.58985264,-16145.3360829,2789709.208505,14.025442544254,0,0
-31.845323262706,90.601779074598,8.8298729872987,851914.58985264,-16145.3360829,2789709.208505,14.029872987299,0,0
-31.845323235653,90.623336805642,8.834303430343,851914.58985264,-16145.3360829,2789709.208505,14.034303430343,0,0
-31.845323208601,90.644894536686,8.8387338733873,851914.58985264,-16145.3360829,2789709.208505,14.038733873387,0,0
-31.845323181549,90.66645226773,8.8431643164316,851914.58985264,-16145.3360829,2789709.208505,14.043164316432,0,0
-31.845323154497,90.688009998774,8.8475947594759,851914.58985264,-16145.3360829,2789709.208505,14.047594759476,0,0
-31.845323127445,90.709567729819,8.8520252025203,851914.58985264,-16145.3360829,2789709.208505,14.05202520252,0,0
-31.845323100392,90.731125460863,8.8564556455646,851914.58985264,-16145.3360829,2789709.208505,14.056455645565,0,0
-31.84532307334,90.752683191907,8.8608860886089,851914.58985264,-16145.3360829,2789709.208505,14.060886088609,0,0
-31.845323046288,90.774240922951,8.8653165316532,851914.58985264,-16145.3360829,2789709.208505,14.065316531653,0,0
-31.845323019236,90.795798653995,8.8697469746975,851914.58985264,-16145.3360829,2789709.208505,14.069746974697,0,0
-31.845322992184,90.817356385039,8.8741774177418,851914.58985264,-16145.3360829,2789709.208505,14.074177417742,0,0
-31.845322965132,90.838914116083,8.8786078607861,851914.58985264,-16145.3360829,2789709.208505,14.078607860786,0,0
-31.845322938079,90.860471847128,8.8830383038304,851914.58985264,-16145.3360829,2789709.208505,14.08303830383,0,0
-31.845322911027,90.882029578172,8.8874687468747,851914.58985264,-16145.3360829,2789709.208505,14.087468746875,0,0
-31.845322883975,90.903587309216,8.891899189919,851914.58985264,-16145.3360829,2789709.208505,14.091899189919,0,0
-31.845322856923,90.92514504026,8.8963296329633,851914.58985264,-16145.3360829,2789709.208505,14.096329632963,0,0
-31.845322829871,90.946702771304,8.9007600760076,851914.58985264,-16145.3360829,2789709.208505,14.100760076008,0,0
-31.845322802818,90.968260502348,8.9051905190519,851914.58985264,-16145.3360829,2789709.208505,14.105190519052,0,0
-31.845322775766,90.989818233392,8.9096209620962,851914.58985264,-16145.3360829,2789709.208505,14.109620962096,0,0
-31.845322748714,91.011375964436,8.9140514051405,851914.58985264,-16145.3360829,2789709.208505,14.114051405141,0,0
-31.845322721662,91.032933695481,8.9184818481848,851914.58985264,-16145.3360829,2789709.208505,14.118481848185,0,0
-31.84532269461,91.054491426525,8.9229122912291,851914.58985264,-16145.3360829,2789709.208505,14.122912291229,0,0
-31.845322667558,91.076049157569,8.9273427342734,851914.58985264,-16145.3360829,2789709.208505,14.127342734273,0,0
-31.845322640505,91.097606888613,8.9317731773177,851914.58985264,-16145.3360829,2789709.208505,14.131773177318,0,0
-31.845322613453,91.119164619657,8.936203620362,851914.58985264,-16145.3360829,2789709.208505,14.136203620362,0,0
-31.845322586401,91.140722350701,8.9406340634063,851914.58985264,-16145.3360829,2789709.208505,14.140634063406,0,0
-31.845322559349,91.162280081745,8.9450645064506,851914.58985264,-16145.3360829,2789709.208505,14.145064506451,0,0
-31.845322532297,91.183837812789,8.9494949494949,851914.58985264,-16145.3360829,2789709.208505,14.149494949495,0,0
-31.845322505244,91.205395543834,8.9539253925393,851914.58985264,-16145.3360829,2789709.208505,14.153925392539,0,0
-31.845322478192,91.226953274878,8.9583558355836,851914.58985264,-16145.3360829,2789709.208505,14.158355835584,0,0
-31.84532245114,91.248511005922,8.9627862786279,851914.58985264,-16145.3360829,2789709.208505,14.162786278628,0,0
-31.845322424088,91.270068736966,8.9672167216722,851914.58985264,-16145.3360829,2789709.208505,14.167216721672,0,0
-31.845322397036,91.29162646801,8.9716471647165,851914.58985264,-16145.3360829,2789709.208505,14.171647164716,0,0
-31.845322369984,91.313184199054,8.9760776077608,851914.58985264,-16145.3360829,2789709.208505,14.176077607761,0,0
-31.845322342931,91.334741930098,8.9805080508051,851914.58985264,-16145.3360829,2789709.208505,14.180508050805,0,0
-31.845322315879,91.356299661142,8.9849384938494,851914.58985264,-16145.3360829,2789709.208505,14.184938493849,0,0
-31.845322288827,91.377857392187,8.9893689368937,851914.58985264,-16145.3360829,2789709.208505,14.189368936894,0,0
-31.845322261775,91.399415123231,8.993799379938,851914.58985264,-16145.3360829,2789709.208505,14.193799379938,0,0
-31.845322234723,91.420972854275,8.9982298229823,851914.58985264,-16145.3360829,2789709.208505,14.198229822982,0,0
-31.84532220767,91.442530585319,9.0026602660266,851914.58985264,-16145.3360829,2789709.208505,14.202660266027,0,0
-31.845322180618,91.464088316363,9.0070907090709,851914.58985264,-16145.3360829,2789709.208505,14.207090709071,0,0
-31.845322153566,91.485646047407,9.0115211521152,851914.58985264,-16145.3360829,2789709.208505,14.211521152115,0,0
-31.845322126514,91.507203778451,9.0159515951595,851914.58985264,-16145.3360829,2789709.208505,14.21595159516,0,0
-31.845322099462,91.528761509495,9.0203820382038,851914.58985264,-16145.3360829,2789709.208505,14.220382038204,0,0
-31.84532207241,91.55031924054,9.0248124812481,851914.58985264,-16145.3360829,2789709.208505,14.224812481248,0,0
-31.845322045357,91.571876971584,9.0292429242924,851914.58985264,-16145.3360829,2789709.208505,14.229242924292,0,0
-31.845322018305,91.593434702628,9.0336733673367,851914.58985264,-16145.3360829,2789709.208505,14.233673367337,0,0
-31.845321991253,91.614992433672,9.038103810381,851914.58985264,-16145.3360829,2789709.208505,14.238103810381,0,0
-31.845321964201,91.636550164716,9.0425342534253,851914.58985264,-16145.3360829,2789709.208505,14.242534253425,0,0
-31.845321937149,91.65810789576,9.0469646964696,851914.58985264,-16145.3360829,2789709.208505,14.24696469647,0,0
-31.845321910096,91.679665626804,9.051395139514,851914.58985264,-16145.3360829,2789709.208505,14.251395139514,0,0
-31.845321883044,91.701223357848,9.0558255825583,851914.58985264,-16145.3360829,2789709.208505,14.255825582558,0,0
-31.845321855992,91.722781088893,9.0602560256026,851914.58985264,-16145.3360829,2789709.208505,14.260256025603,0,0
-31.84532182894,91.744338819937,9.0646864686469,851914.58985264,-16145.3360829,2789709.208505,14.264686468647,0,0
-31.845321801888,91.765896550981,9.0691169116912,851914.58985264,-16145.3360829,2789709.208505,14.269116911691,0,0
-31.845321774835,91.787454282025,9.0735473547355,851914.58985264,-16145.3360829,2789709.208505,14.273547354735,0,0
-31.845321747783,91.809012013069,9.0779777977798,851914.58985264,-16145.3360829,2789709.208505,14.27797779778,0,0
-31.845321720731,91.830569744113,9.0824082408241,851914.58985264,-16145.3360829,2789709.208505,14.282408240824,0,0
-31.845321693679,91.852127475157,9.0868386838684,851914.58985264,-16145.3360829,2789709.208505,14.286838683868,0,0
-31.845321666627,91.873685206202,9.0912691269127,851914.58985264,-16145.3360829,2789709.208505,14.291269126913,0,0
-31.845321639575,91.895242937246,9.095699569957,851914.58985264,-16145.3360829,2789709.208505,14.295699569957,0,0
-31.845321612522,91.91680066829,9.1001300130013,851914.58985264,-16145.3360829,2789709.208505,14.300130013001,0,0
-31.84532158547,91.938358399334,9.1045604560456,851914.58985264,-16145.3360829,2789709.208505,14.304560456046,0,0
-31.845321558418,91.959916130378,9.1089908990899,851914.58985264,-16145.3360829,2789709.208505,14.30899089909,0,0
-31.845321531366,91.981473861422,9.1134213421342,851914.58985264,-16145.3360829,2789709.208505,14.313421342134,0,0
-31.845321504314,92.003031592466,9.1178517851785,851914.58985264,-16145.3360829,2789709.208505,14.317851785179,0,0
-31.845321477261,92.02458932351,9.1222822282228,851914.58985264,-16145.3360829,2789709.208505,14.322282228223,0,0
-31.845321450209,92.046147054555,9.1267126712671,851914.58985264,-16145.3360829,2789709.208505,14.326712671267,0,0
-31.845321423157,92.067704785599,9.1311431143114,851914.58985264,-16145.3360829,2789709.208505,14.331143114311,0,0
-31.845321396105,92.089262516643,9.1355735573557,851914.58985264,-16145.3360829,2789709.208505,14.335573557356,0,0
-31.845321369053,92.110820247687,9.1400040004,851914.58985264,-16145.3360829,2789709.208505,14.3400040004,0,0
-31.845321342001,92.132377978731,9.1444344434443,851914.58985264,-16145.3360829,2789709.208505,14.344434443444,0,0
-31.845321314948,92.153935709775,9.1488648864886,851914.58985264,-16145.3360829,2789709.208505,14.348864886489,0,0
-31.845321287896,92.175493440819,9.153295329533,851914.58985264,-16145.3360829,2789709.208505,14.353295329533,0,0
-31.845321260844,92.197051171863,9.1577257725773,851914.58985264,-16145.3360829,2789709.208505,14.357725772577,0,0
-31.845321233792,92.218608902908,9.1621562156216,851914.58985264,-16145.3360829,2789709.208505,14.362156215622,0,0
-31.84532120674,92.240166633952,9.1665866586659,851914.58985264,-16145.3360829,2789709.208505,14.366586658666,0,0
-31.845321179687,92.261724364996,9.1710171017102,851914.58985264,-16145.3360829,2789709.208505,14.37101710171,0,0
-31.845321152635,92.28328209604,9.1754475447545,851914.58985264,-16145.3360829,2789709.208505,14.375447544754,0,0
-31.845321125583,92.304839827084,9.1798779877988,851914.58985264,-16145.3360829,2789709.208505,14.379877987799,0,0
-31.845321098531,92.326397558128,9.1843084308431,851914.58985264,-16145.3360829,2789709.208505,14.384308430843,0,0
-31.845321071479,92.347955289172,9.1887388738874,851914.58985264,-16145.3360829,2789709.208505,14.388738873887,0,0
-31.845321044427,92.369513020216,9.1931693169317,851914.58985264,-16145.3360829,2789709.208505,14.393169316932,0,0
-31.845321017374,92.391070751261,9.197599759976,851914.58985264,-16145.3360829,2789709.208505,14.397599759976,0,0
-31.845320990322,92.412628482305,9.2020302030203,851914.58985264,-16145.3360829,2789709.208505,14.40203020302,0,0
-31.84532096327,92.434186213349,9.2064606460646,851914.58985264,-16145.3360829,2789709.208505,14.406460646065,0,0
-31.845320936218,92.455743944393,9.2108910891089,851914.58985264,-16145.3360829,2789709.208505,14.410891089109,0,0
-31.845320909166,92.477301675437,9.2153215321532,851914.58985264,-16145.3360829,2789709.208505,14.415321532153,0,0
-31.845320882113,92.498859406481,9.2197519751975,851914.58985264,-16145.3360829,2789709.208505,14.419751975198,0,0
-31.845320855061,92.520417137525,9.2241824182418,851914.58985264,-16145.3360829,2789709.208505,14.424182418242,0,0
-31.845320828009,92.541974868569,9.2286128612861,851914.58985264,-16145.3360829,2789709.208505,14.428612861286,0,0
-31.845320800957,92.563532599614,9.2330433043304,851914.58985264,-16145.3360829,2789709.208505,14.43304330433,0,0
-31.845320773905,92.585090330658,9.2374737473747,851914.58985264,-16145.3360829,2789709.208505,14.437473747375,0,0
-31.845320746853,92.606648061702,9.241904190419,851914.58985264,-16145.3360829,2789709.208505,14.441904190419,0,0
-31.8453207198,92.628205792746,9.2463346334633,851914.58985264,-16145.3360829,2789709.208505,14.446334633463,0,0
-31.845320692748,92.64976352379,9.2507650765077,851914.58985264,-16145.3360829,2789709.208505,14.450765076508,0,0
-31.845320665696,92.671321254834,9.255195519552,851914.58985264,-16145.3360829,2789709.208505,14.455195519552,0,0
-31.845320638644,92.692878985878,9.2596259625963,851914.58985264,-16145.3360829,2789709.208505,14.459625962596,0,0
-31.845320612605,92.714436718195,9.2640564056406,827489.21031111,-4296.2556517524,2770114.4166338,14.464056405641,0,0
-31.845320586982,92.735994451035,9.2684868486849,827489.21031111,-4296.2556517524,2770114.4166338,14.468486848685,0,0
-31.845320561359,92.757552183875,9.2729172917292,827489.21031111,-4296.2556517524,2770114.4166338,14.472917291729,0,0
-31.845320535736,92.779109916715,9.2773477347735,827489.21031111,-4296.2556517524,2770114.4166338,14.477347734773,0,0
-31.845320510113,92.800667649555,9.2817781778178,827489.21031111,-4296.2556517524,2770114.4166338,14.481778177818,0,0
-31.84532048449,92.822225382395,9.2862086208621,827489.21031111,-4296.2556517524,2770114.4166338,14.486208620862,0,0
-31.845320458867,92.843783115235,9.2906390639064,827489.21031111,-4296.2556517524,2770114.4166338,14.490639063906,0,0
-31.845320433244,92.865340848075,9.2950695069507,827489.21031111,-4296.2556517524,2770114.4166338,14.495069506951,0,0
-31.845320407622,92.886898580914,9.299499949995,827489.21031111,-4296.2556517524,2770114.4166338,14.499499949995,0,0
-31.845320381999,92.908456313754,9.3039303930393,827489.21031111,-4296.2556517524,2770114.4166338,14.503930393039,0,0
-31.845320356376,92.930014046594,9.3083608360836,827489.21031111,-4296.2556517524,2770114.4166338,14.508360836084,0,0
-31.845320330753,92.951571779434,9.3127912791279,827489.21031111,-4296.2556517524,2770114.4166338,14.512791279128,0,0
-31.84532030513,92.973129512274,9.3172217221722,827489.21031111,-4296.2556517524,2770114.4166338,14.517221722172,0,0
-31.845320279507,92.994687245114,9.3216521652165,827489.21031111,-4296.2556517524,2770114.4166338,14.521652165217,0,0
-31.845320253669,93.016244977069,9.3260826082608,827307.4852832,-11978.895441871,2751235.0849656,14.526082608261,0,0
-31.845320227557,93.037802707906,9.3305130513051,827307.4852832,-11978.895441871,2751235.0849656,14.530513051305,0,0
-31.845320201446,93.059360438743,9.3349434943494,827307.4852832,-11978.895441871,2751235.0849656,14.534943494349,0,0
-31.845320175335,93.08091816958,9.3393739373937,827307.4852832,-11978.895441871,2751235.0849656,14.539373937394,0,0
-31.845320149224,93.102475900417,9.343804380438,827307.4852832,-11978.895441871,2751235.0849656,14.543804380438,0,0
-31.845320123113,93.124033631255,9.3482348234823,827307.4852832,-11978.895441871,2751235.0849656,14.548234823482,0,0
-31.845320097002,93.145591362092,9.3526652665267,827307.4852832,-11978.895441871,2751235.0849656,14.552665266527,0,0
-31.845320070891,93.167149092929,9.357095709571,827307.4852832,-11978.895441871,2751235.0849656,14.557095709571,0,0
-31.84532004478,93.188706823766,9.3615261526153,827307.4852832,-11978.895441871,2751235.0849656,14.561526152615,0,0
-31.845320018669,93.210264554603,9.3659565956596,827307.4852832,-11978.895441871,2751235.0849656,14.56595659566,0,0
-31.845319992558,93.23182228544,9.3703870387039,827307.4852832,-11978.895441871,2751235.0849656,14.570387038704,0,0
-31.845319966447,93.253380016277,9.3748174817482,827307.4852832,-11978.895441871,2751235.0849656,14.574817481748,0,0
-31.845319940336,93.274937747114,9.3792479247925,827307.4852832,-11978.895441871,2751235.0849656,14.579247924792,0,0
-31.845319914225,93.296495477951,9.3836783678368,827307.4852832,-11978.895441871,2751235.0849656,14.583678367837,0,0
-31.845319888114,93.318053208788,9.3881088108811,827307.4852832,-11978.895441871,2751235.0849656,14.588108810881,0,0
-31.845319862003,93.339610939625,9.3925392539254,827307.4852832,-11978.895441871,2751235.0849656,14.592539253925,0,0
-31.845319835892,93.361168670463,9.3969696969697,827307.4852832,-11978.895441871,2751235.0849656,14.59696969697,0,0
-31.845319809781,93.3827264013,9.401400140014,827307.4852832,-11978.895441871,2751235.0849656,14.601400140014,0,0
-31.84531978367,93.404284132137,9.4058305830583,827307.4852832,-11978.895441871,2751235.0849656,14.605830583058,0,0
-31.845319757558,93.425841862974,9.4102610261026,827307.4852832,-11978.895441871,2751235.0849656,14.610261026103,0,0
-31.845319731447,93.447399593811,9.4146914691469,827307.4852832,-11978.895441871,2751235.0849656,14.614691469147,0,0
-31.845319705336,93.468957324648,9.4191219121912,827307.4852832,-11978.895441871,2751235.0849656,14.619121912191,0,0
-31.845319679225,93.490515055485,9.4235523552355,827307.4852832,-11978.895441871,2751235.0849656,14.623552355236,0,0
-31.845319653114,93.512072786322,9.4279827982798,827307.4852832,-11978.895441871,2751235.0849656,14.62798279828,0,0
-31.845319627003,93.533630517159,9.4324132413241,827307.4852832,-11978.895441871,2751235.0849656,14.632413241324,0,0
-31.845319600892,93.555188247996,9.4368436843684,827307.4852832,-11978.895441871,2751235.0849656,14.636843684368,0,0
-31.845319574781,93.576745978833,9.4412741274127,827307.4852832,-11978.895441871,2751235.0849656,14.641274127413,0,0
-31.84531954867,93.598303709671,9.445704570457,827307.4852832,-11978.895441871,2751235.0849656,14.645704570457,0,0
-31.845319522559,93.619861440508,9.4501350135013,827307.4852832,-11978.895441871,2751235.0849656,14.650135013501,0,0
-31.845319496448,93.641419171345,9.4545654565457,827307.4852832,-11978.895441871,2751235.0849656,14.654565456546,0,0
-31.845319470337,93.662976902182,9.45899589959,827307.4852832,-11978.895441871,2751235.0849656,14.65899589959,0,0
-31.845319444226,93.684534633019,9.4634263426343,827307.4852832,-11978.895441871,2751235.0849656,14.663426342634,0,0
-31.845319418115,93.706092363856,9.4678567856786,827307.4852832,-11978.895441871,2751235.0849656,14.667856785679,0,0
-31.845319392004,93.727650094693,9.4722872287229,827307.4852832,-11978.895441871,2751235.0849656,14.672287228723,0,0
-31.845319365893,93.74920782553,9.4767176717672,827307.4852832,-11978.895441871,2751235.0849656,14.676717671767,0,0
-31.845319339782,93.770765556367,9.4811481148115,827307.4852832,-11978.895441871,2751235.0849656,14.681148114811,0,0
-31.845319313671,93.792323287204,9.4855785578558,827307.4852832,-11978.895441871,2751235.0849656,14.685578557856,0,0
-31.845319287559,93.813881018041,9.4900090009001,827307.4852832,-11978.895441871,2751235.0849656,14.6900090009,0,0
-31.845319261448,93.835438748879,9.4944394439444,827307.4852832,-11978.895441871,2751235.0849656,14.694439443944,0,0
-31.845319235337,93.856996479716,9.4988698869887,827307.4852832,-11978.895441871,2751235.0849656,14.698869886989,0,0
-31.845319209226,93.878554210553,9.503300330033,827307.4852832,-11978.895441871,2751235.0849656,14.703300330033,0,0
-31.845319183115,93.90011194139,9.5077307730773,827307.4852832,-11978.895441871,2751235.0849656,14.707730773077,0,0
-31.845319157004,93.921669672227,9.5121612161216,827307.4852832,-11978.895441871,2751235.0849656,14.712161216122,0,0
-31.845319130893,93.943227403064,9.5165916591659,827307.4852832,-11978.895441871,2751235.0849656,14.716591659166,0,0
-31.845319104782,93.964785133901,9.5210221022102,827307.4852832,-11978.895441871,2751235.0849656,14.72102210221,0,0
-31.845319078671,93.986342864738,9.5254525452545,827307.4852832,-11978.895441871,2751235.0849656,14.725452545255,0,0
-31.84531905256,94.007900595575,9.5298829882988,827307.4852832,-11978.895441871,2751235.0849656,14.729882988299,0,0
-31.845319026449,94.029458326412,9.5343134313431,827307.4852832,-11978.895441871,2751235.0849656,14.734313431343,0,0
-31.845319000338,94.051016057249,9.5387438743874,827307.4852832,-11978.895441871,2751235.0849656,14.738743874387,0,0
-31.845318974227,94.072573788087,9.5431743174317,827307.4852832,-11978.895441871,2751235.0849656,14.743174317432,0,0
-31.845318948116,94.094131518924,9.547604760476,827307.4852832,-11978.895441871,2751235.0849656,14.747604760476,0,0
-31.845318922005,94.115689249761,9.5520352035204,827307.4852832,-11978.895441871,2751235.0849656,14.75203520352,0,0
-31.845318895894,94.137246980598,9.5564656465647,827307.4852832,-11978.895441871,2751235.0849656,14.756465646565,0,0
-31.845318869783,94.158804711435,9.560896089609,827307.4852832,-11978.895441871,2751235.0849656,14.760896089609,0,0
-31.845318843672,94.180362442272,9.5653265326533,827307.4852832,-11978.895441871,2751235.0849656,14.765326532653,0,0
-31.84531881756,94.201920173109,9.5697569756976,827307.4852832,-11978.895441871,2751235.0849656,14.769756975698,0,0
-31.845318791449,94.223477903946,9.5741874187419,827307.4852832,-11978.895441871,2751235.0849656,14.774187418742,0,0
-31.845318765338,94.245035634783,9.5786178617862,827307.4852832,-11978.895441871,2751235.0849656,14.778617861786,0,0
-31.845318739227,94.26659336562,9.5830483048305,827307.4852832,-11978.895441871,2751235.0849656,14.78304830483,0,0
-31.845318713116,94.288151096457,9.5874787478748,827307.4852832,-11978.895441871,2751235.0849656,14.787478747875,0,0
-31.845318687005,94.309708827295,9.5919091909191,827307.4852832,-11978.895441871,2751235.0849656,14.791909190919,0,0
-31.845318660894,94.331266558132,9.5963396339634,827307.4852832,-11978.895441871,2751235.0849656,14.796339633963,0,0
-31.845318634783,94.352824288969,9.6007700770077,827307.4852832,-11978.895441871,2751235.0849656,14.800770077008,0,0
-31.845318608672,94.374382019806,9.605200520052,827307.4852832,-11978.895441871,2751235.0849656,14.805200520052,0,0
-31.845318582561,94.395939750643,9.6096309630963,827307.4852832,-11978.895441871,2751235.0849656,14.809630963096,0,0
-31.84531855645,94.41749748148,9.6140614061406,827307.4852832,-11978.895441871,2751235.0849656,14.814061406141,0,0
-31.845318530339,94.439055212317,9.6184918491849,827307.4852832,-11978.895441871,2751235.0849656,14.818491849185,0,0
-31.845318504228,94.460612943154,9.6229222922292,827307.4852832,-11978.895441871,2751235.0849656,14.822922292229,0,0
-31.845318478117,94.482170673991,9.6273527352735,827307.4852832,-11978.895441871,2751235.0849656,14.827352735274,0,0
-31.845318452006,94.503728404828,9.6317831783178,827307.4852832,-11978.895441871,2751235.0849656,14.831783178318,0,0
-31.845318425895,94.525286135665,9.6362136213621,827307.4852832,-11978.895441871,2751235.0849656,14.836213621362,0,0
-31.845318399784,94.546843866503,9.6406440644064,827307.4852832,-11978.895441871,2751235.0849656,14.840644064406,0,0
-31.845318373673,94.56840159734,9.6450745074507,827307.4852832,-11978.895441871,2751235.0849656,14.845074507451,0,0
-31.845318347561,94.589959328177,9.6495049504951,827307.4852832,-11978.895441871,2751235.0849656,14.849504950495,0,0
-31.84531832145,94.611517059014,9.6539353935394,827307.4852832,-11978.895441871,2751235.0849656,14.853935393539,0,0
-31.845318295339,94.633074789851,9.6583658365837,827307.4852832,-11978.895441871,2751235.0849656,14.858365836584,0,0
-31.845318269228,94.654632520688,9.662796279628,827307.4852832,-11978.895441871,2751235.0849656,14.862796279628,0,0
-31.845318243117,94.676190251525,9.6672267226723,827307.4852832,-11978.895441871,2751235.0849656,14.867226722672,0,0
-31.845318217006,94.697747982362,9.6716571657166,827307.4852832,-11978.895441871,2751235.0849656,14.871657165717,0,0
-31.845318190895,94.719305713199,9.6760876087609,827307.4852832,-11978.895441871,2751235.0849656,14.876087608761,0,0
-31.845318164784,94.740863444036,9.6805180518052,827307.4852832,-11978.895441871,2751235.0849656,14.880518051805,0,0
-31.845318138673,94.762421174874,9.6849484948495,827307.4852832,-11978.895441871,2751235.0849656,14.884948494849,0,0
-31.845318112562,94.783978905711,9.6893789378938,827307.4852832,-11978.895441871,2751235.0849656,14.889378937894,0,0
-31.845318086451,94.805536636548,9.6938093809381,827307.4852832,-11978.895441871,2751235.0849656,14.893809380938,0,0
-31.84531806034,94.827094367385,9.6982398239824,827307.4852832,-11978.895441871,2751235.0849656,14.898239823982,0,0
-31.845318034229,94.848652098222,9.7026702670267,827307.4852832,-11978.895441871,2751235.0849656,14.902670267027,0,0
-31.845318008118,94.870209829059,9.707100710071,827307.4852832,-11978.895441871,2751235.0849656,14.907100710071,0,0
-31.845317982007,94.891767559896,9.7115311531153,827307.4852832,-11978.895441871,2751235.0849656,14.911531153115,0,0
-31.845317955896,94.913325290733,9.7159615961596,827307.4852832,-11978.895441871,2751235.0849656,14.91596159616,0,0
-31.845317929785,94.93488302157,9.7203920392039,827307.4852832,-11978.895441871,2751235.0849656,14.920392039204,0,0
-31.845317903674,94.956440752407,9.7248224822482,827307.4852832,-11978.895441871,2751235.0849656,14.924822482248,0,0
-31.845317877563,94.977998483244,9.7292529252925,827307.4852832,-11978.895441871,2751235.0849656,14.929252925293,0,0
-31.845317851451,94.999556214082,9.7336833683368,827307.4852832,-11978.895441871,2751235.0849656,14.933683368337,0,0
-31.84531782534,95.021113944919,9.7381138113811,827307.4852832,-11978.895441871,2751235.0849656,14.938113811381,0,0
-31.845317799229,95.042671675756,9.7425442544254,827307.4852832,-11978.895441871,2751235.0849656,14.942544254425,0,0
-31.845317773118,95.064229406593,9.7469746974697,827307.4852832,-11978.895441871,2751235.0849656,14.94697469747,0,0
-31.845317747007,95.08578713743,9.7514051405141,827307.4852832,-11978.895441871,2751235.0849656,14.951405140514,0,0
-31.845317720896,95.107344868267,9.7558355835584,827307.4852832,-11978.895441871,2751235.0849656,14.955835583558,0,0
-31.845317694785,95.128902599104,9.7602660266027,827307.4852832,-11978.895441871,2751235.0849656,14.960266026603,0,0
-31.845317668674,95.150460329941,9.764696469647,827307.4852832,-11978.895441871,2751235.0849656,14.964696469647,0,0
-31.845317642563,95.172018060778,9.7691269126913,827307.4852832,-11978.895441871,2751235.0849656,14.969126912691,0,0
-31.845317616452,95.193575791615,9.7735573557356,827307.4852832,-11978.895441871,2751235.0849656,14.973557355736,0,0
-31.845317590341,95.215133522452,9.7779877987799,827307.4852832,-11978.895441871,2751235.0849656,14.97798779878,0,0
-31.84531756423,95.23669125329,9.7824182418242,827307.4852832,-11978.895441871,2751235.0849656,14.982418241824,0,0
-31.845317538119,95.258248984127,9.7868486848685,827307.4852832,-11978.895441871,2751235.0849656,14.986848684868,0,0
-31.845317512008,95.279806714964,9.7912791279128,827307.4852832,-11978.895441871,2751235.0849656,14.991279127913,0,0
-31.845317485897,95.301364445801,9.7957095709571,827307.4852832,-11978.895441871,2751235.0849656,14.995709570957,0,0
-31.845317459786,95.322922176638,9.8001400140014,827307.4852832,-11978.895441871,2751235.0849656,15.000140014001,0,0
-31.845317433675,95.344479907475,9.8045704570457,827307.4852832,-11978.895441871,2751235.0849656,15.004570457046,0,0
-31.845317407564,95.366037638312,9.80900090009,827307.4852832,-11978.895441871,2751235.0849656,15.00900090009,0,0
-31.845317381452,95.387595369149,9.8134313431343,827307.4852832,-11978.895441871,2751235.0849656,15.013431343134,0,0
-31.845317355341,95.409153099986,9.8178617861786,827307.4852832,-11978.895441871,2751235.0849656,15.017861786179,0,0
-31.84531732923,95.430710830823,9.8222922292229,827307.4852832,-11978.895441871,2751235.0849656,15.022292229223,0,0
-31.845317303119,95.45226856166,9.8267226722672,827307.4852832,-11978.895441871,2751235.0849656,15.026722672267,0,0
-31.845317277008,95.473826292498,9.8311531153115,827307.4852832,-11978.895441871,2751235.0849656,15.031153115312,0,0
-31.845317250897,95.495384023335,9.8355835583558,827307.4852832,-11978.895441871,2751235.0849656,15.035583558356,0,0
-31.845317224786,95.516941754172,9.8400140014001,827307.4852832,-11978.895441871,2751235.0849656,15.0400140014,0,0
-31.845317198675,95.538499485009,9.8444444444444,827307.4852832,-11978.895441871,2751235.0849656,15.044444444444,0,0
-31.845317172564,95.560057215846,9.8488748874887,827307.4852832,-11978.895441871,2751235.0849656,15.048874887489,0,0
-31.845317146453,95.581614946683,9.8533053305331,827307.4852832,-11978.895441871,2751235.0849656,15.053305330533,0,0
-31.845317120342,95.60317267752,9.8577357735774,827307.4852832,-11978.895441871,2751235.0849656,15.057735773577,0,0
-31.845317094231,95.624730408357,9.8621662166217,827307.4852832,-11978.895441871,2751235.0849656,15.062166216622,0,0
-31.84531706812,95.646288139194,9.866596659666,827307.4852832,-11978.895441871,2751235.0849656,15.066596659666,0,0
-31.845317042009,95.667845870031,9.8710271027103,827307.4852832,-11978.895441871,2751235.0849656,15.07102710271,0,0
-31.845317015898,95.689403600868,9.8754575457546,827307.4852832,-11978.895441871,2751235.0849656,15.075457545755,0,0
-31.845316989787,95.710961331706,9.8798879887989,827307.4852832,-11978.895441871,2751235.0849656,15.079887988799,0,0
-31.845316963676,95.732519062543,9.8843184318432,827307.4852832,-11978.895441871,2751235.0849656,15.084318431843,0,0
-31.845316937565,95.75407679338,9.8887488748875,827307.4852832,-11978.895441871,2751235.0849656,15.088748874887,0,0
-31.845316911453,95.775634524217,9.8931793179318,827307.4852832,-11978.895441871,2751235.0849656,15.093179317932,0,0
-31.845316885342,95.797192255054,9.8976097609761,827307.4852832,-11978.895441871,2751235.0849656,15.097609760976,0,0
-31.845316859231,95.818749985891,9.9020402040204,827307.4852832,-11978.895441871,2751235.0849656,15.10204020402,0,0
-31.84531683312,95.840307716728,9.9064706470647,827307.4852832,-11978.895441871,2751235.0849656,15.106470647065,0,0
-31.845316807009,95.861865447565,9.910901090109,827307.4852832,-11978.895441871,2751235.0849656,15.110901090109,0,0
-31.845316780898,95.883423178402,9.9153315331533,827307.4852832,-11978.895441871,2751235.0849656,15.115331533153,0,0
-31.845316754787,95.904980909239,9.9197619761976,827307.4852832,-11978.895441871,2751235.0849656,15.119761976198,0,0
-31.845316728676,95.926538640076,9.9241924192419,827307.4852832,-11978.895441871,2751235.0849656,15.124192419242,0,0
-31.845316702565,95.948096370914,9.9286228622862,827307.4852832,-11978.895441871,2751235.0849656,15.128622862286,0,0
-31.845316676454,95.969654101751,9.9330533053305,827307.4852832,-11978.895441871,2751235.0849656,15.133053305331,0,0
-31.845316650343,95.991211832588,9.9374837483748,827307.4852832,-11978.895441871,2751235.0849656,15.137483748375,0,0
-31.845316624232,96.012769563425,9.9419141914191,827307.4852832,-11978.895441871,2751235.0849656,15.141914191419,0,0
-31.845316598121,96.034327294262,9.9463446344634,827307.4852832,-11978.895441871,2751235.0849656,15.146344634463,0,0
-31.84531657201,96.055885025099,9.9507750775077,827307.4852832,-11978.895441871,2751235.0849656,15.150775077508,0,0
-31.845316545899,96.077442755936,9.9552055205521,827307.4852832,-11978.895441871,2751235.0849656,15.155205520552,0,0
-31.845316519788,96.099000486773,9.9596359635964,827307.4852832,-11978.895441871,2751235.0849656,15.159635963596,0,0
-31.845316493677,96.12055821761,9.9640664066407,827307.4852832,-11978.895441871,2751235.0849656,15.164066406641,0,0
-31.845316467566,96.142115948447,9.968496849685,827307.4852832,-11978.895441871,2751235.0849656,15.168496849685,0,0
-31.845316441454,96.163673679284,9.9729272927293,827307.4852832,-11978.895441871,2751235.0849656,15.172927292729,0,0
-31.845316415343,96.185231410122,9.9773577357736,827307.4852832,-11978.895441871,2751235.0849656,15.177357735774,0,0
-31.845316389232,96.206789140959,9.9817881788179,827307.4852832,-11978.895441871,2751235.0849656,15.181788178818,0,0
-31.845316363121,96.228346871796,9.9862186218622,827307.4852832,-11978.895441871,2751235.0849656,15.186218621862,0,0
-31.84531633701,96.249904602633,9.9906490649065,827307.4852832,-11978.895441871,2751235.0849656,15.190649064906,0,0
-31.845316310899,96.27146233347,9.9950795079508,827307.4852832,-11978.895441871,2751235.0849656,15.195079507951,0,0
-31.845316284788,96.293020064307,9.9995099509951,827307.4852832,-11978.895441871,2751235.0849656,15.199509950995,0,0
-31.845316258677,96.314577795144,10.003940394039,827307.4852832,-11978.895441871,2751235.0849656,15.203940394039,0,0
-31.845316232566,96.336135525981,10.008370837084,827307.4852832,-11978.895441871,2751235.0849656,15.208370837084,0,0
-31.845316206455,96.357693256818,10.012801280128,827307.4852832,-11978.895441871,2751235.0849656,15.212801280128,0,0
-31.845316180344,96.379250987655,10.017231723172,827307.4852832,-11978.895441871,2751235.0849656,15.217231723172,0,0
-31.845316154233,96.400808718492,10.021662166217,827307.4852832,-11978.895441871,2751235.0849656,15.221662166217,0,0
-31.845316128122,96.42236644933,10.026092609261,827307.4852832,-11978.895441871,2751235.0849656,15.226092609261,0,0
-31.845316102011,96.443924180167,10.030523052305,827307.4852832,-11978.895441871,2751235.0849656,15.230523052305,0,0
-31.8453160759,96.465481911004,10.03495349535,827307.4852832,-11978.895441871,2751235.0849656,15.23495349535,0,0
-31.845316049789,96.487039641841,10.039383938394,827307.4852832,-11978.895441871,2751235.0849656,15.239383938394,0,0
-31.845316023678,96.508597372678,10.043814381438,827307.4852832,-11978.895441871,2751235.0849656,15.243814381438,0,0
-31.845315997567,96.530155103515,10.048244824482,827307.4852832,-11978.895441871,2751235.0849656,15.248244824482,0,0
-31.845315971455,96.551712834352,10.052675267527,827307.4852832,-11978.895441871,2751235.0849656,15.252675267527,0,0
-31.845315945344,96.573270565189,10.057105710571,827307.4852832,-11978.895441871,2751235.0849656,15.257105710571,0,0
-31.845315919233,96.594828296026,10.061536153615,827307.4852832,-11978.895441871,2751235.0849656,15.261536153615,0,0
-31.845315893122,96.616386026863,10.06596659666,827307.4852832,-11978.895441871,2751235.0849656,15.26596659666,0,0
-31.845315867011,96.6379437577,10.070397039704,827307.4852832,-11978.895441871,2751235.0849656,15.270397039704,0,0
-31.8453158409,96.659501488538,10.074827482748,827307.4852832,-11978.895441871,2751235.0849656,15.274827482748,0,0
-31.845315814789,96.681059219375,10.079257925793,827307.4852832,-11978.895441871,2751235.0849656,15.279257925793,0,0
-31.845315788678,96.702616950212,10.083688368837,827307.4852832,-11978.895441871,2751235.0849656,15.283688368837,0,0
-31.845315762567,96.724174681049,10.088118811881,827307.4852832,-11978.895441871,2751235.0849656,15.288118811881,0,0
-31.845315736456,96.745732411886,10.092549254925,827307.4852832,-11978.895441871,2751235.0849656,15.292549254925,0,0
-31.845315710345,96.767290142723,10.09697969797,827307.4852832,-11978.895441871,2751235.0849656,15.29697969797,0,0
-31.845315684234,96.78884787356,10.101410141014,827307.4852832,-11978.895441871,2751235.0849656,15.301410141014,0,0
-31.845315658123,96.810405604397,10.105840584058,827307.4852832,-11978.895441871,2751235.0849656,15.305840584058,0,0
-31.845315632012,96.831963335234,10.110271027103,827307.4852832,-11978.895441871,2751235.0849656,15.310271027103,0,0
-31.845315605901,96.853521066071,10.114701470147,827307.4852832,-11978.895441871,2751235.0849656,15.314701470147,0,0
-31.84531557979,96.875078796908,10.119131913191,827307.4852832,-11978.895441871,2751235.0849656,15.319131913191,0,0
-31.845315553679,96.896636527746,10.123562356236,827307.4852832,-11978.895441871,2751235.0849656,15.323562356236,0,0
-31.845315527568,96.918194258583,10.12799279928,827307.4852832,-11978.895441871,2751235.0849656,15.32799279928,0,0
-31.845315501457,96.93975198942,10.132423242324,827307.4852832,-11978.895441871,2751235.0849656,15.332423242324,0,0
-31.845315475345,96.961309720257,10.136853685369,827307.4852832,-11978.895441871,2751235.0849656,15.336853685369,0,0
-31.845315449234,96.982867451094,10.141284128413,827307.4852832,-11978.895441871,2751235.0849656,15.341284128413,0,0
-31.845315423123,97.004425181931,10.145714571457,827307.4852832,-11978.895441871,2751235.0849656,15.345714571457,0,0
-31.845315397012,97.025982912768,10.150145014501,827307.4852832,-11978.895441871,2751235.0849656,15.350145014501,0,0
-31.845315370901,97.047540643605,10.154575457546,827307.4852832,-11978.895441871,2751235.0849656,15.354575457546,0,0
-31.84531534479,97.069098374442,10.15900590059,827307.4852832,-11978.895441871,2751235.0849656,15.35900590059,0,0
-31.845315318679,97.090656105279,10.163436343634,827307.4852832,-11978.895441871,2751235.0849656,15.363436343634,0,0
-31.845315292568,97.112213836117,10.167866786679,827307.4852832,-11978.895441871,2751235.0849656,15.367866786679,0,0
-31.845315266457,97.133771566954,10.172297229723,827307.4852832,-11978.895441871,2751235.0849656,15.372297229723,0,0
-31.845315240346,97.155329297791,10.176727672767,827307.4852832,-11978.895441871,2751235.0849656,15.376727672767,0,0
-31.845315214235,97.176887028628,10.181158115812,827307.4852832,-11978.895441871,2751235.0849656,15.381158115812,0,0
-31.845315188124,97.198444759465,10.185588558856,827307.4852832,-11978.895441871,2751235.0849656,15.385588558856,0,0
-31.845315162013,97.220002490302,10.1900190019,827307.4852832,-11978.895441871,2751235.0849656,15.3900190019,0,0
-31.845315135902,97.241560221139,10.194449444944,827307.4852832,-11978.895441871,2751235.0849656,15.394449444944,0,0
-31.845315109791,97.263117951976,10.198879887989,827307.4852832,-11978.895441871,2751235.0849656,15.398879887989,0,0
-31.84531508368,97.284675682813,10.203310331033,827307.4852832,-11978.895441871,2751235.0849656,15.403310331033,0,0
-31.845315057569,97.30623341365,10.207740774077,827307.4852832,-11978.895441871,2751235.0849656,15.407740774077,0,0
-31.845315031458,97.327791144487,10.212171217122,827307.4852832,-11978.895441871,2751235.0849656,15.412171217122,0,0
-31.845315005994,97.349348876075,10.216601660166,807081.44160667,-2501.872627363,2735187.8105912,15.416601660166,0,0
-31.845314981071,97.370906608289,10.22103210321,807081.44160667,-2501.872627363,2735187.8105912,15.42103210321,0,0
-31.845314956148,97.392464340504,10.225462546255,807081.44160667,-2501.872627363,2735187.8105912,15.425462546255,0,0
-31.845314931225,97.414022072718,10.229892989299,807081.44160667,-2501.872627363,2735187.8105912,15.429892989299,0,0
-31.845314906303,97.435579804933,10.234323432343,807081.44160667,-2501.872627363,2735187.8105912,15.434323432343,0,0
-31.84531488138,97.457137537147,10.238753875388,807081.44160667,-2501.872627363,2735187.8105912,15.438753875388,0,0
-31.845314856457,97.478695269362,10.243184318432,807081.44160667,-2501.872627363,2735187.8105912,15.443184318432,0,0
-31.845314831534,97.500253001576,10.247614761476,807081.44160667,-2501.872627363,2735187.8105912,15.447614761476,0,0
-31.845314806612,97.521810733791,10.25204520452,807081.44160667,-2501.872627363,2735187.8105912,15.45204520452,0,0
-31.845314781689,97.543368466005,10.256475647565,807081.44160667,-2501.872627363,2735187.8105912,15.456475647565,0,0
-31.845314756766,97.56492619822,10.260906090609,807081.44160667,-2501.872627363,2735187.8105912,15.460906090609,0,0
-31.845314731843,97.586483930434,10.265336533653,807081.44160667,-2501.872627363,2735187.8105912,15.465336533653,0,0
-31.845314706921,97.608041662649,10.269766976698,807081.44160667,-2501.872627363,2735187.8105912,15.469766976698,0,0
-31.845314681998,97.629599394863,10.274197419742,807081.44160667,-2501.872627363,2735187.8105912,15.474197419742,0,0
-31.845314657075,97.651157127078,10.278627862786,807081.44160667,-2501.872627363,2735187.8105912,15.478627862786,0,0
-31.845314632152,97.672714859292,10.283058305831,807081.44160667,-2501.872627363,2735187.8105912,15.483058305831,0,0
-31.84531460723,97.694272591507,10.287488748875,807081.44160667,-2501.872627363,2735187.8105912,15.487488748875,0,0
-31.845314582307,97.715830323721,10.291919191919,807081.44160667,-2501.872627363,2735187.8105912,15.491919191919,0,0
-31.845314557384,97.737388055936,10.296349634963,807081.44160667,-2501.872627363,2735187.8105912,15.496349634963,0,0
-31.845314532462,97.75894578815,10.300780078008,807081.44160667,-2501.872627363,2735187.8105912,15.500780078008,0,0
-31.845314507539,97.780503520364,10.305210521052,807081.44160667,-2501.872627363,2735187.8105912,15.505210521052,0,0
-31.845314482616,97.802061252579,10.309640964096,807081.44160667,-2501.872627363,2735187.8105912,15.509640964096,0,0
-31.845314457693,97.823618984793,10.314071407141,807081.44160667,-2501.872627363,2735187.8105912,15.514071407141,0,0
-31.845314432771,97.845176717008,10.318501850185,807081.44160667,-2501.872627363,2735187.8105912,15.518501850185,0,0
-31.845314407848,97.866734449222,10.322932293229,807081.44160667,-2501.872627363,2735187.8105912,15.522932293229,0,0
-31.845314382925,97.888292181437,10.327362736274,807081.44160667,-2501.872627363,2735187.8105912,15.527362736274,0,0
-31.845314358002,97.909849913651,10.331793179318,807081.44160667,-2501.872627363,2735187.8105912,15.531793179318,0,0
-31.84531433308,97.931407645866,10.336223622362,807081.44160667,-2501.872627363,2735187.8105912,15.536223622362,0,0
-31.845314308157,97.95296537808,10.340654065407,807081.44160667,-2501.872627363,2735187.8105912,15.540654065407,0,0
-31.845314283234,97.974523110295,10.345084508451,807081.44160667,-2501.872627363,2735187.8105912,15.545084508451,0,0
-31.845314258311,97.996080842509,10.349514951495,807081.44160667,-2501.872627363,2735187.8105912,15.549514951495,0,0
-31.845314233389,98.017638574724,10.353945394539,807081.44160667,-2501.872627363,2735187.8105912,15.553945394539,0,0
-31.845314208466,98.039196306938,10.358375837584,807081.44160667,-2501.872627363,2735187.8105912,15.558375837584,0,0
-31.845314183543,98.060754039153,10.362806280628,807081.44160667,-2501.872627363,2735187.8105912,15.562806280628,0,0
-31.84531415862,98.082311771367,10.367236723672,807081.44160667,-2501.872627363,2735187.8105912,15.567236723672,0,0
-31.845314133698,98.103869503582,10.371667166717,807081.44160667,-2501.872627363,2735187.8105912,15.571667166717,0,0
-31.845314108775,98.125427235796,10.376097609761,807081.44160667,-2501.872627363,2735187.8105912,15.576097609761,0,0
-31.845314083852,98.146984968011,10.380528052805,807081.44160667,-2501.872627363,2735187.8105912,15.580528052805,0,0
-31.845314058929,98.168542700225,10.38495849585,807081.44160667,-2501.872627363,2735187.8105912,15.58495849585,0,0
-31.845314034007,98.19010043244,10.389388938894,807081.44160667,-2501.872627363,2735187.8105912,15.589388938894,0,0
-31.845314009084,98.211658164654,10.393819381938,807081.44160667,-2501.872627363,2735187.8105912,15.593819381938,0,0
-31.845313984117,98.233215896224,10.398249824982,803610.22270608,-8836.6153318021,2721143.9153825,15.598249824982,0,0
-31.845313959098,98.254773627019,10.402680268027,803610.22270608,-8836.6153318021,2721143.9153825,15.602680268027,0,0
-31.845313934078,98.276331357814,10.407110711071,803610.22270608,-8836.6153318021,2721143.9153825,15.607110711071,0,0
-31.845313909059,98.297889088609,10.411541154115,803610.22270608,-8836.6153318021,2721143.9153825,15.611541154115,0,0
-31.84531388404,98.319446819404,10.41597159716,803610.22270608,-8836.6153318021,2721143.9153825,15.61597159716,0,0
-31.84531385902,98.341004550199,10.420402040204,803610.22270608,-8836.6153318021,2721143.9153825,15.620402040204,0,0
-31.845313834001,98.362562280995,10.424832483248,803610.22270608,-8836.6153318021,2721143.9153825,15.624832483248,0,0
-31.845313808981,98.38412001179,10.429262926293,803610.22270608,-8836.6153318021,2721143.9153825,15.629262926293,0,0
-31.845313783962,98.405677742585,10.433693369337,803610.22270608,-8836.6153318021,2721143.9153825,15.633693369337,0,0
-31.845313758943,98.42723547338,10.438123812381,803610.22270608,-8836.6153318021,2721143.9153825,15.638123812381,0,0
-31.845313733923,98.448793204175,10.442554255426,803610.22270608,-8836.6153318021,2721143.9153825,15.642554255426,0,0
-31.845313708904,98.47035093497,10.44698469847,803610.22270608,-8836.6153318021,2721143.9153825,15.64698469847,0,0
-31.845313683884,98.491908665765,10.451415141514,803610.22270608,-8836.6153318021,2721143.9153825,15.651415141514,0,0
-31.845313658865,98.51346639656,10.455845584558,803610.22270608,-8836.6153318021,2721143.9153825,15.655845584558,0,0
-31.845313633846,98.535024127355,10.460276027603,803610.22270608,-8836.6153318021,2721143.9153825,15.660276027603,0,0
-31.845313608826,98.55658185815,10.464706470647,803610.22270608,-8836.6153318021,2721143.9153825,15.664706470647,0,0
-31.845313583807,98.578139588945,10.469136913691,803610.22270608,-8836.6153318021,2721143.9153825,15.669136913691,0,0
-31.845313558787,98.59969731974,10.473567356736,803610.22270608,-8836.6153318021,2721143.9153825,15.673567356736,0,0
-31.845313533768,98.621255050535,10.47799779978,803610.22270608,-8836.6153318021,2721143.9153825,15.67799779978,0,0
-31.845313508749,98.642812781331,10.482428242824,803610.22270608,-8836.6153318021,2721143.9153825,15.682428242824,0,0
-31.845313483729,98.664370512126,10.486858685869,803610.22270608,-8836.6153318021,2721143.9153825,15.686858685869,0,0
-31.84531345871,98.685928242921,10.491289128913,803610.22270608,-8836.6153318021,2721143.9153825,15.691289128913,0,0
-31.84531343369,98.707485973716,10.495719571957,803610.22270608,-8836.6153318021,2721143.9153825,15.695719571957,0,0
-31.845313408671,98.729043704511,10.500150015001,803610.22270608,-8836.6153318021,2721143.9153825,15.700150015001,0,0
-31.845313383652,98.750601435306,10.504580458046,803610.22270608,-8836.6153318021,2721143.9153825,15.704580458046,0,0
-31.845313358632,98.772159166101,10.50901090109,803610.22270608,-8836.6153318021,2721143.9153825,15.70901090109,0,0
-31.845313333613,98.793716896896,10.513441344134,803610.22270608,-8836.6153318021,2721143.9153825,15.713441344134,0,0
-31.845313308593,98.815274627691,10.517871787179,803610.22270608,-8836.6153318021,2721143.9153825,15.717871787179,0,0
-31.845313283574,98.836832358486,10.522302230223,803610.22270608,-8836.6153318021,2721143.9153825,15.722302230223,0,0
-31.845313258554,98.858390089281,10.526732673267,803610.22270608,-8836.6153318021,2721143.9153825,15.726732673267,0,0
-31.845313233535,98.879947820076,10.531163116312,803610.22270608,-8836.6153318021,2721143.9153825,15.731163116312,0,0
-31.845313208516,98.901505550872,10.535593559356,803610.22270608,-8836.6153318021,2721143.9153825,15.735593559356,0,0
-31.845313183496,98.923063281667,10.5400240024,803610.22270608,-8836.6153318021,2721143.9153825,15.7400240024,0,0
-31.845313158477,98.944621012462,10.544454445445,803610.22270608,-8836.6153318021,2721143.9153825,15.744454445445,0,0
-31.845313133457,98.966178743257,10.548884888489,803610.22270608,-8836.6153318021,2721143.9153825,15.748884888489,0,0
-31.845313108438,98.987736474052,10.553315331533,803610.22270608,-8836.6153318021,2721143.9153825,15.753315331533,0,0
-31.845313083419,99.009294204847,10.557745774577,803610.22270608,-8836.6153318021,2721143.9153825,15.757745774577,0,0
-31.845313058399,99.030851935642,10.562176217622,803610.22270608,-8836.6153318021,2721143.9153825,15.762176217622,0,0
-31.84531303338,99.052409666437,10.566606660666,803610.22270608,-8836.6153318021,2721143.9153825,15.766606660666,0,0
-31.84531300836,99.073967397232,10.57103710371,803610.22270608,-8836.6153318021,2721143.9153825,15.77103710371,0,0
-31.845312983341,99.095525128027,10.575467546755,803610.22270608,-8836.6153318021,2721143.9153825,15.775467546755,0,0
-31.845312958322,99.117082858822,10.579897989799,803610.22270608,-8836.6153318021,2721143.9153825,15.779897989799,0,0
-31.845312933302,99.138640589617,10.584328432843,803610.22270608,-8836.6153318021,2721143.9153825,15.784328432843,0,0
-31.845312908283,99.160198320412,10.588758875888,803610.22270608,-8836.6153318021,2721143.9153825,15.788758875888,0,0
-31.845312883263,99.181756051208,10.593189318932,803610.22270608,-8836.6153318021,2721143.9153825,15.793189318932,0,0
-31.845312858244,99.203313782003,10.597619761976,803610.22270608,-8836.6153318021,2721143.9153825,15.797619761976,0,0
-31.845312833225,99.224871512798,10.602050205021,803610.22270608,-8836.6153318021,2721143.9153825,15.80205020502,0,0
-31.845312808205,99.246429243593,10.606480648065,803610.22270608,-8836.6153318021,2721143.9153825,15.806480648065,0,0
-31.845312783186,99.267986974388,10.610911091109,803610.22270608,-8836.6153318021,2721143.9153825,15.810911091109,0,0
-31.845312758166,99.289544705183,10.615341534153,803610.22270608,-8836.6153318021,2721143.9153825,15.815341534153,0,0
-31.845312733147,99.311102435978,10.619771977198,803610.22270608,-8836.6153318021,2721143.9153825,15.819771977198,0,0
-31.845312708128,99.332660166773,10.624202420242,803610.22270608,-8836.6153318021,2721143.9153825,15.824202420242,0,0
-31.845312683108,99.354217897568,10.628632863286,803610.22270608,-8836.6153318021,2721143.9153825,15.828632863286,0,0
-31.845312658089,99.375775628363,10.633063306331,803610.22270608,-8836.6153318021,2721143.9153825,15.833063306331,0,0
-31.845312633069,99.397333359158,10.637493749375,803610.22270608,-8836.6153318021,2721143.9153825,15.837493749375,0,0
-31.84531260805,99.418891089953,10.641924192419,803610.22270608,-8836.6153318021,2721143.9153825,15.841924192419,0,0
-31.845312583031,99.440448820749,10.646354635464,803610.22270608,-8836.6153318021,2721143.9153825,15.846354635464,0,0
-31.845312558011,99.462006551544,10.650785078508,803610.22270608,-8836.6153318021,2721143.9153825,15.850785078508,0,0
-31.845312532992,99.483564282339,10.655215521552,803610.22270608,-8836.6153318021,2721143.9153825,15.855215521552,0,0
-31.845312507972,99.505122013134,10.659645964596,803610.22270608,-8836.6153318021,2721143.9153825,15.859645964596,0,0
-31.845312482953,99.526679743929,10.664076407641,803610.22270608,-8836.6153318021,2721143.9153825,15.864076407641,0,0
-31.845312457934,99.548237474724,10.668506850685,803610.22270608,-8836.6153318021,2721143.9153825,15.868506850685,0,0
-31.845312432914,99.569795205519,10.672937293729,803610.22270608,-8836.6153318021,2721143.9153825,15.872937293729,0,0
-31.845312407895,99.591352936314,10.677367736774,803610.22270608,-8836.6153318021,2721143.9153825,15.877367736774,0,0
-31.845312382875,99.612910667109,10.681798179818,803610.22270608,-8836.6153318021,2721143.9153825,15.881798179818,0,0
-31.845312357856,99.634468397904,10.686228622862,803610.22270608,-8836.6153318021,2721143.9153825,15.886228622862,0,0
-31.845312332837,99.656026128699,10.690659065907,803610.22270608,-8836.6153318021,2721143.9153825,15.890659065907,0,0
-31.845312307817,99.677583859494,10.695089508951,803610.22270608,-8836.6153318021,2721143.9153825,15.895089508951,0,0
-31.845312282798,99.699141590289,10.699519951995,803610.22270608,-8836.6153318021,2721143.9153825,15.899519951995,0,0
-31.845312257778,99.720699321085,10.70395039504,803610.22270608,-8836.6153318021,2721143.9153825,15.90395039504,0,0
-31.845312232759,99.74225705188,10.708380838084,803610.22270608,-8836.6153318021,2721143.9153825,15.908380838084,0,0
-31.84531220774,99.763814782675,10.712811281128,803610.22270608,-8836.6153318021,2721143.9153825,15.912811281128,0,0
-31.84531218272,99.78537251347,10.717241724172,803610.22270608,-8836.6153318021,2721143.9153825,15.917241724172,0,0
-31.845312157701,99.806930244265,10.721672167217,803610.22270608,-8836.6153318021,2721143.9153825,15.921672167217,0,0
-31.845312132681,99.82848797506,10.726102610261,803610.22270608,-8836.6153318021,2721143.9153825,15.926102610261,0,0
-31.845312107662,99.850045705855,10.730533053305,803610.22270608,-8836.6153318021,2721143.9153825,15.930533053305,0,0
-31.845312082643,99.87160343665,10.73496349635,803610.22270608,-8836.6153318021,2721143.9153825,15.93496349635,0,0
-31.845312057623,99.893161167445,10.739393939394,803610.22270608,-8836.6153318021,2721143.9153825,15.939393939394,0,0
-31.845312032604,99.91471889824,10.743824382438,803610.22270608,-8836.6153318021,2721143.9153825,15.943824382438,0,0
-31.845312007584,99.936276629035,10.748254825483,803610.22270608,-8836.6153318021,2721143.9153825,15.948254825483,0,0
-31.845311982565,99.95783435983,10.752685268527,803610.22270608,-8836.6153318021,2721143.9153825,15.952685268527,0,0
-31.845311957546,99.979392090625,10.757115711571,803610.22270608,-8836.6153318021,2721143.9153825,15.957115711571,0,0
-31.845311932526,100.00094982142,10.761546154615,803610.22270608,-8836.6153318021,2721143.9153825,15.961546154615,0,0
-31.845311907507,100.02250755222,10.76597659766,803610.22270608,-8836.6153318021,2721143.9153825,15.96597659766,0,0
-31.845311882487,100.04406528301,10.770407040704,803610.22270608,-8836.6153318021,2721143.9153825,15.970407040704,0,0
-31.845311857468,100.06562301381,10.774837483748,803610.22270608,-8836.6153318021,2721143.9153825,15.974837483748,0,0
-31.845311832449,100.0871807446,10.779267926793,803610.22270608,-8836.6153318021,2721143.9153825,15.979267926793,0,0
-31.845311807429,100.1087384754,10.783698369837,803610.22270608,-8836.6153318021,2721143.9153825,15.983698369837,0,0
-31.84531178241,100.13029620619,10.788128812881,803610.22270608,-8836.6153318021,2721143.9153825,15.988128812881,0,0
-31.84531175739,100.15185393699,10.792559255926,803610.22270608,-8836.6153318021,2721143.9153825,15.992559255926,0,0
-31.845311732371,100.17341166778,10.79698969897,803610.22270608,-8836.6153318021,2721143.9153825,15.99698969897,0,0
-31.845311707352,100.19496939858,10.801420142014,803610.22270608,-8836.6153318021,2721143.9153825,16.001420142014,0,0
-31.845311682332,100.21652712937,10.805850585059,803610.22270608,-8836.6153318021,2721143.9153825,16.005850585059,0,0
-31.845311657313,100.23808486017,10.810281028103,803610.22270608,-8836.6153318021,2721143.9153825,16.010281028103,0,0
-31.845311632293,100.25964259096,10.814711471147,803610.22270608,-8836.6153318021,2721143.9153825,16.014711471147,0,0
-31.845311607274,100.28120032176,10.819141914191,803610.22270608,-8836.6153318021,2721143.9153825,16.019141914191,0,0
-31.845311582255,100.30275805255,10.823572357236,803610.22270608,-8836.6153318021,2721143.9153825,16.023572357236,0,0
-31.845311557235,100.32431578335,10.82800280028,803610.22270608,-8836.6153318021,2721143.9153825,16.02800280028,0,0
-31.845311532216,100.34587351414,10.832433243324,803610.22270608,-8836.6153318021,2721143.9153825,16.032433243324,0,0
-31.845311507196,100.36743124494,10.836863686369,803610.22270608,-8836.6153318021,2721143.9153825,16.036863686369,0,0
-31.845311482177,100.38898897573,10.841294129413,803610.22270608,-8836.6153318021,2721143.9153825,16.041294129413,0,0
-31.845311457157,100.41054670653,10.845724572457,803610.22270608,-8836.6153318021,2721143.9153825,16.045724572457,0,0
-31.845311432138,100.43210443732,10.850155015502,803610.22270608,-8836.6153318021,2721143.9153825,16.050155015502,0,0
-31.845311407119,100.45366216812,10.854585458546,803610.22270608,-8836.6153318021,2721143.9153825,16.054585458546,0,0
-31.845311382099,100.47521989891,10.85901590159,803610.22270608,-8836.6153318021,2721143.9153825,16.05901590159,0,0
-31.84531135708,100.49677762971,10.863446344634,803610.22270608,-8836.6153318021,2721143.9153825,16.063446344634,0,0
-31.84531133206,100.5183353605,10.867876787679,803610.22270608,-8836.6153318021,2721143.9153825,16.067876787679,0,0
-31.845311307041,100.5398930913,10.872307230723,803610.22270608,-8836.6153318021,2721143.9153825,16.072307230723,0,0
-31.845311282022,100.56145082209,10.876737673767,803610.22270608,-8836.6153318021,2721143.9153825,16.076737673767,0,0
-31.845311257002,100.58300855289,10.881168116812,803610.22270608,-8836.6153318021,2721143.9153825,16.081168116812,0,0
-31.845311231983,100.60456628368,10.885598559856,803610.22270608,-8836.6153318021,2721143.9153825,16.085598559856,0,0
-31.845311206963,100.62612401448,10.8900290029,803610.22270608,-8836.6153318021,2721143.9153825,16.0900290029,0,0
-31.845311181944,100.64768174527,10.894459445945,803610.22270608,-8836.6153318021,2721143.9153825,16.094459445945,0,0
-31.845311156925,100.66923947607,10.898889888989,803610.22270608,-8836.6153318021,2721143.9153825,16.098889888989,0,0
-31.845311131905,100.69079720686,10.903320332033,803610.22270608,-8836.6153318021,2721143.9153825,16.103320332033,0,0
-31.845311106886,100.71235493766,10.907750775078,803610.22270608,-8836.6153318021,2721143.9153825,16.107750775078,0,0
-31.845311081866,100.73391266845,10.912181218122,803610.22270608,-8836.6153318021,2721143.9153825,16.112181218122,0,0
-31.845311056847,100.75547039925,10.916611661166,803610.22270608,-8836.6153318021,2721143.9153825,16.116611661166,0,0
-31.845311031828,100.77702813004,10.92104210421,803610.22270608,-8836.6153318021,2721143.9153825,16.12104210421,0,0
-31.845311006808,100.79858586084,10.925472547255,803610.22270608,-8836.6153318021,2721143.9153825,16.125472547255,0,0
-31.845310981789,100.82014359163,10.929902990299,803610.22270608,-8836.6153318021,2721143.9153825,16.129902990299,0,0
-31.845310956769,100.84170132243,10.934333433343,803610.22270608,-8836.6153318021,2721143.9153825,16.134333433343,0,0
-31.84531093175,100.86325905322,10.938763876388,803610.22270608,-8836.6153318021,2721143.9153825,16.138763876388,0,0
-31.845310906731,100.88481678402,10.943194319432,803610.22270608,-8836.6153318021,2721143.9153825,16.143194319432,0,0
-31.845310881711,100.90637451481,10.947624762476,803610.22270608,-8836.6153318021,2721143.9153825,16.147624762476,0,0
-31.845310856692,100.92793224561,10.952055205521,803610.22270608,-8836.6153318021,2721143.9153825,16.152055205521,0,0
-31.845310831672,100.9494899764,10.956485648565,803610.22270608,-8836.6153318021,2721143.9153825,16.156485648565,0,0
-31.845310806653,100.9710477072,10.960916091609,803610.22270608,-8836.6153318021,2721143.9153825,16.160916091609,0,0
-31.845310781634,100.99260543799,10.965346534653,803610.22270608,-8836.6153318021,2721143.9153825,16.165346534653,0,0
-31.845310756614,101.01416316879,10.969776977698,803610.22270608,-8836.6153318021,2721143.9153825,16.169776977698,0,0
-31.845310731595,101.03572089958,10.974207420742,803610.22270608,-8836.6153318021,2721143.9153825,16.174207420742,0,0
-31.845310706575,101.05727863038,10.978637863786,803610.22270608,-8836.6153318021,2721143.9153825,16.178637863786,0,0
-31.845310681556,101.07883636117,10.983068306831,803610.22270608,-8836.6153318021,2721143.9153825,16.183068306831,0,0
-31.845310656537,101.10039409197,10.987498749875,803610.22270608,-8836.6153318021,2721143.9153825,16.187498749875,0,0
-31.845310631517,101.12195182276,10.991929192919,803610.22270608,-8836.6153318021,2721143.9153825,16.191929192919,0,0
-31.845310606498,101.14350955356,10.996359635964,803610.22270608,-8836.6153318021,2721143.9153825,16.196359635964,0,0
-31.845310581478,101.16506728435,11.000790079008,803610.22270608,-8836.6153318021,2721143.9153825,16.200790079008,0,0
-31.845310556459,101.18662501515,11.005220522052,803610.22270608,-8836.6153318021,2721143.9153825,16.205220522052,0,0
-31.84531053144,101.20818274595,11.009650965097,803610.22270608,-8836.6153318021,2721143.9153825,16.209650965097,0,0
-31.84531050642,101.22974047674,11.014081408141,803610.22270608,-8836.6153318021,2721143.9153825,16.214081408141,0,0
-31.845310481401,101.25129820754,11.018511851185,803610.22270608,-8836.6153318021,2721143.9153825,16.218511851185,0,0
-31.845310456381,101.27285593833,11.022942294229,803610.22270608,-8836.6153318021,2721143.9153825,16.222942294229,0,0
-31.845310431362,101.29441366913,11.027372737274,803610.22270608,-8836.6153318021,2721143.9153825,16.227372737274,0,0
-31.845310406343,101.31597139992,11.031803180318,803610.22270608,-8836.6153318021,2721143.9153825,16.231803180318,0,0
-31.845310381323,101.33752913072,11.036233623362,803610.22270608,-8836.6153318021,2721143.9153825,16.236233623362,0,0
-31.845310356304,101.35908686151,11.040664066407,803610.22270608,-8836.6153318021,2721143.9153825,16.240664066407,0,0
-31.845310331284,101.38064459231,11.045094509451,803610.22270608,-8836.6153318021,2721143.9153825,16.245094509451,0,0
-31.845310306265,101.4022023231,11.049524952495,803610.22270608,-8836.6153318021,2721143.9153825,16.249524952495,0,0
-31.845310281246,101.4237600539,11.05395539554,803610.22270608,-8836.6153318021,2721143.9153825,16.25395539554,0,0
-31.845310256226,101.44531778469,11.058385838584,803610.22270608,-8836.6153318021,2721143.9153825,16.258385838584,0,0
-31.845310231207,101.46687551549,11.062816281628,803610.22270608,-8836.6153318021,2721143.9153825,16.262816281628,0,0
-31.845310206187,101.48843324628,11.067246724672,803610.22270608,-8836.6153318021,2721143.9153825,16.267246724672,0,0
-31.845310181168,101.50999097708,11.071677167717,803610.22270608,-8836.6153318021,2721143.9153825,16.271677167717,0,0
-31.845310156149,101.53154870787,11.076107610761,803610.22270608,-8836.6153318021,2721143.9153825,16.276107610761,0,0
-31.845310131129,101.55310643867,11.080538053805,803610.22270608,-8836.6153318021,2721143.9153825,16.280538053805,0,0
-31.84531010611,101.57466416946,11.08496849685,803610.22270608,-8836.6153318021,2721143.9153825,16.28496849685,0,0
-31.84531008109,101.59622190026,11.089398939894,803610.22270608,-8836.6153318021,2721143.9153825,16.289398939894,0,0
-31.845310056071,101.61777963105,11.093829382938,803610.22270608,-8836.6153318021,2721143.9153825,16.293829382938,0,0
-31.845310031052,101.63933736185,11.098259825983,803610.22270608,-8836.6153318021,2721143.9153825,16.298259825983,0,0
-31.845310006032,101.66089509264,11.102690269027,803610.22270608,-8836.6153318021,2721143.9153825,16.302690269027,0,0
-31.845309981013,101.68245282344,11.107120712071,803610.22270608,-8836.6153318021,2721143.9153825,16.307120712071,0,0
-31.845309955993,101.70401055423,11.111551155116,803610.22270608,-8836.6153318021,2721143.9153825,16.311551155116,0,0
-31.845309930974,101.72556828503,11.11598159816,803610.22270608,-8836.6153318021,2721143.9153825,16.31598159816,0,0
-31.845309905955,101.74712601582,11.120412041204,803610.22270608,-8836.6153318021,2721143.9153825,16.320412041204,0,0
-31.845309880935,101.76868374662,11.124842484248,803610.22270608,-8836.6153318021,2721143.9153825,16.324842484248,0,0
-31.845309855916,101.79024147741,11.129272927293,803610.22270608,-8836.6153318021,2721143.9153825,16.329272927293,0,0
-31.845309830896,101.81179920821,11.133703370337,803610.22270608,-8836.6153318021,2721143.9153825,16.333703370337,0,0
-31.845309805877,101.833356939,11.138133813381,803610.22270608,-8836.6153318021,2721143.9153825,16.338133813381,0,0
-31.845309780857,101.8549146698,11.142564256426,803610.22270608,-8836.6153318021,2721143.9153825,16.342564256426,0,0
-31.845309755838,101.87647240059,11.14699469947,803610.22270608,-8836.6153318021,2721143.9153825,16.34699469947,0,0
-31.845309730819,101.89803013139,11.151425142514,803610.22270608,-8836.6153318021,2721143.9153825,16.351425142514,0,0
-31.845309705799,101.91958786218,11.155855585559,803610.22270608,-8836.6153318021,2721143.9153825,16.355855585559,0,0
-31.84530968078,101.94114559298,11.160286028603,803610.22270608,-8836.6153318021,2721143.9153825,16.360286028603,0,0
-31.84530965576,101.96270332377,11.164716471647,803610.22270608,-8836.6153318021,2721143.9153825,16.364716471647,0,0
-31.845309630741,101.98426105457,11.169146914691,803610.22270608,-8836.6153318021,2721143.9153825,16.369146914691,0,0
-31.845309605722,102.00581878536,11.173577357736,803610.22270608,-8836.6153318021,2721143.9153825,16.373577357736,0,0
-31.845309580702,102.02737651616,11.17800780078,803610.22270608,-8836.6153318021,2721143.9153825,16.37800780078,0,0
-31.845309555683,102.04893424695,11.182438243824,803610.22270608,-8836.6153318021,2721143.9153825,16.382438243824,0,0
-31.845309530663,102.07049197775,11.186868686869,803610.22270608,-8836.6153318021,2721143.9153825,16.386868686869,0,0
-31.845309505644,102.09204970854,11.191299129913,803610.22270608,-8836.6153318021,2721143.9153825,16.391299129913,0,0
-31.845309480625,102.11360743934,11.195729572957,803610.22270608,-8836.6153318021,2721143.9153825,16.395729572957,0,0
-31.845309455605,102.13516517013,11.200160016002,803610.22270608,-8836.6153318021,2721143.9153825,16.400160016002,0,0
-31.845309430586,102.15672290093,11.204590459046,803610.22270608,-8836.6153318021,2721143.9153825,16.404590459046,0,0
-31.845309405566,102.17828063172,11.20902090209,803610.22270608,-8836.6153318021,2721143.9153825,16.40902090209,0,0
-31.845309380547,102.19983836252,11.213451345135,803610.22270608,-8836.6153318021,2721143.9153825,16.413451345135,0,0
-31.845309355528,102.22139609331,11.217881788179,803610.22270608,-8836.6153318021,2721143.9153825,16.417881788179,0,0
-31.845309330508,102.24295382411,11.222312231223,803610.22270608,-8836.6153318021,2721143.9153825,16.422312231223,0,0
-31.8453093058,102.26451155531,11.226742674267,785555.84981018,142.92095215744,2706115.0194379,16.426742674267,0,0
-31.845309281823,102.28606928747,11.231173117312,785555.84981018,142.92095215744,2706115.0194379,16.431173117312,0,0
-31.845309257846,102.30762701963,11.235603560356,785555.84981018,142.92095215744,2706115.0194379,16.435603560356,0,0
-31.845309233868,102.32918475178,11.2400340034,785555.84981018,142.92095215744,2706115.0194379,16.4400340034,0,0
-31.845309209891,102.35074248394,11.244464446445,785555.84981018,142.92095215744,2706115.0194379,16.444464446445,0,0
-31.845309185913,102.3723002161,11.248894889489,785555.84981018,142.92095215744,2706115.0194379,16.448894889489,0,0
-31.845309161936,102.39385794825,11.253325332533,785555.84981018,142.92095215744,2706115.0194379,16.453325332533,0,0
-31.845309137958,102.41541568041,11.257755775578,785555.84981018,142.92095215744,2706115.0194379,16.457755775578,0,0
-31.845309113981,102.43697341257,11.262186218622,785555.84981018,142.92095215744,2706115.0194379,16.462186218622,0,0
-31.845309090003,102.45853114473,11.266616661666,785555.84981018,142.92095215744,2706115.0194379,16.466616661666,0,0
-31.845309066026,102.48008887688,11.27104710471,785555.84981018,142.92095215744,2706115.0194379,16.47104710471,0,0
-31.845309042049,102.50164660904,11.275477547755,785555.84981018,142.92095215744,2706115.0194379,16.475477547755,0,0
-31.845309018071,102.5232043412,11.279907990799,785555.84981018,142.92095215744,2706115.0194379,16.479907990799,0,0
-31.845308994094,102.54476207335,11.284338433843,785555.84981018,142.92095215744,2706115.0194379,16.484338433843,0,0
-31.845308970116,102.56631980551,11.288768876888,785555.84981018,142.92095215744,2706115.0194379,16.488768876888,0,0
-31.845308946139,102.58787753767,11.293199319932,785555.84981018,142.92095215744,2706115.0194379,16.493199319932,0,0
-31.845308922161,102.60943526983,11.297629762976,785555.84981018,142.92095215744,2706115.0194379,16.497629762976,0,0
-31.845308898184,102.63099300198,11.302060206021,785555.84981018,142.92095215744,2706115.0194379,16.502060206021,0,0
-31.845308874206,102.65255073414,11.306490649065,785555.84981018,142.92095215744,2706115.0194379,16.506490649065,0,0
-31.845308850229,102.6741084663,11.310921092109,785555.84981018,142.92095215744,2706115.0194379,16.510921092109,0,0
-31.845308826252,102.69566619845,11.315351535154,785555.84981018,142.92095215744,2706115.0194379,16.515351535154,0,0
-31.845308802274,102.71722393061,11.319781978198,785555.84981018,142.92095215744,2706115.0194379,16.519781978198,0,0
-31.845308778297,102.73878166277,11.324212421242,785555.84981018,142.92095215744,2706115.0194379,16.524212421242,0,0
-31.845308754319,102.76033939493,11.328642864286,785555.84981018,142.92095215744,2706115.0194379,16.528642864286,0,0
-31.845308730342,102.78189712708,11.333073307331,785555.84981018,142.92095215744,2706115.0194379,16.533073307331,0,0
-31.845308706364,102.80345485924,11.337503750375,785555.84981018,142.92095215744,2706115.0194379,16.537503750375,0,0
-31.845308682387,102.8250125914,11.341934193419,785555.84981018,142.92095215744,2706115.0194379,16.541934193419,0,0
-31.845308658409,102.84657032355,11.346364636464,785555.84981018,142.92095215744,2706115.0194379,16.546364636464,0,0
-31.845308634432,102.86812805571,11.350795079508,785555.84981018,142.92095215744,2706115.0194379,16.550795079508,0,0
-31.845308610455,102.88968578787,11.355225522552,785555.84981018,142.92095215744,2706115.0194379,16.555225522552,0,0
-31.845308586477,102.91124352003,11.359655965597,785555.84981018,142.92095215744,2706115.0194379,16.559655965597,0,0
-31.8453085625,102.93280125218,11.364086408641,785555.84981018,142.92095215744,2706115.0194379,16.564086408641,0,0
-31.845308538522,102.95435898434,11.368516851685,785555.84981018,142.92095215744,2706115.0194379,16.568516851685,0,0
-31.845308514545,102.9759167165,11.372947294729,785555.84981018,142.92095215744,2706115.0194379,16.572947294729,0,0
-31.845308490567,102.99747444865,11.377377737774,785555.84981018,142.92095215744,2706115.0194379,16.577377737774,0,0
-31.84530846659,103.01903218081,11.381808180818,785555.84981018,142.92095215744,2706115.0194379,16.581808180818,0,0
-31.845308442612,103.04058991297,11.386238623862,785555.84981018,142.92095215744,2706115.0194379,16.586238623862,0,0
-31.845308418635,103.06214764513,11.390669066907,785555.84981018,142.92095215744,2706115.0194379,16.590669066907,0,0
-31.845308394658,103.08370537728,11.395099509951,785555.84981018,142.92095215744,2706115.0194379,16.595099509951,0,0
-31.84530837068,103.10526310944,11.399529952995,785555.84981018,142.92095215744,2706115.0194379,16.599529952995,0,0
-31.845308346703,103.1268208416,11.40396039604,785555.84981018,142.92095215744,2706115.0194379,16.60396039604,0,0
-31.845308322725,103.14837857375,11.408390839084,785555.84981018,142.92095215744,2706115.0194379,16.608390839084,0,0
-31.845308298748,103.16993630591,11.412821282128,785555.84981018,142.92095215744,2706115.0194379,16.612821282128,0,0
-31.84530827477,103.19149403807,11.417251725173,785555.84981018,142.92095215744,2706115.0194379,16.617251725173,0,0
-31.845308250793,103.21305177023,11.421682168217,785555.84981018,142.92095215744,2706115.0194379,16.621682168217,0,0
-31.845308226815,103.23460950238,11.426112611261,785555.84981018,142.92095215744,2706115.0194379,16.626112611261,0,0
-31.845308202838,103.25616723454,11.430543054305,785555.84981018,142.92095215744,2706115.0194379,16.630543054305,0,0
-31.845308178861,103.2777249667,11.43497349735,785555.84981018,142.92095215744,2706115.0194379,16.63497349735,0,0
-31.845308154883,103.29928269885,11.439403940394,785555.84981018,142.92095215744,2706115.0194379,16.639403940394,0,0
-31.845308130906,103.32084043101,11.443834383438,785555.84981018,142.92095215744,2706115.0194379,16.643834383438,0,0
-31.845308106928,103.34239816317,11.448264826483,785555.84981018,142.92095215744,2706115.0194379,16.648264826483,0,0
-31.845308082951,103.36395589533,11.452695269527,785555.84981018,142.92095215744,2706115.0194379,16.652695269527,0,0
-31.845308058973,103.38551362748,11.457125712571,785555.84981018,142.92095215744,2706115.0194379,16.657125712571,0,0
-31.845308034996,103.40707135964,11.461556155616,785555.84981018,142.92095215744,2706115.0194379,16.661556155616,0,0
-31.845308011018,103.4286290918,11.46598659866,785555.84981018,142.92095215744,2706115.0194379,16.66598659866,0,0
-31.845307987041,103.45018682395,11.470417041704,785555.84981018,142.92095215744,2706115.0194379,16.670417041704,0,0
-31.845307963064,103.47174455611,11.474847484748,785555.84981018,142.92095215744,2706115.0194379,16.674847484748,0,0
-31.845307939086,103.49330228827,11.479277927793,785555.84981018,142.92095215744,2706115.0194379,16.679277927793,0,0
-31.845307915109,103.51486002043,11.483708370837,785555.84981018,142.92095215744,2706115.0194379,16.683708370837,0,0
-31.845307891131,103.53641775258,11.488138813881,785555.84981018,142.92095215744,2706115.0194379,16.688138813881,0,0
-31.845307867154,103.55797548474,11.492569256926,785555.84981018,142.92095215744,2706115.0194379,16.692569256926,0,0
-31.845307843176,103.5795332169,11.49699969997,785555.84981018,142.92095215744,2706115.0194379,16.69699969997,0,0
-31.845307819199,103.60109094905,11.501430143014,785555.84981018,142.92095215744,2706115.0194379,16.701430143014,0,0
-31.845307795221,103.62264868121,11.505860586059,785555.84981018,142.92095215744,2706115.0194379,16.705860586059,0,0
-31.845307771244,103.64420641337,11.510291029103,785555.84981018,142.92095215744,2706115.0194379,16.710291029103,0,0
-31.845307747267,103.66576414553,11.514721472147,785555.84981018,142.92095215744,2706115.0194379,16.714721472147,0,0
-31.845307723289,103.68732187768,11.519151915192,785555.84981018,142.92095215744,2706115.0194379,16.719151915192,0,0
-31.845307699312,103.70887960984,11.523582358236,785555.84981018,142.92095215744,2706115.0194379,16.723582358236,0,0
-31.845307675334,103.730437342,11.52801280128,785555.84981018,142.92095215744,2706115.0194379,16.72801280128,0,0
-31.845307651359,103.75199507402,11.532443244324,780786.4511301,-6735.6660719043,2692635.8144033,16.732443244324,0,0
-31.845307627403,103.77355280473,11.536873687369,780786.4511301,-6735.6660719043,2692635.8144033,16.736873687369,0,0
-31.845307603448,103.79511053543,11.541304130413,780786.4511301,-6735.6660719043,2692635.8144033,16.741304130413,0,0
-31.845307579493,103.81666826614,11.545734573457,780786.4511301,-6735.6660719043,2692635.8144033,16.745734573457,0,0
-31.845307555537,103.83822599685,11.550165016502,780786.4511301,-6735.6660719043,2692635.8144033,16.750165016502,0,0
-31.845307531582,103.85978372755,11.554595459546,780786.4511301,-6735.6660719043,2692635.8144033,16.754595459546,0,0
-31.845307507627,103.88134145826,11.55902590259,780786.4511301,-6735.6660719043,2692635.8144033,16.75902590259,0,0
-31.845307483671,103.90289918896,11.563456345635,780786.4511301,-6735.6660719043,2692635.8144033,16.763456345635,0,0
-31.845307459716,103.92445691967,11.567886788679,780786.4511301,-6735.6660719043,2692635.8144033,16.767886788679,0,0
-31.84530743576,103.94601465038,11.572317231723,780786.4511301,-6735.6660719043,2692635.8144033,16.772317231723,0,0
-31.845307411805,103.96757238108,11.576747674767,780786.4511301,-6735.6660719043,2692635.8144033,16.776747674767,0,0
-31.84530738785,103.98913011179,11.581178117812,780786.4511301,-6735.6660719043,2692635.8144033,16.781178117812,0,0
-31.845307363894,104.0106878425,11.585608560856,780786.4511301,-6735.6660719043,2692635.8144033,16.785608560856,0,0
-31.845307339939,104.0322455732,11.5900390039,780786.4511301,-6735.6660719043,2692635.8144033,16.7900390039,0,0
-31.845307315984,104.05380330391,11.594469446945,780786.4511301,-6735.6660719043,2692635.8144033,16.794469446945,0,0
-31.845307292028,104.07536103462,11.598899889989,780786.4511301,-6735.6660719043,2692635.8144033,16.798899889989,0,0
-31.845307268073,104.09691876532,11.603330333033,780786.4511301,-6735.6660719043,2692635.8144033,16.803330333033,0,0
-31.845307244118,104.11847649603,11.607760776078,780786.4511301,-6735.6660719043,2692635.8144033,16.807760776078,0,0
-31.845307220162,104.14003422674,11.612191219122,780786.4511301,-6735.6660719043,2692635.8144033,16.812191219122,0,0
-31.845307196207,104.16159195744,11.616621662166,780786.4511301,-6735.6660719043,2692635.8144033,16.816621662166,0,0
-31.845307172251,104.18314968815,11.621052105211,780786.4511301,-6735.6660719043,2692635.8144033,16.821052105211,0,0
-31.845307148296,104.20470741885,11.625482548255,780786.4511301,-6735.6660719043,2692635.8144033,16.825482548255,0,0
-31.845307124341,104.22626514956,11.629912991299,780786.4511301,-6735.6660719043,2692635.8144033,16.829912991299,0,0
-31.845307100385,104.24782288027,11.634343434343,780786.4511301,-6735.6660719043,2692635.8144033,16.834343434343,0,0
-31.84530707643,104.26938061097,11.638773877388,780786.4511301,-6735.6660719043,2692635.8144033,16.838773877388,0,0
-31.845307052475,104.29093834168,11.643204320432,780786.4511301,-6735.6660719043,2692635.8144033,16.843204320432,0,0
-31.845307028519,104.31249607239,11.647634763476,780786.4511301,-6735.6660719043,2692635.8144033,16.847634763476,0,0
-31.845307004564,104.33405380309,11.652065206521,780786.4511301,-6735.6660719043,2692635.8144033,16.852065206521,0,0
-31.845306980608,104.3556115338,11.656495649565,780786.4511301,-6735.6660719043,2692635.8144033,16.856495649565,0,0
-31.845306956653,104.37716926451,11.660926092609,780786.4511301,-6735.6660719043,2692635.8144033,16.860926092609,0,0
-31.845306932698,104.39872699521,11.665356535654,780786.4511301,-6735.6660719043,2692635.8144033,16.865356535654,0,0
-31.845306908742,104.42028472592,11.669786978698,780786.4511301,-6735.6660719043,2692635.8144033,16.869786978698,0,0
-31.845306884787,104.44184245663,11.674217421742,780786.4511301,-6735.6660719043,2692635.8144033,16.874217421742,0,0
-31.845306860832,104.46340018733,11.678647864786,780786.4511301,-6735.6660719043,2692635.8144033,16.878647864786,0,0
-31.845306836876,104.48495791804,11.683078307831,780786.4511301,-6735.6660719043,2692635.8144033,16.883078307831,0,0
-31.845306812921,104.50651564875,11.687508750875,780786.4511301,-6735.6660719043,2692635.8144033,16.887508750875,0,0
-31.845306788965,104.52807337945,11.691939193919,780786.4511301,-6735.6660719043,2692635.8144033,16.891939193919,0,0
-31.84530676501,104.54963111016,11.696369636964,780786.4511301,-6735.6660719043,2692635.8144033,16.896369636964,0,0
-31.845306741055,104.57118884086,11.700800080008,780786.4511301,-6735.6660719043,2692635.8144033,16.900800080008,0,0
-31.845306717099,104.59274657157,11.705230523052,780786.4511301,-6735.6660719043,2692635.8144033,16.905230523052,0,0
-31.845306693144,104.61430430228,11.709660966097,780786.4511301,-6735.6660719043,2692635.8144033,16.909660966097,0,0
-31.845306669189,104.63586203298,11.714091409141,780786.4511301,-6735.6660719043,2692635.8144033,16.914091409141,0,0
-31.845306645233,104.65741976369,11.718521852185,780786.4511301,-6735.6660719043,2692635.8144033,16.918521852185,0,0
-31.845306621278,104.6789774944,11.72295229523,780786.4511301,-6735.6660719043,2692635.8144033,16.92295229523,0,0
-31.845306597322,104.7005352251,11.727382738274,780786.4511301,-6735.6660719043,2692635.8144033,16.927382738274,0,0
-31.845306573367,104.72209295581,11.731813181318,780786.4511301,-6735.6660719043,2692635.8144033,16.931813181318,0,0
-31.845306549412,104.74365068652,11.736243624362,780786.4511301,-6735.6660719043,2692635.8144033,16.936243624362,0,0
-31.845306525456,104.76520841722,11.740674067407,780786.4511301,-6735.6660719043,2692635.8144033,16.940674067407,0,0
-31.845306501501,104.78676614793,11.745104510451,780786.4511301,-6735.6660719043,2692635.8144033,16.945104510451,0,0
-31.845306477546,104.80832387864,11.749534953495,780786.4511301,-6735.6660719043,2692635.8144033,16.949534953495,0,0
-31.84530645359,104.82988160934,11.75396539654,780786.4511301,-6735.6660719043,2692635.8144033,16.95396539654,0,0
-31.845306429635,104.85143934005,11.758395839584,780786.4511301,-6735.6660719043,2692635.8144033,16.958395839584,0,0
-31.845306405679,104.87299707075,11.762826282628,780786.4511301,-6735.6660719043,2692635.8144033,16.962826282628,0,0
-31.845306381724,104.89455480146,11.767256725673,780786.4511301,-6735.6660719043,2692635.8144033,16.967256725673,0,0
-31.845306357769,104.91611253217,11.771687168717,780786.4511301,-6735.6660719043,2692635.8144033,16.971687168717,0,0
-31.845306333813,104.93767026287,11.776117611761,780786.4511301,-6735.6660719043,2692635.8144033,16.976117611761,0,0
-31.845306309858,104.95922799358,11.780548054805,780786.4511301,-6735.6660719043,2692635.8144033,16.980548054805,0,0
-31.845306285903,104.98078572429,11.78497849785,780786.4511301,-6735.6660719043,2692635.8144033,16.98497849785,0,0
-31.845306261947,105.00234345499,11.789408940894,780786.4511301,-6735.6660719043,2692635.8144033,16.989408940894,0,0
-31.845306237992,105.0239011857,11.793839383938,780786.4511301,-6735.6660719043,2692635.8144033,16.993839383938,0,0
-31.845306214037,105.04545891641,11.798269826983,780786.4511301,-6735.6660719043,2692635.8144033,16.998269826983,0,0
-31.845306190081,105.06701664711,11.802700270027,780786.4511301,-6735.6660719043,2692635.8144033,17.002700270027,0,0
-31.845306166126,105.08857437782,11.807130713071,780786.4511301,-6735.6660719043,2692635.8144033,17.007130713071,0,0
-31.84530614217,105.11013210853,11.811561156116,780786.4511301,-6735.6660719043,2692635.8144033,17.011561156116,0,0
-31.845306118215,105.13168983923,11.81599159916,780786.4511301,-6735.6660719043,2692635.8144033,17.01599159916,0,0
-31.84530609426,105.15324756994,11.820422042204,780786.4511301,-6735.6660719043,2692635.8144033,17.020422042204,0,0
-31.845306070304,105.17480530064,11.824852485249,780786.4511301,-6735.6660719043,2692635.8144033,17.024852485249,0,0
-31.845306046349,105.19636303135,11.829282928293,780786.4511301,-6735.6660719043,2692635.8144033,17.029282928293,0,0
-31.845306022394,105.21792076206,11.833713371337,780786.4511301,-6735.6660719043,2692635.8144033,17.033713371337,0,0
-31.845305998438,105.23947849276,11.838143814381,780786.4511301,-6735.6660719043,2692635.8144033,17.038143814381,0,0
-31.845305974483,105.26103622347,11.842574257426,780786.4511301,-6735.6660719043,2692635.8144033,17.042574257426,0,0
-31.845305950527,105.28259395418,11.84700470047,780786.4511301,-6735.6660719043,2692635.8144033,17.04700470047,0,0
-31.845305926572,105.30415168488,11.851435143514,780786.4511301,-6735.6660719043,2692635.8144033,17.051435143514,0,0
-31.845305902617,105.32570941559,11.855865586559,780786.4511301,-6735.6660719043,2692635.8144033,17.055865586559,0,0
-31.845305878661,105.3472671463,11.860296029603,780786.4511301,-6735.6660719043,2692635.8144033,17.060296029603,0,0
-31.845305854706,105.368824877,11.864726472647,780786.4511301,-6735.6660719043,2692635.8144033,17.064726472647,0,0
-31.845305830751,105.39038260771,11.869156915692,780786.4511301,-6735.6660719043,2692635.8144033,17.069156915692,0,0
-31.845305806795,105.41194033842,11.873587358736,780786.4511301,-6735.6660719043,2692635.8144033,17.073587358736,0,0
-31.84530578284,105.43349806912,11.87801780178,780786.4511301,-6735.6660719043,2692635.8144033,17.07801780178,0,0
-31.845305758884,105.45505579983,11.882448244824,780786.4511301,-6735.6660719043,2692635.8144033,17.082448244824,0,0
-31.845305734929,105.47661353054,11.886878687869,780786.4511301,-6735.6660719043,2692635.8144033,17.086878687869,0,0
-31.845305710974,105.49817126124,11.891309130913,780786.4511301,-6735.6660719043,2692635.8144033,17.091309130913,0,0
-31.845305687018,105.51972899195,11.895739573957,780786.4511301,-6735.6660719043,2692635.8144033,17.095739573957,0,0
-31.845305663063,105.54128672265,11.900170017002,780786.4511301,-6735.6660719043,2692635.8144033,17.100170017002,0,0
-31.845305639108,105.56284445336,11.904600460046,780786.4511301,-6735.6660719043,2692635.8144033,17.104600460046,0,0
-31.845305615152,105.58440218407,11.90903090309,780786.4511301,-6735.6660719043,2692635.8144033,17.10903090309,0,0
-31.845305591197,105.60595991477,11.913461346135,780786.4511301,-6735.6660719043,2692635.8144033,17.113461346135,0,0
-31.845305567241,105.62751764548,11.917891789179,780786.4511301,-6735.6660719043,2692635.8144033,17.117891789179,0,0
-31.845305543286,105.64907537619,11.922322232223,780786.4511301,-6735.6660719043,2692635.8144033,17.122322232223,0,0
-31.845305519331,105.67063310689,11.926752675268,780786.4511301,-6735.6660719043,2692635.8144033,17.126752675268,0,0
-31.845305495375,105.6921908376,11.931183118312,780786.4511301,-6735.6660719043,2692635.8144033,17.131183118312,0,0
-31.84530547142,105.71374856831,11.935613561356,780786.4511301,-6735.6660719043,2692635.8144033,17.135613561356,0,0
-31.845305447465,105.73530629901,11.9400440044,780786.4511301,-6735.6660719043,2692635.8144033,17.1400440044,0,0
-31.845305423509,105.75686402972,11.944474447445,780786.4511301,-6735.6660719043,2692635.8144033,17.144474447445,0,0
-31.845305399554,105.77842176043,11.948904890489,780786.4511301,-6735.6660719043,2692635.8144033,17.148904890489,0,0
-31.845305375598,105.79997949113,11.953335333533,780786.4511301,-6735.6660719043,2692635.8144033,17.153335333533,0,0
-31.845305351643,105.82153722184,11.957765776578,780786.4511301,-6735.6660719043,2692635.8144033,17.157765776578,0,0
-31.845305327688,105.84309495254,11.962196219622,780786.4511301,-6735.6660719043,2692635.8144033,17.162196219622,0,0
-31.845305303732,105.86465268325,11.966626662666,780786.4511301,-6735.6660719043,2692635.8144033,17.166626662666,0,0
-31.845305279777,105.88621041396,11.971057105711,780786.4511301,-6735.6660719043,2692635.8144033,17.171057105711,0,0
-31.845305255822,105.90776814466,11.975487548755,780786.4511301,-6735.6660719043,2692635.8144033,17.175487548755,0,0
-31.845305231866,105.92932587537,11.979917991799,780786.4511301,-6735.6660719043,2692635.8144033,17.179917991799,0,0
-31.845305207911,105.95088360608,11.984348434843,780786.4511301,-6735.6660719043,2692635.8144033,17.184348434843,0,0
-31.845305183956,105.97244133678,11.988778877888,780786.4511301,-6735.6660719043,2692635.8144033,17.188778877888,0,0
-31.84530516,105.99399906749,11.993209320932,780786.4511301,-6735.6660719043,2692635.8144033,17.193209320932,0,0
-31.845305136045,106.0155567982,11.997639763976,780786.4511301,-6735.6660719043,2692635.8144033,17.197639763976,0,0
-31.845305112089,106.0371145289,12.002070207021,780786.4511301,-6735.6660719043,2692635.8144033,17.202070207021,0,0
-31.845305088134,106.05867225961,12.006500650065,780786.4511301,-6735.6660719043,2692635.8144033,17.206500650065,0,0
-31.845305064179,106.08022999032,12.010931093109,780786.4511301,-6735.6660719043,2692635.8144033,17.210931093109,0,0
-31.845305040223,106.10178772102,12.015361536154,780786.4511301,-6735.6660719043,2692635.8144033,17.215361536154,0,0
-31.845305016268,106.12334545173,12.019791979198,780786.4511301,-6735.6660719043,2692635.8144033,17.219791979198,0,0
-31.845304992313,106.14490318243,12.024222422242,780786.4511301,-6735.6660719043,2692635.8144033,17.224222422242,0,0
-31.845304968357,106.16646091314,12.028652865287,780786.4511301,-6735.6660719043,2692635.8144033,17.228652865287,0,0
-31.845304944402,106.18801864385,12.033083308331,780786.4511301,-6735.6660719043,2692635.8144033,17.233083308331,0,0
-31.845304920446,106.20957637455,12.037513751375,780786.4511301,-6735.6660719043,2692635.8144033,17.237513751375,0,0
-31.845304896491,106.23113410526,12.041944194419,780786.4511301,-6735.6660719043,2692635.8144033,17.241944194419,0,0
-31.845304872536,106.25269183597,12.046374637464,780786.4511301,-6735.6660719043,2692635.8144033,17.246374637464,0,0
-31.84530484858,106.27424956667,12.050805080508,780786.4511301,-6735.6660719043,2692635.8144033,17.250805080508,0,0
-31.845304824625,106.29580729738,12.055235523552,780786.4511301,-6735.6660719043,2692635.8144033,17.255235523552,0,0
-31.84530480067,106.31736502809,12.059665966597,780786.4511301,-6735.6660719043,2692635.8144033,17.259665966597,0,0
-31.845304776714,106.33892275879,12.064096409641,780786.4511301,-6735.6660719043,2692635.8144033,17.264096409641,0,0
-31.845304752759,106.3604804895,12.068526852685,780786.4511301,-6735.6660719043,2692635.8144033,17.268526852685,0,0
-31.845304728803,106.38203822021,12.07295729573,780786.4511301,-6735.6660719043,2692635.8144033,17.27295729573,0,0
-31.845304704848,106.40359595091,12.077387738774,780786.4511301,-6735.6660719043,2692635.8144033,17.277387738774,0,0
-31.845304680893,106.42515368162,12.081818181818,780786.4511301,-6735.6660719043,2692635.8144033,17.281818181818,0,0
-31.845304656937,106.44671141233,12.086248624862,780786.4511301,-6735.6660719043,2692635.8144033,17.286248624862,0,0
-31.845304632982,106.46826914303,12.090679067907,780786.4511301,-6735.6660719043,2692635.8144033,17.290679067907,0,0
-31.845304609027,106.48982687374,12.095109510951,780786.4511301,-6735.6660719043,2692635.8144033,17.295109510951,0,0
-31.845304585071,106.51138460444,12.099539953995,780786.4511301,-6735.6660719043,2692635.8144033,17.299539953995,0,0
-31.845304561116,106.53294233515,12.10397039704,780786.4511301,-6735.6660719043,2692635.8144033,17.30397039704,0,0
-31.84530453716,106.55450006586,12.108400840084,780786.4511301,-6735.6660719043,2692635.8144033,17.308400840084,0,0
-31.845304513205,106.57605779656,12.112831283128,780786.4511301,-6735.6660719043,2692635.8144033,17.312831283128,0,0
-31.84530448925,106.59761552727,12.117261726173,780786.4511301,-6735.6660719043,2692635.8144033,17.317261726173,0,0
-31.845304465294,106.61917325798,12.121692169217,780786.4511301,-6735.6660719043,2692635.8144033,17.321692169217,0,0
-31.845304441339,106.64073098868,12.126122612261,780786.4511301,-6735.6660719043,2692635.8144033,17.326122612261,0,0
-31.845304417384,106.66228871939,12.130553055306,780786.4511301,-6735.6660719043,2692635.8144033,17.330553055306,0,0
-31.845304393428,106.6838464501,12.13498349835,780786.4511301,-6735.6660719043,2692635.8144033,17.33498349835,0,0
-31.845304369473,106.7054041808,12.139413941394,780786.4511301,-6735.6660719043,2692635.8144033,17.339413941394,0,0
-31.845304345517,106.72696191151,12.143844384438,780786.4511301,-6735.6660719043,2692635.8144033,17.343844384438,0,0
-31.845304321562,106.74851964222,12.148274827483,780786.4511301,-6735.6660719043,2692635.8144033,17.348274827483,0,0
-31.845304297607,106.77007737292,12.152705270527,780786.4511301,-6735.6660719043,2692635.8144033,17.352705270527,0,0
-31.845304273651,106.79163510363,12.157135713571,780786.4511301,-6735.6660719043,2692635.8144033,17.357135713571,0,0
-31.845304249696,106.81319283433,12.161566156616,780786.4511301,-6735.6660719043,2692635.8144033,17.361566156616,0,0
-31.845304225741,106.83475056504,12.16599659966,780786.4511301,-6735.6660719043,2692635.8144033,17.36599659966,0,0
-31.845304201785,106.85630829575,12.170427042704,780786.4511301,-6735.6660719043,2692635.8144033,17.370427042704,0,0
-31.84530417783,106.87786602645,12.174857485749,780786.4511301,-6735.6660719043,2692635.8144033,17.374857485749,0,0
-31.845304153875,106.89942375716,12.179287928793,780786.4511301,-6735.6660719043,2692635.8144033,17.379287928793,0,0
-31.845304129919,106.92098148787,12.183718371837,780786.4511301,-6735.6660719043,2692635.8144033,17.383718371837,0,0
-31.845304105964,106.94253921857,12.188148814881,780786.4511301,-6735.6660719043,2692635.8144033,17.388148814881,0,0
-31.845304082008,106.96409694928,12.192579257926,780786.4511301,-6735.6660719043,2692635.8144033,17.392579257926,0,0
-31.845304058053,106.98565467999,12.19700970097,780786.4511301,-6735.6660719043,2692635.8144033,17.39700970097,0,0
-31.845304034098,107.00721241069,12.201440144014,780786.4511301,-6735.6660719043,2692635.8144033,17.401440144014,0,0
-31.845304010142,107.0287701414,12.205870587059,780786.4511301,-6735.6660719043,2692635.8144033,17.405870587059,0,0
-31.845303986187,107.05032787211,12.210301030103,780786.4511301,-6735.6660719043,2692635.8144033,17.410301030103,0,0
-31.845303962232,107.07188560281,12.214731473147,780786.4511301,-6735.6660719043,2692635.8144033,17.414731473147,0,0
-31.845303938276,107.09344333352,12.219161916192,780786.4511301,-6735.6660719043,2692635.8144033,17.419161916192,0,0
-31.845303914321,107.11500106422,12.223592359236,780786.4511301,-6735.6660719043,2692635.8144033,17.423592359236,0,0
-31.845303890365,107.13655879493,12.22802280228,780786.4511301,-6735.6660719043,2692635.8144033,17.42802280228,0,0
-31.84530386641,107.15811652564,12.232453245325,780786.4511301,-6735.6660719043,2692635.8144033,17.432453245325,0,0
-31.845303842455,107.17967425634,12.236883688369,780786.4511301,-6735.6660719043,2692635.8144033,17.436883688369,0,0
-31.845303818499,107.20123198705,12.241314131413,780786.4511301,-6735.6660719043,2692635.8144033,17.441314131413,0,0
-31.845303794544,107.22278971776,12.245744574457,780786.4511301,-6735.6660719043,2692635.8144033,17.445744574457,0,0
-31.845303770589,107.24434744846,12.250175017502,780786.4511301,-6735.6660719043,2692635.8144033,17.450175017502,0,0
-31.845303746633,107.26590517917,12.254605460546,780786.4511301,-6735.6660719043,2692635.8144033,17.454605460546,0,0
-31.845303722678,107.28746290988,12.25903590359,780786.4511301,-6735.6660719043,2692635.8144033,17.45903590359,0,0
-31.845303698722,107.30902064058,12.263466346635,780786.4511301,-6735.6660719043,2692635.8144033,17.463466346635,0,0
-31.845303674767,107.33057837129,12.267896789679,780786.4511301,-6735.6660719043,2692635.8144033,17.467896789679,0,0
-31.845303650812,107.352136102,12.272327232723,780786.4511301,-6735.6660719043,2692635.8144033,17.472327232723,0,0
-31.845303626856,107.3736938327,12.276757675768,780786.4511301,-6735.6660719043,2692635.8144033,17.476757675768,0,0
-31.845303602901,107.39525156341,12.281188118812,780786.4511301,-6735.6660719043,2692635.8144033,17.481188118812,0,0
-31.845303578946,107.41680929412,12.285618561856,780786.4511301,-6735.6660719043,2692635.8144033,17.485618561856,0,0
-31.84530355499,107.43836702482,12.2900490049,780786.4511301,-6735.6660719043,2692635.8144033,17.4900490049,0,0
-31.845303531035,107.45992475553,12.294479447945,780786.4511301,-6735.6660719043,2692635.8144033,17.494479447945,0,0
-31.845303507079,107.48148248623,12.298909890989,780786.4511301,-6735.6660719043,2692635.8144033,17.498909890989,0,0
-31.845303483124,107.50304021694,12.303340334033,780786.4511301,-6735.6660719043,2692635.8144033,17.503340334033,0,0
-31.845303459169,107.52459794765,12.307770777078,780786.4511301,-6735.6660719043,2692635.8144033,17.507770777078,0,0
-31.845303435213,107.54615567835,12.312201220122,780786.4511301,-6735.6660719043,2692635.8144033,17.512201220122,0,0
-31.845303411258,107.56771340906,12.316631663166,780786.4511301,-6735.6660719043,2692635.8144033,17.516631663166,0,0
-31.845303387589,107.58927114009,12.321062106211,764652.35301498,584.73608135039,2680677.2240968,17.521062106211,0,0
-31.845303364604,107.61082887189,12.325492549255,764652.35301498,584.73608135039,2680677.2240968,17.525492549255,0,0
-31.845303341619,107.63238660369,12.329922992299,764652.35301498,584.73608135039,2680677.2240968,17.529922992299,0,0
-31.845303318634,107.65394433549,12.334353435344,764652.35301498,584.73608135039,2680677.2240968,17.534353435344,0,0
-31.845303295649,107.67550206728,12.338783878388,764652.35301498,584.73608135039,2680677.2240968,17.538783878388,0,0
-31.845303272664,107.69705979908,12.343214321432,764652.35301498,584.73608135039,2680677.2240968,17.543214321432,0,0
-31.845303249679,107.71861753088,12.347644764476,764652.35301498,584.73608135039,2680677.2240968,17.547644764476,0,0
-31.845303226694,107.74017526268,12.352075207521,764652.35301498,584.73608135039,2680677.2240968,17.552075207521,0,0
-31.845303203709,107.76173299448,12.356505650565,764652.35301498,584.73608135039,2680677.2240968,17.556505650565,0,0
-31.845303180724,107.78329072628,12.360936093609,764652.35301498,584.73608135039,2680677.2240968,17.560936093609,0,0
-31.845303157739,107.80484845808,12.365366536654,764652.35301498,584.73608135039,2680677.2240968,17.565366536654,0,0
-31.845303134754,107.82640618988,12.369796979698,764652.35301498,584.73608135039,2680677.2240968,17.569796979698,0,0
-31.845303111769,107.84796392168,12.374227422742,764652.35301498,584.73608135039,2680677.2240968,17.574227422742,0,0
-31.845303088784,107.86952165347,12.378657865787,764652.35301498,584.73608135039,2680677.2240968,17.578657865787,0,0
-31.845303065799,107.89107938527,12.383088308831,764652.35301498,584.73608135039,2680677.2240968,17.583088308831,0,0
-31.845303042814,107.91263711707,12.387518751875,764652.35301498,584.73608135039,2680677.2240968,17.587518751875,0,0
-31.845303019829,107.93419484887,12.391949194919,764652.35301498,584.73608135039,2680677.2240968,17.591949194919,0,0
-31.845302996844,107.95575258067,12.396379637964,764652.35301498,584.73608135039,2680677.2240968,17.596379637964,0,0
-31.845302973859,107.97731031247,12.400810081008,764652.35301498,584.73608135039,2680677.2240968,17.600810081008,0,0
-31.845302950874,107.99886804427,12.405240524052,764652.35301498,584.73608135039,2680677.2240968,17.605240524052,0,0
-31.845302927888,108.02042577607,12.409670967097,764652.35301498,584.73608135039,2680677.2240968,17.609670967097,0,0
-31.845302904903,108.04198350786,12.414101410141,764652.35301498,584.73608135039,2680677.2240968,17.614101410141,0,0
-31.845302881918,108.06354123966,12.418531853185,764652.35301498,584.73608135039,2680677.2240968,17.618531853185,0,0
-31.845302858933,108.08509897146,12.42296229623,764652.35301498,584.73608135039,2680677.2240968,17.62296229623,0,0
-31.845302835948,108.10665670326,12.427392739274,764652.35301498,584.73608135039,2680677.2240968,17.627392739274,0,0
-31.845302812963,108.12821443506,12.431823182318,764652.35301498,584.73608135039,2680677.2240968,17.631823182318,0,0
-31.845302789978,108.14977216686,12.436253625363,764652.35301498,584.73608135039,2680677.2240968,17.636253625363,0,0
-31.845302766993,108.17132989866,12.440684068407,764652.35301498,584.73608135039,2680677.2240968,17.640684068407,0,0
-31.845302744008,108.19288763046,12.445114511451,764652.35301498,584.73608135039,2680677.2240968,17.645114511451,0,0
-31.845302721023,108.21444536225,12.449544954495,764652.35301498,584.73608135039,2680677.2240968,17.649544954495,0,0
-31.845302698038,108.23600309405,12.45397539754,764652.35301498,584.73608135039,2680677.2240968,17.65397539754,0,0
-31.845302675053,108.25756082585,12.458405840584,764652.35301498,584.73608135039,2680677.2240968,17.658405840584,0,0
-31.845302652068,108.27911855765,12.462836283628,764652.35301498,584.73608135039,2680677.2240968,17.662836283628,0,0
-31.845302629083,108.30067628945,12.467266726673,764652.35301498,584.73608135039,2680677.2240968,17.667266726673,0,0
-31.845302606098,108.32223402125,12.471697169717,764652.35301498,584.73608135039,2680677.2240968,17.671697169717,0,0
-31.845302583113,108.34379175305,12.476127612761,764652.35301498,584.73608135039,2680677.2240968,17.676127612761,0,0
-31.845302560128,108.36534948485,12.480558055806,764652.35301498,584.73608135039,2680677.2240968,17.680558055806,0,0
-31.845302537143,108.38690721665,12.48498849885,764652.35301498,584.73608135039,2680677.2240968,17.68498849885,0,0
-31.845302514158,108.40846494844,12.489418941894,764652.35301498,584.73608135039,2680677.2240968,17.689418941894,0,0
-31.845302491173,108.43002268024,12.493849384938,764652.35301498,584.73608135039,2680677.2240968,17.693849384938,0,0
-31.845302468188,108.45158041204,12.498279827983,764652.35301498,584.73608135039,2680677.2240968,17.698279827983,0,0
-31.845302445202,108.47313814384,12.502710271027,764652.35301498,584.73608135039,2680677.2240968,17.702710271027,0,0
-31.845302422217,108.49469587564,12.507140714071,764652.35301498,584.73608135039,2680677.2240968,17.707140714071,0,0
-31.845302399232,108.51625360744,12.511571157116,764652.35301498,584.73608135039,2680677.2240968,17.711571157116,0,0
-31.845302376247,108.53781133924,12.51600160016,764652.35301498,584.73608135039,2680677.2240968,17.71600160016,0,0
-31.845302353262,108.55936907104,12.520432043204,764652.35301498,584.73608135039,2680677.2240968,17.720432043204,0,0
-31.845302330277,108.58092680283,12.524862486249,764652.35301498,584.73608135039,2680677.2240968,17.724862486249,0,0
-31.845302307292,108.60248453463,12.529292929293,764652.35301498,584.73608135039,2680677.2240968,17.729292929293,0,0
-31.845302284307,108.62404226643,12.533723372337,764652.35301498,584.73608135039,2680677.2240968,17.733723372337,0,0
-31.845302261322,108.64559999823,12.538153815382,764652.35301498,584.73608135039,2680677.2240968,17.738153815382,0,0
-31.845302238337,108.66715773003,12.542584258426,764652.35301498,584.73608135039,2680677.2240968,17.742584258426,0,0
-31.845302215352,108.68871546183,12.54701470147,764652.35301498,584.73608135039,2680677.2240968,17.74701470147,0,0
-31.845302192367,108.71027319363,12.551445144514,764652.35301498,584.73608135039,2680677.2240968,17.751445144514,0,0
-31.845302169382,108.73183092543,12.555875587559,764652.35301498,584.73608135039,2680677.2240968,17.755875587559,0,0
-31.845302146397,108.75338865722,12.560306030603,764652.35301498,584.73608135039,2680677.2240968,17.760306030603,0,0
-31.845302123412,108.77494638902,12.564736473647,764652.35301498,584.73608135039,2680677.2240968,17.764736473647,0,0
-31.845302100427,108.79650412082,12.569166916692,764652.35301498,584.73608135039,2680677.2240968,17.769166916692,0,0
-31.845302077442,108.81806185262,12.573597359736,764652.35301498,584.73608135039,2680677.2240968,17.773597359736,0,0
-31.845302054457,108.83961958442,12.57802780278,764652.35301498,584.73608135039,2680677.2240968,17.77802780278,0,0
-31.845302031472,108.86117731622,12.582458245825,764652.35301498,584.73608135039,2680677.2240968,17.782458245825,0,0
-31.845302008487,108.88273504802,12.586888688869,764652.35301498,584.73608135039,2680677.2240968,17.786888688869,0,0
-31.845301985501,108.90429277982,12.591319131913,764652.35301498,584.73608135039,2680677.2240968,17.791319131913,0,0
-31.845301962516,108.92585051162,12.595749574957,764652.35301498,584.73608135039,2680677.2240968,17.795749574957,0,0
-31.845301939531,108.94740824341,12.600180018002,764652.35301498,584.73608135039,2680677.2240968,17.800180018002,0,0
-31.845301916546,108.96896597521,12.604610461046,764652.35301498,584.73608135039,2680677.2240968,17.804610461046,0,0
-31.845301893561,108.99052370701,12.60904090409,764652.35301498,584.73608135039,2680677.2240968,17.80904090409,0,0
-31.845301870576,109.01208143881,12.613471347135,764652.35301498,584.73608135039,2680677.2240968,17.813471347135,0,0
-31.845301847591,109.03363917061,12.617901790179,764652.35301498,584.73608135039,2680677.2240968,17.817901790179,0,0
-31.845301824606,109.05519690241,12.622332233223,764652.35301498,584.73608135039,2680677.2240968,17.822332233223,0,0
-31.845301801621,109.07675463421,12.626762676268,764652.35301498,584.73608135039,2680677.2240968,17.826762676268,0,0
-31.845301778636,109.09831236601,12.631193119312,764652.35301498,584.73608135039,2680677.2240968,17.831193119312,0,0
-31.845301755651,109.1198700978,12.635623562356,764652.35301498,584.73608135039,2680677.2240968,17.835623562356,0,0
-31.845301732666,109.1414278296,12.640054005401,764652.35301498,584.73608135039,2680677.2240968,17.840054005401,0,0
-31.845301709681,109.1629855614,12.644484448445,764652.35301498,584.73608135039,2680677.2240968,17.844484448445,0,0
-31.845301686696,109.1845432932,12.648914891489,764652.35301498,584.73608135039,2680677.2240968,17.848914891489,0,0
-31.845301663711,109.206101025,12.653345334533,764652.35301498,584.73608135039,2680677.2240968,17.853345334533,0,0
-31.845301640726,109.2276587568,12.657775777578,764652.35301498,584.73608135039,2680677.2240968,17.857775777578,0,0
-31.845301617741,109.2492164886,12.662206220622,764652.35301498,584.73608135039,2680677.2240968,17.862206220622,0,0
-31.845301594756,109.2707742204,12.666636663666,764652.35301498,584.73608135039,2680677.2240968,17.866636663666,0,0
-31.845301571771,109.29233195219,12.671067106711,764652.35301498,584.73608135039,2680677.2240968,17.871067106711,0,0
-31.845301548786,109.31388968399,12.675497549755,764652.35301498,584.73608135039,2680677.2240968,17.875497549755,0,0
-31.845301525801,109.33544741579,12.679927992799,764652.35301498,584.73608135039,2680677.2240968,17.879927992799,0,0
-31.845301502815,109.35700514759,12.684358435844,764652.35301498,584.73608135039,2680677.2240968,17.884358435844,0,0
-31.84530147983,109.37856287939,12.688788878888,764652.35301498,584.73608135039,2680677.2240968,17.888788878888,0,0
-31.845301456845,109.40012061119,12.693219321932,764652.35301498,584.73608135039,2680677.2240968,17.893219321932,0,0
-31.84530143386,109.42167834299,12.697649764976,764652.35301498,584.73608135039,2680677.2240968,17.897649764976,0,0
-31.845301410875,109.44323607479,12.702080208021,764652.35301498,584.73608135039,2680677.2240968,17.902080208021,0,0
-31.84530138789,109.46479380659,12.706510651065,764652.35301498,584.73608135039,2680677.2240968,17.906510651065,0,0
-31.845301364905,109.48635153838,12.710941094109,764652.35301498,584.73608135039,2680677.2240968,17.910941094109,0,0
-31.84530134192,109.50790927018,12.715371537154,764652.35301498,584.73608135039,2680677.2240968,17.915371537154,0,0
-31.845301318935,109.52946700198,12.719801980198,764652.35301498,584.73608135039,2680677.2240968,17.919801980198,0,0
-31.84530129595,109.55102473378,12.724232423242,764652.35301498,584.73608135039,2680677.2240968,17.924232423242,0,0
-31.845301272965,109.57258246558,12.728662866287,764652.35301498,584.73608135039,2680677.2240968,17.928662866287,0,0
-31.84530124998,109.59414019738,12.733093309331,764652.35301498,584.73608135039,2680677.2240968,17.933093309331,0,0
-31.845301226995,109.61569792918,12.737523752375,764652.35301498,584.73608135039,2680677.2240968,17.937523752375,0,0
-31.845301204017,109.6372556605,12.74195419542,760807.32082119,-4900.6456561074,2669816.5413472,17.94195419542,0,0
-31.84530118105,109.65881339114,12.746384638464,760807.32082119,-4900.6456561074,2669816.5413472,17.946384638464,0,0
-31.845301158083,109.68037112179,12.750815081508,760807.32082119,-4900.6456561074,2669816.5413472,17.950815081508,0,0
-31.845301135116,109.70192885243,12.755245524552,760807.32082119,-4900.6456561074,2669816.5413472,17.955245524552,0,0
-31.845301112149,109.72348658307,12.759675967597,760807.32082119,-4900.6456561074,2669816.5413472,17.959675967597,0,0
-31.845301089182,109.74504431371,12.764106410641,760807.32082119,-4900.6456561074,2669816.5413472,17.964106410641,0,0
-31.845301066215,109.76660204436,12.768536853685,760807.32082119,-4900.6456561074,2669816.5413472,17.968536853685,0,0
-31.845301043248,109.788159775,12.77296729673,760807.32082119,-4900.6456561074,2669816.5413472,17.97296729673,0,0
-31.84530102028,109.80971750564,12.777397739774,760807.32082119,-4900.6456561074,2669816.5413472,17.977397739774,0,0
-31.845300997313,109.83127523628,12.781828182818,760807.32082119,-4900.6456561074,2669816.5413472,17.981828182818,0,0
-31.845300974346,109.85283296692,12.786258625863,760807.32082119,-4900.6456561074,2669816.5413472,17.986258625863,0,0
-31.845300951379,109.87439069757,12.790689068907,760807.32082119,-4900.6456561074,2669816.5413472,17.990689068907,0,0
-31.845300928412,109.89594842821,12.795119511951,760807.32082119,-4900.6456561074,2669816.5413472,17.995119511951,0,0
-31.845300905445,109.91750615885,12.799549954995,760807.32082119,-4900.6456561074,2669816.5413472,17.999549954995,0,0
-31.845300882478,109.93906388949,12.80398039804,760807.32082119,-4900.6456561074,2669816.5413472,18.00398039804,0,0
-31.845300859511,109.96062162014,12.808410841084,760807.32082119,-4900.6456561074,2669816.5413472,18.008410841084,0,0
-31.845300836544,109.98217935078,12.812841284128,760807.32082119,-4900.6456561074,2669816.5413472,18.012841284128,0,0
-31.845300813577,110.00373708142,12.817271727173,760807.32082119,-4900.6456561074,2669816.5413472,18.017271727173,0,0
-31.84530079061,110.02529481206,12.821702170217,760807.32082119,-4900.6456561074,2669816.5413472,18.021702170217,0,0
-31.845300767642,110.0468525427,12.826132613261,760807.32082119,-4900.6456561074,2669816.5413472,18.026132613261,0,0
-31.845300744675,110.06841027335,12.830563056306,760807.32082119,-4900.6456561074,2669816.5413472,18.030563056306,0,0
-31.845300721708,110.08996800399,12.83499349935,760807.32082119,-4900.6456561074,2669816.5413472,18.03499349935,0,0
-31.845300698741,110.11152573463,12.839423942394,760807.32082119,-4900.6456561074,2669816.5413472,18.039423942394,0,0
-31.845300675774,110.13308346527,12.843854385439,760807.32082119,-4900.6456561074,2669816.5413472,18.043854385439,0,0
-31.845300652807,110.15464119592,12.848284828483,760807.32082119,-4900.6456561074,2669816.5413472,18.048284828483,0,0
-31.84530062984,110.17619892656,12.852715271527,760807.32082119,-4900.6456561074,2669816.5413472,18.052715271527,0,0
-31.845300606873,110.1977566572,12.857145714571,760807.32082119,-4900.6456561074,2669816.5413472,18.057145714571,0,0
-31.845300583906,110.21931438784,12.861576157616,760807.32082119,-4900.6456561074,2669816.5413472,18.061576157616,0,0
-31.845300560939,110.24087211849,12.86600660066,760807.32082119,-4900.6456561074,2669816.5413472,18.06600660066,0,0
-31.845300537971,110.26242984913,12.870437043704,760807.32082119,-4900.6456561074,2669816.5413472,18.070437043704,0,0
-31.845300515004,110.28398757977,12.874867486749,760807.32082119,-4900.6456561074,2669816.5413472,18.074867486749,0,0
-31.845300492037,110.30554531041,12.879297929793,760807.32082119,-4900.6456561074,2669816.5413472,18.079297929793,0,0
-31.84530046907,110.32710304105,12.883728372837,760807.32082119,-4900.6456561074,2669816.5413472,18.083728372837,0,0
-31.845300446103,110.3486607717,12.888158815882,760807.32082119,-4900.6456561074,2669816.5413472,18.088158815882,0,0
-31.845300423136,110.37021850234,12.892589258926,760807.32082119,-4900.6456561074,2669816.5413472,18.092589258926,0,0
-31.845300400169,110.39177623298,12.89701970197,760807.32082119,-4900.6456561074,2669816.5413472,18.09701970197,0,0
-31.845300377202,110.41333396362,12.901450145015,760807.32082119,-4900.6456561074,2669816.5413472,18.101450145014,0,0
-31.845300354235,110.43489169427,12.905880588059,760807.32082119,-4900.6456561074,2669816.5413472,18.105880588059,0,0
-31.845300331268,110.45644942491,12.910311031103,760807.32082119,-4900.6456561074,2669816.5413472,18.110311031103,0,0
-31.845300308301,110.47800715555,12.914741474147,760807.32082119,-4900.6456561074,2669816.5413472,18.114741474147,0,0
-31.845300285333,110.49956488619,12.919171917192,760807.32082119,-4900.6456561074,2669816.5413472,18.119171917192,0,0
-31.845300262366,110.52112261683,12.923602360236,760807.32082119,-4900.6456561074,2669816.5413472,18.123602360236,0,0
-31.845300239399,110.54268034748,12.92803280328,760807.32082119,-4900.6456561074,2669816.5413472,18.12803280328,0,0
-31.845300216432,110.56423807812,12.932463246325,760807.32082119,-4900.6456561074,2669816.5413472,18.132463246325,0,0
-31.845300193465,110.58579580876,12.936893689369,760807.32082119,-4900.6456561074,2669816.5413472,18.136893689369,0,0
-31.845300170498,110.6073535394,12.941324132413,760807.32082119,-4900.6456561074,2669816.5413472,18.141324132413,0,0
-31.845300147531,110.62891127005,12.945754575458,760807.32082119,-4900.6456561074,2669816.5413472,18.145754575458,0,0
-31.845300124564,110.65046900069,12.950185018502,760807.32082119,-4900.6456561074,2669816.5413472,18.150185018502,0,0
-31.845300101597,110.67202673133,12.954615461546,760807.32082119,-4900.6456561074,2669816.5413472,18.154615461546,0,0
-31.84530007863,110.69358446197,12.95904590459,760807.32082119,-4900.6456561074,2669816.5413472,18.15904590459,0,0
-31.845300055663,110.71514219262,12.963476347635,760807.32082119,-4900.6456561074,2669816.5413472,18.163476347635,0,0
-31.845300032695,110.73669992326,12.967906790679,760807.32082119,-4900.6456561074,2669816.5413472,18.167906790679,0,0
-31.845300009728,110.7582576539,12.972337233723,760807.32082119,-4900.6456561074,2669816.5413472,18.172337233723,0,0
-31.845299986761,110.77981538454,12.976767676768,760807.32082119,-4900.6456561074,2669816.5413472,18.176767676768,0,0
-31.845299963794,110.80137311518,12.981198119812,760807.32082119,-4900.6456561074,2669816.5413472,18.181198119812,0,0
-31.845299940827,110.82293084583,12.985628562856,760807.32082119,-4900.6456561074,2669816.5413472,18.185628562856,0,0
-31.84529991786,110.84448857647,12.990059005901,760807.32082119,-4900.6456561074,2669816.5413472,18.190059005901,0,0
-31.845299894893,110.86604630711,12.994489448945,760807.32082119,-4900.6456561074,2669816.5413472,18.194489448945,0,0
-31.845299871926,110.88760403775,12.998919891989,760807.32082119,-4900.6456561074,2669816.5413472,18.198919891989,0,0
-31.845299848959,110.9091617684,13.003350335034,760807.32082119,-4900.6456561074,2669816.5413472,18.203350335034,0,0
-31.845299825992,110.93071949904,13.007780778078,760807.32082119,-4900.6456561074,2669816.5413472,18.207780778078,0,0
-31.845299803025,110.95227722968,13.012211221122,760807.32082119,-4900.6456561074,2669816.5413472,18.212211221122,0,0
-31.845299780057,110.97383496032,13.016641664166,760807.32082119,-4900.6456561074,2669816.5413472,18.216641664166,0,0
-31.84529975709,110.99539269096,13.021072107211,760807.32082119,-4900.6456561074,2669816.5413472,18.221072107211,0,0
-31.845299734123,111.01695042161,13.025502550255,760807.32082119,-4900.6456561074,2669816.5413472,18.225502550255,0,0
-31.845299711156,111.03850815225,13.029932993299,760807.32082119,-4900.6456561074,2669816.5413472,18.229932993299,0,0
-31.845299688189,111.06006588289,13.034363436344,760807.32082119,-4900.6456561074,2669816.5413472,18.234363436344,0,0
-31.845299665222,111.08162361353,13.038793879388,760807.32082119,-4900.6456561074,2669816.5413472,18.238793879388,0,0
-31.845299642255,111.10318134418,13.043224322432,760807.32082119,-4900.6456561074,2669816.5413472,18.243224322432,0,0
-31.845299619288,111.12473907482,13.047654765477,760807.32082119,-4900.6456561074,2669816.5413472,18.247654765477,0,0
-31.845299596321,111.14629680546,13.052085208521,760807.32082119,-4900.6456561074,2669816.5413472,18.252085208521,0,0
-31.845299573354,111.1678545361,13.056515651565,760807.32082119,-4900.6456561074,2669816.5413472,18.256515651565,0,0
-31.845299550387,111.18941226675,13.060946094609,760807.32082119,-4900.6456561074,2669816.5413472,18.260946094609,0,0
-31.845299527419,111.21096999739,13.065376537654,760807.32082119,-4900.6456561074,2669816.5413472,18.265376537654,0,0
-31.845299504452,111.23252772803,13.069806980698,760807.32082119,-4900.6456561074,2669816.5413472,18.269806980698,0,0
-31.845299481485,111.25408545867,13.074237423742,760807.32082119,-4900.6456561074,2669816.5413472,18.274237423742,0,0
-31.845299458518,111.27564318931,13.078667866787,760807.32082119,-4900.6456561074,2669816.5413472,18.278667866787,0,0
-31.845299435551,111.29720091996,13.083098309831,760807.32082119,-4900.6456561074,2669816.5413472,18.283098309831,0,0
-31.845299412584,111.3187586506,13.087528752875,760807.32082119,-4900.6456561074,2669816.5413472,18.287528752875,0,0
-31.845299389617,111.34031638124,13.09195919592,760807.32082119,-4900.6456561074,2669816.5413472,18.29195919592,0,0
-31.84529936665,111.36187411188,13.096389638964,760807.32082119,-4900.6456561074,2669816.5413472,18.296389638964,0,0
-31.845299343683,111.38343184253,13.100820082008,760807.32082119,-4900.6456561074,2669816.5413472,18.300820082008,0,0
-31.845299320716,111.40498957317,13.105250525053,760807.32082119,-4900.6456561074,2669816.5413472,18.305250525053,0,0
-31.845299297749,111.42654730381,13.109680968097,760807.32082119,-4900.6456561074,2669816.5413472,18.309680968097,0,0
-31.845299274781,111.44810503445,13.114111411141,760807.32082119,-4900.6456561074,2669816.5413472,18.314111411141,0,0
-31.845299251814,111.4696627651,13.118541854185,760807.32082119,-4900.6456561074,2669816.5413472,18.318541854185,0,0
-31.845299228847,111.49122049574,13.12297229723,760807.32082119,-4900.6456561074,2669816.5413472,18.32297229723,0,0
-31.84529920588,111.51277822638,13.127402740274,760807.32082119,-4900.6456561074,2669816.5413472,18.327402740274,0,0
-31.845299182913,111.53433595702,13.131833183318,760807.32082119,-4900.6456561074,2669816.5413472,18.331833183318,0,0
-31.845299159946,111.55589368766,13.136263626363,760807.32082119,-4900.6456561074,2669816.5413472,18.336263626363,0,0
-31.845299136979,111.57745141831,13.140694069407,760807.32082119,-4900.6456561074,2669816.5413472,18.340694069407,0,0
-31.845299114012,111.59900914895,13.145124512451,760807.32082119,-4900.6456561074,2669816.5413472,18.345124512451,0,0
-31.845299091045,111.62056687959,13.149554955496,760807.32082119,-4900.6456561074,2669816.5413472,18.349554955496,0,0
-31.845299068078,111.64212461023,13.15398539854,760807.32082119,-4900.6456561074,2669816.5413472,18.35398539854,0,0
-31.84529904511,111.66368234088,13.158415841584,760807.32082119,-4900.6456561074,2669816.5413472,18.358415841584,0,0
-31.845299022143,111.68524007152,13.162846284628,760807.32082119,-4900.6456561074,2669816.5413472,18.362846284628,0,0
-31.845298999176,111.70679780216,13.167276727673,760807.32082119,-4900.6456561074,2669816.5413472,18.367276727673,0,0
-31.845298976209,111.7283555328,13.171707170717,760807.32082119,-4900.6456561074,2669816.5413472,18.371707170717,0,0
-31.845298953242,111.74991326344,13.176137613761,760807.32082119,-4900.6456561074,2669816.5413472,18.376137613761,0,0
-31.845298930275,111.77147099409,13.180568056806,760807.32082119,-4900.6456561074,2669816.5413472,18.380568056806,0,0
-31.845298907308,111.79302872473,13.18499849985,760807.32082119,-4900.6456561074,2669816.5413472,18.38499849985,0,0
-31.845298884341,111.81458645537,13.189428942894,760807.32082119,-4900.6456561074,2669816.5413472,18.389428942894,0,0
-31.845298861374,111.83614418601,13.193859385939,760807.32082119,-4900.6456561074,2669816.5413472,18.393859385939,0,0
-31.845298838407,111.85770191666,13.198289828983,760807.32082119,-4900.6456561074,2669816.5413472,18.398289828983,0,0
-31.84529881544,111.8792596473,13.202720272027,760807.32082119,-4900.6456561074,2669816.5413472,18.402720272027,0,0
-31.845298792472,111.90081737794,13.207150715072,760807.32082119,-4900.6456561074,2669816.5413472,18.407150715072,0,0
-31.845298769505,111.92237510858,13.211581158116,760807.32082119,-4900.6456561074,2669816.5413472,18.411581158116,0,0
-31.845298746538,111.94393283923,13.21601160116,760807.32082119,-4900.6456561074,2669816.5413472,18.41601160116,0,0
-31.845298723571,111.96549056987,13.220442044204,760807.32082119,-4900.6456561074,2669816.5413472,18.420442044204,0,0
-31.845298700604,111.98704830051,13.224872487249,760807.32082119,-4900.6456561074,2669816.5413472,18.424872487249,0,0
-31.845298677637,112.00860603115,13.229302930293,760807.32082119,-4900.6456561074,2669816.5413472,18.429302930293,0,0
-31.84529865467,112.03016376179,13.233733373337,760807.32082119,-4900.6456561074,2669816.5413472,18.433733373337,0,0
-31.845298631703,112.05172149244,13.238163816382,760807.32082119,-4900.6456561074,2669816.5413472,18.438163816382,0,0
-31.845298608736,112.07327922308,13.242594259426,760807.32082119,-4900.6456561074,2669816.5413472,18.442594259426,0,0
-31.845298585769,112.09483695372,13.24702470247,760807.32082119,-4900.6456561074,2669816.5413472,18.44702470247,0,0
-31.845298562802,112.11639468436,13.251455145515,760807.32082119,-4900.6456561074,2669816.5413472,18.451455145515,0,0
-31.845298539834,112.13795241501,13.255885588559,760807.32082119,-4900.6456561074,2669816.5413472,18.455885588559,0,0
-31.845298516867,112.15951014565,13.260316031603,760807.32082119,-4900.6456561074,2669816.5413472,18.460316031603,0,0
-31.8452984939,112.18106787629,13.264746474647,760807.32082119,-4900.6456561074,2669816.5413472,18.464746474647,0,0
-31.845298470933,112.20262560693,13.269176917692,760807.32082119,-4900.6456561074,2669816.5413472,18.469176917692,0,0
-31.845298447966,112.22418333757,13.273607360736,760807.32082119,-4900.6456561074,2669816.5413472,18.473607360736,0,0
-31.845298424999,112.24574106822,13.27803780378,760807.32082119,-4900.6456561074,2669816.5413472,18.47803780378,0,0
-31.845298402032,112.26729879886,13.282468246825,760807.32082119,-4900.6456561074,2669816.5413472,18.482468246825,0,0
-31.845298379065,112.2888565295,13.286898689869,760807.32082119,-4900.6456561074,2669816.5413472,18.486898689869,0,0
-31.845298356098,112.31041426014,13.291329132913,760807.32082119,-4900.6456561074,2669816.5413472,18.491329132913,0,0
-31.845298333131,112.33197199079,13.295759575958,760807.32082119,-4900.6456561074,2669816.5413472,18.495759575958,0,0
-31.845298310164,112.35352972143,13.300190019002,760807.32082119,-4900.6456561074,2669816.5413472,18.500190019002,0,0
-31.845298287196,112.37508745207,13.304620462046,760807.32082119,-4900.6456561074,2669816.5413472,18.504620462046,0,0
-31.845298264229,112.39664518271,13.309050905091,760807.32082119,-4900.6456561074,2669816.5413472,18.509050905091,0,0
-31.845298241262,112.41820291336,13.313481348135,760807.32082119,-4900.6456561074,2669816.5413472,18.513481348135,0,0
-31.845298218295,112.439760644,13.317911791179,760807.32082119,-4900.6456561074,2669816.5413472,18.517911791179,0,0
-31.845298195328,112.46131837464,13.322342234223,760807.32082119,-4900.6456561074,2669816.5413472,18.522342234223,0,0
-31.845298172361,112.48287610528,13.326772677268,760807.32082119,-4900.6456561074,2669816.5413472,18.526772677268,0,0
-31.845298149394,112.50443383592,13.331203120312,760807.32082119,-4900.6456561074,2669816.5413472,18.531203120312,0,0
-31.845298126427,112.52599156657,13.335633563356,760807.32082119,-4900.6456561074,2669816.5413472,18.535633563356,0,0
-31.84529810346,112.54754929721,13.340064006401,760807.32082119,-4900.6456561074,2669816.5413472,18.540064006401,0,0
-31.845298080493,112.56910702785,13.344494449445,760807.32082119,-4900.6456561074,2669816.5413472,18.544494449445,0,0
-31.845298057526,112.59066475849,13.348924892489,760807.32082119,-4900.6456561074,2669816.5413472,18.548924892489,0,0
-31.845298034558,112.61222248914,13.353355335534,760807.32082119,-4900.6456561074,2669816.5413472,18.553355335534,0,0
-31.845298011591,112.63378021978,13.357785778578,760807.32082119,-4900.6456561074,2669816.5413472,18.557785778578,0,0
-31.845297988624,112.65533795042,13.362216221622,760807.32082119,-4900.6456561074,2669816.5413472,18.562216221622,0,0
-31.845297965657,112.67689568106,13.366646664666,760807.32082119,-4900.6456561074,2669816.5413472,18.566646664666,0,0
-31.84529794269,112.69845341171,13.371077107711,760807.32082119,-4900.6456561074,2669816.5413472,18.571077107711,0,0
-31.845297919723,112.72001114235,13.375507550755,760807.32082119,-4900.6456561074,2669816.5413472,18.575507550755,0,0
-31.845297896756,112.74156887299,13.379937993799,760807.32082119,-4900.6456561074,2669816.5413472,18.579937993799,0,0
-31.845297873789,112.76312660363,13.384368436844,760807.32082119,-4900.6456561074,2669816.5413472,18.584368436844,0,0
-31.845297850822,112.78468433427,13.388798879888,760807.32082119,-4900.6456561074,2669816.5413472,18.588798879888,0,0
-31.845297827855,112.80624206492,13.393229322932,760807.32082119,-4900.6456561074,2669816.5413472,18.593229322932,0,0
-31.845297804887,112.82779979556,13.397659765977,760807.32082119,-4900.6456561074,2669816.5413472,18.597659765977,0,0
-31.84529778192,112.8493575262,13.402090209021,760807.32082119,-4900.6456561074,2669816.5413472,18.602090209021,0,0
-31.845297758953,112.87091525684,13.406520652065,760807.32082119,-4900.6456561074,2669816.5413472,18.606520652065,0,0
-31.845297735986,112.89247298749,13.41095109511,760807.32082119,-4900.6456561074,2669816.5413472,18.61095109511,0,0
-31.845297713019,112.91403071813,13.415381538154,760807.32082119,-4900.6456561074,2669816.5413472,18.615381538154,0,0
-31.845297690052,112.93558844877,13.419811981198,760807.32082119,-4900.6456561074,2669816.5413472,18.619811981198,0,0
-31.845297667085,112.95714617941,13.424242424242,760807.32082119,-4900.6456561074,2669816.5413472,18.624242424242,0,0
-31.845297644118,112.97870391005,13.428672867287,760807.32082119,-4900.6456561074,2669816.5413472,18.628672867287,0,0
-31.845297621151,113.0002616407,13.433103310331,760807.32082119,-4900.6456561074,2669816.5413472,18.633103310331,0,0
-31.845297598184,113.02181937134,13.437533753375,760807.32082119,-4900.6456561074,2669816.5413472,18.637533753375,0,0
-31.845297575217,113.04337710198,13.44196419642,760807.32082119,-4900.6456561074,2669816.5413472,18.64196419642,0,0
-31.845297552249,113.06493483262,13.446394639464,760807.32082119,-4900.6456561074,2669816.5413472,18.646394639464,0,0
-31.845297529282,113.08649256327,13.450825082508,760807.32082119,-4900.6456561074,2669816.5413472,18.650825082508,0,0
-31.845297506315,113.10805029391,13.455255525553,760807.32082119,-4900.6456561074,2669816.5413472,18.655255525553,0,0
-31.845297483348,113.12960802455,13.459685968597,760807.32082119,-4900.6456561074,2669816.5413472,18.659685968597,0,0
-31.845297460381,113.15116575519,13.464116411641,760807.32082119,-4900.6456561074,2669816.5413472,18.664116411641,0,0
-31.845297437414,113.17272348584,13.468546854685,760807.32082119,-4900.6456561074,2669816.5413472,18.668546854685,0,0
-31.845297414447,113.19428121648,13.47297729773,760807.32082119,-4900.6456561074,2669816.5413472,18.67297729773,0,0
-31.84529739148,113.21583894712,13.477407740774,760807.32082119,-4900.6456561074,2669816.5413472,18.677407740774,0,0
-31.845297369044,113.23739667838,13.481838183818,746695.49526206,1607.1623551283,2659168.8593813,18.681838183818,0,0
-31.84529734692,113.25895440999,13.486268626863,746695.49526206,1607.1623551283,2659168.8593813,18.686268626863,0,0
-31.845297324797,113.28051214161,13.490699069907,746695.49526206,1607.1623551283,2659168.8593813,18.690699069907,0,0
-31.845297302673,113.30206987323,13.495129512951,746695.49526206,1607.1623551283,2659168.8593813,18.695129512951,0,0
-31.84529728055,113.32362760485,13.499559955996,746695.49526206,1607.1623551283,2659168.8593813,18.699559955996,0,0
-31.845297258427,113.34518533647,13.50399039904,746695.49526206,1607.1623551283,2659168.8593813,18.70399039904,0,0
-31.845297236303,113.36674306808,13.508420842084,746695.49526206,1607.1623551283,2659168.8593813,18.708420842084,0,0
-31.84529721418,113.3883007997,13.512851285129,746695.49526206,1607.1623551283,2659168.8593813,18.712851285129,0,0
-31.845297192056,113.40985853132,13.517281728173,746695.49526206,1607.1623551283,2659168.8593813,18.717281728173,0,0
-31.845297169933,113.43141626294,13.521712171217,746695.49526206,1607.1623551283,2659168.8593813,18.721712171217,0,0
-31.84529714781,113.45297399455,13.526142614261,746695.49526206,1607.1623551283,2659168.8593813,18.726142614261,0,0
-31.845297125686,113.47453172617,13.530573057306,746695.49526206,1607.1623551283,2659168.8593813,18.730573057306,0,0
-31.845297103563,113.49608945779,13.53500350035,746695.49526206,1607.1623551283,2659168.8593813,18.73500350035,0,0
-31.845297081439,113.51764718941,13.539433943394,746695.49526206,1607.1623551283,2659168.8593813,18.739433943394,0,0
-31.845297059316,113.53920492103,13.543864386439,746695.49526206,1607.1623551283,2659168.8593813,18.743864386439,0,0
-31.845297037193,113.56076265264,13.548294829483,746695.49526206,1607.1623551283,2659168.8593813,18.748294829483,0,0
-31.845297015069,113.58232038426,13.552725272527,746695.49526206,1607.1623551283,2659168.8593813,18.752725272527,0,0
-31.845296992946,113.60387811588,13.557155715572,746695.49526206,1607.1623551283,2659168.8593813,18.757155715572,0,0
-31.845296970822,113.6254358475,13.561586158616,746695.49526206,1607.1623551283,2659168.8593813,18.761586158616,0,0
-31.845296948699,113.64699357912,13.56601660166,746695.49526206,1607.1623551283,2659168.8593813,18.76601660166,0,0
-31.845296926576,113.66855131073,13.570447044704,746695.49526206,1607.1623551283,2659168.8593813,18.770447044704,0,0
-31.845296904452,113.69010904235,13.574877487749,746695.49526206,1607.1623551283,2659168.8593813,18.774877487749,0,0
-31.845296882329,113.71166677397,13.579307930793,746695.49526206,1607.1623551283,2659168.8593813,18.779307930793,0,0
-31.845296860205,113.73322450559,13.583738373837,746695.49526206,1607.1623551283,2659168.8593813,18.783738373837,0,0
-31.845296838082,113.75478223721,13.588168816882,746695.49526206,1607.1623551283,2659168.8593813,18.788168816882,0,0
-31.845296815959,113.77633996882,13.592599259926,746695.49526206,1607.1623551283,2659168.8593813,18.792599259926,0,0
-31.845296793835,113.79789770044,13.59702970297,746695.49526206,1607.1623551283,2659168.8593813,18.79702970297,0,0
-31.845296771712,113.81945543206,13.601460146015,746695.49526206,1607.1623551283,2659168.8593813,18.801460146015,0,0
-31.845296749588,113.84101316368,13.605890589059,746695.49526206,1607.1623551283,2659168.8593813,18.805890589059,0,0
-31.845296727465,113.86257089529,13.610321032103,746695.49526206,1607.1623551283,2659168.8593813,18.810321032103,0,0
-31.845296705342,113.88412862691,13.614751475148,746695.49526206,1607.1623551283,2659168.8593813,18.814751475148,0,0
-31.845296683218,113.90568635853,13.619181918192,746695.49526206,1607.1623551283,2659168.8593813,18.819181918192,0,0
-31.845296661095,113.92724409015,13.623612361236,746695.49526206,1607.1623551283,2659168.8593813,18.823612361236,0,0
-31.845296638971,113.94880182177,13.62804280428,746695.49526206,1607.1623551283,2659168.8593813,18.82804280428,0,0
-31.845296616848,113.97035955338,13.632473247325,746695.49526206,1607.1623551283,2659168.8593813,18.832473247325,0,0
-31.845296594725,113.991917285,13.636903690369,746695.49526206,1607.1623551283,2659168.8593813,18.836903690369,0,0
-31.845296572601,114.01347501662,13.641334133413,746695.49526206,1607.1623551283,2659168.8593813,18.841334133413,0,0
-31.845296550478,114.03503274824,13.645764576458,746695.49526206,1607.1623551283,2659168.8593813,18.845764576458,0,0
-31.845296528355,114.05659047986,13.650195019502,746695.49526206,1607.1623551283,2659168.8593813,18.850195019502,0,0
-31.845296506231,114.07814821147,13.654625462546,746695.49526206,1607.1623551283,2659168.8593813,18.854625462546,0,0
-31.845296484108,114.09970594309,13.659055905591,746695.49526206,1607.1623551283,2659168.8593813,18.859055905591,0,0
-31.845296461984,114.12126367471,13.663486348635,746695.49526206,1607.1623551283,2659168.8593813,18.863486348635,0,0
-31.845296439861,114.14282140633,13.667916791679,746695.49526206,1607.1623551283,2659168.8593813,18.867916791679,0,0
-31.845296417738,114.16437913795,13.672347234723,746695.49526206,1607.1623551283,2659168.8593813,18.872347234723,0,0
-31.845296395614,114.18593686956,13.676777677768,746695.49526206,1607.1623551283,2659168.8593813,18.876777677768,0,0
-31.845296373491,114.20749460118,13.681208120812,746695.49526206,1607.1623551283,2659168.8593813,18.881208120812,0,0
-31.845296351367,114.2290523328,13.685638563856,746695.49526206,1607.1623551283,2659168.8593813,18.885638563856,0,0
-31.845296329244,114.25061006442,13.690069006901,746695.49526206,1607.1623551283,2659168.8593813,18.890069006901,0,0
-31.845296307121,114.27216779603,13.694499449945,746695.49526206,1607.1623551283,2659168.8593813,18.894499449945,0,0
-31.845296284997,114.29372552765,13.698929892989,746695.49526206,1607.1623551283,2659168.8593813,18.898929892989,0,0
-31.845296262874,114.31528325927,13.703360336034,746695.49526206,1607.1623551283,2659168.8593813,18.903360336034,0,0
-31.84529624075,114.33684099089,13.707790779078,746695.49526206,1607.1623551283,2659168.8593813,18.907790779078,0,0
-31.845296218627,114.35839872251,13.712221222122,746695.49526206,1607.1623551283,2659168.8593813,18.912221222122,0,0
-31.845296196504,114.37995645412,13.716651665167,746695.49526206,1607.1623551283,2659168.8593813,18.916651665167,0,0
-31.84529617438,114.40151418574,13.721082108211,746695.49526206,1607.1623551283,2659168.8593813,18.921082108211,0,0
-31.845296152257,114.42307191736,13.725512551255,746695.49526206,1607.1623551283,2659168.8593813,18.925512551255,0,0
-31.845296130133,114.44462964898,13.729942994299,746695.49526206,1607.1623551283,2659168.8593813,18.929942994299,0,0
-31.84529610801,114.4661873806,13.734373437344,746695.49526206,1607.1623551283,2659168.8593813,18.934373437344,0,0
-31.845296085887,114.48774511221,13.738803880388,746695.49526206,1607.1623551283,2659168.8593813,18.938803880388,0,0
-31.845296063763,114.50930284383,13.743234323432,746695.49526206,1607.1623551283,2659168.8593813,18.943234323432,0,0
-31.84529604164,114.53086057545,13.747664766477,746695.49526206,1607.1623551283,2659168.8593813,18.947664766477,0,0
-31.845296019516,114.55241830707,13.752095209521,746695.49526206,1607.1623551283,2659168.8593813,18.952095209521,0,0
-31.845295997393,114.57397603869,13.756525652565,746695.49526206,1607.1623551283,2659168.8593813,18.956525652565,0,0
-31.84529597527,114.5955337703,13.76095609561,746695.49526206,1607.1623551283,2659168.8593813,18.96095609561,0,0
-31.845295953146,114.61709150192,13.765386538654,746695.49526206,1607.1623551283,2659168.8593813,18.965386538654,0,0
-31.845295931023,114.63864923354,13.769816981698,746695.49526206,1607.1623551283,2659168.8593813,18.969816981698,0,0
-31.845295908899,114.66020696516,13.774247424742,746695.49526206,1607.1623551283,2659168.8593813,18.974247424742,0,0
-31.845295886776,114.68176469677,13.778677867787,746695.49526206,1607.1623551283,2659168.8593813,18.978677867787,0,0
-31.845295864653,114.70332242839,13.783108310831,746695.49526206,1607.1623551283,2659168.8593813,18.983108310831,0,0
-31.845295842529,114.72488016001,13.787538753875,746695.49526206,1607.1623551283,2659168.8593813,18.987538753875,0,0
-31.845295820406,114.74643789163,13.79196919692,746695.49526206,1607.1623551283,2659168.8593813,18.99196919692,0,0
-31.845295798282,114.76799562325,13.796399639964,746695.49526206,1607.1623551283,2659168.8593813,18.996399639964,0,0
-31.845295776159,114.78955335486,13.800830083008,746695.49526206,1607.1623551283,2659168.8593813,19.000830083008,0,0
-31.845295754036,114.81111108648,13.805260526053,746695.49526206,1607.1623551283,2659168.8593813,19.005260526053,0,0
-31.845295731912,114.8326688181,13.809690969097,746695.49526206,1607.1623551283,2659168.8593813,19.009690969097,0,0
-31.845295709789,114.85422654972,13.814121412141,746695.49526206,1607.1623551283,2659168.8593813,19.014121412141,0,0
-31.845295687665,114.87578428134,13.818551855186,746695.49526206,1607.1623551283,2659168.8593813,19.018551855186,0,0
-31.845295665542,114.89734201295,13.82298229823,746695.49526206,1607.1623551283,2659168.8593813,19.02298229823,0,0
-31.845295643419,114.91889974457,13.827412741274,746695.49526206,1607.1623551283,2659168.8593813,19.027412741274,0,0
-31.845295621295,114.94045747619,13.831843184318,746695.49526206,1607.1623551283,2659168.8593813,19.031843184318,0,0
-31.845295599172,114.96201520781,13.836273627363,746695.49526206,1607.1623551283,2659168.8593813,19.036273627363,0,0
-31.845295577048,114.98357293942,13.840704070407,746695.49526206,1607.1623551283,2659168.8593813,19.040704070407,0,0
-31.845295554925,115.00513067104,13.845134513451,746695.49526206,1607.1623551283,2659168.8593813,19.045134513451,0,0
-31.845295532802,115.02668840266,13.849564956496,746695.49526206,1607.1623551283,2659168.8593813,19.049564956496,0,0
-31.845295510678,115.04824613428,13.85399539954,746695.49526206,1607.1623551283,2659168.8593813,19.05399539954,0,0
-31.845295488555,115.0698038659,13.858425842584,746695.49526206,1607.1623551283,2659168.8593813,19.058425842584,0,0
-31.845295466431,115.09136159751,13.862856285629,746695.49526206,1607.1623551283,2659168.8593813,19.062856285629,0,0
-31.845295444308,115.11291932913,13.867286728673,746695.49526206,1607.1623551283,2659168.8593813,19.067286728673,0,0
-31.845295422185,115.13447706075,13.871717171717,746695.49526206,1607.1623551283,2659168.8593813,19.071717171717,0,0
-31.845295400061,115.15603479237,13.876147614761,746695.49526206,1607.1623551283,2659168.8593813,19.076147614761,0,0
-31.845295377938,115.17759252399,13.880578057806,746695.49526206,1607.1623551283,2659168.8593813,19.080578057806,0,0
-31.845295355814,115.1991502556,13.88500850085,746695.49526206,1607.1623551283,2659168.8593813,19.08500850085,0,0
-31.845295333691,115.22070798722,13.889438943894,746695.49526206,1607.1623551283,2659168.8593813,19.089438943894,0,0
-31.845295311568,115.24226571884,13.893869386939,746695.49526206,1607.1623551283,2659168.8593813,19.093869386939,0,0
-31.845295289444,115.26382345046,13.898299829983,746695.49526206,1607.1623551283,2659168.8593813,19.098299829983,0,0
-31.845295267321,115.28538118208,13.902730273027,746695.49526206,1607.1623551283,2659168.8593813,19.102730273027,0,0
-31.845295245197,115.30693891369,13.907160716072,746695.49526206,1607.1623551283,2659168.8593813,19.107160716072,0,0
-31.845295223074,115.32849664531,13.911591159116,746695.49526206,1607.1623551283,2659168.8593813,19.111591159116,0,0
-31.845295200951,115.35005437693,13.91602160216,746695.49526206,1607.1623551283,2659168.8593813,19.11602160216,0,0
-31.845295178827,115.37161210855,13.920452045205,746695.49526206,1607.1623551283,2659168.8593813,19.120452045205,0,0
-31.845295156704,115.39316984016,13.924882488249,746695.49526206,1607.1623551283,2659168.8593813,19.124882488249,0,0
-31.845295134581,115.41472757178,13.929312931293,746695.49526206,1607.1623551283,2659168.8593813,19.129312931293,0,0
-31.845295112457,115.4362853034,13.933743374337,746695.49526206,1607.1623551283,2659168.8593813,19.133743374337,0,0
-31.845295090334,115.45784303502,13.938173817382,746695.49526206,1607.1623551283,2659168.8593813,19.138173817382,0,0
-31.84529506821,115.47940076664,13.942604260426,746695.49526206,1607.1623551283,2659168.8593813,19.142604260426,0,0
-31.845295046087,115.50095849825,13.94703470347,746695.49526206,1607.1623551283,2659168.8593813,19.14703470347,0,0
-31.845295023964,115.52251622987,13.951465146515,746695.49526206,1607.1623551283,2659168.8593813,19.151465146515,0,0
-31.84529500184,115.54407396149,13.955895589559,746695.49526206,1607.1623551283,2659168.8593813,19.155895589559,0,0
-31.845294979717,115.56563169311,13.960326032603,746695.49526206,1607.1623551283,2659168.8593813,19.160326032603,0,0
-31.845294957593,115.58718942473,13.964756475648,746695.49526206,1607.1623551283,2659168.8593813,19.164756475648,0,0
-31.84529493547,115.60874715634,13.969186918692,746695.49526206,1607.1623551283,2659168.8593813,19.169186918692,0,0
-31.845294913347,115.63030488796,13.973617361736,746695.49526206,1607.1623551283,2659168.8593813,19.173617361736,0,0
-31.845294891223,115.65186261958,13.97804780478,746695.49526206,1607.1623551283,2659168.8593813,19.17804780478,0,0
-31.8452948691,115.6734203512,13.982478247825,746695.49526206,1607.1623551283,2659168.8593813,19.182478247825,0,0
-31.845294846976,115.69497808282,13.986908690869,746695.49526206,1607.1623551283,2659168.8593813,19.186908690869,0,0
-31.845294824853,115.71653581443,13.991339133913,746695.49526206,1607.1623551283,2659168.8593813,19.191339133913,0,0
-31.84529480273,115.73809354605,13.995769576958,746695.49526206,1607.1623551283,2659168.8593813,19.195769576958,0,0
-31.845294780606,115.75965127767,14.000200020002,746695.49526206,1607.1623551283,2659168.8593813,19.200200020002,0,0
-31.845294758483,115.78120900929,14.004630463046,746695.49526206,1607.1623551283,2659168.8593813,19.204630463046,0,0
-31.845294736359,115.8027667409,14.009060906091,746695.49526206,1607.1623551283,2659168.8593813,19.209060906091,0,0
-31.845294714236,115.82432447252,14.013491349135,746695.49526206,1607.1623551283,2659168.8593813,19.213491349135,0,0
-31.845294692115,115.84588220408,14.017921792179,743113.13855674,-2940.5903131875,2649833.7307737,19.217921792179,0,0
-31.845294670029,115.86743993476,14.022352235224,743113.13855674,-2940.5903131875,2649833.7307737,19.222352235224,0,0
-31.845294647943,115.88899766543,14.026782678268,743113.13855674,-2940.5903131875,2649833.7307737,19.226782678268,0,0
-31.845294625857,115.91055539611,14.031213121312,743113.13855674,-2940.5903131875,2649833.7307737,19.231213121312,0,0
-31.845294603772,115.93211312678,14.035643564356,743113.13855674,-2940.5903131875,2649833.7307737,19.235643564356,0,0
-31.845294581686,115.95367085746,14.040074007401,743113.13855674,-2940.5903131875,2649833.7307737,19.240074007401,0,0
-31.8452945596,115.97522858813,14.044504450445,743113.13855674,-2940.5903131875,2649833.7307737,19.244504450445,0,0
-31.845294537514,115.99678631881,14.048934893489,743113.13855674,-2940.5903131875,2649833.7307737,19.248934893489,0,0
-31.845294515428,116.01834404948,14.053365336534,743113.13855674,-2940.5903131875,2649833.7307737,19.253365336534,0,0
-31.845294493343,116.03990178016,14.057795779578,743113.13855674,-2940.5903131875,2649833.7307737,19.257795779578,0,0
-31.845294471257,116.06145951083,14.062226222622,743113.13855674,-2940.5903131875,2649833.7307737,19.262226222622,0,0
-31.845294449171,116.08301724151,14.066656665667,743113.13855674,-2940.5903131875,2649833.7307737,19.266656665667,0,0
-31.845294427085,116.10457497218,14.071087108711,743113.13855674,-2940.5903131875,2649833.7307737,19.271087108711,0,0
-31.845294404999,116.12613270286,14.075517551755,743113.13855674,-2940.5903131875,2649833.7307737,19.275517551755,0,0
-31.845294382914,116.14769043353,14.079947994799,743113.13855674,-2940.5903131875,2649833.7307737,19.279947994799,0,0
-31.845294360828,116.16924816421,14.084378437844,743113.13855674,-2940.5903131875,2649833.7307737,19.284378437844,0,0
-31.845294338742,116.19080589489,14.088808880888,743113.13855674,-2940.5903131875,2649833.7307737,19.288808880888,0,0
-31.845294316656,116.21236362556,14.093239323932,743113.13855674,-2940.5903131875,2649833.7307737,19.293239323932,0,0
-31.84529429457,116.23392135624,14.097669766977,743113.13855674,-2940.5903131875,2649833.7307737,19.297669766977,0,0
-31.845294272485,116.25547908691,14.102100210021,743113.13855674,-2940.5903131875,2649833.7307737,19.302100210021,0,0
-31.845294250399,116.27703681759,14.106530653065,743113.13855674,-2940.5903131875,2649833.7307737,19.306530653065,0,0
-31.845294228313,116.29859454826,14.11096109611,743113.13855674,-2940.5903131875,2649833.7307737,19.31096109611,0,0
-31.845294206227,116.32015227894,14.115391539154,743113.13855674,-2940.5903131875,2649833.7307737,19.315391539154,0,0
-31.845294184141,116.34171000961,14.119821982198,743113.13855674,-2940.5903131875,2649833.7307737,19.319821982198,0,0
-31.845294162056,116.36326774029,14.124252425243,743113.13855674,-2940.5903131875,2649833.7307737,19.324252425243,0,0
-31.84529413997,116.38482547096,14.128682868287,743113.13855674,-2940.5903131875,2649833.7307737,19.328682868287,0,0
-31.845294117884,116.40638320164,14.133113311331,743113.13855674,-2940.5903131875,2649833.7307737,19.333113311331,0,0
-31.845294095798,116.42794093231,14.137543754375,743113.13855674,-2940.5903131875,2649833.7307737,19.337543754375,0,0
-31.845294073712,116.44949866299,14.14197419742,743113.13855674,-2940.5903131875,2649833.7307737,19.34197419742,0,0
-31.845294051627,116.47105639366,14.146404640464,743113.13855674,-2940.5903131875,2649833.7307737,19.346404640464,0,0
-31.845294029541,116.49261412434,14.150835083508,743113.13855674,-2940.5903131875,2649833.7307737,19.350835083508,0,0
-31.845294007455,116.51417185501,14.155265526553,743113.13855674,-2940.5903131875,2649833.7307737,19.355265526553,0,0
-31.845293985369,116.53572958569,14.159695969597,743113.13855674,-2940.5903131875,2649833.7307737,19.359695969597,0,0
-31.845293963283,116.55728731636,14.164126412641,743113.13855674,-2940.5903131875,2649833.7307737,19.364126412641,0,0
-31.845293941198,116.57884504704,14.168556855686,743113.13855674,-2940.5903131875,2649833.7307737,19.368556855686,0,0
-31.845293919112,116.60040277771,14.17298729873,743113.13855674,-2940.5903131875,2649833.7307737,19.37298729873,0,0
-31.845293897026,116.62196050839,14.177417741774,743113.13855674,-2940.5903131875,2649833.7307737,19.377417741774,0,0
-31.84529387494,116.64351823906,14.181848184818,743113.13855674,-2940.5903131875,2649833.7307737,19.381848184818,0,0
-31.845293852854,116.66507596974,14.186278627863,743113.13855674,-2940.5903131875,2649833.7307737,19.386278627863,0,0
-31.845293830769,116.68663370041,14.190709070907,743113.13855674,-2940.5903131875,2649833.7307737,19.390709070907,0,0
-31.845293808683,116.70819143109,14.195139513951,743113.13855674,-2940.5903131875,2649833.7307737,19.395139513951,0,0
-31.845293786597,116.72974916176,14.199569956996,743113.13855674,-2940.5903131875,2649833.7307737,19.399569956996,0,0
-31.845293764511,116.75130689244,14.20400040004,743113.13855674,-2940.5903131875,2649833.7307737,19.40400040004,0,0
-31.845293742425,116.77286462311,14.208430843084,743113.13855674,-2940.5903131875,2649833.7307737,19.408430843084,0,0
-31.84529372034,116.79442235379,14.212861286129,743113.13855674,-2940.5903131875,2649833.7307737,19.412861286129,0,0
-31.845293698254,116.81598008446,14.217291729173,743113.13855674,-2940.5903131875,2649833.7307737,19.417291729173,0,0
-31.845293676168,116.83753781514,14.221722172217,743113.13855674,-2940.5903131875,2649833.7307737,19.421722172217,0,0
-31.845293654082,116.85909554581,14.226152615262,743113.13855674,-2940.5903131875,2649833.7307737,19.426152615262,0,0
-31.845293631996,116.88065327649,14.230583058306,743113.13855674,-2940.5903131875,2649833.7307737,19.430583058306,0,0
-31.84529360991,116.90221100716,14.23501350135,743113.13855674,-2940.5903131875,2649833.7307737,19.43501350135,0,0
-31.845293587825,116.92376873784,14.239443944394,743113.13855674,-2940.5903131875,2649833.7307737,19.439443944394,0,0
-31.845293565739,116.94532646852,14.243874387439,743113.13855674,-2940.5903131875,2649833.7307737,19.443874387439,0,0
-31.845293543653,116.96688419919,14.248304830483,743113.13855674,-2940.5903131875,2649833.7307737,19.448304830483,0,0
-31.845293521567,116.98844192987,14.252735273527,743113.13855674,-2940.5903131875,2649833.7307737,19.452735273527,0,0
-31.845293499481,117.00999966054,14.257165716572,743113.13855674,-2940.5903131875,2649833.7307737,19.457165716572,0,0
-31.845293477396,117.03155739122,14.261596159616,743113.13855674,-2940.5903131875,2649833.7307737,19.461596159616,0,0
-31.84529345531,117.05311512189,14.26602660266,743113.13855674,-2940.5903131875,2649833.7307737,19.46602660266,0,0
-31.845293433224,117.07467285257,14.270457045705,743113.13855674,-2940.5903131875,2649833.7307737,19.470457045705,0,0
-31.845293411138,117.09623058324,14.274887488749,743113.13855674,-2940.5903131875,2649833.7307737,19.474887488749,0,0
-31.845293389052,117.11778831392,14.279317931793,743113.13855674,-2940.5903131875,2649833.7307737,19.479317931793,0,0
-31.845293366967,117.13934604459,14.283748374837,743113.13855674,-2940.5903131875,2649833.7307737,19.483748374837,0,0
-31.845293344881,117.16090377527,14.288178817882,743113.13855674,-2940.5903131875,2649833.7307737,19.488178817882,0,0
-31.845293322795,117.18246150594,14.292609260926,743113.13855674,-2940.5903131875,2649833.7307737,19.492609260926,0,0
-31.845293300709,117.20401923662,14.29703970397,743113.13855674,-2940.5903131875,2649833.7307737,19.49703970397,0,0
-31.845293278623,117.22557696729,14.301470147015,743113.13855674,-2940.5903131875,2649833.7307737,19.501470147015,0,0
-31.845293256538,117.24713469797,14.305900590059,743113.13855674,-2940.5903131875,2649833.7307737,19.505900590059,0,0
-31.845293234452,117.26869242864,14.310331033103,743113.13855674,-2940.5903131875,2649833.7307737,19.510331033103,0,0
-31.845293212366,117.29025015932,14.314761476148,743113.13855674,-2940.5903131875,2649833.7307737,19.514761476148,0,0
-31.84529319028,117.31180788999,14.319191919192,743113.13855674,-2940.5903131875,2649833.7307737,19.519191919192,0,0
-31.845293168194,117.33336562067,14.323622362236,743113.13855674,-2940.5903131875,2649833.7307737,19.523622362236,0,0
-31.845293146109,117.35492335134,14.328052805281,743113.13855674,-2940.5903131875,2649833.7307737,19.528052805281,0,0
-31.845293124023,117.37648108202,14.332483248325,743113.13855674,-2940.5903131875,2649833.7307737,19.532483248325,0,0
-31.845293101937,117.39803881269,14.336913691369,743113.13855674,-2940.5903131875,2649833.7307737,19.536913691369,0,0
-31.845293079851,117.41959654337,14.341344134413,743113.13855674,-2940.5903131875,2649833.7307737,19.541344134413,0,0
-31.845293057765,117.44115427404,14.345774577458,743113.13855674,-2940.5903131875,2649833.7307737,19.545774577458,0,0
-31.84529303568,117.46271200472,14.350205020502,743113.13855674,-2940.5903131875,2649833.7307737,19.550205020502,0,0
-31.845293013594,117.48426973539,14.354635463546,743113.13855674,-2940.5903131875,2649833.7307737,19.554635463546,0,0
-31.845292991508,117.50582746607,14.359065906591,743113.13855674,-2940.5903131875,2649833.7307737,19.559065906591,0,0
-31.845292969422,117.52738519674,14.363496349635,743113.13855674,-2940.5903131875,2649833.7307737,19.563496349635,0,0
-31.845292947336,117.54894292742,14.367926792679,743113.13855674,-2940.5903131875,2649833.7307737,19.567926792679,0,0
-31.845292925251,117.57050065809,14.372357235724,743113.13855674,-2940.5903131875,2649833.7307737,19.572357235724,0,0
-31.845292903165,117.59205838877,14.376787678768,743113.13855674,-2940.5903131875,2649833.7307737,19.576787678768,0,0
-31.845292881079,117.61361611944,14.381218121812,743113.13855674,-2940.5903131875,2649833.7307737,19.581218121812,0,0
-31.845292858993,117.63517385012,14.385648564856,743113.13855674,-2940.5903131875,2649833.7307737,19.585648564856,0,0
-31.845292836907,117.65673158079,14.390079007901,743113.13855674,-2940.5903131875,2649833.7307737,19.590079007901,0,0
-31.845292814822,117.67828931147,14.394509450945,743113.13855674,-2940.5903131875,2649833.7307737,19.594509450945,0,0
-31.845292792736,117.69984704214,14.398939893989,743113.13855674,-2940.5903131875,2649833.7307737,19.598939893989,0,0
-31.84529277065,117.72140477282,14.403370337034,743113.13855674,-2940.5903131875,2649833.7307737,19.603370337034,0,0
-31.845292748564,117.7429625035,14.407800780078,743113.13855674,-2940.5903131875,2649833.7307737,19.607800780078,0,0
-31.845292726478,117.76452023417,14.412231223122,743113.13855674,-2940.5903131875,2649833.7307737,19.612231223122,0,0
-31.845292704393,117.78607796485,14.416661666167,743113.13855674,-2940.5903131875,2649833.7307737,19.616661666167,0,0
-31.845292682307,117.80763569552,14.421092109211,743113.13855674,-2940.5903131875,2649833.7307737,19.621092109211,0,0
-31.845292660221,117.8291934262,14.425522552255,743113.13855674,-2940.5903131875,2649833.7307737,19.625522552255,0,0
-31.845292638135,117.85075115687,14.4299529953,743113.13855674,-2940.5903131875,2649833.7307737,19.6299529953,0,0
-31.845292616049,117.87230888755,14.434383438344,743113.13855674,-2940.5903131875,2649833.7307737,19.634383438344,0,0
-31.845292593964,117.89386661822,14.438813881388,743113.13855674,-2940.5903131875,2649833.7307737,19.638813881388,0,0
-31.845292571878,117.9154243489,14.443244324432,743113.13855674,-2940.5903131875,2649833.7307737,19.643244324432,0,0
-31.845292549792,117.93698207957,14.447674767477,743113.13855674,-2940.5903131875,2649833.7307737,19.647674767477,0,0
-31.845292527706,117.95853981025,14.452105210521,743113.13855674,-2940.5903131875,2649833.7307737,19.652105210521,0,0
-31.84529250562,117.98009754092,14.456535653565,743113.13855674,-2940.5903131875,2649833.7307737,19.656535653565,0,0
-31.845292483535,118.0016552716,14.46096609661,743113.13855674,-2940.5903131875,2649833.7307737,19.66096609661,0,0
-31.845292461449,118.02321300227,14.465396539654,743113.13855674,-2940.5903131875,2649833.7307737,19.665396539654,0,0
-31.845292439363,118.04477073295,14.469826982698,743113.13855674,-2940.5903131875,2649833.7307737,19.669826982698,0,0
-31.845292417277,118.06632846362,14.474257425743,743113.13855674,-2940.5903131875,2649833.7307737,19.674257425743,0,0
-31.845292395191,118.0878861943,14.478687868787,743113.13855674,-2940.5903131875,2649833.7307737,19.678687868787,0,0
-31.845292373106,118.10944392497,14.483118311831,743113.13855674,-2940.5903131875,2649833.7307737,19.683118311831,0,0
-31.84529235102,118.13100165565,14.487548754875,743113.13855674,-2940.5903131875,2649833.7307737,19.687548754875,0,0
-31.845292328934,118.15255938632,14.49197919792,743113.13855674,-2940.5903131875,2649833.7307737,19.69197919792,0,0
-31.845292306848,118.174117117,14.496409640964,743113.13855674,-2940.5903131875,2649833.7307737,19.696409640964,0,0
-31.845292284762,118.19567484767,14.500840084008,743113.13855674,-2940.5903131875,2649833.7307737,19.700840084008,0,0
-31.845292262676,118.21723257835,14.505270527053,743113.13855674,-2940.5903131875,2649833.7307737,19.705270527053,0,0
-31.845292240591,118.23879030902,14.509700970097,743113.13855674,-2940.5903131875,2649833.7307737,19.709700970097,0,0
-31.845292218505,118.2603480397,14.514131413141,743113.13855674,-2940.5903131875,2649833.7307737,19.714131413141,0,0
-31.845292196419,118.28190577037,14.518561856186,743113.13855674,-2940.5903131875,2649833.7307737,19.718561856186,0,0
-31.845292174333,118.30346350105,14.52299229923,743113.13855674,-2940.5903131875,2649833.7307737,19.72299229923,0,0
-31.845292152247,118.32502123172,14.527422742274,743113.13855674,-2940.5903131875,2649833.7307737,19.727422742274,0,0
-31.845292130162,118.3465789624,14.531853185319,743113.13855674,-2940.5903131875,2649833.7307737,19.731853185319,0,0
-31.845292108076,118.36813669307,14.536283628363,743113.13855674,-2940.5903131875,2649833.7307737,19.736283628363,0,0
-31.84529208599,118.38969442375,14.540714071407,743113.13855674,-2940.5903131875,2649833.7307737,19.740714071407,0,0
-31.845292063904,118.41125215442,14.545144514451,743113.13855674,-2940.5903131875,2649833.7307737,19.745144514451,0,0
-31.845292041818,118.4328098851,14.549574957496,743113.13855674,-2940.5903131875,2649833.7307737,19.749574957496,0,0
-31.845292019733,118.45436761577,14.55400540054,743113.13855674,-2940.5903131875,2649833.7307737,19.75400540054,0,0
-31.845291997647,118.47592534645,14.558435843584,743113.13855674,-2940.5903131875,2649833.7307737,19.758435843584,0,0
-31.845291975561,118.49748307712,14.562866286629,743113.13855674,-2940.5903131875,2649833.7307737,19.762866286629,0,0
-31.845291953475,118.5190408078,14.567296729673,743113.13855674,-2940.5903131875,2649833.7307737,19.767296729673,0,0
-31.845291931389,118.54059853848,14.571727172717,743113.13855674,-2940.5903131875,2649833.7307737,19.771727172717,0,0
-31.845291909304,118.56215626915,14.576157615762,743113.13855674,-2940.5903131875,2649833.7307737,19.776157615762,0,0
-31.845291887218,118.58371399983,14.580588058806,743113.13855674,-2940.5903131875,2649833.7307737,19.780588058806,0,0
-31.845291865132,118.6052717305,14.58501850185,743113.13855674,-2940.5903131875,2649833.7307737,19.78501850185,0,0
-31.845291843046,118.62682946118,14.589448944894,743113.13855674,-2940.5903131875,2649833.7307737,19.789448944894,0,0
-31.84529182096,118.64838719185,14.593879387939,743113.13855674,-2940.5903131875,2649833.7307737,19.793879387939,0,0
-31.845291798875,118.66994492253,14.598309830983,743113.13855674,-2940.5903131875,2649833.7307737,19.798309830983,0,0
-31.845291776789,118.6915026532,14.602740274027,743113.13855674,-2940.5903131875,2649833.7307737,19.802740274027,0,0
-31.845291754703,118.71306038388,14.607170717072,743113.13855674,-2940.5903131875,2649833.7307737,19.807170717072,0,0
-31.845291732617,118.73461811455,14.611601160116,743113.13855674,-2940.5903131875,2649833.7307737,19.811601160116,0,0
-31.845291710531,118.75617584523,14.61603160316,743113.13855674,-2940.5903131875,2649833.7307737,19.81603160316,0,0
-31.845291688446,118.7777335759,14.620462046205,743113.13855674,-2940.5903131875,2649833.7307737,19.820462046205,0,0
-31.84529166636,118.79929130658,14.624892489249,743113.13855674,-2940.5903131875,2649833.7307737,19.824892489249,0,0
-31.845291644274,118.82084903725,14.629322932293,743113.13855674,-2940.5903131875,2649833.7307737,19.829322932293,0,0
-31.845291622188,118.84240676793,14.633753375338,743113.13855674,-2940.5903131875,2649833.7307737,19.833753375338,0,0
-31.845291600102,118.8639644986,14.638183818382,743113.13855674,-2940.5903131875,2649833.7307737,19.838183818382,0,0
-31.845291578017,118.88552222928,14.642614261426,743113.13855674,-2940.5903131875,2649833.7307737,19.842614261426,0,0
-31.845291555931,118.90707995995,14.64704470447,743113.13855674,-2940.5903131875,2649833.7307737,19.84704470447,0,0
-31.845291533845,118.92863769063,14.651475147515,743113.13855674,-2940.5903131875,2649833.7307737,19.851475147515,0,0
-31.845291511759,118.9501954213,14.655905590559,743113.13855674,-2940.5903131875,2649833.7307737,19.855905590559,0,0
-31.845291489673,118.97175315198,14.660336033603,743113.13855674,-2940.5903131875,2649833.7307737,19.860336033603,0,0
-31.845291467588,118.99331088265,14.664766476648,743113.13855674,-2940.5903131875,2649833.7307737,19.864766476648,0,0
-31.845291445502,119.01486861333,14.669196919692,743113.13855674,-2940.5903131875,2649833.7307737,19.869196919692,0,0
-31.845291423416,119.036426344,14.673627362736,743113.13855674,-2940.5903131875,2649833.7307737,19.873627362736,0,0
-31.84529140133,119.05798407468,14.678057805781,743113.13855674,-2940.5903131875,2649833.7307737,19.878057805781,0,0
-31.845291379244,119.07954180535,14.682488248825,743113.13855674,-2940.5903131875,2649833.7307737,19.882488248825,0,0
-31.845291357159,119.10109953603,14.686918691869,743113.13855674,-2940.5903131875,2649833.7307737,19.886918691869,0,0
-31.845291335737,119.12265726745,14.691349134913,731532.37445297,2374.8408341361,2640960.9801357,19.891349134913,0,0
-31.84529131434,119.14421499891,14.695779577958,731532.37445297,2374.8408341361,2640960.9801357,19.895779577958,0,0
-31.845291292943,119.16577273036,14.700210021002,731532.37445297,2374.8408341361,2640960.9801357,19.900210021002,0,0
-31.845291271546,119.18733046181,14.704640464046,731532.37445297,2374.8408341361,2640960.9801357,19.904640464046,0,0
-31.845291250149,119.20888819326,14.709070907091,731532.37445297,2374.8408341361,2640960.9801357,19.909070907091,0,0
-31.845291228752,119.23044592472,14.713501350135,731532.37445297,2374.8408341361,2640960.9801357,19.913501350135,0,0
-31.845291207355,119.25200365617,14.717931793179,731532.37445297,2374.8408341361,2640960.9801357,19.917931793179,0,0
-31.845291185958,119.27356138762,14.722362236224,731532.37445297,2374.8408341361,2640960.9801357,19.922362236224,0,0
-31.845291164561,119.29511911908,14.726792679268,731532.37445297,2374.8408341361,2640960.9801357,19.926792679268,0,0
-31.845291143164,119.31667685053,14.731223122312,731532.37445297,2374.8408341361,2640960.9801357,19.931223122312,0,0
-31.845291121767,119.33823458198,14.735653565357,731532.37445297,2374.8408341361,2640960.9801357,19.935653565357,0,0
-31.84529110037,119.35979231343,14.740084008401,731532.37445297,2374.8408341361,2640960.9801357,19.940084008401,0,0
-31.845291078973,119.38135004489,14.744514451445,731532.37445297,2374.8408341361,2640960.9801357,19.944514451445,0,0
-31.845291057576,119.40290777634,14.748944894489,731532.37445297,2374.8408341361,2640960.9801357,19.948944894489,0,0
-31.845291036179,119.42446550779,14.753375337534,731532.37445297,2374.8408341361,2640960.9801357,19.953375337534,0,0
-31.845291014782,119.44602323924,14.757805780578,731532.37445297,2374.8408341361,2640960.9801357,19.957805780578,0,0
-31.845290993385,119.4675809707,14.762236223622,731532.37445297,2374.8408341361,2640960.9801357,19.962236223622,0,0
-31.845290971988,119.48913870215,14.766666666667,731532.37445297,2374.8408341361,2640960.9801357,19.966666666667,0,0
-31.845290950591,119.5106964336,14.771097109711,731532.37445297,2374.8408341361,2640960.9801357,19.971097109711,0,0
-31.845290929194,119.53225416505,14.775527552755,731532.37445297,2374.8408341361,2640960.9801357,19.975527552755,0,0
-31.845290907797,119.55381189651,14.7799579958,731532.37445297,2374.8408341361,2640960.9801357,19.9799579958,0,0
-31.8452908864,119.57536962796,14.784388438844,731532.37445297,2374.8408341361,2640960.9801357,19.984388438844,0,0
-31.845290865003,119.59692735941,14.788818881888,731532.37445297,2374.8408341361,2640960.9801357,19.988818881888,0,0
-31.845290843606,119.61848509087,14.793249324932,731532.37445297,2374.8408341361,2640960.9801357,19.993249324932,0,0
-31.845290822209,119.64004282232,14.797679767977,731532.37445297,2374.8408341361,2640960.9801357,19.997679767977,0,0
-31.845290800812,119.66160055377,14.802110211021,731532.37445297,2374.8408341361,2640960.9801357,20.002110211021,0,0
-31.845290779415,119.68315828522,14.806540654065,731532.37445297,2374.8408341361,2640960.9801357,20.006540654065,0,0
-31.845290758018,119.70471601668,14.81097109711,731532.37445297,2374.8408341361,2640960.9801357,20.01097109711,0,0
-31.845290736621,119.72627374813,14.815401540154,731532.37445297,2374.8408341361,2640960.9801357,20.015401540154,0,0
-31.845290715224,119.74783147958,14.819831983198,731532.37445297,2374.8408341361,2640960.9801357,20.019831983198,0,0
-31.845290693827,119.76938921103,14.824262426243,731532.37445297,2374.8408341361,2640960.9801357,20.024262426243,0,0
-31.84529067243,119.79094694249,14.828692869287,731532.37445297,2374.8408341361,2640960.9801357,20.028692869287,0,0
-31.845290651033,119.81250467394,14.833123312331,731532.37445297,2374.8408341361,2640960.9801357,20.033123312331,0,0
-31.845290629636,119.83406240539,14.837553755376,731532.37445297,2374.8408341361,2640960.9801357,20.037553755376,0,0
-31.845290608239,119.85562013684,14.84198419842,731532.37445297,2374.8408341361,2640960.9801357,20.04198419842,0,0
-31.845290586842,119.8771778683,14.846414641464,731532.37445297,2374.8408341361,2640960.9801357,20.046414641464,0,0
-31.845290565445,119.89873559975,14.850845084508,731532.37445297,2374.8408341361,2640960.9801357,20.050845084508,0,0
-31.845290544048,119.9202933312,14.855275527553,731532.37445297,2374.8408341361,2640960.9801357,20.055275527553,0,0
-31.845290522651,119.94185106265,14.859705970597,731532.37445297,2374.8408341361,2640960.9801357,20.059705970597,0,0
-31.845290501254,119.96340879411,14.864136413641,731532.37445297,2374.8408341361,2640960.9801357,20.064136413641,0,0
-31.845290479857,119.98496652556,14.868566856686,731532.37445297,2374.8408341361,2640960.9801357,20.068566856686,0,0
-31.84529045846,120.00652425701,14.87299729973,731532.37445297,2374.8408341361,2640960.9801357,20.07299729973,0,0
-31.845290437063,120.02808198847,14.877427742774,731532.37445297,2374.8408341361,2640960.9801357,20.077427742774,0,0
-31.845290415666,120.04963971992,14.881858185819,731532.37445297,2374.8408341361,2640960.9801357,20.081858185819,0,0
-31.845290394269,120.07119745137,14.886288628863,731532.37445297,2374.8408341361,2640960.9801357,20.086288628863,0,0
-31.845290372872,120.09275518282,14.890719071907,731532.37445297,2374.8408341361,2640960.9801357,20.090719071907,0,0
-31.845290351475,120.11431291428,14.895149514951,731532.37445297,2374.8408341361,2640960.9801357,20.095149514951,0,0
-31.845290330077,120.13587064573,14.899579957996,731532.37445297,2374.8408341361,2640960.9801357,20.099579957996,0,0
-31.84529030868,120.15742837718,14.90401040104,731532.37445297,2374.8408341361,2640960.9801357,20.10401040104,0,0
-31.845290287283,120.17898610863,14.908440844084,731532.37445297,2374.8408341361,2640960.9801357,20.108440844084,0,0
-31.845290265886,120.20054384009,14.912871287129,731532.37445297,2374.8408341361,2640960.9801357,20.112871287129,0,0
-31.845290244489,120.22210157154,14.917301730173,731532.37445297,2374.8408341361,2640960.9801357,20.117301730173,0,0
-31.845290223092,120.24365930299,14.921732173217,731532.37445297,2374.8408341361,2640960.9801357,20.121732173217,0,0
-31.845290201695,120.26521703444,14.926162616262,731532.37445297,2374.8408341361,2640960.9801357,20.126162616262,0,0
-31.845290180298,120.2867747659,14.930593059306,731532.37445297,2374.8408341361,2640960.9801357,20.130593059306,0,0
-31.845290158901,120.30833249735,14.93502350235,731532.37445297,2374.8408341361,2640960.9801357,20.13502350235,0,0
-31.845290137504,120.3298902288,14.939453945395,731532.37445297,2374.8408341361,2640960.9801357,20.139453945395,0,0
-31.845290116107,120.35144796026,14.943884388439,731532.37445297,2374.8408341361,2640960.9801357,20.143884388439,0,0
-31.84529009471,120.37300569171,14.948314831483,731532.37445297,2374.8408341361,2640960.9801357,20.148314831483,0,0
-31.845290073313,120.39456342316,14.952745274527,731532.37445297,2374.8408341361,2640960.9801357,20.152745274527,0,0
-31.845290051916,120.41612115461,14.957175717572,731532.37445297,2374.8408341361,2640960.9801357,20.157175717572,0,0
-31.845290030519,120.43767888607,14.961606160616,731532.37445297,2374.8408341361,2640960.9801357,20.161606160616,0,0
-31.845290009122,120.45923661752,14.96603660366,731532.37445297,2374.8408341361,2640960.9801357,20.16603660366,0,0
-31.845289987725,120.48079434897,14.970467046705,731532.37445297,2374.8408341361,2640960.9801357,20.170467046705,0,0
-31.845289966328,120.50235208042,14.974897489749,731532.37445297,2374.8408341361,2640960.9801357,20.174897489749,0,0
-31.845289944931,120.52390981188,14.979327932793,731532.37445297,2374.8408341361,2640960.9801357,20.179327932793,0,0
-31.845289923534,120.54546754333,14.983758375838,731532.37445297,2374.8408341361,2640960.9801357,20.183758375838,0,0
-31.845289902137,120.56702527478,14.988188818882,731532.37445297,2374.8408341361,2640960.9801357,20.188188818882,0,0
-31.84528988074,120.58858300623,14.992619261926,731532.37445297,2374.8408341361,2640960.9801357,20.192619261926,0,0
-31.845289859343,120.61014073769,14.99704970497,731532.37445297,2374.8408341361,2640960.9801357,20.19704970497,0,0
-31.845289837946,120.63169846914,15.001480148015,731532.37445297,2374.8408341361,2640960.9801357,20.201480148015,0,0
-31.845289816549,120.65325620059,15.005910591059,731532.37445297,2374.8408341361,2640960.9801357,20.205910591059,0,0
-31.845289795152,120.67481393205,15.010341034103,731532.37445297,2374.8408341361,2640960.9801357,20.210341034103,0,0
-31.845289773755,120.6963716635,15.014771477148,731532.37445297,2374.8408341361,2640960.9801357,20.214771477148,0,0
-31.845289752358,120.71792939495,15.019201920192,731532.37445297,2374.8408341361,2640960.9801357,20.219201920192,0,0
-31.845289730961,120.7394871264,15.023632363236,731532.37445297,2374.8408341361,2640960.9801357,20.223632363236,0,0
-31.845289709564,120.76104485786,15.028062806281,731532.37445297,2374.8408341361,2640960.9801357,20.228062806281,0,0
-31.845289688167,120.78260258931,15.032493249325,731532.37445297,2374.8408341361,2640960.9801357,20.232493249325,0,0
-31.84528966677,120.80416032076,15.036923692369,731532.37445297,2374.8408341361,2640960.9801357,20.236923692369,0,0
-31.845289645373,120.82571805221,15.041354135414,731532.37445297,2374.8408341361,2640960.9801357,20.241354135414,0,0
-31.845289623976,120.84727578367,15.045784578458,731532.37445297,2374.8408341361,2640960.9801357,20.245784578458,0,0
-31.845289602579,120.86883351512,15.050215021502,731532.37445297,2374.8408341361,2640960.9801357,20.250215021502,0,0
-31.845289581182,120.89039124657,15.054645464546,731532.37445297,2374.8408341361,2640960.9801357,20.254645464546,0,0
-31.845289559785,120.91194897802,15.059075907591,731532.37445297,2374.8408341361,2640960.9801357,20.259075907591,0,0
-31.845289538388,120.93350670948,15.063506350635,731532.37445297,2374.8408341361,2640960.9801357,20.263506350635,0,0
-31.845289516991,120.95506444093,15.067936793679,731532.37445297,2374.8408341361,2640960.9801357,20.267936793679,0,0
-31.845289495594,120.97662217238,15.072367236724,731532.37445297,2374.8408341361,2640960.9801357,20.272367236724,0,0
-31.845289474197,120.99817990383,15.076797679768,731532.37445297,2374.8408341361,2640960.9801357,20.276797679768,0,0
-31.8452894528,121.01973763529,15.081228122812,731532.37445297,2374.8408341361,2640960.9801357,20.281228122812,0,0
-31.845289431403,121.04129536674,15.085658565857,731532.37445297,2374.8408341361,2640960.9801357,20.285658565857,0,0
-31.845289410006,121.06285309819,15.090089008901,731532.37445297,2374.8408341361,2640960.9801357,20.290089008901,0,0
-31.845289388609,121.08441082965,15.094519451945,731532.37445297,2374.8408341361,2640960.9801357,20.294519451945,0,0
-31.845289367212,121.1059685611,15.098949894989,731532.37445297,2374.8408341361,2640960.9801357,20.298949894989,0,0
-31.845289345815,121.12752629255,15.103380338034,731532.37445297,2374.8408341361,2640960.9801357,20.303380338034,0,0
-31.845289324418,121.149084024,15.107810781078,731532.37445297,2374.8408341361,2640960.9801357,20.307810781078,0,0
-31.845289303021,121.17064175546,15.112241224122,731532.37445297,2374.8408341361,2640960.9801357,20.312241224122,0,0
-31.845289281623,121.19219948691,15.116671667167,731532.37445297,2374.8408341361,2640960.9801357,20.316671667167,0,0
-31.845289260226,121.21375721836,15.121102110211,731532.37445297,2374.8408341361,2640960.9801357,20.321102110211,0,0
-31.845289238829,121.23531494981,15.125532553255,731532.37445297,2374.8408341361,2640960.9801357,20.325532553255,0,0
-31.845289217432,121.25687268127,15.1299629963,731532.37445297,2374.8408341361,2640960.9801357,20.3299629963,0,0
-31.845289196035,121.27843041272,15.134393439344,731532.37445297,2374.8408341361,2640960.9801357,20.334393439344,0,0
-31.845289174638,121.29998814417,15.138823882388,731532.37445297,2374.8408341361,2640960.9801357,20.338823882388,0,0
-31.845289153241,121.32154587562,15.143254325433,731532.37445297,2374.8408341361,2640960.9801357,20.343254325433,0,0
-31.845289131844,121.34310360708,15.147684768477,731532.37445297,2374.8408341361,2640960.9801357,20.347684768477,0,0
-31.845289110447,121.36466133853,15.152115211521,731532.37445297,2374.8408341361,2640960.9801357,20.352115211521,0,0
-31.84528908905,121.38621906998,15.156545654565,731532.37445297,2374.8408341361,2640960.9801357,20.356545654565,0,0
-31.845289067653,121.40777680144,15.16097609761,731532.37445297,2374.8408341361,2640960.9801357,20.36097609761,0,0
-31.845289046256,121.42933453289,15.165406540654,731532.37445297,2374.8408341361,2640960.9801357,20.365406540654,0,0
-31.845289024859,121.45089226434,15.169836983698,731532.37445297,2374.8408341361,2640960.9801357,20.369836983698,0,0
-31.845289003462,121.47244999579,15.174267426743,731532.37445297,2374.8408341361,2640960.9801357,20.374267426743,0,0
-31.845288982065,121.49400772725,15.178697869787,731532.37445297,2374.8408341361,2640960.9801357,20.378697869787,0,0
-31.845288960668,121.5155654587,15.183128312831,731532.37445297,2374.8408341361,2640960.9801357,20.383128312831,0,0
-31.845288939271,121.53712319015,15.187558755876,731532.37445297,2374.8408341361,2640960.9801357,20.387558755876,0,0
-31.845288917874,121.5586809216,15.19198919892,731532.37445297,2374.8408341361,2640960.9801357,20.39198919892,0,0
-31.845288896477,121.58023865306,15.196419641964,731532.37445297,2374.8408341361,2640960.9801357,20.396419641964,0,0
-31.84528887508,121.60179638451,15.200850085009,731532.37445297,2374.8408341361,2640960.9801357,20.400850085008,0,0
-31.845288853683,121.62335411596,15.205280528053,731532.37445297,2374.8408341361,2640960.9801357,20.405280528053,0,0
-31.845288832286,121.64491184741,15.209710971097,731532.37445297,2374.8408341361,2640960.9801357,20.409710971097,0,0
-31.845288810889,121.66646957887,15.214141414141,731532.37445297,2374.8408341361,2640960.9801357,20.414141414141,0,0
-31.845288789492,121.68802731032,15.218571857186,731532.37445297,2374.8408341361,2640960.9801357,20.418571857186,0,0
-31.845288768095,121.70958504177,15.22300230023,731532.37445297,2374.8408341361,2640960.9801357,20.42300230023,0,0
-31.845288746698,121.73114277322,15.227432743274,731532.37445297,2374.8408341361,2640960.9801357,20.427432743274,0,0
-31.845288725301,121.75270050468,15.231863186319,731532.37445297,2374.8408341361,2640960.9801357,20.431863186319,0,0
-31.845288703904,121.77425823613,15.236293629363,731532.37445297,2374.8408341361,2640960.9801357,20.436293629363,0,0
-31.845288682507,121.79581596758,15.240724072407,731532.37445297,2374.8408341361,2640960.9801357,20.440724072407,0,0
-31.84528866111,121.81737369904,15.245154515452,731532.37445297,2374.8408341361,2640960.9801357,20.445154515452,0,0
-31.845288639713,121.83893143049,15.249584958496,731532.37445297,2374.8408341361,2640960.9801357,20.449584958496,0,0
-31.845288618316,121.86048916194,15.25401540154,731532.37445297,2374.8408341361,2640960.9801357,20.45401540154,0,0
-31.845288596919,121.88204689339,15.258445844584,731532.37445297,2374.8408341361,2640960.9801357,20.458445844584,0,0
-31.845288575522,121.90360462485,15.262876287629,731532.37445297,2374.8408341361,2640960.9801357,20.462876287629,0,0
-31.845288554125,121.9251623563,15.267306730673,731532.37445297,2374.8408341361,2640960.9801357,20.467306730673,0,0
-31.845288532728,121.94672008775,15.271737173717,731532.37445297,2374.8408341361,2640960.9801357,20.471737173717,0,0
-31.845288511331,121.9682778192,15.276167616762,731532.37445297,2374.8408341361,2640960.9801357,20.476167616762,0,0
-31.845288489934,121.98983555066,15.280598059806,731532.37445297,2374.8408341361,2640960.9801357,20.480598059806,0,0
-31.845288468537,122.01139328211,15.28502850285,731532.37445297,2374.8408341361,2640960.9801357,20.48502850285,0,0
-31.84528844714,122.03295101356,15.289458945895,731532.37445297,2374.8408341361,2640960.9801357,20.489458945895,0,0
-31.845288425743,122.05450874501,15.293889388939,731532.37445297,2374.8408341361,2640960.9801357,20.493889388939,0,0
-31.845288404346,122.07606647647,15.298319831983,731532.37445297,2374.8408341361,2640960.9801357,20.498319831983,0,0
-31.845288382949,122.09762420792,15.302750275028,731532.37445297,2374.8408341361,2640960.9801357,20.502750275028,0,0
-31.845288361552,122.11918193937,15.307180718072,731532.37445297,2374.8408341361,2640960.9801357,20.507180718072,0,0
-31.845288340155,122.14073967083,15.311611161116,731532.37445297,2374.8408341361,2640960.9801357,20.511611161116,0,0
-31.845288318758,122.16229740228,15.31604160416,731532.37445297,2374.8408341361,2640960.9801357,20.51604160416,0,0
-31.845288297361,122.18385513373,15.320472047205,731532.37445297,2374.8408341361,2640960.9801357,20.520472047205,0,0
-31.845288275964,122.20541286518,15.324902490249,731532.37445297,2374.8408341361,2640960.9801357,20.524902490249,0,0
-31.845288254567,122.22697059664,15.329332933293,731532.37445297,2374.8408341361,2640960.9801357,20.529332933293,0,0
-31.84528823317,122.24852832809,15.333763376338,731532.37445297,2374.8408341361,2640960.9801357,20.533763376338,0,0
-31.845288211772,122.27008605954,15.338193819382,731532.37445297,2374.8408341361,2640960.9801357,20.538193819382,0,0
-31.845288190375,122.29164379099,15.342624262426,731532.37445297,2374.8408341361,2640960.9801357,20.542624262426,0,0
-31.845288168978,122.31320152245,15.347054705471,731532.37445297,2374.8408341361,2640960.9801357,20.547054705471,0,0
-31.845288147581,122.3347592539,15.351485148515,731532.37445297,2374.8408341361,2640960.9801357,20.551485148515,0,0
-31.845288126248,122.35631698483,15.355915591559,727657.18427036,-1558.2990511121,2632846.993165,20.555915591559,0,0
-31.845288104944,122.37787471551,15.360346034603,727657.18427036,-1558.2990511121,2632846.993165,20.560346034603,0,0
-31.845288083641,122.39943244619,15.364776477648,727657.18427036,-1558.2990511121,2632846.993165,20.564776477648,0,0
-31.845288062337,122.42099017687,15.369206920692,727657.18427036,-1558.2990511121,2632846.993165,20.569206920692,0,0
-31.845288041034,122.44254790755,15.373637363736,727657.18427036,-1558.2990511121,2632846.993165,20.573637363736,0,0
-31.84528801973,122.46410563823,15.378067806781,727657.18427036,-1558.2990511121,2632846.993165,20.578067806781,0,0
-31.845287998427,122.48566336891,15.382498249825,727657.18427036,-1558.2990511121,2632846.993165,20.582498249825,0,0
-31.845287977123,122.50722109959,15.386928692869,727657.18427036,-1558.2990511121,2632846.993165,20.586928692869,0,0
-31.84528795582,122.52877883027,15.391359135914,727657.18427036,-1558.2990511121,2632846.993165,20.591359135914,0,0
-31.845287934516,122.55033656096,15.395789578958,727657.18427036,-1558.2990511121,2632846.993165,20.595789578958,0,0
-31.845287913213,122.57189429164,15.400220022002,727657.18427036,-1558.2990511121,2632846.993165,20.600220022002,0,0
-31.845287891909,122.59345202232,15.404650465047,727657.18427036,-1558.2990511121,2632846.993165,20.604650465047,0,0
-31.845287870606,122.615009753,15.409080908091,727657.18427036,-1558.2990511121,2632846.993165,20.609080908091,0,0
-31.845287849302,122.63656748368,15.413511351135,727657.18427036,-1558.2990511121,2632846.993165,20.613511351135,0,0
-31.845287827999,122.65812521436,15.417941794179,727657.18427036,-1558.2990511121,2632846.993165,20.617941794179,0,0
-31.845287806695,122.67968294504,15.422372237224,727657.18427036,-1558.2990511121,2632846.993165,20.622372237224,0,0
-31.845287785392,122.70124067572,15.426802680268,727657.18427036,-1558.2990511121,2632846.993165,20.626802680268,0,0
-31.845287764088,122.7227984064,15.431233123312,727657.18427036,-1558.2990511121,2632846.993165,20.631233123312,0,0
-31.845287742784,122.74435613708,15.435663566357,727657.18427036,-1558.2990511121,2632846.993165,20.635663566357,0,0
-31.845287721481,122.76591386776,15.440094009401,727657.18427036,-1558.2990511121,2632846.993165,20.640094009401,0,0
-31.845287700177,122.78747159845,15.444524452445,727657.18427036,-1558.2990511121,2632846.993165,20.644524452445,0,0
-31.845287678874,122.80902932913,15.44895489549,727657.18427036,-1558.2990511121,2632846.993165,20.64895489549,0,0
-31.84528765757,122.83058705981,15.453385338534,727657.18427036,-1558.2990511121,2632846.993165,20.653385338534,0,0
-31.845287636267,122.85214479049,15.457815781578,727657.18427036,-1558.2990511121,2632846.993165,20.657815781578,0,0
-31.845287614963,122.87370252117,15.462246224622,727657.18427036,-1558.2990511121,2632846.993165,20.662246224622,0,0
-31.84528759366,122.89526025185,15.466676667667,727657.18427036,-1558.2990511121,2632846.993165,20.666676667667,0,0
-31.845287572356,122.91681798253,15.471107110711,727657.18427036,-1558.2990511121,2632846.993165,20.671107110711,0,0
-31.845287551053,122.93837571321,15.475537553755,727657.18427036,-1558.2990511121,2632846.993165,20.675537553755,0,0
-31.845287529749,122.95993344389,15.4799679968,727657.18427036,-1558.2990511121,2632846.993165,20.6799679968,0,0
-31.845287508446,122.98149117457,15.484398439844,727657.18427036,-1558.2990511121,2632846.993165,20.684398439844,0,0
-31.845287487142,123.00304890525,15.488828882888,727657.18427036,-1558.2990511121,2632846.993165,20.688828882888,0,0
-31.845287465839,123.02460663594,15.493259325933,727657.18427036,-1558.2990511121,2632846.993165,20.693259325933,0,0
-31.845287444535,123.04616436662,15.497689768977,727657.18427036,-1558.2990511121,2632846.993165,20.697689768977,0,0
-31.845287423232,123.0677220973,15.502120212021,727657.18427036,-1558.2990511121,2632846.993165,20.702120212021,0,0
-31.845287401928,123.08927982798,15.506550655066,727657.18427036,-1558.2990511121,2632846.993165,20.706550655066,0,0
-31.845287380625,123.11083755866,15.51098109811,727657.18427036,-1558.2990511121,2632846.993165,20.71098109811,0,0
-31.845287359321,123.13239528934,15.515411541154,727657.18427036,-1558.2990511121,2632846.993165,20.715411541154,0,0
-31.845287338018,123.15395302002,15.519841984198,727657.18427036,-1558.2990511121,2632846.993165,20.719841984198,0,0
-31.845287316714,123.1755107507,15.524272427243,727657.18427036,-1558.2990511121,2632846.993165,20.724272427243,0,0
-31.845287295411,123.19706848138,15.528702870287,727657.18427036,-1558.2990511121,2632846.993165,20.728702870287,0,0
-31.845287274107,123.21862621206,15.533133313331,727657.18427036,-1558.2990511121,2632846.993165,20.733133313331,0,0
-31.845287252803,123.24018394274,15.537563756376,727657.18427036,-1558.2990511121,2632846.993165,20.737563756376,0,0
-31.8452872315,123.26174167343,15.54199419942,727657.18427036,-1558.2990511121,2632846.993165,20.74199419942,0,0
-31.845287210196,123.28329940411,15.546424642464,727657.18427036,-1558.2990511121,2632846.993165,20.746424642464,0,0
-31.845287188893,123.30485713479,15.550855085509,727657.18427036,-1558.2990511121,2632846.993165,20.750855085509,0,0
-31.845287167589,123.32641486547,15.555285528553,727657.18427036,-1558.2990511121,2632846.993165,20.755285528553,0,0
-31.845287146286,123.34797259615,15.559715971597,727657.18427036,-1558.2990511121,2632846.993165,20.759715971597,0,0
-31.845287124982,123.36953032683,15.564146414641,727657.18427036,-1558.2990511121,2632846.993165,20.764146414641,0,0
-31.845287103679,123.39108805751,15.568576857686,727657.18427036,-1558.2990511121,2632846.993165,20.768576857686,0,0
-31.845287082375,123.41264578819,15.57300730073,727657.18427036,-1558.2990511121,2632846.993165,20.77300730073,0,0
-31.845287061072,123.43420351887,15.577437743774,727657.18427036,-1558.2990511121,2632846.993165,20.777437743774,0,0
-31.845287039768,123.45576124955,15.581868186819,727657.18427036,-1558.2990511121,2632846.993165,20.781868186819,0,0
-31.845287018465,123.47731898023,15.586298629863,727657.18427036,-1558.2990511121,2632846.993165,20.786298629863,0,0
-31.845286997161,123.49887671092,15.590729072907,727657.18427036,-1558.2990511121,2632846.993165,20.790729072907,0,0
-31.845286975858,123.5204344416,15.595159515952,727657.18427036,-1558.2990511121,2632846.993165,20.795159515952,0,0
-31.845286954554,123.54199217228,15.599589958996,727657.18427036,-1558.2990511121,2632846.993165,20.799589958996,0,0
-31.845286933251,123.56354990296,15.60402040204,727657.18427036,-1558.2990511121,2632846.993165,20.80402040204,0,0
-31.845286911947,123.58510763364,15.608450845085,727657.18427036,-1558.2990511121,2632846.993165,20.808450845085,0,0
-31.845286890644,123.60666536432,15.612881288129,727657.18427036,-1558.2990511121,2632846.993165,20.812881288129,0,0
-31.84528686934,123.628223095,15.617311731173,727657.18427036,-1558.2990511121,2632846.993165,20.817311731173,0,0
-31.845286848037,123.64978082568,15.621742174217,727657.18427036,-1558.2990511121,2632846.993165,20.821742174217,0,0
-31.845286826733,123.67133855636,15.626172617262,727657.18427036,-1558.2990511121,2632846.993165,20.826172617262,0,0
-31.845286805429,123.69289628704,15.630603060306,727657.18427036,-1558.2990511121,2632846.993165,20.830603060306,0,0
-31.845286784126,123.71445401772,15.63503350335,727657.18427036,-1558.2990511121,2632846.993165,20.83503350335,0,0
-31.845286762822,123.73601174841,15.639463946395,727657.18427036,-1558.2990511121,2632846.993165,20.839463946395,0,0
-31.845286741519,123.75756947909,15.643894389439,727657.18427036,-1558.2990511121,2632846.993165,20.843894389439,0,0
-31.845286720215,123.77912720977,15.648324832483,727657.18427036,-1558.2990511121,2632846.993165,20.848324832483,0,0
-31.845286698912,123.80068494045,15.652755275528,727657.18427036,-1558.2990511121,2632846.993165,20.852755275528,0,0
-31.845286677608,123.82224267113,15.657185718572,727657.18427036,-1558.2990511121,2632846.993165,20.857185718572,0,0
-31.845286656305,123.84380040181,15.661616161616,727657.18427036,-1558.2990511121,2632846.993165,20.861616161616,0,0
-31.845286635001,123.86535813249,15.66604660466,727657.18427036,-1558.2990511121,2632846.993165,20.86604660466,0,0
-31.845286613698,123.88691586317,15.670477047705,727657.18427036,-1558.2990511121,2632846.993165,20.870477047705,0,0
-31.845286592394,123.90847359385,15.674907490749,727657.18427036,-1558.2990511121,2632846.993165,20.874907490749,0,0
-31.845286571091,123.93003132453,15.679337933793,727657.18427036,-1558.2990511121,2632846.993165,20.879337933793,0,0
-31.845286549787,123.95158905521,15.683768376838,727657.18427036,-1558.2990511121,2632846.993165,20.883768376838,0,0
-31.845286528484,123.97314678589,15.688198819882,727657.18427036,-1558.2990511121,2632846.993165,20.888198819882,0,0
-31.84528650718,123.99470451658,15.692629262926,727657.18427036,-1558.2990511121,2632846.993165,20.892629262926,0,0
-31.845286485877,124.01626224726,15.697059705971,727657.18427036,-1558.2990511121,2632846.993165,20.897059705971,0,0
-31.845286464573,124.03781997794,15.701490149015,727657.18427036,-1558.2990511121,2632846.993165,20.901490149015,0,0
-31.84528644327,124.05937770862,15.705920592059,727657.18427036,-1558.2990511121,2632846.993165,20.905920592059,0,0
-31.845286421966,124.0809354393,15.710351035104,727657.18427036,-1558.2990511121,2632846.993165,20.910351035104,0,0
-31.845286400663,124.10249316998,15.714781478148,727657.18427036,-1558.2990511121,2632846.993165,20.914781478148,0,0
-31.845286379359,124.12405090066,15.719211921192,727657.18427036,-1558.2990511121,2632846.993165,20.919211921192,0,0
-31.845286358055,124.14560863134,15.723642364236,727657.18427036,-1558.2990511121,2632846.993165,20.923642364236,0,0
-31.845286336752,124.16716636202,15.728072807281,727657.18427036,-1558.2990511121,2632846.993165,20.928072807281,0,0
-31.845286315448,124.1887240927,15.732503250325,727657.18427036,-1558.2990511121,2632846.993165,20.932503250325,0,0
-31.845286294145,124.21028182338,15.736933693369,727657.18427036,-1558.2990511121,2632846.993165,20.936933693369,0,0
-31.845286272841,124.23183955407,15.741364136414,727657.18427036,-1558.2990511121,2632846.993165,20.941364136414,0,0
-31.845286251538,124.25339728475,15.745794579458,727657.18427036,-1558.2990511121,2632846.993165,20.945794579458,0,0
-31.845286230234,124.27495501543,15.750225022502,727657.18427036,-1558.2990511121,2632846.993165,20.950225022502,0,0
-31.845286208931,124.29651274611,15.754655465547,727657.18427036,-1558.2990511121,2632846.993165,20.954655465547,0,0
-31.845286187627,124.31807047679,15.759085908591,727657.18427036,-1558.2990511121,2632846.993165,20.959085908591,0,0
-31.845286166324,124.33962820747,15.763516351635,727657.18427036,-1558.2990511121,2632846.993165,20.963516351635,0,0
-31.84528614502,124.36118593815,15.767946794679,727657.18427036,-1558.2990511121,2632846.993165,20.967946794679,0,0
-31.845286123717,124.38274366883,15.772377237724,727657.18427036,-1558.2990511121,2632846.993165,20.972377237724,0,0
-31.845286102413,124.40430139951,15.776807680768,727657.18427036,-1558.2990511121,2632846.993165,20.976807680768,0,0
-31.84528608111,124.42585913019,15.781238123812,727657.18427036,-1558.2990511121,2632846.993165,20.981238123812,0,0
-31.845286059806,124.44741686087,15.785668566857,727657.18427036,-1558.2990511121,2632846.993165,20.985668566857,0,0
-31.845286038503,124.46897459156,15.790099009901,727657.18427036,-1558.2990511121,2632846.993165,20.990099009901,0,0
-31.845286017199,124.49053232224,15.794529452945,727657.18427036,-1558.2990511121,2632846.993165,20.994529452945,0,0
-31.845285995896,124.51209005292,15.79895989599,727657.18427036,-1558.2990511121,2632846.993165,20.99895989599,0,0
-31.845285974592,124.5336477836,15.803390339034,727657.18427036,-1558.2990511121,2632846.993165,21.003390339034,0,0
-31.845285953289,124.55520551428,15.807820782078,727657.18427036,-1558.2990511121,2632846.993165,21.007820782078,0,0
-31.845285931985,124.57676324496,15.812251225123,727657.18427036,-1558.2990511121,2632846.993165,21.012251225123,0,0
-31.845285910681,124.59832097564,15.816681668167,727657.18427036,-1558.2990511121,2632846.993165,21.016681668167,0,0
-31.845285889378,124.61987870632,15.821112111211,727657.18427036,-1558.2990511121,2632846.993165,21.021112111211,0,0
-31.845285868074,124.641436437,15.825542554255,727657.18427036,-1558.2990511121,2632846.993165,21.025542554255,0,0
-31.845285846771,124.66299416768,15.8299729973,727657.18427036,-1558.2990511121,2632846.993165,21.0299729973,0,0
-31.845285825467,124.68455189836,15.834403440344,727657.18427036,-1558.2990511121,2632846.993165,21.034403440344,0,0
-31.845285804164,124.70610962905,15.838833883388,727657.18427036,-1558.2990511121,2632846.993165,21.038833883388,0,0
-31.84528578286,124.72766735973,15.843264326433,727657.18427036,-1558.2990511121,2632846.993165,21.043264326433,0,0
-31.845285761557,124.74922509041,15.847694769477,727657.18427036,-1558.2990511121,2632846.993165,21.047694769477,0,0
-31.845285740253,124.77078282109,15.852125212521,727657.18427036,-1558.2990511121,2632846.993165,21.052125212521,0,0
-31.84528571895,124.79234055177,15.856555655566,727657.18427036,-1558.2990511121,2632846.993165,21.056555655566,0,0
-31.845285697646,124.81389828245,15.86098609861,727657.18427036,-1558.2990511121,2632846.993165,21.06098609861,0,0
-31.845285676343,124.83545601313,15.865416541654,727657.18427036,-1558.2990511121,2632846.993165,21.065416541654,0,0
-31.845285655039,124.85701374381,15.869846984698,727657.18427036,-1558.2990511121,2632846.993165,21.069846984698,0,0
-31.845285633736,124.87857147449,15.874277427743,727657.18427036,-1558.2990511121,2632846.993165,21.074277427743,0,0
-31.845285612432,124.90012920517,15.878707870787,727657.18427036,-1558.2990511121,2632846.993165,21.078707870787,0,0
-31.845285591129,124.92168693585,15.883138313831,727657.18427036,-1558.2990511121,2632846.993165,21.083138313831,0,0
-31.845285569825,124.94324466654,15.887568756876,727657.18427036,-1558.2990511121,2632846.993165,21.087568756876,0,0
-31.845285548522,124.96480239722,15.89199919992,727657.18427036,-1558.2990511121,2632846.993165,21.09199919992,0,0
-31.845285527218,124.9863601279,15.896429642964,727657.18427036,-1558.2990511121,2632846.993165,21.096429642964,0,0
-31.845285505915,125.00791785858,15.900860086009,727657.18427036,-1558.2990511121,2632846.993165,21.100860086009,0,0
-31.845285484611,125.02947558926,15.905290529053,727657.18427036,-1558.2990511121,2632846.993165,21.105290529053,0,0
-31.845285463307,125.05103331994,15.909720972097,727657.18427036,-1558.2990511121,2632846.993165,21.109720972097,0,0
-31.845285442004,125.07259105062,15.914151415142,727657.18427036,-1558.2990511121,2632846.993165,21.114151415142,0,0
-31.8452854207,125.0941487813,15.918581858186,727657.18427036,-1558.2990511121,2632846.993165,21.118581858186,0,0
-31.845285399397,125.11570651198,15.92301230123,727657.18427036,-1558.2990511121,2632846.993165,21.12301230123,0,0
-31.845285378093,125.13726424266,15.927442744274,727657.18427036,-1558.2990511121,2632846.993165,21.127442744274,0,0
-31.84528535679,125.15882197334,15.931873187319,727657.18427036,-1558.2990511121,2632846.993165,21.131873187319,0,0
-31.845285335975,125.18037970449,15.936303630363,717043.13650201,2955.1458442256,2625105.9208883,21.136303630363,0,0
-31.845285315313,125.20193743577,15.940734073407,717043.13650201,2955.1458442256,2625105.9208883,21.140734073407,0,0
-31.845285294651,125.22349516706,15.945164516452,717043.13650201,2955.1458442256,2625105.9208883,21.145164516452,0,0
-31.845285273989,125.24505289835,15.949594959496,717043.13650201,2955.1458442256,2625105.9208883,21.149594959496,0,0
-31.845285253327,125.26661062963,15.95402540254,717043.13650201,2955.1458442256,2625105.9208883,21.15402540254,0,0
-31.845285232665,125.28816836092,15.958455845585,717043.13650201,2955.1458442256,2625105.9208883,21.158455845585,0,0
-31.845285212004,125.30972609221,15.962886288629,717043.13650201,2955.1458442256,2625105.9208883,21.162886288629,0,0
-31.845285191342,125.33128382349,15.967316731673,717043.13650201,2955.1458442256,2625105.9208883,21.167316731673,0,0
-31.84528517068,125.35284155478,15.971747174717,717043.13650201,2955.1458442256,2625105.9208883,21.171747174717,0,0
-31.845285150018,125.37439928607,15.976177617762,717043.13650201,2955.1458442256,2625105.9208883,21.176177617762,0,0
-31.845285129356,125.39595701735,15.980608060806,717043.13650201,2955.1458442256,2625105.9208883,21.180608060806,0,0
-31.845285108694,125.41751474864,15.98503850385,717043.13650201,2955.1458442256,2625105.9208883,21.18503850385,0,0
-31.845285088033,125.43907247993,15.989468946895,717043.13650201,2955.1458442256,2625105.9208883,21.189468946895,0,0
-31.845285067371,125.46063021121,15.993899389939,717043.13650201,2955.1458442256,2625105.9208883,21.193899389939,0,0
-31.845285046709,125.4821879425,15.998329832983,717043.13650201,2955.1458442256,2625105.9208883,21.198329832983,0,0
-31.845285026047,125.50374567379,16.002760276028,717043.13650201,2955.1458442256,2625105.9208883,21.202760276028,0,0
-31.845285005385,125.52530340507,16.007190719072,717043.13650201,2955.1458442256,2625105.9208883,21.207190719072,0,0
-31.845284984723,125.54686113636,16.011621162116,717043.13650201,2955.1458442256,2625105.9208883,21.211621162116,0,0
-31.845284964062,125.56841886764,16.016051605161,717043.13650201,2955.1458442256,2625105.9208883,21.216051605161,0,0
-31.8452849434,125.58997659893,16.020482048205,717043.13650201,2955.1458442256,2625105.9208883,21.220482048205,0,0
-31.845284922738,125.61153433022,16.024912491249,717043.13650201,2955.1458442256,2625105.9208883,21.224912491249,0,0
-31.845284902076,125.6330920615,16.029342934293,717043.13650201,2955.1458442256,2625105.9208883,21.229342934293,0,0
-31.845284881414,125.65464979279,16.033773377338,717043.13650201,2955.1458442256,2625105.9208883,21.233773377338,0,0
-31.845284860753,125.67620752408,16.038203820382,717043.13650201,2955.1458442256,2625105.9208883,21.238203820382,0,0
-31.845284840091,125.69776525536,16.042634263426,717043.13650201,2955.1458442256,2625105.9208883,21.242634263426,0,0
-31.845284819429,125.71932298665,16.047064706471,717043.13650201,2955.1458442256,2625105.9208883,21.247064706471,0,0
-31.845284798767,125.74088071794,16.051495149515,717043.13650201,2955.1458442256,2625105.9208883,21.251495149515,0,0
-31.845284778105,125.76243844922,16.055925592559,717043.13650201,2955.1458442256,2625105.9208883,21.255925592559,0,0
-31.845284757443,125.78399618051,16.060356035604,717043.13650201,2955.1458442256,2625105.9208883,21.260356035604,0,0
-31.845284736782,125.8055539118,16.064786478648,717043.13650201,2955.1458442256,2625105.9208883,21.264786478648,0,0
-31.84528471612,125.82711164308,16.069216921692,717043.13650201,2955.1458442256,2625105.9208883,21.269216921692,0,0
-31.845284695458,125.84866937437,16.073647364736,717043.13650201,2955.1458442256,2625105.9208883,21.273647364736,0,0
-31.845284674796,125.87022710566,16.078077807781,717043.13650201,2955.1458442256,2625105.9208883,21.278077807781,0,0
-31.845284654134,125.89178483694,16.082508250825,717043.13650201,2955.1458442256,2625105.9208883,21.282508250825,0,0
-31.845284633472,125.91334256823,16.086938693869,717043.13650201,2955.1458442256,2625105.9208883,21.286938693869,0,0
-31.845284612811,125.93490029952,16.091369136914,717043.13650201,2955.1458442256,2625105.9208883,21.291369136914,0,0
-31.845284592149,125.9564580308,16.095799579958,717043.13650201,2955.1458442256,2625105.9208883,21.295799579958,0,0
-31.845284571487,125.97801576209,16.100230023002,717043.13650201,2955.1458442256,2625105.9208883,21.300230023002,0,0
-31.845284550825,125.99957349338,16.104660466047,717043.13650201,2955.1458442256,2625105.9208883,21.304660466047,0,0
-31.845284530163,126.02113122466,16.109090909091,717043.13650201,2955.1458442256,2625105.9208883,21.309090909091,0,0
-31.845284509501,126.04268895595,16.113521352135,717043.13650201,2955.1458442256,2625105.9208883,21.313521352135,0,0
-31.84528448884,126.06424668724,16.11795179518,717043.13650201,2955.1458442256,2625105.9208883,21.31795179518,0,0
-31.845284468178,126.08580441852,16.122382238224,717043.13650201,2955.1458442256,2625105.9208883,21.322382238224,0,0
-31.845284447516,126.10736214981,16.126812681268,717043.13650201,2955.1458442256,2625105.9208883,21.326812681268,0,0
-31.845284426854,126.1289198811,16.131243124312,717043.13650201,2955.1458442256,2625105.9208883,21.331243124312,0,0
-31.845284406192,126.15047761238,16.135673567357,717043.13650201,2955.1458442256,2625105.9208883,21.335673567357,0,0
-31.845284385531,126.17203534367,16.140104010401,717043.13650201,2955.1458442256,2625105.9208883,21.340104010401,0,0
-31.845284364869,126.19359307496,16.144534453445,717043.13650201,2955.1458442256,2625105.9208883,21.344534453445,0,0
-31.845284344207,126.21515080624,16.14896489649,717043.13650201,2955.1458442256,2625105.9208883,21.34896489649,0,0
-31.845284323545,126.23670853753,16.153395339534,717043.13650201,2955.1458442256,2625105.9208883,21.353395339534,0,0
-31.845284302883,126.25826626882,16.157825782578,717043.13650201,2955.1458442256,2625105.9208883,21.357825782578,0,0
-31.845284282221,126.2798240001,16.162256225623,717043.13650201,2955.1458442256,2625105.9208883,21.362256225623,0,0
-31.84528426156,126.30138173139,16.166686668667,717043.13650201,2955.1458442256,2625105.9208883,21.366686668667,0,0
-31.845284240898,126.32293946268,16.171117111711,717043.13650201,2955.1458442256,2625105.9208883,21.371117111711,0,0
-31.845284220236,126.34449719396,16.175547554755,717043.13650201,2955.1458442256,2625105.9208883,21.375547554755,0,0
-31.845284199574,126.36605492525,16.1799779978,717043.13650201,2955.1458442256,2625105.9208883,21.3799779978,0,0
-31.845284178912,126.38761265654,16.184408440844,717043.13650201,2955.1458442256,2625105.9208883,21.384408440844,0,0
-31.84528415825,126.40917038782,16.188838883888,717043.13650201,2955.1458442256,2625105.9208883,21.388838883888,0,0
-31.845284137589,126.43072811911,16.193269326933,717043.13650201,2955.1458442256,2625105.9208883,21.393269326933,0,0
-31.845284116927,126.4522858504,16.197699769977,717043.13650201,2955.1458442256,2625105.9208883,21.397699769977,0,0
-31.845284096265,126.47384358168,16.202130213021,717043.13650201,2955.1458442256,2625105.9208883,21.402130213021,0,0
-31.845284075603,126.49540131297,16.206560656066,717043.13650201,2955.1458442256,2625105.9208883,21.406560656066,0,0
-31.845284054941,126.51695904426,16.21099109911,717043.13650201,2955.1458442256,2625105.9208883,21.41099109911,0,0
-31.845284034279,126.53851677554,16.215421542154,717043.13650201,2955.1458442256,2625105.9208883,21.415421542154,0,0
-31.845284013618,126.56007450683,16.219851985199,717043.13650201,2955.1458442256,2625105.9208883,21.419851985199,0,0
-31.845283992956,126.58163223811,16.224282428243,717043.13650201,2955.1458442256,2625105.9208883,21.424282428243,0,0
-31.845283972294,126.6031899694,16.228712871287,717043.13650201,2955.1458442256,2625105.9208883,21.428712871287,0,0
-31.845283951632,126.62474770069,16.233143314331,717043.13650201,2955.1458442256,2625105.9208883,21.433143314331,0,0
-31.84528393097,126.64630543197,16.237573757376,717043.13650201,2955.1458442256,2625105.9208883,21.437573757376,0,0
-31.845283910309,126.66786316326,16.24200420042,717043.13650201,2955.1458442256,2625105.9208883,21.44200420042,0,0
-31.845283889647,126.68942089455,16.246434643464,717043.13650201,2955.1458442256,2625105.9208883,21.446434643464,0,0
-31.845283868985,126.71097862583,16.250865086509,717043.13650201,2955.1458442256,2625105.9208883,21.450865086509,0,0
-31.845283848323,126.73253635712,16.255295529553,717043.13650201,2955.1458442256,2625105.9208883,21.455295529553,0,0
-31.845283827661,126.75409408841,16.259725972597,717043.13650201,2955.1458442256,2625105.9208883,21.459725972597,0,0
-31.845283806999,126.77565181969,16.264156415642,717043.13650201,2955.1458442256,2625105.9208883,21.464156415642,0,0
-31.845283786338,126.79720955098,16.268586858686,717043.13650201,2955.1458442256,2625105.9208883,21.468586858686,0,0
-31.845283765676,126.81876728227,16.27301730173,717043.13650201,2955.1458442256,2625105.9208883,21.47301730173,0,0
-31.845283745014,126.84032501355,16.277447744774,717043.13650201,2955.1458442256,2625105.9208883,21.477447744774,0,0
-31.845283724352,126.86188274484,16.281878187819,717043.13650201,2955.1458442256,2625105.9208883,21.481878187819,0,0
-31.84528370369,126.88344047613,16.286308630863,717043.13650201,2955.1458442256,2625105.9208883,21.486308630863,0,0
-31.845283683028,126.90499820741,16.290739073907,717043.13650201,2955.1458442256,2625105.9208883,21.490739073907,0,0
-31.845283662367,126.9265559387,16.295169516952,717043.13650201,2955.1458442256,2625105.9208883,21.495169516952,0,0
-31.845283641705,126.94811366999,16.299599959996,717043.13650201,2955.1458442256,2625105.9208883,21.499599959996,0,0
-31.845283621043,126.96967140127,16.30403040304,717043.13650201,2955.1458442256,2625105.9208883,21.50403040304,0,0
-31.845283600381,126.99122913256,16.308460846085,717043.13650201,2955.1458442256,2625105.9208883,21.508460846085,0,0
-31.845283579719,127.01278686385,16.312891289129,717043.13650201,2955.1458442256,2625105.9208883,21.512891289129,0,0
-31.845283559057,127.03434459513,16.317321732173,717043.13650201,2955.1458442256,2625105.9208883,21.517321732173,0,0
-31.845283538396,127.05590232642,16.321752175218,717043.13650201,2955.1458442256,2625105.9208883,21.521752175218,0,0
-31.845283517734,127.07746005771,16.326182618262,717043.13650201,2955.1458442256,2625105.9208883,21.526182618262,0,0
-31.845283497072,127.09901778899,16.330613061306,717043.13650201,2955.1458442256,2625105.9208883,21.530613061306,0,0
-31.84528347641,127.12057552028,16.33504350435,717043.13650201,2955.1458442256,2625105.9208883,21.53504350435,0,0
-31.845283455748,127.14213325157,16.339473947395,717043.13650201,2955.1458442256,2625105.9208883,21.539473947395,0,0
-31.845283435087,127.16369098285,16.343904390439,717043.13650201,2955.1458442256,2625105.9208883,21.543904390439,0,0
-31.845283414425,127.18524871414,16.348334833483,717043.13650201,2955.1458442256,2625105.9208883,21.548334833483,0,0
-31.845283393763,127.20680644543,16.352765276528,717043.13650201,2955.1458442256,2625105.9208883,21.552765276528,0,0
-31.845283373101,127.22836417671,16.357195719572,717043.13650201,2955.1458442256,2625105.9208883,21.557195719572,0,0
-31.845283352439,127.249921908,16.361626162616,717043.13650201,2955.1458442256,2625105.9208883,21.561626162616,0,0
-31.845283331777,127.27147963929,16.366056605661,717043.13650201,2955.1458442256,2625105.9208883,21.566056605661,0,0
-31.845283311116,127.29303737057,16.370487048705,717043.13650201,2955.1458442256,2625105.9208883,21.570487048705,0,0
-31.845283290454,127.31459510186,16.374917491749,717043.13650201,2955.1458442256,2625105.9208883,21.574917491749,0,0
-31.845283269792,127.33615283315,16.379347934793,717043.13650201,2955.1458442256,2625105.9208883,21.579347934793,0,0
-31.84528324913,127.35771056443,16.383778377838,717043.13650201,2955.1458442256,2625105.9208883,21.583778377838,0,0
-31.845283228468,127.37926829572,16.388208820882,717043.13650201,2955.1458442256,2625105.9208883,21.588208820882,0,0
-31.845283207806,127.40082602701,16.392639263926,717043.13650201,2955.1458442256,2625105.9208883,21.592639263926,0,0
-31.845283187145,127.42238375829,16.397069706971,717043.13650201,2955.1458442256,2625105.9208883,21.597069706971,0,0
-31.845283166483,127.44394148958,16.401500150015,717043.13650201,2955.1458442256,2625105.9208883,21.601500150015,0,0
-31.845283145821,127.46549922087,16.405930593059,717043.13650201,2955.1458442256,2625105.9208883,21.605930593059,0,0
-31.845283125159,127.48705695215,16.410361036104,717043.13650201,2955.1458442256,2625105.9208883,21.610361036104,0,0
-31.845283104497,127.50861468344,16.414791479148,717043.13650201,2955.1458442256,2625105.9208883,21.614791479148,0,0
-31.845283083835,127.53017241473,16.419221922192,717043.13650201,2955.1458442256,2625105.9208883,21.619221922192,0,0
-31.845283063174,127.55173014601,16.423652365237,717043.13650201,2955.1458442256,2625105.9208883,21.623652365237,0,0
-31.845283042512,127.5732878773,16.428082808281,717043.13650201,2955.1458442256,2625105.9208883,21.628082808281,0,0
-31.84528302185,127.59484560858,16.432513251325,717043.13650201,2955.1458442256,2625105.9208883,21.632513251325,0,0
-31.845283001188,127.61640333987,16.436943694369,717043.13650201,2955.1458442256,2625105.9208883,21.636943694369,0,0
-31.845282980526,127.63796107116,16.441374137414,717043.13650201,2955.1458442256,2625105.9208883,21.641374137414,0,0
-31.845282959865,127.65951880244,16.445804580458,717043.13650201,2955.1458442256,2625105.9208883,21.645804580458,0,0
-31.845282939203,127.68107653373,16.450235023502,717043.13650201,2955.1458442256,2625105.9208883,21.650235023502,0,0
-31.845282918541,127.70263426502,16.454665466547,717043.13650201,2955.1458442256,2625105.9208883,21.654665466547,0,0
-31.845282897879,127.7241919963,16.459095909591,717043.13650201,2955.1458442256,2625105.9208883,21.659095909591,0,0
-31.845282877217,127.74574972759,16.463526352635,717043.13650201,2955.1458442256,2625105.9208883,21.663526352635,0,0
-31.845282856555,127.76730745888,16.46795679568,717043.13650201,2955.1458442256,2625105.9208883,21.66795679568,0,0
-31.845282835894,127.78886519016,16.472387238724,717043.13650201,2955.1458442256,2625105.9208883,21.672387238724,0,0
-31.845282815232,127.81042292145,16.476817681768,717043.13650201,2955.1458442256,2625105.9208883,21.676817681768,0,0
-31.84528279457,127.83198065274,16.481248124812,717043.13650201,2955.1458442256,2625105.9208883,21.681248124812,0,0
-31.845282773908,127.85353838402,16.485678567857,717043.13650201,2955.1458442256,2625105.9208883,21.685678567857,0,0
-31.845282753246,127.87509611531,16.490109010901,717043.13650201,2955.1458442256,2625105.9208883,21.690109010901,0,0
-31.845282732584,127.8966538466,16.494539453945,717043.13650201,2955.1458442256,2625105.9208883,21.694539453945,0,0
-31.845282711923,127.91821157788,16.49896989699,717043.13650201,2955.1458442256,2625105.9208883,21.69896989699,0,0
-31.845282691261,127.93976930917,16.503400340034,717043.13650201,2955.1458442256,2625105.9208883,21.703400340034,0,0
-31.845282670599,127.96132704046,16.507830783078,717043.13650201,2955.1458442256,2625105.9208883,21.707830783078,0,0
-31.845282649937,127.98288477174,16.512261226123,717043.13650201,2955.1458442256,2625105.9208883,21.712261226123,0,0
-31.845282629275,128.00444250303,16.516691669167,717043.13650201,2955.1458442256,2625105.9208883,21.716691669167,0,0
-31.845282608613,128.02600023432,16.521122112211,717043.13650201,2955.1458442256,2625105.9208883,21.721122112211,0,0
-31.845282587952,128.0475579656,16.525552555256,717043.13650201,2955.1458442256,2625105.9208883,21.725552555256,0,0
-31.84528256729,128.06911569689,16.5299829983,717043.13650201,2955.1458442256,2625105.9208883,21.7299829983,0,0
-31.845282546628,128.09067342818,16.534413441344,717043.13650201,2955.1458442256,2625105.9208883,21.734413441344,0,0
-31.845282525966,128.11223115946,16.538843884388,717043.13650201,2955.1458442256,2625105.9208883,21.738843884388,0,0
-31.845282505304,128.13378889075,16.543274327433,717043.13650201,2955.1458442256,2625105.9208883,21.743274327433,0,0
-31.845282484643,128.15534662204,16.547704770477,717043.13650201,2955.1458442256,2625105.9208883,21.747704770477,0,0
-31.845282463981,128.17690435332,16.552135213521,717043.13650201,2955.1458442256,2625105.9208883,21.752135213521,0,0
-31.845282443319,128.19846208461,16.556565656566,717043.13650201,2955.1458442256,2625105.9208883,21.756565656566,0,0
-31.845282422657,128.2200198159,16.56099609961,717043.13650201,2955.1458442256,2625105.9208883,21.76099609961,0,0
-31.845282401995,128.24157754718,16.565426542654,717043.13650201,2955.1458442256,2625105.9208883,21.765426542654,0,0
-31.845282381333,128.26313527847,16.569856985699,717043.13650201,2955.1458442256,2625105.9208883,21.769856985699,0,0
-31.845282360672,128.28469300976,16.574287428743,717043.13650201,2955.1458442256,2625105.9208883,21.774287428743,0,0
-31.84528234001,128.30625074104,16.578717871787,717043.13650201,2955.1458442256,2625105.9208883,21.778717871787,0,0
-31.845282319348,128.32780847233,16.583148314831,717043.13650201,2955.1458442256,2625105.9208883,21.783148314831,0,0
-31.845282298686,128.34936620362,16.587578757876,717043.13650201,2955.1458442256,2625105.9208883,21.787578757876,0,0
-31.845282278024,128.3709239349,16.59200920092,717043.13650201,2955.1458442256,2625105.9208883,21.79200920092,0,0
-31.845282257362,128.39248166619,16.596439643964,717043.13650201,2955.1458442256,2625105.9208883,21.796439643964,0,0
-31.845282236701,128.41403939748,16.600870087009,717043.13650201,2955.1458442256,2625105.9208883,21.800870087009,0,0
-31.845282216039,128.43559712876,16.605300530053,717043.13650201,2955.1458442256,2625105.9208883,21.805300530053,0,0
-31.845282195377,128.45715486005,16.609730973097,717043.13650201,2955.1458442256,2625105.9208883,21.809730973097,0,0
-31.845282174715,128.47871259134,16.614161416142,717043.13650201,2955.1458442256,2625105.9208883,21.814161416142,0,0
-31.845282154053,128.50027032262,16.618591859186,717043.13650201,2955.1458442256,2625105.9208883,21.818591859186,0,0
-31.845282133391,128.52182805391,16.62302230223,717043.13650201,2955.1458442256,2625105.9208883,21.82302230223,0,0
-31.84528211273,128.5433857852,16.627452745275,717043.13650201,2955.1458442256,2625105.9208883,21.827452745275,0,0
-31.845282092068,128.56494351648,16.631883188319,717043.13650201,2955.1458442256,2625105.9208883,21.831883188319,0,0
-31.845282071406,128.58650124777,16.636313631363,717043.13650201,2955.1458442256,2625105.9208883,21.836313631363,0,0
-31.845282050744,128.60805897905,16.640744074407,717043.13650201,2955.1458442256,2625105.9208883,21.840744074407,0,0
-31.845282030082,128.62961671034,16.645174517452,717043.13650201,2955.1458442256,2625105.9208883,21.845174517452,0,0
-31.845282009421,128.65117444163,16.649604960496,717043.13650201,2955.1458442256,2625105.9208883,21.849604960496,0,0
-31.845281988759,128.67273217291,16.65403540354,717043.13650201,2955.1458442256,2625105.9208883,21.85403540354,0,0
-31.845281968097,128.6942899042,16.658465846585,717043.13650201,2955.1458442256,2625105.9208883,21.858465846585,0,0
-31.845281947435,128.71584763549,16.662896289629,717043.13650201,2955.1458442256,2625105.9208883,21.862896289629,0,0
-31.845281926773,128.73740536677,16.667326732673,717043.13650201,2955.1458442256,2625105.9208883,21.867326732673,0,0
-31.845281906111,128.75896309806,16.671757175718,717043.13650201,2955.1458442256,2625105.9208883,21.871757175718,0,0
-31.84528188545,128.78052082935,16.676187618762,717043.13650201,2955.1458442256,2625105.9208883,21.876187618762,0,0
-31.845281864788,128.80207856063,16.680618061806,717043.13650201,2955.1458442256,2625105.9208883,21.880618061806,0,0
-31.845281844126,128.82363629192,16.68504850485,717043.13650201,2955.1458442256,2625105.9208883,21.88504850485,0,0
-31.845281823464,128.84519402321,16.689478947895,717043.13650201,2955.1458442256,2625105.9208883,21.889478947895,0,0
-31.845281802802,128.86675175449,16.693909390939,717043.13650201,2955.1458442256,2625105.9208883,21.893909390939,0,0
-31.84528178214,128.88830948578,16.698339833983,717043.13650201,2955.1458442256,2625105.9208883,21.898339833983,0,0
-31.845281761479,128.90986721707,16.702770277028,717043.13650201,2955.1458442256,2625105.9208883,21.902770277028,0,0
-31.845281740817,128.93142494835,16.707200720072,717043.13650201,2955.1458442256,2625105.9208883,21.907200720072,0,0
-31.845281720155,128.95298267964,16.711631163116,717043.13650201,2955.1458442256,2625105.9208883,21.911631163116,0,0
-31.845281699493,128.97454041093,16.716061606161,717043.13650201,2955.1458442256,2625105.9208883,21.916061606161,0,0
-31.845281678831,128.99609814221,16.720492049205,717043.13650201,2955.1458442256,2625105.9208883,21.920492049205,0,0
-31.845281658169,129.0176558735,16.724922492249,717043.13650201,2955.1458442256,2625105.9208883,21.924922492249,0,0
-31.845281637508,129.03921360479,16.729352935294,717043.13650201,2955.1458442256,2625105.9208883,21.929352935294,0,0
-31.845281616846,129.06077133607,16.733783378338,717043.13650201,2955.1458442256,2625105.9208883,21.933783378338,0,0
-31.845281596184,129.08232906736,16.738213821382,717043.13650201,2955.1458442256,2625105.9208883,21.938213821382,0,0
-31.845281575522,129.10388679865,16.742644264426,717043.13650201,2955.1458442256,2625105.9208883,21.942644264426,0,0
-31.84528155486,129.12544452993,16.747074707471,717043.13650201,2955.1458442256,2625105.9208883,21.947074707471,0,0
-31.845281534199,129.14700226122,16.751505150515,717043.13650201,2955.1458442256,2625105.9208883,21.951505150515,0,0
-31.845281513537,129.16855999251,16.755935593559,717043.13650201,2955.1458442256,2625105.9208883,21.955935593559,0,0
-31.845281492875,129.19011772379,16.760366036604,717043.13650201,2955.1458442256,2625105.9208883,21.960366036604,0,0
-31.845281472213,129.21167545508,16.764796479648,717043.13650201,2955.1458442256,2625105.9208883,21.964796479648,0,0
-31.845281451551,129.23323318637,16.769226922692,717043.13650201,2955.1458442256,2625105.9208883,21.969226922692,0,0
-31.845281430889,129.25479091765,16.773657365737,717043.13650201,2955.1458442256,2625105.9208883,21.973657365737,0,0
-31.845281410228,129.27634864894,16.778087808781,717043.13650201,2955.1458442256,2625105.9208883,21.978087808781,0,0
-31.845281389566,129.29790638023,16.782518251825,717043.13650201,2955.1458442256,2625105.9208883,21.982518251825,0,0
-31.845281368915,129.31946411125,16.786948694869,714300.0557187,-89.946770458552,2617878.2267573,21.986948694869,0,0
-31.84528134828,129.34102184191,16.791379137914,714300.0557187,-89.946770458552,2617878.2267573,21.991379137914,0,0
-31.845281327645,129.36257957257,16.795809580958,714300.0557187,-89.946770458552,2617878.2267573,21.995809580958,0,0
-31.84528130701,129.38413730323,16.800240024002,714300.0557187,-89.946770458552,2617878.2267573,22.000240024002,0,0
-31.845281286374,129.40569503389,16.804670467047,714300.0557187,-89.946770458552,2617878.2267573,22.004670467047,0,0
-31.845281265739,129.42725276455,16.809100910091,714300.0557187,-89.946770458552,2617878.2267573,22.009100910091,0,0
-31.845281245104,129.44881049521,16.813531353135,714300.0557187,-89.946770458552,2617878.2267573,22.013531353135,0,0
-31.845281224469,129.47036822587,16.81796179618,714300.0557187,-89.946770458552,2617878.2267573,22.01796179618,0,0
-31.845281203834,129.49192595653,16.822392239224,714300.0557187,-89.946770458552,2617878.2267573,22.022392239224,0,0
-31.845281183199,129.51348368719,16.826822682268,714300.0557187,-89.946770458552,2617878.2267573,22.026822682268,0,0
-31.845281162563,129.53504141785,16.831253125313,714300.0557187,-89.946770458552,2617878.2267573,22.031253125313,0,0
-31.845281141928,129.55659914851,16.835683568357,714300.0557187,-89.946770458552,2617878.2267573,22.035683568357,0,0
-31.845281121293,129.57815687916,16.840114011401,714300.0557187,-89.946770458552,2617878.2267573,22.040114011401,0,0
-31.845281100658,129.59971460982,16.844544454445,714300.0557187,-89.946770458552,2617878.2267573,22.044544454445,0,0
-31.845281080023,129.62127234048,16.84897489749,714300.0557187,-89.946770458552,2617878.2267573,22.04897489749,0,0
-31.845281059388,129.64283007114,16.853405340534,714300.0557187,-89.946770458552,2617878.2267573,22.053405340534,0,0
-31.845281038752,129.6643878018,16.857835783578,714300.0557187,-89.946770458552,2617878.2267573,22.057835783578,0,0
-31.845281018117,129.68594553246,16.862266226623,714300.0557187,-89.946770458552,2617878.2267573,22.062266226623,0,0
-31.845280997482,129.70750326312,16.866696669667,714300.0557187,-89.946770458552,2617878.2267573,22.066696669667,0,0
-31.845280976847,129.72906099378,16.871127112711,714300.0557187,-89.946770458552,2617878.2267573,22.071127112711,0,0
-31.845280956212,129.75061872444,16.875557555756,714300.0557187,-89.946770458552,2617878.2267573,22.075557555756,0,0
-31.845280935577,129.7721764551,16.8799879988,714300.0557187,-89.946770458552,2617878.2267573,22.0799879988,0,0
-31.845280914941,129.79373418576,16.884418441844,714300.0557187,-89.946770458552,2617878.2267573,22.084418441844,0,0
-31.845280894306,129.81529191642,16.888848884888,714300.0557187,-89.946770458552,2617878.2267573,22.088848884888,0,0
-31.845280873671,129.83684964708,16.893279327933,714300.0557187,-89.946770458552,2617878.2267573,22.093279327933,0,0
-31.845280853036,129.85840737774,16.897709770977,714300.0557187,-89.946770458552,2617878.2267573,22.097709770977,0,0
-31.845280832401,129.8799651084,16.902140214021,714300.0557187,-89.946770458552,2617878.2267573,22.102140214021,0,0
-31.845280811766,129.90152283906,16.906570657066,714300.0557187,-89.946770458552,2617878.2267573,22.106570657066,0,0
-31.845280791131,129.92308056972,16.91100110011,714300.0557187,-89.946770458552,2617878.2267573,22.11100110011,0,0
-31.845280770495,129.94463830037,16.915431543154,714300.0557187,-89.946770458552,2617878.2267573,22.115431543154,0,0
-31.84528074986,129.96619603103,16.919861986199,714300.0557187,-89.946770458552,2617878.2267573,22.119861986199,0,0
-31.845280729225,129.98775376169,16.924292429243,714300.0557187,-89.946770458552,2617878.2267573,22.124292429243,0,0
-31.84528070859,130.00931149235,16.928722872287,714300.0557187,-89.946770458552,2617878.2267573,22.128722872287,0,0
-31.845280687955,130.03086922301,16.933153315332,714300.0557187,-89.946770458552,2617878.2267573,22.133153315332,0,0
-31.84528066732,130.05242695367,16.937583758376,714300.0557187,-89.946770458552,2617878.2267573,22.137583758376,0,0
-31.845280646684,130.07398468433,16.94201420142,714300.0557187,-89.946770458552,2617878.2267573,22.14201420142,0,0
-31.845280626049,130.09554241499,16.946444644464,714300.0557187,-89.946770458552,2617878.2267573,22.146444644464,0,0
-31.845280605414,130.11710014565,16.950875087509,714300.0557187,-89.946770458552,2617878.2267573,22.150875087509,0,0
-31.845280584779,130.13865787631,16.955305530553,714300.0557187,-89.946770458552,2617878.2267573,22.155305530553,0,0
-31.845280564144,130.16021560697,16.959735973597,714300.0557187,-89.946770458552,2617878.2267573,22.159735973597,0,0
-31.845280543509,130.18177333763,16.964166416642,714300.0557187,-89.946770458552,2617878.2267573,22.164166416642,0,0
-31.845280522873,130.20333106829,16.968596859686,714300.0557187,-89.946770458552,2617878.2267573,22.168596859686,0,0
-31.845280502238,130.22488879895,16.97302730273,714300.0557187,-89.946770458552,2617878.2267573,22.17302730273,0,0
-31.845280481603,130.24644652961,16.977457745775,714300.0557187,-89.946770458552,2617878.2267573,22.177457745775,0,0
-31.845280460968,130.26800426027,16.981888188819,714300.0557187,-89.946770458552,2617878.2267573,22.181888188819,0,0
-31.845280440333,130.28956199093,16.986318631863,714300.0557187,-89.946770458552,2617878.2267573,22.186318631863,0,0
-31.845280419698,130.31111972159,16.990749074907,714300.0557187,-89.946770458552,2617878.2267573,22.190749074907,0,0
-31.845280399063,130.33267745224,16.995179517952,714300.0557187,-89.946770458552,2617878.2267573,22.195179517952,0,0
-31.845280378427,130.3542351829,16.999609960996,714300.0557187,-89.946770458552,2617878.2267573,22.199609960996,0,0
-31.845280357792,130.37579291356,17.00404040404,714300.0557187,-89.946770458552,2617878.2267573,22.20404040404,0,0
-31.845280337157,130.39735064422,17.008470847085,714300.0557187,-89.946770458552,2617878.2267573,22.208470847085,0,0
-31.845280316522,130.41890837488,17.012901290129,714300.0557187,-89.946770458552,2617878.2267573,22.212901290129,0,0
-31.845280295887,130.44046610554,17.017331733173,714300.0557187,-89.946770458552,2617878.2267573,22.217331733173,0,0
-31.845280275252,130.4620238362,17.021762176218,714300.0557187,-89.946770458552,2617878.2267573,22.221762176218,0,0
-31.845280254616,130.48358156686,17.026192619262,714300.0557187,-89.946770458552,2617878.2267573,22.226192619262,0,0
-31.845280233981,130.50513929752,17.030623062306,714300.0557187,-89.946770458552,2617878.2267573,22.230623062306,0,0
-31.845280213346,130.52669702818,17.035053505351,714300.0557187,-89.946770458552,2617878.2267573,22.235053505351,0,0
-31.845280192711,130.54825475884,17.039483948395,714300.0557187,-89.946770458552,2617878.2267573,22.239483948395,0,0
-31.845280172076,130.5698124895,17.043914391439,714300.0557187,-89.946770458552,2617878.2267573,22.243914391439,0,0
-31.845280151441,130.59137022016,17.048344834483,714300.0557187,-89.946770458552,2617878.2267573,22.248344834483,0,0
-31.845280130805,130.61292795082,17.052775277528,714300.0557187,-89.946770458552,2617878.2267573,22.252775277528,0,0
-31.84528011017,130.63448568148,17.057205720572,714300.0557187,-89.946770458552,2617878.2267573,22.257205720572,0,0
-31.845280089535,130.65604341214,17.061636163616,714300.0557187,-89.946770458552,2617878.2267573,22.261636163616,0,0
-31.8452800689,130.6776011428,17.066066606661,714300.0557187,-89.946770458552,2617878.2267573,22.266066606661,0,0
-31.845280048265,130.69915887345,17.070497049705,714300.0557187,-89.946770458552,2617878.2267573,22.270497049705,0,0
-31.84528002763,130.72071660411,17.074927492749,714300.0557187,-89.946770458552,2617878.2267573,22.274927492749,0,0
-31.845280006994,130.74227433477,17.079357935794,714300.0557187,-89.946770458552,2617878.2267573,22.279357935794,0,0
-31.845279986359,130.76383206543,17.083788378838,714300.0557187,-89.946770458552,2617878.2267573,22.283788378838,0,0
-31.845279965724,130.78538979609,17.088218821882,714300.0557187,-89.946770458552,2617878.2267573,22.288218821882,0,0
-31.845279945089,130.80694752675,17.092649264926,714300.0557187,-89.946770458552,2617878.2267573,22.292649264926,0,0
-31.845279924454,130.82850525741,17.097079707971,714300.0557187,-89.946770458552,2617878.2267573,22.297079707971,0,0
-31.845279903819,130.85006298807,17.101510151015,714300.0557187,-89.946770458552,2617878.2267573,22.301510151015,0,0
-31.845279883184,130.87162071873,17.105940594059,714300.0557187,-89.946770458552,2617878.2267573,22.305940594059,0,0
-31.845279862548,130.89317844939,17.110371037104,714300.0557187,-89.946770458552,2617878.2267573,22.310371037104,0,0
-31.845279841913,130.91473618005,17.114801480148,714300.0557187,-89.946770458552,2617878.2267573,22.314801480148,0,0
-31.845279821278,130.93629391071,17.119231923192,714300.0557187,-89.946770458552,2617878.2267573,22.319231923192,0,0
-31.845279800643,130.95785164137,17.123662366237,714300.0557187,-89.946770458552,2617878.2267573,22.323662366237,0,0
-31.845279780008,130.97940937203,17.128092809281,714300.0557187,-89.946770458552,2617878.2267573,22.328092809281,0,0
-31.845279759373,131.00096710269,17.132523252325,714300.0557187,-89.946770458552,2617878.2267573,22.332523252325,0,0
-31.845279738737,131.02252483335,17.13695369537,714300.0557187,-89.946770458552,2617878.2267573,22.33695369537,0,0
-31.845279718102,131.04408256401,17.141384138414,714300.0557187,-89.946770458552,2617878.2267573,22.341384138414,0,0
-31.845279697467,131.06564029467,17.145814581458,714300.0557187,-89.946770458552,2617878.2267573,22.345814581458,0,0
-31.845279676832,131.08719802532,17.150245024502,714300.0557187,-89.946770458552,2617878.2267573,22.350245024502,0,0
-31.845279656197,131.10875575598,17.154675467547,714300.0557187,-89.946770458552,2617878.2267573,22.354675467547,0,0
-31.845279635562,131.13031348664,17.159105910591,714300.0557187,-89.946770458552,2617878.2267573,22.359105910591,0,0
-31.845279614926,131.1518712173,17.163536353635,714300.0557187,-89.946770458552,2617878.2267573,22.363536353635,0,0
-31.845279594291,131.17342894796,17.16796679668,714300.0557187,-89.946770458552,2617878.2267573,22.36796679668,0,0
-31.845279573656,131.19498667862,17.172397239724,714300.0557187,-89.946770458552,2617878.2267573,22.372397239724,0,0
-31.845279553021,131.21654440928,17.176827682768,714300.0557187,-89.946770458552,2617878.2267573,22.376827682768,0,0
-31.845279532386,131.23810213994,17.181258125813,714300.0557187,-89.946770458552,2617878.2267573,22.381258125813,0,0
-31.845279511751,131.2596598706,17.185688568857,714300.0557187,-89.946770458552,2617878.2267573,22.385688568857,0,0
-31.845279491644,131.28121760175,17.190119011901,704276.90590492,4229.7222864817,2610311.2657731,22.390119011901,0,0
-31.845279471608,131.30277533297,17.194549454945,704276.90590492,4229.7222864817,2610311.2657731,22.394549454945,0,0
-31.845279451572,131.32433306418,17.19897989799,704276.90590492,4229.7222864817,2610311.2657731,22.39897989799,0,0
-31.845279431536,131.3458907954,17.203410341034,704276.90590492,4229.7222864817,2610311.2657731,22.403410341034,0,0
-31.8452794115,131.36744852662,17.207840784078,704276.90590492,4229.7222864817,2610311.2657731,22.407840784078,0,0
-31.845279391464,131.38900625783,17.212271227123,704276.90590492,4229.7222864817,2610311.2657731,22.412271227123,0,0
-31.845279371428,131.41056398905,17.216701670167,704276.90590492,4229.7222864817,2610311.2657731,22.416701670167,0,0
-31.845279351392,131.43212172027,17.221132113211,704276.90590492,4229.7222864817,2610311.2657731,22.421132113211,0,0
-31.845279331356,131.45367945148,17.225562556256,704276.90590492,4229.7222864817,2610311.2657731,22.425562556256,0,0
-31.84527931132,131.4752371827,17.2299929993,704276.90590492,4229.7222864817,2610311.2657731,22.4299929993,0,0
-31.845279291284,131.49679491392,17.234423442344,704276.90590492,4229.7222864817,2610311.2657731,22.434423442344,0,0
-31.845279271248,131.51835264513,17.238853885389,704276.90590492,4229.7222864817,2610311.2657731,22.438853885389,0,0
-31.845279251212,131.53991037635,17.243284328433,704276.90590492,4229.7222864817,2610311.2657731,22.443284328433,0,0
-31.845279231176,131.56146810756,17.247714771477,704276.90590492,4229.7222864817,2610311.2657731,22.447714771477,0,0
-31.84527921114,131.58302583878,17.252145214521,704276.90590492,4229.7222864817,2610311.2657731,22.452145214521,0,0
-31.845279191104,131.60458357,17.256575657566,704276.90590492,4229.7222864817,2610311.2657731,22.456575657566,0,0
-31.845279171068,131.62614130121,17.26100610061,704276.90590492,4229.7222864817,2610311.2657731,22.46100610061,0,0
-31.845279151031,131.64769903243,17.265436543654,704276.90590492,4229.7222864817,2610311.2657731,22.465436543654,0,0
-31.845279130995,131.66925676365,17.269866986699,704276.90590492,4229.7222864817,2610311.2657731,22.469866986699,0,0
-31.845279110959,131.69081449486,17.274297429743,704276.90590492,4229.7222864817,2610311.2657731,22.474297429743,0,0
-31.845279090923,131.71237222608,17.278727872787,704276.90590492,4229.7222864817,2610311.2657731,22.478727872787,0,0
-31.845279070887,131.7339299573,17.283158315832,704276.90590492,4229.7222864817,2610311.2657731,22.483158315832,0,0
-31.845279050851,131.75548768851,17.287588758876,704276.90590492,4229.7222864817,2610311.2657731,22.487588758876,0,0
-31.845279030815,131.77704541973,17.29201920192,704276.90590492,4229.7222864817,2610311.2657731,22.49201920192,0,0
-31.845279010779,131.79860315095,17.296449644964,704276.90590492,4229.7222864817,2610311.2657731,22.496449644964,0,0
-31.845278990743,131.82016088216,17.300880088009,704276.90590492,4229.7222864817,2610311.2657731,22.500880088009,0,0
-31.845278970707,131.84171861338,17.305310531053,704276.90590492,4229.7222864817,2610311.2657731,22.505310531053,0,0
-31.845278950671,131.8632763446,17.309740974097,704276.90590492,4229.7222864817,2610311.2657731,22.509740974097,0,0
-31.845278930635,131.88483407581,17.314171417142,704276.90590492,4229.7222864817,2610311.2657731,22.514171417142,0,0
-31.845278910599,131.90639180703,17.318601860186,704276.90590492,4229.7222864817,2610311.2657731,22.518601860186,0,0
-31.845278890563,131.92794953824,17.32303230323,704276.90590492,4229.7222864817,2610311.2657731,22.52303230323,0,0
-31.845278870527,131.94950726946,17.327462746275,704276.90590492,4229.7222864817,2610311.2657731,22.527462746275,0,0
-31.845278850491,131.97106500068,17.331893189319,704276.90590492,4229.7222864817,2610311.2657731,22.531893189319,0,0
-31.845278830455,131.99262273189,17.336323632363,704276.90590492,4229.7222864817,2610311.2657731,22.536323632363,0,0
-31.845278810419,132.01418046311,17.340754075408,704276.90590492,4229.7222864817,2610311.2657731,22.540754075408,0,0
-31.845278790383,132.03573819433,17.345184518452,704276.90590492,4229.7222864817,2610311.2657731,22.545184518452,0,0
-31.845278770347,132.05729592554,17.349614961496,704276.90590492,4229.7222864817,2610311.2657731,22.549614961496,0,0
-31.845278750311,132.07885365676,17.35404540454,704276.90590492,4229.7222864817,2610311.2657731,22.55404540454,0,0
-31.845278730275,132.10041138798,17.358475847585,704276.90590492,4229.7222864817,2610311.2657731,22.558475847585,0,0
-31.845278710239,132.12196911919,17.362906290629,704276.90590492,4229.7222864817,2610311.2657731,22.562906290629,0,0
-31.845278690203,132.14352685041,17.367336733673,704276.90590492,4229.7222864817,2610311.2657731,22.567336733673,0,0
-31.845278670167,132.16508458163,17.371767176718,704276.90590492,4229.7222864817,2610311.2657731,22.571767176718,0,0
-31.845278650131,132.18664231284,17.376197619762,704276.90590492,4229.7222864817,2610311.2657731,22.576197619762,0,0
-31.845278630095,132.20820004406,17.380628062806,704276.90590492,4229.7222864817,2610311.2657731,22.580628062806,0,0
-31.845278610059,132.22975777528,17.385058505851,704276.90590492,4229.7222864817,2610311.2657731,22.585058505851,0,0
-31.845278590023,132.25131550649,17.389488948895,704276.90590492,4229.7222864817,2610311.2657731,22.589488948895,0,0
-31.845278569987,132.27287323771,17.393919391939,704276.90590492,4229.7222864817,2610311.2657731,22.593919391939,0,0
-31.845278549951,132.29443096892,17.398349834983,704276.90590492,4229.7222864817,2610311.2657731,22.598349834983,0,0
-31.845278529915,132.31598870014,17.402780278028,704276.90590492,4229.7222864817,2610311.2657731,22.602780278028,0,0
-31.845278509879,132.33754643136,17.407210721072,704276.90590492,4229.7222864817,2610311.2657731,22.607210721072,0,0
-31.845278489843,132.35910416257,17.411641164116,704276.90590492,4229.7222864817,2610311.2657731,22.611641164116,0,0
-31.845278469807,132.38066189379,17.416071607161,704276.90590492,4229.7222864817,2610311.2657731,22.616071607161,0,0
-31.845278449771,132.40221962501,17.420502050205,704276.90590492,4229.7222864817,2610311.2657731,22.620502050205,0,0
-31.845278429735,132.42377735622,17.424932493249,704276.90590492,4229.7222864817,2610311.2657731,22.624932493249,0,0
-31.845278409699,132.44533508744,17.429362936294,704276.90590492,4229.7222864817,2610311.2657731,22.629362936294,0,0
-31.845278389663,132.46689281866,17.433793379338,704276.90590492,4229.7222864817,2610311.2657731,22.633793379338,0,0
-31.845278369627,132.48845054987,17.438223822382,704276.90590492,4229.7222864817,2610311.2657731,22.638223822382,0,0
-31.84527834959,132.51000828109,17.442654265427,704276.90590492,4229.7222864817,2610311.2657731,22.642654265427,0,0
-31.845278329554,132.53156601231,17.447084708471,704276.90590492,4229.7222864817,2610311.2657731,22.647084708471,0,0
-31.845278309518,132.55312374352,17.451515151515,704276.90590492,4229.7222864817,2610311.2657731,22.651515151515,0,0
-31.845278289482,132.57468147474,17.455945594559,704276.90590492,4229.7222864817,2610311.2657731,22.655945594559,0,0
-31.845278269446,132.59623920596,17.460376037604,704276.90590492,4229.7222864817,2610311.2657731,22.660376037604,0,0
-31.84527824941,132.61779693717,17.464806480648,704276.90590492,4229.7222864817,2610311.2657731,22.664806480648,0,0
-31.845278229374,132.63935466839,17.469236923692,704276.90590492,4229.7222864817,2610311.2657731,22.669236923692,0,0
-31.845278209338,132.66091239961,17.473667366737,704276.90590492,4229.7222864817,2610311.2657731,22.673667366737,0,0
-31.845278189302,132.68247013082,17.478097809781,704276.90590492,4229.7222864817,2610311.2657731,22.678097809781,0,0
-31.845278169266,132.70402786204,17.482528252825,704276.90590492,4229.7222864817,2610311.2657731,22.682528252825,0,0
-31.84527814923,132.72558559325,17.48695869587,704276.90590492,4229.7222864817,2610311.2657731,22.68695869587,0,0
-31.845278129194,132.74714332447,17.491389138914,704276.90590492,4229.7222864817,2610311.2657731,22.691389138914,0,0
-31.845278109158,132.76870105569,17.495819581958,704276.90590492,4229.7222864817,2610311.2657731,22.695819581958,0,0
-31.845278089122,132.7902587869,17.500250025002,704276.90590492,4229.7222864817,2610311.2657731,22.700250025002,0,0
-31.845278069086,132.81181651812,17.504680468047,704276.90590492,4229.7222864817,2610311.2657731,22.704680468047,0,0
-31.84527804905,132.83337424934,17.509110911091,704276.90590492,4229.7222864817,2610311.2657731,22.709110911091,0,0
-31.845278029014,132.85493198055,17.513541354135,704276.90590492,4229.7222864817,2610311.2657731,22.713541354135,0,0
-31.845278008978,132.87648971177,17.51797179718,704276.90590492,4229.7222864817,2610311.2657731,22.71797179718,0,0
-31.845277988942,132.89804744299,17.522402240224,704276.90590492,4229.7222864817,2610311.2657731,22.722402240224,0,0
-31.845277968906,132.9196051742,17.526832683268,704276.90590492,4229.7222864817,2610311.2657731,22.726832683268,0,0
-31.84527794887,132.94116290542,17.531263126313,704276.90590492,4229.7222864817,2610311.2657731,22.731263126313,0,0
-31.845277928834,132.96272063664,17.535693569357,704276.90590492,4229.7222864817,2610311.2657731,22.735693569357,0,0
-31.845277908798,132.98427836785,17.540124012401,704276.90590492,4229.7222864817,2610311.2657731,22.740124012401,0,0
-31.845277888762,133.00583609907,17.544554455446,704276.90590492,4229.7222864817,2610311.2657731,22.744554455446,0,0
-31.845277868726,133.02739383029,17.54898489849,704276.90590492,4229.7222864817,2610311.2657731,22.74898489849,0,0
-31.84527784869,133.0489515615,17.553415341534,704276.90590492,4229.7222864817,2610311.2657731,22.753415341534,0,0
-31.845277828654,133.07050929272,17.557845784578,704276.90590492,4229.7222864817,2610311.2657731,22.757845784578,0,0
-31.845277808618,133.09206702393,17.562276227623,704276.90590492,4229.7222864817,2610311.2657731,22.762276227623,0,0
-31.845277788582,133.11362475515,17.566706670667,704276.90590492,4229.7222864817,2610311.2657731,22.766706670667,0,0
-31.845277768546,133.13518248637,17.571137113711,704276.90590492,4229.7222864817,2610311.2657731,22.771137113711,0,0
-31.84527774851,133.15674021758,17.575567556756,704276.90590492,4229.7222864817,2610311.2657731,22.775567556756,0,0
-31.845277728474,133.1782979488,17.5799979998,704276.90590492,4229.7222864817,2610311.2657731,22.7799979998,0,0
-31.845277708438,133.19985568002,17.584428442844,704276.90590492,4229.7222864817,2610311.2657731,22.784428442844,0,0
-31.845277688402,133.22141341123,17.588858885889,704276.90590492,4229.7222864817,2610311.2657731,22.788858885889,0,0
-31.845277668366,133.24297114245,17.593289328933,704276.90590492,4229.7222864817,2610311.2657731,22.793289328933,0,0
-31.84527764833,133.26452887367,17.597719771977,704276.90590492,4229.7222864817,2610311.2657731,22.797719771977,0,0
-31.845277628294,133.28608660488,17.602150215021,704276.90590492,4229.7222864817,2610311.2657731,22.802150215021,0,0
-31.845277608258,133.3076443361,17.606580658066,704276.90590492,4229.7222864817,2610311.2657731,22.806580658066,0,0
-31.845277588222,133.32920206732,17.61101110111,704276.90590492,4229.7222864817,2610311.2657731,22.81101110111,0,0
-31.845277568186,133.35075979853,17.615441544154,704276.90590492,4229.7222864817,2610311.2657731,22.815441544154,0,0
-31.845277548149,133.37231752975,17.619871987199,704276.90590492,4229.7222864817,2610311.2657731,22.819871987199,0,0
-31.845277528113,133.39387526097,17.624302430243,704276.90590492,4229.7222864817,2610311.2657731,22.824302430243,0,0
-31.845277508077,133.41543299218,17.628732873287,704276.90590492,4229.7222864817,2610311.2657731,22.828732873287,0,0
-31.845277488041,133.4369907234,17.633163316332,704276.90590492,4229.7222864817,2610311.2657731,22.833163316332,0,0
-31.845277468005,133.45854845461,17.637593759376,704276.90590492,4229.7222864817,2610311.2657731,22.837593759376,0,0
-31.845277447969,133.48010618583,17.64202420242,704276.90590492,4229.7222864817,2610311.2657731,22.84202420242,0,0
-31.845277427933,133.50166391705,17.646454645465,704276.90590492,4229.7222864817,2610311.2657731,22.846454645465,0,0
-31.845277407897,133.52322164826,17.650885088509,704276.90590492,4229.7222864817,2610311.2657731,22.850885088509,0,0
-31.845277387861,133.54477937948,17.655315531553,704276.90590492,4229.7222864817,2610311.2657731,22.855315531553,0,0
-31.845277367825,133.5663371107,17.659745974597,704276.90590492,4229.7222864817,2610311.2657731,22.859745974597,0,0
-31.845277347789,133.58789484191,17.664176417642,704276.90590492,4229.7222864817,2610311.2657731,22.864176417642,0,0
-31.845277327753,133.60945257313,17.668606860686,704276.90590492,4229.7222864817,2610311.2657731,22.868606860686,0,0
-31.845277307717,133.63101030435,17.67303730373,704276.90590492,4229.7222864817,2610311.2657731,22.87303730373,0,0
-31.845277287681,133.65256803556,17.677467746775,704276.90590492,4229.7222864817,2610311.2657731,22.877467746775,0,0
-31.845277267645,133.67412576678,17.681898189819,704276.90590492,4229.7222864817,2610311.2657731,22.881898189819,0,0
-31.845277247609,133.695683498,17.686328632863,704276.90590492,4229.7222864817,2610311.2657731,22.886328632863,0,0
-31.845277227573,133.71724122921,17.690759075908,704276.90590492,4229.7222864817,2610311.2657731,22.890759075908,0,0
-31.845277207537,133.73879896043,17.695189518952,704276.90590492,4229.7222864817,2610311.2657731,22.895189518952,0,0
-31.845277187501,133.76035669165,17.699619961996,704276.90590492,4229.7222864817,2610311.2657731,22.899619961996,0,0
-31.845277167465,133.78191442286,17.704050405041,704276.90590492,4229.7222864817,2610311.2657731,22.904050405041,0,0
-31.845277147429,133.80347215408,17.708480848085,704276.90590492,4229.7222864817,2610311.2657731,22.908480848085,0,0
-31.845277127393,133.82502988529,17.712911291129,704276.90590492,4229.7222864817,2610311.2657731,22.912911291129,0,0
-31.845277107357,133.84658761651,17.717341734173,704276.90590492,4229.7222864817,2610311.2657731,22.917341734173,0,0
-31.845277087321,133.86814534773,17.721772177218,704276.90590492,4229.7222864817,2610311.2657731,22.921772177218,0,0
-31.845277067285,133.88970307894,17.726202620262,704276.90590492,4229.7222864817,2610311.2657731,22.926202620262,0,0
-31.845277047249,133.91126081016,17.730633063306,704276.90590492,4229.7222864817,2610311.2657731,22.930633063306,0,0
-31.845277027213,133.93281854138,17.735063506351,704276.90590492,4229.7222864817,2610311.2657731,22.935063506351,0,0
-31.845277007177,133.95437627259,17.739493949395,704276.90590492,4229.7222864817,2610311.2657731,22.939493949395,0,0
-31.845276987141,133.97593400381,17.743924392439,704276.90590492,4229.7222864817,2610311.2657731,22.943924392439,0,0
-31.845276967105,133.99749173503,17.748354835484,704276.90590492,4229.7222864817,2610311.2657731,22.948354835484,0,0
-31.845276947069,134.01904946624,17.752785278528,704276.90590492,4229.7222864817,2610311.2657731,22.952785278528,0,0
-31.845276927033,134.04060719746,17.757215721572,704276.90590492,4229.7222864817,2610311.2657731,22.957215721572,0,0
-31.845276906997,134.06216492868,17.761646164616,704276.90590492,4229.7222864817,2610311.2657731,22.961646164616,0,0
-31.845276886961,134.08372265989,17.766076607661,704276.90590492,4229.7222864817,2610311.2657731,22.966076607661,0,0
-31.845276866925,134.10528039111,17.770507050705,704276.90590492,4229.7222864817,2610311.2657731,22.970507050705,0,0
-31.845276846889,134.12683812233,17.774937493749,704276.90590492,4229.7222864817,2610311.2657731,22.974937493749,0,0
-31.845276826853,134.14839585354,17.779367936794,704276.90590492,4229.7222864817,2610311.2657731,22.979367936794,0,0
-31.845276806817,134.16995358476,17.783798379838,704276.90590492,4229.7222864817,2610311.2657731,22.983798379838,0,0
-31.845276786781,134.19151131597,17.788228822882,704276.90590492,4229.7222864817,2610311.2657731,22.988228822882,0,0
-31.845276766745,134.21306904719,17.792659265927,704276.90590492,4229.7222864817,2610311.2657731,22.992659265927,0,0
-31.845276746708,134.23462677841,17.797089708971,704276.90590492,4229.7222864817,2610311.2657731,22.997089708971,0,0
-31.845276726672,134.25618450962,17.801520152015,704276.90590492,4229.7222864817,2610311.2657731,23.001520152015,0,0
-31.845276706636,134.27774224084,17.80595059506,704276.90590492,4229.7222864817,2610311.2657731,23.00595059506,0,0
-31.8452766866,134.29929997206,17.810381038104,704276.90590492,4229.7222864817,2610311.2657731,23.010381038104,0,0
-31.845276666564,134.32085770327,17.814811481148,704276.90590492,4229.7222864817,2610311.2657731,23.014811481148,0,0
-31.845276646528,134.34241543449,17.819241924192,704276.90590492,4229.7222864817,2610311.2657731,23.019241924192,0,0
-31.845276626492,134.36397316571,17.823672367237,704276.90590492,4229.7222864817,2610311.2657731,23.023672367237,0,0
-31.845276606456,134.38553089692,17.828102810281,704276.90590492,4229.7222864817,2610311.2657731,23.028102810281,0,0
-31.84527658642,134.40708862814,17.832533253325,704276.90590492,4229.7222864817,2610311.2657731,23.032533253325,0,0
-31.845276566384,134.42864635936,17.83696369637,704276.90590492,4229.7222864817,2610311.2657731,23.03696369637,0,0
-31.845276546348,134.45020409057,17.841394139414,704276.90590492,4229.7222864817,2610311.2657731,23.041394139414,0,0
-31.845276526312,134.47176182179,17.845824582458,704276.90590492,4229.7222864817,2610311.2657731,23.045824582458,0,0
-31.845276506276,134.49331955301,17.850255025503,704276.90590492,4229.7222864817,2610311.2657731,23.050255025503,0,0
-31.84527648624,134.51487728422,17.854685468547,704276.90590492,4229.7222864817,2610311.2657731,23.054685468547,0,0
-31.845276466204,134.53643501544,17.859115911591,704276.90590492,4229.7222864817,2610311.2657731,23.059115911591,0,0
-31.845276446168,134.55799274665,17.863546354635,704276.90590492,4229.7222864817,2610311.2657731,23.063546354635,0,0
-31.845276426132,134.57955047787,17.86797679768,704276.90590492,4229.7222864817,2610311.2657731,23.06797679768,0,0
-31.845276406096,134.60110820909,17.872407240724,704276.90590492,4229.7222864817,2610311.2657731,23.072407240724,0,0
-31.84527638606,134.6226659403,17.876837683768,704276.90590492,4229.7222864817,2610311.2657731,23.076837683768,0,0
-31.845276366024,134.64422367152,17.881268126813,704276.90590492,4229.7222864817,2610311.2657731,23.081268126813,0,0
-31.845276345988,134.66578140274,17.885698569857,704276.90590492,4229.7222864817,2610311.2657731,23.085698569857,0,0
-31.845276325952,134.68733913395,17.890129012901,704276.90590492,4229.7222864817,2610311.2657731,23.090129012901,0,0
-31.845276305916,134.70889686517,17.894559455946,704276.90590492,4229.7222864817,2610311.2657731,23.094559455946,0,0
-31.84527628588,134.73045459639,17.89898989899,704276.90590492,4229.7222864817,2610311.2657731,23.09898989899,0,0
-31.845276265844,134.7520123276,17.903420342034,704276.90590492,4229.7222864817,2610311.2657731,23.103420342034,0,0
-31.845276245808,134.77357005882,17.907850785079,704276.90590492,4229.7222864817,2610311.2657731,23.107850785079,0,0
-31.845276225772,134.79512779004,17.912281228123,704276.90590492,4229.7222864817,2610311.2657731,23.112281228123,0,0
-31.845276205736,134.81668552125,17.916711671167,704276.90590492,4229.7222864817,2610311.2657731,23.116711671167,0,0
-31.8452761857,134.83824325247,17.921142114211,704276.90590492,4229.7222864817,2610311.2657731,23.121142114211,0,0
-31.845276165664,134.85980098369,17.925572557256,704276.90590492,4229.7222864817,2610311.2657731,23.125572557256,0,0
-31.845276145628,134.8813587149,17.9300030003,704276.90590492,4229.7222864817,2610311.2657731,23.1300030003,0,0
-31.845276125592,134.90291644612,17.934433443344,704276.90590492,4229.7222864817,2610311.2657731,23.134433443344,0,0
-31.845276105556,134.92447417733,17.938863886389,704276.90590492,4229.7222864817,2610311.2657731,23.138863886389,0,0
-31.84527608552,134.94603190855,17.943294329433,704276.90590492,4229.7222864817,2610311.2657731,23.143294329433,0,0
-31.845276065484,134.96758963977,17.947724772477,704276.90590492,4229.7222864817,2610311.2657731,23.147724772477,0,0
-31.845276045448,134.98914737098,17.952155215522,704276.90590492,4229.7222864817,2610311.2657731,23.152155215522,0,0
-31.845276025412,135.0107051022,17.956585658566,704276.90590492,4229.7222864817,2610311.2657731,23.156585658566,0,0
-31.845276005376,135.03226283342,17.96101610161,704276.90590492,4229.7222864817,2610311.2657731,23.16101610161,0,0
-31.84527598534,135.05382056463,17.965446544654,704276.90590492,4229.7222864817,2610311.2657731,23.165446544654,0,0
-31.845275965304,135.07537829585,17.969876987699,704276.90590492,4229.7222864817,2610311.2657731,23.169876987699,0,0
-31.845275945267,135.09693602707,17.974307430743,704276.90590492,4229.7222864817,2610311.2657731,23.174307430743,0,0
-31.845275925231,135.11849375828,17.978737873787,704276.90590492,4229.7222864817,2610311.2657731,23.178737873787,0,0
-31.845275905195,135.1400514895,17.983168316832,704276.90590492,4229.7222864817,2610311.2657731,23.183168316832,0,0
-31.845275885159,135.16160922072,17.987598759876,704276.90590492,4229.7222864817,2610311.2657731,23.187598759876,0,0
-31.845275865123,135.18316695193,17.99202920292,704276.90590492,4229.7222864817,2610311.2657731,23.19202920292,0,0
-31.845275845087,135.20472468315,17.996459645965,704276.90590492,4229.7222864817,2610311.2657731,23.196459645965,0,0
-31.845275825051,135.22628241437,18.000890089009,704276.90590492,4229.7222864817,2610311.2657731,23.200890089009,0,0
-31.845275805015,135.24784014558,18.005320532053,704276.90590492,4229.7222864817,2610311.2657731,23.205320532053,0,0
-31.845275784979,135.2693978768,18.009750975098,704276.90590492,4229.7222864817,2610311.2657731,23.209750975098,0,0
-31.845275764943,135.29095560801,18.014181418142,704276.90590492,4229.7222864817,2610311.2657731,23.214181418142,0,0
-31.845275744907,135.31251333923,18.018611861186,704276.90590492,4229.7222864817,2610311.2657731,23.218611861186,0,0
-31.845275724871,135.33407107045,18.02304230423,704276.90590492,4229.7222864817,2610311.2657731,23.22304230423,0,0
-31.845275704835,135.35562880166,18.027472747275,704276.90590492,4229.7222864817,2610311.2657731,23.227472747275,0,0
-31.845275684799,135.37718653288,18.031903190319,704276.90590492,4229.7222864817,2610311.2657731,23.231903190319,0,0
-31.845275664763,135.3987442641,18.036333633363,704276.90590492,4229.7222864817,2610311.2657731,23.236333633363,0,0
-31.845275644727,135.42030199531,18.040764076408,704276.90590492,4229.7222864817,2610311.2657731,23.240764076408,0,0
-31.845275624691,135.44185972653,18.045194519452,704276.90590492,4229.7222864817,2610311.2657731,23.245194519452,0,0
-31.845275604655,135.46341745775,18.049624962496,704276.90590492,4229.7222864817,2610311.2657731,23.249624962496,0,0
-31.845275584619,135.48497518896,18.054055405541,704276.90590492,4229.7222864817,2610311.2657731,23.254055405541,0,0
-31.845275564583,135.50653292018,18.058485848585,704276.90590492,4229.7222864817,2610311.2657731,23.258485848585,0,0
-31.845275544547,135.5280906514,18.062916291629,704276.90590492,4229.7222864817,2610311.2657731,23.262916291629,0,0
-31.845275524511,135.54964838261,18.067346734673,704276.90590492,4229.7222864817,2610311.2657731,23.267346734673,0,0
-31.845275504475,135.57120611383,18.071777177718,704276.90590492,4229.7222864817,2610311.2657731,23.271777177718,0,0
-31.845275484439,135.59276384505,18.076207620762,704276.90590492,4229.7222864817,2610311.2657731,23.276207620762,0,0
-31.845275464403,135.61432157626,18.080638063806,704276.90590492,4229.7222864817,2610311.2657731,23.280638063806,0,0
-31.845275444367,135.63587930748,18.085068506851,704276.90590492,4229.7222864817,2610311.2657731,23.285068506851,0,0
-31.845275424331,135.65743703869,18.089498949895,704276.90590492,4229.7222864817,2610311.2657731,23.289498949895,0,0
-31.845275404295,135.67899476991,18.093929392939,704276.90590492,4229.7222864817,2610311.2657731,23.293929392939,0,0
-31.845275384259,135.70055250113,18.098359835984,704276.90590492,4229.7222864817,2610311.2657731,23.298359835984,0,0
-31.845275364223,135.72211023234,18.102790279028,704276.90590492,4229.7222864817,2610311.2657731,23.302790279028,0,0
-31.845275344187,135.74366796356,18.107220722072,704276.90590492,4229.7222864817,2610311.2657731,23.307220722072,0,0
-31.845275324151,135.76522569478,18.111651165117,704276.90590492,4229.7222864817,2610311.2657731,23.311651165117,0,0
-31.845275304115,135.78678342599,18.116081608161,704276.90590492,4229.7222864817,2610311.2657731,23.316081608161,0,0
-31.845275284079,135.80834115721,18.120512051205,704276.90590492,4229.7222864817,2610311.2657731,23.320512051205,0,0
-31.845275264043,135.82989888843,18.124942494249,704276.90590492,4229.7222864817,2610311.2657731,23.324942494249,0,0
-31.845275244007,135.85145661964,18.129372937294,704276.90590492,4229.7222864817,2610311.2657731,23.329372937294,0,0
-31.845275223971,135.87301435086,18.133803380338,704276.90590492,4229.7222864817,2610311.2657731,23.333803380338,0,0
-31.845275203935,135.89457208208,18.138233823382,704276.90590492,4229.7222864817,2610311.2657731,23.338233823382,0,0
-31.845275183899,135.91612981329,18.142664266427,704276.90590492,4229.7222864817,2610311.2657731,23.342664266427,0,0
-31.845275163862,135.93768754451,18.147094709471,704276.90590492,4229.7222864817,2610311.2657731,23.347094709471,0,0
-31.845275143826,135.95924527573,18.151525152515,704276.90590492,4229.7222864817,2610311.2657731,23.351525152515,0,0
-31.84527512379,135.98080300694,18.15595559556,704276.90590492,4229.7222864817,2610311.2657731,23.35595559556,0,0
-31.845275103754,136.00236073816,18.160386038604,704276.90590492,4229.7222864817,2610311.2657731,23.360386038604,0,0
-31.845275083718,136.02391846938,18.164816481648,704276.90590492,4229.7222864817,2610311.2657731,23.364816481648,0,0
-31.845275063682,136.04547620059,18.169246924692,704276.90590492,4229.7222864817,2610311.2657731,23.369246924692,0,0
-31.845275043646,136.06703393181,18.173677367737,704276.90590492,4229.7222864817,2610311.2657731,23.373677367737,0,0
-31.84527502361,136.08859166302,18.178107810781,704276.90590492,4229.7222864817,2610311.2657731,23.378107810781,0,0
-31.845275003574,136.11014939424,18.182538253825,704276.90590492,4229.7222864817,2610311.2657731,23.382538253825,0,0
-31.845274983538,136.13170712546,18.18696869687,704276.90590492,4229.7222864817,2610311.2657731,23.38696869687,0,0
-31.845274963502,136.15326485667,18.191399139914,704276.90590492,4229.7222864817,2610311.2657731,23.391399139914,0,0
-31.845274943466,136.17482258789,18.195829582958,704276.90590492,4229.7222864817,2610311.2657731,23.395829582958,0,0
-31.84527492343,136.19638031911,18.200260026003,704276.90590492,4229.7222864817,2610311.2657731,23.400260026003,0,0
-31.845274903394,136.21793805032,18.204690469047,704276.90590492,4229.7222864817,2610311.2657731,23.404690469047,0,0
-31.845274883358,136.23949578154,18.209120912091,704276.90590492,4229.7222864817,2610311.2657731,23.409120912091,0,0
-31.845274863322,136.26105351276,18.213551355136,704276.90590492,4229.7222864817,2610311.2657731,23.413551355136,0,0
-31.845274843286,136.28261124397,18.21798179818,704276.90590492,4229.7222864817,2610311.2657731,23.41798179818,0,0
-31.84527482325,136.30416897519,18.222412241224,704276.90590492,4229.7222864817,2610311.2657731,23.422412241224,0,0
-31.845274803214,136.32572670641,18.226842684268,704276.90590492,4229.7222864817,2610311.2657731,23.426842684268,0,0
-31.845274783178,136.34728443762,18.231273127313,704276.90590492,4229.7222864817,2610311.2657731,23.431273127313,0,0
-31.845274763142,136.36884216884,18.235703570357,704276.90590492,4229.7222864817,2610311.2657731,23.435703570357,0,0
-31.845274743106,136.39039990006,18.240134013401,704276.90590492,4229.7222864817,2610311.2657731,23.440134013401,0,0
-31.84527472307,136.41195763127,18.244564456446,704276.90590492,4229.7222864817,2610311.2657731,23.444564456446,0,0
-31.845274703034,136.43351536249,18.24899489949,704276.90590492,4229.7222864817,2610311.2657731,23.44899489949,0,0
-31.845274682998,136.4550730937,18.253425342534,704276.90590492,4229.7222864817,2610311.2657731,23.453425342534,0,0
-31.845274662962,136.47663082492,18.257855785579,704276.90590492,4229.7222864817,2610311.2657731,23.457855785579,0,0
-31.845274642926,136.49818855614,18.262286228623,704276.90590492,4229.7222864817,2610311.2657731,23.462286228623,0,0
-31.84527462289,136.51974628735,18.266716671667,704276.90590492,4229.7222864817,2610311.2657731,23.466716671667,0,0
-31.845274602854,136.54130401857,18.271147114711,704276.90590492,4229.7222864817,2610311.2657731,23.471147114711,0,0
-31.845274582818,136.56286174979,18.275577557756,704276.90590492,4229.7222864817,2610311.2657731,23.475577557756,0,0
-31.845274562782,136.584419481,18.2800080008,704276.90590492,4229.7222864817,2610311.2657731,23.4800080008,0,0
-31.845274542746,136.60597721222,18.284438443844,704276.90590492,4229.7222864817,2610311.2657731,23.484438443844,0,0
-31.84527452271,136.62753494344,18.288868886889,704276.90590492,4229.7222864817,2610311.2657731,23.488868886889,0,0
-31.845274502674,136.64909267465,18.293299329933,704276.90590492,4229.7222864817,2610311.2657731,23.493299329933,0,0
-31.845274482638,136.67065040587,18.297729772977,704276.90590492,4229.7222864817,2610311.2657731,23.497729772977,0,0
-31.845274462602,136.69220813709,18.302160216022,704276.90590492,4229.7222864817,2610311.2657731,23.502160216022,0,0
-31.845274442566,136.7137658683,18.306590659066,704276.90590492,4229.7222864817,2610311.2657731,23.506590659066,0,0
-31.84527442253,136.73532359952,18.31102110211,704276.90590492,4229.7222864817,2610311.2657731,23.51102110211,0,0
-31.845274402494,136.75688133074,18.315451545155,704276.90590492,4229.7222864817,2610311.2657731,23.515451545155,0,0
-31.845274382458,136.77843906195,18.319881988199,704276.90590492,4229.7222864817,2610311.2657731,23.519881988199,0,0
-31.845274362421,136.79999679317,18.324312431243,704276.90590492,4229.7222864817,2610311.2657731,23.524312431243,0,0
-31.845274342259,136.82155452427,18.328742874287,708728.02012843,4621.1800369633,2606025.8048398,23.528742874287,0,0
-31.845274321753,136.84311225506,18.333173317332,708728.02012843,4621.1800369633,2606025.8048398,23.533173317332,0,0
-31.845274301248,136.86466998585,18.337603760376,708728.02012843,4621.1800369633,2606025.8048398,23.537603760376,0,0
-31.845274280742,136.88622771664,18.34203420342,708728.02012843,4621.1800369633,2606025.8048398,23.54203420342,0,0
-31.845274260236,136.90778544743,18.346464646465,708728.02012843,4621.1800369633,2606025.8048398,23.546464646465,0,0
-31.845274239731,136.92934317823,18.350895089509,708728.02012843,4621.1800369633,2606025.8048398,23.550895089509,0,0
-31.845274219225,136.95090090902,18.355325532553,708728.02012843,4621.1800369633,2606025.8048398,23.555325532553,0,0
-31.845274198719,136.97245863981,18.359755975598,708728.02012843,4621.1800369633,2606025.8048398,23.559755975598,0,0
-31.845274178214,136.9940163706,18.364186418642,708728.02012843,4621.1800369633,2606025.8048398,23.564186418642,0,0
-31.845274157708,137.01557410139,18.368616861686,708728.02012843,4621.1800369633,2606025.8048398,23.568616861686,0,0
-31.845274137202,137.03713183218,18.37304730473,708728.02012843,4621.1800369633,2606025.8048398,23.57304730473,0,0
-31.845274116697,137.05868956297,18.377477747775,708728.02012843,4621.1800369633,2606025.8048398,23.577477747775,0,0
-31.845274096191,137.08024729376,18.381908190819,708728.02012843,4621.1800369633,2606025.8048398,23.581908190819,0,0
-31.845274075685,137.10180502455,18.386338633863,708728.02012843,4621.1800369633,2606025.8048398,23.586338633863,0,0
-31.84527405518,137.12336275535,18.390769076908,708728.02012843,4621.1800369633,2606025.8048398,23.590769076908,0,0
-31.845274034674,137.14492048614,18.395199519952,708728.02012843,4621.1800369633,2606025.8048398,23.595199519952,0,0
-31.845274014168,137.16647821693,18.399629962996,708728.02012843,4621.1800369633,2606025.8048398,23.599629962996,0,0
-31.845273993663,137.18803594772,18.404060406041,708728.02012843,4621.1800369633,2606025.8048398,23.604060406041,0,0
-31.845273973157,137.20959367851,18.408490849085,708728.02012843,4621.1800369633,2606025.8048398,23.608490849085,0,0
-31.845273952651,137.2311514093,18.412921292129,708728.02012843,4621.1800369633,2606025.8048398,23.612921292129,0,0
-31.845273932146,137.25270914009,18.417351735174,708728.02012843,4621.1800369633,2606025.8048398,23.617351735174,0,0
-31.84527391164,137.27426687088,18.421782178218,708728.02012843,4621.1800369633,2606025.8048398,23.621782178218,0,0
-31.845273891134,137.29582460167,18.426212621262,708728.02012843,4621.1800369633,2606025.8048398,23.626212621262,0,0
-31.845273870629,137.31738233247,18.430643064306,708728.02012843,4621.1800369633,2606025.8048398,23.630643064306,0,0
-31.845273850123,137.33894006326,18.435073507351,708728.02012843,4621.1800369633,2606025.8048398,23.635073507351,0,0
-31.845273829617,137.36049779405,18.439503950395,708728.02012843,4621.1800369633,2606025.8048398,23.639503950395,0,0
-31.845273809112,137.38205552484,18.443934393439,708728.02012843,4621.1800369633,2606025.8048398,23.643934393439,0,0
-31.845273789734,137.40361325579,18.448364836484,692359.83315195,5699.9203894747,2600449.3486533,23.648364836484,0,0
-31.845273770387,137.42517098674,18.452795279528,692359.83315195,5699.9203894747,2600449.3486533,23.652795279528,0,0
-31.84527375104,137.44672871769,18.457225722572,692359.83315195,5699.9203894747,2600449.3486533,23.657225722572,0,0
-31.845273731693,137.46828644864,18.461656165617,692359.83315195,5699.9203894747,2600449.3486533,23.661656165617,0,0
-31.845273712347,137.48984417959,18.466086608661,692359.83315195,5699.9203894747,2600449.3486533,23.666086608661,0,0
-31.845273693,137.51140191054,18.470517051705,692359.83315195,5699.9203894747,2600449.3486533,23.670517051705,0,0
-31.845273673653,137.53295964149,18.474947494749,692359.83315195,5699.9203894747,2600449.3486533,23.674947494749,0,0
-31.845273654307,137.55451737244,18.479377937794,692359.83315195,5699.9203894747,2600449.3486533,23.679377937794,0,0
-31.84527363496,137.5760751034,18.483808380838,692359.83315195,5699.9203894747,2600449.3486533,23.683808380838,0,0
-31.845273615613,137.59763283435,18.488238823882,692359.83315195,5699.9203894747,2600449.3486533,23.688238823882,0,0
-31.845273596266,137.6191905653,18.492669266927,692359.83315195,5699.9203894747,2600449.3486533,23.692669266927,0,0
-31.84527357692,137.64074829625,18.497099709971,692359.83315195,5699.9203894747,2600449.3486533,23.697099709971,0,0
-31.845273557573,137.6623060272,18.501530153015,692359.83315195,5699.9203894747,2600449.3486533,23.701530153015,0,0
-31.845273538226,137.68386375815,18.50596059606,692359.83315195,5699.9203894747,2600449.3486533,23.70596059606,0,0
-31.84527351888,137.7054214891,18.510391039104,692359.83315195,5699.9203894747,2600449.3486533,23.710391039104,0,0
-31.845273499533,137.72697922005,18.514821482148,692359.83315195,5699.9203894747,2600449.3486533,23.714821482148,0,0
-31.845273480186,137.74853695101,18.519251925193,692359.83315195,5699.9203894747,2600449.3486533,23.719251925193,0,0
-31.845273460839,137.77009468196,18.523682368237,692359.83315195,5699.9203894747,2600449.3486533,23.723682368237,0,0
-31.845273441493,137.79165241291,18.528112811281,692359.83315195,5699.9203894747,2600449.3486533,23.728112811281,0,0
-31.845273422146,137.81321014386,18.532543254325,692359.83315195,5699.9203894747,2600449.3486533,23.732543254325,0,0
-31.845273402799,137.83476787481,18.53697369737,692359.83315195,5699.9203894747,2600449.3486533,23.73697369737,0,0
-31.845273383453,137.85632560576,18.541404140414,692359.83315195,5699.9203894747,2600449.3486533,23.741404140414,0,0
-31.845273364106,137.87788333671,18.545834583458,692359.83315195,5699.9203894747,2600449.3486533,23.745834583458,0,0
-31.845273344759,137.89944106767,18.550265026503,692359.83315195,5699.9203894747,2600449.3486533,23.750265026503,0,0
-31.845273325412,137.92099879862,18.554695469547,692359.83315195,5699.9203894747,2600449.3486533,23.754695469547,0,0
-31.845273306066,137.94255652957,18.559125912591,692359.83315195,5699.9203894747,2600449.3486533,23.759125912591,0,0
-31.845273286719,137.96411426052,18.563556355636,692359.83315195,5699.9203894747,2600449.3486533,23.763556355636,0,0
-31.845273267372,137.98567199147,18.56798679868,692359.83315195,5699.9203894747,2600449.3486533,23.76798679868,0,0
-31.845273248026,138.00722972242,18.572417241724,692359.83315195,5699.9203894747,2600449.3486533,23.772417241724,0,0
-31.845273228679,138.02878745337,18.576847684768,692359.83315195,5699.9203894747,2600449.3486533,23.776847684768,0,0
-31.845273209332,138.05034518432,18.581278127813,692359.83315195,5699.9203894747,2600449.3486533,23.781278127813,0,0
-31.845273189985,138.07190291528,18.585708570857,692359.83315195,5699.9203894747,2600449.3486533,23.785708570857,0,0
-31.845273170639,138.09346064623,18.590139013901,692359.83315195,5699.9203894747,2600449.3486533,23.790139013901,0,0
-31.845273151292,138.11501837718,18.594569456946,692359.83315195,5699.9203894747,2600449.3486533,23.794569456946,0,0
-31.845273131945,138.13657610813,18.59899989999,692359.83315195,5699.9203894747,2600449.3486533,23.79899989999,0,0
-31.845273112599,138.15813383908,18.603430343034,692359.83315195,5699.9203894747,2600449.3486533,23.803430343034,0,0
-31.845273093252,138.17969157003,18.607860786079,692359.83315195,5699.9203894747,2600449.3486533,23.807860786079,0,0
-31.845273073905,138.20124930098,18.612291229123,692359.83315195,5699.9203894747,2600449.3486533,23.812291229123,0,0
-31.845273054558,138.22280703193,18.616721672167,692359.83315195,5699.9203894747,2600449.3486533,23.816721672167,0,0
-31.845273035212,138.24436476289,18.621152115212,692359.83315195,5699.9203894747,2600449.3486533,23.821152115212,0,0
-31.845273015865,138.26592249384,18.625582558256,692359.83315195,5699.9203894747,2600449.3486533,23.825582558256,0,0
-31.845272996518,138.28748022479,18.6300130013,692359.83315195,5699.9203894747,2600449.3486533,23.8300130013,0,0
-31.845272977172,138.30903795574,18.634443444344,692359.83315195,5699.9203894747,2600449.3486533,23.834443444344,0,0
-31.845272957825,138.33059568669,18.638873887389,692359.83315195,5699.9203894747,2600449.3486533,23.838873887389,0,0
-31.845272938478,138.35215341764,18.643304330433,692359.83315195,5699.9203894747,2600449.3486533,23.843304330433,0,0
-31.845272919131,138.37371114859,18.647734773477,692359.83315195,5699.9203894747,2600449.3486533,23.847734773477,0,0
-31.845272899785,138.39526887955,18.652165216522,692359.83315195,5699.9203894747,2600449.3486533,23.852165216522,0,0
-31.845272880438,138.4168266105,18.656595659566,692359.83315195,5699.9203894747,2600449.3486533,23.856595659566,0,0
-31.845272861091,138.43838434145,18.66102610261,692359.83315195,5699.9203894747,2600449.3486533,23.86102610261,0,0
-31.845272841745,138.4599420724,18.665456545655,692359.83315195,5699.9203894747,2600449.3486533,23.865456545655,0,0
-31.845272822398,138.48149980335,18.669886988699,692359.83315195,5699.9203894747,2600449.3486533,23.869886988699,0,0
-31.845272803051,138.5030575343,18.674317431743,692359.83315195,5699.9203894747,2600449.3486533,23.874317431743,0,0
-31.845272783704,138.52461526525,18.678747874787,692359.83315195,5699.9203894747,2600449.3486533,23.878747874787,0,0
-31.845272764358,138.5461729962,18.683178317832,692359.83315195,5699.9203894747,2600449.3486533,23.883178317832,0,0
-31.845272745011,138.56773072716,18.687608760876,692359.83315195,5699.9203894747,2600449.3486533,23.887608760876,0,0
-31.845272725664,138.58928845811,18.69203920392,692359.83315195,5699.9203894747,2600449.3486533,23.89203920392,0,0
-31.845272706318,138.61084618906,18.696469646965,692359.83315195,5699.9203894747,2600449.3486533,23.896469646965,0,0
-31.845272686971,138.63240392001,18.700900090009,692359.83315195,5699.9203894747,2600449.3486533,23.900900090009,0,0
-31.845272667624,138.65396165096,18.705330533053,692359.83315195,5699.9203894747,2600449.3486533,23.905330533053,0,0
-31.845272648277,138.67551938191,18.709760976098,692359.83315195,5699.9203894747,2600449.3486533,23.909760976098,0,0
-31.845272628931,138.69707711286,18.714191419142,692359.83315195,5699.9203894747,2600449.3486533,23.914191419142,0,0
-31.845272609584,138.71863484381,18.718621862186,692359.83315195,5699.9203894747,2600449.3486533,23.918621862186,0,0
-31.845272590237,138.74019257477,18.723052305231,692359.83315195,5699.9203894747,2600449.3486533,23.923052305231,0,0
-31.845272570891,138.76175030572,18.727482748275,692359.83315195,5699.9203894747,2600449.3486533,23.927482748275,0,0
-31.845272551544,138.78330803667,18.731913191319,692359.83315195,5699.9203894747,2600449.3486533,23.931913191319,0,0
-31.845272532197,138.80486576762,18.736343634363,692359.83315195,5699.9203894747,2600449.3486533,23.936343634363,0,0
-31.84527251285,138.82642349857,18.740774077408,692359.83315195,5699.9203894747,2600449.3486533,23.940774077408,0,0
-31.845272493504,138.84798122952,18.745204520452,692359.83315195,5699.9203894747,2600449.3486533,23.945204520452,0,0
-31.845272474157,138.86953896047,18.749634963496,692359.83315195,5699.9203894747,2600449.3486533,23.949634963496,0,0
-31.84527245481,138.89109669143,18.754065406541,692359.83315195,5699.9203894747,2600449.3486533,23.954065406541,0,0
-31.845272435464,138.91265442238,18.758495849585,692359.83315195,5699.9203894747,2600449.3486533,23.958495849585,0,0
-31.845272416117,138.93421215333,18.762926292629,692359.83315195,5699.9203894747,2600449.3486533,23.962926292629,0,0
-31.84527239677,138.95576988428,18.767356735674,692359.83315195,5699.9203894747,2600449.3486533,23.967356735674,0,0
-31.845272377198,138.97732761527,18.771787178718,701403.59213383,-5558.0218867136,2598619.1783568,23.971787178718,0,0
-31.84527235708,138.99888534634,18.776217621762,701403.59213383,-5558.0218867136,2598619.1783568,23.976217621762,0,0
-31.845272336962,139.0204430774,18.780648064806,701403.59213383,-5558.0218867136,2598619.1783568,23.980648064806,0,0
-31.845272316844,139.04200080847,18.785078507851,701403.59213383,-5558.0218867136,2598619.1783568,23.985078507851,0,0
-31.845272296726,139.06355853954,18.789508950895,701403.59213383,-5558.0218867136,2598619.1783568,23.989508950895,0,0
-31.845272276609,139.08511627061,18.793939393939,701403.59213383,-5558.0218867136,2598619.1783568,23.993939393939,0,0
-31.845272256491,139.10667400168,18.798369836984,701403.59213383,-5558.0218867136,2598619.1783568,23.998369836984,0,0
-31.845272236373,139.12823173275,18.802800280028,701403.59213383,-5558.0218867136,2598619.1783568,24.002800280028,0,0
-31.845272216255,139.14978946382,18.807230723072,701403.59213383,-5558.0218867136,2598619.1783568,24.007230723072,0,0
-31.845272196137,139.17134719489,18.811661166117,701403.59213383,-5558.0218867136,2598619.1783568,24.011661166117,0,0
-31.845272176019,139.19290492596,18.816091609161,701403.59213383,-5558.0218867136,2598619.1783568,24.016091609161,0,0
-31.845272155902,139.21446265703,18.820522052205,701403.59213383,-5558.0218867136,2598619.1783568,24.020522052205,0,0
-31.845272135784,139.2360203881,18.82495249525,701403.59213383,-5558.0218867136,2598619.1783568,24.02495249525,0,0
-31.845272115666,139.25757811917,18.829382938294,701403.59213383,-5558.0218867136,2598619.1783568,24.029382938294,0,0
-31.845272095548,139.27913585024,18.833813381338,701403.59213383,-5558.0218867136,2598619.1783568,24.033813381338,0,0
-31.84527207543,139.30069358131,18.838243824382,701403.59213383,-5558.0218867136,2598619.1783568,24.038243824382,0,0
-31.845272055313,139.32225131238,18.842674267427,701403.59213383,-5558.0218867136,2598619.1783568,24.042674267427,0,0
-31.845272035195,139.34380904345,18.847104710471,701403.59213383,-5558.0218867136,2598619.1783568,24.047104710471,0,0
-31.845272015077,139.36536677452,18.851535153515,701403.59213383,-5558.0218867136,2598619.1783568,24.051535153515,0,0
-31.845271994959,139.38692450559,18.85596559656,701403.59213383,-5558.0218867136,2598619.1783568,24.05596559656,0,0
-31.845271974841,139.40848223666,18.860396039604,701403.59213383,-5558.0218867136,2598619.1783568,24.060396039604,0,0
-31.845271954723,139.43003996773,18.864826482648,701403.59213383,-5558.0218867136,2598619.1783568,24.064826482648,0,0
-31.845271934606,139.4515976988,18.869256925693,701403.59213383,-5558.0218867136,2598619.1783568,24.069256925693,0,0
-31.845271914488,139.47315542987,18.873687368737,701403.59213383,-5558.0218867136,2598619.1783568,24.073687368737,0,0
-31.84527189437,139.49471316094,18.878117811781,701403.59213383,-5558.0218867136,2598619.1783568,24.078117811781,0,0
-31.845271874252,139.51627089201,18.882548254825,701403.59213383,-5558.0218867136,2598619.1783568,24.082548254825,0,0
-31.845271854134,139.53782862308,18.88697869787,701403.59213383,-5558.0218867136,2598619.1783568,24.08697869787,0,0
-31.845271834016,139.55938635415,18.891409140914,701403.59213383,-5558.0218867136,2598619.1783568,24.091409140914,0,0
-31.845271813899,139.58094408522,18.895839583958,701403.59213383,-5558.0218867136,2598619.1783568,24.095839583958,0,0
-31.845271793781,139.60250181629,18.900270027003,701403.59213383,-5558.0218867136,2598619.1783568,24.100270027003,0,0
-31.845271773663,139.62405954736,18.904700470047,701403.59213383,-5558.0218867136,2598619.1783568,24.104700470047,0,0
-31.845271753545,139.64561727843,18.909130913091,701403.59213383,-5558.0218867136,2598619.1783568,24.109130913091,0,0
-31.845271733427,139.6671750095,18.913561356136,701403.59213383,-5558.0218867136,2598619.1783568,24.113561356136,0,0
-31.84527171331,139.68873274057,18.91799179918,701403.59213383,-5558.0218867136,2598619.1783568,24.11799179918,0,0
-31.845271693192,139.71029047164,18.922422242224,701403.59213383,-5558.0218867136,2598619.1783568,24.122422242224,0,0
-31.845271673074,139.73184820271,18.926852685269,701403.59213383,-5558.0218867136,2598619.1783568,24.126852685269,0,0
-31.845271652956,139.75340593378,18.931283128313,701403.59213383,-5558.0218867136,2598619.1783568,24.131283128313,0,0
-31.845271632838,139.77496366485,18.935713571357,701403.59213383,-5558.0218867136,2598619.1783568,24.135713571357,0,0
-31.84527161272,139.79652139592,18.940144014401,701403.59213383,-5558.0218867136,2598619.1783568,24.140144014401,0,0
-31.845271592603,139.81807912699,18.944574457446,701403.59213383,-5558.0218867136,2598619.1783568,24.144574457446,0,0
-31.845271572485,139.83963685806,18.94900490049,701403.59213383,-5558.0218867136,2598619.1783568,24.14900490049,0,0
-31.845271552367,139.86119458913,18.953435343534,701403.59213383,-5558.0218867136,2598619.1783568,24.153435343534,0,0
-31.845271532249,139.8827523202,18.957865786579,701403.59213383,-5558.0218867136,2598619.1783568,24.157865786579,0,0
-31.845271512131,139.90431005127,18.962296229623,701403.59213383,-5558.0218867136,2598619.1783568,24.162296229623,0,0
-31.845271492014,139.92586778234,18.966726672667,701403.59213383,-5558.0218867136,2598619.1783568,24.166726672667,0,0
-31.845271471896,139.94742551341,18.971157115712,701403.59213383,-5558.0218867136,2598619.1783568,24.171157115712,0,0
-31.845271451778,139.96898324448,18.975587558756,701403.59213383,-5558.0218867136,2598619.1783568,24.175587558756,0,0
-31.84527143166,139.99054097555,18.9800180018,701403.59213383,-5558.0218867136,2598619.1783568,24.1800180018,0,0
-31.845271411542,140.01209870662,18.984448444844,701403.59213383,-5558.0218867136,2598619.1783568,24.184448444844,0,0
-31.845271391424,140.03365643769,18.988878887889,701403.59213383,-5558.0218867136,2598619.1783568,24.188878887889,0,0
-31.845271371307,140.05521416876,18.993309330933,701403.59213383,-5558.0218867136,2598619.1783568,24.193309330933,0,0
-31.845271351189,140.07677189983,18.997739773977,701403.59213383,-5558.0218867136,2598619.1783568,24.197739773977,0,0
-31.845271331071,140.0983296309,19.002170217022,701403.59213383,-5558.0218867136,2598619.1783568,24.202170217022,0,0
-31.845271310953,140.11988736197,19.006600660066,701403.59213383,-5558.0218867136,2598619.1783568,24.206600660066,0,0
-31.845271290835,140.14144509304,19.01103110311,701403.59213383,-5558.0218867136,2598619.1783568,24.21103110311,0,0
-31.845271270717,140.16300282411,19.015461546155,701403.59213383,-5558.0218867136,2598619.1783568,24.215461546155,0,0
-31.8452712506,140.18456055518,19.019891989199,701403.59213383,-5558.0218867136,2598619.1783568,24.219891989199,0,0
-31.845271230482,140.20611828625,19.024322432243,701403.59213383,-5558.0218867136,2598619.1783568,24.224322432243,0,0
-31.845271210364,140.22767601732,19.028752875288,701403.59213383,-5558.0218867136,2598619.1783568,24.228752875288,0,0
-31.845271190246,140.24923374839,19.033183318332,701403.59213383,-5558.0218867136,2598619.1783568,24.233183318332,0,0
-31.845271170128,140.27079147946,19.037613761376,701403.59213383,-5558.0218867136,2598619.1783568,24.237613761376,0,0
-31.845271150011,140.29234921053,19.04204420442,701403.59213383,-5558.0218867136,2598619.1783568,24.24204420442,0,0
-31.845271129893,140.3139069416,19.046474647465,701403.59213383,-5558.0218867136,2598619.1783568,24.246474647465,0,0
-31.845271109775,140.33546467267,19.050905090509,701403.59213383,-5558.0218867136,2598619.1783568,24.250905090509,0,0
-31.845271089657,140.35702240374,19.055335533553,701403.59213383,-5558.0218867136,2598619.1783568,24.255335533553,0,0
-31.845271069539,140.37858013481,19.059765976598,701403.59213383,-5558.0218867136,2598619.1783568,24.259765976598,0,0
-31.845271049421,140.40013786588,19.064196419642,701403.59213383,-5558.0218867136,2598619.1783568,24.264196419642,0,0
-31.845271029304,140.42169559695,19.068626862686,701403.59213383,-5558.0218867136,2598619.1783568,24.268626862686,0,0
-31.845271009186,140.44325332802,19.073057305731,701403.59213383,-5558.0218867136,2598619.1783568,24.273057305731,0,0
-31.845270989068,140.46481105909,19.077487748775,701403.59213383,-5558.0218867136,2598619.1783568,24.277487748775,0,0
-31.84527096895,140.48636879016,19.081918191819,701403.59213383,-5558.0218867136,2598619.1783568,24.281918191819,0,0
-31.845270948832,140.50792652123,19.086348634863,701403.59213383,-5558.0218867136,2598619.1783568,24.286348634863,0,0
-31.845270928715,140.5294842523,19.090779077908,701403.59213383,-5558.0218867136,2598619.1783568,24.290779077908,0,0
-31.845270908597,140.55104198337,19.095209520952,701403.59213383,-5558.0218867136,2598619.1783568,24.295209520952,0,0
-31.845270888479,140.57259971444,19.099639963996,701403.59213383,-5558.0218867136,2598619.1783568,24.299639963996,0,0
-31.845270868361,140.59415744551,19.104070407041,701403.59213383,-5558.0218867136,2598619.1783568,24.304070407041,0,0
-31.845270848243,140.61571517658,19.108500850085,701403.59213383,-5558.0218867136,2598619.1783568,24.308500850085,0,0
-31.845270828125,140.63727290765,19.112931293129,701403.59213383,-5558.0218867136,2598619.1783568,24.312931293129,0,0
-31.845270808008,140.65883063872,19.117361736174,701403.59213383,-5558.0218867136,2598619.1783568,24.317361736174,0,0
-31.84527078789,140.68038836979,19.121792179218,701403.59213383,-5558.0218867136,2598619.1783568,24.321792179218,0,0
-31.845270767772,140.70194610086,19.126222622262,701403.59213383,-5558.0218867136,2598619.1783568,24.326222622262,0,0
-31.845270747654,140.72350383193,19.130653065307,701403.59213383,-5558.0218867136,2598619.1783568,24.330653065307,0,0
-31.845270727536,140.745061563,19.135083508351,701403.59213383,-5558.0218867136,2598619.1783568,24.335083508351,0,0
-31.845270707418,140.76661929406,19.139513951395,701403.59213383,-5558.0218867136,2598619.1783568,24.339513951395,0,0
-31.845270687301,140.78817702513,19.143944394439,701403.59213383,-5558.0218867136,2598619.1783568,24.343944394439,0,0
-31.845270667183,140.8097347562,19.148374837484,701403.59213383,-5558.0218867136,2598619.1783568,24.348374837484,0,0
-31.845270647065,140.83129248727,19.152805280528,701403.59213383,-5558.0218867136,2598619.1783568,24.352805280528,0,0
-31.845270626947,140.85285021834,19.157235723572,701403.59213383,-5558.0218867136,2598619.1783568,24.357235723572,0,0
-31.845270606829,140.87440794941,19.161666166617,701403.59213383,-5558.0218867136,2598619.1783568,24.361666166617,0,0
-31.845270586712,140.89596568048,19.166096609661,701403.59213383,-5558.0218867136,2598619.1783568,24.366096609661,0,0
-31.845270566594,140.91752341155,19.170527052705,701403.59213383,-5558.0218867136,2598619.1783568,24.370527052705,0,0
-31.845270546476,140.93908114262,19.17495749575,701403.59213383,-5558.0218867136,2598619.1783568,24.37495749575,0,0
-31.845270526358,140.96063887369,19.179387938794,701403.59213383,-5558.0218867136,2598619.1783568,24.379387938794,0,0
-31.84527050624,140.98219660476,19.183818381838,701403.59213383,-5558.0218867136,2598619.1783568,24.383818381838,0,0
-31.845270486122,141.00375433583,19.188248824882,701403.59213383,-5558.0218867136,2598619.1783568,24.388248824882,0,0
-31.845270466005,141.0253120669,19.192679267927,701403.59213383,-5558.0218867136,2598619.1783568,24.392679267927,0,0
-31.845270445887,141.04686979797,19.197109710971,701403.59213383,-5558.0218867136,2598619.1783568,24.397109710971,0,0
-31.845270425769,141.06842752904,19.201540154015,701403.59213383,-5558.0218867136,2598619.1783568,24.401540154015,0,0
-31.845270405651,141.08998526011,19.20597059706,701403.59213383,-5558.0218867136,2598619.1783568,24.40597059706,0,0
-31.845270385533,141.11154299118,19.210401040104,701403.59213383,-5558.0218867136,2598619.1783568,24.410401040104,0,0
-31.845270365416,141.13310072225,19.214831483148,701403.59213383,-5558.0218867136,2598619.1783568,24.414831483148,0,0
-31.845270345298,141.15465845332,19.219261926193,701403.59213383,-5558.0218867136,2598619.1783568,24.419261926193,0,0
-31.84527032518,141.17621618439,19.223692369237,701403.59213383,-5558.0218867136,2598619.1783568,24.423692369237,0,0
-31.845270305062,141.19777391546,19.228122812281,701403.59213383,-5558.0218867136,2598619.1783568,24.428122812281,0,0
-31.845270284944,141.21933164653,19.232553255326,701403.59213383,-5558.0218867136,2598619.1783568,24.432553255326,0,0
-31.845270264826,141.2408893776,19.23698369837,701403.59213383,-5558.0218867136,2598619.1783568,24.43698369837,0,0
-31.845270244709,141.26244710867,19.241414141414,701403.59213383,-5558.0218867136,2598619.1783568,24.441414141414,0,0
-31.845270224591,141.28400483974,19.245844584458,701403.59213383,-5558.0218867136,2598619.1783568,24.445844584458,0,0
-31.845270204473,141.30556257081,19.250275027503,701403.59213383,-5558.0218867136,2598619.1783568,24.450275027503,0,0
-31.845270184355,141.32712030188,19.254705470547,701403.59213383,-5558.0218867136,2598619.1783568,24.454705470547,0,0
-31.845270164237,141.34867803295,19.259135913591,701403.59213383,-5558.0218867136,2598619.1783568,24.459135913591,0,0
-31.845270144119,141.37023576402,19.263566356636,701403.59213383,-5558.0218867136,2598619.1783568,24.463566356636,0,0
-31.845270124002,141.39179349509,19.26799679968,701403.59213383,-5558.0218867136,2598619.1783568,24.46799679968,0,0
-31.845270103884,141.41335122616,19.272427242724,701403.59213383,-5558.0218867136,2598619.1783568,24.472427242724,0,0
-31.845270083766,141.43490895723,19.276857685769,701403.59213383,-5558.0218867136,2598619.1783568,24.476857685769,0,0
-31.845270063648,141.4564666883,19.281288128813,701403.59213383,-5558.0218867136,2598619.1783568,24.481288128813,0,0
-31.84527004353,141.47802441937,19.285718571857,701403.59213383,-5558.0218867136,2598619.1783568,24.485718571857,0,0
-31.845270023413,141.49958215044,19.290149014901,701403.59213383,-5558.0218867136,2598619.1783568,24.490149014901,0,0
-31.845270003295,141.52113988151,19.294579457946,701403.59213383,-5558.0218867136,2598619.1783568,24.494579457946,0,0
-31.845269983177,141.54269761258,19.29900990099,701403.59213383,-5558.0218867136,2598619.1783568,24.49900990099,0,0
-31.845269963059,141.56425534365,19.303440344034,701403.59213383,-5558.0218867136,2598619.1783568,24.503440344034,0,0
-31.845269942941,141.58581307472,19.307870787079,701403.59213383,-5558.0218867136,2598619.1783568,24.507870787079,0,0
-31.845269922823,141.60737080579,19.312301230123,701403.59213383,-5558.0218867136,2598619.1783568,24.512301230123,0,0
-31.845269902706,141.62892853686,19.316731673167,701403.59213383,-5558.0218867136,2598619.1783568,24.516731673167,0,0
-31.845269882588,141.65048626793,19.321162116212,701403.59213383,-5558.0218867136,2598619.1783568,24.521162116212,0,0
-31.84526986247,141.672043999,19.325592559256,701403.59213383,-5558.0218867136,2598619.1783568,24.525592559256,0,0
-31.845269842352,141.69360173007,19.3300230023,701403.59213383,-5558.0218867136,2598619.1783568,24.5300230023,0,0
-31.845269822234,141.71515946114,19.334453445345,701403.59213383,-5558.0218867136,2598619.1783568,24.534453445345,0,0
-31.845269802116,141.73671719221,19.338883888389,701403.59213383,-5558.0218867136,2598619.1783568,24.538883888389,0,0
-31.845269781999,141.75827492328,19.343314331433,701403.59213383,-5558.0218867136,2598619.1783568,24.543314331433,0,0
-31.845269761881,141.77983265435,19.347744774477,701403.59213383,-5558.0218867136,2598619.1783568,24.547744774477,0,0
-31.845269741763,141.80139038542,19.352175217522,701403.59213383,-5558.0218867136,2598619.1783568,24.552175217522,0,0
-31.845269721645,141.82294811649,19.356605660566,701403.59213383,-5558.0218867136,2598619.1783568,24.556605660566,0,0
-31.845269701527,141.84450584756,19.36103610361,701403.59213383,-5558.0218867136,2598619.1783568,24.56103610361,0,0
-31.84526968141,141.86606357863,19.365466546655,701403.59213383,-5558.0218867136,2598619.1783568,24.565466546655,0,0
-31.845269661292,141.8876213097,19.369896989699,701403.59213383,-5558.0218867136,2598619.1783568,24.569896989699,0,0
-31.845269641174,141.90917904077,19.374327432743,701403.59213383,-5558.0218867136,2598619.1783568,24.574327432743,0,0
-31.845269621056,141.93073677184,19.378757875788,701403.59213383,-5558.0218867136,2598619.1783568,24.578757875788,0,0
-31.845269600938,141.95229450291,19.383188318832,701403.59213383,-5558.0218867136,2598619.1783568,24.583188318832,0,0
-31.84526958082,141.97385223398,19.387618761876,701403.59213383,-5558.0218867136,2598619.1783568,24.587618761876,0,0
-31.845269560703,141.99540996505,19.39204920492,701403.59213383,-5558.0218867136,2598619.1783568,24.59204920492,0,0
-31.845269540585,142.01696769612,19.396479647965,701403.59213383,-5558.0218867136,2598619.1783568,24.596479647965,0,0
-31.845269520467,142.03852542719,19.400910091009,701403.59213383,-5558.0218867136,2598619.1783568,24.600910091009,0,0
-31.845269500349,142.06008315826,19.405340534053,701403.59213383,-5558.0218867136,2598619.1783568,24.605340534053,0,0
-31.845269480231,142.08164088933,19.409770977098,701403.59213383,-5558.0218867136,2598619.1783568,24.609770977098,0,0
-31.845269460114,142.1031986204,19.414201420142,701403.59213383,-5558.0218867136,2598619.1783568,24.614201420142,0,0
-31.845269439996,142.12475635147,19.418631863186,701403.59213383,-5558.0218867136,2598619.1783568,24.618631863186,0,0
-31.845269419878,142.14631408254,19.423062306231,701403.59213383,-5558.0218867136,2598619.1783568,24.623062306231,0,0
-31.84526939976,142.16787181361,19.427492749275,701403.59213383,-5558.0218867136,2598619.1783568,24.627492749275,0,0
-31.845269379642,142.18942954468,19.431923192319,701403.59213383,-5558.0218867136,2598619.1783568,24.631923192319,0,0
-31.845269359524,142.21098727575,19.436353635364,701403.59213383,-5558.0218867136,2598619.1783568,24.636353635364,0,0
-31.845269339407,142.23254500682,19.440784078408,701403.59213383,-5558.0218867136,2598619.1783568,24.640784078408,0,0
-31.845269319289,142.25410273789,19.445214521452,701403.59213383,-5558.0218867136,2598619.1783568,24.645214521452,0,0
-31.845269299171,142.27566046896,19.449644964496,701403.59213383,-5558.0218867136,2598619.1783568,24.649644964496,0,0
-31.845269279053,142.29721820003,19.454075407541,701403.59213383,-5558.0218867136,2598619.1783568,24.654075407541,0,0
-31.845269258935,142.3187759311,19.458505850585,701403.59213383,-5558.0218867136,2598619.1783568,24.658505850585,0,0
-31.845269238817,142.34033366217,19.462936293629,701403.59213383,-5558.0218867136,2598619.1783568,24.662936293629,0,0
-31.8452692187,142.36189139324,19.467366736674,701403.59213383,-5558.0218867136,2598619.1783568,24.667366736674,0,0
-31.845269198582,142.38344912431,19.471797179718,701403.59213383,-5558.0218867136,2598619.1783568,24.671797179718,0,0
-31.845269178464,142.40500685538,19.476227622762,701403.59213383,-5558.0218867136,2598619.1783568,24.676227622762,0,0
-31.845269158346,142.42656458645,19.480658065807,701403.59213383,-5558.0218867136,2598619.1783568,24.680658065807,0,0
-31.845269138228,142.44812231752,19.485088508851,701403.59213383,-5558.0218867136,2598619.1783568,24.685088508851,0,0
-31.845269118111,142.46968004859,19.489518951895,701403.59213383,-5558.0218867136,2598619.1783568,24.689518951895,0,0
-31.845269097993,142.49123777966,19.493949394939,701403.59213383,-5558.0218867136,2598619.1783568,24.693949394939,0,0
-31.845269077875,142.51279551073,19.498379837984,701403.59213383,-5558.0218867136,2598619.1783568,24.698379837984,0,0
-31.845269057757,142.53435324179,19.502810281028,701403.59213383,-5558.0218867136,2598619.1783568,24.702810281028,0,0
-31.845269037639,142.55591097286,19.507240724072,701403.59213383,-5558.0218867136,2598619.1783568,24.707240724072,0,0
-31.845269017521,142.57746870393,19.511671167117,701403.59213383,-5558.0218867136,2598619.1783568,24.711671167117,0,0
-31.845268997404,142.599026435,19.516101610161,701403.59213383,-5558.0218867136,2598619.1783568,24.716101610161,0,0
-31.845268977286,142.62058416607,19.520532053205,701403.59213383,-5558.0218867136,2598619.1783568,24.720532053205,0,0
-31.845268957168,142.64214189714,19.52496249625,701403.59213383,-5558.0218867136,2598619.1783568,24.72496249625,0,0
-31.84526893705,142.66369962821,19.529392939294,701403.59213383,-5558.0218867136,2598619.1783568,24.729392939294,0,0
-31.845268916932,142.68525735928,19.533823382338,701403.59213383,-5558.0218867136,2598619.1783568,24.733823382338,0,0
-31.845268896815,142.70681509035,19.538253825383,701403.59213383,-5558.0218867136,2598619.1783568,24.738253825383,0,0
-31.845268876697,142.72837282142,19.542684268427,701403.59213383,-5558.0218867136,2598619.1783568,24.742684268427,0,0
-31.845268856579,142.74993055249,19.547114711471,701403.59213383,-5558.0218867136,2598619.1783568,24.747114711471,0,0
-31.845268836461,142.77148828356,19.551545154515,701403.59213383,-5558.0218867136,2598619.1783568,24.751545154515,0,0
-31.845268816343,142.79304601463,19.55597559756,701403.59213383,-5558.0218867136,2598619.1783568,24.75597559756,0,0
-31.845268796225,142.8146037457,19.560406040604,701403.59213383,-5558.0218867136,2598619.1783568,24.760406040604,0,0
-31.845268776108,142.83616147677,19.564836483648,701403.59213383,-5558.0218867136,2598619.1783568,24.764836483648,0,0
-31.84526875599,142.85771920784,19.569266926693,701403.59213383,-5558.0218867136,2598619.1783568,24.769266926693,0,0
-31.845268736641,142.87927693937,19.573697369737,688600.3944247,-1916.7640158458,2592348.6483835,24.773697369737,0,0
-31.845268717379,142.90083467094,19.578127812781,688600.3944247,-1916.7640158458,2592348.6483835,24.778127812781,0,0
-31.845268698116,142.92239240251,19.582558255826,688600.3944247,-1916.7640158458,2592348.6483835,24.782558255826,0,0
-31.845268678854,142.94395013409,19.58698869887,688600.3944247,-1916.7640158458,2592348.6483835,24.78698869887,0,0
-31.845268659592,142.96550786566,19.591419141914,688600.3944247,-1916.7640158458,2592348.6483835,24.791419141914,0,0
-31.84526864033,142.98706559723,19.595849584958,688600.3944247,-1916.7640158458,2592348.6483835,24.795849584958,0,0
-31.845268621068,143.00862332881,19.600280028003,688600.3944247,-1916.7640158458,2592348.6483835,24.800280028003,0,0
-31.845268601806,143.03018106038,19.604710471047,688600.3944247,-1916.7640158458,2592348.6483835,24.804710471047,0,0
-31.845268582544,143.05173879196,19.609140914091,688600.3944247,-1916.7640158458,2592348.6483835,24.809140914091,0,0
-31.845268563282,143.07329652353,19.613571357136,688600.3944247,-1916.7640158458,2592348.6483835,24.813571357136,0,0
-31.84526854402,143.0948542551,19.61800180018,688600.3944247,-1916.7640158458,2592348.6483835,24.81800180018,0,0
-31.845268524757,143.11641198668,19.622432243224,688600.3944247,-1916.7640158458,2592348.6483835,24.822432243224,0,0
-31.845268505495,143.13796971825,19.626862686269,688600.3944247,-1916.7640158458,2592348.6483835,24.826862686269,0,0
-31.845268486233,143.15952744983,19.631293129313,688600.3944247,-1916.7640158458,2592348.6483835,24.831293129313,0,0
-31.845268466971,143.1810851814,19.635723572357,688600.3944247,-1916.7640158458,2592348.6483835,24.835723572357,0,0
-31.845268447709,143.20264291297,19.640154015402,688600.3944247,-1916.7640158458,2592348.6483835,24.840154015402,0,0
-31.845268428447,143.22420064455,19.644584458446,688600.3944247,-1916.7640158458,2592348.6483835,24.844584458446,0,0
-31.845268409185,143.24575837612,19.64901490149,688600.3944247,-1916.7640158458,2592348.6483835,24.84901490149,0,0
-31.845268389923,143.26731610769,19.653445344534,688600.3944247,-1916.7640158458,2592348.6483835,24.853445344534,0,0
-31.845268370661,143.28887383927,19.657875787579,688600.3944247,-1916.7640158458,2592348.6483835,24.857875787579,0,0
-31.845268351398,143.31043157084,19.662306230623,688600.3944247,-1916.7640158458,2592348.6483835,24.862306230623,0,0
-31.845268332136,143.33198930242,19.666736673667,688600.3944247,-1916.7640158458,2592348.6483835,24.866736673667,0,0
-31.845268312874,143.35354703399,19.671167116712,688600.3944247,-1916.7640158458,2592348.6483835,24.871167116712,0,0
-31.845268293612,143.37510476556,19.675597559756,688600.3944247,-1916.7640158458,2592348.6483835,24.875597559756,0,0
-31.84526827435,143.39666249714,19.6800280028,688600.3944247,-1916.7640158458,2592348.6483835,24.8800280028,0,0
-31.845268255088,143.41822022871,19.684458445845,688600.3944247,-1916.7640158458,2592348.6483835,24.884458445845,0,0
-31.845268235826,143.43977796029,19.688888888889,688600.3944247,-1916.7640158458,2592348.6483835,24.888888888889,0,0
-31.845268216564,143.46133569186,19.693319331933,688600.3944247,-1916.7640158458,2592348.6483835,24.893319331933,0,0
-31.845268197302,143.48289342343,19.697749774977,688600.3944247,-1916.7640158458,2592348.6483835,24.897749774977,0,0
-31.845268178039,143.50445115501,19.702180218022,688600.3944247,-1916.7640158458,2592348.6483835,24.902180218022,0,0
-31.845268158777,143.52600888658,19.706610661066,688600.3944247,-1916.7640158458,2592348.6483835,24.906610661066,0,0
-31.845268139515,143.54756661815,19.71104110411,688600.3944247,-1916.7640158458,2592348.6483835,24.91104110411,0,0
-31.845268120253,143.56912434973,19.715471547155,688600.3944247,-1916.7640158458,2592348.6483835,24.915471547155,0,0
-31.845268100991,143.5906820813,19.719901990199,688600.3944247,-1916.7640158458,2592348.6483835,24.919901990199,0,0
-31.845268081729,143.61223981288,19.724332433243,688600.3944247,-1916.7640158458,2592348.6483835,24.924332433243,0,0
-31.845268062467,143.63379754445,19.728762876288,688600.3944247,-1916.7640158458,2592348.6483835,24.928762876288,0,0
-31.845268043205,143.65535527602,19.733193319332,688600.3944247,-1916.7640158458,2592348.6483835,24.933193319332,0,0
-31.845268023943,143.6769130076,19.737623762376,688600.3944247,-1916.7640158458,2592348.6483835,24.937623762376,0,0
-31.84526800468,143.69847073917,19.742054205421,688600.3944247,-1916.7640158458,2592348.6483835,24.942054205421,0,0
-31.845267985418,143.72002847075,19.746484648465,688600.3944247,-1916.7640158458,2592348.6483835,24.946484648465,0,0
-31.845267966156,143.74158620232,19.750915091509,688600.3944247,-1916.7640158458,2592348.6483835,24.950915091509,0,0
-31.845267946894,143.76314393389,19.755345534553,688600.3944247,-1916.7640158458,2592348.6483835,24.955345534553,0,0
-31.845267927632,143.78470166547,19.759775977598,688600.3944247,-1916.7640158458,2592348.6483835,24.959775977598,0,0
-31.84526790837,143.80625939704,19.764206420642,688600.3944247,-1916.7640158458,2592348.6483835,24.964206420642,0,0
-31.845267889108,143.82781712861,19.768636863686,688600.3944247,-1916.7640158458,2592348.6483835,24.968636863686,0,0
-31.845267869846,143.84937486019,19.773067306731,688600.3944247,-1916.7640158458,2592348.6483835,24.973067306731,0,0
-31.845267850584,143.87093259176,19.777497749775,688600.3944247,-1916.7640158458,2592348.6483835,24.977497749775,0,0
-31.845267831321,143.89249032334,19.781928192819,688600.3944247,-1916.7640158458,2592348.6483835,24.981928192819,0,0
-31.845267812059,143.91404805491,19.786358635864,688600.3944247,-1916.7640158458,2592348.6483835,24.986358635864,0,0
-31.845267792797,143.93560578648,19.790789078908,688600.3944247,-1916.7640158458,2592348.6483835,24.990789078908,0,0
-31.845267773535,143.95716351806,19.795219521952,688600.3944247,-1916.7640158458,2592348.6483835,24.995219521952,0,0
-31.845267754273,143.97872124963,19.799649964996,688600.3944247,-1916.7640158458,2592348.6483835,24.999649964996,0,0
-31.845267735011,144.00027898121,19.804080408041,688600.3944247,-1916.7640158458,2592348.6483835,25.004080408041,0,0
-31.845267715749,144.02183671278,19.808510851085,688600.3944247,-1916.7640158458,2592348.6483835,25.008510851085,0,0
-31.845267696487,144.04339444435,19.812941294129,688600.3944247,-1916.7640158458,2592348.6483835,25.012941294129,0,0
-31.845267677225,144.06495217593,19.817371737174,688600.3944247,-1916.7640158458,2592348.6483835,25.017371737174,0,0
-31.845267657973,144.08650990729,19.821802180218,686495.05967869,-4781.2241984958,2587154.321011,25.021802180218,0,0
-31.845267638741,144.10806763828,19.826232623262,686495.05967869,-4781.2241984958,2587154.321011,25.026232623262,0,0
-31.845267619508,144.12962536926,19.830663066307,686495.05967869,-4781.2241984958,2587154.321011,25.030663066307,0,0
-31.845267600276,144.15118310024,19.835093509351,686495.05967869,-4781.2241984958,2587154.321011,25.035093509351,0,0
-31.845267581044,144.17274083122,19.839523952395,686495.05967869,-4781.2241984958,2587154.321011,25.039523952395,0,0
-31.845267561812,144.1942985622,19.84395439544,686495.05967869,-4781.2241984958,2587154.321011,25.04395439544,0,0
-31.845267542579,144.21585629319,19.848384838484,686495.05967869,-4781.2241984958,2587154.321011,25.048384838484,0,0
-31.845267523347,144.23741402417,19.852815281528,686495.05967869,-4781.2241984958,2587154.321011,25.052815281528,0,0
-31.845267504115,144.25897175515,19.857245724572,686495.05967869,-4781.2241984958,2587154.321011,25.057245724572,0,0
-31.845267484883,144.28052948613,19.861676167617,686495.05967869,-4781.2241984958,2587154.321011,25.061676167617,0,0
-31.84526746565,144.30208721711,19.866106610661,686495.05967869,-4781.2241984958,2587154.321011,25.066106610661,0,0
-31.845267446418,144.32364494809,19.870537053705,686495.05967869,-4781.2241984958,2587154.321011,25.070537053705,0,0
-31.845267427186,144.34520267908,19.87496749675,686495.05967869,-4781.2241984958,2587154.321011,25.07496749675,0,0
-31.845267407954,144.36676041006,19.879397939794,686495.05967869,-4781.2241984958,2587154.321011,25.079397939794,0,0
-31.845267388721,144.38831814104,19.883828382838,686495.05967869,-4781.2241984958,2587154.321011,25.083828382838,0,0
-31.845267369489,144.40987587202,19.888258825883,686495.05967869,-4781.2241984958,2587154.321011,25.088258825883,0,0
-31.845267350257,144.431433603,19.892689268927,686495.05967869,-4781.2241984958,2587154.321011,25.092689268927,0,0
-31.845267331025,144.45299133399,19.897119711971,686495.05967869,-4781.2241984958,2587154.321011,25.097119711971,0,0
-31.845267311792,144.47454906497,19.901550155015,686495.05967869,-4781.2241984958,2587154.321011,25.101550155015,0,0
-31.84526729256,144.49610679595,19.90598059806,686495.05967869,-4781.2241984958,2587154.321011,25.10598059806,0,0
-31.845267273328,144.51766452693,19.910411041104,686495.05967869,-4781.2241984958,2587154.321011,25.110411041104,0,0
-31.845267254096,144.53922225791,19.914841484148,686495.05967869,-4781.2241984958,2587154.321011,25.114841484148,0,0
-31.845267234863,144.56077998889,19.919271927193,686495.05967869,-4781.2241984958,2587154.321011,25.119271927193,0,0
-31.845267215631,144.58233771988,19.923702370237,686495.05967869,-4781.2241984958,2587154.321011,25.123702370237,0,0
-31.845267196399,144.60389545086,19.928132813281,686495.05967869,-4781.2241984958,2587154.321011,25.128132813281,0,0
-31.845267177167,144.62545318184,19.932563256326,686495.05967869,-4781.2241984958,2587154.321011,25.132563256326,0,0
-31.845267157934,144.64701091282,19.93699369937,686495.05967869,-4781.2241984958,2587154.321011,25.13699369937,0,0
-31.845267138702,144.6685686438,19.941424142414,686495.05967869,-4781.2241984958,2587154.321011,25.141424142414,0,0
-31.84526711947,144.69012637479,19.945854585459,686495.05967869,-4781.2241984958,2587154.321011,25.145854585459,0,0
-31.845267100238,144.71168410577,19.950285028503,686495.05967869,-4781.2241984958,2587154.321011,25.150285028503,0,0
-31.845267081005,144.73324183675,19.954715471547,686495.05967869,-4781.2241984958,2587154.321011,25.154715471547,0,0
-31.845267061773,144.75479956773,19.959145914591,686495.05967869,-4781.2241984958,2587154.321011,25.159145914591,0,0
-31.845267042541,144.77635729871,19.963576357636,686495.05967869,-4781.2241984958,2587154.321011,25.163576357636,0,0
-31.845267023309,144.79791502969,19.96800680068,686495.05967869,-4781.2241984958,2587154.321011,25.16800680068,0,0
-31.845267004076,144.81947276068,19.972437243724,686495.05967869,-4781.2241984958,2587154.321011,25.172437243724,0,0
-31.845266984844,144.84103049166,19.976867686769,686495.05967869,-4781.2241984958,2587154.321011,25.176867686769,0,0
-31.845266965612,144.86258822264,19.981298129813,686495.05967869,-4781.2241984958,2587154.321011,25.181298129813,0,0
-31.84526694638,144.88414595362,19.985728572857,686495.05967869,-4781.2241984958,2587154.321011,25.185728572857,0,0
-31.845266927147,144.9057036846,19.990159015902,686495.05967869,-4781.2241984958,2587154.321011,25.190159015902,0,0
-31.845266907915,144.92726141559,19.994589458946,686495.05967869,-4781.2241984958,2587154.321011,25.194589458946,0,0
-31.845266888683,144.94881914657,19.99901990199,686495.05967869,-4781.2241984958,2587154.321011,25.19901990199,0,0
-31.845266869451,144.97037687755,20.003450345035,686495.05967869,-4781.2241984958,2587154.321011,25.203450345035,0,0
-31.845266850219,144.99193460853,20.007880788079,686495.05967869,-4781.2241984958,2587154.321011,25.207880788079,0,0
-31.845266830986,145.01349233951,20.012311231123,686495.05967869,-4781.2241984958,2587154.321011,25.212311231123,0,0
-31.845266811754,145.03505007049,20.016741674167,686495.05967869,-4781.2241984958,2587154.321011,25.216741674167,0,0
-31.845266792522,145.05660780148,20.021172117212,686495.05967869,-4781.2241984958,2587154.321011,25.221172117212,0,0
-31.84526677329,145.07816553246,20.025602560256,686495.05967869,-4781.2241984958,2587154.321011,25.225602560256,0,0
-31.845266754057,145.09972326344,20.0300330033,686495.05967869,-4781.2241984958,2587154.321011,25.2300330033,0,0
-31.845266734825,145.12128099442,20.034463446345,686495.05967869,-4781.2241984958,2587154.321011,25.234463446345,0,0
-31.845266715593,145.1428387254,20.038893889389,686495.05967869,-4781.2241984958,2587154.321011,25.238893889389,0,0
-31.845266696361,145.16439645639,20.043324332433,686495.05967869,-4781.2241984958,2587154.321011,25.243324332433,0,0
-31.845266677128,145.18595418737,20.047754775478,686495.05967869,-4781.2241984958,2587154.321011,25.247754775478,0,0
-31.845266657896,145.20751191835,20.052185218522,686495.05967869,-4781.2241984958,2587154.321011,25.252185218522,0,0
-31.845266638664,145.22906964933,20.056615661566,686495.05967869,-4781.2241984958,2587154.321011,25.256615661566,0,0
-31.845266619432,145.25062738031,20.06104610461,686495.05967869,-4781.2241984958,2587154.321011,25.26104610461,0,0
-31.845266600199,145.27218511129,20.065476547655,686495.05967869,-4781.2241984958,2587154.321011,25.265476547655,0,0
-31.845266580967,145.29374284228,20.069906990699,686495.05967869,-4781.2241984958,2587154.321011,25.269906990699,0,0
-31.845266561735,145.31530057326,20.074337433743,686495.05967869,-4781.2241984958,2587154.321011,25.274337433743,0,0
-31.845266542503,145.33685830424,20.078767876788,686495.05967869,-4781.2241984958,2587154.321011,25.278767876788,0,0
-31.84526652327,145.35841603522,20.083198319832,686495.05967869,-4781.2241984958,2587154.321011,25.283198319832,0,0
-31.845266504038,145.3799737662,20.087628762876,686495.05967869,-4781.2241984958,2587154.321011,25.287628762876,0,0
-31.845266484806,145.40153149719,20.092059205921,686495.05967869,-4781.2241984958,2587154.321011,25.292059205921,0,0
-31.845266465574,145.42308922817,20.096489648965,686495.05967869,-4781.2241984958,2587154.321011,25.296489648965,0,0
-31.845266446341,145.44464695915,20.100920092009,686495.05967869,-4781.2241984958,2587154.321011,25.300920092009,0,0
-31.845266427109,145.46620469013,20.105350535054,686495.05967869,-4781.2241984958,2587154.321011,25.305350535054,0,0
-31.845266407877,145.48776242111,20.109780978098,686495.05967869,-4781.2241984958,2587154.321011,25.309780978098,0,0
-31.845266388645,145.50932015209,20.114211421142,686495.05967869,-4781.2241984958,2587154.321011,25.314211421142,0,0
-31.845266369412,145.53087788308,20.118641864186,686495.05967869,-4781.2241984958,2587154.321011,25.318641864186,0,0
-31.84526635018,145.55243561406,20.123072307231,686495.05967869,-4781.2241984958,2587154.321011,25.323072307231,0,0
-31.845266330948,145.57399334504,20.127502750275,686495.05967869,-4781.2241984958,2587154.321011,25.327502750275,0,0
-31.845266311716,145.59555107602,20.131933193319,686495.05967869,-4781.2241984958,2587154.321011,25.331933193319,0,0
-31.845266292483,145.617108807,20.136363636364,686495.05967869,-4781.2241984958,2587154.321011,25.336363636364,0,0
-31.845266273251,145.63866653799,20.140794079408,686495.05967869,-4781.2241984958,2587154.321011,25.340794079408,0,0
-31.845266254019,145.66022426897,20.145224522452,686495.05967869,-4781.2241984958,2587154.321011,25.345224522452,0,0
-31.845266234787,145.68178199995,20.149654965497,686495.05967869,-4781.2241984958,2587154.321011,25.349654965497,0,0
-31.845266215554,145.70333973093,20.154085408541,686495.05967869,-4781.2241984958,2587154.321011,25.354085408541,0,0
-31.845266196322,145.72489746191,20.158515851585,686495.05967869,-4781.2241984958,2587154.321011,25.358515851585,0,0
-31.84526617709,145.74645519289,20.162946294629,686495.05967869,-4781.2241984958,2587154.321011,25.362946294629,0,0
-31.845266157858,145.76801292388,20.167376737674,686495.05967869,-4781.2241984958,2587154.321011,25.367376737674,0,0
-31.845266138625,145.78957065486,20.171807180718,686495.05967869,-4781.2241984958,2587154.321011,25.371807180718,0,0
-31.845266119393,145.81112838584,20.176237623762,686495.05967869,-4781.2241984958,2587154.321011,25.376237623762,0,0
-31.845266100161,145.83268611682,20.180668066807,686495.05967869,-4781.2241984958,2587154.321011,25.380668066807,0,0
-31.845266080929,145.8542438478,20.185098509851,686495.05967869,-4781.2241984958,2587154.321011,25.385098509851,0,0
-31.845266061696,145.87580157878,20.189528952895,686495.05967869,-4781.2241984958,2587154.321011,25.389528952895,0,0
-31.845266042464,145.89735930977,20.19395939594,686495.05967869,-4781.2241984958,2587154.321011,25.39395939594,0,0
-31.845266023232,145.91891704075,20.198389838984,686495.05967869,-4781.2241984958,2587154.321011,25.398389838984,0,0
-31.845266004,145.94047477173,20.202820282028,686495.05967869,-4781.2241984958,2587154.321011,25.402820282028,0,0
-31.845265984767,145.96203250271,20.207250725073,686495.05967869,-4781.2241984958,2587154.321011,25.407250725073,0,0
-31.845265965535,145.98359023369,20.211681168117,686495.05967869,-4781.2241984958,2587154.321011,25.411681168117,0,0
-31.845265946303,146.00514796468,20.216111611161,686495.05967869,-4781.2241984958,2587154.321011,25.416111611161,0,0
-31.845265927071,146.02670569566,20.220542054205,686495.05967869,-4781.2241984958,2587154.321011,25.420542054205,0,0
-31.845265907838,146.04826342664,20.22497249725,686495.05967869,-4781.2241984958,2587154.321011,25.42497249725,0,0
-31.845265888606,146.06982115762,20.229402940294,686495.05967869,-4781.2241984958,2587154.321011,25.429402940294,0,0
-31.845265869374,146.0913788886,20.233833383338,686495.05967869,-4781.2241984958,2587154.321011,25.433833383338,0,0
-31.845265850142,146.11293661958,20.238263826383,686495.05967869,-4781.2241984958,2587154.321011,25.438263826383,0,0
-31.845265830909,146.13449435057,20.242694269427,686495.05967869,-4781.2241984958,2587154.321011,25.442694269427,0,0
-31.845265811677,146.15605208155,20.247124712471,686495.05967869,-4781.2241984958,2587154.321011,25.447124712471,0,0
-31.845265792445,146.17760981253,20.251555155516,686495.05967869,-4781.2241984958,2587154.321011,25.451555155516,0,0
-31.845265773213,146.19916754351,20.25598559856,686495.05967869,-4781.2241984958,2587154.321011,25.45598559856,0,0
-31.84526575398,146.22072527449,20.260416041604,686495.05967869,-4781.2241984958,2587154.321011,25.460416041604,0,0
-31.845265734748,146.24228300548,20.264846484648,686495.05967869,-4781.2241984958,2587154.321011,25.464846484648,0,0
-31.845265715516,146.26384073646,20.269276927693,686495.05967869,-4781.2241984958,2587154.321011,25.469276927693,0,0
-31.845265696284,146.28539846744,20.273707370737,686495.05967869,-4781.2241984958,2587154.321011,25.473707370737,0,0
-31.845265677052,146.30695619842,20.278137813781,686495.05967869,-4781.2241984958,2587154.321011,25.478137813781,0,0
-31.845265657819,146.3285139294,20.282568256826,686495.05967869,-4781.2241984958,2587154.321011,25.482568256826,0,0
-31.845265638587,146.35007166038,20.28699869987,686495.05967869,-4781.2241984958,2587154.321011,25.48699869987,0,0
-31.845265619355,146.37162939137,20.291429142914,686495.05967869,-4781.2241984958,2587154.321011,25.491429142914,0,0
-31.845265600123,146.39318712235,20.295859585959,686495.05967869,-4781.2241984958,2587154.321011,25.495859585959,0,0
-31.84526558089,146.41474485333,20.300290029003,686495.05967869,-4781.2241984958,2587154.321011,25.500290029003,0,0
-31.845265561658,146.43630258431,20.304720472047,686495.05967869,-4781.2241984958,2587154.321011,25.504720472047,0,0
-31.845265542426,146.45786031529,20.309150915092,686495.05967869,-4781.2241984958,2587154.321011,25.509150915092,0,0
-31.845265523194,146.47941804628,20.313581358136,686495.05967869,-4781.2241984958,2587154.321011,25.513581358136,0,0
-31.845265503961,146.50097577726,20.31801180118,686495.05967869,-4781.2241984958,2587154.321011,25.51801180118,0,0
-31.845265484729,146.52253350824,20.322442244224,686495.05967869,-4781.2241984958,2587154.321011,25.522442244224,0,0
-31.845265465497,146.54409123922,20.326872687269,686495.05967869,-4781.2241984958,2587154.321011,25.526872687269,0,0
-31.845265446265,146.5656489702,20.331303130313,686495.05967869,-4781.2241984958,2587154.321011,25.531303130313,0,0
-31.845265427032,146.58720670118,20.335733573357,686495.05967869,-4781.2241984958,2587154.321011,25.535733573357,0,0
-31.8452654078,146.60876443217,20.340164016402,686495.05967869,-4781.2241984958,2587154.321011,25.540164016402,0,0
-31.845265388568,146.63032216315,20.344594459446,686495.05967869,-4781.2241984958,2587154.321011,25.544594459446,0,0
-31.845265369336,146.65187989413,20.34902490249,686495.05967869,-4781.2241984958,2587154.321011,25.54902490249,0,0
-31.845265350103,146.67343762511,20.353455345535,686495.05967869,-4781.2241984958,2587154.321011,25.553455345535,0,0
-31.845265330871,146.69499535609,20.357885788579,686495.05967869,-4781.2241984958,2587154.321011,25.557885788579,0,0
-31.845265311639,146.71655308708,20.362316231623,686495.05967869,-4781.2241984958,2587154.321011,25.562316231623,0,0
-31.845265292407,146.73811081806,20.366746674667,686495.05967869,-4781.2241984958,2587154.321011,25.566746674667,0,0
-31.845265273174,146.75966854904,20.371177117712,686495.05967869,-4781.2241984958,2587154.321011,25.571177117712,0,0
-31.845265253942,146.78122628002,20.375607560756,686495.05967869,-4781.2241984958,2587154.321011,25.575607560756,0,0
-31.84526523471,146.802784011,20.3800380038,686495.05967869,-4781.2241984958,2587154.321011,25.5800380038,0,0
-31.845265215478,146.82434174198,20.384468446845,686495.05967869,-4781.2241984958,2587154.321011,25.584468446845,0,0
-31.845265196245,146.84589947297,20.388898889889,686495.05967869,-4781.2241984958,2587154.321011,25.588898889889,0,0
-31.845265177013,146.86745720395,20.393329332933,686495.05967869,-4781.2241984958,2587154.321011,25.593329332933,0,0
-31.845265157781,146.88901493493,20.397759775978,686495.05967869,-4781.2241984958,2587154.321011,25.597759775978,0,0
-31.845265138549,146.91057266591,20.402190219022,686495.05967869,-4781.2241984958,2587154.321011,25.602190219022,0,0
-31.845265119316,146.93213039689,20.406620662066,686495.05967869,-4781.2241984958,2587154.321011,25.606620662066,0,0
-31.845265100084,146.95368812788,20.411051105111,686495.05967869,-4781.2241984958,2587154.321011,25.611051105111,0,0
-31.845265080852,146.97524585886,20.415481548155,686495.05967869,-4781.2241984958,2587154.321011,25.615481548155,0,0
-31.84526506162,146.99680358984,20.419911991199,686495.05967869,-4781.2241984958,2587154.321011,25.619911991199,0,0
-31.845265042387,147.01836132082,20.424342434243,686495.05967869,-4781.2241984958,2587154.321011,25.624342434243,0,0
-31.845265023155,147.0399190518,20.428772877288,686495.05967869,-4781.2241984958,2587154.321011,25.628772877288,0,0
-31.845265003923,147.06147678278,20.433203320332,686495.05967869,-4781.2241984958,2587154.321011,25.633203320332,0,0
-31.845264984691,147.08303451377,20.437633763376,686495.05967869,-4781.2241984958,2587154.321011,25.637633763376,0,0
-31.845264965458,147.10459224475,20.442064206421,686495.05967869,-4781.2241984958,2587154.321011,25.642064206421,0,0
-31.845264946226,147.12614997573,20.446494649465,686495.05967869,-4781.2241984958,2587154.321011,25.646494649465,0,0
-31.845264926994,147.14770770671,20.450925092509,686495.05967869,-4781.2241984958,2587154.321011,25.650925092509,0,0
-31.845264907762,147.16926543769,20.455355535554,686495.05967869,-4781.2241984958,2587154.321011,25.655355535554,0,0
-31.845264888529,147.19082316868,20.459785978598,686495.05967869,-4781.2241984958,2587154.321011,25.659785978598,0,0
-31.845264869297,147.21238089966,20.464216421642,686495.05967869,-4781.2241984958,2587154.321011,25.664216421642,0,0
-31.845264850065,147.23393863064,20.468646864686,686495.05967869,-4781.2241984958,2587154.321011,25.668646864686,0,0
-31.845264830833,147.25549636162,20.473077307731,686495.05967869,-4781.2241984958,2587154.321011,25.673077307731,0,0
-31.8452648116,147.2770540926,20.477507750775,686495.05967869,-4781.2241984958,2587154.321011,25.677507750775,0,0
-31.845264792368,147.29861182358,20.481938193819,686495.05967869,-4781.2241984958,2587154.321011,25.681938193819,0,0
-31.845264773136,147.32016955457,20.486368636864,686495.05967869,-4781.2241984958,2587154.321011,25.686368636864,0,0
-31.845264753904,147.34172728555,20.490799079908,686495.05967869,-4781.2241984958,2587154.321011,25.690799079908,0,0
-31.845264734671,147.36328501653,20.495229522952,686495.05967869,-4781.2241984958,2587154.321011,25.695229522952,0,0
-31.845264715439,147.38484274751,20.499659965997,686495.05967869,-4781.2241984958,2587154.321011,25.699659965997,0,0
-31.845264696207,147.40640047849,20.504090409041,686495.05967869,-4781.2241984958,2587154.321011,25.704090409041,0,0
-31.845264676975,147.42795820948,20.508520852085,686495.05967869,-4781.2241984958,2587154.321011,25.708520852085,0,0
-31.845264657742,147.44951594046,20.51295129513,686495.05967869,-4781.2241984958,2587154.321011,25.71295129513,0,0
-31.84526463851,147.47107367144,20.517381738174,686495.05967869,-4781.2241984958,2587154.321011,25.717381738174,0,0
-31.845264619278,147.49263140242,20.521812181218,686495.05967869,-4781.2241984958,2587154.321011,25.721812181218,0,0
-31.845264600046,147.5141891334,20.526242624262,686495.05967869,-4781.2241984958,2587154.321011,25.726242624262,0,0
-31.845264580813,147.53574686438,20.530673067307,686495.05967869,-4781.2241984958,2587154.321011,25.730673067307,0,0
-31.845264561581,147.55730459537,20.535103510351,686495.05967869,-4781.2241984958,2587154.321011,25.735103510351,0,0
-31.845264542349,147.57886232635,20.539533953395,686495.05967869,-4781.2241984958,2587154.321011,25.739533953395,0,0
-31.845264523117,147.60042005733,20.54396439644,686495.05967869,-4781.2241984958,2587154.321011,25.74396439644,0,0
-31.845264503885,147.62197778831,20.548394839484,686495.05967869,-4781.2241984958,2587154.321011,25.748394839484,0,0
-31.845264484652,147.64353551929,20.552825282528,686495.05967869,-4781.2241984958,2587154.321011,25.752825282528,0,0
-31.84526446542,147.66509325028,20.557255725573,686495.05967869,-4781.2241984958,2587154.321011,25.757255725573,0,0
-31.845264446188,147.68665098126,20.561686168617,686495.05967869,-4781.2241984958,2587154.321011,25.761686168617,0,0
-31.845264426956,147.70820871224,20.566116611661,686495.05967869,-4781.2241984958,2587154.321011,25.766116611661,0,0
-31.845264407723,147.72976644322,20.570547054705,686495.05967869,-4781.2241984958,2587154.321011,25.770547054705,0,0
-31.845264388491,147.7513241742,20.57497749775,686495.05967869,-4781.2241984958,2587154.321011,25.77497749775,0,0
-31.845264369259,147.77288190518,20.579407940794,686495.05967869,-4781.2241984958,2587154.321011,25.779407940794,0,0
-31.845264350027,147.79443963617,20.583838383838,686495.05967869,-4781.2241984958,2587154.321011,25.783838383838,0,0
-31.845264330794,147.81599736715,20.588268826883,686495.05967869,-4781.2241984958,2587154.321011,25.788268826883,0,0
-31.845264311562,147.83755509813,20.592699269927,686495.05967869,-4781.2241984958,2587154.321011,25.792699269927,0,0
-31.84526429233,147.85911282911,20.597129712971,686495.05967869,-4781.2241984958,2587154.321011,25.797129712971,0,0
-31.845264273098,147.88067056009,20.601560156016,686495.05967869,-4781.2241984958,2587154.321011,25.801560156016,0,0
-31.845264253865,147.90222829107,20.60599059906,686495.05967869,-4781.2241984958,2587154.321011,25.80599059906,0,0
-31.845264234633,147.92378602206,20.610421042104,686495.05967869,-4781.2241984958,2587154.321011,25.810421042104,0,0
-31.845264215401,147.94534375304,20.614851485149,686495.05967869,-4781.2241984958,2587154.321011,25.814851485149,0,0
-31.845264196169,147.96690148402,20.619281928193,686495.05967869,-4781.2241984958,2587154.321011,25.819281928193,0,0
-31.845264176936,147.988459215,20.623712371237,686495.05967869,-4781.2241984958,2587154.321011,25.823712371237,0,0
-31.845264157704,148.01001694598,20.628142814281,686495.05967869,-4781.2241984958,2587154.321011,25.828142814281,0,0
-31.845264138472,148.03157467697,20.632573257326,686495.05967869,-4781.2241984958,2587154.321011,25.832573257326,0,0
-31.84526411924,148.05313240795,20.63700370037,686495.05967869,-4781.2241984958,2587154.321011,25.83700370037,0,0
-31.845264100007,148.07469013893,20.641434143414,686495.05967869,-4781.2241984958,2587154.321011,25.841434143414,0,0
-31.845264080775,148.09624786991,20.645864586459,686495.05967869,-4781.2241984958,2587154.321011,25.845864586459,0,0
-31.845264061543,148.11780560089,20.650295029503,686495.05967869,-4781.2241984958,2587154.321011,25.850295029503,0,0
-31.845264042311,148.13936333187,20.654725472547,686495.05967869,-4781.2241984958,2587154.321011,25.854725472547,0,0
-31.845264023078,148.16092106286,20.659155915592,686495.05967869,-4781.2241984958,2587154.321011,25.859155915592,0,0
-31.845264003846,148.18247879384,20.663586358636,686495.05967869,-4781.2241984958,2587154.321011,25.863586358636,0,0
-31.845263984614,148.20403652482,20.66801680168,686495.05967869,-4781.2241984958,2587154.321011,25.86801680168,0,0
-31.845263965382,148.2255942558,20.672447244724,686495.05967869,-4781.2241984958,2587154.321011,25.872447244724,0,0
-31.845263946149,148.24715198678,20.676877687769,686495.05967869,-4781.2241984958,2587154.321011,25.876877687769,0,0
-31.845263926917,148.26870971777,20.681308130813,686495.05967869,-4781.2241984958,2587154.321011,25.881308130813,0,0
-31.845263907685,148.29026744875,20.685738573857,686495.05967869,-4781.2241984958,2587154.321011,25.885738573857,0,0
-31.845263888453,148.31182517973,20.690169016902,686495.05967869,-4781.2241984958,2587154.321011,25.890169016902,0,0
-31.84526386922,148.33338291071,20.694599459946,686495.05967869,-4781.2241984958,2587154.321011,25.894599459946,0,0
-31.845263849988,148.35494064169,20.69902990299,686495.05967869,-4781.2241984958,2587154.321011,25.89902990299,0,0
-31.845263830756,148.37649837267,20.703460346035,686495.05967869,-4781.2241984958,2587154.321011,25.903460346035,0,0
-31.845263811524,148.39805610366,20.707890789079,686495.05967869,-4781.2241984958,2587154.321011,25.907890789079,0,0
-31.845263792291,148.41961383464,20.712321232123,686495.05967869,-4781.2241984958,2587154.321011,25.912321232123,0,0
-31.845263773059,148.44117156562,20.716751675168,686495.05967869,-4781.2241984958,2587154.321011,25.916751675168,0,0
-31.845263753827,148.4627292966,20.721182118212,686495.05967869,-4781.2241984958,2587154.321011,25.921182118212,0,0
-31.845263734595,148.48428702758,20.725612561256,686495.05967869,-4781.2241984958,2587154.321011,25.925612561256,0,0
-31.845263715362,148.50584475857,20.7300430043,686495.05967869,-4781.2241984958,2587154.321011,25.9300430043,0,0
-31.84526369613,148.52740248955,20.734473447345,686495.05967869,-4781.2241984958,2587154.321011,25.934473447345,0,0
-31.845263676898,148.54896022053,20.738903890389,686495.05967869,-4781.2241984958,2587154.321011,25.938903890389,0,0
-31.845263657666,148.57051795151,20.743334333433,686495.05967869,-4781.2241984958,2587154.321011,25.943334333433,0,0
-31.845263638433,148.59207568249,20.747764776478,686495.05967869,-4781.2241984958,2587154.321011,25.947764776478,0,0
-31.845263619201,148.61363341347,20.752195219522,686495.05967869,-4781.2241984958,2587154.321011,25.952195219522,0,0
-31.845263599969,148.63519114446,20.756625662566,686495.05967869,-4781.2241984958,2587154.321011,25.956625662566,0,0
-31.845263580737,148.65674887544,20.761056105611,686495.05967869,-4781.2241984958,2587154.321011,25.961056105611,0,0
-31.845263561504,148.67830660642,20.765486548655,686495.05967869,-4781.2241984958,2587154.321011,25.965486548655,0,0
-31.845263542272,148.6998643374,20.769916991699,686495.05967869,-4781.2241984958,2587154.321011,25.969916991699,0,0
-31.84526352304,148.72142206838,20.774347434743,686495.05967869,-4781.2241984958,2587154.321011,25.974347434743,0,0
-31.845263503808,148.74297979937,20.778777877788,686495.05967869,-4781.2241984958,2587154.321011,25.978777877788,0,0
-31.845263484575,148.76453753035,20.783208320832,686495.05967869,-4781.2241984958,2587154.321011,25.983208320832,0,0
-31.845263465343,148.78609526133,20.787638763876,686495.05967869,-4781.2241984958,2587154.321011,25.987638763876,0,0
-31.845263446111,148.80765299231,20.792069206921,686495.05967869,-4781.2241984958,2587154.321011,25.992069206921,0,0
-31.845263426879,148.82921072329,20.796499649965,686495.05967869,-4781.2241984958,2587154.321011,25.996499649965,0,0
-31.845263407646,148.85076845427,20.800930093009,686495.05967869,-4781.2241984958,2587154.321011,26.000930093009,0,0
-31.845263388414,148.87232618526,20.805360536054,686495.05967869,-4781.2241984958,2587154.321011,26.005360536054,0,0
-31.845263369182,148.89388391624,20.809790979098,686495.05967869,-4781.2241984958,2587154.321011,26.009790979098,0,0
-31.84526334995,148.91544164722,20.814221422142,686495.05967869,-4781.2241984958,2587154.321011,26.014221422142,0,0
-31.845263330718,148.9369993782,20.818651865187,686495.05967869,-4781.2241984958,2587154.321011,26.018651865187,0,0
-31.845263311485,148.95855710918,20.823082308231,686495.05967869,-4781.2241984958,2587154.321011,26.023082308231,0,0
-31.845263292253,148.98011484017,20.827512751275,686495.05967869,-4781.2241984958,2587154.321011,26.027512751275,0,0
-31.845263273021,149.00167257115,20.831943194319,686495.05967869,-4781.2241984958,2587154.321011,26.031943194319,0,0
-31.845263253789,149.02323030213,20.836373637364,686495.05967869,-4781.2241984958,2587154.321011,26.036373637364,0,0
-31.845263234556,149.04478803311,20.840804080408,686495.05967869,-4781.2241984958,2587154.321011,26.040804080408,0,0
-31.845263215324,149.06634576409,20.845234523452,686495.05967869,-4781.2241984958,2587154.321011,26.045234523452,0,0
-31.845263196092,149.08790349507,20.849664966497,686495.05967869,-4781.2241984958,2587154.321011,26.049664966497,0,0
-31.84526317686,149.10946122606,20.854095409541,686495.05967869,-4781.2241984958,2587154.321011,26.054095409541,0,0
-31.845263157627,149.13101895704,20.858525852585,686495.05967869,-4781.2241984958,2587154.321011,26.058525852585,0,0
-31.845263138395,149.15257668802,20.86295629563,686495.05967869,-4781.2241984958,2587154.321011,26.06295629563,0,0
-31.845263119163,149.174134419,20.867386738674,686495.05967869,-4781.2241984958,2587154.321011,26.067386738674,0,0
-31.845263099931,149.19569214998,20.871817181718,686495.05967869,-4781.2241984958,2587154.321011,26.071817181718,0,0
-31.845263080698,149.21724988097,20.876247624762,686495.05967869,-4781.2241984958,2587154.321011,26.076247624762,0,0
-31.845263061466,149.23880761195,20.880678067807,686495.05967869,-4781.2241984958,2587154.321011,26.080678067807,0,0
-31.845263042234,149.26036534293,20.885108510851,686495.05967869,-4781.2241984958,2587154.321011,26.085108510851,0,0
-31.845263023002,149.28192307391,20.889538953895,686495.05967869,-4781.2241984958,2587154.321011,26.089538953895,0,0
-31.845263003769,149.30348080489,20.89396939694,686495.05967869,-4781.2241984958,2587154.321011,26.09396939694,0,0
-31.845262984537,149.32503853587,20.898399839984,686495.05967869,-4781.2241984958,2587154.321011,26.098399839984,0,0
-31.845262965305,149.34659626686,20.902830283028,686495.05967869,-4781.2241984958,2587154.321011,26.102830283028,0,0
-31.845262946073,149.36815399784,20.907260726073,686495.05967869,-4781.2241984958,2587154.321011,26.107260726073,0,0
-31.84526292684,149.38971172882,20.911691169117,686495.05967869,-4781.2241984958,2587154.321011,26.111691169117,0,0
-31.845262907608,149.4112694598,20.916121612161,686495.05967869,-4781.2241984958,2587154.321011,26.116121612161,0,0
-31.845262888376,149.43282719078,20.920552055206,686495.05967869,-4781.2241984958,2587154.321011,26.120552055206,0,0
-31.845262869144,149.45438492177,20.92498249825,686495.05967869,-4781.2241984958,2587154.321011,26.12498249825,0,0
-31.845262849911,149.47594265275,20.929412941294,686495.05967869,-4781.2241984958,2587154.321011,26.129412941294,0,0
-31.845262830679,149.49750038373,20.933843384338,686495.05967869,-4781.2241984958,2587154.321011,26.133843384338,0,0
-31.845262811447,149.51905811471,20.938273827383,686495.05967869,-4781.2241984958,2587154.321011,26.138273827383,0,0
-31.845262792215,149.54061584569,20.942704270427,686495.05967869,-4781.2241984958,2587154.321011,26.142704270427,0,0
-31.845262772982,149.56217357667,20.947134713471,686495.05967869,-4781.2241984958,2587154.321011,26.147134713471,0,0
-31.84526275375,149.58373130766,20.951565156516,686495.05967869,-4781.2241984958,2587154.321011,26.151565156516,0,0
-31.845262734518,149.60528903864,20.95599559956,686495.05967869,-4781.2241984958,2587154.321011,26.15599559956,0,0
-31.845262715286,149.62684676962,20.960426042604,686495.05967869,-4781.2241984958,2587154.321011,26.160426042604,0,0
-31.845262696053,149.6484045006,20.964856485649,686495.05967869,-4781.2241984958,2587154.321011,26.164856485649,0,0
-31.845262676821,149.66996223158,20.969286928693,686495.05967869,-4781.2241984958,2587154.321011,26.169286928693,0,0
-31.845262657589,149.69151996256,20.973717371737,686495.05967869,-4781.2241984958,2587154.321011,26.173717371737,0,0
-31.845262638357,149.71307769355,20.978147814781,686495.05967869,-4781.2241984958,2587154.321011,26.178147814781,0,0
-31.845262619127,149.73463542454,20.982578257826,681960.45106333,-1443.8644211624,2582782.5541478,26.182578257826,0,0
-31.845262600141,149.75619315614,20.98700870087,681960.45106333,-1443.8644211624,2582782.5541478,26.18700870087,0,0
-31.845262581154,149.77775088774,20.991439143914,681960.45106333,-1443.8644211624,2582782.5541478,26.191439143914,0,0
-31.845262562168,149.79930861934,20.995869586959,681960.45106333,-1443.8644211624,2582782.5541478,26.195869586959,0,0
-31.845262543181,149.82086635094,21.000300030003,681960.45106333,-1443.8644211624,2582782.5541478,26.200300030003,0,0
-31.845262524195,149.84242408255,21.004730473047,681960.45106333,-1443.8644211624,2582782.5541478,26.204730473047,0,0
-31.845262505209,149.86398181415,21.009160916092,681960.45106333,-1443.8644211624,2582782.5541478,26.209160916092,0,0
-31.845262486222,149.88553954575,21.013591359136,681960.45106333,-1443.8644211624,2582782.5541478,26.213591359136,0,0
-31.845262467236,149.90709727735,21.01802180218,681960.45106333,-1443.8644211624,2582782.5541478,26.21802180218,0,0
-31.845262448249,149.92865500895,21.022452245225,681960.45106333,-1443.8644211624,2582782.5541478,26.222452245225,0,0
-31.845262429263,149.95021274056,21.026882688269,681960.45106333,-1443.8644211624,2582782.5541478,26.226882688269,0,0
-31.845262410276,149.97177047216,21.031313131313,681960.45106333,-1443.8644211624,2582782.5541478,26.231313131313,0,0
-31.84526239129,149.99332820376,21.035743574357,681960.45106333,-1443.8644211624,2582782.5541478,26.235743574357,0,0
-31.845262372303,150.01488593536,21.040174017402,681960.45106333,-1443.8644211624,2582782.5541478,26.240174017402,0,0
-31.845262353317,150.03644366697,21.044604460446,681960.45106333,-1443.8644211624,2582782.5541478,26.244604460446,0,0
-31.845262334331,150.05800139857,21.04903490349,681960.45106333,-1443.8644211624,2582782.5541478,26.24903490349,0,0
-31.845262315344,150.07955913017,21.053465346535,681960.45106333,-1443.8644211624,2582782.5541478,26.253465346535,0,0
-31.845262296358,150.10111686177,21.057895789579,681960.45106333,-1443.8644211624,2582782.5541478,26.257895789579,0,0
-31.845262277371,150.12267459337,21.062326232623,681960.45106333,-1443.8644211624,2582782.5541478,26.262326232623,0,0
-31.845262258385,150.14423232498,21.066756675668,681960.45106333,-1443.8644211624,2582782.5541478,26.266756675668,0,0
-31.845262239398,150.16579005658,21.071187118712,681960.45106333,-1443.8644211624,2582782.5541478,26.271187118712,0,0
-31.845262220412,150.18734778818,21.075617561756,681960.45106333,-1443.8644211624,2582782.5541478,26.275617561756,0,0
-31.845262201426,150.20890551978,21.0800480048,681960.45106333,-1443.8644211624,2582782.5541478,26.2800480048,0,0
-31.845262182439,150.23046325138,21.084478447845,681960.45106333,-1443.8644211624,2582782.5541478,26.284478447845,0,0
-31.845262163453,150.25202098299,21.088908890889,681960.45106333,-1443.8644211624,2582782.5541478,26.288908890889,0,0
-31.845262144466,150.27357871459,21.093339333933,681960.45106333,-1443.8644211624,2582782.5541478,26.293339333933,0,0
-31.84526212548,150.29513644619,21.097769776978,681960.45106333,-1443.8644211624,2582782.5541478,26.297769776978,0,0
-31.845262106493,150.31669417779,21.102200220022,681960.45106333,-1443.8644211624,2582782.5541478,26.302200220022,0,0
-31.845262087507,150.3382519094,21.106630663066,681960.45106333,-1443.8644211624,2582782.5541478,26.306630663066,0,0
-31.84526206852,150.359809641,21.111061106111,681960.45106333,-1443.8644211624,2582782.5541478,26.311061106111,0,0
-31.845262049534,150.3813673726,21.115491549155,681960.45106333,-1443.8644211624,2582782.5541478,26.315491549155,0,0
-31.845262030548,150.4029251042,21.119921992199,681960.45106333,-1443.8644211624,2582782.5541478,26.319921992199,0,0
-31.845262011561,150.4244828358,21.124352435244,681960.45106333,-1443.8644211624,2582782.5541478,26.324352435244,0,0
-31.845261992575,150.44604056741,21.128782878288,681960.45106333,-1443.8644211624,2582782.5541478,26.328782878288,0,0
-31.845261973588,150.46759829901,21.133213321332,681960.45106333,-1443.8644211624,2582782.5541478,26.333213321332,0,0
-31.845261954602,150.48915603061,21.137643764376,681960.45106333,-1443.8644211624,2582782.5541478,26.337643764376,0,0
-31.845261935615,150.51071376221,21.142074207421,681960.45106333,-1443.8644211624,2582782.5541478,26.342074207421,0,0
-31.845261916629,150.53227149381,21.146504650465,681960.45106333,-1443.8644211624,2582782.5541478,26.346504650465,0,0
-31.845261897642,150.55382922542,21.150935093509,681960.45106333,-1443.8644211624,2582782.5541478,26.350935093509,0,0
-31.845261878656,150.57538695702,21.155365536554,681960.45106333,-1443.8644211624,2582782.5541478,26.355365536554,0,0
-31.84526185967,150.59694468862,21.159795979598,681960.45106333,-1443.8644211624,2582782.5541478,26.359795979598,0,0
-31.845261840683,150.61850242022,21.164226422642,681960.45106333,-1443.8644211624,2582782.5541478,26.364226422642,0,0
-31.845261821752,150.64006015142,21.168656865687,679243.21923552,-4329.920174655,2577555.6109746,26.368656865687,0,0
-31.845261802843,150.66161788246,21.173087308731,679243.21923552,-4329.920174655,2577555.6109746,26.373087308731,0,0
-31.845261783935,150.68317561349,21.177517751775,679243.21923552,-4329.920174655,2577555.6109746,26.377517751775,0,0
-31.845261765026,150.70473334453,21.181948194819,679243.21923552,-4329.920174655,2577555.6109746,26.381948194819,0,0
-31.845261746118,150.72629107556,21.186378637864,679243.21923552,-4329.920174655,2577555.6109746,26.386378637864,0,0
-31.845261727209,150.7478488066,21.190809080908,679243.21923552,-4329.920174655,2577555.6109746,26.390809080908,0,0
-31.8452617083,150.76940653763,21.195239523952,679243.21923552,-4329.920174655,2577555.6109746,26.395239523952,0,0
-31.845261689392,150.79096426867,21.199669966997,679243.21923552,-4329.920174655,2577555.6109746,26.399669966997,0,0
-31.845261670483,150.8125219997,21.204100410041,679243.21923552,-4329.920174655,2577555.6109746,26.404100410041,0,0
-31.845261651575,150.83407973074,21.208530853085,679243.21923552,-4329.920174655,2577555.6109746,26.408530853085,0,0
-31.845261632666,150.85563746177,21.21296129613,679243.21923552,-4329.920174655,2577555.6109746,26.41296129613,0,0
-31.845261613758,150.87719519281,21.217391739174,679243.21923552,-4329.920174655,2577555.6109746,26.417391739174,0,0
-31.845261594849,150.89875292384,21.221822182218,679243.21923552,-4329.920174655,2577555.6109746,26.421822182218,0,0
-31.84526157594,150.92031065488,21.226252625263,679243.21923552,-4329.920174655,2577555.6109746,26.426252625263,0,0
-31.845261557032,150.94186838591,21.230683068307,679243.21923552,-4329.920174655,2577555.6109746,26.430683068307,0,0
-31.845261538123,150.96342611695,21.235113511351,679243.21923552,-4329.920174655,2577555.6109746,26.435113511351,0,0
-31.845261519215,150.98498384798,21.239543954395,679243.21923552,-4329.920174655,2577555.6109746,26.439543954395,0,0
-31.845261500306,151.00654157902,21.24397439744,679243.21923552,-4329.920174655,2577555.6109746,26.44397439744,0,0
-31.845261481398,151.02809931005,21.248404840484,679243.21923552,-4329.920174655,2577555.6109746,26.448404840484,0,0
-31.845261462489,151.04965704109,21.252835283528,679243.21923552,-4329.920174655,2577555.6109746,26.452835283528,0,0
-31.84526144358,151.07121477212,21.257265726573,679243.21923552,-4329.920174655,2577555.6109746,26.457265726573,0,0
-31.845261424672,151.09277250315,21.261696169617,679243.21923552,-4329.920174655,2577555.6109746,26.461696169617,0,0
-31.845261405763,151.11433023419,21.266126612661,679243.21923552,-4329.920174655,2577555.6109746,26.466126612661,0,0
-31.845261386855,151.13588796522,21.270557055706,679243.21923552,-4329.920174655,2577555.6109746,26.470557055706,0,0
-31.845261367946,151.15744569626,21.27498749875,679243.21923552,-4329.920174655,2577555.6109746,26.47498749875,0,0
-31.845261349038,151.17900342729,21.279417941794,679243.21923552,-4329.920174655,2577555.6109746,26.479417941794,0,0
-31.845261330129,151.20056115833,21.283848384838,679243.21923552,-4329.920174655,2577555.6109746,26.483848384838,0,0
-31.84526131122,151.22211888936,21.288278827883,679243.21923552,-4329.920174655,2577555.6109746,26.488278827883,0,0
-31.845261292312,151.2436766204,21.292709270927,679243.21923552,-4329.920174655,2577555.6109746,26.492709270927,0,0
-31.845261273403,151.26523435143,21.297139713971,679243.21923552,-4329.920174655,2577555.6109746,26.497139713971,0,0
-31.845261254495,151.28679208247,21.301570157016,679243.21923552,-4329.920174655,2577555.6109746,26.501570157016,0,0
-31.845261235586,151.3083498135,21.30600060006,679243.21923552,-4329.920174655,2577555.6109746,26.50600060006,0,0
-31.845261216678,151.32990754454,21.310431043104,679243.21923552,-4329.920174655,2577555.6109746,26.510431043104,0,0
-31.845261197769,151.35146527557,21.314861486149,679243.21923552,-4329.920174655,2577555.6109746,26.514861486149,0,0
-31.84526117886,151.37302300661,21.319291929193,679243.21923552,-4329.920174655,2577555.6109746,26.519291929193,0,0
-31.845261159952,151.39458073764,21.323722372237,679243.21923552,-4329.920174655,2577555.6109746,26.523722372237,0,0
-31.845261141043,151.41613846868,21.328152815282,679243.21923552,-4329.920174655,2577555.6109746,26.528152815282,0,0
-31.845261122135,151.43769619971,21.332583258326,679243.21923552,-4329.920174655,2577555.6109746,26.532583258326,0,0
-31.845261103226,151.45925393075,21.33701370137,679243.21923552,-4329.920174655,2577555.6109746,26.53701370137,0,0
-31.845261084318,151.48081166178,21.341444144414,679243.21923552,-4329.920174655,2577555.6109746,26.541444144414,0,0
-31.845261065409,151.50236939282,21.345874587459,679243.21923552,-4329.920174655,2577555.6109746,26.545874587459,0,0
-31.845261046501,151.52392712385,21.350305030503,679243.21923552,-4329.920174655,2577555.6109746,26.550305030503,0,0
-31.845261027592,151.54548485489,21.354735473547,679243.21923552,-4329.920174655,2577555.6109746,26.554735473547,0,0
-31.845261008683,151.56704258592,21.359165916592,679243.21923552,-4329.920174655,2577555.6109746,26.559165916592,0,0
-31.845260989775,151.58860031695,21.363596359636,679243.21923552,-4329.920174655,2577555.6109746,26.563596359636,0,0
-31.845260970866,151.61015804799,21.36802680268,679243.21923552,-4329.920174655,2577555.6109746,26.56802680268,0,0
-31.845260951958,151.63171577902,21.372457245725,679243.21923552,-4329.920174655,2577555.6109746,26.572457245725,0,0
-31.845260933049,151.65327351006,21.376887688769,679243.21923552,-4329.920174655,2577555.6109746,26.576887688769,0,0
-31.845260914141,151.67483124109,21.381318131813,679243.21923552,-4329.920174655,2577555.6109746,26.581318131813,0,0
-31.845260895232,151.69638897213,21.385748574857,679243.21923552,-4329.920174655,2577555.6109746,26.585748574857,0,0
-31.845260876323,151.71794670316,21.390179017902,679243.21923552,-4329.920174655,2577555.6109746,26.590179017902,0,0
-31.845260857415,151.7395044342,21.394609460946,679243.21923552,-4329.920174655,2577555.6109746,26.594609460946,0,0
-31.845260838506,151.76106216523,21.39903990399,679243.21923552,-4329.920174655,2577555.6109746,26.59903990399,0,0
-31.845260819598,151.78261989627,21.403470347035,679243.21923552,-4329.920174655,2577555.6109746,26.603470347035,0,0
-31.845260800689,151.8041776273,21.407900790079,679243.21923552,-4329.920174655,2577555.6109746,26.607900790079,0,0
-31.845260781781,151.82573535834,21.412331233123,679243.21923552,-4329.920174655,2577555.6109746,26.612331233123,0,0
-31.845260762872,151.84729308937,21.416761676168,679243.21923552,-4329.920174655,2577555.6109746,26.616761676168,0,0
-31.845260743963,151.86885082041,21.421192119212,679243.21923552,-4329.920174655,2577555.6109746,26.621192119212,0,0
-31.845260725055,151.89040855144,21.425622562256,679243.21923552,-4329.920174655,2577555.6109746,26.625622562256,0,0
-31.845260706146,151.91196628248,21.430053005301,679243.21923552,-4329.920174655,2577555.6109746,26.630053005301,0,0
-31.845260687238,151.93352401351,21.434483448345,679243.21923552,-4329.920174655,2577555.6109746,26.634483448345,0,0
-31.845260668329,151.95508174455,21.438913891389,679243.21923552,-4329.920174655,2577555.6109746,26.638913891389,0,0
-31.845260649421,151.97663947558,21.443344334433,679243.21923552,-4329.920174655,2577555.6109746,26.643344334433,0,0
-31.845260630512,151.99819720662,21.447774777478,679243.21923552,-4329.920174655,2577555.6109746,26.647774777478,0,0
-31.845260611603,152.01975493765,21.452205220522,679243.21923552,-4329.920174655,2577555.6109746,26.652205220522,0,0
-31.845260592695,152.04131266869,21.456635663566,679243.21923552,-4329.920174655,2577555.6109746,26.656635663566,0,0
-31.845260573786,152.06287039972,21.461066106611,679243.21923552,-4329.920174655,2577555.6109746,26.661066106611,0,0
-31.845260554878,152.08442813075,21.465496549655,679243.21923552,-4329.920174655,2577555.6109746,26.665496549655,0,0
-31.845260535969,152.10598586179,21.469926992699,679243.21923552,-4329.920174655,2577555.6109746,26.669926992699,0,0
-31.845260517061,152.12754359282,21.474357435744,679243.21923552,-4329.920174655,2577555.6109746,26.674357435744,0,0
-31.845260498152,152.14910132386,21.478787878788,679243.21923552,-4329.920174655,2577555.6109746,26.678787878788,0,0
-31.845260479243,152.17065905489,21.483218321832,679243.21923552,-4329.920174655,2577555.6109746,26.683218321832,0,0
-31.845260460335,152.19221678593,21.487648764876,679243.21923552,-4329.920174655,2577555.6109746,26.687648764876,0,0
-31.845260441426,152.21377451696,21.492079207921,679243.21923552,-4329.920174655,2577555.6109746,26.692079207921,0,0
-31.845260422518,152.235332248,21.496509650965,679243.21923552,-4329.920174655,2577555.6109746,26.696509650965,0,0
-31.845260403609,152.25688997903,21.500940094009,679243.21923552,-4329.920174655,2577555.6109746,26.700940094009,0,0
-31.845260384701,152.27844771007,21.505370537054,679243.21923552,-4329.920174655,2577555.6109746,26.705370537054,0,0
-31.845260365792,152.3000054411,21.509800980098,679243.21923552,-4329.920174655,2577555.6109746,26.709800980098,0,0
-31.845260346884,152.32156317214,21.514231423142,679243.21923552,-4329.920174655,2577555.6109746,26.714231423142,0,0
-31.845260327975,152.34312090317,21.518661866187,679243.21923552,-4329.920174655,2577555.6109746,26.718661866187,0,0
-31.845260309066,152.36467863421,21.523092309231,679243.21923552,-4329.920174655,2577555.6109746,26.723092309231,0,0
-31.845260290158,152.38623636524,21.527522752275,679243.21923552,-4329.920174655,2577555.6109746,26.727522752275,0,0
-31.845260271249,152.40779409628,21.53195319532,679243.21923552,-4329.920174655,2577555.6109746,26.73195319532,0,0
-31.845260252341,152.42935182731,21.536383638364,679243.21923552,-4329.920174655,2577555.6109746,26.736383638364,0,0
-31.845260233432,152.45090955835,21.540814081408,679243.21923552,-4329.920174655,2577555.6109746,26.740814081408,0,0
-31.845260214524,152.47246728938,21.545244524452,679243.21923552,-4329.920174655,2577555.6109746,26.745244524452,0,0
-31.845260195615,152.49402502042,21.549674967497,679243.21923552,-4329.920174655,2577555.6109746,26.749674967497,0,0
-31.845260176706,152.51558275145,21.554105410541,679243.21923552,-4329.920174655,2577555.6109746,26.754105410541,0,0
-31.845260157798,152.53714048249,21.558535853585,679243.21923552,-4329.920174655,2577555.6109746,26.758535853585,0,0
-31.845260138889,152.55869821352,21.56296629663,679243.21923552,-4329.920174655,2577555.6109746,26.76296629663,0,0
-31.845260119981,152.58025594456,21.567396739674,679243.21923552,-4329.920174655,2577555.6109746,26.767396739674,0,0
-31.845260101072,152.60181367559,21.571827182718,679243.21923552,-4329.920174655,2577555.6109746,26.771827182718,0,0
-31.845260082164,152.62337140662,21.576257625763,679243.21923552,-4329.920174655,2577555.6109746,26.776257625763,0,0
-31.845260063255,152.64492913766,21.580688068807,679243.21923552,-4329.920174655,2577555.6109746,26.780688068807,0,0
-31.845260044346,152.66648686869,21.585118511851,679243.21923552,-4329.920174655,2577555.6109746,26.785118511851,0,0
-31.845260025438,152.68804459973,21.589548954895,679243.21923552,-4329.920174655,2577555.6109746,26.789548954895,0,0
-31.845260006529,152.70960233076,21.59397939794,679243.21923552,-4329.920174655,2577555.6109746,26.79397939794,0,0
-31.845259987621,152.7311600618,21.598409840984,679243.21923552,-4329.920174655,2577555.6109746,26.798409840984,0,0
-31.845259968712,152.75271779283,21.602840284028,679243.21923552,-4329.920174655,2577555.6109746,26.802840284028,0,0
-31.845259949804,152.77427552387,21.607270727073,679243.21923552,-4329.920174655,2577555.6109746,26.807270727073,0,0
-31.845259930895,152.7958332549,21.611701170117,679243.21923552,-4329.920174655,2577555.6109746,26.811701170117,0,0
-31.845259911986,152.81739098594,21.616131613161,679243.21923552,-4329.920174655,2577555.6109746,26.816131613161,0,0
-31.845259893078,152.83894871697,21.620562056206,679243.21923552,-4329.920174655,2577555.6109746,26.820562056206,0,0
-31.845259874169,152.86050644801,21.62499249925,679243.21923552,-4329.920174655,2577555.6109746,26.82499249925,0,0
-31.845259855261,152.88206417904,21.629422942294,679243.21923552,-4329.920174655,2577555.6109746,26.829422942294,0,0
-31.845259836352,152.90362191008,21.633853385339,679243.21923552,-4329.920174655,2577555.6109746,26.833853385339,0,0
-31.845259817444,152.92517964111,21.638283828383,679243.21923552,-4329.920174655,2577555.6109746,26.838283828383,0,0
-31.845259798535,152.94673737215,21.642714271427,679243.21923552,-4329.920174655,2577555.6109746,26.842714271427,0,0
-31.845259779626,152.96829510318,21.647144714471,679243.21923552,-4329.920174655,2577555.6109746,26.847144714471,0,0
-31.845259760718,152.98985283422,21.651575157516,679243.21923552,-4329.920174655,2577555.6109746,26.851575157516,0,0
-31.845259741809,153.01141056525,21.65600560056,679243.21923552,-4329.920174655,2577555.6109746,26.85600560056,0,0
-31.845259722901,153.03296829629,21.660436043604,679243.21923552,-4329.920174655,2577555.6109746,26.860436043604,0,0
-31.845259703992,153.05452602732,21.664866486649,679243.21923552,-4329.920174655,2577555.6109746,26.864866486649,0,0
-31.845259685084,153.07608375835,21.669296929693,679243.21923552,-4329.920174655,2577555.6109746,26.869296929693,0,0
-31.845259666175,153.09764148939,21.673727372737,679243.21923552,-4329.920174655,2577555.6109746,26.873727372737,0,0
-31.845259647266,153.11919922042,21.678157815782,679243.21923552,-4329.920174655,2577555.6109746,26.878157815782,0,0
-31.845259628358,153.14075695146,21.682588258826,679243.21923552,-4329.920174655,2577555.6109746,26.882588258826,0,0
-31.845259609449,153.16231468249,21.68701870187,679243.21923552,-4329.920174655,2577555.6109746,26.88701870187,0,0
-31.845259590541,153.18387241353,21.691449144914,679243.21923552,-4329.920174655,2577555.6109746,26.891449144914,0,0
-31.845259571632,153.20543014456,21.695879587959,679243.21923552,-4329.920174655,2577555.6109746,26.895879587959,0,0
-31.845259552724,153.2269878756,21.700310031003,679243.21923552,-4329.920174655,2577555.6109746,26.900310031003,0,0
-31.845259533815,153.24854560663,21.704740474047,679243.21923552,-4329.920174655,2577555.6109746,26.904740474047,0,0
-31.845259514907,153.27010333767,21.709170917092,679243.21923552,-4329.920174655,2577555.6109746,26.909170917092,0,0
-31.845259495998,153.2916610687,21.713601360136,679243.21923552,-4329.920174655,2577555.6109746,26.913601360136,0,0
-31.845259477089,153.31321879974,21.71803180318,679243.21923552,-4329.920174655,2577555.6109746,26.91803180318,0,0
-31.845259458181,153.33477653077,21.722462246225,679243.21923552,-4329.920174655,2577555.6109746,26.922462246225,0,0
-31.845259439272,153.35633426181,21.726892689269,679243.21923552,-4329.920174655,2577555.6109746,26.926892689269,0,0
-31.845259420364,153.37789199284,21.731323132313,679243.21923552,-4329.920174655,2577555.6109746,26.931323132313,0,0
-31.845259401455,153.39944972388,21.735753575358,679243.21923552,-4329.920174655,2577555.6109746,26.935753575358,0,0
-31.845259382547,153.42100745491,21.740184018402,679243.21923552,-4329.920174655,2577555.6109746,26.940184018402,0,0
-31.845259363638,153.44256518595,21.744614461446,679243.21923552,-4329.920174655,2577555.6109746,26.944614461446,0,0
-31.845259344729,153.46412291698,21.74904490449,679243.21923552,-4329.920174655,2577555.6109746,26.94904490449,0,0
-31.845259325821,153.48568064802,21.753475347535,679243.21923552,-4329.920174655,2577555.6109746,26.953475347535,0,0
-31.845259306912,153.50723837905,21.757905790579,679243.21923552,-4329.920174655,2577555.6109746,26.957905790579,0,0
-31.845259288004,153.52879611009,21.762336233623,679243.21923552,-4329.920174655,2577555.6109746,26.962336233623,0,0
-31.845259269095,153.55035384112,21.766766676668,679243.21923552,-4329.920174655,2577555.6109746,26.966766676668,0,0
-31.845259250187,153.57191157215,21.771197119712,679243.21923552,-4329.920174655,2577555.6109746,26.971197119712,0,0
-31.845259231278,153.59346930319,21.775627562756,679243.21923552,-4329.920174655,2577555.6109746,26.975627562756,0,0
-31.845259212369,153.61502703422,21.780058005801,679243.21923552,-4329.920174655,2577555.6109746,26.980058005801,0,0
-31.845259193461,153.63658476526,21.784488448845,679243.21923552,-4329.920174655,2577555.6109746,26.984488448845,0,0
-31.845259174552,153.65814249629,21.788918891889,679243.21923552,-4329.920174655,2577555.6109746,26.988918891889,0,0
-31.845259155644,153.67970022733,21.793349334933,679243.21923552,-4329.920174655,2577555.6109746,26.993349334933,0,0
-31.845259136735,153.70125795836,21.797779777978,679243.21923552,-4329.920174655,2577555.6109746,26.997779777978,0,0
-31.845259117827,153.7228156894,21.802210221022,679243.21923552,-4329.920174655,2577555.6109746,27.002210221022,0,0
-31.845259098918,153.74437342043,21.806640664066,679243.21923552,-4329.920174655,2577555.6109746,27.006640664066,0,0
-31.845259080009,153.76593115147,21.811071107111,679243.21923552,-4329.920174655,2577555.6109746,27.011071107111,0,0
-31.845259061101,153.7874888825,21.815501550155,679243.21923552,-4329.920174655,2577555.6109746,27.015501550155,0,0
-31.845259042192,153.80904661354,21.819931993199,679243.21923552,-4329.920174655,2577555.6109746,27.019931993199,0,0
-31.845259023284,153.83060434457,21.824362436244,679243.21923552,-4329.920174655,2577555.6109746,27.024362436244,0,0
-31.845259004375,153.85216207561,21.828792879288,679243.21923552,-4329.920174655,2577555.6109746,27.028792879288,0,0
-31.845258985467,153.87371980664,21.833223322332,679243.21923552,-4329.920174655,2577555.6109746,27.033223322332,0,0
-31.845258966558,153.89527753768,21.837653765377,679243.21923552,-4329.920174655,2577555.6109746,27.037653765377,0,0
-31.845258947649,153.91683526871,21.842084208421,679243.21923552,-4329.920174655,2577555.6109746,27.042084208421,0,0
-31.845258928741,153.93839299975,21.846514651465,679243.21923552,-4329.920174655,2577555.6109746,27.046514651465,0,0
-31.845258909832,153.95995073078,21.850945094509,679243.21923552,-4329.920174655,2577555.6109746,27.050945094509,0,0
-31.845258890924,153.98150846182,21.855375537554,679243.21923552,-4329.920174655,2577555.6109746,27.055375537554,0,0
-31.845258872015,154.00306619285,21.859805980598,679243.21923552,-4329.920174655,2577555.6109746,27.059805980598,0,0
-31.845258853107,154.02462392389,21.864236423642,679243.21923552,-4329.920174655,2577555.6109746,27.064236423642,0,0
-31.845258834198,154.04618165492,21.868666866687,679243.21923552,-4329.920174655,2577555.6109746,27.068666866687,0,0
-31.84525881529,154.06773938596,21.873097309731,679243.21923552,-4329.920174655,2577555.6109746,27.073097309731,0,0
-31.845258796381,154.08929711699,21.877527752775,679243.21923552,-4329.920174655,2577555.6109746,27.077527752775,0,0
-31.845258777472,154.11085484802,21.88195819582,679243.21923552,-4329.920174655,2577555.6109746,27.08195819582,0,0
-31.845258758564,154.13241257906,21.886388638864,679243.21923552,-4329.920174655,2577555.6109746,27.086388638864,0,0
-31.845258739655,154.15397031009,21.890819081908,679243.21923552,-4329.920174655,2577555.6109746,27.090819081908,0,0
-31.845258720747,154.17552804113,21.895249524952,679243.21923552,-4329.920174655,2577555.6109746,27.095249524952,0,0
-31.845258701838,154.19708577216,21.899679967997,679243.21923552,-4329.920174655,2577555.6109746,27.099679967997,0,0
-31.84525868293,154.2186435032,21.904110411041,679243.21923552,-4329.920174655,2577555.6109746,27.104110411041,0,0
-31.845258664021,154.24020123423,21.908540854085,679243.21923552,-4329.920174655,2577555.6109746,27.108540854085,0,0
-31.845258645112,154.26175896527,21.91297129713,679243.21923552,-4329.920174655,2577555.6109746,27.11297129713,0,0
-31.845258626204,154.2833166963,21.917401740174,679243.21923552,-4329.920174655,2577555.6109746,27.117401740174,0,0
-31.845258607295,154.30487442734,21.921832183218,679243.21923552,-4329.920174655,2577555.6109746,27.121832183218,0,0
-31.845258588387,154.32643215837,21.926262626263,679243.21923552,-4329.920174655,2577555.6109746,27.126262626263,0,0
-31.845258569478,154.34798988941,21.930693069307,679243.21923552,-4329.920174655,2577555.6109746,27.130693069307,0,0
-31.84525855057,154.36954762044,21.935123512351,679243.21923552,-4329.920174655,2577555.6109746,27.135123512351,0,0
-31.845258531661,154.39110535148,21.939553955396,679243.21923552,-4329.920174655,2577555.6109746,27.139553955396,0,0
-31.845258512752,154.41266308251,21.94398439844,679243.21923552,-4329.920174655,2577555.6109746,27.14398439844,0,0
-31.845258493844,154.43422081355,21.948414841484,679243.21923552,-4329.920174655,2577555.6109746,27.148414841484,0,0
-31.845258474935,154.45577854458,21.952845284528,679243.21923552,-4329.920174655,2577555.6109746,27.152845284528,0,0
-31.845258456027,154.47733627562,21.957275727573,679243.21923552,-4329.920174655,2577555.6109746,27.157275727573,0,0
-31.845258437118,154.49889400665,21.961706170617,679243.21923552,-4329.920174655,2577555.6109746,27.161706170617,0,0
-31.84525841821,154.52045173769,21.966136613661,679243.21923552,-4329.920174655,2577555.6109746,27.166136613661,0,0
-31.845258399301,154.54200946872,21.970567056706,679243.21923552,-4329.920174655,2577555.6109746,27.170567056706,0,0
-31.845258380392,154.56356719976,21.97499749975,679243.21923552,-4329.920174655,2577555.6109746,27.17499749975,0,0
-31.845258361484,154.58512493079,21.979427942794,679243.21923552,-4329.920174655,2577555.6109746,27.179427942794,0,0
-31.845258342575,154.60668266182,21.983858385839,679243.21923552,-4329.920174655,2577555.6109746,27.183858385839,0,0
-31.845258323667,154.62824039286,21.988288828883,679243.21923552,-4329.920174655,2577555.6109746,27.188288828883,0,0
-31.845258304758,154.64979812389,21.992719271927,679243.21923552,-4329.920174655,2577555.6109746,27.192719271927,0,0
-31.84525828585,154.67135585493,21.997149714971,679243.21923552,-4329.920174655,2577555.6109746,27.197149714971,0,0
-31.845258266941,154.69291358596,22.001580158016,679243.21923552,-4329.920174655,2577555.6109746,27.201580158016,0,0
-31.845258248032,154.714471317,22.00601060106,679243.21923552,-4329.920174655,2577555.6109746,27.20601060106,0,0
-31.845258229124,154.73602904803,22.010441044104,679243.21923552,-4329.920174655,2577555.6109746,27.210441044104,0,0
-31.845258210215,154.75758677907,22.014871487149,679243.21923552,-4329.920174655,2577555.6109746,27.214871487149,0,0
-31.845258191307,154.7791445101,22.019301930193,679243.21923552,-4329.920174655,2577555.6109746,27.219301930193,0,0
-31.845258172398,154.80070224114,22.023732373237,679243.21923552,-4329.920174655,2577555.6109746,27.223732373237,0,0
-31.84525815349,154.82225997217,22.028162816282,679243.21923552,-4329.920174655,2577555.6109746,27.228162816282,0,0
-31.845258134581,154.84381770321,22.032593259326,679243.21923552,-4329.920174655,2577555.6109746,27.232593259326,0,0
-31.845258115673,154.86537543424,22.03702370237,679243.21923552,-4329.920174655,2577555.6109746,27.23702370237,0,0
-31.845258096764,154.88693316528,22.041454145415,679243.21923552,-4329.920174655,2577555.6109746,27.241454145415,0,0
-31.845258077855,154.90849089631,22.045884588459,679243.21923552,-4329.920174655,2577555.6109746,27.245884588459,0,0
-31.845258058947,154.93004862735,22.050315031503,679243.21923552,-4329.920174655,2577555.6109746,27.250315031503,0,0
-31.845258040038,154.95160635838,22.054745474547,679243.21923552,-4329.920174655,2577555.6109746,27.254745474547,0,0
-31.84525802113,154.97316408942,22.059175917592,679243.21923552,-4329.920174655,2577555.6109746,27.259175917592,0,0
-31.845258002221,154.99472182045,22.063606360636,679243.21923552,-4329.920174655,2577555.6109746,27.263606360636,0,0
-31.845257983313,155.01627955149,22.06803680368,679243.21923552,-4329.920174655,2577555.6109746,27.26803680368,0,0
-31.845257964404,155.03783728252,22.072467246725,679243.21923552,-4329.920174655,2577555.6109746,27.272467246725,0,0
-31.845257945495,155.05939501356,22.076897689769,679243.21923552,-4329.920174655,2577555.6109746,27.276897689769,0,0
-31.845257926587,155.08095274459,22.081328132813,679243.21923552,-4329.920174655,2577555.6109746,27.281328132813,0,0
-31.845257907678,155.10251047562,22.085758575858,679243.21923552,-4329.920174655,2577555.6109746,27.285758575858,0,0
-31.84525788877,155.12406820666,22.090189018902,679243.21923552,-4329.920174655,2577555.6109746,27.290189018902,0,0
-31.845257869861,155.14562593769,22.094619461946,679243.21923552,-4329.920174655,2577555.6109746,27.294619461946,0,0
-31.845257850953,155.16718366873,22.09904990499,679243.21923552,-4329.920174655,2577555.6109746,27.29904990499,0,0
-31.845257832044,155.18874139976,22.103480348035,679243.21923552,-4329.920174655,2577555.6109746,27.303480348035,0,0
-31.845257813135,155.2102991308,22.107910791079,679243.21923552,-4329.920174655,2577555.6109746,27.307910791079,0,0
-31.845257794227,155.23185686183,22.112341234123,679243.21923552,-4329.920174655,2577555.6109746,27.312341234123,0,0
-31.845257775318,155.25341459287,22.116771677168,679243.21923552,-4329.920174655,2577555.6109746,27.316771677168,0,0
-31.84525775641,155.2749723239,22.121202120212,679243.21923552,-4329.920174655,2577555.6109746,27.321202120212,0,0
-31.845257737501,155.29653005494,22.125632563256,679243.21923552,-4329.920174655,2577555.6109746,27.325632563256,0,0
-31.845257718593,155.31808778597,22.130063006301,679243.21923552,-4329.920174655,2577555.6109746,27.330063006301,0,0
-31.845257699684,155.33964551701,22.134493449345,679243.21923552,-4329.920174655,2577555.6109746,27.334493449345,0,0
-31.845257680775,155.36120324804,22.138923892389,679243.21923552,-4329.920174655,2577555.6109746,27.338923892389,0,0
-31.845257661867,155.38276097908,22.143354335434,679243.21923552,-4329.920174655,2577555.6109746,27.343354335434,0,0
-31.845257642958,155.40431871011,22.147784778478,679243.21923552,-4329.920174655,2577555.6109746,27.347784778478,0,0
-31.84525762405,155.42587644115,22.152215221522,679243.21923552,-4329.920174655,2577555.6109746,27.352215221522,0,0
-31.845257605141,155.44743417218,22.156645664566,679243.21923552,-4329.920174655,2577555.6109746,27.356645664566,0,0
-31.845257586233,155.46899190322,22.161076107611,679243.21923552,-4329.920174655,2577555.6109746,27.361076107611,0,0
-31.845257567324,155.49054963425,22.165506550655,679243.21923552,-4329.920174655,2577555.6109746,27.365506550655,0,0
-31.845257548415,155.51210736529,22.169936993699,679243.21923552,-4329.920174655,2577555.6109746,27.369936993699,0,0
-31.845257529507,155.53366509632,22.174367436744,679243.21923552,-4329.920174655,2577555.6109746,27.374367436744,0,0
-31.845257510598,155.55522282736,22.178797879788,679243.21923552,-4329.920174655,2577555.6109746,27.378797879788,0,0
-31.84525749169,155.57678055839,22.183228322832,679243.21923552,-4329.920174655,2577555.6109746,27.383228322832,0,0
-31.845257472781,155.59833828942,22.187658765877,679243.21923552,-4329.920174655,2577555.6109746,27.387658765877,0,0
-31.845257453873,155.61989602046,22.192089208921,679243.21923552,-4329.920174655,2577555.6109746,27.392089208921,0,0
-31.845257434964,155.64145375149,22.196519651965,679243.21923552,-4329.920174655,2577555.6109746,27.396519651965,0,0
-31.845257416056,155.66301148253,22.200950095009,679243.21923552,-4329.920174655,2577555.6109746,27.400950095009,0,0
-31.845257397147,155.68456921356,22.205380538054,679243.21923552,-4329.920174655,2577555.6109746,27.405380538054,0,0
-31.845257378238,155.7061269446,22.209810981098,679243.21923552,-4329.920174655,2577555.6109746,27.409810981098,0,0
-31.84525735933,155.72768467563,22.214241424142,679243.21923552,-4329.920174655,2577555.6109746,27.414241424142,0,0
-31.845257340421,155.74924240667,22.218671867187,679243.21923552,-4329.920174655,2577555.6109746,27.418671867187,0,0
-31.845257321513,155.7708001377,22.223102310231,679243.21923552,-4329.920174655,2577555.6109746,27.423102310231,0,0
-31.845257302604,155.79235786874,22.227532753275,679243.21923552,-4329.920174655,2577555.6109746,27.427532753275,0,0
-31.845257283696,155.81391559977,22.23196319632,679243.21923552,-4329.920174655,2577555.6109746,27.43196319632,0,0
-31.845257264787,155.83547333081,22.236393639364,679243.21923552,-4329.920174655,2577555.6109746,27.436393639364,0,0
-31.845257245878,155.85703106184,22.240824082408,679243.21923552,-4329.920174655,2577555.6109746,27.440824082408,0,0
-31.84525722697,155.87858879288,22.245254525453,679243.21923552,-4329.920174655,2577555.6109746,27.445254525453,0,0
-31.845257208061,155.90014652391,22.249684968497,679243.21923552,-4329.920174655,2577555.6109746,27.449684968497,0,0
-31.845257189153,155.92170425495,22.254115411541,679243.21923552,-4329.920174655,2577555.6109746,27.454115411541,0,0
-31.845257170244,155.94326198598,22.258545854585,679243.21923552,-4329.920174655,2577555.6109746,27.458545854585,0,0
-31.845257151336,155.96481971702,22.26297629763,679243.21923552,-4329.920174655,2577555.6109746,27.46297629763,0,0
-31.845257132427,155.98637744805,22.267406740674,679243.21923552,-4329.920174655,2577555.6109746,27.467406740674,0,0
-31.845257113518,156.00793517909,22.271837183718,679243.21923552,-4329.920174655,2577555.6109746,27.471837183718,0,0
-31.84525709461,156.02949291012,22.276267626763,679243.21923552,-4329.920174655,2577555.6109746,27.476267626763,0,0
-31.845257075701,156.05105064116,22.280698069807,679243.21923552,-4329.920174655,2577555.6109746,27.480698069807,0,0
-31.845257056793,156.07260837219,22.285128512851,679243.21923552,-4329.920174655,2577555.6109746,27.485128512851,0,0
-31.845257037884,156.09416610322,22.289558955896,679243.21923552,-4329.920174655,2577555.6109746,27.489558955896,0,0
-31.845257018976,156.11572383426,22.29398939894,679243.21923552,-4329.920174655,2577555.6109746,27.49398939894,0,0
-31.845257000067,156.13728156529,22.298419841984,679243.21923552,-4329.920174655,2577555.6109746,27.498419841984,0,0
-31.845256981158,156.15883929633,22.302850285029,679243.21923552,-4329.920174655,2577555.6109746,27.502850285029,0,0
-31.84525696225,156.18039702736,22.307280728073,679243.21923552,-4329.920174655,2577555.6109746,27.507280728073,0,0
-31.845256943341,156.2019547584,22.311711171117,679243.21923552,-4329.920174655,2577555.6109746,27.511711171117,0,0
-31.845256924433,156.22351248943,22.316141614161,679243.21923552,-4329.920174655,2577555.6109746,27.516141614161,0,0
-31.845256905524,156.24507022047,22.320572057206,679243.21923552,-4329.920174655,2577555.6109746,27.520572057206,0,0
-31.845256886616,156.2666279515,22.32500250025,679243.21923552,-4329.920174655,2577555.6109746,27.52500250025,0,0
-31.845256867707,156.28818568254,22.329432943294,679243.21923552,-4329.920174655,2577555.6109746,27.529432943294,0,0
-31.845256848798,156.30974341357,22.333863386339,679243.21923552,-4329.920174655,2577555.6109746,27.533863386339,0,0
-31.84525682989,156.33130114461,22.338293829383,679243.21923552,-4329.920174655,2577555.6109746,27.538293829383,0,0
-31.845256810981,156.35285887564,22.342724272427,679243.21923552,-4329.920174655,2577555.6109746,27.542724272427,0,0
-31.845256792073,156.37441660668,22.347154715472,679243.21923552,-4329.920174655,2577555.6109746,27.547154715472,0,0
-31.845256773164,156.39597433771,22.351585158516,679243.21923552,-4329.920174655,2577555.6109746,27.551585158516,0,0
-31.845256754256,156.41753206875,22.35601560156,679243.21923552,-4329.920174655,2577555.6109746,27.55601560156,0,0
-31.845256735347,156.43908979978,22.360446044604,679243.21923552,-4329.920174655,2577555.6109746,27.560446044604,0,0
-31.845256716439,156.46064753082,22.364876487649,679243.21923552,-4329.920174655,2577555.6109746,27.564876487649,0,0
-31.84525669753,156.48220526185,22.369306930693,679243.21923552,-4329.920174655,2577555.6109746,27.569306930693,0,0
-31.845256678621,156.50376299289,22.373737373737,679243.21923552,-4329.920174655,2577555.6109746,27.573737373737,0,0
-31.845256659713,156.52532072392,22.378167816782,679243.21923552,-4329.920174655,2577555.6109746,27.578167816782,0,0
-31.845256640804,156.54687845496,22.382598259826,679243.21923552,-4329.920174655,2577555.6109746,27.582598259826,0,0
-31.845256621896,156.56843618599,22.38702870287,679243.21923552,-4329.920174655,2577555.6109746,27.58702870287,0,0
-31.845256602987,156.58999391702,22.391459145915,679243.21923552,-4329.920174655,2577555.6109746,27.591459145915,0,0
-31.845256584079,156.61155164806,22.395889588959,679243.21923552,-4329.920174655,2577555.6109746,27.595889588959,0,0
-31.84525656517,156.63310937909,22.400320032003,679243.21923552,-4329.920174655,2577555.6109746,27.600320032003,0,0
-31.845256546261,156.65466711013,22.404750475048,679243.21923552,-4329.920174655,2577555.6109746,27.604750475048,0,0
-31.845256527353,156.67622484116,22.409180918092,679243.21923552,-4329.920174655,2577555.6109746,27.609180918092,0,0
-31.845256508444,156.6977825722,22.413611361136,679243.21923552,-4329.920174655,2577555.6109746,27.613611361136,0,0
-31.845256489536,156.71934030323,22.41804180418,679243.21923552,-4329.920174655,2577555.6109746,27.61804180418,0,0
-31.845256470627,156.74089803427,22.422472247225,679243.21923552,-4329.920174655,2577555.6109746,27.622472247225,0,0
-31.845256451719,156.7624557653,22.426902690269,679243.21923552,-4329.920174655,2577555.6109746,27.626902690269,0,0
-31.84525643281,156.78401349634,22.431333133313,679243.21923552,-4329.920174655,2577555.6109746,27.631333133313,0,0
-31.845256413901,156.80557122737,22.435763576358,679243.21923552,-4329.920174655,2577555.6109746,27.635763576358,0,0
-31.845256394993,156.82712895841,22.440194019402,679243.21923552,-4329.920174655,2577555.6109746,27.640194019402,0,0
-31.845256376084,156.84868668944,22.444624462446,679243.21923552,-4329.920174655,2577555.6109746,27.644624462446,0,0
-31.845256357176,156.87024442048,22.449054905491,679243.21923552,-4329.920174655,2577555.6109746,27.649054905491,0,0
-31.845256338267,156.89180215151,22.453485348535,679243.21923552,-4329.920174655,2577555.6109746,27.653485348535,0,0
-31.845256319359,156.91335988255,22.457915791579,679243.21923552,-4329.920174655,2577555.6109746,27.657915791579,0,0
-31.84525630045,156.93491761358,22.462346234623,679243.21923552,-4329.920174655,2577555.6109746,27.662346234623,0,0
-31.845256281541,156.95647534462,22.466776677668,679243.21923552,-4329.920174655,2577555.6109746,27.666776677668,0,0
-31.845256262633,156.97803307565,22.471207120712,679243.21923552,-4329.920174655,2577555.6109746,27.671207120712,0,0
-31.845256243724,156.99959080669,22.475637563756,679243.21923552,-4329.920174655,2577555.6109746,27.675637563756,0,0
-31.845256224816,157.02114853772,22.480068006801,679243.21923552,-4329.920174655,2577555.6109746,27.680068006801,0,0
-31.845256205907,157.04270626876,22.484498449845,679243.21923552,-4329.920174655,2577555.6109746,27.684498449845,0,0
-31.845256186999,157.06426399979,22.488928892889,679243.21923552,-4329.920174655,2577555.6109746,27.688928892889,0,0
-31.84525616809,157.08582173082,22.493359335934,679243.21923552,-4329.920174655,2577555.6109746,27.693359335934,0,0
-31.845256149181,157.10737946186,22.497789778978,679243.21923552,-4329.920174655,2577555.6109746,27.697789778978,0,0
-31.845256130273,157.12893719289,22.502220222022,679243.21923552,-4329.920174655,2577555.6109746,27.702220222022,0,0
-31.845256111364,157.15049492393,22.506650665067,679243.21923552,-4329.920174655,2577555.6109746,27.706650665067,0,0
-31.845256092456,157.17205265496,22.511081108111,679243.21923552,-4329.920174655,2577555.6109746,27.711081108111,0,0
-31.845256073547,157.193610386,22.515511551155,679243.21923552,-4329.920174655,2577555.6109746,27.715511551155,0,0
-31.845256054639,157.21516811703,22.519941994199,679243.21923552,-4329.920174655,2577555.6109746,27.719941994199,0,0
-31.84525603573,157.23672584807,22.524372437244,679243.21923552,-4329.920174655,2577555.6109746,27.724372437244,0,0
-31.845256016821,157.2582835791,22.528802880288,679243.21923552,-4329.920174655,2577555.6109746,27.728802880288,0,0
-31.845255997913,157.27984131014,22.533233323332,679243.21923552,-4329.920174655,2577555.6109746,27.733233323332,0,0
-31.845255979004,157.30139904117,22.537663766377,679243.21923552,-4329.920174655,2577555.6109746,27.737663766377,0,0
-31.845255960096,157.32295677221,22.542094209421,679243.21923552,-4329.920174655,2577555.6109746,27.742094209421,0,0
-31.845255941187,157.34451450324,22.546524652465,679243.21923552,-4329.920174655,2577555.6109746,27.746524652465,0,0
-31.845255922279,157.36607223428,22.55095509551,679243.21923552,-4329.920174655,2577555.6109746,27.75095509551,0,0
-31.84525590337,157.38762996531,22.555385538554,679243.21923552,-4329.920174655,2577555.6109746,27.755385538554,0,0
-31.845255884462,157.40918769635,22.559815981598,679243.21923552,-4329.920174655,2577555.6109746,27.759815981598,0,0
-31.845255865553,157.43074542738,22.564246424642,679243.21923552,-4329.920174655,2577555.6109746,27.764246424642,0,0
-31.845255846852,157.45230315873,22.568676867687,672630.19009772,-811.98905917297,2571911.4790826,27.768676867687,0,0
-31.845255828322,157.47386089033,22.573107310731,672630.19009772,-811.98905917297,2571911.4790826,27.773107310731,0,0
-31.845255809791,157.49541862193,22.577537753775,672630.19009772,-811.98905917297,2571911.4790826,27.777537753775,0,0
-31.84525579126,157.51697635353,22.58196819682,672630.19009772,-811.98905917297,2571911.4790826,27.78196819682,0,0
-31.84525577273,157.53853408513,22.586398639864,672630.19009772,-811.98905917297,2571911.4790826,27.786398639864,0,0
-31.845255754199,157.56009181673,22.590829082908,672630.19009772,-811.98905917297,2571911.4790826,27.790829082908,0,0
-31.845255735668,157.58164954833,22.595259525953,672630.19009772,-811.98905917297,2571911.4790826,27.795259525953,0,0
-31.845255717138,157.60320727993,22.599689968997,672630.19009772,-811.98905917297,2571911.4790826,27.799689968997,0,0
-31.845255698607,157.62476501153,22.604120412041,672630.19009772,-811.98905917297,2571911.4790826,27.804120412041,0,0
-31.845255680077,157.64632274313,22.608550855086,672630.19009772,-811.98905917297,2571911.4790826,27.808550855086,0,0
-31.845255661546,157.66788047473,22.61298129813,672630.19009772,-811.98905917297,2571911.4790826,27.81298129813,0,0
-31.845255643015,157.68943820633,22.617411741174,672630.19009772,-811.98905917297,2571911.4790826,27.817411741174,0,0
-31.845255624485,157.71099593793,22.621842184218,672630.19009772,-811.98905917297,2571911.4790826,27.821842184218,0,0
-31.845255605954,157.73255366953,22.626272627263,672630.19009772,-811.98905917297,2571911.4790826,27.826272627263,0,0
-31.845255587423,157.75411140114,22.630703070307,672630.19009772,-811.98905917297,2571911.4790826,27.830703070307,0,0
-31.845255568893,157.77566913274,22.635133513351,672630.19009772,-811.98905917297,2571911.4790826,27.835133513351,0,0
-31.845255550362,157.79722686434,22.639563956396,672630.19009772,-811.98905917297,2571911.4790826,27.839563956396,0,0
-31.845255531832,157.81878459594,22.64399439944,672630.19009772,-811.98905917297,2571911.4790826,27.84399439944,0,0
-31.845255513301,157.84034232754,22.648424842484,672630.19009772,-811.98905917297,2571911.4790826,27.848424842484,0,0
-31.84525549477,157.86190005914,22.652855285529,672630.19009772,-811.98905917297,2571911.4790826,27.852855285529,0,0
-31.84525547624,157.88345779074,22.657285728573,672630.19009772,-811.98905917297,2571911.4790826,27.857285728573,0,0
-31.845255457709,157.90501552234,22.661716171617,672630.19009772,-811.98905917297,2571911.4790826,27.861716171617,0,0
-31.845255439178,157.92657325394,22.666146614661,672630.19009772,-811.98905917297,2571911.4790826,27.866146614661,0,0
-31.845255420648,157.94813098554,22.670577057706,672630.19009772,-811.98905917297,2571911.4790826,27.870577057706,0,0
-31.845255402117,157.96968871714,22.67500750075,672630.19009772,-811.98905917297,2571911.4790826,27.87500750075,0,0
-31.845255383587,157.99124644874,22.679437943794,672630.19009772,-811.98905917297,2571911.4790826,27.879437943794,0,0
-31.845255365056,158.01280418034,22.683868386839,672630.19009772,-811.98905917297,2571911.4790826,27.883868386839,0,0
-31.845255346525,158.03436191194,22.688298829883,672630.19009772,-811.98905917297,2571911.4790826,27.888298829883,0,0
-31.845255327995,158.05591964354,22.692729272927,672630.19009772,-811.98905917297,2571911.4790826,27.892729272927,0,0
-31.845255309464,158.07747737514,22.697159715972,672630.19009772,-811.98905917297,2571911.4790826,27.897159715972,0,0
-31.845255290933,158.09903510674,22.701590159016,672630.19009772,-811.98905917297,2571911.4790826,27.901590159016,0,0
-31.845255272403,158.12059283834,22.70602060206,672630.19009772,-811.98905917297,2571911.4790826,27.90602060206,0,0
-31.845255253872,158.14215056995,22.710451045105,672630.19009772,-811.98905917297,2571911.4790826,27.910451045105,0,0
-31.845255235342,158.16370830155,22.714881488149,672630.19009772,-811.98905917297,2571911.4790826,27.914881488149,0,0
-31.845255216811,158.18526603315,22.719311931193,672630.19009772,-811.98905917297,2571911.4790826,27.919311931193,0,0
-31.84525519828,158.20682376475,22.723742374237,672630.19009772,-811.98905917297,2571911.4790826,27.923742374237,0,0
-31.84525517975,158.22838149635,22.728172817282,672630.19009772,-811.98905917297,2571911.4790826,27.928172817282,0,0
-31.845255161219,158.24993922795,22.732603260326,672630.19009772,-811.98905917297,2571911.4790826,27.932603260326,0,0
-31.845255142688,158.27149695955,22.73703370337,672630.19009772,-811.98905917297,2571911.4790826,27.93703370337,0,0
-31.845255124158,158.29305469115,22.741464146415,672630.19009772,-811.98905917297,2571911.4790826,27.941464146415,0,0
-31.845255105627,158.31461242275,22.745894589459,672630.19009772,-811.98905917297,2571911.4790826,27.945894589459,0,0
-31.845255087097,158.33617015435,22.750325032503,672630.19009772,-811.98905917297,2571911.4790826,27.950325032503,0,0
-31.845255068566,158.35772788595,22.754755475548,672630.19009772,-811.98905917297,2571911.4790826,27.954755475548,0,0
-31.845255050035,158.37928561755,22.759185918592,672630.19009772,-811.98905917297,2571911.4790826,27.959185918592,0,0
-31.845255031505,158.40084334915,22.763616361636,672630.19009772,-811.98905917297,2571911.4790826,27.963616361636,0,0
-31.845255012974,158.42240108075,22.76804680468,672630.19009772,-811.98905917297,2571911.4790826,27.96804680468,0,0
-31.845254994443,158.44395881235,22.772477247725,672630.19009772,-811.98905917297,2571911.4790826,27.972477247725,0,0
-31.845254975913,158.46551654395,22.776907690769,672630.19009772,-811.98905917297,2571911.4790826,27.976907690769,0,0
-31.845254957382,158.48707427555,22.781338133813,672630.19009772,-811.98905917297,2571911.4790826,27.981338133813,0,0
-31.845254938852,158.50863200716,22.785768576858,672630.19009772,-811.98905917297,2571911.4790826,27.985768576858,0,0
-31.845254920321,158.53018973876,22.790199019902,672630.19009772,-811.98905917297,2571911.4790826,27.990199019902,0,0
-31.84525490179,158.55174747036,22.794629462946,672630.19009772,-811.98905917297,2571911.4790826,27.994629462946,0,0
-31.84525488326,158.57330520196,22.799059905991,672630.19009772,-811.98905917297,2571911.4790826,27.999059905991,0,0
-31.845254864729,158.59486293356,22.803490349035,672630.19009772,-811.98905917297,2571911.4790826,28.003490349035,0,0
-31.845254846198,158.61642066516,22.807920792079,672630.19009772,-811.98905917297,2571911.4790826,28.007920792079,0,0
-31.845254827668,158.63797839676,22.812351235124,672630.19009772,-811.98905917297,2571911.4790826,28.012351235124,0,0
-31.845254809137,158.65953612836,22.816781678168,672630.19009772,-811.98905917297,2571911.4790826,28.016781678168,0,0
-31.845254790607,158.68109385996,22.821212121212,672630.19009772,-811.98905917297,2571911.4790826,28.021212121212,0,0
-31.845254772076,158.70265159156,22.825642564256,672630.19009772,-811.98905917297,2571911.4790826,28.025642564256,0,0
-31.84525475352,158.72420932285,22.830073007301,671479.32705552,-3426.5868333706,2566663.1096976,28.030073007301,0,0
-31.845254734942,158.74576705386,22.834503450345,671479.32705552,-3426.5868333706,2566663.1096976,28.034503450345,0,0
-31.845254716363,158.76732478487,22.838933893389,671479.32705552,-3426.5868333706,2566663.1096976,28.038933893389,0,0
-31.845254697785,158.78888251588,22.843364336434,671479.32705552,-3426.5868333706,2566663.1096976,28.043364336434,0,0
-31.845254679206,158.8104402469,22.847794779478,671479.32705552,-3426.5868333706,2566663.1096976,28.047794779478,0,0
-31.845254660628,158.83199797791,22.852225222522,671479.32705552,-3426.5868333706,2566663.1096976,28.052225222522,0,0
-31.845254642049,158.85355570892,22.856655665567,671479.32705552,-3426.5868333706,2566663.1096976,28.056655665567,0,0
-31.845254623471,158.87511343993,22.861086108611,671479.32705552,-3426.5868333706,2566663.1096976,28.061086108611,0,0
-31.845254604892,158.89667117095,22.865516551655,671479.32705552,-3426.5868333706,2566663.1096976,28.065516551655,0,0
-31.845254586314,158.91822890196,22.869946994699,671479.32705552,-3426.5868333706,2566663.1096976,28.069946994699,0,0
-31.845254567736,158.93978663297,22.874377437744,671479.32705552,-3426.5868333706,2566663.1096976,28.074377437744,0,0
-31.845254549157,158.96134436398,22.878807880788,671479.32705552,-3426.5868333706,2566663.1096976,28.078807880788,0,0
-31.845254530579,158.98290209499,22.883238323832,671479.32705552,-3426.5868333706,2566663.1096976,28.083238323832,0,0
-31.845254512,159.00445982601,22.887668766877,671479.32705552,-3426.5868333706,2566663.1096976,28.087668766877,0,0
-31.845254493422,159.02601755702,22.892099209921,671479.32705552,-3426.5868333706,2566663.1096976,28.092099209921,0,0
-31.845254474843,159.04757528803,22.896529652965,671479.32705552,-3426.5868333706,2566663.1096976,28.096529652965,0,0
-31.845254456265,159.06913301904,22.90096009601,671479.32705552,-3426.5868333706,2566663.1096976,28.10096009601,0,0
-31.845254437687,159.09069075005,22.905390539054,671479.32705552,-3426.5868333706,2566663.1096976,28.105390539054,0,0
-31.845254419108,159.11224848107,22.909820982098,671479.32705552,-3426.5868333706,2566663.1096976,28.109820982098,0,0
-31.84525440053,159.13380621208,22.914251425143,671479.32705552,-3426.5868333706,2566663.1096976,28.114251425143,0,0
-31.845254381951,159.15536394309,22.918681868187,671479.32705552,-3426.5868333706,2566663.1096976,28.118681868187,0,0
-31.845254363373,159.1769216741,22.923112311231,671479.32705552,-3426.5868333706,2566663.1096976,28.123112311231,0,0
-31.845254344794,159.19847940511,22.927542754275,671479.32705552,-3426.5868333706,2566663.1096976,28.127542754275,0,0
-31.845254326216,159.22003713613,22.93197319732,671479.32705552,-3426.5868333706,2566663.1096976,28.13197319732,0,0
-31.845254307637,159.24159486714,22.936403640364,671479.32705552,-3426.5868333706,2566663.1096976,28.136403640364,0,0
-31.845254289059,159.26315259815,22.940834083408,671479.32705552,-3426.5868333706,2566663.1096976,28.140834083408,0,0
-31.845254270481,159.28471032916,22.945264526453,671479.32705552,-3426.5868333706,2566663.1096976,28.145264526453,0,0
-31.845254251902,159.30626806017,22.949694969497,671479.32705552,-3426.5868333706,2566663.1096976,28.149694969497,0,0
-31.845254233324,159.32782579119,22.954125412541,671479.32705552,-3426.5868333706,2566663.1096976,28.154125412541,0,0
-31.845254214745,159.3493835222,22.958555855586,671479.32705552,-3426.5868333706,2566663.1096976,28.158555855586,0,0
-31.845254196167,159.37094125321,22.96298629863,671479.32705552,-3426.5868333706,2566663.1096976,28.16298629863,0,0
-31.845254177588,159.39249898422,22.967416741674,671479.32705552,-3426.5868333706,2566663.1096976,28.167416741674,0,0
-31.84525415901,159.41405671524,22.971847184718,671479.32705552,-3426.5868333706,2566663.1096976,28.171847184718,0,0
-31.845254140432,159.43561444625,22.976277627763,671479.32705552,-3426.5868333706,2566663.1096976,28.176277627763,0,0
-31.845254121853,159.45717217726,22.980708070807,671479.32705552,-3426.5868333706,2566663.1096976,28.180708070807,0,0
-31.845254103275,159.47872990827,22.985138513851,671479.32705552,-3426.5868333706,2566663.1096976,28.185138513851,0,0
-31.845254084696,159.50028763928,22.989568956896,671479.32705552,-3426.5868333706,2566663.1096976,28.189568956896,0,0
-31.845254066118,159.5218453703,22.99399939994,671479.32705552,-3426.5868333706,2566663.1096976,28.19399939994,0,0
-31.845254047539,159.54340310131,22.998429842984,671479.32705552,-3426.5868333706,2566663.1096976,28.198429842984,0,0
-31.845254028961,159.56496083232,23.002860286029,671479.32705552,-3426.5868333706,2566663.1096976,28.202860286029,0,0
-31.845254010382,159.58651856333,23.007290729073,671479.32705552,-3426.5868333706,2566663.1096976,28.207290729073,0,0
-31.845253991804,159.60807629434,23.011721172117,671479.32705552,-3426.5868333706,2566663.1096976,28.211721172117,0,0
-31.845253973226,159.62963402536,23.016151615162,671479.32705552,-3426.5868333706,2566663.1096976,28.216151615162,0,0
-31.845253954647,159.65119175637,23.020582058206,671479.32705552,-3426.5868333706,2566663.1096976,28.220582058206,0,0
-31.845253936069,159.67274948738,23.02501250125,671479.32705552,-3426.5868333706,2566663.1096976,28.22501250125,0,0
-31.84525391749,159.69430721839,23.029442944294,671479.32705552,-3426.5868333706,2566663.1096976,28.229442944294,0,0
-31.845253898912,159.7158649494,23.033873387339,671479.32705552,-3426.5868333706,2566663.1096976,28.233873387339,0,0
-31.845253880333,159.73742268042,23.038303830383,671479.32705552,-3426.5868333706,2566663.1096976,28.238303830383,0,0
-31.845253861755,159.75898041143,23.042734273427,671479.32705552,-3426.5868333706,2566663.1096976,28.242734273427,0,0
-31.845253843177,159.78053814244,23.047164716472,671479.32705552,-3426.5868333706,2566663.1096976,28.247164716472,0,0
-31.845253824598,159.80209587345,23.051595159516,671479.32705552,-3426.5868333706,2566663.1096976,28.251595159516,0,0
-31.84525380602,159.82365360446,23.05602560256,671479.32705552,-3426.5868333706,2566663.1096976,28.25602560256,0,0
-31.845253787441,159.84521133548,23.060456045605,671479.32705552,-3426.5868333706,2566663.1096976,28.260456045605,0,0
-31.845253768863,159.86676906649,23.064886488649,671479.32705552,-3426.5868333706,2566663.1096976,28.264886488649,0,0
-31.845253750284,159.8883267975,23.069316931693,671479.32705552,-3426.5868333706,2566663.1096976,28.269316931693,0,0
-31.845253731706,159.90988452851,23.073747374737,671479.32705552,-3426.5868333706,2566663.1096976,28.273747374737,0,0
-31.845253713128,159.93144225953,23.078177817782,671479.32705552,-3426.5868333706,2566663.1096976,28.278177817782,0,0
-31.845253694549,159.95299999054,23.082608260826,671479.32705552,-3426.5868333706,2566663.1096976,28.282608260826,0,0
-31.845253675971,159.97455772155,23.08703870387,671479.32705552,-3426.5868333706,2566663.1096976,28.28703870387,0,0
-31.845253657392,159.99611545256,23.091469146915,671479.32705552,-3426.5868333706,2566663.1096976,28.291469146915,0,0
-31.845253638814,160.01767318357,23.095899589959,671479.32705552,-3426.5868333706,2566663.1096976,28.295899589959,0,0
-31.845253620235,160.03923091459,23.100330033003,671479.32705552,-3426.5868333706,2566663.1096976,28.300330033003,0,0
-31.845253601657,160.0607886456,23.104760476048,671479.32705552,-3426.5868333706,2566663.1096976,28.304760476048,0,0
-31.845253583078,160.08234637661,23.109190919092,671479.32705552,-3426.5868333706,2566663.1096976,28.309190919092,0,0
-31.8452535645,160.10390410762,23.113621362136,671479.32705552,-3426.5868333706,2566663.1096976,28.313621362136,0,0
-31.845253545922,160.12546183863,23.118051805181,671479.32705552,-3426.5868333706,2566663.1096976,28.318051805181,0,0
-31.845253527343,160.14701956965,23.122482248225,671479.32705552,-3426.5868333706,2566663.1096976,28.322482248225,0,0
-31.845253508765,160.16857730066,23.126912691269,671479.32705552,-3426.5868333706,2566663.1096976,28.326912691269,0,0
-31.845253490186,160.19013503167,23.131343134313,671479.32705552,-3426.5868333706,2566663.1096976,28.331343134313,0,0
-31.845253471608,160.21169276268,23.135773577358,671479.32705552,-3426.5868333706,2566663.1096976,28.335773577358,0,0
-31.845253453029,160.23325049369,23.140204020402,671479.32705552,-3426.5868333706,2566663.1096976,28.340204020402,0,0
-31.845253434451,160.25480822471,23.144634463446,671479.32705552,-3426.5868333706,2566663.1096976,28.344634463446,0,0
-31.845253415873,160.27636595572,23.149064906491,671479.32705552,-3426.5868333706,2566663.1096976,28.349064906491,0,0
-31.845253397294,160.29792368673,23.153495349535,671479.32705552,-3426.5868333706,2566663.1096976,28.353495349535,0,0
-31.845253378716,160.31948141774,23.157925792579,671479.32705552,-3426.5868333706,2566663.1096976,28.357925792579,0,0
-31.845253360137,160.34103914876,23.162356235624,671479.32705552,-3426.5868333706,2566663.1096976,28.362356235624,0,0
-31.845253341559,160.36259687977,23.166786678668,671479.32705552,-3426.5868333706,2566663.1096976,28.366786678668,0,0
-31.84525332298,160.38415461078,23.171217121712,671479.32705552,-3426.5868333706,2566663.1096976,28.371217121712,0,0
-31.845253304402,160.40571234179,23.175647564756,671479.32705552,-3426.5868333706,2566663.1096976,28.375647564756,0,0
-31.845253285823,160.4272700728,23.180078007801,671479.32705552,-3426.5868333706,2566663.1096976,28.380078007801,0,0
-31.845253267245,160.44882780382,23.184508450845,671479.32705552,-3426.5868333706,2566663.1096976,28.384508450845,0,0
-31.845253248667,160.47038553483,23.188938893889,671479.32705552,-3426.5868333706,2566663.1096976,28.388938893889,0,0
-31.845253230088,160.49194326584,23.193369336934,671479.32705552,-3426.5868333706,2566663.1096976,28.393369336934,0,0
-31.84525321151,160.51350099685,23.197799779978,671479.32705552,-3426.5868333706,2566663.1096976,28.397799779978,0,0
-31.845253192931,160.53505872786,23.202230223022,671479.32705552,-3426.5868333706,2566663.1096976,28.402230223022,0,0
-31.845253174353,160.55661645888,23.206660666067,671479.32705552,-3426.5868333706,2566663.1096976,28.406660666067,0,0
-31.845253155774,160.57817418989,23.211091109111,671479.32705552,-3426.5868333706,2566663.1096976,28.411091109111,0,0
-31.845253137196,160.5997319209,23.215521552155,671479.32705552,-3426.5868333706,2566663.1096976,28.415521552155,0,0
-31.845253118618,160.62128965191,23.2199519952,671479.32705552,-3426.5868333706,2566663.1096976,28.4199519952,0,0
-31.845253100039,160.64284738292,23.224382438244,671479.32705552,-3426.5868333706,2566663.1096976,28.424382438244,0,0
-31.845253081461,160.66440511394,23.228812881288,671479.32705552,-3426.5868333706,2566663.1096976,28.428812881288,0,0
-31.845253062882,160.68596284495,23.233243324332,671479.32705552,-3426.5868333706,2566663.1096976,28.433243324332,0,0
-31.845253044304,160.70752057596,23.237673767377,671479.32705552,-3426.5868333706,2566663.1096976,28.437673767377,0,0
-31.845253025725,160.72907830697,23.242104210421,671479.32705552,-3426.5868333706,2566663.1096976,28.442104210421,0,0
-31.845253007147,160.75063603798,23.246534653465,671479.32705552,-3426.5868333706,2566663.1096976,28.446534653465,0,0
-31.845252988568,160.772193769,23.25096509651,671479.32705552,-3426.5868333706,2566663.1096976,28.45096509651,0,0
-31.84525296999,160.79375150001,23.255395539554,671479.32705552,-3426.5868333706,2566663.1096976,28.455395539554,0,0
-31.845252951412,160.81530923102,23.259825982598,671479.32705552,-3426.5868333706,2566663.1096976,28.459825982598,0,0
-31.845252932833,160.83686696203,23.264256425643,671479.32705552,-3426.5868333706,2566663.1096976,28.464256425643,0,0
-31.845252914255,160.85842469305,23.268686868687,671479.32705552,-3426.5868333706,2566663.1096976,28.468686868687,0,0
-31.845252895676,160.87998242406,23.273117311731,671479.32705552,-3426.5868333706,2566663.1096976,28.473117311731,0,0
-31.845252877098,160.90154015507,23.277547754775,671479.32705552,-3426.5868333706,2566663.1096976,28.477547754775,0,0
-31.845252858519,160.92309788608,23.28197819782,671479.32705552,-3426.5868333706,2566663.1096976,28.48197819782,0,0
-31.845252839941,160.94465561709,23.286408640864,671479.32705552,-3426.5868333706,2566663.1096976,28.486408640864,0,0
-31.845252821363,160.96621334811,23.290839083908,671479.32705552,-3426.5868333706,2566663.1096976,28.490839083908,0,0
-31.845252802784,160.98777107912,23.295269526953,671479.32705552,-3426.5868333706,2566663.1096976,28.495269526953,0,0
-31.845252784206,161.00932881013,23.299699969997,671479.32705552,-3426.5868333706,2566663.1096976,28.499699969997,0,0
-31.845252765627,161.03088654114,23.304130413041,671479.32705552,-3426.5868333706,2566663.1096976,28.504130413041,0,0
-31.845252747049,161.05244427215,23.308560856086,671479.32705552,-3426.5868333706,2566663.1096976,28.508560856086,0,0
-31.84525272847,161.07400200317,23.31299129913,671479.32705552,-3426.5868333706,2566663.1096976,28.51299129913,0,0
-31.845252709892,161.09555973418,23.317421742174,671479.32705552,-3426.5868333706,2566663.1096976,28.517421742174,0,0
-31.845252691314,161.11711746519,23.321852185219,671479.32705552,-3426.5868333706,2566663.1096976,28.521852185219,0,0
-31.845252672735,161.1386751962,23.326282628263,671479.32705552,-3426.5868333706,2566663.1096976,28.526282628263,0,0
-31.845252654157,161.16023292721,23.330713071307,671479.32705552,-3426.5868333706,2566663.1096976,28.530713071307,0,0
-31.845252635578,161.18179065823,23.335143514351,671479.32705552,-3426.5868333706,2566663.1096976,28.535143514351,0,0
-31.845252617,161.20334838924,23.339573957396,671479.32705552,-3426.5868333706,2566663.1096976,28.539573957396,0,0
-31.845252598421,161.22490612025,23.34400440044,671479.32705552,-3426.5868333706,2566663.1096976,28.54400440044,0,0
-31.845252579843,161.24646385126,23.348434843484,671479.32705552,-3426.5868333706,2566663.1096976,28.548434843484,0,0
-31.845252561264,161.26802158227,23.352865286529,671479.32705552,-3426.5868333706,2566663.1096976,28.552865286529,0,0
-31.845252542686,161.28957931329,23.357295729573,671479.32705552,-3426.5868333706,2566663.1096976,28.557295729573,0,0
-31.845252524108,161.3111370443,23.361726172617,671479.32705552,-3426.5868333706,2566663.1096976,28.561726172617,0,0
-31.845252505529,161.33269477531,23.366156615662,671479.32705552,-3426.5868333706,2566663.1096976,28.566156615662,0,0
-31.845252486951,161.35425250632,23.370587058706,671479.32705552,-3426.5868333706,2566663.1096976,28.570587058706,0,0
-31.845252468372,161.37581023734,23.37501750175,671479.32705552,-3426.5868333706,2566663.1096976,28.57501750175,0,0
-31.845252449794,161.39736796835,23.379447944794,671479.32705552,-3426.5868333706,2566663.1096976,28.579447944794,0,0
-31.845252431215,161.41892569936,23.383878387839,671479.32705552,-3426.5868333706,2566663.1096976,28.583878387839,0,0
-31.845252412637,161.44048343037,23.388308830883,671479.32705552,-3426.5868333706,2566663.1096976,28.588308830883,0,0
-31.845252394059,161.46204116138,23.392739273927,671479.32705552,-3426.5868333706,2566663.1096976,28.592739273927,0,0
-31.84525237548,161.4835988924,23.397169716972,671479.32705552,-3426.5868333706,2566663.1096976,28.597169716972,0,0
-31.845252356902,161.50515662341,23.401600160016,671479.32705552,-3426.5868333706,2566663.1096976,28.601600160016,0,0
-31.845252338323,161.52671435442,23.40603060306,671479.32705552,-3426.5868333706,2566663.1096976,28.60603060306,0,0
-31.845252319745,161.54827208543,23.410461046105,671479.32705552,-3426.5868333706,2566663.1096976,28.610461046105,0,0
-31.845252301166,161.56982981644,23.414891489149,671479.32705552,-3426.5868333706,2566663.1096976,28.614891489149,0,0
-31.845252282588,161.59138754746,23.419321932193,671479.32705552,-3426.5868333706,2566663.1096976,28.619321932193,0,0
-31.845252264009,161.61294527847,23.423752375238,671479.32705552,-3426.5868333706,2566663.1096976,28.623752375238,0,0
-31.845252245431,161.63450300948,23.428182818282,671479.32705552,-3426.5868333706,2566663.1096976,28.628182818282,0,0
-31.845252226853,161.65606074049,23.432613261326,671479.32705552,-3426.5868333706,2566663.1096976,28.632613261326,0,0
-31.845252208274,161.6776184715,23.43704370437,671479.32705552,-3426.5868333706,2566663.1096976,28.63704370437,0,0
-31.845252189696,161.69917620252,23.441474147415,671479.32705552,-3426.5868333706,2566663.1096976,28.641474147415,0,0
-31.845252171117,161.72073393353,23.445904590459,671479.32705552,-3426.5868333706,2566663.1096976,28.645904590459,0,0
-31.845252152539,161.74229166454,23.450335033503,671479.32705552,-3426.5868333706,2566663.1096976,28.650335033503,0,0
-31.84525213396,161.76384939555,23.454765476548,671479.32705552,-3426.5868333706,2566663.1096976,28.654765476548,0,0
-31.845252115382,161.78540712657,23.459195919592,671479.32705552,-3426.5868333706,2566663.1096976,28.659195919592,0,0
-31.845252096804,161.80696485758,23.463626362636,671479.32705552,-3426.5868333706,2566663.1096976,28.663626362636,0,0
-31.845252078225,161.82852258859,23.468056805681,671479.32705552,-3426.5868333706,2566663.1096976,28.668056805681,0,0
-31.845252059647,161.8500803196,23.472487248725,671479.32705552,-3426.5868333706,2566663.1096976,28.672487248725,0,0
-31.845252041068,161.87163805061,23.476917691769,671479.32705552,-3426.5868333706,2566663.1096976,28.676917691769,0,0
-31.84525202249,161.89319578163,23.481348134813,671479.32705552,-3426.5868333706,2566663.1096976,28.681348134813,0,0
-31.845252003911,161.91475351264,23.485778577858,671479.32705552,-3426.5868333706,2566663.1096976,28.685778577858,0,0
-31.845251985333,161.93631124365,23.490209020902,671479.32705552,-3426.5868333706,2566663.1096976,28.690209020902,0,0
-31.845251966754,161.95786897466,23.494639463946,671479.32705552,-3426.5868333706,2566663.1096976,28.694639463946,0,0
-31.845251948176,161.97942670567,23.499069906991,671479.32705552,-3426.5868333706,2566663.1096976,28.699069906991,0,0
-31.845251929598,162.00098443669,23.503500350035,671479.32705552,-3426.5868333706,2566663.1096976,28.703500350035,0,0
-31.845251911019,162.0225421677,23.507930793079,671479.32705552,-3426.5868333706,2566663.1096976,28.707930793079,0,0
-31.845251892441,162.04409989871,23.512361236124,671479.32705552,-3426.5868333706,2566663.1096976,28.712361236124,0,0
-31.845251873862,162.06565762972,23.516791679168,671479.32705552,-3426.5868333706,2566663.1096976,28.716791679168,0,0
-31.845251855284,162.08721536073,23.521222122212,671479.32705552,-3426.5868333706,2566663.1096976,28.721222122212,0,0
-31.845251836705,162.10877309175,23.525652565257,671479.32705552,-3426.5868333706,2566663.1096976,28.725652565257,0,0
-31.845251818127,162.13033082276,23.530083008301,671479.32705552,-3426.5868333706,2566663.1096976,28.730083008301,0,0
-31.845251799549,162.15188855377,23.534513451345,671479.32705552,-3426.5868333706,2566663.1096976,28.734513451345,0,0
-31.84525178097,162.17344628478,23.538943894389,671479.32705552,-3426.5868333706,2566663.1096976,28.738943894389,0,0
-31.845251762392,162.19500401579,23.543374337434,671479.32705552,-3426.5868333706,2566663.1096976,28.743374337434,0,0
-31.845251743813,162.21656174681,23.547804780478,671479.32705552,-3426.5868333706,2566663.1096976,28.747804780478,0,0
-31.845251725235,162.23811947782,23.552235223522,671479.32705552,-3426.5868333706,2566663.1096976,28.752235223522,0,0
-31.845251706656,162.25967720883,23.556665666567,671479.32705552,-3426.5868333706,2566663.1096976,28.756665666567,0,0
-31.845251688078,162.28123493984,23.561096109611,671479.32705552,-3426.5868333706,2566663.1096976,28.761096109611,0,0
-31.8452516695,162.30279267086,23.565526552655,671479.32705552,-3426.5868333706,2566663.1096976,28.765526552655,0,0
-31.845251650921,162.32435040187,23.5699569957,671479.32705552,-3426.5868333706,2566663.1096976,28.7699569957,0,0
-31.845251632343,162.34590813288,23.574387438744,671479.32705552,-3426.5868333706,2566663.1096976,28.774387438744,0,0
-31.845251613764,162.36746586389,23.578817881788,671479.32705552,-3426.5868333706,2566663.1096976,28.778817881788,0,0
-31.845251595186,162.3890235949,23.583248324832,671479.32705552,-3426.5868333706,2566663.1096976,28.783248324832,0,0
-31.845251576607,162.41058132592,23.587678767877,671479.32705552,-3426.5868333706,2566663.1096976,28.787678767877,0,0
-31.845251558029,162.43213905693,23.592109210921,671479.32705552,-3426.5868333706,2566663.1096976,28.792109210921,0,0
-31.84525153945,162.45369678794,23.596539653965,671479.32705552,-3426.5868333706,2566663.1096976,28.796539653965,0,0
-31.845251520872,162.47525451895,23.60097009701,671479.32705552,-3426.5868333706,2566663.1096976,28.80097009701,0,0
-31.845251502294,162.49681224996,23.605400540054,671479.32705552,-3426.5868333706,2566663.1096976,28.805400540054,0,0
-31.845251483715,162.51836998098,23.609830983098,671479.32705552,-3426.5868333706,2566663.1096976,28.809830983098,0,0
-31.845251465137,162.53992771199,23.614261426143,671479.32705552,-3426.5868333706,2566663.1096976,28.814261426143,0,0
-31.845251446558,162.561485443,23.618691869187,671479.32705552,-3426.5868333706,2566663.1096976,28.818691869187,0,0
-31.84525142798,162.58304317401,23.623122312231,671479.32705552,-3426.5868333706,2566663.1096976,28.823122312231,0,0
-31.845251409401,162.60460090502,23.627552755276,671479.32705552,-3426.5868333706,2566663.1096976,28.827552755276,0,0
-31.845251390823,162.62615863604,23.63198319832,671479.32705552,-3426.5868333706,2566663.1096976,28.83198319832,0,0
-31.845251372245,162.64771636705,23.636413641364,671479.32705552,-3426.5868333706,2566663.1096976,28.836413641364,0,0
-31.845251353666,162.66927409806,23.640844084408,671479.32705552,-3426.5868333706,2566663.1096976,28.840844084408,0,0
-31.845251335088,162.69083182907,23.645274527453,671479.32705552,-3426.5868333706,2566663.1096976,28.845274527453,0,0
-31.845251316509,162.71238956008,23.649704970497,671479.32705552,-3426.5868333706,2566663.1096976,28.849704970497,0,0
-31.845251297931,162.7339472911,23.654135413541,671479.32705552,-3426.5868333706,2566663.1096976,28.854135413541,0,0
-31.845251279352,162.75550502211,23.658565856586,671479.32705552,-3426.5868333706,2566663.1096976,28.858565856586,0,0
-31.845251260774,162.77706275312,23.66299629963,671479.32705552,-3426.5868333706,2566663.1096976,28.86299629963,0,0
-31.845251242195,162.79862048413,23.667426742674,671479.32705552,-3426.5868333706,2566663.1096976,28.867426742674,0,0
-31.845251223617,162.82017821515,23.671857185719,671479.32705552,-3426.5868333706,2566663.1096976,28.871857185719,0,0
-31.845251205039,162.84173594616,23.676287628763,671479.32705552,-3426.5868333706,2566663.1096976,28.876287628763,0,0
-31.84525118646,162.86329367717,23.680718071807,671479.32705552,-3426.5868333706,2566663.1096976,28.880718071807,0,0
-31.845251167882,162.88485140818,23.685148514851,671479.32705552,-3426.5868333706,2566663.1096976,28.885148514851,0,0
-31.845251149303,162.90640913919,23.689578957896,671479.32705552,-3426.5868333706,2566663.1096976,28.889578957896,0,0
-31.845251130725,162.92796687021,23.69400940094,671479.32705552,-3426.5868333706,2566663.1096976,28.89400940094,0,0
-31.845251112146,162.94952460122,23.698439843984,671479.32705552,-3426.5868333706,2566663.1096976,28.898439843984,0,0
-31.845251093568,162.97108233223,23.702870287029,671479.32705552,-3426.5868333706,2566663.1096976,28.902870287029,0,0
-31.84525107499,162.99264006324,23.707300730073,671479.32705552,-3426.5868333706,2566663.1096976,28.907300730073,0,0
-31.845251056411,163.01419779425,23.711731173117,671479.32705552,-3426.5868333706,2566663.1096976,28.911731173117,0,0
-31.845251037833,163.03575552527,23.716161616162,671479.32705552,-3426.5868333706,2566663.1096976,28.916161616162,0,0
-31.845251019254,163.05731325628,23.720592059206,671479.32705552,-3426.5868333706,2566663.1096976,28.920592059206,0,0
-31.845251000676,163.07887098729,23.72502250225,671479.32705552,-3426.5868333706,2566663.1096976,28.92502250225,0,0
-31.845250982097,163.1004287183,23.729452945295,671479.32705552,-3426.5868333706,2566663.1096976,28.929452945295,0,0
-31.845250963519,163.12198644931,23.733883388339,671479.32705552,-3426.5868333706,2566663.1096976,28.933883388339,0,0
-31.84525094494,163.14354418033,23.738313831383,671479.32705552,-3426.5868333706,2566663.1096976,28.938313831383,0,0
-31.845250926362,163.16510191134,23.742744274427,671479.32705552,-3426.5868333706,2566663.1096976,28.942744274427,0,0
-31.845250907784,163.18665964235,23.747174717472,671479.32705552,-3426.5868333706,2566663.1096976,28.947174717472,0,0
-31.845250889205,163.20821737336,23.751605160516,671479.32705552,-3426.5868333706,2566663.1096976,28.951605160516,0,0
-31.845250870627,163.22977510438,23.75603560356,671479.32705552,-3426.5868333706,2566663.1096976,28.95603560356,0,0
-31.845250852048,163.25133283539,23.760466046605,671479.32705552,-3426.5868333706,2566663.1096976,28.960466046605,0,0
-31.84525083347,163.2728905664,23.764896489649,671479.32705552,-3426.5868333706,2566663.1096976,28.964896489649,0,0
-31.845250814891,163.29444829741,23.769326932693,671479.32705552,-3426.5868333706,2566663.1096976,28.969326932693,0,0
-31.845250796313,163.31600602842,23.773757375738,671479.32705552,-3426.5868333706,2566663.1096976,28.973757375738,0,0
-31.845250777735,163.33756375944,23.778187818782,671479.32705552,-3426.5868333706,2566663.1096976,28.978187818782,0,0
-31.845250759156,163.35912149045,23.782618261826,671479.32705552,-3426.5868333706,2566663.1096976,28.982618261826,0,0
-31.845250740578,163.38067922146,23.78704870487,671479.32705552,-3426.5868333706,2566663.1096976,28.98704870487,0,0
-31.845250721999,163.40223695247,23.791479147915,671479.32705552,-3426.5868333706,2566663.1096976,28.991479147915,0,0
-31.845250703421,163.42379468348,23.795909590959,671479.32705552,-3426.5868333706,2566663.1096976,28.995909590959,0,0
-31.845250684842,163.4453524145,23.800340034003,671479.32705552,-3426.5868333706,2566663.1096976,29.000340034003,0,0
-31.845250666264,163.46691014551,23.804770477048,671479.32705552,-3426.5868333706,2566663.1096976,29.004770477048,0,0
-31.845250647686,163.48846787652,23.809200920092,671479.32705552,-3426.5868333706,2566663.1096976,29.009200920092,0,0
-31.845250629107,163.51002560753,23.813631363136,671479.32705552,-3426.5868333706,2566663.1096976,29.013631363136,0,0
-31.845250610529,163.53158333854,23.818061806181,671479.32705552,-3426.5868333706,2566663.1096976,29.018061806181,0,0
-31.84525059195,163.55314106956,23.822492249225,671479.32705552,-3426.5868333706,2566663.1096976,29.022492249225,0,0
-31.845250573372,163.57469880057,23.826922692269,671479.32705552,-3426.5868333706,2566663.1096976,29.026922692269,0,0
-31.845250554793,163.59625653158,23.831353135314,671479.32705552,-3426.5868333706,2566663.1096976,29.031353135314,0,0
-31.845250536215,163.61781426259,23.835783578358,671479.32705552,-3426.5868333706,2566663.1096976,29.035783578358,0,0
-31.845250517636,163.6393719936,23.840214021402,671479.32705552,-3426.5868333706,2566663.1096976,29.040214021402,0,0
-31.845250499058,163.66092972462,23.844644464446,671479.32705552,-3426.5868333706,2566663.1096976,29.044644464446,0,0
-31.84525048048,163.68248745563,23.849074907491,671479.32705552,-3426.5868333706,2566663.1096976,29.049074907491,0,0
-31.845250461901,163.70404518664,23.853505350535,671479.32705552,-3426.5868333706,2566663.1096976,29.053505350535,0,0
-31.845250443323,163.72560291765,23.857935793579,671479.32705552,-3426.5868333706,2566663.1096976,29.057935793579,0,0
-31.845250424744,163.74716064867,23.862366236624,671479.32705552,-3426.5868333706,2566663.1096976,29.062366236624,0,0
-31.845250406166,163.76871837968,23.866796679668,671479.32705552,-3426.5868333706,2566663.1096976,29.066796679668,0,0
-31.845250387587,163.79027611069,23.871227122712,671479.32705552,-3426.5868333706,2566663.1096976,29.071227122712,0,0
-31.845250369009,163.8118338417,23.875657565757,671479.32705552,-3426.5868333706,2566663.1096976,29.075657565757,0,0
-31.845250350431,163.83339157271,23.880088008801,671479.32705552,-3426.5868333706,2566663.1096976,29.080088008801,0,0
-31.845250331852,163.85494930373,23.884518451845,671479.32705552,-3426.5868333706,2566663.1096976,29.084518451845,0,0
-31.845250313274,163.87650703474,23.888948894889,671479.32705552,-3426.5868333706,2566663.1096976,29.088948894889,0,0
-31.845250294695,163.89806476575,23.893379337934,671479.32705552,-3426.5868333706,2566663.1096976,29.093379337934,0,0
-31.845250276117,163.91962249676,23.897809780978,671479.32705552,-3426.5868333706,2566663.1096976,29.097809780978,0,0
-31.845250257538,163.94118022777,23.902240224022,671479.32705552,-3426.5868333706,2566663.1096976,29.102240224022,0,0
-31.84525023896,163.96273795879,23.906670667067,671479.32705552,-3426.5868333706,2566663.1096976,29.106670667067,0,0
-31.845250220381,163.9842956898,23.911101110111,671479.32705552,-3426.5868333706,2566663.1096976,29.111101110111,0,0
-31.845250201803,164.00585342081,23.915531553155,671479.32705552,-3426.5868333706,2566663.1096976,29.115531553155,0,0
-31.845250183225,164.02741115182,23.9199619962,671479.32705552,-3426.5868333706,2566663.1096976,29.1199619962,0,0
-31.845250164646,164.04896888283,23.924392439244,671479.32705552,-3426.5868333706,2566663.1096976,29.124392439244,0,0
-31.845250146068,164.07052661385,23.928822882288,671479.32705552,-3426.5868333706,2566663.1096976,29.128822882288,0,0
-31.845250127489,164.09208434486,23.933253325333,671479.32705552,-3426.5868333706,2566663.1096976,29.133253325333,0,0
-31.845250108911,164.11364207587,23.937683768377,671479.32705552,-3426.5868333706,2566663.1096976,29.137683768377,0,0
-31.845250090332,164.13519980688,23.942114211421,671479.32705552,-3426.5868333706,2566663.1096976,29.142114211421,0,0
-31.845250071754,164.15675753789,23.946544654465,671479.32705552,-3426.5868333706,2566663.1096976,29.146544654465,0,0
-31.845250053176,164.17831526891,23.95097509751,671479.32705552,-3426.5868333706,2566663.1096976,29.15097509751,0,0
-31.845250034597,164.19987299992,23.955405540554,671479.32705552,-3426.5868333706,2566663.1096976,29.155405540554,0,0
-31.845250016019,164.22143073093,23.959835983598,671479.32705552,-3426.5868333706,2566663.1096976,29.159835983598,0,0
-31.84524999744,164.24298846194,23.964266426643,671479.32705552,-3426.5868333706,2566663.1096976,29.164266426643,0,0
-31.845249978862,164.26454619296,23.968696869687,671479.32705552,-3426.5868333706,2566663.1096976,29.168696869687,0,0
-31.845249960283,164.28610392397,23.973127312731,671479.32705552,-3426.5868333706,2566663.1096976,29.173127312731,0,0
-31.845249941705,164.30766165498,23.977557755776,671479.32705552,-3426.5868333706,2566663.1096976,29.177557755776,0,0
-31.845249923126,164.32921938599,23.98198819882,671479.32705552,-3426.5868333706,2566663.1096976,29.18198819882,0,0
-31.845249904548,164.350777117,23.986418641864,671479.32705552,-3426.5868333706,2566663.1096976,29.186418641864,0,0
-31.84524988597,164.37233484802,23.990849084908,671479.32705552,-3426.5868333706,2566663.1096976,29.190849084908,0,0
-31.845249867391,164.39389257903,23.995279527953,671479.32705552,-3426.5868333706,2566663.1096976,29.195279527953,0,0
-31.845249848813,164.41545031004,23.999709970997,671479.32705552,-3426.5868333706,2566663.1096976,29.199709970997,0,0
-31.845249830234,164.43700804105,24.004140414041,671479.32705552,-3426.5868333706,2566663.1096976,29.204140414041,0,0
-31.845249811656,164.45856577206,24.008570857086,671479.32705552,-3426.5868333706,2566663.1096976,29.208570857086,0,0
-31.845249793077,164.48012350308,24.01300130013,671479.32705552,-3426.5868333706,2566663.1096976,29.21300130013,0,0
-31.845249774499,164.50168123409,24.017431743174,671479.32705552,-3426.5868333706,2566663.1096976,29.217431743174,0,0
-31.845249755921,164.5232389651,24.021862186219,671479.32705552,-3426.5868333706,2566663.1096976,29.221862186219,0,0
-31.845249737342,164.54479669611,24.026292629263,671479.32705552,-3426.5868333706,2566663.1096976,29.226292629263,0,0
-31.845249718764,164.56635442712,24.030723072307,671479.32705552,-3426.5868333706,2566663.1096976,29.230723072307,0,0
-31.845249700185,164.58791215814,24.035153515352,671479.32705552,-3426.5868333706,2566663.1096976,29.235153515352,0,0
-31.845249681607,164.60946988915,24.039583958396,671479.32705552,-3426.5868333706,2566663.1096976,29.239583958396,0,0
-31.845249663028,164.63102762016,24.04401440144,671479.32705552,-3426.5868333706,2566663.1096976,29.24401440144,0,0
-31.84524964445,164.65258535117,24.048444844484,671479.32705552,-3426.5868333706,2566663.1096976,29.248444844484,0,0
-31.845249625872,164.67414308219,24.052875287529,671479.32705552,-3426.5868333706,2566663.1096976,29.252875287529,0,0
-31.845249607293,164.6957008132,24.057305730573,671479.32705552,-3426.5868333706,2566663.1096976,29.257305730573,0,0
-31.845249588715,164.71725854421,24.061736173617,671479.32705552,-3426.5868333706,2566663.1096976,29.261736173617,0,0
-31.845249570136,164.73881627522,24.066166616662,671479.32705552,-3426.5868333706,2566663.1096976,29.266166616662,0,0
-31.845249551558,164.76037400623,24.070597059706,671479.32705552,-3426.5868333706,2566663.1096976,29.270597059706,0,0
-31.845249532979,164.78193173725,24.07502750275,671479.32705552,-3426.5868333706,2566663.1096976,29.27502750275,0,0
-31.845249514401,164.80348946826,24.079457945795,671479.32705552,-3426.5868333706,2566663.1096976,29.279457945795,0,0
-31.845249495822,164.82504719927,24.083888388839,671479.32705552,-3426.5868333706,2566663.1096976,29.283888388839,0,0
-31.845249477244,164.84660493028,24.088318831883,671479.32705552,-3426.5868333706,2566663.1096976,29.288318831883,0,0
-31.845249458666,164.86816266129,24.092749274927,671479.32705552,-3426.5868333706,2566663.1096976,29.292749274927,0,0
-31.845249440087,164.88972039231,24.097179717972,671479.32705552,-3426.5868333706,2566663.1096976,29.297179717972,0,0
-31.845249421509,164.91127812332,24.101610161016,671479.32705552,-3426.5868333706,2566663.1096976,29.301610161016,0,0
-31.84524940293,164.93283585433,24.10604060406,671479.32705552,-3426.5868333706,2566663.1096976,29.30604060406,0,0
-31.845249384352,164.95439358534,24.110471047105,671479.32705552,-3426.5868333706,2566663.1096976,29.310471047105,0,0
-31.845249365773,164.97595131635,24.114901490149,671479.32705552,-3426.5868333706,2566663.1096976,29.314901490149,0,0
-31.845249347195,164.99750904737,24.119331933193,671479.32705552,-3426.5868333706,2566663.1096976,29.319331933193,0,0
-31.845249328617,165.01906677838,24.123762376238,671479.32705552,-3426.5868333706,2566663.1096976,29.323762376238,0,0
-31.845249310038,165.04062450939,24.128192819282,671479.32705552,-3426.5868333706,2566663.1096976,29.328192819282,0,0
-31.84524929146,165.0621822404,24.132623262326,671479.32705552,-3426.5868333706,2566663.1096976,29.332623262326,0,0
-31.845249272881,165.08373997141,24.137053705371,671479.32705552,-3426.5868333706,2566663.1096976,29.337053705371,0,0
-31.845249254303,165.10529770243,24.141484148415,671479.32705552,-3426.5868333706,2566663.1096976,29.341484148415,0,0
-31.845249235724,165.12685543344,24.145914591459,671479.32705552,-3426.5868333706,2566663.1096976,29.345914591459,0,0
-31.845249217146,165.14841316445,24.150345034503,671479.32705552,-3426.5868333706,2566663.1096976,29.350345034503,0,0
-31.845249198567,165.16997089546,24.154775477548,671479.32705552,-3426.5868333706,2566663.1096976,29.354775477548,0,0
-31.845249179989,165.19152862648,24.159205920592,671479.32705552,-3426.5868333706,2566663.1096976,29.359205920592,0,0
-31.845249161411,165.21308635749,24.163636363636,671479.32705552,-3426.5868333706,2566663.1096976,29.363636363636,0,0
-31.845249142832,165.2346440885,24.168066806681,671479.32705552,-3426.5868333706,2566663.1096976,29.368066806681,0,0
-31.845249124254,165.25620181951,24.172497249725,671479.32705552,-3426.5868333706,2566663.1096976,29.372497249725,0,0
-31.845249105675,165.27775955052,24.176927692769,671479.32705552,-3426.5868333706,2566663.1096976,29.376927692769,0,0
-31.845249087097,165.29931728154,24.181358135814,671479.32705552,-3426.5868333706,2566663.1096976,29.381358135814,0,0
-31.845249068518,165.32087501255,24.185788578858,671479.32705552,-3426.5868333706,2566663.1096976,29.385788578858,0,0
-31.84524904994,165.34243274356,24.190219021902,671479.32705552,-3426.5868333706,2566663.1096976,29.390219021902,0,0
-31.845249031362,165.36399047457,24.194649464946,671479.32705552,-3426.5868333706,2566663.1096976,29.394649464946,0,0
-31.845249012783,165.38554820558,24.199079907991,671479.32705552,-3426.5868333706,2566663.1096976,29.399079907991,0,0
-31.845248994205,165.4071059366,24.203510351035,671479.32705552,-3426.5868333706,2566663.1096976,29.403510351035,0,0
-31.845248975626,165.42866366761,24.207940794079,671479.32705552,-3426.5868333706,2566663.1096976,29.407940794079,0,0
-31.845248957048,165.45022139862,24.212371237124,671479.32705552,-3426.5868333706,2566663.1096976,29.412371237124,0,0
-31.845248938469,165.47177912963,24.216801680168,671479.32705552,-3426.5868333706,2566663.1096976,29.416801680168,0,0
-31.845248919891,165.49333686064,24.221232123212,671479.32705552,-3426.5868333706,2566663.1096976,29.421232123212,0,0
-31.845248901312,165.51489459166,24.225662566257,671479.32705552,-3426.5868333706,2566663.1096976,29.425662566257,0,0
-31.845248882734,165.53645232267,24.230093009301,671479.32705552,-3426.5868333706,2566663.1096976,29.430093009301,0,0
-31.845248864156,165.55801005368,24.234523452345,671479.32705552,-3426.5868333706,2566663.1096976,29.434523452345,0,0
-31.845248845577,165.57956778469,24.23895389539,671479.32705552,-3426.5868333706,2566663.1096976,29.43895389539,0,0
-31.845248826999,165.6011255157,24.243384338434,671479.32705552,-3426.5868333706,2566663.1096976,29.443384338434,0,0
-31.84524880842,165.62268324672,24.247814781478,671479.32705552,-3426.5868333706,2566663.1096976,29.447814781478,0,0
-31.845248789842,165.64424097773,24.252245224522,671479.32705552,-3426.5868333706,2566663.1096976,29.452245224522,0,0
-31.845248771263,165.66579870874,24.256675667567,671479.32705552,-3426.5868333706,2566663.1096976,29.456675667567,0,0
-31.845248752685,165.68735643975,24.261106110611,671479.32705552,-3426.5868333706,2566663.1096976,29.461106110611,0,0
-31.845248734107,165.70891417077,24.265536553655,671479.32705552,-3426.5868333706,2566663.1096976,29.465536553655,0,0
-31.845248715528,165.73047190178,24.2699669967,671479.32705552,-3426.5868333706,2566663.1096976,29.4699669967,0,0
-31.84524869695,165.75202963279,24.274397439744,671479.32705552,-3426.5868333706,2566663.1096976,29.474397439744,0,0
-31.845248678371,165.7735873638,24.278827882788,671479.32705552,-3426.5868333706,2566663.1096976,29.478827882788,0,0
-31.845248659793,165.79514509481,24.283258325833,671479.32705552,-3426.5868333706,2566663.1096976,29.483258325833,0,0
-31.845248641214,165.81670282583,24.287688768877,671479.32705552,-3426.5868333706,2566663.1096976,29.487688768877,0,0
-31.845248622636,165.83826055684,24.292119211921,671479.32705552,-3426.5868333706,2566663.1096976,29.492119211921,0,0
-31.845248604058,165.85981828785,24.296549654965,671479.32705552,-3426.5868333706,2566663.1096976,29.496549654965,0,0
-31.845248585479,165.88137601886,24.30098009801,671479.32705552,-3426.5868333706,2566663.1096976,29.50098009801,0,0
-31.845248566901,165.90293374987,24.305410541054,671479.32705552,-3426.5868333706,2566663.1096976,29.505410541054,0,0
-31.845248548322,165.92449148089,24.309840984098,671479.32705552,-3426.5868333706,2566663.1096976,29.509840984098,0,0
-31.845248529744,165.9460492119,24.314271427143,671479.32705552,-3426.5868333706,2566663.1096976,29.514271427143,0,0
-31.845248511165,165.96760694291,24.318701870187,671479.32705552,-3426.5868333706,2566663.1096976,29.518701870187,0,0
-31.845248492692,165.98916467404,24.323132313231,664926.01171092,-351.68779220392,2561410.5350138,29.523132313231,0,0
-31.845248474497,166.0107224055,24.327562756276,664926.01171092,-351.68779220392,2561410.5350138,29.527562756276,0,0
-31.845248456302,166.03228013695,24.33199319932,664926.01171092,-351.68779220392,2561410.5350138,29.53199319932,0,0
-31.845248438107,166.05383786841,24.336423642364,664926.01171092,-351.68779220392,2561410.5350138,29.536423642364,0,0
-31.845248419912,166.07539559986,24.340854085409,664926.01171092,-351.68779220392,2561410.5350138,29.540854085409,0,0
-31.845248401718,166.09695333132,24.345284528453,664926.01171092,-351.68779220392,2561410.5350138,29.545284528453,0,0
-31.845248383523,166.11851106277,24.349714971497,664926.01171092,-351.68779220392,2561410.5350138,29.549714971497,0,0
-31.845248365328,166.14006879423,24.354145414541,664926.01171092,-351.68779220392,2561410.5350138,29.554145414541,0,0
-31.845248347133,166.16162652568,24.358575857586,664926.01171092,-351.68779220392,2561410.5350138,29.558575857586,0,0
-31.845248328938,166.18318425714,24.36300630063,664926.01171092,-351.68779220392,2561410.5350138,29.56300630063,0,0
-31.845248310743,166.20474198859,24.367436743674,664926.01171092,-351.68779220392,2561410.5350138,29.567436743674,0,0
-31.845248292549,166.22629972004,24.371867186719,664926.01171092,-351.68779220392,2561410.5350138,29.571867186719,0,0
-31.845248274354,166.2478574515,24.376297629763,664926.01171092,-351.68779220392,2561410.5350138,29.576297629763,0,0
-31.845248256159,166.26941518295,24.380728072807,664926.01171092,-351.68779220392,2561410.5350138,29.580728072807,0,0
-31.845248237964,166.29097291441,24.385158515852,664926.01171092,-351.68779220392,2561410.5350138,29.585158515852,0,0
-31.845248219769,166.31253064586,24.389588958896,664926.01171092,-351.68779220392,2561410.5350138,29.589588958896,0,0
-31.845248201574,166.33408837732,24.39401940194,664926.01171092,-351.68779220392,2561410.5350138,29.59401940194,0,0
-31.84524818338,166.35564610877,24.398449844984,664926.01171092,-351.68779220392,2561410.5350138,29.598449844984,0,0
-31.845248165185,166.37720384023,24.402880288029,664926.01171092,-351.68779220392,2561410.5350138,29.602880288029,0,0
-31.84524814699,166.39876157168,24.407310731073,664926.01171092,-351.68779220392,2561410.5350138,29.607310731073,0,0
-31.845248128795,166.42031930314,24.411741174117,664926.01171092,-351.68779220392,2561410.5350138,29.611741174117,0,0
-31.8452481106,166.44187703459,24.416171617162,664926.01171092,-351.68779220392,2561410.5350138,29.616171617162,0,0
-31.845248092405,166.46343476604,24.420602060206,664926.01171092,-351.68779220392,2561410.5350138,29.620602060206,0,0
-31.845248074211,166.4849924975,24.42503250325,664926.01171092,-351.68779220392,2561410.5350138,29.62503250325,0,0
-31.845248056016,166.50655022895,24.429462946295,664926.01171092,-351.68779220392,2561410.5350138,29.629462946295,0,0
-31.845248037821,166.52810796041,24.433893389339,664926.01171092,-351.68779220392,2561410.5350138,29.633893389339,0,0
-31.845248019626,166.54966569186,24.438323832383,664926.01171092,-351.68779220392,2561410.5350138,29.638323832383,0,0
-31.845248001431,166.57122342332,24.442754275428,664926.01171092,-351.68779220392,2561410.5350138,29.642754275428,0,0
-31.845247983236,166.59278115477,24.447184718472,664926.01171092,-351.68779220392,2561410.5350138,29.647184718472,0,0
-31.845247965042,166.61433888623,24.451615161516,664926.01171092,-351.68779220392,2561410.5350138,29.651615161516,0,0
-31.845247946847,166.63589661768,24.45604560456,664926.01171092,-351.68779220392,2561410.5350138,29.65604560456,0,0
-31.845247928652,166.65745434914,24.460476047605,664926.01171092,-351.68779220392,2561410.5350138,29.660476047605,0,0
-31.845247910457,166.67901208059,24.464906490649,664926.01171092,-351.68779220392,2561410.5350138,29.664906490649,0,0
-31.845247892262,166.70056981205,24.469336933693,664926.01171092,-351.68779220392,2561410.5350138,29.669336933693,0,0
-31.845247874067,166.7221275435,24.473767376738,664926.01171092,-351.68779220392,2561410.5350138,29.673767376738,0,0
-31.845247855872,166.74368527495,24.478197819782,664926.01171092,-351.68779220392,2561410.5350138,29.678197819782,0,0
-31.845247837678,166.76524300641,24.482628262826,664926.01171092,-351.68779220392,2561410.5350138,29.682628262826,0,0
-31.845247819483,166.78680073786,24.487058705871,664926.01171092,-351.68779220392,2561410.5350138,29.687058705871,0,0
-31.845247801288,166.80835846932,24.491489148915,664926.01171092,-351.68779220392,2561410.5350138,29.691489148915,0,0
-31.845247783093,166.82991620077,24.495919591959,664926.01171092,-351.68779220392,2561410.5350138,29.695919591959,0,0
-31.845247764898,166.85147393223,24.500350035003,664926.01171092,-351.68779220392,2561410.5350138,29.700350035003,0,0
-31.845247746703,166.87303166368,24.504780478048,664926.01171092,-351.68779220392,2561410.5350138,29.704780478048,0,0
-31.845247728509,166.89458939514,24.509210921092,664926.01171092,-351.68779220392,2561410.5350138,29.709210921092,0,0
-31.845247710314,166.91614712659,24.513641364136,664926.01171092,-351.68779220392,2561410.5350138,29.713641364136,0,0
-31.845247692119,166.93770485805,24.518071807181,664926.01171092,-351.68779220392,2561410.5350138,29.718071807181,0,0
-31.845247673924,166.9592625895,24.522502250225,664926.01171092,-351.68779220392,2561410.5350138,29.722502250225,0,0
-31.845247655729,166.98082032096,24.526932693269,664926.01171092,-351.68779220392,2561410.5350138,29.726932693269,0,0
-31.845247637534,167.00237805241,24.531363136314,664926.01171092,-351.68779220392,2561410.5350138,29.731363136314,0,0
-31.84524761934,167.02393578386,24.535793579358,664926.01171092,-351.68779220392,2561410.5350138,29.735793579358,0,0
-31.845247601145,167.04549351532,24.540224022402,664926.01171092,-351.68779220392,2561410.5350138,29.740224022402,0,0
-31.84524758295,167.06705124677,24.544654465447,664926.01171092,-351.68779220392,2561410.5350138,29.744654465447,0,0
-31.845247564755,167.08860897823,24.549084908491,664926.01171092,-351.68779220392,2561410.5350138,29.749084908491,0,0
-31.84524754656,167.11016670968,24.553515351535,664926.01171092,-351.68779220392,2561410.5350138,29.753515351535,0,0
-31.845247528365,167.13172444114,24.557945794579,664926.01171092,-351.68779220392,2561410.5350138,29.757945794579,0,0
-31.845247510171,167.15328217259,24.562376237624,664926.01171092,-351.68779220392,2561410.5350138,29.762376237624,0,0
-31.845247491976,167.17483990405,24.566806680668,664926.01171092,-351.68779220392,2561410.5350138,29.766806680668,0,0
-31.845247473781,167.1963976355,24.571237123712,664926.01171092,-351.68779220392,2561410.5350138,29.771237123712,0,0
-31.845247455586,167.21795536696,24.575667566757,664926.01171092,-351.68779220392,2561410.5350138,29.775667566757,0,0
-31.845247437391,167.23951309841,24.580098009801,664926.01171092,-351.68779220392,2561410.5350138,29.780098009801,0,0
-31.845247419196,167.26107082987,24.584528452845,664926.01171092,-351.68779220392,2561410.5350138,29.784528452845,0,0
-31.845247401002,167.28262856132,24.58895889589,664926.01171092,-351.68779220392,2561410.5350138,29.78895889589,0,0
-31.845247382807,167.30418629277,24.593389338934,664926.01171092,-351.68779220392,2561410.5350138,29.793389338934,0,0
-31.845247364612,167.32574402423,24.597819781978,664926.01171092,-351.68779220392,2561410.5350138,29.797819781978,0,0
-31.845247346417,167.34730175568,24.602250225022,664926.01171092,-351.68779220392,2561410.5350138,29.802250225022,0,0
-31.845247328222,167.36885948714,24.606680668067,664926.01171092,-351.68779220392,2561410.5350138,29.806680668067,0,0
-31.845247310027,167.39041721859,24.611111111111,664926.01171092,-351.68779220392,2561410.5350138,29.811111111111,0,0
-31.845247291833,167.41197495005,24.615541554155,664926.01171092,-351.68779220392,2561410.5350138,29.815541554155,0,0
-31.845247273638,167.4335326815,24.6199719972,664926.01171092,-351.68779220392,2561410.5350138,29.8199719972,0,0
-31.845247255443,167.45509041296,24.624402440244,664926.01171092,-351.68779220392,2561410.5350138,29.824402440244,0,0
-31.845247237248,167.47664814441,24.628832883288,664926.01171092,-351.68779220392,2561410.5350138,29.828832883288,0,0
-31.845247219053,167.49820587587,24.633263326333,664926.01171092,-351.68779220392,2561410.5350138,29.833263326333,0,0
-31.845247200858,167.51976360732,24.637693769377,664926.01171092,-351.68779220392,2561410.5350138,29.837693769377,0,0
-31.845247182664,167.54132133878,24.642124212421,664926.01171092,-351.68779220392,2561410.5350138,29.842124212421,0,0
-31.845247164469,167.56287907023,24.646554655466,664926.01171092,-351.68779220392,2561410.5350138,29.846554655466,0,0
-31.845247146274,167.58443680168,24.65098509851,664926.01171092,-351.68779220392,2561410.5350138,29.85098509851,0,0
-31.845247128079,167.60599453314,24.655415541554,664926.01171092,-351.68779220392,2561410.5350138,29.855415541554,0,0
-31.845247109884,167.62755226459,24.659845984598,664926.01171092,-351.68779220392,2561410.5350138,29.859845984598,0,0
-31.845247091689,167.64910999605,24.664276427643,664926.01171092,-351.68779220392,2561410.5350138,29.864276427643,0,0
-31.845247073495,167.6706677275,24.668706870687,664926.01171092,-351.68779220392,2561410.5350138,29.868706870687,0,0
-31.8452470553,167.69222545896,24.673137313731,664926.01171092,-351.68779220392,2561410.5350138,29.873137313731,0,0
-31.845247037105,167.71378319041,24.677567756776,664926.01171092,-351.68779220392,2561410.5350138,29.877567756776,0,0
-31.84524701891,167.73534092187,24.68199819982,664926.01171092,-351.68779220392,2561410.5350138,29.88199819982,0,0
-31.845247000715,167.75689865332,24.686428642864,664926.01171092,-351.68779220392,2561410.5350138,29.886428642864,0,0
-31.84524698252,167.77845638478,24.690859085909,664926.01171092,-351.68779220392,2561410.5350138,29.890859085909,0,0
-31.845246964325,167.80001411623,24.695289528953,664926.01171092,-351.68779220392,2561410.5350138,29.895289528953,0,0
-31.845246946131,167.82157184769,24.699719971997,664926.01171092,-351.68779220392,2561410.5350138,29.899719971997,0,0
-31.845246927936,167.84312957914,24.704150415042,664926.01171092,-351.68779220392,2561410.5350138,29.904150415041,0,0
-31.845246909741,167.86468731059,24.708580858086,664926.01171092,-351.68779220392,2561410.5350138,29.908580858086,0,0
-31.845246891546,167.88624504205,24.71301130113,664926.01171092,-351.68779220392,2561410.5350138,29.91301130113,0,0
-31.845246873351,167.9078027735,24.717441744174,664926.01171092,-351.68779220392,2561410.5350138,29.917441744174,0,0
-31.845246855156,167.92936050496,24.721872187219,664926.01171092,-351.68779220392,2561410.5350138,29.921872187219,0,0
-31.845246836962,167.95091823641,24.726302630263,664926.01171092,-351.68779220392,2561410.5350138,29.926302630263,0,0
-31.845246818767,167.97247596787,24.730733073307,664926.01171092,-351.68779220392,2561410.5350138,29.930733073307,0,0
-31.845246800572,167.99403369932,24.735163516352,664926.01171092,-351.68779220392,2561410.5350138,29.935163516352,0,0
-31.845246782377,168.01559143078,24.739593959396,664926.01171092,-351.68779220392,2561410.5350138,29.939593959396,0,0
-31.845246764182,168.03714916223,24.74402440244,664926.01171092,-351.68779220392,2561410.5350138,29.94402440244,0,0
-31.845246745987,168.05870689369,24.748454845485,664926.01171092,-351.68779220392,2561410.5350138,29.948454845485,0,0
-31.845246727793,168.08026462514,24.752885288529,664926.01171092,-351.68779220392,2561410.5350138,29.952885288529,0,0
-31.845246709598,168.1018223566,24.757315731573,664926.01171092,-351.68779220392,2561410.5350138,29.957315731573,0,0
-31.845246691403,168.12338008805,24.761746174617,664926.01171092,-351.68779220392,2561410.5350138,29.961746174617,0,0
-31.845246673208,168.1449378195,24.766176617662,664926.01171092,-351.68779220392,2561410.5350138,29.966176617662,0,0
-31.845246655013,168.16649555096,24.770607060706,664926.01171092,-351.68779220392,2561410.5350138,29.970607060706,0,0
-31.845246636818,168.18805328241,24.77503750375,664926.01171092,-351.68779220392,2561410.5350138,29.97503750375,0,0
-31.845246618624,168.20961101387,24.779467946795,664926.01171092,-351.68779220392,2561410.5350138,29.979467946795,0,0
-31.845246600429,168.23116874532,24.783898389839,664926.01171092,-351.68779220392,2561410.5350138,29.983898389839,0,0
-31.845246582234,168.25272647678,24.788328832883,664926.01171092,-351.68779220392,2561410.5350138,29.988328832883,0,0
-31.845246564039,168.27428420823,24.792759275928,664926.01171092,-351.68779220392,2561410.5350138,29.992759275928,0,0
-31.845246545844,168.29584193969,24.797189718972,664926.01171092,-351.68779220392,2561410.5350138,29.997189718972,0,0
-31.845246527649,168.31739967114,24.801620162016,664926.01171092,-351.68779220392,2561410.5350138,30.001620162016,0,0
-31.845246509575,168.33895740222,24.806050605061,661742.35967878,-2838.8037986816,2557233.296144,30.006050605061,0,0
-31.845246491524,168.36051513322,24.810481048105,661742.35967878,-2838.8037986816,2557233.296144,30.010481048105,0,0
-31.845246473472,168.38207286422,24.814911491149,661742.35967878,-2838.8037986816,2557233.296144,30.014911491149,0,0
-31.84524645542,168.40363059523,24.819341934193,661742.35967878,-2838.8037986816,2557233.296144,30.019341934193,0,0
-31.845246437368,168.42518832623,24.823772377238,661742.35967878,-2838.8037986816,2557233.296144,30.023772377238,0,0
-31.845246419317,168.44674605723,24.828202820282,661742.35967878,-2838.8037986816,2557233.296144,30.028202820282,0,0
-31.845246401265,168.46830378824,24.832633263326,661742.35967878,-2838.8037986816,2557233.296144,30.032633263326,0,0
-31.845246383213,168.48986151924,24.837063706371,661742.35967878,-2838.8037986816,2557233.296144,30.037063706371,0,0
-31.845246365161,168.51141925025,24.841494149415,661742.35967878,-2838.8037986816,2557233.296144,30.041494149415,0,0
-31.84524634711,168.53297698125,24.845924592459,661742.35967878,-2838.8037986816,2557233.296144,30.045924592459,0,0
-31.845246329058,168.55453471225,24.850355035504,661742.35967878,-2838.8037986816,2557233.296144,30.050355035504,0,0
-31.845246311006,168.57609244326,24.854785478548,661742.35967878,-2838.8037986816,2557233.296144,30.054785478548,0,0
-31.845246292954,168.59765017426,24.859215921592,661742.35967878,-2838.8037986816,2557233.296144,30.059215921592,0,0
-31.845246274903,168.61920790527,24.863646364636,661742.35967878,-2838.8037986816,2557233.296144,30.063646364636,0,0
-31.845246256851,168.64076563627,24.868076807681,661742.35967878,-2838.8037986816,2557233.296144,30.068076807681,0,0
-31.845246238799,168.66232336727,24.872507250725,661742.35967878,-2838.8037986816,2557233.296144,30.072507250725,0,0
-31.845246220747,168.68388109828,24.876937693769,661742.35967878,-2838.8037986816,2557233.296144,30.076937693769,0,0
-31.845246202696,168.70543882928,24.881368136814,661742.35967878,-2838.8037986816,2557233.296144,30.081368136814,0,0
-31.845246184644,168.72699656028,24.885798579858,661742.35967878,-2838.8037986816,2557233.296144,30.085798579858,0,0
-31.845246166592,168.74855429129,24.890229022902,661742.35967878,-2838.8037986816,2557233.296144,30.090229022902,0,0
-31.84524614854,168.77011202229,24.894659465947,661742.35967878,-2838.8037986816,2557233.296144,30.094659465947,0,0
-31.845246130489,168.7916697533,24.899089908991,661742.35967878,-2838.8037986816,2557233.296144,30.099089908991,0,0
-31.845246112437,168.8132274843,24.903520352035,661742.35967878,-2838.8037986816,2557233.296144,30.103520352035,0,0
-31.845246094385,168.8347852153,24.90795079508,661742.35967878,-2838.8037986816,2557233.296144,30.10795079508,0,0
-31.845246076333,168.85634294631,24.912381238124,661742.35967878,-2838.8037986816,2557233.296144,30.112381238124,0,0
-31.845246058281,168.87790067731,24.916811681168,661742.35967878,-2838.8037986816,2557233.296144,30.116811681168,0,0
-31.84524604023,168.89945840832,24.921242124212,661742.35967878,-2838.8037986816,2557233.296144,30.121242124212,0,0
-31.845246022178,168.92101613932,24.925672567257,661742.35967878,-2838.8037986816,2557233.296144,30.125672567257,0,0
-31.845246004126,168.94257387032,24.930103010301,661742.35967878,-2838.8037986816,2557233.296144,30.130103010301,0,0
-31.845245986074,168.96413160133,24.934533453345,661742.35967878,-2838.8037986816,2557233.296144,30.134533453345,0,0
-31.845245968023,168.98568933233,24.93896389639,661742.35967878,-2838.8037986816,2557233.296144,30.13896389639,0,0
-31.845245949971,169.00724706333,24.943394339434,661742.35967878,-2838.8037986816,2557233.296144,30.143394339434,0,0
-31.845245931919,169.02880479434,24.947824782478,661742.35967878,-2838.8037986816,2557233.296144,30.147824782478,0,0
-31.845245913867,169.05036252534,24.952255225523,661742.35967878,-2838.8037986816,2557233.296144,30.152255225523,0,0
-31.845245895816,169.07192025635,24.956685668567,661742.35967878,-2838.8037986816,2557233.296144,30.156685668567,0,0
-31.845245877764,169.09347798735,24.961116111611,661742.35967878,-2838.8037986816,2557233.296144,30.161116111611,0,0
-31.845245859712,169.11503571835,24.965546554655,661742.35967878,-2838.8037986816,2557233.296144,30.165546554655,0,0
-31.84524584166,169.13659344936,24.9699769977,661742.35967878,-2838.8037986816,2557233.296144,30.1699769977,0,0
-31.845245823609,169.15815118036,24.974407440744,661742.35967878,-2838.8037986816,2557233.296144,30.174407440744,0,0
-31.845245805557,169.17970891137,24.978837883788,661742.35967878,-2838.8037986816,2557233.296144,30.178837883788,0,0
-31.845245787505,169.20126664237,24.983268326833,661742.35967878,-2838.8037986816,2557233.296144,30.183268326833,0,0
-31.845245769453,169.22282437337,24.987698769877,661742.35967878,-2838.8037986816,2557233.296144,30.187698769877,0,0
-31.845245751402,169.24438210438,24.992129212921,661742.35967878,-2838.8037986816,2557233.296144,30.192129212921,0,0
-31.84524573335,169.26593983538,24.996559655966,661742.35967878,-2838.8037986816,2557233.296144,30.196559655966,0,0
-31.845245715298,169.28749756638,25.00099009901,661742.35967878,-2838.8037986816,2557233.296144,30.20099009901,0,0
-31.845245697246,169.30905529739,25.005420542054,661742.35967878,-2838.8037986816,2557233.296144,30.205420542054,0,0
-31.845245679195,169.33061302839,25.009850985099,661742.35967878,-2838.8037986816,2557233.296144,30.209850985099,0,0
-31.845245661143,169.3521707594,25.014281428143,661742.35967878,-2838.8037986816,2557233.296144,30.214281428143,0,0
-31.845245643091,169.3737284904,25.018711871187,661742.35967878,-2838.8037986816,2557233.296144,30.218711871187,0,0
-31.845245625039,169.3952862214,25.023142314231,661742.35967878,-2838.8037986816,2557233.296144,30.223142314231,0,0
-31.845245606987,169.41684395241,25.027572757276,661742.35967878,-2838.8037986816,2557233.296144,30.227572757276,0,0
-31.845245588936,169.43840168341,25.03200320032,661742.35967878,-2838.8037986816,2557233.296144,30.23200320032,0,0
-31.845245570884,169.45995941442,25.036433643364,661742.35967878,-2838.8037986816,2557233.296144,30.236433643364,0,0
-31.845245552832,169.48151714542,25.040864086409,661742.35967878,-2838.8037986816,2557233.296144,30.240864086409,0,0
-31.84524553478,169.50307487642,25.045294529453,661742.35967878,-2838.8037986816,2557233.296144,30.245294529453,0,0
-31.845245516729,169.52463260743,25.049724972497,661742.35967878,-2838.8037986816,2557233.296144,30.249724972497,0,0
-31.845245498677,169.54619033843,25.054155415542,661742.35967878,-2838.8037986816,2557233.296144,30.254155415542,0,0
-31.845245480625,169.56774806943,25.058585858586,661742.35967878,-2838.8037986816,2557233.296144,30.258585858586,0,0
-31.845245462573,169.58930580044,25.06301630163,661742.35967878,-2838.8037986816,2557233.296144,30.26301630163,0,0
-31.845245444522,169.61086353144,25.067446744674,661742.35967878,-2838.8037986816,2557233.296144,30.267446744674,0,0
-31.84524542647,169.63242126245,25.071877187719,661742.35967878,-2838.8037986816,2557233.296144,30.271877187719,0,0
-31.845245408418,169.65397899345,25.076307630763,661742.35967878,-2838.8037986816,2557233.296144,30.276307630763,0,0
-31.845245390366,169.67553672445,25.080738073807,661742.35967878,-2838.8037986816,2557233.296144,30.280738073807,0,0
-31.845245372315,169.69709445546,25.085168516852,661742.35967878,-2838.8037986816,2557233.296144,30.285168516852,0,0
-31.845245354263,169.71865218646,25.089598959896,661742.35967878,-2838.8037986816,2557233.296144,30.289598959896,0,0
-31.845245336211,169.74020991747,25.09402940294,661742.35967878,-2838.8037986816,2557233.296144,30.29402940294,0,0
-31.845245318159,169.76176764847,25.098459845985,661742.35967878,-2838.8037986816,2557233.296144,30.298459845985,0,0
-31.845245300108,169.78332537947,25.102890289029,661742.35967878,-2838.8037986816,2557233.296144,30.302890289029,0,0
-31.845245282056,169.80488311048,25.107320732073,661742.35967878,-2838.8037986816,2557233.296144,30.307320732073,0,0
-31.845245264004,169.82644084148,25.111751175118,661742.35967878,-2838.8037986816,2557233.296144,30.311751175118,0,0
-31.845245245952,169.84799857248,25.116181618162,661742.35967878,-2838.8037986816,2557233.296144,30.316181618162,0,0
-31.845245227901,169.86955630349,25.120612061206,661742.35967878,-2838.8037986816,2557233.296144,30.320612061206,0,0
-31.845245209849,169.89111403449,25.12504250425,661742.35967878,-2838.8037986816,2557233.296144,30.32504250425,0,0
-31.845245191797,169.9126717655,25.129472947295,661742.35967878,-2838.8037986816,2557233.296144,30.329472947295,0,0
-31.845245173745,169.9342294965,25.133903390339,661742.35967878,-2838.8037986816,2557233.296144,30.333903390339,0,0
-31.845245155693,169.9557872275,25.138333833383,661742.35967878,-2838.8037986816,2557233.296144,30.338333833383,0,0
-31.845245137642,169.97734495851,25.142764276428,661742.35967878,-2838.8037986816,2557233.296144,30.342764276428,0,0
-31.84524511959,169.99890268951,25.147194719472,661742.35967878,-2838.8037986816,2557233.296144,30.347194719472,0,0
-31.845245101538,170.02046042052,25.151625162516,661742.35967878,-2838.8037986816,2557233.296144,30.351625162516,0,0
-31.845245083486,170.04201815152,25.156055605561,661742.35967878,-2838.8037986816,2557233.296144,30.356055605561,0,0
-31.845245065435,170.06357588252,25.160486048605,661742.35967878,-2838.8037986816,2557233.296144,30.360486048605,0,0
-31.845245047383,170.08513361353,25.164916491649,661742.35967878,-2838.8037986816,2557233.296144,30.364916491649,0,0
-31.845245029331,170.10669134453,25.169346934693,661742.35967878,-2838.8037986816,2557233.296144,30.369346934693,0,0
-31.845245011279,170.12824907553,25.173777377738,661742.35967878,-2838.8037986816,2557233.296144,30.373777377738,0,0
-31.845244993228,170.14980680654,25.178207820782,661742.35967878,-2838.8037986816,2557233.296144,30.378207820782,0,0
-31.845244975176,170.17136453754,25.182638263826,661742.35967878,-2838.8037986816,2557233.296144,30.382638263826,0,0
-31.845244957124,170.19292226855,25.187068706871,661742.35967878,-2838.8037986816,2557233.296144,30.387068706871,0,0
-31.845244939072,170.21447999955,25.191499149915,661742.35967878,-2838.8037986816,2557233.296144,30.391499149915,0,0
-31.845244921021,170.23603773055,25.195929592959,661742.35967878,-2838.8037986816,2557233.296144,30.395929592959,0,0
-31.845244902969,170.25759546156,25.200360036004,661742.35967878,-2838.8037986816,2557233.296144,30.400360036004,0,0
-31.845244884917,170.27915319256,25.204790479048,661742.35967878,-2838.8037986816,2557233.296144,30.404790479048,0,0
-31.845244866865,170.30071092357,25.209220922092,661742.35967878,-2838.8037986816,2557233.296144,30.409220922092,0,0
-31.845244848814,170.32226865457,25.213651365137,661742.35967878,-2838.8037986816,2557233.296144,30.413651365137,0,0
-31.845244830762,170.34382638557,25.218081808181,661742.35967878,-2838.8037986816,2557233.296144,30.418081808181,0,0
-31.84524481271,170.36538411658,25.222512251225,661742.35967878,-2838.8037986816,2557233.296144,30.422512251225,0,0
-31.845244794658,170.38694184758,25.226942694269,661742.35967878,-2838.8037986816,2557233.296144,30.426942694269,0,0
-31.845244776607,170.40849957858,25.231373137314,661742.35967878,-2838.8037986816,2557233.296144,30.431373137314,0,0
-31.845244758555,170.43005730959,25.235803580358,661742.35967878,-2838.8037986816,2557233.296144,30.435803580358,0,0
-31.845244740503,170.45161504059,25.240234023402,661742.35967878,-2838.8037986816,2557233.296144,30.440234023402,0,0
-31.845244722451,170.4731727716,25.244664466447,661742.35967878,-2838.8037986816,2557233.296144,30.444664466447,0,0
-31.845244704399,170.4947305026,25.249094909491,661742.35967878,-2838.8037986816,2557233.296144,30.449094909491,0,0
-31.845244686348,170.5162882336,25.253525352535,661742.35967878,-2838.8037986816,2557233.296144,30.453525352535,0,0
-31.845244668296,170.53784596461,25.25795579558,661742.35967878,-2838.8037986816,2557233.296144,30.45795579558,0,0
-31.845244650244,170.55940369561,25.262386238624,661742.35967878,-2838.8037986816,2557233.296144,30.462386238624,0,0
-31.845244632192,170.58096142662,25.266816681668,661742.35967878,-2838.8037986816,2557233.296144,30.466816681668,0,0
-31.845244614141,170.60251915762,25.271247124712,661742.35967878,-2838.8037986816,2557233.296144,30.471247124712,0,0
-31.845244596089,170.62407688862,25.275677567757,661742.35967878,-2838.8037986816,2557233.296144,30.475677567757,0,0
-31.845244578037,170.64563461963,25.280108010801,661742.35967878,-2838.8037986816,2557233.296144,30.480108010801,0,0
-31.845244559985,170.66719235063,25.284538453845,661742.35967878,-2838.8037986816,2557233.296144,30.484538453845,0,0
-31.845244541934,170.68875008163,25.28896889689,661742.35967878,-2838.8037986816,2557233.296144,30.48896889689,0,0
-31.845244523882,170.71030781264,25.293399339934,661742.35967878,-2838.8037986816,2557233.296144,30.493399339934,0,0
-31.84524450583,170.73186554364,25.297829782978,661742.35967878,-2838.8037986816,2557233.296144,30.497829782978,0,0
-31.845244487778,170.75342327465,25.302260226023,661742.35967878,-2838.8037986816,2557233.296144,30.502260226023,0,0
-31.845244469727,170.77498100565,25.306690669067,661742.35967878,-2838.8037986816,2557233.296144,30.506690669067,0,0
-31.845244451675,170.79653873665,25.311121112111,661742.35967878,-2838.8037986816,2557233.296144,30.511121112111,0,0
-31.845244433623,170.81809646766,25.315551555156,661742.35967878,-2838.8037986816,2557233.296144,30.515551555156,0,0
-31.845244415571,170.83965419866,25.3199819982,661742.35967878,-2838.8037986816,2557233.296144,30.5199819982,0,0
-31.84524439752,170.86121192967,25.324412441244,661742.35967878,-2838.8037986816,2557233.296144,30.524412441244,0,0
-31.845244379468,170.88276966067,25.328842884288,661742.35967878,-2838.8037986816,2557233.296144,30.528842884288,0,0
-31.845244361416,170.90432739167,25.333273327333,661742.35967878,-2838.8037986816,2557233.296144,30.533273327333,0,0
-31.845244343364,170.92588512268,25.337703770377,661742.35967878,-2838.8037986816,2557233.296144,30.537703770377,0,0
-31.845244325313,170.94744285368,25.342134213421,661742.35967878,-2838.8037986816,2557233.296144,30.542134213421,0,0
-31.845244307261,170.96900058469,25.346564656466,661742.35967878,-2838.8037986816,2557233.296144,30.546564656466,0,0
-31.845244289209,170.99055831569,25.35099509951,661742.35967878,-2838.8037986816,2557233.296144,30.55099509951,0,0
-31.845244271157,171.01211604669,25.355425542554,661742.35967878,-2838.8037986816,2557233.296144,30.555425542554,0,0
-31.845244253105,171.0336737777,25.359855985599,661742.35967878,-2838.8037986816,2557233.296144,30.559855985599,0,0
-31.845244235054,171.0552315087,25.364286428643,661742.35967878,-2838.8037986816,2557233.296144,30.564286428643,0,0
-31.845244217002,171.0767892397,25.368716871687,661742.35967878,-2838.8037986816,2557233.296144,30.568716871687,0,0
-31.84524419895,171.09834697071,25.373147314731,661742.35967878,-2838.8037986816,2557233.296144,30.573147314731,0,0
-31.845244180898,171.11990470171,25.377577757776,661742.35967878,-2838.8037986816,2557233.296144,30.577577757776,0,0
-31.845244162847,171.14146243272,25.38200820082,661742.35967878,-2838.8037986816,2557233.296144,30.58200820082,0,0
-31.845244144795,171.16302016372,25.386438643864,661742.35967878,-2838.8037986816,2557233.296144,30.586438643864,0,0
-31.845244126743,171.18457789472,25.390869086909,661742.35967878,-2838.8037986816,2557233.296144,30.590869086909,0,0
-31.845244108691,171.20613562573,25.395299529953,661742.35967878,-2838.8037986816,2557233.296144,30.595299529953,0,0
-31.84524409064,171.22769335673,25.399729972997,661742.35967878,-2838.8037986816,2557233.296144,30.599729972997,0,0
-31.845244072588,171.24925108774,25.404160416042,661742.35967878,-2838.8037986816,2557233.296144,30.604160416042,0,0
-31.845244054536,171.27080881874,25.408590859086,661742.35967878,-2838.8037986816,2557233.296144,30.608590859086,0,0
-31.845244036484,171.29236654974,25.41302130213,661742.35967878,-2838.8037986816,2557233.296144,30.61302130213,0,0
-31.845244018433,171.31392428075,25.417451745175,661742.35967878,-2838.8037986816,2557233.296144,30.617451745175,0,0
-31.845244000381,171.33548201175,25.421882188219,661742.35967878,-2838.8037986816,2557233.296144,30.621882188219,0,0
-31.845243982329,171.35703974275,25.426312631263,661742.35967878,-2838.8037986816,2557233.296144,30.626312631263,0,0
-31.845243964277,171.37859747376,25.430743074307,661742.35967878,-2838.8037986816,2557233.296144,30.630743074307,0,0
-31.845243946226,171.40015520476,25.435173517352,661742.35967878,-2838.8037986816,2557233.296144,30.635173517352,0,0
-31.845243928174,171.42171293577,25.439603960396,661742.35967878,-2838.8037986816,2557233.296144,30.639603960396,0,0
-31.845243910122,171.44327066677,25.44403440344,661742.35967878,-2838.8037986816,2557233.296144,30.64403440344,0,0
-31.84524389207,171.46482839777,25.448464846485,661742.35967878,-2838.8037986816,2557233.296144,30.648464846485,0,0
-31.845243874019,171.48638612878,25.452895289529,661742.35967878,-2838.8037986816,2557233.296144,30.652895289529,0,0
-31.845243855967,171.50794385978,25.457325732573,661742.35967878,-2838.8037986816,2557233.296144,30.657325732573,0,0
-31.845243837915,171.52950159079,25.461756175618,661742.35967878,-2838.8037986816,2557233.296144,30.661756175618,0,0
-31.845243819863,171.55105932179,25.466186618662,661742.35967878,-2838.8037986816,2557233.296144,30.666186618662,0,0
-31.845243801811,171.57261705279,25.470617061706,661742.35967878,-2838.8037986816,2557233.296144,30.670617061706,0,0
-31.84524378376,171.5941747838,25.47504750475,661742.35967878,-2838.8037986816,2557233.296144,30.67504750475,0,0
-31.845243765708,171.6157325148,25.479477947795,661742.35967878,-2838.8037986816,2557233.296144,30.679477947795,0,0
-31.845243747656,171.6372902458,25.483908390839,661742.35967878,-2838.8037986816,2557233.296144,30.683908390839,0,0
-31.845243729604,171.65884797681,25.488338833883,661742.35967878,-2838.8037986816,2557233.296144,30.688338833883,0,0
-31.845243711553,171.68040570781,25.492769276928,661742.35967878,-2838.8037986816,2557233.296144,30.692769276928,0,0
-31.845243693501,171.70196343882,25.497199719972,661742.35967878,-2838.8037986816,2557233.296144,30.697199719972,0,0
-31.845243675449,171.72352116982,25.501630163016,661742.35967878,-2838.8037986816,2557233.296144,30.701630163016,0,0
-31.845243657397,171.74507890082,25.506060606061,661742.35967878,-2838.8037986816,2557233.296144,30.706060606061,0,0
-31.845243639346,171.76663663183,25.510491049105,661742.35967878,-2838.8037986816,2557233.296144,30.710491049105,0,0
-31.845243621294,171.78819436283,25.514921492149,661742.35967878,-2838.8037986816,2557233.296144,30.714921492149,0,0
-31.845243603242,171.80975209384,25.519351935194,661742.35967878,-2838.8037986816,2557233.296144,30.719351935194,0,0
-31.84524358519,171.83130982484,25.523782378238,661742.35967878,-2838.8037986816,2557233.296144,30.723782378238,0,0
-31.845243567139,171.85286755584,25.528212821282,661742.35967878,-2838.8037986816,2557233.296144,30.728212821282,0,0
-31.845243549087,171.87442528685,25.532643264326,661742.35967878,-2838.8037986816,2557233.296144,30.732643264326,0,0
-31.845243531035,171.89598301785,25.537073707371,661742.35967878,-2838.8037986816,2557233.296144,30.737073707371,0,0
-31.845243512983,171.91754074885,25.541504150415,661742.35967878,-2838.8037986816,2557233.296144,30.741504150415,0,0
-31.845243494932,171.93909847986,25.545934593459,661742.35967878,-2838.8037986816,2557233.296144,30.745934593459,0,0
-31.84524347688,171.96065621086,25.550365036504,661742.35967878,-2838.8037986816,2557233.296144,30.750365036504,0,0
-31.845243458828,171.98221394187,25.554795479548,661742.35967878,-2838.8037986816,2557233.296144,30.754795479548,0,0
-31.845243440776,172.00377167287,25.559225922592,661742.35967878,-2838.8037986816,2557233.296144,30.759225922592,0,0
-31.845243422725,172.02532940387,25.563656365637,661742.35967878,-2838.8037986816,2557233.296144,30.763656365637,0,0
-31.845243404673,172.04688713488,25.568086808681,661742.35967878,-2838.8037986816,2557233.296144,30.768086808681,0,0
-31.845243386621,172.06844486588,25.572517251725,661742.35967878,-2838.8037986816,2557233.296144,30.772517251725,0,0
-31.845243368569,172.09000259689,25.576947694769,661742.35967878,-2838.8037986816,2557233.296144,30.776947694769,0,0
-31.845243350517,172.11156032789,25.581378137814,661742.35967878,-2838.8037986816,2557233.296144,30.781378137814,0,0
-31.845243332466,172.13311805889,25.585808580858,661742.35967878,-2838.8037986816,2557233.296144,30.785808580858,0,0
-31.845243314414,172.1546757899,25.590239023902,661742.35967878,-2838.8037986816,2557233.296144,30.790239023902,0,0
-31.845243296362,172.1762335209,25.594669466947,661742.35967878,-2838.8037986816,2557233.296144,30.794669466947,0,0
-31.84524327831,172.1977912519,25.599099909991,661742.35967878,-2838.8037986816,2557233.296144,30.799099909991,0,0
-31.845243260259,172.21934898291,25.603530353035,661742.35967878,-2838.8037986816,2557233.296144,30.803530353035,0,0
-31.845243242207,172.24090671391,25.60796079608,661742.35967878,-2838.8037986816,2557233.296144,30.80796079608,0,0
-31.845243224155,172.26246444492,25.612391239124,661742.35967878,-2838.8037986816,2557233.296144,30.812391239124,0,0
-31.845243206103,172.28402217592,25.616821682168,661742.35967878,-2838.8037986816,2557233.296144,30.816821682168,0,0
-31.845243188052,172.30557990692,25.621252125213,661742.35967878,-2838.8037986816,2557233.296144,30.821252125213,0,0
-31.84524317,172.32713763793,25.625682568257,661742.35967878,-2838.8037986816,2557233.296144,30.825682568257,0,0
-31.845243151948,172.34869536893,25.630113011301,661742.35967878,-2838.8037986816,2557233.296144,30.830113011301,0,0
-31.845243133896,172.37025309994,25.634543454345,661742.35967878,-2838.8037986816,2557233.296144,30.834543454345,0,0
-31.845243115845,172.39181083094,25.63897389739,661742.35967878,-2838.8037986816,2557233.296144,30.83897389739,0,0
-31.845243097793,172.41336856194,25.643404340434,661742.35967878,-2838.8037986816,2557233.296144,30.843404340434,0,0
-31.845243079741,172.43492629295,25.647834783478,661742.35967878,-2838.8037986816,2557233.296144,30.847834783478,0,0
-31.845243061689,172.45648402395,25.652265226523,661742.35967878,-2838.8037986816,2557233.296144,30.852265226523,0,0
-31.845243043638,172.47804175495,25.656695669567,661742.35967878,-2838.8037986816,2557233.296144,30.856695669567,0,0
-31.845243025586,172.49959948596,25.661126112611,661742.35967878,-2838.8037986816,2557233.296144,30.861126112611,0,0
-31.845243007534,172.52115721696,25.665556555656,661742.35967878,-2838.8037986816,2557233.296144,30.865556555656,0,0
-31.845242989482,172.54271494797,25.6699869987,661742.35967878,-2838.8037986816,2557233.296144,30.8699869987,0,0
-31.845242971431,172.56427267897,25.674417441744,661742.35967878,-2838.8037986816,2557233.296144,30.874417441744,0,0
-31.845242953379,172.58583040997,25.678847884788,661742.35967878,-2838.8037986816,2557233.296144,30.878847884788,0,0
-31.845242935327,172.60738814098,25.683278327833,661742.35967878,-2838.8037986816,2557233.296144,30.883278327833,0,0
-31.845242917275,172.62894587198,25.687708770877,661742.35967878,-2838.8037986816,2557233.296144,30.887708770877,0,0
-31.845242899223,172.65050360299,25.692139213921,661742.35967878,-2838.8037986816,2557233.296144,30.892139213921,0,0
-31.845242881172,172.67206133399,25.696569656966,661742.35967878,-2838.8037986816,2557233.296144,30.896569656966,0,0
-31.84524286312,172.69361906499,25.70100010001,661742.35967878,-2838.8037986816,2557233.296144,30.90100010001,0,0
-31.845242845068,172.715176796,25.705430543054,661742.35967878,-2838.8037986816,2557233.296144,30.905430543054,0,0
-31.845242827016,172.736734527,25.709860986099,661742.35967878,-2838.8037986816,2557233.296144,30.909860986099,0,0
-31.845242808965,172.758292258,25.714291429143,661742.35967878,-2838.8037986816,2557233.296144,30.914291429143,0,0
-31.845242790913,172.77984998901,25.718721872187,661742.35967878,-2838.8037986816,2557233.296144,30.918721872187,0,0
-31.845242772861,172.80140772001,25.723152315232,661742.35967878,-2838.8037986816,2557233.296144,30.923152315232,0,0
-31.845242754809,172.82296545102,25.727582758276,661742.35967878,-2838.8037986816,2557233.296144,30.927582758276,0,0
-31.845242736758,172.84452318202,25.73201320132,661742.35967878,-2838.8037986816,2557233.296144,30.93201320132,0,0
-31.845242718706,172.86608091302,25.736443644364,661742.35967878,-2838.8037986816,2557233.296144,30.936443644364,0,0
-31.845242700654,172.88763864403,25.740874087409,661742.35967878,-2838.8037986816,2557233.296144,30.940874087409,0,0
-31.845242682602,172.90919637503,25.745304530453,661742.35967878,-2838.8037986816,2557233.296144,30.945304530453,0,0
-31.845242664551,172.93075410604,25.749734973497,661742.35967878,-2838.8037986816,2557233.296144,30.949734973497,0,0
-31.845242646499,172.95231183704,25.754165416542,661742.35967878,-2838.8037986816,2557233.296144,30.954165416542,0,0
-31.845242628447,172.97386956804,25.758595859586,661742.35967878,-2838.8037986816,2557233.296144,30.958595859586,0,0
-31.845242610395,172.99542729905,25.76302630263,661742.35967878,-2838.8037986816,2557233.296144,30.96302630263,0,0
-31.845242592344,173.01698503005,25.767456745675,661742.35967878,-2838.8037986816,2557233.296144,30.967456745675,0,0
-31.845242574292,173.03854276105,25.771887188719,661742.35967878,-2838.8037986816,2557233.296144,30.971887188719,0,0
-31.84524255624,173.06010049206,25.776317631763,661742.35967878,-2838.8037986816,2557233.296144,30.976317631763,0,0
-31.845242538188,173.08165822306,25.780748074807,661742.35967878,-2838.8037986816,2557233.296144,30.980748074807,0,0
-31.845242520137,173.10321595407,25.785178517852,661742.35967878,-2838.8037986816,2557233.296144,30.985178517852,0,0
-31.845242502085,173.12477368507,25.789608960896,661742.35967878,-2838.8037986816,2557233.296144,30.989608960896,0,0
-31.845242484033,173.14633141607,25.79403940394,661742.35967878,-2838.8037986816,2557233.296144,30.99403940394,0,0
-31.845242465981,173.16788914708,25.798469846985,661742.35967878,-2838.8037986816,2557233.296144,30.998469846985,0,0
-31.84524244793,173.18944687808,25.802900290029,661742.35967878,-2838.8037986816,2557233.296144,31.002900290029,0,0
-31.845242429878,173.21100460909,25.807330733073,661742.35967878,-2838.8037986816,2557233.296144,31.007330733073,0,0
-31.845242411826,173.23256234009,25.811761176118,661742.35967878,-2838.8037986816,2557233.296144,31.011761176118,0,0
-31.845242393774,173.25412007109,25.816191619162,661742.35967878,-2838.8037986816,2557233.296144,31.016191619162,0,0
-31.845242375722,173.2756778021,25.820622062206,661742.35967878,-2838.8037986816,2557233.296144,31.020622062206,0,0
-31.845242357671,173.2972355331,25.825052505251,661742.35967878,-2838.8037986816,2557233.296144,31.025052505251,0,0
-31.845242339619,173.3187932641,25.829482948295,661742.35967878,-2838.8037986816,2557233.296144,31.029482948295,0,0
-31.845242321567,173.34035099511,25.833913391339,661742.35967878,-2838.8037986816,2557233.296144,31.033913391339,0,0
-31.845242303515,173.36190872611,25.838343834383,661742.35967878,-2838.8037986816,2557233.296144,31.038343834383,0,0
-31.845242285464,173.38346645712,25.842774277428,661742.35967878,-2838.8037986816,2557233.296144,31.042774277428,0,0
-31.845242267412,173.40502418812,25.847204720472,661742.35967878,-2838.8037986816,2557233.296144,31.047204720472,0,0
-31.84524224936,173.42658191912,25.851635163516,661742.35967878,-2838.8037986816,2557233.296144,31.051635163516,0,0
-31.845242231308,173.44813965013,25.856065606561,661742.35967878,-2838.8037986816,2557233.296144,31.056065606561,0,0
-31.845242213257,173.46969738113,25.860496049605,661742.35967878,-2838.8037986816,2557233.296144,31.060496049605,0,0
-31.845242195205,173.49125511214,25.864926492649,661742.35967878,-2838.8037986816,2557233.296144,31.064926492649,0,0
-31.845242177153,173.51281284314,25.869356935694,661742.35967878,-2838.8037986816,2557233.296144,31.069356935694,0,0
-31.845242159101,173.53437057414,25.873787378738,661742.35967878,-2838.8037986816,2557233.296144,31.073787378738,0,0
-31.84524214105,173.55592830515,25.878217821782,661742.35967878,-2838.8037986816,2557233.296144,31.078217821782,0,0
-31.845242122998,173.57748603615,25.882648264826,661742.35967878,-2838.8037986816,2557233.296144,31.082648264826,0,0
-31.845242104946,173.59904376715,25.887078707871,661742.35967878,-2838.8037986816,2557233.296144,31.087078707871,0,0
-31.845242086894,173.62060149816,25.891509150915,661742.35967878,-2838.8037986816,2557233.296144,31.091509150915,0,0
-31.845242068843,173.64215922916,25.895939593959,661742.35967878,-2838.8037986816,2557233.296144,31.095939593959,0,0
-31.845242050791,173.66371696017,25.900370037004,661742.35967878,-2838.8037986816,2557233.296144,31.100370037004,0,0
-31.845242032739,173.68527469117,25.904800480048,661742.35967878,-2838.8037986816,2557233.296144,31.104800480048,0,0
-31.845242014687,173.70683242217,25.909230923092,661742.35967878,-2838.8037986816,2557233.296144,31.109230923092,0,0
-31.845241996636,173.72839015318,25.913661366137,661742.35967878,-2838.8037986816,2557233.296144,31.113661366137,0,0
-31.845241978584,173.74994788418,25.918091809181,661742.35967878,-2838.8037986816,2557233.296144,31.118091809181,0,0
-31.845241960532,173.77150561519,25.922522252225,661742.35967878,-2838.8037986816,2557233.296144,31.122522252225,0,0
-31.84524194248,173.79306334619,25.92695269527,661742.35967878,-2838.8037986816,2557233.296144,31.12695269527,0,0
-31.845241924428,173.81462107719,25.931383138314,661742.35967878,-2838.8037986816,2557233.296144,31.131383138314,0,0
-31.845241906377,173.8361788082,25.935813581358,661742.35967878,-2838.8037986816,2557233.296144,31.135813581358,0,0
-31.845241888325,173.8577365392,25.940244024402,661742.35967878,-2838.8037986816,2557233.296144,31.140244024402,0,0
-31.845241870273,173.87929427021,25.944674467447,661742.35967878,-2838.8037986816,2557233.296144,31.144674467447,0,0
-31.845241852221,173.90085200121,25.949104910491,661742.35967878,-2838.8037986816,2557233.296144,31.149104910491,0,0
-31.84524183417,173.92240973221,25.953535353535,661742.35967878,-2838.8037986816,2557233.296144,31.153535353535,0,0
-31.845241816118,173.94396746322,25.95796579658,661742.35967878,-2838.8037986816,2557233.296144,31.15796579658,0,0
-31.845241798066,173.96552519422,25.962396239624,661742.35967878,-2838.8037986816,2557233.296144,31.162396239624,0,0
-31.845241780014,173.98708292522,25.966826682668,661742.35967878,-2838.8037986816,2557233.296144,31.166826682668,0,0
-31.845241761963,174.00864065623,25.971257125713,661742.35967878,-2838.8037986816,2557233.296144,31.171257125713,0,0
-31.845241743911,174.03019838723,25.975687568757,661742.35967878,-2838.8037986816,2557233.296144,31.175687568757,0,0
-31.845241725859,174.05175611824,25.980118011801,661742.35967878,-2838.8037986816,2557233.296144,31.180118011801,0,0
-31.845241707807,174.07331384924,25.984548454845,661742.35967878,-2838.8037986816,2557233.296144,31.184548454845,0,0
-31.845241689756,174.09487158024,25.98897889789,661742.35967878,-2838.8037986816,2557233.296144,31.18897889789,0,0
-31.845241671704,174.11642931125,25.993409340934,661742.35967878,-2838.8037986816,2557233.296144,31.193409340934,0,0
-31.845241653652,174.13798704225,25.997839783978,661742.35967878,-2838.8037986816,2557233.296144,31.197839783978,0,0
-31.8452416356,174.15954477326,26.002270227023,661742.35967878,-2838.8037986816,2557233.296144,31.202270227023,0,0
-31.845241617549,174.18110250426,26.006700670067,661742.35967878,-2838.8037986816,2557233.296144,31.206700670067,0,0
-31.845241599497,174.20266023526,26.011131113111,661742.35967878,-2838.8037986816,2557233.296144,31.211131113111,0,0
-31.845241581445,174.22421796627,26.015561556156,661742.35967878,-2838.8037986816,2557233.296144,31.215561556156,0,0
-31.845241563393,174.24577569727,26.0199919992,661742.35967878,-2838.8037986816,2557233.296144,31.2199919992,0,0
-31.845241545342,174.26733342827,26.024422442244,661742.35967878,-2838.8037986816,2557233.296144,31.224422442244,0,0
-31.845241527476,174.28889115958,26.028852885289,656994.01838174,-176.87869558365,2552874.2928964,31.228852885289,0,0
-31.845241509687,174.31044889102,26.033283328333,656994.01838174,-176.87869558365,2552874.2928964,31.233283328333,0,0
-31.845241491899,174.33200662245,26.037713771377,656994.01838174,-176.87869558365,2552874.2928964,31.237713771377,0,0
-31.84524147411,174.35356435389,26.042144214421,656994.01838174,-176.87869558365,2552874.2928964,31.242144214421,0,0
-31.845241456322,174.37512208533,26.046574657466,656994.01838174,-176.87869558365,2552874.2928964,31.246574657466,0,0
-31.845241438533,174.39667981676,26.05100510051,656994.01838174,-176.87869558365,2552874.2928964,31.25100510051,0,0
-31.845241420745,174.4182375482,26.055435543554,656994.01838174,-176.87869558365,2552874.2928964,31.255435543554,0,0
-31.845241402956,174.43979527963,26.059865986599,656994.01838174,-176.87869558365,2552874.2928964,31.259865986599,0,0
-31.845241385168,174.46135301107,26.064296429643,656994.01838174,-176.87869558365,2552874.2928964,31.264296429643,0,0
-31.845241367379,174.4829107425,26.068726872687,656994.01838174,-176.87869558365,2552874.2928964,31.268726872687,0,0
-31.84524134959,174.50446847394,26.073157315732,656994.01838174,-176.87869558365,2552874.2928964,31.273157315732,0,0
-31.845241331802,174.52602620538,26.077587758776,656994.01838174,-176.87869558365,2552874.2928964,31.277587758776,0,0
-31.845241314013,174.54758393681,26.08201820182,656994.01838174,-176.87869558365,2552874.2928964,31.28201820182,0,0
-31.845241296225,174.56914166825,26.086448644864,656994.01838174,-176.87869558365,2552874.2928964,31.286448644864,0,0
-31.845241278436,174.59069939968,26.090879087909,656994.01838174,-176.87869558365,2552874.2928964,31.290879087909,0,0
-31.845241260648,174.61225713112,26.095309530953,656994.01838174,-176.87869558365,2552874.2928964,31.295309530953,0,0
-31.845241242859,174.63381486255,26.099739973997,656994.01838174,-176.87869558365,2552874.2928964,31.299739973997,0,0
-31.845241225071,174.65537259399,26.104170417042,656994.01838174,-176.87869558365,2552874.2928964,31.304170417042,0,0
-31.845241207282,174.67693032543,26.108600860086,656994.01838174,-176.87869558365,2552874.2928964,31.308600860086,0,0
-31.845241189494,174.69848805686,26.11303130313,656994.01838174,-176.87869558365,2552874.2928964,31.31303130313,0,0
-31.845241171705,174.7200457883,26.117461746175,656994.01838174,-176.87869558365,2552874.2928964,31.317461746175,0,0
-31.845241153917,174.74160351973,26.121892189219,656994.01838174,-176.87869558365,2552874.2928964,31.321892189219,0,0
-31.845241136128,174.76316125117,26.126322632263,656994.01838174,-176.87869558365,2552874.2928964,31.326322632263,0,0
-31.845241118339,174.7847189826,26.130753075308,656994.01838174,-176.87869558365,2552874.2928964,31.330753075308,0,0
-31.845241100551,174.80627671404,26.135183518352,656994.01838174,-176.87869558365,2552874.2928964,31.335183518352,0,0
-31.845241082762,174.82783444548,26.139613961396,656994.01838174,-176.87869558365,2552874.2928964,31.339613961396,0,0
-31.845241064974,174.84939217691,26.14404440444,656994.01838174,-176.87869558365,2552874.2928964,31.34404440444,0,0
-31.845241047185,174.87094990835,26.148474847485,656994.01838174,-176.87869558365,2552874.2928964,31.348474847485,0,0
-31.845241029397,174.89250763978,26.152905290529,656994.01838174,-176.87869558365,2552874.2928964,31.352905290529,0,0
-31.845241011608,174.91406537122,26.157335733573,656994.01838174,-176.87869558365,2552874.2928964,31.357335733573,0,0
-31.84524099382,174.93562310265,26.161766176618,656994.01838174,-176.87869558365,2552874.2928964,31.361766176618,0,0
-31.845240976031,174.95718083409,26.166196619662,656994.01838174,-176.87869558365,2552874.2928964,31.366196619662,0,0
-31.845240958243,174.97873856553,26.170627062706,656994.01838174,-176.87869558365,2552874.2928964,31.370627062706,0,0
-31.845240940454,175.00029629696,26.175057505751,656994.01838174,-176.87869558365,2552874.2928964,31.375057505751,0,0
-31.845240922665,175.0218540284,26.179487948795,656994.01838174,-176.87869558365,2552874.2928964,31.379487948795,0,0
-31.845240904877,175.04341175983,26.183918391839,656994.01838174,-176.87869558365,2552874.2928964,31.383918391839,0,0
-31.845240887088,175.06496949127,26.188348834883,656994.01838174,-176.87869558365,2552874.2928964,31.388348834883,0,0
-31.8452408693,175.0865272227,26.192779277928,656994.01838174,-176.87869558365,2552874.2928964,31.392779277928,0,0
-31.845240851511,175.10808495414,26.197209720972,656994.01838174,-176.87869558365,2552874.2928964,31.397209720972,0,0
-31.845240833723,175.12964268558,26.201640164016,656994.01838174,-176.87869558365,2552874.2928964,31.401640164016,0,0
-31.845240815934,175.15120041701,26.206070607061,656994.01838174,-176.87869558365,2552874.2928964,31.406070607061,0,0
-31.845240798146,175.17275814845,26.210501050105,656994.01838174,-176.87869558365,2552874.2928964,31.410501050105,0,0
-31.845240780357,175.19431587988,26.214931493149,656994.01838174,-176.87869558365,2552874.2928964,31.414931493149,0,0
-31.845240762569,175.21587361132,26.219361936194,656994.01838174,-176.87869558365,2552874.2928964,31.419361936194,0,0
-31.84524074478,175.23743134275,26.223792379238,656994.01838174,-176.87869558365,2552874.2928964,31.423792379238,0,0
-31.845240726991,175.25898907419,26.228222822282,656994.01838174,-176.87869558365,2552874.2928964,31.428222822282,0,0
-31.845240709203,175.28054680562,26.232653265327,656994.01838174,-176.87869558365,2552874.2928964,31.432653265327,0,0
-31.845240691414,175.30210453706,26.237083708371,656994.01838174,-176.87869558365,2552874.2928964,31.437083708371,0,0
-31.845240673626,175.3236622685,26.241514151415,656994.01838174,-176.87869558365,2552874.2928964,31.441514151415,0,0
-31.845240655837,175.34521999993,26.245944594459,656994.01838174,-176.87869558365,2552874.2928964,31.445944594459,0,0
-31.845240637958,175.36677773124,26.250375037504,659254.90759128,-519.28154761079,2546994.319996,31.450375037504,0,0
-31.845240619832,175.38833546222,26.254805480548,659254.90759128,-519.28154761079,2546994.319996,31.454805480548,0,0
-31.845240601706,175.40989319319,26.259235923592,659254.90759128,-519.28154761079,2546994.319996,31.459235923592,0,0
-31.845240583581,175.43145092417,26.263666366637,659254.90759128,-519.28154761079,2546994.319996,31.463666366637,0,0
-31.845240565455,175.45300865514,26.268096809681,659254.90759128,-519.28154761079,2546994.319996,31.468096809681,0,0
-31.845240547329,175.47456638612,26.272527252725,659254.90759128,-519.28154761079,2546994.319996,31.472527252725,0,0
-31.845240529203,175.49612411709,26.27695769577,659254.90759128,-519.28154761079,2546994.319996,31.47695769577,0,0
-31.845240511078,175.51768184807,26.281388138814,659254.90759128,-519.28154761079,2546994.319996,31.481388138814,0,0
-31.845240492952,175.53923957904,26.285818581858,659254.90759128,-519.28154761079,2546994.319996,31.485818581858,0,0
-31.845240474826,175.56079731002,26.290249024902,659254.90759128,-519.28154761079,2546994.319996,31.490249024902,0,0
-31.845240456701,175.58235504099,26.294679467947,659254.90759128,-519.28154761079,2546994.319996,31.494679467947,0,0
-31.845240438575,175.60391277197,26.299109910991,659254.90759128,-519.28154761079,2546994.319996,31.499109910991,0,0
-31.845240420449,175.62547050294,26.303540354035,659254.90759128,-519.28154761079,2546994.319996,31.503540354035,0,0
-31.845240402324,175.64702823392,26.30797079708,659254.90759128,-519.28154761079,2546994.319996,31.50797079708,0,0
-31.845240384198,175.66858596489,26.312401240124,659254.90759128,-519.28154761079,2546994.319996,31.512401240124,0,0
-31.845240366072,175.69014369587,26.316831683168,659254.90759128,-519.28154761079,2546994.319996,31.516831683168,0,0
-31.845240347947,175.71170142684,26.321262126213,659254.90759128,-519.28154761079,2546994.319996,31.521262126213,0,0
-31.845240329821,175.73325915782,26.325692569257,659254.90759128,-519.28154761079,2546994.319996,31.525692569257,0,0
-31.845240311695,175.75481688879,26.330123012301,659254.90759128,-519.28154761079,2546994.319996,31.530123012301,0,0
-31.84524029357,175.77637461977,26.334553455346,659254.90759128,-519.28154761079,2546994.319996,31.534553455346,0,0
-31.845240275444,175.79793235074,26.33898389839,659254.90759128,-519.28154761079,2546994.319996,31.53898389839,0,0
-31.845240257318,175.81949008172,26.343414341434,659254.90759128,-519.28154761079,2546994.319996,31.543414341434,0,0
-31.845240239192,175.84104781269,26.347844784478,659254.90759128,-519.28154761079,2546994.319996,31.547844784478,0,0
-31.845240221067,175.86260554367,26.352275227523,659254.90759128,-519.28154761079,2546994.319996,31.552275227523,0,0
-31.845240202941,175.88416327464,26.356705670567,659254.90759128,-519.28154761079,2546994.319996,31.556705670567,0,0
-31.845240184815,175.90572100562,26.361136113611,659254.90759128,-519.28154761079,2546994.319996,31.561136113611,0,0
-31.84524016669,175.92727873659,26.365566556656,659254.90759128,-519.28154761079,2546994.319996,31.565566556656,0,0
-31.845240148564,175.94883646757,26.3699969997,659254.90759128,-519.28154761079,2546994.319996,31.5699969997,0,0
-31.845240130438,175.97039419854,26.374427442744,659254.90759128,-519.28154761079,2546994.319996,31.574427442744,0,0
-31.845240112313,175.99195192952,26.378857885789,659254.90759128,-519.28154761079,2546994.319996,31.578857885789,0,0
-31.845240094187,176.01350966049,26.383288328833,659254.90759128,-519.28154761079,2546994.319996,31.583288328833,0,0
-31.845240076061,176.03506739147,26.387718771877,659254.90759128,-519.28154761079,2546994.319996,31.587718771877,0,0
-31.845240057936,176.05662512244,26.392149214921,659254.90759128,-519.28154761079,2546994.319996,31.592149214921,0,0
-31.84524003981,176.07818285342,26.396579657966,659254.90759128,-519.28154761079,2546994.319996,31.596579657966,0,0
-31.845240021684,176.09974058439,26.40101010101,659254.90759128,-519.28154761079,2546994.319996,31.60101010101,0,0
-31.845240003559,176.12129831537,26.405440544054,659254.90759128,-519.28154761079,2546994.319996,31.605440544054,0,0
-31.845239985433,176.14285604634,26.409870987099,659254.90759128,-519.28154761079,2546994.319996,31.609870987099,0,0
-31.845239967307,176.16441377732,26.414301430143,659254.90759128,-519.28154761079,2546994.319996,31.614301430143,0,0
-31.845239949181,176.18597150829,26.418731873187,659254.90759128,-519.28154761079,2546994.319996,31.618731873187,0,0
-31.845239931056,176.20752923927,26.423162316232,659254.90759128,-519.28154761079,2546994.319996,31.623162316232,0,0
-31.84523991293,176.22908697024,26.427592759276,659254.90759128,-519.28154761079,2546994.319996,31.627592759276,0,0
-31.845239894804,176.25064470122,26.43202320232,659254.90759128,-519.28154761079,2546994.319996,31.63202320232,0,0
-31.845239876679,176.27220243219,26.436453645365,659254.90759128,-519.28154761079,2546994.319996,31.636453645365,0,0
-31.845239858553,176.29376016317,26.440884088409,659254.90759128,-519.28154761079,2546994.319996,31.640884088409,0,0
-31.845239840427,176.31531789414,26.445314531453,659254.90759128,-519.28154761079,2546994.319996,31.645314531453,0,0
-31.845239822302,176.33687562512,26.449744974497,659254.90759128,-519.28154761079,2546994.319996,31.649744974497,0,0
-31.845239804176,176.35843335609,26.454175417542,659254.90759128,-519.28154761079,2546994.319996,31.654175417542,0,0
-31.84523978605,176.37999108707,26.458605860586,659254.90759128,-519.28154761079,2546994.319996,31.658605860586,0,0
-31.845239767925,176.40154881804,26.46303630363,659254.90759128,-519.28154761079,2546994.319996,31.66303630363,0,0
-31.845239749799,176.42310654902,26.467466746675,659254.90759128,-519.28154761079,2546994.319996,31.667466746675,0,0
-31.845239731673,176.44466427999,26.471897189719,659254.90759128,-519.28154761079,2546994.319996,31.671897189719,0,0
-31.845239713548,176.46622201097,26.476327632763,659254.90759128,-519.28154761079,2546994.319996,31.676327632763,0,0
-31.845239695422,176.48777974194,26.480758075808,659254.90759128,-519.28154761079,2546994.319996,31.680758075808,0,0
-31.845239677296,176.50933747292,26.485188518852,659254.90759128,-519.28154761079,2546994.319996,31.685188518852,0,0
-31.84523965917,176.53089520389,26.489618961896,659254.90759128,-519.28154761079,2546994.319996,31.689618961896,0,0
-31.845239641045,176.55245293487,26.49404940494,659254.90759128,-519.28154761079,2546994.319996,31.69404940494,0,0
-31.845239622919,176.57401066584,26.498479847985,659254.90759128,-519.28154761079,2546994.319996,31.698479847985,0,0
-31.845239604793,176.59556839682,26.502910291029,659254.90759128,-519.28154761079,2546994.319996,31.702910291029,0,0
-31.845239586668,176.61712612779,26.507340734073,659254.90759128,-519.28154761079,2546994.319996,31.707340734073,0,0
-31.845239568542,176.63868385877,26.511771177118,659254.90759128,-519.28154761079,2546994.319996,31.711771177118,0,0
-31.845239550416,176.66024158974,26.516201620162,659254.90759128,-519.28154761079,2546994.319996,31.716201620162,0,0
-31.845239532291,176.68179932072,26.520632063206,659254.90759128,-519.28154761079,2546994.319996,31.720632063206,0,0
-31.845239514165,176.70335705169,26.525062506251,659254.90759128,-519.28154761079,2546994.319996,31.725062506251,0,0
-31.845239496039,176.72491478267,26.529492949295,659254.90759128,-519.28154761079,2546994.319996,31.729492949295,0,0
-31.845239477914,176.74647251364,26.533923392339,659254.90759128,-519.28154761079,2546994.319996,31.733923392339,0,0
-31.845239459788,176.76803024462,26.538353835384,659254.90759128,-519.28154761079,2546994.319996,31.738353835384,0,0
-31.845239441662,176.78958797559,26.542784278428,659254.90759128,-519.28154761079,2546994.319996,31.742784278428,0,0
-31.845239423536,176.81114570657,26.547214721472,659254.90759128,-519.28154761079,2546994.319996,31.747214721472,0,0
-31.845239405411,176.83270343754,26.551645164516,659254.90759128,-519.28154761079,2546994.319996,31.751645164516,0,0
-31.845239387285,176.85426116852,26.556075607561,659254.90759128,-519.28154761079,2546994.319996,31.756075607561,0,0
-31.845239369159,176.87581889949,26.560506050605,659254.90759128,-519.28154761079,2546994.319996,31.760506050605,0,0
-31.845239351034,176.89737663047,26.564936493649,659254.90759128,-519.28154761079,2546994.319996,31.764936493649,0,0
-31.845239332908,176.91893436144,26.569366936694,659254.90759128,-519.28154761079,2546994.319996,31.769366936694,0,0
-31.845239314782,176.94049209242,26.573797379738,659254.90759128,-519.28154761079,2546994.319996,31.773797379738,0,0
-31.845239296657,176.96204982339,26.578227822782,659254.90759128,-519.28154761079,2546994.319996,31.778227822782,0,0
-31.845239278531,176.98360755437,26.582658265827,659254.90759128,-519.28154761079,2546994.319996,31.782658265827,0,0
-31.845239260405,177.00516528534,26.587088708871,659254.90759128,-519.28154761079,2546994.319996,31.787088708871,0,0
-31.84523924228,177.02672301632,26.591519151915,659254.90759128,-519.28154761079,2546994.319996,31.791519151915,0,0
-31.845239224154,177.04828074729,26.595949594959,659254.90759128,-519.28154761079,2546994.319996,31.795949594959,0,0
-31.845239206028,177.06983847827,26.600380038004,659254.90759128,-519.28154761079,2546994.319996,31.800380038004,0,0
-31.845239187903,177.09139620924,26.604810481048,659254.90759128,-519.28154761079,2546994.319996,31.804810481048,0,0
-31.845239169777,177.11295394022,26.609240924092,659254.90759128,-519.28154761079,2546994.319996,31.809240924092,0,0
-31.845239151651,177.13451167119,26.613671367137,659254.90759128,-519.28154761079,2546994.319996,31.813671367137,0,0
-31.845239133525,177.15606940217,26.618101810181,659254.90759128,-519.28154761079,2546994.319996,31.818101810181,0,0
-31.8452391154,177.17762713314,26.622532253225,659254.90759128,-519.28154761079,2546994.319996,31.822532253225,0,0
-31.845239097274,177.19918486412,26.62696269627,659254.90759128,-519.28154761079,2546994.319996,31.82696269627,0,0
-31.845239079148,177.22074259509,26.631393139314,659254.90759128,-519.28154761079,2546994.319996,31.831393139314,0,0
-31.845239061023,177.24230032607,26.635823582358,659254.90759128,-519.28154761079,2546994.319996,31.835823582358,0,0
-31.845239042897,177.26385805704,26.640254025403,659254.90759128,-519.28154761079,2546994.319996,31.840254025403,0,0
-31.845239024771,177.28541578802,26.644684468447,659254.90759128,-519.28154761079,2546994.319996,31.844684468447,0,0
-31.845239006646,177.30697351899,26.649114911491,659254.90759128,-519.28154761079,2546994.319996,31.849114911491,0,0
-31.84523898852,177.32853124997,26.653545354535,659254.90759128,-519.28154761079,2546994.319996,31.853545354535,0,0
-31.845238970394,177.35008898094,26.65797579758,659254.90759128,-519.28154761079,2546994.319996,31.85797579758,0,0
-31.845238952269,177.37164671192,26.662406240624,659254.90759128,-519.28154761079,2546994.319996,31.862406240624,0,0
-31.845238934143,177.39320444289,26.666836683668,659254.90759128,-519.28154761079,2546994.319996,31.866836683668,0,0
-31.845238916017,177.41476217387,26.671267126713,659254.90759128,-519.28154761079,2546994.319996,31.871267126713,0,0
-31.845238897892,177.43631990484,26.675697569757,659254.90759128,-519.28154761079,2546994.319996,31.875697569757,0,0
-31.845238879766,177.45787763582,26.680128012801,659254.90759128,-519.28154761079,2546994.319996,31.880128012801,0,0
-31.84523886164,177.47943536679,26.684558455846,659254.90759128,-519.28154761079,2546994.319996,31.884558455846,0,0
-31.845238843514,177.50099309777,26.68898889889,659254.90759128,-519.28154761079,2546994.319996,31.88898889889,0,0
-31.845238825389,177.52255082874,26.693419341934,659254.90759128,-519.28154761079,2546994.319996,31.893419341934,0,0
-31.845238807263,177.54410855972,26.697849784978,659254.90759128,-519.28154761079,2546994.319996,31.897849784978,0,0
-31.845238789137,177.56566629069,26.702280228023,659254.90759128,-519.28154761079,2546994.319996,31.902280228023,0,0
-31.845238771012,177.58722402167,26.706710671067,659254.90759128,-519.28154761079,2546994.319996,31.906710671067,0,0
-31.845238752886,177.60878175264,26.711141114111,659254.90759128,-519.28154761079,2546994.319996,31.911141114111,0,0
-31.84523873476,177.63033948362,26.715571557156,659254.90759128,-519.28154761079,2546994.319996,31.915571557156,0,0
-31.845238716635,177.65189721459,26.7200020002,659254.90759128,-519.28154761079,2546994.319996,31.9200020002,0,0
-31.845238698509,177.67345494557,26.724432443244,659254.90759128,-519.28154761079,2546994.319996,31.924432443244,0,0
-31.845238680383,177.69501267654,26.728862886289,659254.90759128,-519.28154761079,2546994.319996,31.928862886289,0,0
-31.845238662258,177.71657040752,26.733293329333,659254.90759128,-519.28154761079,2546994.319996,31.933293329333,0,0
-31.845238644132,177.73812813849,26.737723772377,659254.90759128,-519.28154761079,2546994.319996,31.937723772377,0,0
-31.845238626006,177.75968586947,26.742154215422,659254.90759128,-519.28154761079,2546994.319996,31.942154215422,0,0
-31.845238607881,177.78124360044,26.746584658466,659254.90759128,-519.28154761079,2546994.319996,31.946584658466,0,0
-31.845238589755,177.80280133142,26.75101510151,659254.90759128,-519.28154761079,2546994.319996,31.95101510151,0,0
-31.845238571629,177.82435906239,26.755445544554,659254.90759128,-519.28154761079,2546994.319996,31.955445544554,0,0
-31.845238553503,177.84591679337,26.759875987599,659254.90759128,-519.28154761079,2546994.319996,31.959875987599,0,0
-31.845238535378,177.86747452434,26.764306430643,659254.90759128,-519.28154761079,2546994.319996,31.964306430643,0,0
-31.845238517252,177.88903225532,26.768736873687,659254.90759128,-519.28154761079,2546994.319996,31.968736873687,0,0
-31.845238499126,177.91058998629,26.773167316732,659254.90759128,-519.28154761079,2546994.319996,31.973167316732,0,0
-31.845238481001,177.93214771727,26.777597759776,659254.90759128,-519.28154761079,2546994.319996,31.977597759776,0,0
-31.845238462875,177.95370544824,26.78202820282,659254.90759128,-519.28154761079,2546994.319996,31.98202820282,0,0
-31.845238444749,177.97526317922,26.786458645865,659254.90759128,-519.28154761079,2546994.319996,31.986458645865,0,0
-31.845238426624,177.99682091019,26.790889088909,659254.90759128,-519.28154761079,2546994.319996,31.990889088909,0,0
-31.845238408498,178.01837864117,26.795319531953,659254.90759128,-519.28154761079,2546994.319996,31.995319531953,0,0
-31.845238390372,178.03993637214,26.799749974997,659254.90759128,-519.28154761079,2546994.319996,31.999749974997,0,0
-31.845238372247,178.06149410312,26.804180418042,659254.90759128,-519.28154761079,2546994.319996,32.004180418042,0,0
-31.845238354121,178.08305183409,26.808610861086,659254.90759128,-519.28154761079,2546994.319996,32.008610861086,0,0
-31.845238335995,178.10460956507,26.81304130413,659254.90759128,-519.28154761079,2546994.319996,32.01304130413,0,0
-31.84523831787,178.12616729604,26.817471747175,659254.90759128,-519.28154761079,2546994.319996,32.017471747175,0,0
-31.845238299744,178.14772502702,26.821902190219,659254.90759128,-519.28154761079,2546994.319996,32.021902190219,0,0
-31.845238281618,178.16928275799,26.826332633263,659254.90759128,-519.28154761079,2546994.319996,32.026332633263,0,0
-31.845238263492,178.19084048897,26.830763076308,659254.90759128,-519.28154761079,2546994.319996,32.030763076308,0,0
-31.845238245367,178.21239821994,26.835193519352,659254.90759128,-519.28154761079,2546994.319996,32.035193519352,0,0
-31.845238227241,178.23395595092,26.839623962396,659254.90759128,-519.28154761079,2546994.319996,32.039623962396,0,0
-31.845238209115,178.25551368189,26.844054405441,659254.90759128,-519.28154761079,2546994.319996,32.044054405441,0,0
-31.84523819099,178.27707141287,26.848484848485,659254.90759128,-519.28154761079,2546994.319996,32.048484848485,0,0
-31.845238172864,178.29862914384,26.852915291529,659254.90759128,-519.28154761079,2546994.319996,32.052915291529,0,0
-31.845238154738,178.32018687482,26.857345734573,659254.90759128,-519.28154761079,2546994.319996,32.057345734573,0,0
-31.845238136613,178.34174460579,26.861776177618,659254.90759128,-519.28154761079,2546994.319996,32.061776177618,0,0
-31.845238118487,178.36330233677,26.866206620662,659254.90759128,-519.28154761079,2546994.319996,32.066206620662,0,0
-31.845238100361,178.38486006774,26.870637063706,659254.90759128,-519.28154761079,2546994.319996,32.070637063706,0,0
-31.845238082236,178.40641779872,26.875067506751,659254.90759128,-519.28154761079,2546994.319996,32.075067506751,0,0
-31.84523806411,178.42797552969,26.879497949795,659254.90759128,-519.28154761079,2546994.319996,32.079497949795,0,0
-31.845238045984,178.44953326067,26.883928392839,659254.90759128,-519.28154761079,2546994.319996,32.083928392839,0,0
-31.845238027859,178.47109099164,26.888358835884,659254.90759128,-519.28154761079,2546994.319996,32.088358835884,0,0
-31.845238009733,178.49264872262,26.892789278928,659254.90759128,-519.28154761079,2546994.319996,32.092789278928,0,0
-31.845237991607,178.51420645359,26.897219721972,659254.90759128,-519.28154761079,2546994.319996,32.097219721972,0,0
-31.845237973481,178.53576418457,26.901650165017,659254.90759128,-519.28154761079,2546994.319996,32.101650165017,0,0
-31.845237955356,178.55732191554,26.906080608061,659254.90759128,-519.28154761079,2546994.319996,32.106080608061,0,0
-31.84523793723,178.57887964652,26.910511051105,659254.90759128,-519.28154761079,2546994.319996,32.110511051105,0,0
-31.845237919104,178.60043737749,26.914941494149,659254.90759128,-519.28154761079,2546994.319996,32.114941494149,0,0
-31.845237900979,178.62199510847,26.919371937194,659254.90759128,-519.28154761079,2546994.319996,32.119371937194,0,0
-31.845237882853,178.64355283944,26.923802380238,659254.90759128,-519.28154761079,2546994.319996,32.123802380238,0,0
-31.845237864727,178.66511057042,26.928232823282,659254.90759128,-519.28154761079,2546994.319996,32.128232823282,0,0
-31.845237846602,178.68666830139,26.932663266327,659254.90759128,-519.28154761079,2546994.319996,32.132663266327,0,0
-31.845237828476,178.70822603237,26.937093709371,659254.90759128,-519.28154761079,2546994.319996,32.137093709371,0,0
-31.84523781035,178.72978376334,26.941524152415,659254.90759128,-519.28154761079,2546994.319996,32.141524152415,0,0
-31.845237792225,178.75134149432,26.94595459546,659254.90759128,-519.28154761079,2546994.319996,32.14595459546,0,0
-31.845237774099,178.77289922529,26.950385038504,659254.90759128,-519.28154761079,2546994.319996,32.150385038504,0,0
-31.845237755973,178.79445695627,26.954815481548,659254.90759128,-519.28154761079,2546994.319996,32.154815481548,0,0
-31.845237737848,178.81601468724,26.959245924592,659254.90759128,-519.28154761079,2546994.319996,32.159245924592,0,0
-31.845237719722,178.83757241822,26.963676367637,659254.90759128,-519.28154761079,2546994.319996,32.163676367637,0,0
-31.845237701596,178.85913014919,26.968106810681,659254.90759128,-519.28154761079,2546994.319996,32.168106810681,0,0
-31.84523768347,178.88068788017,26.972537253725,659254.90759128,-519.28154761079,2546994.319996,32.172537253725,0,0
-31.845237665345,178.90224561114,26.97696769677,659254.90759128,-519.28154761079,2546994.319996,32.17696769677,0,0
-31.845237647219,178.92380334211,26.981398139814,659254.90759128,-519.28154761079,2546994.319996,32.181398139814,0,0
-31.845237629093,178.94536107309,26.985828582858,659254.90759128,-519.28154761079,2546994.319996,32.185828582858,0,0
-31.845237610968,178.96691880406,26.990259025903,659254.90759128,-519.28154761079,2546994.319996,32.190259025903,0,0
-31.845237592842,178.98847653504,26.994689468947,659254.90759128,-519.28154761079,2546994.319996,32.194689468947,0,0
-31.845237574716,179.01003426601,26.999119911991,659254.90759128,-519.28154761079,2546994.319996,32.199119911991,0,0
-31.845237556591,179.03159199699,27.003550355036,659254.90759128,-519.28154761079,2546994.319996,32.203550355036,0,0
-31.845237538465,179.05314972796,27.00798079808,659254.90759128,-519.28154761079,2546994.319996,32.20798079808,0,0
-31.845237520339,179.07470745894,27.012411241124,659254.90759128,-519.28154761079,2546994.319996,32.212411241124,0,0
-31.845237502214,179.09626518991,27.016841684168,659254.90759128,-519.28154761079,2546994.319996,32.216841684168,0,0
-31.845237484088,179.11782292089,27.021272127213,659254.90759128,-519.28154761079,2546994.319996,32.221272127213,0,0
-31.845237465962,179.13938065186,27.025702570257,659254.90759128,-519.28154761079,2546994.319996,32.225702570257,0,0
-31.845237447836,179.16093838284,27.030133013301,659254.90759128,-519.28154761079,2546994.319996,32.230133013301,0,0
-31.845237429711,179.18249611381,27.034563456346,659254.90759128,-519.28154761079,2546994.319996,32.234563456346,0,0
-31.845237411585,179.20405384479,27.03899389939,659254.90759128,-519.28154761079,2546994.319996,32.23899389939,0,0
-31.845237393459,179.22561157576,27.043424342434,659254.90759128,-519.28154761079,2546994.319996,32.243424342434,0,0
-31.845237375334,179.24716930674,27.047854785479,659254.90759128,-519.28154761079,2546994.319996,32.247854785479,0,0
-31.845237357208,179.26872703771,27.052285228523,659254.90759128,-519.28154761079,2546994.319996,32.252285228523,0,0
-31.845237339082,179.29028476869,27.056715671567,659254.90759128,-519.28154761079,2546994.319996,32.256715671567,0,0
-31.845237320957,179.31184249966,27.061146114611,659254.90759128,-519.28154761079,2546994.319996,32.261146114611,0,0
-31.845237302831,179.33340023064,27.065576557656,659254.90759128,-519.28154761079,2546994.319996,32.265576557656,0,0
-31.845237284705,179.35495796161,27.0700070007,659254.90759128,-519.28154761079,2546994.319996,32.2700070007,0,0
-31.84523726658,179.37651569259,27.074437443744,659254.90759128,-519.28154761079,2546994.319996,32.274437443744,0,0
-31.845237248454,179.39807342356,27.078867886789,659254.90759128,-519.28154761079,2546994.319996,32.278867886789,0,0
-31.845237230328,179.41963115454,27.083298329833,659254.90759128,-519.28154761079,2546994.319996,32.283298329833,0,0
-31.845237212203,179.44118888551,27.087728772877,659254.90759128,-519.28154761079,2546994.319996,32.287728772877,0,0
-31.845237194077,179.46274661649,27.092159215922,659254.90759128,-519.28154761079,2546994.319996,32.292159215922,0,0
-31.845237175951,179.48430434746,27.096589658966,659254.90759128,-519.28154761079,2546994.319996,32.296589658966,0,0
-31.845237157825,179.50586207844,27.10102010201,659254.90759128,-519.28154761079,2546994.319996,32.30102010201,0,0
-31.8452371397,179.52741980941,27.105450545055,659254.90759128,-519.28154761079,2546994.319996,32.305450545055,0,0
-31.845237121574,179.54897754039,27.109880988099,659254.90759128,-519.28154761079,2546994.319996,32.309880988099,0,0
-31.845237103448,179.57053527136,27.114311431143,659254.90759128,-519.28154761079,2546994.319996,32.314311431143,0,0
-31.845237085323,179.59209300234,27.118741874187,659254.90759128,-519.28154761079,2546994.319996,32.318741874187,0,0
-31.845237067197,179.61365073331,27.123172317232,659254.90759128,-519.28154761079,2546994.319996,32.323172317232,0,0
-31.845237049071,179.63520846429,27.127602760276,659254.90759128,-519.28154761079,2546994.319996,32.327602760276,0,0
-31.845237030946,179.65676619526,27.13203320332,659254.90759128,-519.28154761079,2546994.319996,32.33203320332,0,0
-31.84523701282,179.67832392624,27.136463646365,659254.90759128,-519.28154761079,2546994.319996,32.336463646365,0,0
-31.845236994694,179.69988165721,27.140894089409,659254.90759128,-519.28154761079,2546994.319996,32.340894089409,0,0
-31.845236976569,179.72143938819,27.145324532453,659254.90759128,-519.28154761079,2546994.319996,32.345324532453,0,0
-31.845236958443,179.74299711916,27.149754975498,659254.90759128,-519.28154761079,2546994.319996,32.349754975498,0,0
-31.845236940317,179.76455485014,27.154185418542,659254.90759128,-519.28154761079,2546994.319996,32.354185418542,0,0
-31.845236922192,179.78611258111,27.158615861586,659254.90759128,-519.28154761079,2546994.319996,32.358615861586,0,0
-31.845236904066,179.80767031209,27.16304630463,659254.90759128,-519.28154761079,2546994.319996,32.36304630463,0,0
-31.84523688594,179.82922804306,27.167476747675,659254.90759128,-519.28154761079,2546994.319996,32.367476747675,0,0
-31.845236867814,179.85078577404,27.171907190719,659254.90759128,-519.28154761079,2546994.319996,32.371907190719,0,0
-31.845236849689,179.87234350501,27.176337633763,659254.90759128,-519.28154761079,2546994.319996,32.376337633763,0,0
-31.845236831563,179.89390123599,27.180768076808,659254.90759128,-519.28154761079,2546994.319996,32.380768076808,0,0
-31.845236813437,179.91545896696,27.185198519852,659254.90759128,-519.28154761079,2546994.319996,32.385198519852,0,0
-31.845236795312,179.93701669794,27.189628962896,659254.90759128,-519.28154761079,2546994.319996,32.389628962896,0,0
-31.845236777186,179.95857442891,27.194059405941,659254.90759128,-519.28154761079,2546994.319996,32.394059405941,0,0
-31.84523675906,179.98013215989,27.198489848985,659254.90759128,-519.28154761079,2546994.319996,32.398489848985,0,0
-31.845236740935,180.00168989086,27.202920292029,659254.90759128,-519.28154761079,2546994.319996,32.402920292029,0,0
-31.845236722809,180.02324762184,27.207350735074,659254.90759128,-519.28154761079,2546994.319996,32.407350735074,0,0
-31.845236704683,180.04480535281,27.211781178118,659254.90759128,-519.28154761079,2546994.319996,32.411781178118,0,0
-31.845236686558,180.06636308379,27.216211621162,659254.90759128,-519.28154761079,2546994.319996,32.416211621162,0,0
-31.845236668432,180.08792081476,27.220642064206,659254.90759128,-519.28154761079,2546994.319996,32.420642064206,0,0
-31.845236650306,180.10947854574,27.225072507251,659254.90759128,-519.28154761079,2546994.319996,32.425072507251,0,0
-31.845236632181,180.13103627671,27.229502950295,659254.90759128,-519.28154761079,2546994.319996,32.429502950295,0,0
-31.845236614055,180.15259400769,27.233933393339,659254.90759128,-519.28154761079,2546994.319996,32.433933393339,0,0
-31.845236595929,180.17415173866,27.238363836384,659254.90759128,-519.28154761079,2546994.319996,32.438363836384,0,0
-31.845236577803,180.19570946964,27.242794279428,659254.90759128,-519.28154761079,2546994.319996,32.442794279428,0,0
-31.845236559678,180.21726720061,27.247224722472,659254.90759128,-519.28154761079,2546994.319996,32.447224722472,0,0
-31.845236541552,180.23882493159,27.251655165517,659254.90759128,-519.28154761079,2546994.319996,32.451655165517,0,0
-31.845236523426,180.26038266256,27.256085608561,659254.90759128,-519.28154761079,2546994.319996,32.456085608561,0,0
-31.845236505301,180.28194039354,27.260516051605,659254.90759128,-519.28154761079,2546994.319996,32.460516051605,0,0
-31.845236487175,180.30349812451,27.264946494649,659254.90759128,-519.28154761079,2546994.319996,32.464946494649,0,0
-31.845236469049,180.32505585549,27.269376937694,659254.90759128,-519.28154761079,2546994.319996,32.469376937694,0,0
-31.845236450924,180.34661358646,27.273807380738,659254.90759128,-519.28154761079,2546994.319996,32.473807380738,0,0
-31.845236432798,180.36817131744,27.278237823782,659254.90759128,-519.28154761079,2546994.319996,32.478237823782,0,0
-31.845236414672,180.38972904841,27.282668266827,659254.90759128,-519.28154761079,2546994.319996,32.482668266827,0,0
-31.845236396547,180.41128677939,27.287098709871,659254.90759128,-519.28154761079,2546994.319996,32.487098709871,0,0
-31.845236378421,180.43284451036,27.291529152915,659254.90759128,-519.28154761079,2546994.319996,32.491529152915,0,0
-31.845236360295,180.45440224134,27.29595959596,659254.90759128,-519.28154761079,2546994.319996,32.49595959596,0,0
-31.84523634217,180.47595997231,27.300390039004,659254.90759128,-519.28154761079,2546994.319996,32.500390039004,0,0
-31.845236324044,180.49751770329,27.304820482048,659254.90759128,-519.28154761079,2546994.319996,32.504820482048,0,0
-31.845236305918,180.51907543426,27.309250925093,659254.90759128,-519.28154761079,2546994.319996,32.509250925093,0,0
-31.845236287792,180.54063316524,27.313681368137,659254.90759128,-519.28154761079,2546994.319996,32.513681368137,0,0
-31.845236269667,180.56219089621,27.318111811181,659254.90759128,-519.28154761079,2546994.319996,32.518111811181,0,0
-31.845236251541,180.58374862719,27.322542254225,659254.90759128,-519.28154761079,2546994.319996,32.522542254225,0,0
-31.845236233415,180.60530635816,27.32697269727,659254.90759128,-519.28154761079,2546994.319996,32.52697269727,0,0
-31.84523621529,180.62686408914,27.331403140314,659254.90759128,-519.28154761079,2546994.319996,32.531403140314,0,0
-31.845236197164,180.64842182011,27.335833583358,659254.90759128,-519.28154761079,2546994.319996,32.535833583358,0,0
-31.845236179038,180.66997955109,27.340264026403,659254.90759128,-519.28154761079,2546994.319996,32.540264026403,0,0
-31.845236160913,180.69153728206,27.344694469447,659254.90759128,-519.28154761079,2546994.319996,32.544694469447,0,0
-31.845236142787,180.71309501304,27.349124912491,659254.90759128,-519.28154761079,2546994.319996,32.549124912491,0,0
-31.845236124661,180.73465274401,27.353555355536,659254.90759128,-519.28154761079,2546994.319996,32.553555355536,0,0
-31.845236106536,180.75621047499,27.35798579858,659254.90759128,-519.28154761079,2546994.319996,32.55798579858,0,0
-31.84523608841,180.77776820596,27.362416241624,659254.90759128,-519.28154761079,2546994.319996,32.562416241624,0,0
-31.845236070284,180.79932593694,27.366846684668,659254.90759128,-519.28154761079,2546994.319996,32.566846684668,0,0
-31.845236052159,180.82088366791,27.371277127713,659254.90759128,-519.28154761079,2546994.319996,32.571277127713,0,0
-31.845236034033,180.84244139889,27.375707570757,659254.90759128,-519.28154761079,2546994.319996,32.575707570757,0,0
-31.845236015907,180.86399912986,27.380138013801,659254.90759128,-519.28154761079,2546994.319996,32.580138013801,0,0
-31.845235997781,180.88555686084,27.384568456846,659254.90759128,-519.28154761079,2546994.319996,32.584568456846,0,0
-31.845235979656,180.90711459181,27.38899889989,659254.90759128,-519.28154761079,2546994.319996,32.58899889989,0,0
-31.84523596153,180.92867232279,27.393429342934,659254.90759128,-519.28154761079,2546994.319996,32.593429342934,0,0
-31.845235943404,180.95023005376,27.397859785979,659254.90759128,-519.28154761079,2546994.319996,32.597859785979,0,0
-31.845235925279,180.97178778474,27.402290229023,659254.90759128,-519.28154761079,2546994.319996,32.602290229023,0,0
-31.845235907153,180.99334551571,27.406720672067,659254.90759128,-519.28154761079,2546994.319996,32.606720672067,0,0
-31.845235889027,181.01490324669,27.411151115112,659254.90759128,-519.28154761079,2546994.319996,32.611151115112,0,0
-31.845235870902,181.03646097766,27.415581558156,659254.90759128,-519.28154761079,2546994.319996,32.615581558156,0,0
-31.845235852776,181.05801870864,27.4200120012,659254.90759128,-519.28154761079,2546994.319996,32.6200120012,0,0
-31.84523583465,181.07957643961,27.424442444244,659254.90759128,-519.28154761079,2546994.319996,32.624442444244,0,0
-31.845235816525,181.10113417059,27.428872887289,659254.90759128,-519.28154761079,2546994.319996,32.628872887289,0,0
-31.845235798399,181.12269190156,27.433303330333,659254.90759128,-519.28154761079,2546994.319996,32.633303330333,0,0
-31.845235780273,181.14424963254,27.437733773377,659254.90759128,-519.28154761079,2546994.319996,32.637733773377,0,0
-31.845235762148,181.16580736351,27.442164216422,659254.90759128,-519.28154761079,2546994.319996,32.642164216422,0,0
-31.845235744022,181.18736509449,27.446594659466,659254.90759128,-519.28154761079,2546994.319996,32.646594659466,0,0
-31.845235725896,181.20892282546,27.45102510251,659254.90759128,-519.28154761079,2546994.319996,32.65102510251,0,0
-31.84523570777,181.23048055644,27.455455545555,659254.90759128,-519.28154761079,2546994.319996,32.655455545555,0,0
-31.845235689645,181.25203828741,27.459885988599,659254.90759128,-519.28154761079,2546994.319996,32.659885988599,0,0
-31.845235671519,181.27359601839,27.464316431643,659254.90759128,-519.28154761079,2546994.319996,32.664316431643,0,0
-31.845235653393,181.29515374936,27.468746874687,659254.90759128,-519.28154761079,2546994.319996,32.668746874687,0,0
-31.845235635268,181.31671148034,27.473177317732,659254.90759128,-519.28154761079,2546994.319996,32.673177317732,0,0
-31.845235617142,181.33826921131,27.477607760776,659254.90759128,-519.28154761079,2546994.319996,32.677607760776,0,0
-31.845235599016,181.35982694229,27.48203820382,659254.90759128,-519.28154761079,2546994.319996,32.68203820382,0,0
-31.845235580891,181.38138467326,27.486468646865,659254.90759128,-519.28154761079,2546994.319996,32.686468646865,0,0
-31.845235562765,181.40294240424,27.490899089909,659254.90759128,-519.28154761079,2546994.319996,32.690899089909,0,0
-31.845235544639,181.42450013521,27.495329532953,659254.90759128,-519.28154761079,2546994.319996,32.695329532953,0,0
-31.845235526514,181.44605786619,27.499759975998,659254.90759128,-519.28154761079,2546994.319996,32.699759975998,0,0
-31.845235508388,181.46761559716,27.504190419042,659254.90759128,-519.28154761079,2546994.319996,32.704190419042,0,0
-31.845235490262,181.48917332814,27.508620862086,659254.90759128,-519.28154761079,2546994.319996,32.708620862086,0,0
-31.845235472136,181.51073105911,27.513051305131,659254.90759128,-519.28154761079,2546994.319996,32.713051305131,0,0
-31.845235454011,181.53228879009,27.517481748175,659254.90759128,-519.28154761079,2546994.319996,32.717481748175,0,0
-31.845235435885,181.55384652106,27.521912191219,659254.90759128,-519.28154761079,2546994.319996,32.721912191219,0,0
-31.845235417759,181.57540425204,27.526342634263,659254.90759128,-519.28154761079,2546994.319996,32.726342634263,0,0
-31.845235399634,181.59696198301,27.530773077308,659254.90759128,-519.28154761079,2546994.319996,32.730773077308,0,0
-31.845235381508,181.61851971399,27.535203520352,659254.90759128,-519.28154761079,2546994.319996,32.735203520352,0,0
-31.845235363382,181.64007744496,27.539633963396,659254.90759128,-519.28154761079,2546994.319996,32.739633963396,0,0
-31.845235345257,181.66163517594,27.544064406441,659254.90759128,-519.28154761079,2546994.319996,32.744064406441,0,0
-31.845235327409,181.68319290706,27.548494849485,650999.55428366,1669.5367366992,2543083.5035246,32.748494849485,0,0
-31.845235309838,181.70475063832,27.552925292529,650999.55428366,1669.5367366992,2543083.5035246,32.752925292529,0,0
-31.845235292268,181.72630836958,27.557355735574,650999.55428366,1669.5367366992,2543083.5035246,32.757355735574,0,0
-31.845235274697,181.74786610084,27.561786178618,650999.55428366,1669.5367366992,2543083.5035246,32.761786178618,0,0
-31.845235257127,181.76942383211,27.566216621662,650999.55428366,1669.5367366992,2543083.5035246,32.766216621662,0,0
-31.845235239556,181.79098156337,27.570647064706,650999.55428366,1669.5367366992,2543083.5035246,32.770647064706,0,0
-31.845235221986,181.81253929463,27.575077507751,650999.55428366,1669.5367366992,2543083.5035246,32.775077507751,0,0
-31.845235204416,181.83409702589,27.579507950795,650999.55428366,1669.5367366992,2543083.5035246,32.779507950795,0,0
-31.845235186845,181.85565475715,27.583938393839,650999.55428366,1669.5367366992,2543083.5035246,32.783938393839,0,0
-31.845235169275,181.87721248842,27.588368836884,650999.55428366,1669.5367366992,2543083.5035246,32.788368836884,0,0
-31.845235151704,181.89877021968,27.592799279928,650999.55428366,1669.5367366992,2543083.5035246,32.792799279928,0,0
-31.845235134134,181.92032795094,27.597229722972,650999.55428366,1669.5367366992,2543083.5035246,32.797229722972,0,0
-31.845235116564,181.9418856822,27.601660166017,650999.55428366,1669.5367366992,2543083.5035246,32.801660166017,0,0
-31.845235098993,181.96344341347,27.606090609061,650999.55428366,1669.5367366992,2543083.5035246,32.806090609061,0,0
-31.845235081423,181.98500114473,27.610521052105,650999.55428366,1669.5367366992,2543083.5035246,32.810521052105,0,0
-31.845235063852,182.00655887599,27.61495149515,650999.55428366,1669.5367366992,2543083.5035246,32.81495149515,0,0
-31.845235046282,182.02811660725,27.619381938194,650999.55428366,1669.5367366992,2543083.5035246,32.819381938194,0,0
-31.845235028712,182.04967433851,27.623812381238,650999.55428366,1669.5367366992,2543083.5035246,32.823812381238,0,0
-31.845235011141,182.07123206978,27.628242824282,650999.55428366,1669.5367366992,2543083.5035246,32.828242824282,0,0
-31.845234993571,182.09278980104,27.632673267327,650999.55428366,1669.5367366992,2543083.5035246,32.832673267327,0,0
-31.845234976,182.1143475323,27.637103710371,650999.55428366,1669.5367366992,2543083.5035246,32.837103710371,0,0
-31.84523495843,182.13590526356,27.641534153415,650999.55428366,1669.5367366992,2543083.5035246,32.841534153415,0,0
-31.845234940859,182.15746299483,27.64596459646,650999.55428366,1669.5367366992,2543083.5035246,32.84596459646,0,0
-31.845234923289,182.17902072609,27.650395039504,650999.55428366,1669.5367366992,2543083.5035246,32.850395039504,0,0
-31.845234905719,182.20057845735,27.654825482548,650999.55428366,1669.5367366992,2543083.5035246,32.854825482548,0,0
-31.845234888148,182.22213618861,27.659255925593,650999.55428366,1669.5367366992,2543083.5035246,32.859255925593,0,0
-31.845234870578,182.24369391988,27.663686368637,650999.55428366,1669.5367366992,2543083.5035246,32.863686368637,0,0
-31.845234853007,182.26525165114,27.668116811681,650999.55428366,1669.5367366992,2543083.5035246,32.868116811681,0,0
-31.845234835437,182.2868093824,27.672547254725,650999.55428366,1669.5367366992,2543083.5035246,32.872547254725,0,0
-31.845234817867,182.30836711366,27.67697769777,650999.55428366,1669.5367366992,2543083.5035246,32.87697769777,0,0
-31.845234800296,182.32992484492,27.681408140814,650999.55428366,1669.5367366992,2543083.5035246,32.881408140814,0,0
-31.845234782726,182.35148257619,27.685838583858,650999.55428366,1669.5367366992,2543083.5035246,32.885838583858,0,0
-31.845234765155,182.37304030745,27.690269026903,650999.55428366,1669.5367366992,2543083.5035246,32.890269026903,0,0
-31.845234747585,182.39459803871,27.694699469947,650999.55428366,1669.5367366992,2543083.5035246,32.894699469947,0,0
-31.845234730015,182.41615576997,27.699129912991,650999.55428366,1669.5367366992,2543083.5035246,32.899129912991,0,0
-31.845234712444,182.43771350124,27.703560356036,650999.55428366,1669.5367366992,2543083.5035246,32.903560356036,0,0
-31.845234694874,182.4592712325,27.70799079908,650999.55428366,1669.5367366992,2543083.5035246,32.90799079908,0,0
-31.845234677303,182.48082896376,27.712421242124,650999.55428366,1669.5367366992,2543083.5035246,32.912421242124,0,0
-31.845234659733,182.50238669502,27.716851685169,650999.55428366,1669.5367366992,2543083.5035246,32.916851685169,0,0
-31.845234642162,182.52394442628,27.721282128213,650999.55428366,1669.5367366992,2543083.5035246,32.921282128213,0,0
-31.845234624592,182.54550215755,27.725712571257,650999.55428366,1669.5367366992,2543083.5035246,32.925712571257,0,0
-31.845234607022,182.56705988881,27.730143014301,650999.55428366,1669.5367366992,2543083.5035246,32.930143014301,0,0
-31.845234589451,182.58861762007,27.734573457346,650999.55428366,1669.5367366992,2543083.5035246,32.934573457346,0,0
-31.845234571881,182.61017535133,27.73900390039,650999.55428366,1669.5367366992,2543083.5035246,32.93900390039,0,0
-31.84523455431,182.6317330826,27.743434343434,650999.55428366,1669.5367366992,2543083.5035246,32.943434343434,0,0
-31.84523453674,182.65329081386,27.747864786479,650999.55428366,1669.5367366992,2543083.5035246,32.947864786479,0,0
-31.84523451917,182.67484854512,27.752295229523,650999.55428366,1669.5367366992,2543083.5035246,32.952295229523,0,0
-31.845234501599,182.69640627638,27.756725672567,650999.55428366,1669.5367366992,2543083.5035246,32.956725672567,0,0
-31.845234484029,182.71796400764,27.761156115612,650999.55428366,1669.5367366992,2543083.5035246,32.961156115612,0,0
-31.845234466458,182.73952173891,27.765586558656,650999.55428366,1669.5367366992,2543083.5035246,32.965586558656,0,0
-31.845234448888,182.76107947017,27.7700170017,650999.55428366,1669.5367366992,2543083.5035246,32.9700170017,0,0
-31.845234431318,182.78263720143,27.774447444744,650999.55428366,1669.5367366992,2543083.5035246,32.974447444744,0,0
-31.845234413747,182.80419493269,27.778877887789,650999.55428366,1669.5367366992,2543083.5035246,32.978877887789,0,0
-31.845234396177,182.82575266396,27.783308330833,650999.55428366,1669.5367366992,2543083.5035246,32.983308330833,0,0
-31.845234378606,182.84731039522,27.787738773877,650999.55428366,1669.5367366992,2543083.5035246,32.987738773877,0,0
-31.845234361036,182.86886812648,27.792169216922,650999.55428366,1669.5367366992,2543083.5035246,32.992169216922,0,0
-31.845234343465,182.89042585774,27.796599659966,650999.55428366,1669.5367366992,2543083.5035246,32.996599659966,0,0
-31.845234325895,182.91198358901,27.80103010301,650999.55428366,1669.5367366992,2543083.5035246,33.00103010301,0,0
-31.845234308325,182.93354132027,27.805460546055,650999.55428366,1669.5367366992,2543083.5035246,33.005460546055,0,0
-31.845234290754,182.95509905153,27.809890989099,650999.55428366,1669.5367366992,2543083.5035246,33.009890989099,0,0
-31.845234273184,182.97665678279,27.814321432143,650999.55428366,1669.5367366992,2543083.5035246,33.014321432143,0,0
-31.845234255613,182.99821451405,27.818751875188,650999.55428366,1669.5367366992,2543083.5035246,33.018751875188,0,0
-31.845234238043,183.01977224532,27.823182318232,650999.55428366,1669.5367366992,2543083.5035246,33.023182318232,0,0
-31.845234220473,183.04132997658,27.827612761276,650999.55428366,1669.5367366992,2543083.5035246,33.027612761276,0,0
-31.845234202902,183.06288770784,27.83204320432,650999.55428366,1669.5367366992,2543083.5035246,33.03204320432,0,0
-31.845234185332,183.0844454391,27.836473647365,650999.55428366,1669.5367366992,2543083.5035246,33.036473647365,0,0
-31.845234167761,183.10600317037,27.840904090409,650999.55428366,1669.5367366992,2543083.5035246,33.040904090409,0,0
-31.845234150191,183.12756090163,27.845334533453,650999.55428366,1669.5367366992,2543083.5035246,33.045334533453,0,0
-31.845234132621,183.14911863289,27.849764976498,650999.55428366,1669.5367366992,2543083.5035246,33.049764976498,0,0
-31.84523411505,183.17067636415,27.854195419542,650999.55428366,1669.5367366992,2543083.5035246,33.054195419542,0,0
-31.84523409748,183.19223409541,27.858625862586,650999.55428366,1669.5367366992,2543083.5035246,33.058625862586,0,0
-31.845234079909,183.21379182668,27.863056305631,650999.55428366,1669.5367366992,2543083.5035246,33.063056305631,0,0
-31.845234062339,183.23534955794,27.867486748675,650999.55428366,1669.5367366992,2543083.5035246,33.067486748675,0,0
-31.845234044768,183.2569072892,27.871917191719,650999.55428366,1669.5367366992,2543083.5035246,33.071917191719,0,0
-31.845234027198,183.27846502046,27.876347634763,650999.55428366,1669.5367366992,2543083.5035246,33.076347634763,0,0
-31.845234009628,183.30002275173,27.880778077808,650999.55428366,1669.5367366992,2543083.5035246,33.080778077808,0,0
-31.845233992057,183.32158048299,27.885208520852,650999.55428366,1669.5367366992,2543083.5035246,33.085208520852,0,0
-31.845233974487,183.34313821425,27.889638963896,650999.55428366,1669.5367366992,2543083.5035246,33.089638963896,0,0
-31.845233956916,183.36469594551,27.894069406941,650999.55428366,1669.5367366992,2543083.5035246,33.094069406941,0,0
-31.845233939346,183.38625367677,27.898499849985,650999.55428366,1669.5367366992,2543083.5035246,33.098499849985,0,0
-31.845233921776,183.40781140804,27.902930293029,650999.55428366,1669.5367366992,2543083.5035246,33.102930293029,0,0
-31.845233904205,183.4293691393,27.907360736074,650999.55428366,1669.5367366992,2543083.5035246,33.107360736074,0,0
-31.845233886635,183.45092687056,27.911791179118,650999.55428366,1669.5367366992,2543083.5035246,33.111791179118,0,0
-31.845233869064,183.47248460182,27.916221622162,650999.55428366,1669.5367366992,2543083.5035246,33.116221622162,0,0
-31.845233851494,183.49404233309,27.920652065207,650999.55428366,1669.5367366992,2543083.5035246,33.120652065207,0,0
-31.845233833924,183.51560006435,27.925082508251,650999.55428366,1669.5367366992,2543083.5035246,33.125082508251,0,0
-31.845233816353,183.53715779561,27.929512951295,650999.55428366,1669.5367366992,2543083.5035246,33.129512951295,0,0
-31.845233798783,183.55871552687,27.933943394339,650999.55428366,1669.5367366992,2543083.5035246,33.133943394339,0,0
-31.845233781212,183.58027325814,27.938373837384,650999.55428366,1669.5367366992,2543083.5035246,33.138373837384,0,0
-31.845233763642,183.6018309894,27.942804280428,650999.55428366,1669.5367366992,2543083.5035246,33.142804280428,0,0
-31.845233746071,183.62338872066,27.947234723472,650999.55428366,1669.5367366992,2543083.5035246,33.147234723472,0,0
-31.845233728501,183.64494645192,27.951665166517,650999.55428366,1669.5367366992,2543083.5035246,33.151665166517,0,0
-31.845233710931,183.66650418318,27.956095609561,650999.55428366,1669.5367366992,2543083.5035246,33.156095609561,0,0
-31.84523369336,183.68806191445,27.960526052605,650999.55428366,1669.5367366992,2543083.5035246,33.160526052605,0,0
-31.84523367579,183.70961964571,27.96495649565,650999.55428366,1669.5367366992,2543083.5035246,33.16495649565,0,0
-31.845233658219,183.73117737697,27.969386938694,650999.55428366,1669.5367366992,2543083.5035246,33.169386938694,0,0
-31.845233640649,183.75273510823,27.973817381738,650999.55428366,1669.5367366992,2543083.5035246,33.173817381738,0,0
-31.845233623079,183.7742928395,27.978247824782,650999.55428366,1669.5367366992,2543083.5035246,33.178247824782,0,0
-31.845233605508,183.79585057076,27.982678267827,650999.55428366,1669.5367366992,2543083.5035246,33.182678267827,0,0
-31.845233587938,183.81740830202,27.987108710871,650999.55428366,1669.5367366992,2543083.5035246,33.187108710871,0,0
-31.845233570367,183.83896603328,27.991539153915,650999.55428366,1669.5367366992,2543083.5035246,33.191539153915,0,0
-31.845233552797,183.86052376454,27.99596959696,650999.55428366,1669.5367366992,2543083.5035246,33.19596959696,0,0
-31.845233535227,183.88208149581,28.000400040004,650999.55428366,1669.5367366992,2543083.5035246,33.200400040004,0,0
-31.845233517656,183.90363922707,28.004830483048,650999.55428366,1669.5367366992,2543083.5035246,33.204830483048,0,0
-31.845233500086,183.92519695833,28.009260926093,650999.55428366,1669.5367366992,2543083.5035246,33.209260926093,0,0
-31.845233482515,183.94675468959,28.013691369137,650999.55428366,1669.5367366992,2543083.5035246,33.213691369137,0,0
-31.845233464945,183.96831242086,28.018121812181,650999.55428366,1669.5367366992,2543083.5035246,33.218121812181,0,0
-31.845233447374,183.98987015212,28.022552255226,650999.55428366,1669.5367366992,2543083.5035246,33.222552255226,0,0
-31.845233429804,184.01142788338,28.02698269827,650999.55428366,1669.5367366992,2543083.5035246,33.22698269827,0,0
-31.845233412234,184.03298561464,28.031413141314,650999.55428366,1669.5367366992,2543083.5035246,33.231413141314,0,0
-31.845233394663,184.05454334591,28.035843584358,650999.55428366,1669.5367366992,2543083.5035246,33.235843584358,0,0
-31.845233377093,184.07610107717,28.040274027403,650999.55428366,1669.5367366992,2543083.5035246,33.240274027403,0,0
-31.845233359522,184.09765880843,28.044704470447,650999.55428366,1669.5367366992,2543083.5035246,33.244704470447,0,0
-31.845233341952,184.11921653969,28.049134913491,650999.55428366,1669.5367366992,2543083.5035246,33.249134913491,0,0
-31.845233324382,184.14077427095,28.053565356536,650999.55428366,1669.5367366992,2543083.5035246,33.253565356536,0,0
-31.845233306811,184.16233200222,28.05799579958,650999.55428366,1669.5367366992,2543083.5035246,33.25799579958,0,0
-31.845233289241,184.18388973348,28.062426242624,650999.55428366,1669.5367366992,2543083.5035246,33.262426242624,0,0
-31.84523327167,184.20544746474,28.066856685669,650999.55428366,1669.5367366992,2543083.5035246,33.266856685669,0,0
-31.8452332541,184.227005196,28.071287128713,650999.55428366,1669.5367366992,2543083.5035246,33.271287128713,0,0
-31.84523323653,184.24856292727,28.075717571757,650999.55428366,1669.5367366992,2543083.5035246,33.275717571757,0,0
-31.845233218959,184.27012065853,28.080148014801,650999.55428366,1669.5367366992,2543083.5035246,33.280148014801,0,0
-31.845233201389,184.29167838979,28.084578457846,650999.55428366,1669.5367366992,2543083.5035246,33.284578457846,0,0
-31.845233183818,184.31323612105,28.08900890089,650999.55428366,1669.5367366992,2543083.5035246,33.28900890089,0,0
-31.845233166248,184.33479385231,28.093439343934,650999.55428366,1669.5367366992,2543083.5035246,33.293439343934,0,0
-31.845233148677,184.35635158358,28.097869786979,650999.55428366,1669.5367366992,2543083.5035246,33.297869786979,0,0
-31.845233131107,184.37790931484,28.102300230023,650999.55428366,1669.5367366992,2543083.5035246,33.302300230023,0,0
-31.845233113537,184.3994670461,28.106730673067,650999.55428366,1669.5367366992,2543083.5035246,33.306730673067,0,0
-31.845233095966,184.42102477736,28.111161116112,650999.55428366,1669.5367366992,2543083.5035246,33.311161116112,0,0
-31.845233078396,184.44258250863,28.115591559156,650999.55428366,1669.5367366992,2543083.5035246,33.315591559156,0,0
-31.845233060825,184.46414023989,28.1200220022,650999.55428366,1669.5367366992,2543083.5035246,33.3200220022,0,0
-31.845233043255,184.48569797115,28.124452445245,650999.55428366,1669.5367366992,2543083.5035246,33.324452445245,0,0
-31.845233025685,184.50725570241,28.128882888289,650999.55428366,1669.5367366992,2543083.5035246,33.328882888289,0,0
-31.845233008114,184.52881343367,28.133313331333,650999.55428366,1669.5367366992,2543083.5035246,33.333313331333,0,0
-31.845232990544,184.55037116494,28.137743774377,650999.55428366,1669.5367366992,2543083.5035246,33.337743774377,0,0
-31.845232972973,184.5719288962,28.142174217422,650999.55428366,1669.5367366992,2543083.5035246,33.342174217422,0,0
-31.845232955403,184.59348662746,28.146604660466,650999.55428366,1669.5367366992,2543083.5035246,33.346604660466,0,0
-31.845232937833,184.61504435872,28.15103510351,650999.55428366,1669.5367366992,2543083.5035246,33.35103510351,0,0
-31.845232920262,184.63660208999,28.155465546555,650999.55428366,1669.5367366992,2543083.5035246,33.355465546555,0,0
-31.845232902692,184.65815982125,28.159895989599,650999.55428366,1669.5367366992,2543083.5035246,33.359895989599,0,0
-31.845232885121,184.67971755251,28.164326432643,650999.55428366,1669.5367366992,2543083.5035246,33.364326432643,0,0
-31.845232867551,184.70127528377,28.168756875688,650999.55428366,1669.5367366992,2543083.5035246,33.368756875688,0,0
-31.84523284998,184.72283301504,28.173187318732,650999.55428366,1669.5367366992,2543083.5035246,33.373187318732,0,0
-31.84523283241,184.7443907463,28.177617761776,650999.55428366,1669.5367366992,2543083.5035246,33.377617761776,0,0
-31.84523281484,184.76594847756,28.18204820482,650999.55428366,1669.5367366992,2543083.5035246,33.38204820482,0,0
-31.845232797269,184.78750620882,28.186478647865,650999.55428366,1669.5367366992,2543083.5035246,33.386478647865,0,0
-31.845232779699,184.80906394008,28.190909090909,650999.55428366,1669.5367366992,2543083.5035246,33.390909090909,0,0
-31.845232762128,184.83062167135,28.195339533953,650999.55428366,1669.5367366992,2543083.5035246,33.395339533953,0,0
-31.845232744558,184.85217940261,28.199769976998,650999.55428366,1669.5367366992,2543083.5035246,33.399769976998,0,0
-31.845232726988,184.87373713387,28.204200420042,650999.55428366,1669.5367366992,2543083.5035246,33.404200420042,0,0
-31.845232709417,184.89529486513,28.208630863086,650999.55428366,1669.5367366992,2543083.5035246,33.408630863086,0,0
-31.845232691847,184.9168525964,28.213061306131,650999.55428366,1669.5367366992,2543083.5035246,33.413061306131,0,0
-31.845232674276,184.93841032766,28.217491749175,650999.55428366,1669.5367366992,2543083.5035246,33.417491749175,0,0
-31.845232656706,184.95996805892,28.221922192219,650999.55428366,1669.5367366992,2543083.5035246,33.421922192219,0,0
-31.845232639136,184.98152579018,28.226352635264,650999.55428366,1669.5367366992,2543083.5035246,33.426352635264,0,0
-31.845232621565,185.00308352144,28.230783078308,650999.55428366,1669.5367366992,2543083.5035246,33.430783078308,0,0
-31.845232603995,185.02464125271,28.235213521352,650999.55428366,1669.5367366992,2543083.5035246,33.435213521352,0,0
-31.845232586424,185.04619898397,28.239643964396,650999.55428366,1669.5367366992,2543083.5035246,33.439643964396,0,0
-31.845232568854,185.06775671523,28.244074407441,650999.55428366,1669.5367366992,2543083.5035246,33.444074407441,0,0
-31.845232551283,185.08931444649,28.248504850485,650999.55428366,1669.5367366992,2543083.5035246,33.448504850485,0,0
-31.845232533713,185.11087217776,28.252935293529,650999.55428366,1669.5367366992,2543083.5035246,33.452935293529,0,0
-31.845232516143,185.13242990902,28.257365736574,650999.55428366,1669.5367366992,2543083.5035246,33.457365736574,0,0
-31.845232498572,185.15398764028,28.261796179618,650999.55428366,1669.5367366992,2543083.5035246,33.461796179618,0,0
-31.845232481002,185.17554537154,28.266226622662,650999.55428366,1669.5367366992,2543083.5035246,33.466226622662,0,0
-31.845232463431,185.1971031028,28.270657065707,650999.55428366,1669.5367366992,2543083.5035246,33.470657065707,0,0
-31.845232445861,185.21866083407,28.275087508751,650999.55428366,1669.5367366992,2543083.5035246,33.475087508751,0,0
-31.845232428291,185.24021856533,28.279517951795,650999.55428366,1669.5367366992,2543083.5035246,33.479517951795,0,0
-31.84523241072,185.26177629659,28.283948394839,650999.55428366,1669.5367366992,2543083.5035246,33.483948394839,0,0
-31.84523239315,185.28333402785,28.288378837884,650999.55428366,1669.5367366992,2543083.5035246,33.488378837884,0,0
-31.845232375579,185.30489175912,28.292809280928,650999.55428366,1669.5367366992,2543083.5035246,33.492809280928,0,0
-31.845232358009,185.32644949038,28.297239723972,650999.55428366,1669.5367366992,2543083.5035246,33.497239723972,0,0
-31.845232340439,185.34800722164,28.301670167017,650999.55428366,1669.5367366992,2543083.5035246,33.501670167017,0,0
-31.845232322868,185.3695649529,28.306100610061,650999.55428366,1669.5367366992,2543083.5035246,33.506100610061,0,0
-31.845232305298,185.39112268417,28.310531053105,650999.55428366,1669.5367366992,2543083.5035246,33.510531053105,0,0
-31.845232287727,185.41268041543,28.31496149615,650999.55428366,1669.5367366992,2543083.5035246,33.51496149615,0,0
-31.845232270157,185.43423814669,28.319391939194,650999.55428366,1669.5367366992,2543083.5035246,33.519391939194,0,0
-31.845232252586,185.45579587795,28.323822382238,650999.55428366,1669.5367366992,2543083.5035246,33.523822382238,0,0
-31.845232235016,185.47735360921,28.328252825283,650999.55428366,1669.5367366992,2543083.5035246,33.528252825283,0,0
-31.845232217446,185.49891134048,28.332683268327,650999.55428366,1669.5367366992,2543083.5035246,33.532683268327,0,0
-31.845232199875,185.52046907174,28.337113711371,650999.55428366,1669.5367366992,2543083.5035246,33.537113711371,0,0
-31.845232182305,185.542026803,28.341544154415,650999.55428366,1669.5367366992,2543083.5035246,33.541544154415,0,0
-31.845232164734,185.56358453426,28.34597459746,650999.55428366,1669.5367366992,2543083.5035246,33.54597459746,0,0
-31.845232147164,185.58514226553,28.350405040504,650999.55428366,1669.5367366992,2543083.5035246,33.550405040504,0,0
-31.845232129594,185.60669999679,28.354835483548,650999.55428366,1669.5367366992,2543083.5035246,33.554835483548,0,0
-31.845232112023,185.62825772805,28.359265926593,650999.55428366,1669.5367366992,2543083.5035246,33.559265926593,0,0
-31.845232094453,185.64981545931,28.363696369637,650999.55428366,1669.5367366992,2543083.5035246,33.563696369637,0,0
-31.845232076882,185.67137319057,28.368126812681,650999.55428366,1669.5367366992,2543083.5035246,33.568126812681,0,0
-31.845232059312,185.69293092184,28.372557255726,650999.55428366,1669.5367366992,2543083.5035246,33.572557255726,0,0
-31.845232041742,185.7144886531,28.37698769877,650999.55428366,1669.5367366992,2543083.5035246,33.57698769877,0,0
-31.845232024171,185.73604638436,28.381418141814,650999.55428366,1669.5367366992,2543083.5035246,33.581418141814,0,0
-31.845232006601,185.75760411562,28.385848584858,650999.55428366,1669.5367366992,2543083.5035246,33.585848584858,0,0
-31.84523198903,185.77916184689,28.390279027903,650999.55428366,1669.5367366992,2543083.5035246,33.590279027903,0,0
-31.84523197146,185.80071957815,28.394709470947,650999.55428366,1669.5367366992,2543083.5035246,33.594709470947,0,0
-31.845231953889,185.82227730941,28.399139913991,650999.55428366,1669.5367366992,2543083.5035246,33.599139913991,0,0
-31.845231936319,185.84383504067,28.403570357036,650999.55428366,1669.5367366992,2543083.5035246,33.603570357036,0,0
-31.845231918749,185.86539277194,28.40800080008,650999.55428366,1669.5367366992,2543083.5035246,33.60800080008,0,0
-31.845231901178,185.8869505032,28.412431243124,650999.55428366,1669.5367366992,2543083.5035246,33.612431243124,0,0
-31.845231883608,185.90850823446,28.416861686169,650999.55428366,1669.5367366992,2543083.5035246,33.616861686169,0,0
-31.845231866037,185.93006596572,28.421292129213,650999.55428366,1669.5367366992,2543083.5035246,33.621292129213,0,0
-31.845231848467,185.95162369698,28.425722572257,650999.55428366,1669.5367366992,2543083.5035246,33.625722572257,0,0
-31.845231830897,185.97318142825,28.430153015302,650999.55428366,1669.5367366992,2543083.5035246,33.630153015302,0,0
-31.845231813326,185.99473915951,28.434583458346,650999.55428366,1669.5367366992,2543083.5035246,33.634583458346,0,0
-31.845231795756,186.01629689077,28.43901390139,650999.55428366,1669.5367366992,2543083.5035246,33.63901390139,0,0
-31.845231778185,186.03785462203,28.443444344434,650999.55428366,1669.5367366992,2543083.5035246,33.643444344434,0,0
-31.845231760615,186.0594123533,28.447874787479,650999.55428366,1669.5367366992,2543083.5035246,33.647874787479,0,0
-31.845231743045,186.08097008456,28.452305230523,650999.55428366,1669.5367366992,2543083.5035246,33.652305230523,0,0
-31.845231725474,186.10252781582,28.456735673567,650999.55428366,1669.5367366992,2543083.5035246,33.656735673567,0,0
-31.845231707904,186.12408554708,28.461166116612,650999.55428366,1669.5367366992,2543083.5035246,33.661166116612,0,0
-31.845231690333,186.14564327834,28.465596559656,650999.55428366,1669.5367366992,2543083.5035246,33.665596559656,0,0
-31.845231672763,186.16720100961,28.4700270027,650999.55428366,1669.5367366992,2543083.5035246,33.6700270027,0,0
-31.845231655192,186.18875874087,28.474457445745,650999.55428366,1669.5367366992,2543083.5035246,33.674457445745,0,0
-31.845231637622,186.21031647213,28.478887888789,650999.55428366,1669.5367366992,2543083.5035246,33.678887888789,0,0
-31.845231620052,186.23187420339,28.483318331833,650999.55428366,1669.5367366992,2543083.5035246,33.683318331833,0,0
-31.845231602481,186.25343193466,28.487748774877,650999.55428366,1669.5367366992,2543083.5035246,33.687748774877,0,0
-31.845231584911,186.27498966592,28.492179217922,650999.55428366,1669.5367366992,2543083.5035246,33.692179217922,0,0
-31.84523156734,186.29654739718,28.496609660966,650999.55428366,1669.5367366992,2543083.5035246,33.696609660966,0,0
-31.84523154977,186.31810512844,28.50104010401,650999.55428366,1669.5367366992,2543083.5035246,33.70104010401,0,0
-31.8452315322,186.3396628597,28.505470547055,650999.55428366,1669.5367366992,2543083.5035246,33.705470547055,0,0
-31.845231514629,186.36122059097,28.509900990099,650999.55428366,1669.5367366992,2543083.5035246,33.709900990099,0,0
-31.845231497059,186.38277832223,28.514331433143,650999.55428366,1669.5367366992,2543083.5035246,33.714331433143,0,0
-31.845231479488,186.40433605349,28.518761876188,650999.55428366,1669.5367366992,2543083.5035246,33.718761876188,0,0
-31.845231461918,186.42589378475,28.523192319232,650999.55428366,1669.5367366992,2543083.5035246,33.723192319232,0,0
-31.845231444348,186.44745151602,28.527622762276,650999.55428366,1669.5367366992,2543083.5035246,33.727622762276,0,0
-31.845231426777,186.46900924728,28.532053205321,650999.55428366,1669.5367366992,2543083.5035246,33.732053205321,0,0
-31.845231409207,186.49056697854,28.536483648365,650999.55428366,1669.5367366992,2543083.5035246,33.736483648365,0,0
-31.845231391636,186.5121247098,28.540914091409,650999.55428366,1669.5367366992,2543083.5035246,33.740914091409,0,0
-31.845231374066,186.53368244107,28.545344534453,650999.55428366,1669.5367366992,2543083.5035246,33.745344534453,0,0
-31.845231356495,186.55524017233,28.549774977498,650999.55428366,1669.5367366992,2543083.5035246,33.749774977498,0,0
-31.845231338925,186.57679790359,28.554205420542,650999.55428366,1669.5367366992,2543083.5035246,33.754205420542,0,0
-31.845231321355,186.59835563485,28.558635863586,650999.55428366,1669.5367366992,2543083.5035246,33.758635863586,0,0
-31.845231303784,186.61991336611,28.563066306631,650999.55428366,1669.5367366992,2543083.5035246,33.763066306631,0,0
-31.845231286214,186.64147109738,28.567496749675,650999.55428366,1669.5367366992,2543083.5035246,33.767496749675,0,0
-31.845231268643,186.66302882864,28.571927192719,650999.55428366,1669.5367366992,2543083.5035246,33.771927192719,0,0
-31.845231251073,186.6845865599,28.576357635764,650999.55428366,1669.5367366992,2543083.5035246,33.776357635764,0,0
-31.845231233503,186.70614429116,28.580788078808,650999.55428366,1669.5367366992,2543083.5035246,33.780788078808,0,0
-31.845231215932,186.72770202243,28.585218521852,650999.55428366,1669.5367366992,2543083.5035246,33.785218521852,0,0
-31.845231198362,186.74925975369,28.589648964896,650999.55428366,1669.5367366992,2543083.5035246,33.789648964896,0,0
-31.845231180791,186.77081748495,28.594079407941,650999.55428366,1669.5367366992,2543083.5035246,33.794079407941,0,0
-31.845231163221,186.79237521621,28.598509850985,650999.55428366,1669.5367366992,2543083.5035246,33.798509850985,0,0
-31.845231145651,186.81393294747,28.602940294029,650999.55428366,1669.5367366992,2543083.5035246,33.802940294029,0,0
-31.84523112808,186.83549067874,28.607370737074,650999.55428366,1669.5367366992,2543083.5035246,33.807370737074,0,0
-31.84523111051,186.85704841,28.611801180118,650999.55428366,1669.5367366992,2543083.5035246,33.811801180118,0,0
-31.845231092939,186.87860614126,28.616231623162,650999.55428366,1669.5367366992,2543083.5035246,33.816231623162,0,0
-31.845231075369,186.90016387252,28.620662066207,650999.55428366,1669.5367366992,2543083.5035246,33.820662066207,0,0
-31.845231057798,186.92172160379,28.625092509251,650999.55428366,1669.5367366992,2543083.5035246,33.825092509251,0,0
-31.845231040228,186.94327933505,28.629522952295,650999.55428366,1669.5367366992,2543083.5035246,33.829522952295,0,0
-31.845231022658,186.96483706631,28.63395339534,650999.55428366,1669.5367366992,2543083.5035246,33.83395339534,0,0
-31.845231005087,186.98639479757,28.638383838384,650999.55428366,1669.5367366992,2543083.5035246,33.838383838384,0,0
-31.845230987517,187.00795252883,28.642814281428,650999.55428366,1669.5367366992,2543083.5035246,33.842814281428,0,0
-31.845230969946,187.0295102601,28.647244724472,650999.55428366,1669.5367366992,2543083.5035246,33.847244724472,0,0
-31.845230952376,187.05106799136,28.651675167517,650999.55428366,1669.5367366992,2543083.5035246,33.851675167517,0,0
-31.845230934806,187.07262572262,28.656105610561,650999.55428366,1669.5367366992,2543083.5035246,33.856105610561,0,0
-31.845230917235,187.09418345388,28.660536053605,650999.55428366,1669.5367366992,2543083.5035246,33.860536053605,0,0
-31.845230899665,187.11574118515,28.66496649665,650999.55428366,1669.5367366992,2543083.5035246,33.86496649665,0,0
-31.845230882094,187.13729891641,28.669396939694,650999.55428366,1669.5367366992,2543083.5035246,33.869396939694,0,0
-31.845230864524,187.15885664767,28.673827382738,650999.55428366,1669.5367366992,2543083.5035246,33.873827382738,0,0
-31.845230846954,187.18041437893,28.678257825783,650999.55428366,1669.5367366992,2543083.5035246,33.878257825783,0,0
-31.845230829383,187.2019721102,28.682688268827,650999.55428366,1669.5367366992,2543083.5035246,33.882688268827,0,0
-31.845230811813,187.22352984146,28.687118711871,650999.55428366,1669.5367366992,2543083.5035246,33.887118711871,0,0
-31.845230794242,187.24508757272,28.691549154915,650999.55428366,1669.5367366992,2543083.5035246,33.891549154915,0,0
-31.845230776672,187.26664530398,28.69597959796,650999.55428366,1669.5367366992,2543083.5035246,33.89597959796,0,0
-31.845230759101,187.28820303524,28.700410041004,650999.55428366,1669.5367366992,2543083.5035246,33.900410041004,0,0
-31.845230741531,187.30976076651,28.704840484048,650999.55428366,1669.5367366992,2543083.5035246,33.904840484048,0,0
-31.845230723961,187.33131849777,28.709270927093,650999.55428366,1669.5367366992,2543083.5035246,33.909270927093,0,0
-31.84523070639,187.35287622903,28.713701370137,650999.55428366,1669.5367366992,2543083.5035246,33.913701370137,0,0
-31.84523068882,187.37443396029,28.718131813181,650999.55428366,1669.5367366992,2543083.5035246,33.918131813181,0,0
-31.845230671249,187.39599169156,28.722562256226,650999.55428366,1669.5367366992,2543083.5035246,33.922562256226,0,0
-31.845230653679,187.41754942282,28.72699269927,650999.55428366,1669.5367366992,2543083.5035246,33.92699269927,0,0
-31.845230636109,187.43910715408,28.731423142314,650999.55428366,1669.5367366992,2543083.5035246,33.931423142314,0,0
-31.845230618538,187.46066488534,28.735853585359,650999.55428366,1669.5367366992,2543083.5035246,33.935853585359,0,0
-31.845230600968,187.4822226166,28.740284028403,650999.55428366,1669.5367366992,2543083.5035246,33.940284028403,0,0
-31.845230583397,187.50378034787,28.744714471447,650999.55428366,1669.5367366992,2543083.5035246,33.944714471447,0,0
-31.845230565827,187.52533807913,28.749144914491,650999.55428366,1669.5367366992,2543083.5035246,33.949144914491,0,0
-31.845230548257,187.54689581039,28.753575357536,650999.55428366,1669.5367366992,2543083.5035246,33.953575357536,0,0
-31.845230530686,187.56845354165,28.75800580058,650999.55428366,1669.5367366992,2543083.5035246,33.95800580058,0,0
-31.845230513116,187.59001127292,28.762436243624,650999.55428366,1669.5367366992,2543083.5035246,33.962436243624,0,0
-31.845230495545,187.61156900418,28.766866686669,650999.55428366,1669.5367366992,2543083.5035246,33.966866686669,0,0
-31.845230477975,187.63312673544,28.771297129713,650999.55428366,1669.5367366992,2543083.5035246,33.971297129713,0,0
-31.845230460404,187.6546844667,28.775727572757,650999.55428366,1669.5367366992,2543083.5035246,33.975727572757,0,0
-31.845230442834,187.67624219797,28.780158015802,650999.55428366,1669.5367366992,2543083.5035246,33.980158015802,0,0
-31.845230425264,187.69779992923,28.784588458846,650999.55428366,1669.5367366992,2543083.5035246,33.984588458846,0,0
-31.845230407693,187.71935766049,28.78901890189,650999.55428366,1669.5367366992,2543083.5035246,33.98901890189,0,0
-31.845230390123,187.74091539175,28.793449344934,650999.55428366,1669.5367366992,2543083.5035246,33.993449344934,0,0
-31.845230372552,187.76247312301,28.797879787979,650999.55428366,1669.5367366992,2543083.5035246,33.997879787979,0,0
-31.845230354982,187.78403085428,28.802310231023,650999.55428366,1669.5367366992,2543083.5035246,34.002310231023,0,0
-31.845230337412,187.80558858554,28.806740674067,650999.55428366,1669.5367366992,2543083.5035246,34.006740674067,0,0
-31.845230319841,187.8271463168,28.811171117112,650999.55428366,1669.5367366992,2543083.5035246,34.011171117112,0,0
-31.845230302271,187.84870404806,28.815601560156,650999.55428366,1669.5367366992,2543083.5035246,34.015601560156,0,0
-31.8452302847,187.87026177933,28.8200320032,650999.55428366,1669.5367366992,2543083.5035246,34.0200320032,0,0
-31.84523026713,187.89181951059,28.824462446245,650999.55428366,1669.5367366992,2543083.5035246,34.024462446245,0,0
-31.84523024956,187.91337724185,28.828892889289,650999.55428366,1669.5367366992,2543083.5035246,34.028892889289,0,0
-31.845230231989,187.93493497311,28.833323332333,650999.55428366,1669.5367366992,2543083.5035246,34.033323332333,0,0
-31.845230214419,187.95649270437,28.837753775378,650999.55428366,1669.5367366992,2543083.5035246,34.037753775378,0,0
-31.845230196848,187.97805043564,28.842184218422,650999.55428366,1669.5367366992,2543083.5035246,34.042184218422,0,0
-31.845230179278,187.9996081669,28.846614661466,650999.55428366,1669.5367366992,2543083.5035246,34.046614661466,0,0
-31.845230161707,188.02116589816,28.85104510451,650999.55428366,1669.5367366992,2543083.5035246,34.05104510451,0,0
-31.845230144137,188.04272362942,28.855475547555,650999.55428366,1669.5367366992,2543083.5035246,34.055475547555,0,0
-31.845230126567,188.06428136069,28.859905990599,650999.55428366,1669.5367366992,2543083.5035246,34.059905990599,0,0
-31.845230108996,188.08583909195,28.864336433643,650999.55428366,1669.5367366992,2543083.5035246,34.064336433643,0,0
-31.845230091426,188.10739682321,28.868766876688,650999.55428366,1669.5367366992,2543083.5035246,34.068766876688,0,0
-31.845230073855,188.12895455447,28.873197319732,650999.55428366,1669.5367366992,2543083.5035246,34.073197319732,0,0
-31.845230056285,188.15051228573,28.877627762776,650999.55428366,1669.5367366992,2543083.5035246,34.077627762776,0,0
-31.845230038715,188.172070017,28.882058205821,650999.55428366,1669.5367366992,2543083.5035246,34.082058205821,0,0
-31.845230021144,188.19362774826,28.886488648865,650999.55428366,1669.5367366992,2543083.5035246,34.086488648865,0,0
-31.845230003574,188.21518547952,28.890919091909,650999.55428366,1669.5367366992,2543083.5035246,34.090919091909,0,0
-31.845229986003,188.23674321078,28.895349534953,650999.55428366,1669.5367366992,2543083.5035246,34.095349534953,0,0
-31.845229968433,188.25830094205,28.899779977998,650999.55428366,1669.5367366992,2543083.5035246,34.099779977998,0,0
-31.845229950863,188.27985867331,28.904210421042,650999.55428366,1669.5367366992,2543083.5035246,34.104210421042,0,0
-31.845229933207,188.30141640413,28.908640864086,650362.83997927,-571.73717891608,2537025.9498567,34.108640864086,0,0
-31.845229915526,188.32297413482,28.913071307131,650362.83997927,-571.73717891608,2537025.9498567,34.113071307131,0,0
-31.845229897845,188.34453186552,28.917501750175,650362.83997927,-571.73717891608,2537025.9498567,34.117501750175,0,0
-31.845229880164,188.36608959621,28.921932193219,650362.83997927,-571.73717891608,2537025.9498567,34.121932193219,0,0
-31.845229862483,188.38764732691,28.926362636264,650362.83997927,-571.73717891608,2537025.9498567,34.126362636264,0,0
-31.845229844802,188.4092050576,28.930793079308,650362.83997927,-571.73717891608,2537025.9498567,34.130793079308,0,0
-31.845229827121,188.43076278829,28.935223522352,650362.83997927,-571.73717891608,2537025.9498567,34.135223522352,0,0
-31.845229809441,188.45232051899,28.939653965397,650362.83997927,-571.73717891608,2537025.9498567,34.139653965397,0,0
-31.84522979176,188.47387824968,28.944084408441,650362.83997927,-571.73717891608,2537025.9498567,34.144084408441,0,0
-31.845229774079,188.49543598038,28.948514851485,650362.83997927,-571.73717891608,2537025.9498567,34.148514851485,0,0
-31.845229756398,188.51699371107,28.952945294529,650362.83997927,-571.73717891608,2537025.9498567,34.152945294529,0,0
-31.845229738717,188.53855144177,28.957375737574,650362.83997927,-571.73717891608,2537025.9498567,34.157375737574,0,0
-31.845229721036,188.56010917246,28.961806180618,650362.83997927,-571.73717891608,2537025.9498567,34.161806180618,0,0
-31.845229703356,188.58166690315,28.966236623662,650362.83997927,-571.73717891608,2537025.9498567,34.166236623662,0,0
-31.845229685675,188.60322463385,28.970667066707,650362.83997927,-571.73717891608,2537025.9498567,34.170667066707,0,0
-31.845229667994,188.62478236454,28.975097509751,650362.83997927,-571.73717891608,2537025.9498567,34.175097509751,0,0
-31.845229650313,188.64634009524,28.979527952795,650362.83997927,-571.73717891608,2537025.9498567,34.179527952795,0,0
-31.845229632632,188.66789782593,28.98395839584,650362.83997927,-571.73717891608,2537025.9498567,34.18395839584,0,0
-31.845229614951,188.68945555662,28.988388838884,650362.83997927,-571.73717891608,2537025.9498567,34.188388838884,0,0
-31.845229597271,188.71101328732,28.992819281928,650362.83997927,-571.73717891608,2537025.9498567,34.192819281928,0,0
-31.84522957959,188.73257101801,28.997249724972,650362.83997927,-571.73717891608,2537025.9498567,34.197249724972,0,0
-31.845229561909,188.75412874871,29.001680168017,650362.83997927,-571.73717891608,2537025.9498567,34.201680168017,0,0
-31.845229544228,188.7756864794,29.006110611061,650362.83997927,-571.73717891608,2537025.9498567,34.206110611061,0,0
-31.845229526547,188.79724421009,29.010541054105,650362.83997927,-571.73717891608,2537025.9498567,34.210541054105,0,0
-31.845229508866,188.81880194079,29.01497149715,650362.83997927,-571.73717891608,2537025.9498567,34.21497149715,0,0
-31.845229491186,188.84035967148,29.019401940194,650362.83997927,-571.73717891608,2537025.9498567,34.219401940194,0,0
-31.845229473505,188.86191740218,29.023832383238,650362.83997927,-571.73717891608,2537025.9498567,34.223832383238,0,0
-31.845229455824,188.88347513287,29.028262826283,650362.83997927,-571.73717891608,2537025.9498567,34.228262826283,0,0
-31.845229438143,188.90503286357,29.032693269327,650362.83997927,-571.73717891608,2537025.9498567,34.232693269327,0,0
-31.845229420462,188.92659059426,29.037123712371,650362.83997927,-571.73717891608,2537025.9498567,34.237123712371,0,0
-31.845229402781,188.94814832495,29.041554155416,650362.83997927,-571.73717891608,2537025.9498567,34.241554155416,0,0
-31.845229385101,188.96970605565,29.04598459846,650362.83997927,-571.73717891608,2537025.9498567,34.24598459846,0,0
-31.84522936742,188.99126378634,29.050415041504,650362.83997927,-571.73717891608,2537025.9498567,34.250415041504,0,0
-31.845229349739,189.01282151704,29.054845484548,650362.83997927,-571.73717891608,2537025.9498567,34.254845484548,0,0
-31.845229332058,189.03437924773,29.059275927593,650362.83997927,-571.73717891608,2537025.9498567,34.259275927593,0,0
-31.845229314377,189.05593697842,29.063706370637,650362.83997927,-571.73717891608,2537025.9498567,34.263706370637,0,0
-31.845229296696,189.07749470912,29.068136813681,650362.83997927,-571.73717891608,2537025.9498567,34.268136813681,0,0
-31.845229279016,189.09905243981,29.072567256726,650362.83997927,-571.73717891608,2537025.9498567,34.272567256726,0,0
-31.845229261335,189.12061017051,29.07699769977,650362.83997927,-571.73717891608,2537025.9498567,34.27699769977,0,0
-31.845229243654,189.1421679012,29.081428142814,650362.83997927,-571.73717891608,2537025.9498567,34.281428142814,0,0
-31.845229225973,189.16372563189,29.085858585859,650362.83997927,-571.73717891608,2537025.9498567,34.285858585859,0,0
-31.845229208292,189.18528336259,29.090289028903,650362.83997927,-571.73717891608,2537025.9498567,34.290289028903,0,0
-31.845229190611,189.20684109328,29.094719471947,650362.83997927,-571.73717891608,2537025.9498567,34.294719471947,0,0
-31.84522917293,189.22839882398,29.099149914991,650362.83997927,-571.73717891608,2537025.9498567,34.299149914991,0,0
-31.84522915525,189.24995655467,29.103580358036,650362.83997927,-571.73717891608,2537025.9498567,34.303580358036,0,0
-31.845229137569,189.27151428537,29.10801080108,650362.83997927,-571.73717891608,2537025.9498567,34.30801080108,0,0
-31.845229119888,189.29307201606,29.112441244124,650362.83997927,-571.73717891608,2537025.9498567,34.312441244124,0,0
-31.845229102207,189.31462974675,29.116871687169,650362.83997927,-571.73717891608,2537025.9498567,34.316871687169,0,0
-31.845229084526,189.33618747745,29.121302130213,650362.83997927,-571.73717891608,2537025.9498567,34.321302130213,0,0
-31.845229066845,189.35774520814,29.125732573257,650362.83997927,-571.73717891608,2537025.9498567,34.325732573257,0,0
-31.845229049165,189.37930293884,29.130163016302,650362.83997927,-571.73717891608,2537025.9498567,34.330163016302,0,0
-31.845229031484,189.40086066953,29.134593459346,650362.83997927,-571.73717891608,2537025.9498567,34.334593459346,0,0
-31.845229013803,189.42241840022,29.13902390239,650362.83997927,-571.73717891608,2537025.9498567,34.33902390239,0,0
-31.845228996122,189.44397613092,29.143454345435,650362.83997927,-571.73717891608,2537025.9498567,34.343454345435,0,0
-31.845228978441,189.46553386161,29.147884788479,650362.83997927,-571.73717891608,2537025.9498567,34.347884788479,0,0
-31.84522896076,189.48709159231,29.152315231523,650362.83997927,-571.73717891608,2537025.9498567,34.352315231523,0,0
-31.84522894308,189.508649323,29.156745674567,650362.83997927,-571.73717891608,2537025.9498567,34.356745674567,0,0
-31.845228925399,189.53020705369,29.161176117612,650362.83997927,-571.73717891608,2537025.9498567,34.361176117612,0,0
-31.845228907718,189.55176478439,29.165606560656,650362.83997927,-571.73717891608,2537025.9498567,34.365606560656,0,0
-31.845228890037,189.57332251508,29.1700370037,650362.83997927,-571.73717891608,2537025.9498567,34.3700370037,0,0
-31.845228872356,189.59488024578,29.174467446745,650362.83997927,-571.73717891608,2537025.9498567,34.374467446745,0,0
-31.845228854675,189.61643797647,29.178897889789,650362.83997927,-571.73717891608,2537025.9498567,34.378897889789,0,0
-31.845228836995,189.63799570717,29.183328332833,650362.83997927,-571.73717891608,2537025.9498567,34.383328332833,0,0
-31.845228819314,189.65955343786,29.187758775878,650362.83997927,-571.73717891608,2537025.9498567,34.387758775878,0,0
-31.845228801633,189.68111116855,29.192189218922,650362.83997927,-571.73717891608,2537025.9498567,34.392189218922,0,0
-31.845228783952,189.70266889925,29.196619661966,650362.83997927,-571.73717891608,2537025.9498567,34.396619661966,0,0
-31.845228766271,189.72422662994,29.20105010501,650362.83997927,-571.73717891608,2537025.9498567,34.40105010501,0,0
-31.84522874859,189.74578436064,29.205480548055,650362.83997927,-571.73717891608,2537025.9498567,34.405480548055,0,0
-31.84522873091,189.76734209133,29.209910991099,650362.83997927,-571.73717891608,2537025.9498567,34.409910991099,0,0
-31.845228713229,189.78889982202,29.214341434143,650362.83997927,-571.73717891608,2537025.9498567,34.414341434143,0,0
-31.845228695548,189.81045755272,29.218771877188,650362.83997927,-571.73717891608,2537025.9498567,34.418771877188,0,0
-31.845228677867,189.83201528341,29.223202320232,650362.83997927,-571.73717891608,2537025.9498567,34.423202320232,0,0
-31.845228660186,189.85357301411,29.227632763276,650362.83997927,-571.73717891608,2537025.9498567,34.427632763276,0,0
-31.845228642505,189.8751307448,29.232063206321,650362.83997927,-571.73717891608,2537025.9498567,34.432063206321,0,0
-31.845228624825,189.89668847549,29.236493649365,650362.83997927,-571.73717891608,2537025.9498567,34.436493649365,0,0
-31.845228607144,189.91824620619,29.240924092409,650362.83997927,-571.73717891608,2537025.9498567,34.440924092409,0,0
-31.845228589463,189.93980393688,29.245354535454,650362.83997927,-571.73717891608,2537025.9498567,34.445354535454,0,0
-31.845228571782,189.96136166758,29.249784978498,650362.83997927,-571.73717891608,2537025.9498567,34.449784978498,0,0
-31.845228554101,189.98291939827,29.254215421542,650362.83997927,-571.73717891608,2537025.9498567,34.454215421542,0,0
-31.84522853642,190.00447712897,29.258645864586,650362.83997927,-571.73717891608,2537025.9498567,34.458645864586,0,0
-31.845228518739,190.02603485966,29.263076307631,650362.83997927,-571.73717891608,2537025.9498567,34.463076307631,0,0
-31.845228501059,190.04759259035,29.267506750675,650362.83997927,-571.73717891608,2537025.9498567,34.467506750675,0,0
-31.845228483378,190.06915032105,29.271937193719,650362.83997927,-571.73717891608,2537025.9498567,34.471937193719,0,0
-31.845228465697,190.09070805174,29.276367636764,650362.83997927,-571.73717891608,2537025.9498567,34.476367636764,0,0
-31.845228448016,190.11226578244,29.280798079808,650362.83997927,-571.73717891608,2537025.9498567,34.480798079808,0,0
-31.845228430335,190.13382351313,29.285228522852,650362.83997927,-571.73717891608,2537025.9498567,34.485228522852,0,0
-31.845228412654,190.15538124382,29.289658965897,650362.83997927,-571.73717891608,2537025.9498567,34.489658965897,0,0
-31.845228394974,190.17693897452,29.294089408941,650362.83997927,-571.73717891608,2537025.9498567,34.494089408941,0,0
-31.845228377293,190.19849670521,29.298519851985,650362.83997927,-571.73717891608,2537025.9498567,34.498519851985,0,0
-31.845228359612,190.22005443591,29.30295029503,650362.83997927,-571.73717891608,2537025.9498567,34.502950295029,0,0
-31.845228341931,190.2416121666,29.307380738074,650362.83997927,-571.73717891608,2537025.9498567,34.507380738074,0,0
-31.84522832425,190.26316989729,29.311811181118,650362.83997927,-571.73717891608,2537025.9498567,34.511811181118,0,0
-31.845228306569,190.28472762799,29.316241624162,650362.83997927,-571.73717891608,2537025.9498567,34.516241624162,0,0
-31.845228288889,190.30628535868,29.320672067207,650362.83997927,-571.73717891608,2537025.9498567,34.520672067207,0,0
-31.845228271208,190.32784308938,29.325102510251,650362.83997927,-571.73717891608,2537025.9498567,34.525102510251,0,0
-31.845228253527,190.34940082007,29.329532953295,650362.83997927,-571.73717891608,2537025.9498567,34.529532953295,0,0
-31.845228235846,190.37095855077,29.33396339634,650362.83997927,-571.73717891608,2537025.9498567,34.53396339634,0,0
-31.845228218165,190.39251628146,29.338393839384,650362.83997927,-571.73717891608,2537025.9498567,34.538393839384,0,0
-31.845228200484,190.41407401215,29.342824282428,650362.83997927,-571.73717891608,2537025.9498567,34.542824282428,0,0
-31.845228182804,190.43563174285,29.347254725473,650362.83997927,-571.73717891608,2537025.9498567,34.547254725473,0,0
-31.845228165123,190.45718947354,29.351685168517,650362.83997927,-571.73717891608,2537025.9498567,34.551685168517,0,0
-31.845228147442,190.47874720424,29.356115611561,650362.83997927,-571.73717891608,2537025.9498567,34.556115611561,0,0
-31.845228129761,190.50030493493,29.360546054605,650362.83997927,-571.73717891608,2537025.9498567,34.560546054605,0,0
-31.84522811208,190.52186266562,29.36497649765,650362.83997927,-571.73717891608,2537025.9498567,34.56497649765,0,0
-31.845228094399,190.54342039632,29.369406940694,650362.83997927,-571.73717891608,2537025.9498567,34.569406940694,0,0
-31.845228076719,190.56497812701,29.373837383738,650362.83997927,-571.73717891608,2537025.9498567,34.573837383738,0,0
-31.845228059038,190.58653585771,29.378267826783,650362.83997927,-571.73717891608,2537025.9498567,34.578267826783,0,0
-31.845228041357,190.6080935884,29.382698269827,650362.83997927,-571.73717891608,2537025.9498567,34.582698269827,0,0
-31.845228023676,190.62965131909,29.387128712871,650362.83997927,-571.73717891608,2537025.9498567,34.587128712871,0,0
-31.845228005995,190.65120904979,29.391559155916,650362.83997927,-571.73717891608,2537025.9498567,34.591559155916,0,0
-31.845227988314,190.67276678048,29.39598959896,650362.83997927,-571.73717891608,2537025.9498567,34.59598959896,0,0
-31.845227970634,190.69432451118,29.400420042004,650362.83997927,-571.73717891608,2537025.9498567,34.600420042004,0,0
-31.845227952953,190.71588224187,29.404850485049,650362.83997927,-571.73717891608,2537025.9498567,34.604850485049,0,0
-31.845227935272,190.73743997257,29.409280928093,650362.83997927,-571.73717891608,2537025.9498567,34.609280928093,0,0
-31.845227917591,190.75899770326,29.413711371137,650362.83997927,-571.73717891608,2537025.9498567,34.613711371137,0,0
-31.84522789991,190.78055543395,29.418141814181,650362.83997927,-571.73717891608,2537025.9498567,34.618141814181,0,0
-31.845227882229,190.80211316465,29.422572257226,650362.83997927,-571.73717891608,2537025.9498567,34.622572257226,0,0
-31.845227864548,190.82367089534,29.42700270027,650362.83997927,-571.73717891608,2537025.9498567,34.62700270027,0,0
-31.845227846868,190.84522862604,29.431433143314,650362.83997927,-571.73717891608,2537025.9498567,34.631433143314,0,0
-31.845227829187,190.86678635673,29.435863586359,650362.83997927,-571.73717891608,2537025.9498567,34.635863586359,0,0
-31.845227811506,190.88834408742,29.440294029403,650362.83997927,-571.73717891608,2537025.9498567,34.640294029403,0,0
-31.845227793825,190.90990181812,29.444724472447,650362.83997927,-571.73717891608,2537025.9498567,34.644724472447,0,0
-31.845227776144,190.93145954881,29.449154915492,650362.83997927,-571.73717891608,2537025.9498567,34.649154915492,0,0
-31.845227758463,190.95301727951,29.453585358536,650362.83997927,-571.73717891608,2537025.9498567,34.653585358536,0,0
-31.845227740783,190.9745750102,29.45801580158,650362.83997927,-571.73717891608,2537025.9498567,34.65801580158,0,0
-31.845227723102,190.99613274089,29.462446244624,650362.83997927,-571.73717891608,2537025.9498567,34.662446244624,0,0
-31.845227705421,191.01769047159,29.466876687669,650362.83997927,-571.73717891608,2537025.9498567,34.666876687669,0,0
-31.84522768774,191.03924820228,29.471307130713,650362.83997927,-571.73717891608,2537025.9498567,34.671307130713,0,0
-31.845227670059,191.06080593298,29.475737573757,650362.83997927,-571.73717891608,2537025.9498567,34.675737573757,0,0
-31.845227652378,191.08236366367,29.480168016802,650362.83997927,-571.73717891608,2537025.9498567,34.680168016802,0,0
-31.845227634698,191.10392139437,29.484598459846,650362.83997927,-571.73717891608,2537025.9498567,34.684598459846,0,0
-31.845227617017,191.12547912506,29.48902890289,650362.83997927,-571.73717891608,2537025.9498567,34.68902890289,0,0
-31.845227599336,191.14703685575,29.493459345935,650362.83997927,-571.73717891608,2537025.9498567,34.693459345935,0,0
-31.845227581655,191.16859458645,29.497889788979,650362.83997927,-571.73717891608,2537025.9498567,34.697889788979,0,0
-31.845227563974,191.19015231714,29.502320232023,650362.83997927,-571.73717891608,2537025.9498567,34.702320232023,0,0
-31.845227546293,191.21171004784,29.506750675068,650362.83997927,-571.73717891608,2537025.9498567,34.706750675068,0,0
-31.845227528613,191.23326777853,29.511181118112,650362.83997927,-571.73717891608,2537025.9498567,34.711181118112,0,0
-31.845227510932,191.25482550922,29.515611561156,650362.83997927,-571.73717891608,2537025.9498567,34.715611561156,0,0
-31.845227493251,191.27638323992,29.5200420042,650362.83997927,-571.73717891608,2537025.9498567,34.7200420042,0,0
-31.84522747557,191.29794097061,29.524472447245,650362.83997927,-571.73717891608,2537025.9498567,34.724472447245,0,0
-31.845227457889,191.31949870131,29.528902890289,650362.83997927,-571.73717891608,2537025.9498567,34.728902890289,0,0
-31.845227440208,191.341056432,29.533333333333,650362.83997927,-571.73717891608,2537025.9498567,34.733333333333,0,0
-31.845227422528,191.36261416269,29.537763776378,650362.83997927,-571.73717891608,2537025.9498567,34.737763776378,0,0
-31.845227404847,191.38417189339,29.542194219422,650362.83997927,-571.73717891608,2537025.9498567,34.742194219422,0,0
-31.845227387166,191.40572962408,29.546624662466,650362.83997927,-571.73717891608,2537025.9498567,34.746624662466,0,0
-31.845227369485,191.42728735478,29.551055105511,650362.83997927,-571.73717891608,2537025.9498567,34.751055105511,0,0
-31.845227351804,191.44884508547,29.555485548555,650362.83997927,-571.73717891608,2537025.9498567,34.755485548555,0,0
-31.845227334123,191.47040281617,29.559915991599,650362.83997927,-571.73717891608,2537025.9498567,34.759915991599,0,0
-31.845227316443,191.49196054686,29.564346434643,650362.83997927,-571.73717891608,2537025.9498567,34.764346434643,0,0
-31.845227298762,191.51351827755,29.568776877688,650362.83997927,-571.73717891608,2537025.9498567,34.768776877688,0,0
-31.845227281081,191.53507600825,29.573207320732,650362.83997927,-571.73717891608,2537025.9498567,34.773207320732,0,0
-31.8452272634,191.55663373894,29.577637763776,650362.83997927,-571.73717891608,2537025.9498567,34.777637763776,0,0
-31.845227245719,191.57819146964,29.582068206821,650362.83997927,-571.73717891608,2537025.9498567,34.782068206821,0,0
-31.845227228038,191.59974920033,29.586498649865,650362.83997927,-571.73717891608,2537025.9498567,34.786498649865,0,0
-31.845227210358,191.62130693102,29.590929092909,650362.83997927,-571.73717891608,2537025.9498567,34.790929092909,0,0
-31.845227192677,191.64286466172,29.595359535954,650362.83997927,-571.73717891608,2537025.9498567,34.795359535954,0,0
-31.845227174996,191.66442239241,29.599789978998,650362.83997927,-571.73717891608,2537025.9498567,34.799789978998,0,0
-31.845227157315,191.68598012311,29.604220422042,650362.83997927,-571.73717891608,2537025.9498567,34.804220422042,0,0
-31.845227139634,191.7075378538,29.608650865087,650362.83997927,-571.73717891608,2537025.9498567,34.808650865087,0,0
-31.845227121953,191.72909558449,29.613081308131,650362.83997927,-571.73717891608,2537025.9498567,34.813081308131,0,0
-31.845227104272,191.75065331519,29.617511751175,650362.83997927,-571.73717891608,2537025.9498567,34.817511751175,0,0
-31.845227086592,191.77221104588,29.621942194219,650362.83997927,-571.73717891608,2537025.9498567,34.821942194219,0,0
-31.845227068911,191.79376877658,29.626372637264,650362.83997927,-571.73717891608,2537025.9498567,34.826372637264,0,0
-31.84522705123,191.81532650727,29.630803080308,650362.83997927,-571.73717891608,2537025.9498567,34.830803080308,0,0
-31.845227033549,191.83688423797,29.635233523352,650362.83997927,-571.73717891608,2537025.9498567,34.835233523352,0,0
-31.845227015868,191.85844196866,29.639663966397,650362.83997927,-571.73717891608,2537025.9498567,34.839663966397,0,0
-31.845226998187,191.87999969935,29.644094409441,650362.83997927,-571.73717891608,2537025.9498567,34.844094409441,0,0
-31.845226980507,191.90155743005,29.648524852485,650362.83997927,-571.73717891608,2537025.9498567,34.848524852485,0,0
-31.845226962826,191.92311516074,29.65295529553,650362.83997927,-571.73717891608,2537025.9498567,34.85295529553,0,0
-31.845226945145,191.94467289144,29.657385738574,650362.83997927,-571.73717891608,2537025.9498567,34.857385738574,0,0
-31.845226927464,191.96623062213,29.661816181618,650362.83997927,-571.73717891608,2537025.9498567,34.861816181618,0,0
-31.845226909783,191.98778835282,29.666246624662,650362.83997927,-571.73717891608,2537025.9498567,34.866246624662,0,0
-31.845226892119,192.00934608357,29.670677067707,646250.50893824,2489.6476250546,2531854.2045818,34.870677067707,0,0
-31.845226874629,192.03090381481,29.675107510751,646250.50893824,2489.6476250546,2531854.2045818,34.875107510751,0,0
-31.845226857139,192.05246154605,29.679537953795,646250.50893824,2489.6476250546,2531854.2045818,34.879537953795,0,0
-31.845226839649,192.07401927729,29.68396839684,646250.50893824,2489.6476250546,2531854.2045818,34.88396839684,0,0
-31.845226822159,192.09557700853,29.688398839884,646250.50893824,2489.6476250546,2531854.2045818,34.888398839884,0,0
-31.845226804669,192.11713473977,29.692829282928,646250.50893824,2489.6476250546,2531854.2045818,34.892829282928,0,0
-31.845226787179,192.13869247101,29.697259725973,646250.50893824,2489.6476250546,2531854.2045818,34.897259725973,0,0
-31.845226769689,192.16025020225,29.701690169017,646250.50893824,2489.6476250546,2531854.2045818,34.901690169017,0,0
-31.845226752199,192.18180793349,29.706120612061,646250.50893824,2489.6476250546,2531854.2045818,34.906120612061,0,0
-31.845226734709,192.20336566473,29.710551055106,646250.50893824,2489.6476250546,2531854.2045818,34.910551055106,0,0
-31.845226717219,192.22492339597,29.71498149815,646250.50893824,2489.6476250546,2531854.2045818,34.91498149815,0,0
-31.845226699729,192.24648112721,29.719411941194,646250.50893824,2489.6476250546,2531854.2045818,34.919411941194,0,0
-31.845226682239,192.26803885845,29.723842384238,646250.50893824,2489.6476250546,2531854.2045818,34.923842384238,0,0
-31.845226664749,192.28959658969,29.728272827283,646250.50893824,2489.6476250546,2531854.2045818,34.928272827283,0,0
-31.845226647258,192.31115432093,29.732703270327,646250.50893824,2489.6476250546,2531854.2045818,34.932703270327,0,0
-31.845226629768,192.33271205217,29.737133713371,646250.50893824,2489.6476250546,2531854.2045818,34.937133713371,0,0
-31.845226612278,192.35426978341,29.741564156416,646250.50893824,2489.6476250546,2531854.2045818,34.941564156416,0,0
-31.845226594788,192.37582751465,29.74599459946,646250.50893824,2489.6476250546,2531854.2045818,34.94599459946,0,0
-31.845226577298,192.39738524589,29.750425042504,646250.50893824,2489.6476250546,2531854.2045818,34.950425042504,0,0
-31.845226559808,192.41894297713,29.754855485549,646250.50893824,2489.6476250546,2531854.2045818,34.954855485549,0,0
-31.845226542318,192.44050070837,29.759285928593,646250.50893824,2489.6476250546,2531854.2045818,34.959285928593,0,0
-31.845226524828,192.46205843961,29.763716371637,646250.50893824,2489.6476250546,2531854.2045818,34.963716371637,0,0
-31.845226507338,192.48361617085,29.768146814681,646250.50893824,2489.6476250546,2531854.2045818,34.968146814681,0,0
-31.845226489848,192.50517390209,29.772577257726,646250.50893824,2489.6476250546,2531854.2045818,34.972577257726,0,0
-31.845226472358,192.52673163333,29.77700770077,646250.50893824,2489.6476250546,2531854.2045818,34.97700770077,0,0
-31.845226454868,192.54828936457,29.781438143814,646250.50893824,2489.6476250546,2531854.2045818,34.981438143814,0,0
-31.845226437378,192.56984709581,29.785868586859,646250.50893824,2489.6476250546,2531854.2045818,34.985868586859,0,0
-31.845226419888,192.59140482705,29.790299029903,646250.50893824,2489.6476250546,2531854.2045818,34.990299029903,0,0
-31.845226402398,192.61296255829,29.794729472947,646250.50893824,2489.6476250546,2531854.2045818,34.994729472947,0,0
-31.845226384908,192.63452028953,29.799159915992,646250.50893824,2489.6476250546,2531854.2045818,34.999159915992,0,0
-31.845226367417,192.65607802077,29.803590359036,646250.50893824,2489.6476250546,2531854.2045818,35.003590359036,0,0
-31.845226349927,192.67763575201,29.80802080208,646250.50893824,2489.6476250546,2531854.2045818,35.00802080208,0,0
-31.845226332437,192.69919348325,29.812451245125,646250.50893824,2489.6476250546,2531854.2045818,35.012451245125,0,0
-31.845226314947,192.72075121449,29.816881688169,646250.50893824,2489.6476250546,2531854.2045818,35.016881688169,0,0
-31.845226297457,192.74230894573,29.821312131213,646250.50893824,2489.6476250546,2531854.2045818,35.021312131213,0,0
-31.845226279967,192.76386667697,29.825742574257,646250.50893824,2489.6476250546,2531854.2045818,35.025742574257,0,0
-31.845226262477,192.78542440821,29.830173017302,646250.50893824,2489.6476250546,2531854.2045818,35.030173017302,0,0
-31.845226244987,192.80698213945,29.834603460346,646250.50893824,2489.6476250546,2531854.2045818,35.034603460346,0,0
-31.845226227497,192.82853987069,29.83903390339,646250.50893824,2489.6476250546,2531854.2045818,35.03903390339,0,0
-31.845226210007,192.85009760193,29.843464346435,646250.50893824,2489.6476250546,2531854.2045818,35.043464346435,0,0
-31.845226192517,192.87165533317,29.847894789479,646250.50893824,2489.6476250546,2531854.2045818,35.047894789479,0,0
-31.845226175027,192.89321306441,29.852325232523,646250.50893824,2489.6476250546,2531854.2045818,35.052325232523,0,0
-31.845226157537,192.91477079565,29.856755675568,646250.50893824,2489.6476250546,2531854.2045818,35.056755675568,0,0
-31.845226140047,192.93632852689,29.861186118612,646250.50893824,2489.6476250546,2531854.2045818,35.061186118612,0,0
-31.845226122557,192.95788625813,29.865616561656,646250.50893824,2489.6476250546,2531854.2045818,35.065616561656,0,0
-31.845226105067,192.97944398937,29.8700470047,646250.50893824,2489.6476250546,2531854.2045818,35.0700470047,0,0
-31.845226087576,193.00100172061,29.874477447745,646250.50893824,2489.6476250546,2531854.2045818,35.074477447745,0,0
-31.845226070086,193.02255945185,29.878907890789,646250.50893824,2489.6476250546,2531854.2045818,35.078907890789,0,0
-31.845226052596,193.04411718309,29.883338333833,646250.50893824,2489.6476250546,2531854.2045818,35.083338333833,0,0
-31.845226035106,193.06567491433,29.887768776878,646250.50893824,2489.6476250546,2531854.2045818,35.087768776878,0,0
-31.845226017616,193.08723264557,29.892199219922,646250.50893824,2489.6476250546,2531854.2045818,35.092199219922,0,0
-31.845226000126,193.10879037681,29.896629662966,646250.50893824,2489.6476250546,2531854.2045818,35.096629662966,0,0
-31.845225982636,193.13034810805,29.901060106011,646250.50893824,2489.6476250546,2531854.2045818,35.101060106011,0,0
-31.845225965146,193.15190583929,29.905490549055,646250.50893824,2489.6476250546,2531854.2045818,35.105490549055,0,0
-31.845225947656,193.17346357053,29.909920992099,646250.50893824,2489.6476250546,2531854.2045818,35.109920992099,0,0
-31.845225930166,193.19502130177,29.914351435144,646250.50893824,2489.6476250546,2531854.2045818,35.114351435144,0,0
-31.845225912676,193.21657903301,29.918781878188,646250.50893824,2489.6476250546,2531854.2045818,35.118781878188,0,0
-31.845225895186,193.23813676425,29.923212321232,646250.50893824,2489.6476250546,2531854.2045818,35.123212321232,0,0
-31.845225877696,193.25969449549,29.927642764276,646250.50893824,2489.6476250546,2531854.2045818,35.127642764276,0,0
-31.845225860206,193.28125222673,29.932073207321,646250.50893824,2489.6476250546,2531854.2045818,35.132073207321,0,0
-31.845225842716,193.30280995797,29.936503650365,646250.50893824,2489.6476250546,2531854.2045818,35.136503650365,0,0
-31.845225825226,193.32436768921,29.940934093409,646250.50893824,2489.6476250546,2531854.2045818,35.140934093409,0,0
-31.845225807736,193.34592542045,29.945364536454,646250.50893824,2489.6476250546,2531854.2045818,35.145364536454,0,0
-31.845225790245,193.36748315169,29.949794979498,646250.50893824,2489.6476250546,2531854.2045818,35.149794979498,0,0
-31.845225772755,193.38904088293,29.954225422542,646250.50893824,2489.6476250546,2531854.2045818,35.154225422542,0,0
-31.845225755265,193.41059861417,29.958655865587,646250.50893824,2489.6476250546,2531854.2045818,35.158655865587,0,0
-31.845225737775,193.43215634541,29.963086308631,646250.50893824,2489.6476250546,2531854.2045818,35.163086308631,0,0
-31.845225720285,193.45371407665,29.967516751675,646250.50893824,2489.6476250546,2531854.2045818,35.167516751675,0,0
-31.845225702795,193.47527180789,29.971947194719,646250.50893824,2489.6476250546,2531854.2045818,35.171947194719,0,0
-31.845225685305,193.49682953913,29.976377637764,646250.50893824,2489.6476250546,2531854.2045818,35.176377637764,0,0
-31.845225667815,193.51838727038,29.980808080808,646250.50893824,2489.6476250546,2531854.2045818,35.180808080808,0,0
-31.845225650325,193.53994500162,29.985238523852,646250.50893824,2489.6476250546,2531854.2045818,35.185238523852,0,0
-31.845225632835,193.56150273286,29.989668966897,646250.50893824,2489.6476250546,2531854.2045818,35.189668966897,0,0
-31.845225615345,193.5830604641,29.994099409941,646250.50893824,2489.6476250546,2531854.2045818,35.194099409941,0,0
-31.845225597855,193.60461819534,29.998529852985,646250.50893824,2489.6476250546,2531854.2045818,35.198529852985,0,0
-31.845225580365,193.62617592658,30.00296029603,646250.50893824,2489.6476250546,2531854.2045818,35.20296029603,0,0
-31.845225562875,193.64773365782,30.007390739074,646250.50893824,2489.6476250546,2531854.2045818,35.207390739074,0,0
-31.845225545385,193.66929138906,30.011821182118,646250.50893824,2489.6476250546,2531854.2045818,35.211821182118,0,0
-31.845225527895,193.6908491203,30.016251625163,646250.50893824,2489.6476250546,2531854.2045818,35.216251625163,0,0
-31.845225510404,193.71240685154,30.020682068207,646250.50893824,2489.6476250546,2531854.2045818,35.220682068207,0,0
-31.845225492914,193.73396458278,30.025112511251,646250.50893824,2489.6476250546,2531854.2045818,35.225112511251,0,0
-31.845225475424,193.75552231402,30.029542954295,646250.50893824,2489.6476250546,2531854.2045818,35.229542954295,0,0
-31.845225457934,193.77708004526,30.03397339734,646250.50893824,2489.6476250546,2531854.2045818,35.23397339734,0,0
-31.845225440444,193.7986377765,30.038403840384,646250.50893824,2489.6476250546,2531854.2045818,35.238403840384,0,0
-31.845225422954,193.82019550774,30.042834283428,646250.50893824,2489.6476250546,2531854.2045818,35.242834283428,0,0
-31.845225405464,193.84175323898,30.047264726473,646250.50893824,2489.6476250546,2531854.2045818,35.247264726473,0,0
-31.845225387974,193.86331097022,30.051695169517,646250.50893824,2489.6476250546,2531854.2045818,35.251695169517,0,0
-31.845225370484,193.88486870146,30.056125612561,646250.50893824,2489.6476250546,2531854.2045818,35.256125612561,0,0
-31.845225352994,193.9064264327,30.060556055606,646250.50893824,2489.6476250546,2531854.2045818,35.260556055606,0,0
-31.845225335504,193.92798416394,30.06498649865,646250.50893824,2489.6476250546,2531854.2045818,35.26498649865,0,0
-31.845225318014,193.94954189518,30.069416941694,646250.50893824,2489.6476250546,2531854.2045818,35.269416941694,0,0
-31.845225300524,193.97109962642,30.073847384738,646250.50893824,2489.6476250546,2531854.2045818,35.273847384738,0,0
-31.845225283034,193.99265735766,30.078277827783,646250.50893824,2489.6476250546,2531854.2045818,35.278277827783,0,0
-31.845225265544,194.0142150889,30.082708270827,646250.50893824,2489.6476250546,2531854.2045818,35.282708270827,0,0
-31.845225248054,194.03577282014,30.087138713871,646250.50893824,2489.6476250546,2531854.2045818,35.287138713871,0,0
-31.845225230564,194.05733055138,30.091569156916,646250.50893824,2489.6476250546,2531854.2045818,35.291569156916,0,0
-31.845225213073,194.07888828262,30.09599959996,646250.50893824,2489.6476250546,2531854.2045818,35.29599959996,0,0
-31.845225195583,194.10044601386,30.100430043004,646250.50893824,2489.6476250546,2531854.2045818,35.300430043004,0,0
-31.845225178093,194.1220037451,30.104860486049,646250.50893824,2489.6476250546,2531854.2045818,35.304860486049,0,0
-31.845225160603,194.14356147634,30.109290929093,646250.50893824,2489.6476250546,2531854.2045818,35.309290929093,0,0
-31.845225143113,194.16511920758,30.113721372137,646250.50893824,2489.6476250546,2531854.2045818,35.313721372137,0,0
-31.845225125623,194.18667693882,30.118151815182,646250.50893824,2489.6476250546,2531854.2045818,35.318151815182,0,0
-31.845225108133,194.20823467006,30.122582258226,646250.50893824,2489.6476250546,2531854.2045818,35.322582258226,0,0
-31.845225090643,194.2297924013,30.12701270127,646250.50893824,2489.6476250546,2531854.2045818,35.32701270127,0,0
-31.845225073153,194.25135013254,30.131443144314,646250.50893824,2489.6476250546,2531854.2045818,35.331443144314,0,0
-31.845225055663,194.27290786378,30.135873587359,646250.50893824,2489.6476250546,2531854.2045818,35.335873587359,0,0
-31.845225038173,194.29446559502,30.140304030403,646250.50893824,2489.6476250546,2531854.2045818,35.340304030403,0,0
-31.845225020683,194.31602332626,30.144734473447,646250.50893824,2489.6476250546,2531854.2045818,35.344734473447,0,0
-31.845225003193,194.3375810575,30.149164916492,646250.50893824,2489.6476250546,2531854.2045818,35.349164916492,0,0
-31.845224985703,194.35913878874,30.153595359536,646250.50893824,2489.6476250546,2531854.2045818,35.353595359536,0,0
-31.845224968213,194.38069651998,30.15802580258,646250.50893824,2489.6476250546,2531854.2045818,35.35802580258,0,0
-31.845224950723,194.40225425122,30.162456245625,646250.50893824,2489.6476250546,2531854.2045818,35.362456245625,0,0
-31.845224933232,194.42381198246,30.166886688669,646250.50893824,2489.6476250546,2531854.2045818,35.366886688669,0,0
-31.845224915742,194.4453697137,30.171317131713,646250.50893824,2489.6476250546,2531854.2045818,35.371317131713,0,0
-31.845224898252,194.46692744494,30.175747574757,646250.50893824,2489.6476250546,2531854.2045818,35.375747574757,0,0
-31.845224880762,194.48848517618,30.180178017802,646250.50893824,2489.6476250546,2531854.2045818,35.380178017802,0,0
-31.845224863272,194.51004290742,30.184608460846,646250.50893824,2489.6476250546,2531854.2045818,35.384608460846,0,0
-31.845224845782,194.53160063866,30.18903890389,646250.50893824,2489.6476250546,2531854.2045818,35.38903890389,0,0
-31.845224828292,194.5531583699,30.193469346935,646250.50893824,2489.6476250546,2531854.2045818,35.393469346935,0,0
-31.845224810802,194.57471610114,30.197899789979,646250.50893824,2489.6476250546,2531854.2045818,35.397899789979,0,0
-31.845224793312,194.59627383238,30.202330233023,646250.50893824,2489.6476250546,2531854.2045818,35.402330233023,0,0
-31.845224775822,194.61783156362,30.206760676068,646250.50893824,2489.6476250546,2531854.2045818,35.406760676068,0,0
-31.845224758332,194.63938929486,30.211191119112,646250.50893824,2489.6476250546,2531854.2045818,35.411191119112,0,0
-31.845224740842,194.6609470261,30.215621562156,646250.50893824,2489.6476250546,2531854.2045818,35.415621562156,0,0
-31.845224723352,194.68250475734,30.220052005201,646250.50893824,2489.6476250546,2531854.2045818,35.420052005201,0,0
-31.845224705862,194.70406248858,30.224482448245,646250.50893824,2489.6476250546,2531854.2045818,35.424482448245,0,0
-31.845224688372,194.72562021982,30.228912891289,646250.50893824,2489.6476250546,2531854.2045818,35.428912891289,0,0
-31.845224670882,194.74717795106,30.233343334333,646250.50893824,2489.6476250546,2531854.2045818,35.433343334333,0,0
-31.845224653391,194.7687356823,30.237773777378,646250.50893824,2489.6476250546,2531854.2045818,35.437773777378,0,0
-31.845224635901,194.79029341354,30.242204220422,646250.50893824,2489.6476250546,2531854.2045818,35.442204220422,0,0
-31.845224618411,194.81185114478,30.246634663466,646250.50893824,2489.6476250546,2531854.2045818,35.446634663466,0,0
-31.845224600921,194.83340887602,30.251065106511,646250.50893824,2489.6476250546,2531854.2045818,35.451065106511,0,0
-31.845224583431,194.85496660726,30.255495549555,646250.50893824,2489.6476250546,2531854.2045818,35.455495549555,0,0
-31.845224565941,194.8765243385,30.259925992599,646250.50893824,2489.6476250546,2531854.2045818,35.459925992599,0,0
-31.845224548451,194.89808206974,30.264356435644,646250.50893824,2489.6476250546,2531854.2045818,35.464356435644,0,0
-31.845224530961,194.91963980098,30.268786878688,646250.50893824,2489.6476250546,2531854.2045818,35.468786878688,0,0
-31.845224513471,194.94119753222,30.273217321732,646250.50893824,2489.6476250546,2531854.2045818,35.473217321732,0,0
-31.845224495981,194.96275526346,30.277647764776,646250.50893824,2489.6476250546,2531854.2045818,35.477647764776,0,0
-31.845224478491,194.9843129947,30.282078207821,646250.50893824,2489.6476250546,2531854.2045818,35.482078207821,0,0
-31.845224461001,195.00587072594,30.286508650865,646250.50893824,2489.6476250546,2531854.2045818,35.486508650865,0,0
-31.845224443511,195.02742845718,30.290939093909,646250.50893824,2489.6476250546,2531854.2045818,35.490939093909,0,0
-31.845224426021,195.04898618842,30.295369536954,646250.50893824,2489.6476250546,2531854.2045818,35.495369536954,0,0
-31.845224408531,195.07054391966,30.299799979998,646250.50893824,2489.6476250546,2531854.2045818,35.499799979998,0,0
-31.845224391041,195.0921016509,30.304230423042,646250.50893824,2489.6476250546,2531854.2045818,35.504230423042,0,0
-31.845224373551,195.11365938214,30.308660866087,646250.50893824,2489.6476250546,2531854.2045818,35.508660866087,0,0
-31.84522435606,195.13521711338,30.313091309131,646250.50893824,2489.6476250546,2531854.2045818,35.513091309131,0,0
-31.84522433857,195.15677484462,30.317521752175,646250.50893824,2489.6476250546,2531854.2045818,35.517521752175,0,0
-31.84522432108,195.17833257586,30.32195219522,646250.50893824,2489.6476250546,2531854.2045818,35.52195219522,0,0
-31.84522430359,195.1998903071,30.326382638264,646250.50893824,2489.6476250546,2531854.2045818,35.526382638264,0,0
-31.8452242861,195.22144803834,30.330813081308,646250.50893824,2489.6476250546,2531854.2045818,35.530813081308,0,0
-31.84522426861,195.24300576958,30.335243524352,646250.50893824,2489.6476250546,2531854.2045818,35.535243524352,0,0
-31.84522425112,195.26456350082,30.339673967397,646250.50893824,2489.6476250546,2531854.2045818,35.539673967397,0,0
-31.84522423363,195.28612123206,30.344104410441,646250.50893824,2489.6476250546,2531854.2045818,35.544104410441,0,0
-31.84522421614,195.3076789633,30.348534853485,646250.50893824,2489.6476250546,2531854.2045818,35.548534853485,0,0
-31.84522419865,195.32923669454,30.35296529653,646250.50893824,2489.6476250546,2531854.2045818,35.55296529653,0,0
-31.84522418116,195.35079442579,30.357395739574,646250.50893824,2489.6476250546,2531854.2045818,35.557395739574,0,0
-31.84522416367,195.37235215703,30.361826182618,646250.50893824,2489.6476250546,2531854.2045818,35.561826182618,0,0
-31.84522414618,195.39390988827,30.366256625663,646250.50893824,2489.6476250546,2531854.2045818,35.566256625663,0,0
-31.84522412869,195.41546761951,30.370687068707,646250.50893824,2489.6476250546,2531854.2045818,35.570687068707,0,0
-31.8452241112,195.43702535075,30.375117511751,646250.50893824,2489.6476250546,2531854.2045818,35.575117511751,0,0
-31.84522409371,195.45858308199,30.379547954795,646250.50893824,2489.6476250546,2531854.2045818,35.579547954795,0,0
-31.845224076219,195.48014081323,30.38397839784,646250.50893824,2489.6476250546,2531854.2045818,35.58397839784,0,0
-31.845224058729,195.50169854447,30.388408840884,646250.50893824,2489.6476250546,2531854.2045818,35.588408840884,0,0
-31.845224041239,195.52325627571,30.392839283928,646250.50893824,2489.6476250546,2531854.2045818,35.592839283928,0,0
-31.845224023749,195.54481400695,30.397269726973,646250.50893824,2489.6476250546,2531854.2045818,35.597269726973,0,0
-31.845224006259,195.56637173819,30.401700170017,646250.50893824,2489.6476250546,2531854.2045818,35.601700170017,0,0
-31.845223988769,195.58792946943,30.406130613061,646250.50893824,2489.6476250546,2531854.2045818,35.606130613061,0,0
-31.845223971279,195.60948720067,30.410561056106,646250.50893824,2489.6476250546,2531854.2045818,35.610561056106,0,0
-31.845223953789,195.63104493191,30.41499149915,646250.50893824,2489.6476250546,2531854.2045818,35.61499149915,0,0
-31.845223936299,195.65260266315,30.419421942194,646250.50893824,2489.6476250546,2531854.2045818,35.619421942194,0,0
-31.845223918809,195.67416039439,30.423852385239,646250.50893824,2489.6476250546,2531854.2045818,35.623852385239,0,0
-31.845223901319,195.69571812563,30.428282828283,646250.50893824,2489.6476250546,2531854.2045818,35.628282828283,0,0
-31.845223883829,195.71727585687,30.432713271327,646250.50893824,2489.6476250546,2531854.2045818,35.632713271327,0,0
-31.845223866339,195.73883358811,30.437143714371,646250.50893824,2489.6476250546,2531854.2045818,35.637143714371,0,0
-31.845223848849,195.76039131935,30.441574157416,646250.50893824,2489.6476250546,2531854.2045818,35.641574157416,0,0
-31.845223831359,195.78194905059,30.44600460046,646250.50893824,2489.6476250546,2531854.2045818,35.64600460046,0,0
-31.845223813869,195.80350678183,30.450435043504,646250.50893824,2489.6476250546,2531854.2045818,35.650435043504,0,0
-31.845223796378,195.82506451307,30.454865486549,646250.50893824,2489.6476250546,2531854.2045818,35.654865486549,0,0
-31.845223778888,195.84662224431,30.459295929593,646250.50893824,2489.6476250546,2531854.2045818,35.659295929593,0,0
-31.845223761398,195.86817997555,30.463726372637,646250.50893824,2489.6476250546,2531854.2045818,35.663726372637,0,0
-31.845223743908,195.88973770679,30.468156815682,646250.50893824,2489.6476250546,2531854.2045818,35.668156815682,0,0
-31.845223726418,195.91129543803,30.472587258726,646250.50893824,2489.6476250546,2531854.2045818,35.672587258726,0,0
-31.845223708928,195.93285316927,30.47701770177,646250.50893824,2489.6476250546,2531854.2045818,35.67701770177,0,0
-31.845223691438,195.95441090051,30.481448144814,646250.50893824,2489.6476250546,2531854.2045818,35.681448144814,0,0
-31.845223673948,195.97596863175,30.485878587859,646250.50893824,2489.6476250546,2531854.2045818,35.685878587859,0,0
-31.845223656458,195.99752636299,30.490309030903,646250.50893824,2489.6476250546,2531854.2045818,35.690309030903,0,0
-31.845223638968,196.01908409423,30.494739473947,646250.50893824,2489.6476250546,2531854.2045818,35.694739473947,0,0
-31.845223621478,196.04064182547,30.499169916992,646250.50893824,2489.6476250546,2531854.2045818,35.699169916992,0,0
-31.845223603988,196.06219955671,30.503600360036,646250.50893824,2489.6476250546,2531854.2045818,35.703600360036,0,0
-31.845223586498,196.08375728795,30.50803080308,646250.50893824,2489.6476250546,2531854.2045818,35.70803080308,0,0
-31.845223569008,196.10531501919,30.512461246125,646250.50893824,2489.6476250546,2531854.2045818,35.712461246125,0,0
-31.845223551518,196.12687275043,30.516891689169,646250.50893824,2489.6476250546,2531854.2045818,35.716891689169,0,0
-31.845223534028,196.14843048167,30.521322132213,646250.50893824,2489.6476250546,2531854.2045818,35.721322132213,0,0
-31.845223516538,196.16998821291,30.525752575258,646250.50893824,2489.6476250546,2531854.2045818,35.725752575258,0,0
-31.845223499047,196.19154594415,30.530183018302,646250.50893824,2489.6476250546,2531854.2045818,35.730183018302,0,0
-31.845223481557,196.21310367539,30.534613461346,646250.50893824,2489.6476250546,2531854.2045818,35.734613461346,0,0
-31.845223464067,196.23466140663,30.53904390439,646250.50893824,2489.6476250546,2531854.2045818,35.73904390439,0,0
-31.845223446577,196.25621913787,30.543474347435,646250.50893824,2489.6476250546,2531854.2045818,35.743474347435,0,0
-31.845223429087,196.27777686911,30.547904790479,646250.50893824,2489.6476250546,2531854.2045818,35.747904790479,0,0
-31.845223411597,196.29933460035,30.552335233523,646250.50893824,2489.6476250546,2531854.2045818,35.752335233523,0,0
-31.845223394107,196.32089233159,30.556765676568,646250.50893824,2489.6476250546,2531854.2045818,35.756765676568,0,0
-31.845223376617,196.34245006283,30.561196119612,646250.50893824,2489.6476250546,2531854.2045818,35.761196119612,0,0
-31.845223359127,196.36400779407,30.565626562656,646250.50893824,2489.6476250546,2531854.2045818,35.765626562656,0,0
-31.845223341637,196.38556552531,30.570057005701,646250.50893824,2489.6476250546,2531854.2045818,35.770057005701,0,0
-31.845223324147,196.40712325655,30.574487448745,646250.50893824,2489.6476250546,2531854.2045818,35.774487448745,0,0
-31.845223306657,196.42868098779,30.578917891789,646250.50893824,2489.6476250546,2531854.2045818,35.778917891789,0,0
-31.845223289167,196.45023871903,30.583348334833,646250.50893824,2489.6476250546,2531854.2045818,35.783348334833,0,0
-31.845223271677,196.47179645027,30.587778777878,646250.50893824,2489.6476250546,2531854.2045818,35.787778777878,0,0
-31.845223254187,196.49335418151,30.592209220922,646250.50893824,2489.6476250546,2531854.2045818,35.792209220922,0,0
-31.845223236697,196.51491191275,30.596639663966,646250.50893824,2489.6476250546,2531854.2045818,35.796639663966,0,0
-31.845223219206,196.53646964399,30.601070107011,646250.50893824,2489.6476250546,2531854.2045818,35.801070107011,0,0
-31.845223201716,196.55802737523,30.605500550055,646250.50893824,2489.6476250546,2531854.2045818,35.805500550055,0,0
-31.845223184226,196.57958510647,30.609930993099,646250.50893824,2489.6476250546,2531854.2045818,35.809930993099,0,0
-31.845223166736,196.60114283771,30.614361436144,646250.50893824,2489.6476250546,2531854.2045818,35.814361436144,0,0
-31.845223149246,196.62270056895,30.618791879188,646250.50893824,2489.6476250546,2531854.2045818,35.818791879188,0,0
-31.845223131756,196.64425830019,30.623222322232,646250.50893824,2489.6476250546,2531854.2045818,35.823222322232,0,0
-31.845223114266,196.66581603143,30.627652765277,646250.50893824,2489.6476250546,2531854.2045818,35.827652765277,0,0
-31.845223096776,196.68737376267,30.632083208321,646250.50893824,2489.6476250546,2531854.2045818,35.832083208321,0,0
-31.845223079286,196.70893149391,30.636513651365,646250.50893824,2489.6476250546,2531854.2045818,35.836513651365,0,0
-31.845223061796,196.73048922515,30.640944094409,646250.50893824,2489.6476250546,2531854.2045818,35.840944094409,0,0
-31.845223044306,196.75204695639,30.645374537454,646250.50893824,2489.6476250546,2531854.2045818,35.845374537454,0,0
-31.845223026816,196.77360468763,30.649804980498,646250.50893824,2489.6476250546,2531854.2045818,35.849804980498,0,0
-31.845223009326,196.79516241887,30.654235423542,646250.50893824,2489.6476250546,2531854.2045818,35.854235423542,0,0
-31.845222991836,196.81672015011,30.658665866587,646250.50893824,2489.6476250546,2531854.2045818,35.858665866587,0,0
-31.845222974346,196.83827788135,30.663096309631,646250.50893824,2489.6476250546,2531854.2045818,35.863096309631,0,0
-31.845222956856,196.85983561259,30.667526752675,646250.50893824,2489.6476250546,2531854.2045818,35.867526752675,0,0
-31.845222939365,196.88139334383,30.67195719572,646250.50893824,2489.6476250546,2531854.2045818,35.87195719572,0,0
-31.845222921875,196.90295107507,30.676387638764,646250.50893824,2489.6476250546,2531854.2045818,35.876387638764,0,0
-31.845222904385,196.92450880631,30.680818081808,646250.50893824,2489.6476250546,2531854.2045818,35.880818081808,0,0
-31.845222886895,196.94606653755,30.685248524852,646250.50893824,2489.6476250546,2531854.2045818,35.885248524852,0,0
-31.845222869405,196.96762426879,30.689678967897,646250.50893824,2489.6476250546,2531854.2045818,35.889678967897,0,0
-31.845222851915,196.98918200003,30.694109410941,646250.50893824,2489.6476250546,2531854.2045818,35.894109410941,0,0
-31.845222834425,197.01073973127,30.698539853985,646250.50893824,2489.6476250546,2531854.2045818,35.898539853985,0,0
-31.845222816935,197.03229746251,30.70297029703,646250.50893824,2489.6476250546,2531854.2045818,35.90297029703,0,0
-31.845222799445,197.05385519375,30.707400740074,646250.50893824,2489.6476250546,2531854.2045818,35.907400740074,0,0
-31.845222781955,197.07541292499,30.711831183118,646250.50893824,2489.6476250546,2531854.2045818,35.911831183118,0,0
-31.845222764465,197.09697065623,30.716261626163,646250.50893824,2489.6476250546,2531854.2045818,35.916261626163,0,0
-31.845222746975,197.11852838747,30.720692069207,646250.50893824,2489.6476250546,2531854.2045818,35.920692069207,0,0
-31.845222729485,197.14008611871,30.725122512251,646250.50893824,2489.6476250546,2531854.2045818,35.925122512251,0,0
-31.845222711995,197.16164384995,30.729552955296,646250.50893824,2489.6476250546,2531854.2045818,35.929552955296,0,0
-31.845222694505,197.18320158119,30.73398339834,646250.50893824,2489.6476250546,2531854.2045818,35.93398339834,0,0
-31.845222677015,197.20475931244,30.738413841384,646250.50893824,2489.6476250546,2531854.2045818,35.938413841384,0,0
-31.845222659525,197.22631704368,30.742844284428,646250.50893824,2489.6476250546,2531854.2045818,35.942844284428,0,0
-31.845222642034,197.24787477492,30.747274727473,646250.50893824,2489.6476250546,2531854.2045818,35.947274727473,0,0
-31.845222624544,197.26943250616,30.751705170517,646250.50893824,2489.6476250546,2531854.2045818,35.951705170517,0,0
-31.845222607054,197.2909902374,30.756135613561,646250.50893824,2489.6476250546,2531854.2045818,35.956135613561,0,0
-31.845222589564,197.31254796864,30.760566056606,646250.50893824,2489.6476250546,2531854.2045818,35.960566056606,0,0
-31.845222572074,197.33410569988,30.76499649965,646250.50893824,2489.6476250546,2531854.2045818,35.96499649965,0,0
-31.845222554584,197.35566343112,30.769426942694,646250.50893824,2489.6476250546,2531854.2045818,35.969426942694,0,0
-31.845222537094,197.37722116236,30.773857385739,646250.50893824,2489.6476250546,2531854.2045818,35.973857385739,0,0
-31.845222519604,197.3987788936,30.778287828783,646250.50893824,2489.6476250546,2531854.2045818,35.978287828783,0,0
-31.845222502114,197.42033662484,30.782718271827,646250.50893824,2489.6476250546,2531854.2045818,35.982718271827,0,0
-31.845222484624,197.44189435608,30.787148714871,646250.50893824,2489.6476250546,2531854.2045818,35.987148714871,0,0
-31.845222467134,197.46345208732,30.791579157916,646250.50893824,2489.6476250546,2531854.2045818,35.991579157916,0,0
-31.845222449644,197.48500981856,30.79600960096,646250.50893824,2489.6476250546,2531854.2045818,35.99600960096,0,0
-31.845222432154,197.5065675498,30.800440044004,646250.50893824,2489.6476250546,2531854.2045818,36.000440044004,0,0
-31.845222414664,197.52812528104,30.804870487049,646250.50893824,2489.6476250546,2531854.2045818,36.004870487049,0,0
-31.845222397174,197.54968301228,30.809300930093,646250.50893824,2489.6476250546,2531854.2045818,36.009300930093,0,0
-31.845222379684,197.57124074352,30.813731373137,646250.50893824,2489.6476250546,2531854.2045818,36.013731373137,0,0
-31.845222362193,197.59279847476,30.818161816182,646250.50893824,2489.6476250546,2531854.2045818,36.018161816182,0,0
-31.845222344703,197.614356206,30.822592259226,646250.50893824,2489.6476250546,2531854.2045818,36.022592259226,0,0
-31.845222327213,197.63591393724,30.82702270227,646250.50893824,2489.6476250546,2531854.2045818,36.02702270227,0,0
-31.845222309723,197.65747166848,30.831453145315,646250.50893824,2489.6476250546,2531854.2045818,36.031453145315,0,0
-31.845222292233,197.67902939972,30.835883588359,646250.50893824,2489.6476250546,2531854.2045818,36.035883588359,0,0
-31.845222274743,197.70058713096,30.840314031403,646250.50893824,2489.6476250546,2531854.2045818,36.040314031403,0,0
-31.845222257253,197.7221448622,30.844744474447,646250.50893824,2489.6476250546,2531854.2045818,36.044744474447,0,0
-31.845222239763,197.74370259344,30.849174917492,646250.50893824,2489.6476250546,2531854.2045818,36.049174917492,0,0
-31.845222222273,197.76526032468,30.853605360536,646250.50893824,2489.6476250546,2531854.2045818,36.053605360536,0,0
-31.845222204783,197.78681805592,30.85803580358,646250.50893824,2489.6476250546,2531854.2045818,36.05803580358,0,0
-31.845222187293,197.80837578716,30.862466246625,646250.50893824,2489.6476250546,2531854.2045818,36.062466246625,0,0
-31.845222169803,197.8299335184,30.866896689669,646250.50893824,2489.6476250546,2531854.2045818,36.066896689669,0,0
-31.845222152313,197.85149124964,30.871327132713,646250.50893824,2489.6476250546,2531854.2045818,36.071327132713,0,0
-31.845222134823,197.87304898088,30.875757575758,646250.50893824,2489.6476250546,2531854.2045818,36.075757575758,0,0
-31.845222117333,197.89460671212,30.880188018802,646250.50893824,2489.6476250546,2531854.2045818,36.080188018802,0,0
-31.845222099843,197.91616444336,30.884618461846,646250.50893824,2489.6476250546,2531854.2045818,36.084618461846,0,0
-31.845222082353,197.9377221746,30.88904890489,646250.50893824,2489.6476250546,2531854.2045818,36.08904890489,0,0
-31.845222064862,197.95927990584,30.893479347935,646250.50893824,2489.6476250546,2531854.2045818,36.093479347935,0,0
-31.845222047372,197.98083763708,30.897909790979,646250.50893824,2489.6476250546,2531854.2045818,36.097909790979,0,0
-31.845222029882,198.00239536832,30.902340234023,646250.50893824,2489.6476250546,2531854.2045818,36.102340234023,0,0
-31.845222012392,198.02395309956,30.906770677068,646250.50893824,2489.6476250546,2531854.2045818,36.106770677068,0,0
-31.845221994902,198.0455108308,30.911201120112,646250.50893824,2489.6476250546,2531854.2045818,36.111201120112,0,0
-31.845221977412,198.06706856204,30.915631563156,646250.50893824,2489.6476250546,2531854.2045818,36.115631563156,0,0
-31.845221959922,198.08862629328,30.920062006201,646250.50893824,2489.6476250546,2531854.2045818,36.120062006201,0,0
-31.845221942432,198.11018402452,30.924492449245,646250.50893824,2489.6476250546,2531854.2045818,36.124492449245,0,0
-31.845221924942,198.13174175576,30.928922892289,646250.50893824,2489.6476250546,2531854.2045818,36.128922892289,0,0
-31.845221907452,198.153299487,30.933353335334,646250.50893824,2489.6476250546,2531854.2045818,36.133353335334,0,0
-31.845221889962,198.17485721824,30.937783778378,646250.50893824,2489.6476250546,2531854.2045818,36.137783778378,0,0
-31.845221872472,198.19641494948,30.942214221422,646250.50893824,2489.6476250546,2531854.2045818,36.142214221422,0,0
-31.845221854982,198.21797268072,30.946644664466,646250.50893824,2489.6476250546,2531854.2045818,36.146644664466,0,0
-31.845221837492,198.23953041196,30.951075107511,646250.50893824,2489.6476250546,2531854.2045818,36.151075107511,0,0
-31.845221820002,198.2610881432,30.955505550555,646250.50893824,2489.6476250546,2531854.2045818,36.155505550555,0,0
-31.845221802512,198.28264587444,30.959935993599,646250.50893824,2489.6476250546,2531854.2045818,36.159935993599,0,0
-31.845221785021,198.30420360568,30.964366436644,646250.50893824,2489.6476250546,2531854.2045818,36.164366436644,0,0
-31.845221767531,198.32576133692,30.968796879688,646250.50893824,2489.6476250546,2531854.2045818,36.168796879688,0,0
-31.845221750041,198.34731906816,30.973227322732,646250.50893824,2489.6476250546,2531854.2045818,36.173227322732,0,0
-31.845221732551,198.3688767994,30.977657765777,646250.50893824,2489.6476250546,2531854.2045818,36.177657765777,0,0
-31.845221715061,198.39043453064,30.982088208821,646250.50893824,2489.6476250546,2531854.2045818,36.182088208821,0,0
-31.845221697571,198.41199226188,30.986518651865,646250.50893824,2489.6476250546,2531854.2045818,36.186518651865,0,0
-31.845221680081,198.43354999312,30.990949094909,646250.50893824,2489.6476250546,2531854.2045818,36.190949094909,0,0
-31.845221662591,198.45510772436,30.995379537954,646250.50893824,2489.6476250546,2531854.2045818,36.195379537954,0,0
-31.845221645101,198.4766654556,30.999809980998,646250.50893824,2489.6476250546,2531854.2045818,36.199809980998,0,0
-31.845221627611,198.49822318684,31.004240424042,646250.50893824,2489.6476250546,2531854.2045818,36.204240424042,0,0
-31.845221610121,198.51978091808,31.008670867087,646250.50893824,2489.6476250546,2531854.2045818,36.208670867087,0,0
-31.845221592631,198.54133864932,31.013101310131,646250.50893824,2489.6476250546,2531854.2045818,36.213101310131,0,0
-31.845221575141,198.56289638056,31.017531753175,646250.50893824,2489.6476250546,2531854.2045818,36.217531753175,0,0
-31.845221557651,198.5844541118,31.02196219622,646250.50893824,2489.6476250546,2531854.2045818,36.22196219622,0,0
-31.845221540161,198.60601184304,31.026392639264,646250.50893824,2489.6476250546,2531854.2045818,36.226392639264,0,0
-31.845221522671,198.62756957428,31.030823082308,646250.50893824,2489.6476250546,2531854.2045818,36.230823082308,0,0
-31.84522150518,198.64912730552,31.035253525353,646250.50893824,2489.6476250546,2531854.2045818,36.235253525353,0,0
-31.84522148769,198.67068503676,31.039683968397,646250.50893824,2489.6476250546,2531854.2045818,36.239683968397,0,0
-31.8452214702,198.692242768,31.044114411441,646250.50893824,2489.6476250546,2531854.2045818,36.244114411441,0,0
-31.84522145271,198.71380049924,31.048544854485,646250.50893824,2489.6476250546,2531854.2045818,36.248544854485,0,0
-31.84522143522,198.73535823048,31.05297529753,646250.50893824,2489.6476250546,2531854.2045818,36.25297529753,0,0
-31.84522141773,198.75691596172,31.057405740574,646250.50893824,2489.6476250546,2531854.2045818,36.257405740574,0,0
-31.84522140024,198.77847369296,31.061836183618,646250.50893824,2489.6476250546,2531854.2045818,36.261836183618,0,0
-31.84522138275,198.8000314242,31.066266626663,646250.50893824,2489.6476250546,2531854.2045818,36.266266626663,0,0
-31.84522136526,198.82158915544,31.070697069707,646250.50893824,2489.6476250546,2531854.2045818,36.270697069707,0,0
-31.84522134777,198.84314688668,31.075127512751,646250.50893824,2489.6476250546,2531854.2045818,36.275127512751,0,0
-31.84522133028,198.86470461792,31.079557955796,646250.50893824,2489.6476250546,2531854.2045818,36.279557955796,0,0
-31.84522131279,198.88626234916,31.08398839884,646250.50893824,2489.6476250546,2531854.2045818,36.28398839884,0,0
-31.8452212953,198.9078200804,31.088418841884,646250.50893824,2489.6476250546,2531854.2045818,36.288418841884,0,0
-31.84522127781,198.92937781164,31.092849284928,646250.50893824,2489.6476250546,2531854.2045818,36.292849284928,0,0
-31.84522126032,198.95093554288,31.097279727973,646250.50893824,2489.6476250546,2531854.2045818,36.297279727973,0,0
-31.84522124283,198.97249327412,31.101710171017,646250.50893824,2489.6476250546,2531854.2045818,36.301710171017,0,0
-31.84522122534,198.99405100536,31.106140614061,646250.50893824,2489.6476250546,2531854.2045818,36.306140614061,0,0
-31.845221207849,199.0156087366,31.110571057106,646250.50893824,2489.6476250546,2531854.2045818,36.310571057106,0,0
-31.845221190359,199.03716646785,31.11500150015,646250.50893824,2489.6476250546,2531854.2045818,36.31500150015,0,0
-31.845221172869,199.05872419909,31.119431943194,646250.50893824,2489.6476250546,2531854.2045818,36.319431943194,0,0
-31.845221155379,199.08028193033,31.123862386239,646250.50893824,2489.6476250546,2531854.2045818,36.323862386239,0,0
-31.845221137889,199.10183966157,31.128292829283,646250.50893824,2489.6476250546,2531854.2045818,36.328292829283,0,0
-31.845221120399,199.12339739281,31.132723272327,646250.50893824,2489.6476250546,2531854.2045818,36.332723272327,0,0
-31.845221102909,199.14495512405,31.137153715372,646250.50893824,2489.6476250546,2531854.2045818,36.337153715372,0,0
-31.845221085419,199.16651285529,31.141584158416,646250.50893824,2489.6476250546,2531854.2045818,36.341584158416,0,0
-31.845221067929,199.18807058653,31.14601460146,646250.50893824,2489.6476250546,2531854.2045818,36.34601460146,0,0
-31.845221050439,199.20962831777,31.150445044504,646250.50893824,2489.6476250546,2531854.2045818,36.350445044504,0,0
-31.845221032949,199.23118604901,31.154875487549,646250.50893824,2489.6476250546,2531854.2045818,36.354875487549,0,0
-31.845221015459,199.25274378025,31.159305930593,646250.50893824,2489.6476250546,2531854.2045818,36.359305930593,0,0
-31.845220997969,199.27430151149,31.163736373637,646250.50893824,2489.6476250546,2531854.2045818,36.363736373637,0,0
-31.845220980479,199.29585924273,31.168166816682,646250.50893824,2489.6476250546,2531854.2045818,36.368166816682,0,0
-31.845220962989,199.31741697397,31.172597259726,646250.50893824,2489.6476250546,2531854.2045818,36.372597259726,0,0
-31.845220945499,199.33897470521,31.17702770277,646250.50893824,2489.6476250546,2531854.2045818,36.37702770277,0,0
-31.845220928008,199.36053243645,31.181458145815,646250.50893824,2489.6476250546,2531854.2045818,36.381458145815,0,0
-31.845220910518,199.38209016769,31.185888588859,646250.50893824,2489.6476250546,2531854.2045818,36.385888588859,0,0
-31.845220893028,199.40364789893,31.190319031903,646250.50893824,2489.6476250546,2531854.2045818,36.390319031903,0,0
-31.845220875538,199.42520563017,31.194749474947,646250.50893824,2489.6476250546,2531854.2045818,36.394749474947,0,0
-31.845220858048,199.44676336141,31.199179917992,646250.50893824,2489.6476250546,2531854.2045818,36.399179917992,0,0
-31.845220840558,199.46832109265,31.203610361036,646250.50893824,2489.6476250546,2531854.2045818,36.403610361036,0,0
-31.845220823068,199.48987882389,31.20804080408,646250.50893824,2489.6476250546,2531854.2045818,36.40804080408,0,0
-31.845220805578,199.51143655513,31.212471247125,646250.50893824,2489.6476250546,2531854.2045818,36.412471247125,0,0
-31.845220788088,199.53299428637,31.216901690169,646250.50893824,2489.6476250546,2531854.2045818,36.416901690169,0,0
-31.845220770598,199.55455201761,31.221332133213,646250.50893824,2489.6476250546,2531854.2045818,36.421332133213,0,0
-31.845220753108,199.57610974885,31.225762576258,646250.50893824,2489.6476250546,2531854.2045818,36.425762576258,0,0
-31.845220735618,199.59766748009,31.230193019302,646250.50893824,2489.6476250546,2531854.2045818,36.430193019302,0,0
-31.845220718128,199.61922521133,31.234623462346,646250.50893824,2489.6476250546,2531854.2045818,36.434623462346,0,0
-31.845220700638,199.64078294257,31.239053905391,646250.50893824,2489.6476250546,2531854.2045818,36.439053905391,0,0
-31.845220683148,199.66234067381,31.243484348435,646250.50893824,2489.6476250546,2531854.2045818,36.443484348435,0,0
-31.845220665658,199.68389840505,31.247914791479,646250.50893824,2489.6476250546,2531854.2045818,36.447914791479,0,0
-31.845220648167,199.70545613629,31.252345234523,646250.50893824,2489.6476250546,2531854.2045818,36.452345234523,0,0
-31.845220630677,199.72701386753,31.256775677568,646250.50893824,2489.6476250546,2531854.2045818,36.456775677568,0,0
-31.845220613187,199.74857159877,31.261206120612,646250.50893824,2489.6476250546,2531854.2045818,36.461206120612,0,0
-31.845220595697,199.77012933001,31.265636563656,646250.50893824,2489.6476250546,2531854.2045818,36.465636563656,0,0
-31.845220578207,199.79168706125,31.270067006701,646250.50893824,2489.6476250546,2531854.2045818,36.470067006701,0,0
-31.845220560717,199.81324479249,31.274497449745,646250.50893824,2489.6476250546,2531854.2045818,36.474497449745,0,0
-31.845220543227,199.83480252373,31.278927892789,646250.50893824,2489.6476250546,2531854.2045818,36.478927892789,0,0
-31.845220525737,199.85636025497,31.283358335834,646250.50893824,2489.6476250546,2531854.2045818,36.483358335834,0,0
-31.845220508247,199.87791798621,31.287788778878,646250.50893824,2489.6476250546,2531854.2045818,36.487788778878,0,0
-31.845220490757,199.89947571745,31.292219221922,646250.50893824,2489.6476250546,2531854.2045818,36.492219221922,0,0
-31.845220473327,199.92103344831,31.296649664966,643291.65464049,-458.59368611907,2526403.8801374,36.496649664966,0,0
-31.845220455928,199.94259117898,31.301080108011,643291.65464049,-458.59368611907,2526403.8801374,36.501080108011,0,0
-31.845220438529,199.96414890965,31.305510551055,643291.65464049,-458.59368611907,2526403.8801374,36.505510551055,0,0
-31.845220421131,199.98570664032,31.309940994099,643291.65464049,-458.59368611907,2526403.8801374,36.509940994099,0,0
-31.845220403732,200.00726437099,31.314371437144,643291.65464049,-458.59368611907,2526403.8801374,36.514371437144,0,0
-31.845220386333,200.02882210166,31.318801880188,643291.65464049,-458.59368611907,2526403.8801374,36.518801880188,0,0
-31.845220368934,200.05037983233,31.323232323232,643291.65464049,-458.59368611907,2526403.8801374,36.523232323232,0,0
-31.845220351535,200.071937563,31.327662766277,643291.65464049,-458.59368611907,2526403.8801374,36.527662766277,0,0
-31.845220334136,200.09349529367,31.332093209321,643291.65464049,-458.59368611907,2526403.8801374,36.532093209321,0,0
-31.845220316738,200.11505302434,31.336523652365,643291.65464049,-458.59368611907,2526403.8801374,36.536523652365,0,0
-31.845220299339,200.136610755,31.34095409541,643291.65464049,-458.59368611907,2526403.8801374,36.54095409541,0,0
-31.84522028194,200.15816848567,31.345384538454,643291.65464049,-458.59368611907,2526403.8801374,36.545384538454,0,0
-31.845220264541,200.17972621634,31.349814981498,643291.65464049,-458.59368611907,2526403.8801374,36.549814981498,0,0
-31.845220247142,200.20128394701,31.354245424542,643291.65464049,-458.59368611907,2526403.8801374,36.554245424542,0,0
-31.845220229743,200.22284167768,31.358675867587,643291.65464049,-458.59368611907,2526403.8801374,36.558675867587,0,0
-31.845220212345,200.24439940835,31.363106310631,643291.65464049,-458.59368611907,2526403.8801374,36.563106310631,0,0
-31.845220194946,200.26595713902,31.367536753675,643291.65464049,-458.59368611907,2526403.8801374,36.567536753675,0,0
-31.845220177547,200.28751486969,31.37196719672,643291.65464049,-458.59368611907,2526403.8801374,36.57196719672,0,0
-31.845220160148,200.30907260036,31.376397639764,643291.65464049,-458.59368611907,2526403.8801374,36.576397639764,0,0
-31.845220142749,200.33063033103,31.380828082808,643291.65464049,-458.59368611907,2526403.8801374,36.580828082808,0,0
-31.84522012535,200.3521880617,31.385258525853,643291.65464049,-458.59368611907,2526403.8801374,36.585258525853,0,0
-31.845220107951,200.37374579236,31.389688968897,643291.65464049,-458.59368611907,2526403.8801374,36.589688968897,0,0
-31.845220090553,200.39530352303,31.394119411941,643291.65464049,-458.59368611907,2526403.8801374,36.594119411941,0,0
-31.845220073154,200.4168612537,31.398549854986,643291.65464049,-458.59368611907,2526403.8801374,36.598549854985,0,0
-31.845220055755,200.43841898437,31.40298029803,643291.65464049,-458.59368611907,2526403.8801374,36.60298029803,0,0
-31.845220038356,200.45997671504,31.407410741074,643291.65464049,-458.59368611907,2526403.8801374,36.607410741074,0,0
-31.845220020957,200.48153444571,31.411841184118,643291.65464049,-458.59368611907,2526403.8801374,36.611841184118,0,0
-31.845220003558,200.50309217638,31.416271627163,643291.65464049,-458.59368611907,2526403.8801374,36.616271627163,0,0
-31.84521998616,200.52464990705,31.420702070207,643291.65464049,-458.59368611907,2526403.8801374,36.620702070207,0,0
-31.845219968761,200.54620763772,31.425132513251,643291.65464049,-458.59368611907,2526403.8801374,36.625132513251,0,0
-31.845219951362,200.56776536839,31.429562956296,643291.65464049,-458.59368611907,2526403.8801374,36.629562956296,0,0
-31.845219933963,200.58932309906,31.43399339934,643291.65464049,-458.59368611907,2526403.8801374,36.63399339934,0,0
-31.845219916564,200.61088082972,31.438423842384,643291.65464049,-458.59368611907,2526403.8801374,36.638423842384,0,0
-31.845219899165,200.63243856039,31.442854285429,643291.65464049,-458.59368611907,2526403.8801374,36.642854285429,0,0
-31.845219881767,200.65399629106,31.447284728473,643291.65464049,-458.59368611907,2526403.8801374,36.647284728473,0,0
-31.845219864368,200.67555402173,31.451715171517,643291.65464049,-458.59368611907,2526403.8801374,36.651715171517,0,0
-31.845219846969,200.6971117524,31.456145614561,643291.65464049,-458.59368611907,2526403.8801374,36.656145614561,0,0
-31.84521982957,200.71866948307,31.460576057606,643291.65464049,-458.59368611907,2526403.8801374,36.660576057606,0,0
-31.845219812171,200.74022721374,31.46500650065,643291.65464049,-458.59368611907,2526403.8801374,36.66500650065,0,0
-31.845219794772,200.76178494441,31.469436943694,643291.65464049,-458.59368611907,2526403.8801374,36.669436943694,0,0
-31.845219777374,200.78334267508,31.473867386739,643291.65464049,-458.59368611907,2526403.8801374,36.673867386739,0,0
-31.845219759975,200.80490040575,31.478297829783,643291.65464049,-458.59368611907,2526403.8801374,36.678297829783,0,0
-31.845219742576,200.82645813642,31.482728272827,643291.65464049,-458.59368611907,2526403.8801374,36.682728272827,0,0
-31.845219725177,200.84801586708,31.487158715872,643291.65464049,-458.59368611907,2526403.8801374,36.687158715872,0,0
-31.845219707778,200.86957359775,31.491589158916,643291.65464049,-458.59368611907,2526403.8801374,36.691589158916,0,0
-31.845219690379,200.89113132842,31.49601960196,643291.65464049,-458.59368611907,2526403.8801374,36.69601960196,0,0
-31.845219672981,200.91268905909,31.500450045005,643291.65464049,-458.59368611907,2526403.8801374,36.700450045005,0,0
-31.845219655582,200.93424678976,31.504880488049,643291.65464049,-458.59368611907,2526403.8801374,36.704880488049,0,0
-31.845219638183,200.95580452043,31.509310931093,643291.65464049,-458.59368611907,2526403.8801374,36.709310931093,0,0
-31.845219620784,200.9773622511,31.513741374137,643291.65464049,-458.59368611907,2526403.8801374,36.713741374137,0,0
-31.845219603385,200.99891998177,31.518171817182,643291.65464049,-458.59368611907,2526403.8801374,36.718171817182,0,0
-31.845219585986,201.02047771244,31.522602260226,643291.65464049,-458.59368611907,2526403.8801374,36.722602260226,0,0
-31.845219568588,201.04203544311,31.52703270327,643291.65464049,-458.59368611907,2526403.8801374,36.72703270327,0,0
-31.845219551189,201.06359317378,31.531463146315,643291.65464049,-458.59368611907,2526403.8801374,36.731463146315,0,0
-31.84521953379,201.08515090444,31.535893589359,643291.65464049,-458.59368611907,2526403.8801374,36.735893589359,0,0
-31.845219516391,201.10670863511,31.540324032403,643291.65464049,-458.59368611907,2526403.8801374,36.740324032403,0,0
-31.845219498992,201.12826636578,31.544754475448,643291.65464049,-458.59368611907,2526403.8801374,36.744754475448,0,0
-31.845219481593,201.14982409645,31.549184918492,643291.65464049,-458.59368611907,2526403.8801374,36.749184918492,0,0
-31.845219464195,201.17138182712,31.553615361536,643291.65464049,-458.59368611907,2526403.8801374,36.753615361536,0,0
-31.845219446796,201.19293955779,31.55804580458,643291.65464049,-458.59368611907,2526403.8801374,36.75804580458,0,0
-31.845219429397,201.21449728846,31.562476247625,643291.65464049,-458.59368611907,2526403.8801374,36.762476247625,0,0
-31.845219411998,201.23605501913,31.566906690669,643291.65464049,-458.59368611907,2526403.8801374,36.766906690669,0,0
-31.845219394599,201.2576127498,31.571337133713,643291.65464049,-458.59368611907,2526403.8801374,36.771337133713,0,0
-31.8452193772,201.27917048047,31.575767576758,643291.65464049,-458.59368611907,2526403.8801374,36.775767576758,0,0
-31.845219359802,201.30072821114,31.580198019802,643291.65464049,-458.59368611907,2526403.8801374,36.780198019802,0,0
-31.845219342403,201.3222859418,31.584628462846,643291.65464049,-458.59368611907,2526403.8801374,36.784628462846,0,0
-31.845219325004,201.34384367247,31.589058905891,643291.65464049,-458.59368611907,2526403.8801374,36.789058905891,0,0
-31.845219307605,201.36540140314,31.593489348935,643291.65464049,-458.59368611907,2526403.8801374,36.793489348935,0,0
-31.845219290206,201.38695913381,31.597919791979,643291.65464049,-458.59368611907,2526403.8801374,36.797919791979,0,0
-31.845219272807,201.40851686448,31.602350235024,643291.65464049,-458.59368611907,2526403.8801374,36.802350235024,0,0
-31.845219255408,201.43007459515,31.606780678068,643291.65464049,-458.59368611907,2526403.8801374,36.806780678068,0,0
-31.84521923801,201.45163232582,31.611211121112,643291.65464049,-458.59368611907,2526403.8801374,36.811211121112,0,0
-31.845219220611,201.47319005649,31.615641564156,643291.65464049,-458.59368611907,2526403.8801374,36.815641564156,0,0
-31.845219203212,201.49474778716,31.620072007201,643291.65464049,-458.59368611907,2526403.8801374,36.820072007201,0,0
-31.845219185813,201.51630551783,31.624502450245,643291.65464049,-458.59368611907,2526403.8801374,36.824502450245,0,0
-31.845219168414,201.5378632485,31.628932893289,643291.65464049,-458.59368611907,2526403.8801374,36.828932893289,0,0
-31.845219151015,201.55942097916,31.633363336334,643291.65464049,-458.59368611907,2526403.8801374,36.833363336334,0,0
-31.845219133617,201.58097870983,31.637793779378,643291.65464049,-458.59368611907,2526403.8801374,36.837793779378,0,0
-31.845219116218,201.6025364405,31.642224222422,643291.65464049,-458.59368611907,2526403.8801374,36.842224222422,0,0
-31.845219098819,201.62409417117,31.646654665467,643291.65464049,-458.59368611907,2526403.8801374,36.846654665467,0,0
-31.84521908142,201.64565190184,31.651085108511,643291.65464049,-458.59368611907,2526403.8801374,36.851085108511,0,0
-31.845219064021,201.66720963251,31.655515551555,643291.65464049,-458.59368611907,2526403.8801374,36.855515551555,0,0
-31.845219046622,201.68876736318,31.659945994599,643291.65464049,-458.59368611907,2526403.8801374,36.859945994599,0,0
-31.845219029224,201.71032509385,31.664376437644,643291.65464049,-458.59368611907,2526403.8801374,36.864376437644,0,0
-31.845219011825,201.73188282452,31.668806880688,643291.65464049,-458.59368611907,2526403.8801374,36.868806880688,0,0
-31.845218994426,201.75344055519,31.673237323732,643291.65464049,-458.59368611907,2526403.8801374,36.873237323732,0,0
-31.845218977027,201.77499828586,31.677667766777,643291.65464049,-458.59368611907,2526403.8801374,36.877667766777,0,0
-31.845218959628,201.79655601652,31.682098209821,643291.65464049,-458.59368611907,2526403.8801374,36.882098209821,0,0
-31.845218942229,201.81811374719,31.686528652865,643291.65464049,-458.59368611907,2526403.8801374,36.886528652865,0,0
-31.845218924831,201.83967147786,31.69095909591,643291.65464049,-458.59368611907,2526403.8801374,36.89095909591,0,0
-31.845218907432,201.86122920853,31.695389538954,643291.65464049,-458.59368611907,2526403.8801374,36.895389538954,0,0
-31.845218890033,201.8827869392,31.699819981998,643291.65464049,-458.59368611907,2526403.8801374,36.899819981998,0,0
-31.845218872634,201.90434466987,31.704250425043,643291.65464049,-458.59368611907,2526403.8801374,36.904250425043,0,0
-31.845218855235,201.92590240054,31.708680868087,643291.65464049,-458.59368611907,2526403.8801374,36.908680868087,0,0
-31.845218837836,201.94746013121,31.713111311131,643291.65464049,-458.59368611907,2526403.8801374,36.913111311131,0,0
-31.845218820438,201.96901786188,31.717541754175,643291.65464049,-458.59368611907,2526403.8801374,36.917541754175,0,0
-31.845218803039,201.99057559255,31.72197219722,643291.65464049,-458.59368611907,2526403.8801374,36.92197219722,0,0
-31.84521878564,202.01213332322,31.726402640264,643291.65464049,-458.59368611907,2526403.8801374,36.926402640264,0,0
-31.845218768241,202.03369105389,31.730833083308,643291.65464049,-458.59368611907,2526403.8801374,36.930833083308,0,0
-31.845218750842,202.05524878455,31.735263526353,643291.65464049,-458.59368611907,2526403.8801374,36.935263526353,0,0
-31.845218733443,202.07680651522,31.739693969397,643291.65464049,-458.59368611907,2526403.8801374,36.939693969397,0,0
-31.845218716045,202.09836424589,31.744124412441,643291.65464049,-458.59368611907,2526403.8801374,36.944124412441,0,0
-31.845218698646,202.11992197656,31.748554855486,643291.65464049,-458.59368611907,2526403.8801374,36.948554855486,0,0
-31.845218681247,202.14147970723,31.75298529853,643291.65464049,-458.59368611907,2526403.8801374,36.95298529853,0,0
-31.845218663848,202.1630374379,31.757415741574,643291.65464049,-458.59368611907,2526403.8801374,36.957415741574,0,0
-31.845218646449,202.18459516857,31.761846184618,643291.65464049,-458.59368611907,2526403.8801374,36.961846184618,0,0
-31.84521862905,202.20615289924,31.766276627663,643291.65464049,-458.59368611907,2526403.8801374,36.966276627663,0,0
-31.845218611652,202.22771062991,31.770707070707,643291.65464049,-458.59368611907,2526403.8801374,36.970707070707,0,0
-31.845218594253,202.24926836058,31.775137513751,643291.65464049,-458.59368611907,2526403.8801374,36.975137513751,0,0
-31.845218576854,202.27082609125,31.779567956796,643291.65464049,-458.59368611907,2526403.8801374,36.979567956796,0,0
-31.845218559455,202.29238382191,31.78399839984,643291.65464049,-458.59368611907,2526403.8801374,36.98399839984,0,0
-31.845218542056,202.31394155258,31.788428842884,643291.65464049,-458.59368611907,2526403.8801374,36.988428842884,0,0
-31.845218524657,202.33549928325,31.792859285929,643291.65464049,-458.59368611907,2526403.8801374,36.992859285929,0,0
-31.845218507259,202.35705701392,31.797289728973,643291.65464049,-458.59368611907,2526403.8801374,36.997289728973,0,0
-31.84521848986,202.37861474459,31.801720172017,643291.65464049,-458.59368611907,2526403.8801374,37.001720172017,0,0
-31.845218472461,202.40017247526,31.806150615062,643291.65464049,-458.59368611907,2526403.8801374,37.006150615062,0,0
-31.845218455062,202.42173020593,31.810581058106,643291.65464049,-458.59368611907,2526403.8801374,37.010581058106,0,0
-31.845218437663,202.4432879366,31.81501150115,643291.65464049,-458.59368611907,2526403.8801374,37.01501150115,0,0
-31.845218420264,202.46484566727,31.819441944194,643291.65464049,-458.59368611907,2526403.8801374,37.019441944194,0,0
-31.845218402865,202.48640339794,31.823872387239,643291.65464049,-458.59368611907,2526403.8801374,37.023872387239,0,0
-31.845218385467,202.50796112861,31.828302830283,643291.65464049,-458.59368611907,2526403.8801374,37.028302830283,0,0
-31.845218368068,202.52951885927,31.832733273327,643291.65464049,-458.59368611907,2526403.8801374,37.032733273327,0,0
-31.845218350669,202.55107658994,31.837163716372,643291.65464049,-458.59368611907,2526403.8801374,37.037163716372,0,0
-31.84521833327,202.57263432061,31.841594159416,643291.65464049,-458.59368611907,2526403.8801374,37.041594159416,0,0
-31.845218315871,202.59419205128,31.84602460246,643291.65464049,-458.59368611907,2526403.8801374,37.04602460246,0,0
-31.845218298472,202.61574978195,31.850455045505,643291.65464049,-458.59368611907,2526403.8801374,37.050455045505,0,0
-31.845218281074,202.63730751262,31.854885488549,643291.65464049,-458.59368611907,2526403.8801374,37.054885488549,0,0
-31.845218263675,202.65886524329,31.859315931593,643291.65464049,-458.59368611907,2526403.8801374,37.059315931593,0,0
-31.845218246276,202.68042297396,31.863746374637,643291.65464049,-458.59368611907,2526403.8801374,37.063746374637,0,0
-31.845218228877,202.70198070463,31.868176817682,643291.65464049,-458.59368611907,2526403.8801374,37.068176817682,0,0
-31.845218211478,202.7235384353,31.872607260726,643291.65464049,-458.59368611907,2526403.8801374,37.072607260726,0,0
-31.845218194079,202.74509616597,31.87703770377,643291.65464049,-458.59368611907,2526403.8801374,37.07703770377,0,0
-31.845218176681,202.76665389663,31.881468146815,643291.65464049,-458.59368611907,2526403.8801374,37.081468146815,0,0
-31.845218159282,202.7882116273,31.885898589859,643291.65464049,-458.59368611907,2526403.8801374,37.085898589859,0,0
-31.845218141883,202.80976935797,31.890329032903,643291.65464049,-458.59368611907,2526403.8801374,37.090329032903,0,0
-31.845218124484,202.83132708864,31.894759475948,643291.65464049,-458.59368611907,2526403.8801374,37.094759475948,0,0
-31.845218107085,202.85288481931,31.899189918992,643291.65464049,-458.59368611907,2526403.8801374,37.099189918992,0,0
-31.845218089686,202.87444254998,31.903620362036,643291.65464049,-458.59368611907,2526403.8801374,37.103620362036,0,0
-31.845218072288,202.89600028065,31.908050805081,643291.65464049,-458.59368611907,2526403.8801374,37.108050805081,0,0
-31.845218054889,202.91755801132,31.912481248125,643291.65464049,-458.59368611907,2526403.8801374,37.112481248125,0,0
-31.84521803749,202.93911574199,31.916911691169,643291.65464049,-458.59368611907,2526403.8801374,37.116911691169,0,0
-31.845218020091,202.96067347266,31.921342134213,643291.65464049,-458.59368611907,2526403.8801374,37.121342134213,0,0
-31.845218002692,202.98223120333,31.925772577258,643291.65464049,-458.59368611907,2526403.8801374,37.125772577258,0,0
-31.845217985293,203.00378893399,31.930203020302,643291.65464049,-458.59368611907,2526403.8801374,37.130203020302,0,0
-31.845217967895,203.02534666466,31.934633463346,643291.65464049,-458.59368611907,2526403.8801374,37.134633463346,0,0
-31.845217950496,203.04690439533,31.939063906391,643291.65464049,-458.59368611907,2526403.8801374,37.139063906391,0,0
-31.845217933097,203.068462126,31.943494349435,643291.65464049,-458.59368611907,2526403.8801374,37.143494349435,0,0
-31.845217915761,203.09001985702,31.947924792479,640183.12785606,2728.0330104417,2521321.6834538,37.147924792479,0,0
-31.845217898475,203.11157758831,31.952355235524,640183.12785606,2728.0330104417,2521321.6834538,37.152355235524,0,0
-31.845217881189,203.13313531959,31.956785678568,640183.12785606,2728.0330104417,2521321.6834538,37.156785678568,0,0
-31.845217863903,203.15469305088,31.961216121612,640183.12785606,2728.0330104417,2521321.6834538,37.161216121612,0,0
-31.845217846618,203.17625078217,31.965646564656,640183.12785606,2728.0330104417,2521321.6834538,37.165646564656,0,0
-31.845217829332,203.19780851346,31.970077007701,640183.12785606,2728.0330104417,2521321.6834538,37.170077007701,0,0
-31.845217812046,203.21936624475,31.974507450745,640183.12785606,2728.0330104417,2521321.6834538,37.174507450745,0,0
-31.84521779476,203.24092397604,31.978937893789,640183.12785606,2728.0330104417,2521321.6834538,37.178937893789,0,0
-31.845217777474,203.26248170733,31.983368336834,640183.12785606,2728.0330104417,2521321.6834538,37.183368336834,0,0
-31.845217760188,203.28403943862,31.987798779878,640183.12785606,2728.0330104417,2521321.6834538,37.187798779878,0,0
-31.845217742902,203.30559716991,31.992229222922,640183.12785606,2728.0330104417,2521321.6834538,37.192229222922,0,0
-31.845217725617,203.32715490119,31.996659665967,640183.12785606,2728.0330104417,2521321.6834538,37.196659665967,0,0
-31.845217708331,203.34871263248,32.001090109011,640183.12785606,2728.0330104417,2521321.6834538,37.201090109011,0,0
-31.845217691045,203.37027036377,32.005520552055,640183.12785606,2728.0330104417,2521321.6834538,37.205520552055,0,0
-31.845217673759,203.39182809506,32.0099509951,640183.12785606,2728.0330104417,2521321.6834538,37.2099509951,0,0
-31.845217656473,203.41338582635,32.014381438144,640183.12785606,2728.0330104417,2521321.6834538,37.214381438144,0,0
-31.845217639187,203.43494355764,32.018811881188,640183.12785606,2728.0330104417,2521321.6834538,37.218811881188,0,0
-31.845217621901,203.45650128893,32.023242324232,640183.12785606,2728.0330104417,2521321.6834538,37.223242324232,0,0
-31.845217604616,203.47805902022,32.027672767277,640183.12785606,2728.0330104417,2521321.6834538,37.227672767277,0,0
-31.84521758733,203.49961675151,32.032103210321,640183.12785606,2728.0330104417,2521321.6834538,37.232103210321,0,0
-31.845217570044,203.5211744828,32.036533653365,640183.12785606,2728.0330104417,2521321.6834538,37.236533653365,0,0
-31.845217552758,203.54273221408,32.04096409641,640183.12785606,2728.0330104417,2521321.6834538,37.24096409641,0,0
-31.845217535472,203.56428994537,32.045394539454,640183.12785606,2728.0330104417,2521321.6834538,37.245394539454,0,0
-31.845217518186,203.58584767666,32.049824982498,640183.12785606,2728.0330104417,2521321.6834538,37.249824982498,0,0
-31.8452175009,203.60740540795,32.054255425543,640183.12785606,2728.0330104417,2521321.6834538,37.254255425543,0,0
-31.845217483615,203.62896313924,32.058685868587,640183.12785606,2728.0330104417,2521321.6834538,37.258685868587,0,0
-31.845217466329,203.65052087053,32.063116311631,640183.12785606,2728.0330104417,2521321.6834538,37.263116311631,0,0
-31.845217449043,203.67207860182,32.067546754675,640183.12785606,2728.0330104417,2521321.6834538,37.267546754675,0,0
-31.845217431757,203.69363633311,32.07197719772,640183.12785606,2728.0330104417,2521321.6834538,37.27197719772,0,0
-31.845217414471,203.7151940644,32.076407640764,640183.12785606,2728.0330104417,2521321.6834538,37.276407640764,0,0
-31.845217397185,203.73675179568,32.080838083808,640183.12785606,2728.0330104417,2521321.6834538,37.280838083808,0,0
-31.8452173799,203.75830952697,32.085268526853,640183.12785606,2728.0330104417,2521321.6834538,37.285268526853,0,0
-31.845217362614,203.77986725826,32.089698969897,640183.12785606,2728.0330104417,2521321.6834538,37.289698969897,0,0
-31.845217345328,203.80142498955,32.094129412941,640183.12785606,2728.0330104417,2521321.6834538,37.294129412941,0,0
-31.845217328042,203.82298272084,32.098559855986,640183.12785606,2728.0330104417,2521321.6834538,37.298559855986,0,0
-31.845217310756,203.84454045213,32.10299029903,640183.12785606,2728.0330104417,2521321.6834538,37.30299029903,0,0
-31.84521729347,203.86609818342,32.107420742074,640183.12785606,2728.0330104417,2521321.6834538,37.307420742074,0,0
-31.845217276184,203.88765591471,32.111851185119,640183.12785606,2728.0330104417,2521321.6834538,37.311851185119,0,0
-31.845217258899,203.909213646,32.116281628163,640183.12785606,2728.0330104417,2521321.6834538,37.316281628163,0,0
-31.845217241613,203.93077137729,32.120712071207,640183.12785606,2728.0330104417,2521321.6834538,37.320712071207,0,0
-31.845217224327,203.95232910857,32.125142514251,640183.12785606,2728.0330104417,2521321.6834538,37.325142514251,0,0
-31.845217207041,203.97388683986,32.129572957296,640183.12785606,2728.0330104417,2521321.6834538,37.329572957296,0,0
-31.845217189755,203.99544457115,32.13400340034,640183.12785606,2728.0330104417,2521321.6834538,37.33400340034,0,0
-31.845217172469,204.01700230244,32.138433843384,640183.12785606,2728.0330104417,2521321.6834538,37.338433843384,0,0
-31.845217155183,204.03856003373,32.142864286429,640183.12785606,2728.0330104417,2521321.6834538,37.342864286429,0,0
-31.845217137898,204.06011776502,32.147294729473,640183.12785606,2728.0330104417,2521321.6834538,37.347294729473,0,0
-31.845217120612,204.08167549631,32.151725172517,640183.12785606,2728.0330104417,2521321.6834538,37.351725172517,0,0
-31.845217103326,204.1032332276,32.156155615562,640183.12785606,2728.0330104417,2521321.6834538,37.356155615562,0,0
-31.84521708604,204.12479095889,32.160586058606,640183.12785606,2728.0330104417,2521321.6834538,37.360586058606,0,0
-31.845217068754,204.14634869018,32.16501650165,640183.12785606,2728.0330104417,2521321.6834538,37.36501650165,0,0
-31.845217051468,204.16790642146,32.169446944694,640183.12785606,2728.0330104417,2521321.6834538,37.369446944694,0,0
-31.845217034182,204.18946415275,32.173877387739,640183.12785606,2728.0330104417,2521321.6834538,37.373877387739,0,0
-31.845217016897,204.21102188404,32.178307830783,640183.12785606,2728.0330104417,2521321.6834538,37.378307830783,0,0
-31.845216999611,204.23257961533,32.182738273827,640183.12785606,2728.0330104417,2521321.6834538,37.382738273827,0,0
-31.845216982325,204.25413734662,32.187168716872,640183.12785606,2728.0330104417,2521321.6834538,37.387168716872,0,0
-31.845216965039,204.27569507791,32.191599159916,640183.12785606,2728.0330104417,2521321.6834538,37.391599159916,0,0
-31.845216947753,204.2972528092,32.19602960296,640183.12785606,2728.0330104417,2521321.6834538,37.39602960296,0,0
-31.845216930467,204.31881054049,32.200460046005,640183.12785606,2728.0330104417,2521321.6834538,37.400460046005,0,0
-31.845216913181,204.34036827178,32.204890489049,640183.12785606,2728.0330104417,2521321.6834538,37.404890489049,0,0
-31.845216895896,204.36192600306,32.209320932093,640183.12785606,2728.0330104417,2521321.6834538,37.409320932093,0,0
-31.84521687861,204.38348373435,32.213751375138,640183.12785606,2728.0330104417,2521321.6834538,37.413751375138,0,0
-31.845216861324,204.40504146564,32.218181818182,640183.12785606,2728.0330104417,2521321.6834538,37.418181818182,0,0
-31.845216844038,204.42659919693,32.222612261226,640183.12785606,2728.0330104417,2521321.6834538,37.422612261226,0,0
-31.845216826752,204.44815692822,32.22704270427,640183.12785606,2728.0330104417,2521321.6834538,37.42704270427,0,0
-31.845216809466,204.46971465951,32.231473147315,640183.12785606,2728.0330104417,2521321.6834538,37.431473147315,0,0
-31.84521679218,204.4912723908,32.235903590359,640183.12785606,2728.0330104417,2521321.6834538,37.435903590359,0,0
-31.845216774895,204.51283012209,32.240334033403,640183.12785606,2728.0330104417,2521321.6834538,37.440334033403,0,0
-31.845216757609,204.53438785338,32.244764476448,640183.12785606,2728.0330104417,2521321.6834538,37.444764476448,0,0
-31.845216740323,204.55594558467,32.249194919492,640183.12785606,2728.0330104417,2521321.6834538,37.449194919492,0,0
-31.845216723037,204.57750331595,32.253625362536,640183.12785606,2728.0330104417,2521321.6834538,37.453625362536,0,0
-31.845216705751,204.59906104724,32.258055805581,640183.12785606,2728.0330104417,2521321.6834538,37.458055805581,0,0
-31.845216688465,204.62061877853,32.262486248625,640183.12785606,2728.0330104417,2521321.6834538,37.462486248625,0,0
-31.845216671179,204.64217650982,32.266916691669,640183.12785606,2728.0330104417,2521321.6834538,37.466916691669,0,0
-31.845216653894,204.66373424111,32.271347134713,640183.12785606,2728.0330104417,2521321.6834538,37.471347134713,0,0
-31.845216636608,204.6852919724,32.275777577758,640183.12785606,2728.0330104417,2521321.6834538,37.475777577758,0,0
-31.845216619322,204.70684970369,32.280208020802,640183.12785606,2728.0330104417,2521321.6834538,37.480208020802,0,0
-31.845216602036,204.72840743498,32.284638463846,640183.12785606,2728.0330104417,2521321.6834538,37.484638463846,0,0
-31.84521658475,204.74996516627,32.289068906891,640183.12785606,2728.0330104417,2521321.6834538,37.489068906891,0,0
-31.845216567464,204.77152289755,32.293499349935,640183.12785606,2728.0330104417,2521321.6834538,37.493499349935,0,0
-31.845216550178,204.79308062884,32.297929792979,640183.12785606,2728.0330104417,2521321.6834538,37.497929792979,0,0
-31.845216532893,204.81463836013,32.302360236024,640183.12785606,2728.0330104417,2521321.6834538,37.502360236024,0,0
-31.845216515607,204.83619609142,32.306790679068,640183.12785606,2728.0330104417,2521321.6834538,37.506790679068,0,0
-31.845216498321,204.85775382271,32.311221122112,640183.12785606,2728.0330104417,2521321.6834538,37.511221122112,0,0
-31.845216481035,204.879311554,32.315651565157,640183.12785606,2728.0330104417,2521321.6834538,37.515651565157,0,0
-31.845216463749,204.90086928529,32.320082008201,640183.12785606,2728.0330104417,2521321.6834538,37.520082008201,0,0
-31.845216446463,204.92242701658,32.324512451245,640183.12785606,2728.0330104417,2521321.6834538,37.524512451245,0,0
-31.845216429177,204.94398474787,32.328942894289,640183.12785606,2728.0330104417,2521321.6834538,37.528942894289,0,0
-31.845216411892,204.96554247916,32.333373337334,640183.12785606,2728.0330104417,2521321.6834538,37.533373337334,0,0
-31.845216394606,204.98710021044,32.337803780378,640183.12785606,2728.0330104417,2521321.6834538,37.537803780378,0,0
-31.84521637732,205.00865794173,32.342234223422,640183.12785606,2728.0330104417,2521321.6834538,37.542234223422,0,0
-31.845216360034,205.03021567302,32.346664666467,640183.12785606,2728.0330104417,2521321.6834538,37.546664666467,0,0
-31.845216342748,205.05177340431,32.351095109511,640183.12785606,2728.0330104417,2521321.6834538,37.551095109511,0,0
-31.845216325462,205.0733311356,32.355525552555,640183.12785606,2728.0330104417,2521321.6834538,37.555525552555,0,0
-31.845216308176,205.09488886689,32.3599559956,640183.12785606,2728.0330104417,2521321.6834538,37.5599559956,0,0
-31.845216290891,205.11644659818,32.364386438644,640183.12785606,2728.0330104417,2521321.6834538,37.564386438644,0,0
-31.845216273605,205.13800432947,32.368816881688,640183.12785606,2728.0330104417,2521321.6834538,37.568816881688,0,0
-31.845216256319,205.15956206076,32.373247324732,640183.12785606,2728.0330104417,2521321.6834538,37.573247324732,0,0
-31.845216239033,205.18111979204,32.377677767777,640183.12785606,2728.0330104417,2521321.6834538,37.577677767777,0,0
-31.845216221747,205.20267752333,32.382108210821,640183.12785606,2728.0330104417,2521321.6834538,37.582108210821,0,0
-31.845216204461,205.22423525462,32.386538653865,640183.12785606,2728.0330104417,2521321.6834538,37.586538653865,0,0
-31.845216187175,205.24579298591,32.39096909691,640183.12785606,2728.0330104417,2521321.6834538,37.59096909691,0,0
-31.84521616989,205.2673507172,32.395399539954,640183.12785606,2728.0330104417,2521321.6834538,37.595399539954,0,0
-31.845216152604,205.28890844849,32.399829982998,640183.12785606,2728.0330104417,2521321.6834538,37.599829982998,0,0
-31.845216135318,205.31046617978,32.404260426043,640183.12785606,2728.0330104417,2521321.6834538,37.604260426043,0,0
-31.845216118032,205.33202391107,32.408690869087,640183.12785606,2728.0330104417,2521321.6834538,37.608690869087,0,0
-31.845216100746,205.35358164236,32.413121312131,640183.12785606,2728.0330104417,2521321.6834538,37.613121312131,0,0
-31.84521608346,205.37513937365,32.417551755176,640183.12785606,2728.0330104417,2521321.6834538,37.617551755176,0,0
-31.845216066174,205.39669710493,32.42198219822,640183.12785606,2728.0330104417,2521321.6834538,37.62198219822,0,0
-31.845216048889,205.41825483622,32.426412641264,640183.12785606,2728.0330104417,2521321.6834538,37.626412641264,0,0
-31.845216031603,205.43981256751,32.430843084308,640183.12785606,2728.0330104417,2521321.6834538,37.630843084308,0,0
-31.845216014317,205.4613702988,32.435273527353,640183.12785606,2728.0330104417,2521321.6834538,37.635273527353,0,0
-31.845215997031,205.48292803009,32.439703970397,640183.12785606,2728.0330104417,2521321.6834538,37.639703970397,0,0
-31.845215979745,205.50448576138,32.444134413441,640183.12785606,2728.0330104417,2521321.6834538,37.644134413441,0,0
-31.845215962459,205.52604349267,32.448564856486,640183.12785606,2728.0330104417,2521321.6834538,37.648564856486,0,0
-31.845215945173,205.54760122396,32.45299529953,640183.12785606,2728.0330104417,2521321.6834538,37.65299529953,0,0
-31.845215927888,205.56915895525,32.457425742574,640183.12785606,2728.0330104417,2521321.6834538,37.657425742574,0,0
-31.845215910602,205.59071668653,32.461856185619,640183.12785606,2728.0330104417,2521321.6834538,37.661856185619,0,0
-31.845215893316,205.61227441782,32.466286628663,640183.12785606,2728.0330104417,2521321.6834538,37.666286628663,0,0
-31.84521587603,205.63383214911,32.470717071707,640183.12785606,2728.0330104417,2521321.6834538,37.670717071707,0,0
-31.845215858744,205.6553898804,32.475147514751,640183.12785606,2728.0330104417,2521321.6834538,37.675147514751,0,0
-31.845215841458,205.67694761169,32.479577957796,640183.12785606,2728.0330104417,2521321.6834538,37.679577957796,0,0
-31.845215824173,205.69850534298,32.48400840084,640183.12785606,2728.0330104417,2521321.6834538,37.68400840084,0,0
-31.845215806887,205.72006307427,32.488438843884,640183.12785606,2728.0330104417,2521321.6834538,37.688438843884,0,0
-31.845215789601,205.74162080556,32.492869286929,640183.12785606,2728.0330104417,2521321.6834538,37.692869286929,0,0
-31.845215772315,205.76317853685,32.497299729973,640183.12785606,2728.0330104417,2521321.6834538,37.697299729973,0,0
-31.845215755029,205.78473626814,32.501730173017,640183.12785606,2728.0330104417,2521321.6834538,37.701730173017,0,0
-31.845215737743,205.80629399942,32.506160616062,640183.12785606,2728.0330104417,2521321.6834538,37.706160616062,0,0
-31.845215720457,205.82785173071,32.510591059106,640183.12785606,2728.0330104417,2521321.6834538,37.710591059106,0,0
-31.845215703172,205.849409462,32.51502150215,640183.12785606,2728.0330104417,2521321.6834538,37.71502150215,0,0
-31.845215685886,205.87096719329,32.519451945195,640183.12785606,2728.0330104417,2521321.6834538,37.719451945195,0,0
-31.8452156686,205.89252492458,32.523882388239,640183.12785606,2728.0330104417,2521321.6834538,37.723882388239,0,0
-31.845215651314,205.91408265587,32.528312831283,640183.12785606,2728.0330104417,2521321.6834538,37.728312831283,0,0
-31.845215634028,205.93564038716,32.532743274327,640183.12785606,2728.0330104417,2521321.6834538,37.732743274327,0,0
-31.845215616742,205.95719811845,32.537173717372,640183.12785606,2728.0330104417,2521321.6834538,37.737173717372,0,0
-31.845215599456,205.97875584974,32.541604160416,640183.12785606,2728.0330104417,2521321.6834538,37.741604160416,0,0
-31.845215582171,206.00031358102,32.54603460346,640183.12785606,2728.0330104417,2521321.6834538,37.74603460346,0,0
-31.845215564885,206.02187131231,32.550465046505,640183.12785606,2728.0330104417,2521321.6834538,37.750465046505,0,0
-31.845215547599,206.0434290436,32.554895489549,640183.12785606,2728.0330104417,2521321.6834538,37.754895489549,0,0
-31.845215530313,206.06498677489,32.559325932593,640183.12785606,2728.0330104417,2521321.6834538,37.759325932593,0,0
-31.845215513027,206.08654450618,32.563756375638,640183.12785606,2728.0330104417,2521321.6834538,37.763756375638,0,0
-31.845215495741,206.10810223747,32.568186818682,640183.12785606,2728.0330104417,2521321.6834538,37.768186818682,0,0
-31.845215478455,206.12965996876,32.572617261726,640183.12785606,2728.0330104417,2521321.6834538,37.772617261726,0,0
-31.84521546117,206.15121770005,32.57704770477,640183.12785606,2728.0330104417,2521321.6834538,37.77704770477,0,0
-31.845215443884,206.17277543134,32.581478147815,640183.12785606,2728.0330104417,2521321.6834538,37.781478147815,0,0
-31.845215426598,206.19433316263,32.585908590859,640183.12785606,2728.0330104417,2521321.6834538,37.785908590859,0,0
-31.845215409312,206.21589089391,32.590339033903,640183.12785606,2728.0330104417,2521321.6834538,37.790339033903,0,0
-31.845215392026,206.2374486252,32.594769476948,640183.12785606,2728.0330104417,2521321.6834538,37.794769476948,0,0
-31.84521537474,206.25900635649,32.599199919992,640183.12785606,2728.0330104417,2521321.6834538,37.799199919992,0,0
-31.845215357454,206.28056408778,32.603630363036,640183.12785606,2728.0330104417,2521321.6834538,37.803630363036,0,0
-31.845215340169,206.30212181907,32.608060806081,640183.12785606,2728.0330104417,2521321.6834538,37.808060806081,0,0
-31.845215322883,206.32367955036,32.612491249125,640183.12785606,2728.0330104417,2521321.6834538,37.812491249125,0,0
-31.845215305597,206.34523728165,32.616921692169,640183.12785606,2728.0330104417,2521321.6834538,37.816921692169,0,0
-31.845215288311,206.36679501294,32.621352135214,640183.12785606,2728.0330104417,2521321.6834538,37.821352135214,0,0
-31.845215271025,206.38835274423,32.625782578258,640183.12785606,2728.0330104417,2521321.6834538,37.825782578258,0,0
-31.845215253739,206.40991047552,32.630213021302,640183.12785606,2728.0330104417,2521321.6834538,37.830213021302,0,0
-31.845215236453,206.4314682068,32.634643464346,640183.12785606,2728.0330104417,2521321.6834538,37.834643464346,0,0
-31.845215219168,206.45302593809,32.639073907391,640183.12785606,2728.0330104417,2521321.6834538,37.839073907391,0,0
-31.845215201882,206.47458366938,32.643504350435,640183.12785606,2728.0330104417,2521321.6834538,37.843504350435,0,0
-31.845215184596,206.49614140067,32.647934793479,640183.12785606,2728.0330104417,2521321.6834538,37.847934793479,0,0
-31.84521516731,206.51769913196,32.652365236524,640183.12785606,2728.0330104417,2521321.6834538,37.852365236524,0,0
-31.845215150024,206.53925686325,32.656795679568,640183.12785606,2728.0330104417,2521321.6834538,37.856795679568,0,0
-31.845215132738,206.56081459454,32.661226122612,640183.12785606,2728.0330104417,2521321.6834538,37.861226122612,0,0
-31.845215115452,206.58237232583,32.665656565657,640183.12785606,2728.0330104417,2521321.6834538,37.865656565657,0,0
-31.845215098167,206.60393005712,32.670087008701,640183.12785606,2728.0330104417,2521321.6834538,37.870087008701,0,0
-31.845215080881,206.6254877884,32.674517451745,640183.12785606,2728.0330104417,2521321.6834538,37.874517451745,0,0
-31.845215063595,206.64704551969,32.678947894789,640183.12785606,2728.0330104417,2521321.6834538,37.878947894789,0,0
-31.845215046309,206.66860325098,32.683378337834,640183.12785606,2728.0330104417,2521321.6834538,37.883378337834,0,0
-31.845215029023,206.69016098227,32.687808780878,640183.12785606,2728.0330104417,2521321.6834538,37.887808780878,0,0
-31.845215011737,206.71171871356,32.692239223922,640183.12785606,2728.0330104417,2521321.6834538,37.892239223922,0,0
-31.845214994451,206.73327644485,32.696669666967,640183.12785606,2728.0330104417,2521321.6834538,37.896669666967,0,0
-31.845214977166,206.75483417614,32.701100110011,640183.12785606,2728.0330104417,2521321.6834538,37.901100110011,0,0
-31.84521495988,206.77639190743,32.705530553055,640183.12785606,2728.0330104417,2521321.6834538,37.905530553055,0,0
-31.845214942594,206.79794963872,32.7099609961,640183.12785606,2728.0330104417,2521321.6834538,37.9099609961,0,0
-31.845214925308,206.81950737001,32.714391439144,640183.12785606,2728.0330104417,2521321.6834538,37.914391439144,0,0
-31.845214908022,206.84106510129,32.718821882188,640183.12785606,2728.0330104417,2521321.6834538,37.918821882188,0,0
-31.845214890736,206.86262283258,32.723252325233,640183.12785606,2728.0330104417,2521321.6834538,37.923252325233,0,0
-31.84521487345,206.88418056387,32.727682768277,640183.12785606,2728.0330104417,2521321.6834538,37.927682768277,0,0
-31.845214856165,206.90573829516,32.732113211321,640183.12785606,2728.0330104417,2521321.6834538,37.932113211321,0,0
-31.845214838879,206.92729602645,32.736543654365,640183.12785606,2728.0330104417,2521321.6834538,37.936543654365,0,0
-31.845214821593,206.94885375774,32.74097409741,640183.12785606,2728.0330104417,2521321.6834538,37.94097409741,0,0
-31.845214804307,206.97041148903,32.745404540454,640183.12785606,2728.0330104417,2521321.6834538,37.945404540454,0,0
-31.845214787021,206.99196922032,32.749834983498,640183.12785606,2728.0330104417,2521321.6834538,37.949834983498,0,0
-31.845214769735,207.01352695161,32.754265426543,640183.12785606,2728.0330104417,2521321.6834538,37.954265426543,0,0
-31.845214752449,207.03508468289,32.758695869587,640183.12785606,2728.0330104417,2521321.6834538,37.958695869587,0,0
-31.845214735164,207.05664241418,32.763126312631,640183.12785606,2728.0330104417,2521321.6834538,37.963126312631,0,0
-31.845214717878,207.07820014547,32.767556755676,640183.12785606,2728.0330104417,2521321.6834538,37.967556755676,0,0
-31.845214700592,207.09975787676,32.77198719872,640183.12785606,2728.0330104417,2521321.6834538,37.97198719872,0,0
-31.845214683306,207.12131560805,32.776417641764,640183.12785606,2728.0330104417,2521321.6834538,37.976417641764,0,0
-31.84521466602,207.14287333934,32.780848084808,640183.12785606,2728.0330104417,2521321.6834538,37.980848084808,0,0
-31.845214648734,207.16443107063,32.785278527853,640183.12785606,2728.0330104417,2521321.6834538,37.985278527853,0,0
-31.845214631448,207.18598880192,32.789708970897,640183.12785606,2728.0330104417,2521321.6834538,37.989708970897,0,0
-31.845214614163,207.20754653321,32.794139413941,640183.12785606,2728.0330104417,2521321.6834538,37.994139413941,0,0
-31.845214596877,207.2291042645,32.798569856986,640183.12785606,2728.0330104417,2521321.6834538,37.998569856986,0,0
-31.845214579591,207.25066199578,32.80300030003,640183.12785606,2728.0330104417,2521321.6834538,38.00300030003,0,0
-31.845214562305,207.27221972707,32.807430743074,640183.12785606,2728.0330104417,2521321.6834538,38.007430743074,0,0
-31.845214545019,207.29377745836,32.811861186119,640183.12785606,2728.0330104417,2521321.6834538,38.011861186119,0,0
-31.845214527733,207.31533518965,32.816291629163,640183.12785606,2728.0330104417,2521321.6834538,38.016291629163,0,0
-31.845214510447,207.33689292094,32.820722072207,640183.12785606,2728.0330104417,2521321.6834538,38.020722072207,0,0
-31.845214493162,207.35845065223,32.825152515252,640183.12785606,2728.0330104417,2521321.6834538,38.025152515252,0,0
-31.845214475876,207.38000838352,32.829582958296,640183.12785606,2728.0330104417,2521321.6834538,38.029582958296,0,0
-31.84521445859,207.40156611481,32.83401340134,640183.12785606,2728.0330104417,2521321.6834538,38.03401340134,0,0
-31.845214441304,207.4231238461,32.838443844384,640183.12785606,2728.0330104417,2521321.6834538,38.038443844384,0,0
-31.845214424018,207.44468157738,32.842874287429,640183.12785606,2728.0330104417,2521321.6834538,38.042874287429,0,0
-31.845214406732,207.46623930867,32.847304730473,640183.12785606,2728.0330104417,2521321.6834538,38.047304730473,0,0
-31.845214389447,207.48779703996,32.851735173517,640183.12785606,2728.0330104417,2521321.6834538,38.051735173517,0,0
-31.845214372161,207.50935477125,32.856165616562,640183.12785606,2728.0330104417,2521321.6834538,38.056165616562,0,0
-31.845214354875,207.53091250254,32.860596059606,640183.12785606,2728.0330104417,2521321.6834538,38.060596059606,0,0
-31.845214337589,207.55247023383,32.86502650265,640183.12785606,2728.0330104417,2521321.6834538,38.06502650265,0,0
-31.845214320303,207.57402796512,32.869456945695,640183.12785606,2728.0330104417,2521321.6834538,38.069456945695,0,0
-31.845214303017,207.59558569641,32.873887388739,640183.12785606,2728.0330104417,2521321.6834538,38.073887388739,0,0
-31.845214285731,207.6171434277,32.878317831783,640183.12785606,2728.0330104417,2521321.6834538,38.078317831783,0,0
-31.845214268446,207.63870115899,32.882748274827,640183.12785606,2728.0330104417,2521321.6834538,38.082748274827,0,0
-31.84521425116,207.66025889027,32.887178717872,640183.12785606,2728.0330104417,2521321.6834538,38.087178717872,0,0
-31.845214233874,207.68181662156,32.891609160916,640183.12785606,2728.0330104417,2521321.6834538,38.091609160916,0,0
-31.845214216588,207.70337435285,32.89603960396,640183.12785606,2728.0330104417,2521321.6834538,38.09603960396,0,0
-31.845214199302,207.72493208414,32.900470047005,640183.12785606,2728.0330104417,2521321.6834538,38.100470047005,0,0
-31.845214182016,207.74648981543,32.904900490049,640183.12785606,2728.0330104417,2521321.6834538,38.104900490049,0,0
-31.84521416473,207.76804754672,32.909330933093,640183.12785606,2728.0330104417,2521321.6834538,38.109330933093,0,0
-31.845214147445,207.78960527801,32.913761376138,640183.12785606,2728.0330104417,2521321.6834538,38.113761376138,0,0
-31.845214130159,207.8111630093,32.918191819182,640183.12785606,2728.0330104417,2521321.6834538,38.118191819182,0,0
-31.845214112873,207.83272074059,32.922622262226,640183.12785606,2728.0330104417,2521321.6834538,38.122622262226,0,0
-31.845214095587,207.85427847187,32.927052705271,640183.12785606,2728.0330104417,2521321.6834538,38.127052705271,0,0
-31.845214078301,207.87583620316,32.931483148315,640183.12785606,2728.0330104417,2521321.6834538,38.131483148315,0,0
-31.845214061015,207.89739393445,32.935913591359,640183.12785606,2728.0330104417,2521321.6834538,38.135913591359,0,0
-31.845214043729,207.91895166574,32.940344034403,640183.12785606,2728.0330104417,2521321.6834538,38.140344034403,0,0
-31.845214026444,207.94050939703,32.944774477448,640183.12785606,2728.0330104417,2521321.6834538,38.144774477448,0,0
-31.845214009158,207.96206712832,32.949204920492,640183.12785606,2728.0330104417,2521321.6834538,38.149204920492,0,0
-31.845213991872,207.98362485961,32.953635363536,640183.12785606,2728.0330104417,2521321.6834538,38.153635363536,0,0
-31.845213974586,208.0051825909,32.958065806581,640183.12785606,2728.0330104417,2521321.6834538,38.158065806581,0,0
-31.8452139573,208.02674032219,32.962496249625,640183.12785606,2728.0330104417,2521321.6834538,38.162496249625,0,0
-31.845213940014,208.04829805348,32.966926692669,640183.12785606,2728.0330104417,2521321.6834538,38.166926692669,0,0
-31.845213922728,208.06985578476,32.971357135714,640183.12785606,2728.0330104417,2521321.6834538,38.171357135714,0,0
-31.845213905443,208.09141351605,32.975787578758,640183.12785606,2728.0330104417,2521321.6834538,38.175787578758,0,0
-31.845213888157,208.11297124734,32.980218021802,640183.12785606,2728.0330104417,2521321.6834538,38.180218021802,0,0
-31.845213870871,208.13452897863,32.984648464846,640183.12785606,2728.0330104417,2521321.6834538,38.184648464846,0,0
-31.845213853585,208.15608670992,32.989078907891,640183.12785606,2728.0330104417,2521321.6834538,38.189078907891,0,0
-31.845213836299,208.17764444121,32.993509350935,640183.12785606,2728.0330104417,2521321.6834538,38.193509350935,0,0
-31.845213819013,208.1992021725,32.997939793979,640183.12785606,2728.0330104417,2521321.6834538,38.197939793979,0,0
-31.845213801727,208.22075990379,33.002370237024,640183.12785606,2728.0330104417,2521321.6834538,38.202370237024,0,0
-31.845213784442,208.24231763508,33.006800680068,640183.12785606,2728.0330104417,2521321.6834538,38.206800680068,0,0
-31.845213767156,208.26387536636,33.011231123112,640183.12785606,2728.0330104417,2521321.6834538,38.211231123112,0,0
-31.84521374987,208.28543309765,33.015661566157,640183.12785606,2728.0330104417,2521321.6834538,38.215661566157,0,0
-31.845213732584,208.30699082894,33.020092009201,640183.12785606,2728.0330104417,2521321.6834538,38.220092009201,0,0
-31.845213715298,208.32854856023,33.024522452245,640183.12785606,2728.0330104417,2521321.6834538,38.224522452245,0,0
-31.845213698012,208.35010629152,33.02895289529,640183.12785606,2728.0330104417,2521321.6834538,38.22895289529,0,0
-31.845213680726,208.37166402281,33.033383338334,640183.12785606,2728.0330104417,2521321.6834538,38.233383338334,0,0
-31.845213663441,208.3932217541,33.037813781378,640183.12785606,2728.0330104417,2521321.6834538,38.237813781378,0,0
-31.845213646155,208.41477948539,33.042244224422,640183.12785606,2728.0330104417,2521321.6834538,38.242244224422,0,0
-31.845213628869,208.43633721668,33.046674667467,640183.12785606,2728.0330104417,2521321.6834538,38.246674667467,0,0
-31.845213611583,208.45789494797,33.051105110511,640183.12785606,2728.0330104417,2521321.6834538,38.251105110511,0,0
-31.845213594297,208.47945267925,33.055535553555,640183.12785606,2728.0330104417,2521321.6834538,38.255535553555,0,0
-31.845213577011,208.50101041054,33.0599659966,640183.12785606,2728.0330104417,2521321.6834538,38.2599659966,0,0
-31.845213559725,208.52256814183,33.064396439644,640183.12785606,2728.0330104417,2521321.6834538,38.264396439644,0,0
-31.84521354244,208.54412587312,33.068826882688,640183.12785606,2728.0330104417,2521321.6834538,38.268826882688,0,0
-31.845213525154,208.56568360441,33.073257325733,640183.12785606,2728.0330104417,2521321.6834538,38.273257325733,0,0
-31.845213507868,208.5872413357,33.077687768777,640183.12785606,2728.0330104417,2521321.6834538,38.277687768777,0,0
-31.845213490582,208.60879906699,33.082118211821,640183.12785606,2728.0330104417,2521321.6834538,38.282118211821,0,0
-31.845213473296,208.63035679828,33.086548654865,640183.12785606,2728.0330104417,2521321.6834538,38.286548654865,0,0
-31.84521345601,208.65191452957,33.09097909791,640183.12785606,2728.0330104417,2521321.6834538,38.29097909791,0,0
-31.845213438724,208.67347226086,33.095409540954,640183.12785606,2728.0330104417,2521321.6834538,38.295409540954,0,0
-31.845213421439,208.69502999214,33.099839983998,640183.12785606,2728.0330104417,2521321.6834538,38.299839983998,0,0
-31.845213404153,208.71658772343,33.104270427043,640183.12785606,2728.0330104417,2521321.6834538,38.304270427043,0,0
-31.845213386867,208.73814545472,33.108700870087,640183.12785606,2728.0330104417,2521321.6834538,38.308700870087,0,0
-31.845213369581,208.75970318601,33.113131313131,640183.12785606,2728.0330104417,2521321.6834538,38.313131313131,0,0
-31.845213352295,208.7812609173,33.117561756176,640183.12785606,2728.0330104417,2521321.6834538,38.317561756176,0,0
-31.845213335009,208.80281864859,33.12199219922,640183.12785606,2728.0330104417,2521321.6834538,38.32199219922,0,0
-31.845213317723,208.82437637988,33.126422642264,640183.12785606,2728.0330104417,2521321.6834538,38.326422642264,0,0
-31.845213300438,208.84593411117,33.130853085309,640183.12785606,2728.0330104417,2521321.6834538,38.330853085309,0,0
-31.845213283152,208.86749184246,33.135283528353,640183.12785606,2728.0330104417,2521321.6834538,38.335283528353,0,0
-31.845213265866,208.88904957374,33.139713971397,640183.12785606,2728.0330104417,2521321.6834538,38.339713971397,0,0
-31.84521324858,208.91060730503,33.144144414441,640183.12785606,2728.0330104417,2521321.6834538,38.344144414441,0,0
-31.845213231294,208.93216503632,33.148574857486,640183.12785606,2728.0330104417,2521321.6834538,38.348574857486,0,0
-31.845213214008,208.95372276761,33.15300530053,640183.12785606,2728.0330104417,2521321.6834538,38.35300530053,0,0
-31.845213196722,208.9752804989,33.157435743574,640183.12785606,2728.0330104417,2521321.6834538,38.357435743574,0,0
-31.845213179437,208.99683823019,33.161866186619,640183.12785606,2728.0330104417,2521321.6834538,38.361866186619,0,0
-31.845213162151,209.01839596148,33.166296629663,640183.12785606,2728.0330104417,2521321.6834538,38.366296629663,0,0
-31.845213144865,209.03995369277,33.170727072707,640183.12785606,2728.0330104417,2521321.6834538,38.370727072707,0,0
-31.845213127579,209.06151142406,33.175157515752,640183.12785606,2728.0330104417,2521321.6834538,38.375157515752,0,0
-31.845213110293,209.08306915535,33.179587958796,640183.12785606,2728.0330104417,2521321.6834538,38.379587958796,0,0
-31.845213093007,209.10462688663,33.18401840184,640183.12785606,2728.0330104417,2521321.6834538,38.38401840184,0,0
-31.845213075721,209.12618461792,33.188448844884,640183.12785606,2728.0330104417,2521321.6834538,38.388448844884,0,0
-31.845213058436,209.14774234921,33.192879287929,640183.12785606,2728.0330104417,2521321.6834538,38.392879287929,0,0
-31.84521304115,209.1693000805,33.197309730973,640183.12785606,2728.0330104417,2521321.6834538,38.397309730973,0,0
-31.845213023864,209.19085781179,33.201740174017,640183.12785606,2728.0330104417,2521321.6834538,38.401740174017,0,0
-31.845213006578,209.21241554308,33.206170617062,640183.12785606,2728.0330104417,2521321.6834538,38.406170617062,0,0
-31.845212989292,209.23397327437,33.210601060106,640183.12785606,2728.0330104417,2521321.6834538,38.410601060106,0,0
-31.845212972006,209.25553100566,33.21503150315,640183.12785606,2728.0330104417,2521321.6834538,38.41503150315,0,0
-31.845212954721,209.27708873695,33.219461946195,640183.12785606,2728.0330104417,2521321.6834538,38.419461946195,0,0
-31.845212937435,209.29864646823,33.223892389239,640183.12785606,2728.0330104417,2521321.6834538,38.423892389239,0,0
-31.845212920149,209.32020419952,33.228322832283,640183.12785606,2728.0330104417,2521321.6834538,38.428322832283,0,0
-31.845212902863,209.34176193081,33.232753275328,640183.12785606,2728.0330104417,2521321.6834538,38.432753275328,0,0
-31.845212885577,209.3633196621,33.237183718372,640183.12785606,2728.0330104417,2521321.6834538,38.437183718372,0,0
-31.845212868291,209.38487739339,33.241614161416,640183.12785606,2728.0330104417,2521321.6834538,38.441614161416,0,0
-31.845212851005,209.40643512468,33.24604460446,640183.12785606,2728.0330104417,2521321.6834538,38.44604460446,0,0
-31.84521283372,209.42799285597,33.250475047505,640183.12785606,2728.0330104417,2521321.6834538,38.450475047505,0,0
-31.845212816434,209.44955058726,33.254905490549,640183.12785606,2728.0330104417,2521321.6834538,38.454905490549,0,0
-31.845212799148,209.47110831855,33.259335933593,640183.12785606,2728.0330104417,2521321.6834538,38.459335933593,0,0
-31.845212781862,209.49266604984,33.263766376638,640183.12785606,2728.0330104417,2521321.6834538,38.463766376638,0,0
-31.845212764576,209.51422378112,33.268196819682,640183.12785606,2728.0330104417,2521321.6834538,38.468196819682,0,0
-31.84521274729,209.53578151241,33.272627262726,640183.12785606,2728.0330104417,2521321.6834538,38.472627262726,0,0
-31.845212730004,209.5573392437,33.277057705771,640183.12785606,2728.0330104417,2521321.6834538,38.477057705771,0,0
-31.845212712719,209.57889697499,33.281488148815,640183.12785606,2728.0330104417,2521321.6834538,38.481488148815,0,0
-31.845212695433,209.60045470628,33.285918591859,640183.12785606,2728.0330104417,2521321.6834538,38.485918591859,0,0
-31.845212678147,209.62201243757,33.290349034903,640183.12785606,2728.0330104417,2521321.6834538,38.490349034903,0,0
-31.845212660861,209.64357016886,33.294779477948,640183.12785606,2728.0330104417,2521321.6834538,38.494779477948,0,0
-31.845212643575,209.66512790015,33.299209920992,640183.12785606,2728.0330104417,2521321.6834538,38.499209920992,0,0
-31.845212626289,209.68668563144,33.303640364036,640183.12785606,2728.0330104417,2521321.6834538,38.503640364036,0,0
-31.845212609003,209.70824336272,33.308070807081,640183.12785606,2728.0330104417,2521321.6834538,38.508070807081,0,0
-31.845212591718,209.72980109401,33.312501250125,640183.12785606,2728.0330104417,2521321.6834538,38.512501250125,0,0
-31.845212574432,209.7513588253,33.316931693169,640183.12785606,2728.0330104417,2521321.6834538,38.516931693169,0,0
-31.845212557146,209.77291655659,33.321362136214,640183.12785606,2728.0330104417,2521321.6834538,38.521362136214,0,0
-31.84521253986,209.79447428788,33.325792579258,640183.12785606,2728.0330104417,2521321.6834538,38.525792579258,0,0
-31.845212522574,209.81603201917,33.330223022302,640183.12785606,2728.0330104417,2521321.6834538,38.530223022302,0,0
-31.845212505288,209.83758975046,33.334653465347,640183.12785606,2728.0330104417,2521321.6834538,38.534653465347,0,0
-31.845212488002,209.85914748175,33.339083908391,640183.12785606,2728.0330104417,2521321.6834538,38.539083908391,0,0
-31.845212470717,209.88070521304,33.343514351435,640183.12785606,2728.0330104417,2521321.6834538,38.543514351435,0,0
-31.845212453431,209.90226294433,33.347944794479,640183.12785606,2728.0330104417,2521321.6834538,38.547944794479,0,0
-31.845212436145,209.92382067561,33.352375237524,640183.12785606,2728.0330104417,2521321.6834538,38.552375237524,0,0
-31.845212418859,209.9453784069,33.356805680568,640183.12785606,2728.0330104417,2521321.6834538,38.556805680568,0,0
-31.845212401573,209.96693613819,33.361236123612,640183.12785606,2728.0330104417,2521321.6834538,38.561236123612,0,0
-31.845212384287,209.98849386948,33.365666566657,640183.12785606,2728.0330104417,2521321.6834538,38.565666566657,0,0
-31.845212367001,210.01005160077,33.370097009701,640183.12785606,2728.0330104417,2521321.6834538,38.570097009701,0,0
-31.845212349716,210.03160933206,33.374527452745,640183.12785606,2728.0330104417,2521321.6834538,38.574527452745,0,0
-31.84521233243,210.05316706335,33.37895789579,640183.12785606,2728.0330104417,2521321.6834538,38.57895789579,0,0
-31.845212315144,210.07472479464,33.383388338834,640183.12785606,2728.0330104417,2521321.6834538,38.583388338834,0,0
-31.845212297858,210.09628252593,33.387818781878,640183.12785606,2728.0330104417,2521321.6834538,38.587818781878,0,0
-31.845212280572,210.11784025721,33.392249224922,640183.12785606,2728.0330104417,2521321.6834538,38.592249224922,0,0
-31.845212263286,210.1393979885,33.396679667967,640183.12785606,2728.0330104417,2521321.6834538,38.596679667967,0,0
-31.845212246,210.16095571979,33.401110111011,640183.12785606,2728.0330104417,2521321.6834538,38.601110111011,0,0
-31.845212228715,210.18251345108,33.405540554055,640183.12785606,2728.0330104417,2521321.6834538,38.605540554055,0,0
-31.845212211429,210.20407118237,33.4099709971,640183.12785606,2728.0330104417,2521321.6834538,38.6099709971,0,0
-31.845212194143,210.22562891366,33.414401440144,640183.12785606,2728.0330104417,2521321.6834538,38.614401440144,0,0
-31.845212176857,210.24718664495,33.418831883188,640183.12785606,2728.0330104417,2521321.6834538,38.618831883188,0,0
-31.845212159571,210.26874437624,33.423262326233,640183.12785606,2728.0330104417,2521321.6834538,38.623262326233,0,0
-31.845212142285,210.29030210753,33.427692769277,640183.12785606,2728.0330104417,2521321.6834538,38.627692769277,0,0
-31.845212124999,210.31185983882,33.432123212321,640183.12785606,2728.0330104417,2521321.6834538,38.632123212321,0,0
-31.845212107714,210.3334175701,33.436553655366,640183.12785606,2728.0330104417,2521321.6834538,38.636553655366,0,0
-31.845212090428,210.35497530139,33.44098409841,640183.12785606,2728.0330104417,2521321.6834538,38.64098409841,0,0
-31.845212073142,210.37653303268,33.445414541454,640183.12785606,2728.0330104417,2521321.6834538,38.645414541454,0,0
-31.845212055856,210.39809076397,33.449844984498,640183.12785606,2728.0330104417,2521321.6834538,38.649844984498,0,0
-31.84521203857,210.41964849526,33.454275427543,640183.12785606,2728.0330104417,2521321.6834538,38.654275427543,0,0
-31.845212021284,210.44120622655,33.458705870587,640183.12785606,2728.0330104417,2521321.6834538,38.658705870587,0,0
-31.845212003998,210.46276395784,33.463136313631,640183.12785606,2728.0330104417,2521321.6834538,38.663136313631,0,0
-31.845211986713,210.48432168913,33.467566756676,640183.12785606,2728.0330104417,2521321.6834538,38.667566756676,0,0
-31.845211969427,210.50587942042,33.47199719972,640183.12785606,2728.0330104417,2521321.6834538,38.67199719972,0,0
-31.845211952141,210.5274371517,33.476427642764,640183.12785606,2728.0330104417,2521321.6834538,38.676427642764,0,0
-31.845211934855,210.54899488299,33.480858085809,640183.12785606,2728.0330104417,2521321.6834538,38.680858085809,0,0
-31.845211917569,210.57055261428,33.485288528853,640183.12785606,2728.0330104417,2521321.6834538,38.685288528853,0,0
-31.845211900283,210.59211034557,33.489718971897,640183.12785606,2728.0330104417,2521321.6834538,38.689718971897,0,0
-31.845211882997,210.61366807686,33.494149414941,640183.12785606,2728.0330104417,2521321.6834538,38.694149414941,0,0
-31.845211865712,210.63522580815,33.498579857986,640183.12785606,2728.0330104417,2521321.6834538,38.698579857986,0,0
-31.845211848426,210.65678353944,33.50301030103,640183.12785606,2728.0330104417,2521321.6834538,38.70301030103,0,0
-31.84521183114,210.67834127073,33.507440744074,640183.12785606,2728.0330104417,2521321.6834538,38.707440744074,0,0
-31.845211813854,210.69989900202,33.511871187119,640183.12785606,2728.0330104417,2521321.6834538,38.711871187119,0,0
-31.845211796568,210.72145673331,33.516301630163,640183.12785606,2728.0330104417,2521321.6834538,38.716301630163,0,0
-31.845211779282,210.74301446459,33.520732073207,640183.12785606,2728.0330104417,2521321.6834538,38.720732073207,0,0
-31.845211761996,210.76457219588,33.525162516252,640183.12785606,2728.0330104417,2521321.6834538,38.725162516252,0,0
-31.845211744711,210.78612992717,33.529592959296,640183.12785606,2728.0330104417,2521321.6834538,38.729592959296,0,0
-31.845211727425,210.80768765846,33.53402340234,640183.12785606,2728.0330104417,2521321.6834538,38.73402340234,0,0
-31.845211710139,210.82924538975,33.538453845385,640183.12785606,2728.0330104417,2521321.6834538,38.738453845385,0,0
-31.845211692853,210.85080312104,33.542884288429,640183.12785606,2728.0330104417,2521321.6834538,38.742884288429,0,0
-31.845211675567,210.87236085233,33.547314731473,640183.12785606,2728.0330104417,2521321.6834538,38.747314731473,0,0
-31.845211658281,210.89391858362,33.551745174517,640183.12785606,2728.0330104417,2521321.6834538,38.751745174517,0,0
-31.845211640995,210.91547631491,33.556175617562,640183.12785606,2728.0330104417,2521321.6834538,38.756175617562,0,0
-31.84521162371,210.9370340462,33.560606060606,640183.12785606,2728.0330104417,2521321.6834538,38.760606060606,0,0
-31.845211606424,210.95859177748,33.56503650365,640183.12785606,2728.0330104417,2521321.6834538,38.76503650365,0,0
-31.845211589138,210.98014950877,33.569466946695,640183.12785606,2728.0330104417,2521321.6834538,38.769466946695,0,0
-31.845211571852,211.00170724006,33.573897389739,640183.12785606,2728.0330104417,2521321.6834538,38.773897389739,0,0
-31.845211554566,211.02326497135,33.578327832783,640183.12785606,2728.0330104417,2521321.6834538,38.778327832783,0,0
-31.84521153728,211.04482270264,33.582758275828,640183.12785606,2728.0330104417,2521321.6834538,38.782758275828,0,0
-31.845211519995,211.06638043393,33.587188718872,640183.12785606,2728.0330104417,2521321.6834538,38.787188718872,0,0
-31.845211502709,211.08793816522,33.591619161916,640183.12785606,2728.0330104417,2521321.6834538,38.791619161916,0,0
-31.845211485423,211.10949589651,33.59604960496,640183.12785606,2728.0330104417,2521321.6834538,38.79604960496,0,0
-31.845211468137,211.1310536278,33.600480048005,640183.12785606,2728.0330104417,2521321.6834538,38.800480048005,0,0
-31.845211450851,211.15261135908,33.604910491049,640183.12785606,2728.0330104417,2521321.6834538,38.804910491049,0,0
-31.845211433565,211.17416909037,33.609340934093,640183.12785606,2728.0330104417,2521321.6834538,38.809340934093,0,0
-31.845211416279,211.19572682166,33.613771377138,640183.12785606,2728.0330104417,2521321.6834538,38.813771377138,0,0
-31.845211398994,211.21728455295,33.618201820182,640183.12785606,2728.0330104417,2521321.6834538,38.818201820182,0,0
-31.845211381708,211.23884228424,33.622632263226,640183.12785606,2728.0330104417,2521321.6834538,38.822632263226,0,0
-31.845211364422,211.26040001553,33.627062706271,640183.12785606,2728.0330104417,2521321.6834538,38.827062706271,0,0
-31.845211347136,211.28195774682,33.631493149315,640183.12785606,2728.0330104417,2521321.6834538,38.831493149315,0,0
-31.84521132985,211.30351547811,33.635923592359,640183.12785606,2728.0330104417,2521321.6834538,38.835923592359,0,0
-31.845211312564,211.3250732094,33.640354035404,640183.12785606,2728.0330104417,2521321.6834538,38.840354035404,0,0
-31.845211295278,211.34663094069,33.644784478448,640183.12785606,2728.0330104417,2521321.6834538,38.844784478448,0,0
-31.845211277993,211.36818867197,33.649214921492,640183.12785606,2728.0330104417,2521321.6834538,38.849214921492,0,0
-31.845211260707,211.38974640326,33.653645364536,640183.12785606,2728.0330104417,2521321.6834538,38.853645364536,0,0
-31.845211243421,211.41130413455,33.658075807581,640183.12785606,2728.0330104417,2521321.6834538,38.858075807581,0,0
-31.845211226135,211.43286186584,33.662506250625,640183.12785606,2728.0330104417,2521321.6834538,38.862506250625,0,0
-31.845211208849,211.45441959713,33.666936693669,640183.12785606,2728.0330104417,2521321.6834538,38.866936693669,0,0
-31.845211191561,211.47597732832,33.671367136714,638364.36350112,-397.65258151199,2515148.967149,38.871367136714,0,0
-31.845211174256,211.49753505893,33.675797579758,638364.36350112,-397.65258151199,2515148.967149,38.875797579758,0,0
-31.845211156951,211.51909278954,33.680228022802,638364.36350112,-397.65258151199,2515148.967149,38.880228022802,0,0
-31.845211139646,211.54065052015,33.684658465847,638364.36350112,-397.65258151199,2515148.967149,38.884658465847,0,0
-31.845211122341,211.56220825077,33.689088908891,638364.36350112,-397.65258151199,2515148.967149,38.889088908891,0,0
-31.845211105036,211.58376598138,33.693519351935,638364.36350112,-397.65258151199,2515148.967149,38.893519351935,0,0
-31.845211087731,211.60532371199,33.697949794979,638364.36350112,-397.65258151199,2515148.967149,38.897949794979,0,0
-31.845211070426,211.6268814426,33.702380238024,638364.36350112,-397.65258151199,2515148.967149,38.902380238024,0,0
-31.845211053121,211.64843917321,33.706810681068,638364.36350112,-397.65258151199,2515148.967149,38.906810681068,0,0
-31.845211035816,211.66999690382,33.711241124112,638364.36350112,-397.65258151199,2515148.967149,38.911241124112,0,0
-31.845211018511,211.69155463443,33.715671567157,638364.36350112,-397.65258151199,2515148.967149,38.915671567157,0,0
-31.845211001206,211.71311236504,33.720102010201,638364.36350112,-397.65258151199,2515148.967149,38.920102010201,0,0
-31.845210983901,211.73467009565,33.724532453245,638364.36350112,-397.65258151199,2515148.967149,38.924532453245,0,0
-31.845210966596,211.75622782626,33.72896289629,638364.36350112,-397.65258151199,2515148.967149,38.92896289629,0,0
-31.845210949292,211.77778555687,33.733393339334,638364.36350112,-397.65258151199,2515148.967149,38.933393339334,0,0
-31.845210931987,211.79934328748,33.737823782378,638364.36350112,-397.65258151199,2515148.967149,38.937823782378,0,0
-31.845210914682,211.82090101809,33.742254225423,638364.36350112,-397.65258151199,2515148.967149,38.942254225423,0,0
-31.845210897377,211.8424587487,33.746684668467,638364.36350112,-397.65258151199,2515148.967149,38.946684668467,0,0
-31.845210880072,211.86401647931,33.751115111511,638364.36350112,-397.65258151199,2515148.967149,38.951115111511,0,0
-31.845210862767,211.88557420993,33.755545554555,638364.36350112,-397.65258151199,2515148.967149,38.955545554555,0,0
-31.845210845462,211.90713194054,33.7599759976,638364.36350112,-397.65258151199,2515148.967149,38.9599759976,0,0
-31.845210828157,211.92868967115,33.764406440644,638364.36350112,-397.65258151199,2515148.967149,38.964406440644,0,0
-31.845210810852,211.95024740176,33.768836883688,638364.36350112,-397.65258151199,2515148.967149,38.968836883688,0,0
-31.845210793547,211.97180513237,33.773267326733,638364.36350112,-397.65258151199,2515148.967149,38.973267326733,0,0
-31.845210776242,211.99336286298,33.777697769777,638364.36350112,-397.65258151199,2515148.967149,38.977697769777,0,0
-31.845210758937,212.01492059359,33.782128212821,638364.36350112,-397.65258151199,2515148.967149,38.982128212821,0,0
-31.845210741632,212.0364783242,33.786558655866,638364.36350112,-397.65258151199,2515148.967149,38.986558655866,0,0
-31.845210724327,212.05803605481,33.79098909891,638364.36350112,-397.65258151199,2515148.967149,38.99098909891,0,0
-31.845210707022,212.07959378542,33.795419541954,638364.36350112,-397.65258151199,2515148.967149,38.995419541954,0,0
-31.845210689718,212.10115151603,33.799849984998,638364.36350112,-397.65258151199,2515148.967149,38.999849984998,0,0
-31.845210672413,212.12270924664,33.804280428043,638364.36350112,-397.65258151199,2515148.967149,39.004280428043,0,0
-31.845210655108,212.14426697725,33.808710871087,638364.36350112,-397.65258151199,2515148.967149,39.008710871087,0,0
-31.845210637803,212.16582470786,33.813141314131,638364.36350112,-397.65258151199,2515148.967149,39.013141314131,0,0
-31.845210620498,212.18738243847,33.817571757176,638364.36350112,-397.65258151199,2515148.967149,39.017571757176,0,0
-31.845210603193,212.20894016909,33.82200220022,638364.36350112,-397.65258151199,2515148.967149,39.02200220022,0,0
-31.845210585888,212.2304978997,33.826432643264,638364.36350112,-397.65258151199,2515148.967149,39.026432643264,0,0
-31.845210568583,212.25205563031,33.830863086309,638364.36350112,-397.65258151199,2515148.967149,39.030863086309,0,0
-31.845210551278,212.27361336092,33.835293529353,638364.36350112,-397.65258151199,2515148.967149,39.035293529353,0,0
-31.845210533973,212.29517109153,33.839723972397,638364.36350112,-397.65258151199,2515148.967149,39.039723972397,0,0
-31.845210516668,212.31672882214,33.844154415442,638364.36350112,-397.65258151199,2515148.967149,39.044154415442,0,0
-31.845210499363,212.33828655275,33.848584858486,638364.36350112,-397.65258151199,2515148.967149,39.048584858486,0,0
-31.845210482058,212.35984428336,33.85301530153,638364.36350112,-397.65258151199,2515148.967149,39.05301530153,0,0
-31.845210464753,212.38140201397,33.857445744574,638364.36350112,-397.65258151199,2515148.967149,39.057445744574,0,0
-31.845210447449,212.40295974458,33.861876187619,638364.36350112,-397.65258151199,2515148.967149,39.061876187619,0,0
-31.845210430144,212.42451747519,33.866306630663,638364.36350112,-397.65258151199,2515148.967149,39.066306630663,0,0
-31.845210412839,212.4460752058,33.870737073707,638364.36350112,-397.65258151199,2515148.967149,39.070737073707,0,0
-31.845210395534,212.46763293641,33.875167516752,638364.36350112,-397.65258151199,2515148.967149,39.075167516752,0,0
-31.845210378229,212.48919066702,33.879597959796,638364.36350112,-397.65258151199,2515148.967149,39.079597959796,0,0
-31.845210360924,212.51074839763,33.88402840284,638364.36350112,-397.65258151199,2515148.967149,39.08402840284,0,0
-31.845210343619,212.53230612825,33.888458845885,638364.36350112,-397.65258151199,2515148.967149,39.088458845885,0,0
-31.845210326314,212.55386385886,33.892889288929,638364.36350112,-397.65258151199,2515148.967149,39.092889288929,0,0
-31.845210309009,212.57542158947,33.897319731973,638364.36350112,-397.65258151199,2515148.967149,39.097319731973,0,0
-31.845210291704,212.59697932008,33.901750175017,638364.36350112,-397.65258151199,2515148.967149,39.101750175018,0,0
-31.845210274399,212.61853705069,33.906180618062,638364.36350112,-397.65258151199,2515148.967149,39.106180618062,0,0
-31.845210257094,212.6400947813,33.910611061106,638364.36350112,-397.65258151199,2515148.967149,39.110611061106,0,0
-31.845210239789,212.66165251191,33.91504150415,638364.36350112,-397.65258151199,2515148.967149,39.11504150415,0,0
-31.845210222484,212.68321024252,33.919471947195,638364.36350112,-397.65258151199,2515148.967149,39.119471947195,0,0
-31.84521020518,212.70476797313,33.923902390239,638364.36350112,-397.65258151199,2515148.967149,39.123902390239,0,0
-31.845210187875,212.72632570374,33.928332833283,638364.36350112,-397.65258151199,2515148.967149,39.128332833283,0,0
-31.84521017057,212.74788343435,33.932763276328,638364.36350112,-397.65258151199,2515148.967149,39.132763276328,0,0
-31.845210153265,212.76944116496,33.937193719372,638364.36350112,-397.65258151199,2515148.967149,39.137193719372,0,0
-31.84521013596,212.79099889557,33.941624162416,638364.36350112,-397.65258151199,2515148.967149,39.141624162416,0,0
-31.845210118655,212.81255662618,33.946054605461,638364.36350112,-397.65258151199,2515148.967149,39.146054605461,0,0
-31.84521010135,212.83411435679,33.950485048505,638364.36350112,-397.65258151199,2515148.967149,39.150485048505,0,0
-31.845210084045,212.85567208741,33.954915491549,638364.36350112,-397.65258151199,2515148.967149,39.154915491549,0,0
-31.84521006674,212.87722981802,33.959345934593,638364.36350112,-397.65258151199,2515148.967149,39.159345934593,0,0
-31.845210049435,212.89878754863,33.963776377638,638364.36350112,-397.65258151199,2515148.967149,39.163776377638,0,0
-31.84521003213,212.92034527924,33.968206820682,638364.36350112,-397.65258151199,2515148.967149,39.168206820682,0,0
-31.845210014825,212.94190300985,33.972637263726,638364.36350112,-397.65258151199,2515148.967149,39.172637263726,0,0
-31.84520999752,212.96346074046,33.977067706771,638364.36350112,-397.65258151199,2515148.967149,39.177067706771,0,0
-31.845209980215,212.98501847107,33.981498149815,638364.36350112,-397.65258151199,2515148.967149,39.181498149815,0,0
-31.84520996291,213.00657620168,33.985928592859,638364.36350112,-397.65258151199,2515148.967149,39.185928592859,0,0
-31.845209945606,213.02813393229,33.990359035904,638364.36350112,-397.65258151199,2515148.967149,39.190359035904,0,0
-31.845209928301,213.0496916629,33.994789478948,638364.36350112,-397.65258151199,2515148.967149,39.194789478948,0,0
-31.845209910996,213.07124939351,33.999219921992,638364.36350112,-397.65258151199,2515148.967149,39.199219921992,0,0
-31.845209893691,213.09280712412,34.003650365036,638364.36350112,-397.65258151199,2515148.967149,39.203650365037,0,0
-31.845209876386,213.11436485473,34.008080808081,638364.36350112,-397.65258151199,2515148.967149,39.208080808081,0,0
-31.845209859081,213.13592258534,34.012511251125,638364.36350112,-397.65258151199,2515148.967149,39.212511251125,0,0
-31.845209841776,213.15748031596,34.016941694169,638364.36350112,-397.65258151199,2515148.967149,39.216941694169,0,0
-31.845209824471,213.17903804657,34.021372137214,638364.36350112,-397.65258151199,2515148.967149,39.221372137214,0,0
-31.845209807166,213.20059577718,34.025802580258,638364.36350112,-397.65258151199,2515148.967149,39.225802580258,0,0
-31.845209789861,213.22215350779,34.030233023302,638364.36350112,-397.65258151199,2515148.967149,39.230233023302,0,0
-31.845209772556,213.2437112384,34.034663466347,638364.36350112,-397.65258151199,2515148.967149,39.234663466347,0,0
-31.845209755251,213.26526896901,34.039093909391,638364.36350112,-397.65258151199,2515148.967149,39.239093909391,0,0
-31.845209737946,213.28682669962,34.043524352435,638364.36350112,-397.65258151199,2515148.967149,39.243524352435,0,0
-31.845209720641,213.30838443023,34.04795479548,638364.36350112,-397.65258151199,2515148.967149,39.24795479548,0,0
-31.845209703337,213.32994216084,34.052385238524,638364.36350112,-397.65258151199,2515148.967149,39.252385238524,0,0
-31.845209686032,213.35149989145,34.056815681568,638364.36350112,-397.65258151199,2515148.967149,39.256815681568,0,0
-31.845209668727,213.37305762206,34.061246124612,638364.36350112,-397.65258151199,2515148.967149,39.261246124612,0,0
-31.845209651422,213.39461535267,34.065676567657,638364.36350112,-397.65258151199,2515148.967149,39.265676567657,0,0
-31.845209634117,213.41617308328,34.070107010701,638364.36350112,-397.65258151199,2515148.967149,39.270107010701,0,0
-31.845209616812,213.43773081389,34.074537453745,638364.36350112,-397.65258151199,2515148.967149,39.274537453745,0,0
-31.845209599507,213.4592885445,34.07896789679,638364.36350112,-397.65258151199,2515148.967149,39.27896789679,0,0
-31.845209582202,213.48084627512,34.083398339834,638364.36350112,-397.65258151199,2515148.967149,39.283398339834,0,0
-31.845209564897,213.50240400573,34.087828782878,638364.36350112,-397.65258151199,2515148.967149,39.287828782878,0,0
-31.845209547592,213.52396173634,34.092259225923,638364.36350112,-397.65258151199,2515148.967149,39.292259225923,0,0
-31.845209530287,213.54551946695,34.096689668967,638364.36350112,-397.65258151199,2515148.967149,39.296689668967,0,0
-31.845209512982,213.56707719756,34.101120112011,638364.36350112,-397.65258151199,2515148.967149,39.301120112011,0,0
-31.845209495677,213.58863492817,34.105550555056,638364.36350112,-397.65258151199,2515148.967149,39.305550555056,0,0
-31.845209478372,213.61019265878,34.1099809981,638364.36350112,-397.65258151199,2515148.967149,39.3099809981,0,0
-31.845209461068,213.63175038939,34.114411441144,638364.36350112,-397.65258151199,2515148.967149,39.314411441144,0,0
-31.845209443763,213.65330812,34.118841884188,638364.36350112,-397.65258151199,2515148.967149,39.318841884188,0,0
-31.845209426458,213.67486585061,34.123272327233,638364.36350112,-397.65258151199,2515148.967149,39.323272327233,0,0
-31.845209409153,213.69642358122,34.127702770277,638364.36350112,-397.65258151199,2515148.967149,39.327702770277,0,0
-31.845209391848,213.71798131183,34.132133213321,638364.36350112,-397.65258151199,2515148.967149,39.332133213321,0,0
-31.845209374543,213.73953904244,34.136563656366,638364.36350112,-397.65258151199,2515148.967149,39.336563656366,0,0
-31.845209357238,213.76109677305,34.14099409941,638364.36350112,-397.65258151199,2515148.967149,39.34099409941,0,0
-31.845209339933,213.78265450366,34.145424542454,638364.36350112,-397.65258151199,2515148.967149,39.345424542454,0,0
-31.845209322628,213.80421223428,34.149854985499,638364.36350112,-397.65258151199,2515148.967149,39.349854985499,0,0
-31.845209305323,213.82576996489,34.154285428543,638364.36350112,-397.65258151199,2515148.967149,39.354285428543,0,0
-31.845209288018,213.8473276955,34.158715871587,638364.36350112,-397.65258151199,2515148.967149,39.358715871587,0,0
-31.845209270713,213.86888542611,34.163146314631,638364.36350112,-397.65258151199,2515148.967149,39.363146314631,0,0
-31.845209253408,213.89044315672,34.167576757676,638364.36350112,-397.65258151199,2515148.967149,39.367576757676,0,0
-31.845209236103,213.91200088733,34.17200720072,638364.36350112,-397.65258151199,2515148.967149,39.37200720072,0,0
-31.845209218798,213.93355861794,34.176437643764,638364.36350112,-397.65258151199,2515148.967149,39.376437643764,0,0
-31.845209201494,213.95511634855,34.180868086809,638364.36350112,-397.65258151199,2515148.967149,39.380868086809,0,0
-31.845209184189,213.97667407916,34.185298529853,638364.36350112,-397.65258151199,2515148.967149,39.385298529853,0,0
-31.845209166884,213.99823180977,34.189728972897,638364.36350112,-397.65258151199,2515148.967149,39.389728972897,0,0
-31.845209149579,214.01978954038,34.194159415942,638364.36350112,-397.65258151199,2515148.967149,39.394159415942,0,0
-31.845209132274,214.04134727099,34.198589858986,638364.36350112,-397.65258151199,2515148.967149,39.398589858986,0,0
-31.845209114969,214.0629050016,34.20302030203,638364.36350112,-397.65258151199,2515148.967149,39.40302030203,0,0
-31.845209097664,214.08446273221,34.207450745075,638364.36350112,-397.65258151199,2515148.967149,39.407450745075,0,0
-31.845209080359,214.10602046282,34.211881188119,638364.36350112,-397.65258151199,2515148.967149,39.411881188119,0,0
-31.845209063054,214.12757819344,34.216311631163,638364.36350112,-397.65258151199,2515148.967149,39.416311631163,0,0
-31.845209045749,214.14913592405,34.220742074207,638364.36350112,-397.65258151199,2515148.967149,39.420742074207,0,0
-31.845209028444,214.17069365466,34.225172517252,638364.36350112,-397.65258151199,2515148.967149,39.425172517252,0,0
-31.845209011139,214.19225138527,34.229602960296,638364.36350112,-397.65258151199,2515148.967149,39.429602960296,0,0
-31.845208993834,214.21380911588,34.23403340334,638364.36350112,-397.65258151199,2515148.967149,39.43403340334,0,0
-31.845208976529,214.23536684649,34.238463846385,638364.36350112,-397.65258151199,2515148.967149,39.438463846385,0,0
-31.845208959225,214.2569245771,34.242894289429,638364.36350112,-397.65258151199,2515148.967149,39.442894289429,0,0
-31.84520894192,214.27848230771,34.247324732473,638364.36350112,-397.65258151199,2515148.967149,39.447324732473,0,0
-31.845208924615,214.30004003832,34.251755175518,638364.36350112,-397.65258151199,2515148.967149,39.451755175518,0,0
-31.845208907341,214.3215977691,34.256185618562,635346.72941273,2799.5064829155,2510281.9403821,39.456185618562,0,0
-31.845208890147,214.34315550034,34.260616061606,635346.72941273,2799.5064829155,2510281.9403821,39.460616061606,0,0
-31.845208872954,214.36471323158,34.26504650465,635346.72941273,2799.5064829155,2510281.9403821,39.46504650465,0,0
-31.84520885576,214.38627096281,34.269476947695,635346.72941273,2799.5064829155,2510281.9403821,39.469476947695,0,0
-31.845208838567,214.40782869405,34.273907390739,635346.72941273,2799.5064829155,2510281.9403821,39.473907390739,0,0
-31.845208821373,214.42938642529,34.278337833783,635346.72941273,2799.5064829155,2510281.9403821,39.478337833783,0,0
-31.84520880418,214.45094415652,34.282768276828,635346.72941273,2799.5064829155,2510281.9403821,39.482768276828,0,0
-31.845208786986,214.47250188776,34.287198719872,635346.72941273,2799.5064829155,2510281.9403821,39.487198719872,0,0
-31.845208769793,214.494059619,34.291629162916,635346.72941273,2799.5064829155,2510281.9403821,39.491629162916,0,0
-31.845208752599,214.51561735024,34.296059605961,635346.72941273,2799.5064829155,2510281.9403821,39.496059605961,0,0
-31.845208735406,214.53717508147,34.300490049005,635346.72941273,2799.5064829155,2510281.9403821,39.500490049005,0,0
-31.845208718212,214.55873281271,34.304920492049,635346.72941273,2799.5064829155,2510281.9403821,39.504920492049,0,0
-31.845208701019,214.58029054395,34.309350935094,635346.72941273,2799.5064829155,2510281.9403821,39.509350935094,0,0
-31.845208683825,214.60184827518,34.313781378138,635346.72941273,2799.5064829155,2510281.9403821,39.513781378138,0,0
-31.845208666632,214.62340600642,34.318211821182,635346.72941273,2799.5064829155,2510281.9403821,39.518211821182,0,0
-31.845208649438,214.64496373766,34.322642264226,635346.72941273,2799.5064829155,2510281.9403821,39.522642264226,0,0
-31.845208632245,214.66652146889,34.327072707271,635346.72941273,2799.5064829155,2510281.9403821,39.527072707271,0,0
-31.845208615051,214.68807920013,34.331503150315,635346.72941273,2799.5064829155,2510281.9403821,39.531503150315,0,0
-31.845208597858,214.70963693137,34.335933593359,635346.72941273,2799.5064829155,2510281.9403821,39.535933593359,0,0
-31.845208580664,214.7311946626,34.340364036404,635346.72941273,2799.5064829155,2510281.9403821,39.540364036404,0,0
-31.845208563471,214.75275239384,34.344794479448,635346.72941273,2799.5064829155,2510281.9403821,39.544794479448,0,0
-31.845208546277,214.77431012508,34.349224922492,635346.72941273,2799.5064829155,2510281.9403821,39.549224922492,0,0
-31.845208529084,214.79586785631,34.353655365537,635346.72941273,2799.5064829155,2510281.9403821,39.553655365537,0,0
-31.84520851189,214.81742558755,34.358085808581,635346.72941273,2799.5064829155,2510281.9403821,39.558085808581,0,0
-31.845208494697,214.83898331879,34.362516251625,635346.72941273,2799.5064829155,2510281.9403821,39.562516251625,0,0
-31.845208477504,214.86054105002,34.366946694669,635346.72941273,2799.5064829155,2510281.9403821,39.566946694669,0,0
-31.84520846031,214.88209878126,34.371377137714,635346.72941273,2799.5064829155,2510281.9403821,39.571377137714,0,0
-31.845208443117,214.9036565125,34.375807580758,635346.72941273,2799.5064829155,2510281.9403821,39.575807580758,0,0
-31.845208425923,214.92521424373,34.380238023802,635346.72941273,2799.5064829155,2510281.9403821,39.580238023802,0,0
-31.84520840873,214.94677197497,34.384668466847,635346.72941273,2799.5064829155,2510281.9403821,39.584668466847,0,0
-31.845208391536,214.96832970621,34.389098909891,635346.72941273,2799.5064829155,2510281.9403821,39.589098909891,0,0
-31.845208374343,214.98988743744,34.393529352935,635346.72941273,2799.5064829155,2510281.9403821,39.593529352935,0,0
-31.845208357149,215.01144516868,34.39795979598,635346.72941273,2799.5064829155,2510281.9403821,39.59795979598,0,0
-31.845208339956,215.03300289992,34.402390239024,635346.72941273,2799.5064829155,2510281.9403821,39.602390239024,0,0
-31.845208322762,215.05456063115,34.406820682068,635346.72941273,2799.5064829155,2510281.9403821,39.606820682068,0,0
-31.845208305569,215.07611836239,34.411251125113,635346.72941273,2799.5064829155,2510281.9403821,39.611251125113,0,0
-31.845208288375,215.09767609363,34.415681568157,635346.72941273,2799.5064829155,2510281.9403821,39.615681568157,0,0
-31.845208271182,215.11923382486,34.420112011201,635346.72941273,2799.5064829155,2510281.9403821,39.620112011201,0,0
-31.845208253988,215.1407915561,34.424542454245,635346.72941273,2799.5064829155,2510281.9403821,39.624542454245,0,0
-31.845208236795,215.16234928734,34.42897289729,635346.72941273,2799.5064829155,2510281.9403821,39.62897289729,0,0
-31.845208219601,215.18390701858,34.433403340334,635346.72941273,2799.5064829155,2510281.9403821,39.633403340334,0,0
-31.845208202408,215.20546474981,34.437833783378,635346.72941273,2799.5064829155,2510281.9403821,39.637833783378,0,0
-31.845208185214,215.22702248105,34.442264226423,635346.72941273,2799.5064829155,2510281.9403821,39.642264226423,0,0
-31.845208168021,215.24858021229,34.446694669467,635346.72941273,2799.5064829155,2510281.9403821,39.646694669467,0,0
-31.845208150827,215.27013794352,34.451125112511,635346.72941273,2799.5064829155,2510281.9403821,39.651125112511,0,0
-31.845208133634,215.29169567476,34.455555555556,635346.72941273,2799.5064829155,2510281.9403821,39.655555555556,0,0
-31.84520811644,215.313253406,34.4599859986,635346.72941273,2799.5064829155,2510281.9403821,39.6599859986,0,0
-31.845208099247,215.33481113723,34.464416441644,635346.72941273,2799.5064829155,2510281.9403821,39.664416441644,0,0
-31.845208082053,215.35636886847,34.468846884688,635346.72941273,2799.5064829155,2510281.9403821,39.668846884688,0,0
-31.84520806486,215.37792659971,34.473277327733,635346.72941273,2799.5064829155,2510281.9403821,39.673277327733,0,0
-31.845208047666,215.39948433094,34.477707770777,635346.72941273,2799.5064829155,2510281.9403821,39.677707770777,0,0
-31.845208030473,215.42104206218,34.482138213821,635346.72941273,2799.5064829155,2510281.9403821,39.682138213821,0,0
-31.84520801328,215.44259979342,34.486568656866,635346.72941273,2799.5064829155,2510281.9403821,39.686568656866,0,0
-31.845207996086,215.46415752465,34.49099909991,635346.72941273,2799.5064829155,2510281.9403821,39.69099909991,0,0
-31.845207978893,215.48571525589,34.495429542954,635346.72941273,2799.5064829155,2510281.9403821,39.695429542954,0,0
-31.845207961699,215.50727298713,34.499859985999,635346.72941273,2799.5064829155,2510281.9403821,39.699859985999,0,0
-31.845207944506,215.52883071836,34.504290429043,635346.72941273,2799.5064829155,2510281.9403821,39.704290429043,0,0
-31.845207927312,215.5503884496,34.508720872087,635346.72941273,2799.5064829155,2510281.9403821,39.708720872087,0,0
-31.845207910119,215.57194618084,34.513151315132,635346.72941273,2799.5064829155,2510281.9403821,39.713151315132,0,0
-31.845207892925,215.59350391207,34.517581758176,635346.72941273,2799.5064829155,2510281.9403821,39.717581758176,0,0
-31.845207875732,215.61506164331,34.52201220122,635346.72941273,2799.5064829155,2510281.9403821,39.72201220122,0,0
-31.845207858538,215.63661937455,34.526442644264,635346.72941273,2799.5064829155,2510281.9403821,39.726442644264,0,0
-31.845207841345,215.65817710578,34.530873087309,635346.72941273,2799.5064829155,2510281.9403821,39.730873087309,0,0
-31.845207824151,215.67973483702,34.535303530353,635346.72941273,2799.5064829155,2510281.9403821,39.735303530353,0,0
-31.845207806958,215.70129256826,34.539733973397,635346.72941273,2799.5064829155,2510281.9403821,39.739733973397,0,0
-31.845207789764,215.72285029949,34.544164416442,635346.72941273,2799.5064829155,2510281.9403821,39.744164416442,0,0
-31.845207772571,215.74440803073,34.548594859486,635346.72941273,2799.5064829155,2510281.9403821,39.748594859486,0,0
-31.845207755377,215.76596576197,34.55302530253,635346.72941273,2799.5064829155,2510281.9403821,39.75302530253,0,0
-31.845207738184,215.7875234932,34.557455745575,635346.72941273,2799.5064829155,2510281.9403821,39.757455745575,0,0
-31.84520772099,215.80908122444,34.561886188619,635346.72941273,2799.5064829155,2510281.9403821,39.761886188619,0,0
-31.845207703797,215.83063895568,34.566316631663,635346.72941273,2799.5064829155,2510281.9403821,39.766316631663,0,0
-31.845207686603,215.85219668692,34.570747074707,635346.72941273,2799.5064829155,2510281.9403821,39.770747074707,0,0
-31.84520766941,215.87375441815,34.575177517752,635346.72941273,2799.5064829155,2510281.9403821,39.775177517752,0,0
-31.845207652216,215.89531214939,34.579607960796,635346.72941273,2799.5064829155,2510281.9403821,39.779607960796,0,0
-31.845207635023,215.91686988063,34.58403840384,635346.72941273,2799.5064829155,2510281.9403821,39.78403840384,0,0
-31.845207617829,215.93842761186,34.588468846885,635346.72941273,2799.5064829155,2510281.9403821,39.788468846885,0,0
-31.845207600636,215.9599853431,34.592899289929,635346.72941273,2799.5064829155,2510281.9403821,39.792899289929,0,0
-31.845207583443,215.98154307434,34.597329732973,635346.72941273,2799.5064829155,2510281.9403821,39.797329732973,0,0
-31.845207566249,216.00310080557,34.601760176018,635346.72941273,2799.5064829155,2510281.9403821,39.801760176018,0,0
-31.845207549056,216.02465853681,34.606190619062,635346.72941273,2799.5064829155,2510281.9403821,39.806190619062,0,0
-31.845207531862,216.04621626805,34.610621062106,635346.72941273,2799.5064829155,2510281.9403821,39.810621062106,0,0
-31.845207514669,216.06777399928,34.615051505151,635346.72941273,2799.5064829155,2510281.9403821,39.815051505151,0,0
-31.845207497475,216.08933173052,34.619481948195,635346.72941273,2799.5064829155,2510281.9403821,39.819481948195,0,0
-31.845207480282,216.11088946176,34.623912391239,635346.72941273,2799.5064829155,2510281.9403821,39.823912391239,0,0
-31.845207463088,216.13244719299,34.628342834283,635346.72941273,2799.5064829155,2510281.9403821,39.828342834283,0,0
-31.845207445895,216.15400492423,34.632773277328,635346.72941273,2799.5064829155,2510281.9403821,39.832773277328,0,0
-31.845207428701,216.17556265547,34.637203720372,635346.72941273,2799.5064829155,2510281.9403821,39.837203720372,0,0
-31.845207411508,216.1971203867,34.641634163416,635346.72941273,2799.5064829155,2510281.9403821,39.841634163416,0,0
-31.845207394314,216.21867811794,34.646064606461,635346.72941273,2799.5064829155,2510281.9403821,39.846064606461,0,0
-31.845207377121,216.24023584918,34.650495049505,635346.72941273,2799.5064829155,2510281.9403821,39.850495049505,0,0
-31.845207359927,216.26179358041,34.654925492549,635346.72941273,2799.5064829155,2510281.9403821,39.854925492549,0,0
-31.845207342734,216.28335131165,34.659355935594,635346.72941273,2799.5064829155,2510281.9403821,39.859355935594,0,0
-31.84520732554,216.30490904289,34.663786378638,635346.72941273,2799.5064829155,2510281.9403821,39.863786378638,0,0
-31.845207308347,216.32646677412,34.668216821682,635346.72941273,2799.5064829155,2510281.9403821,39.868216821682,0,0
-31.845207291153,216.34802450536,34.672647264726,635346.72941273,2799.5064829155,2510281.9403821,39.872647264726,0,0
-31.84520727396,216.3695822366,34.677077707771,635346.72941273,2799.5064829155,2510281.9403821,39.877077707771,0,0
-31.845207256766,216.39113996783,34.681508150815,635346.72941273,2799.5064829155,2510281.9403821,39.881508150815,0,0
-31.845207239573,216.41269769907,34.685938593859,635346.72941273,2799.5064829155,2510281.9403821,39.885938593859,0,0
-31.845207222379,216.43425543031,34.690369036904,635346.72941273,2799.5064829155,2510281.9403821,39.890369036904,0,0
-31.845207205186,216.45581316154,34.694799479948,635346.72941273,2799.5064829155,2510281.9403821,39.894799479948,0,0
-31.845207187992,216.47737089278,34.699229922992,635346.72941273,2799.5064829155,2510281.9403821,39.899229922992,0,0
-31.845207170799,216.49892862402,34.703660366037,635346.72941273,2799.5064829155,2510281.9403821,39.903660366037,0,0
-31.845207153606,216.52048635526,34.708090809081,635346.72941273,2799.5064829155,2510281.9403821,39.908090809081,0,0
-31.845207136412,216.54204408649,34.712521252125,635346.72941273,2799.5064829155,2510281.9403821,39.912521252125,0,0
-31.845207119219,216.56360181773,34.71695169517,635346.72941273,2799.5064829155,2510281.9403821,39.91695169517,0,0
-31.845207102025,216.58515954897,34.721382138214,635346.72941273,2799.5064829155,2510281.9403821,39.921382138214,0,0
-31.845207084832,216.6067172802,34.725812581258,635346.72941273,2799.5064829155,2510281.9403821,39.925812581258,0,0
-31.845207067638,216.62827501144,34.730243024302,635346.72941273,2799.5064829155,2510281.9403821,39.930243024302,0,0
-31.845207050445,216.64983274268,34.734673467347,635346.72941273,2799.5064829155,2510281.9403821,39.934673467347,0,0
-31.845207033251,216.67139047391,34.739103910391,635346.72941273,2799.5064829155,2510281.9403821,39.939103910391,0,0
-31.845207016058,216.69294820515,34.743534353435,635346.72941273,2799.5064829155,2510281.9403821,39.943534353435,0,0
-31.845206998864,216.71450593639,34.74796479648,635346.72941273,2799.5064829155,2510281.9403821,39.94796479648,0,0
-31.845206981671,216.73606366762,34.752395239524,635346.72941273,2799.5064829155,2510281.9403821,39.952395239524,0,0
-31.845206964477,216.75762139886,34.756825682568,635346.72941273,2799.5064829155,2510281.9403821,39.956825682568,0,0
-31.845206947284,216.7791791301,34.761256125613,635346.72941273,2799.5064829155,2510281.9403821,39.961256125613,0,0
-31.84520693009,216.80073686133,34.765686568657,635346.72941273,2799.5064829155,2510281.9403821,39.965686568657,0,0
-31.845206912897,216.82229459257,34.770117011701,635346.72941273,2799.5064829155,2510281.9403821,39.970117011701,0,0
-31.845206895703,216.84385232381,34.774547454745,635346.72941273,2799.5064829155,2510281.9403821,39.974547454745,0,0
-31.84520687851,216.86541005504,34.77897789779,635346.72941273,2799.5064829155,2510281.9403821,39.97897789779,0,0
-31.845206861316,216.88696778628,34.783408340834,635346.72941273,2799.5064829155,2510281.9403821,39.983408340834,0,0
-31.845206844123,216.90852551752,34.787838783878,635346.72941273,2799.5064829155,2510281.9403821,39.987838783878,0,0
-31.845206826929,216.93008324875,34.792269226923,635346.72941273,2799.5064829155,2510281.9403821,39.992269226923,0,0
-31.845206809736,216.95164097999,34.796699669967,635346.72941273,2799.5064829155,2510281.9403821,39.996699669967,0,0
-31.845206792542,216.97319871123,34.801130113011,635346.72941273,2799.5064829155,2510281.9403821,40.001130113011,0,0
-31.845206775349,216.99475644246,34.805560556056,635346.72941273,2799.5064829155,2510281.9403821,40.005560556056,0,0
-31.845206758155,217.0163141737,34.8099909991,635346.72941273,2799.5064829155,2510281.9403821,40.0099909991,0,0
-31.845206740962,217.03787190494,34.814421442144,635346.72941273,2799.5064829155,2510281.9403821,40.014421442144,0,0
-31.845206723769,217.05942963617,34.818851885189,635346.72941273,2799.5064829155,2510281.9403821,40.018851885189,0,0
-31.845206706575,217.08098736741,34.823282328233,635346.72941273,2799.5064829155,2510281.9403821,40.023282328233,0,0
-31.845206689382,217.10254509865,34.827712771277,635346.72941273,2799.5064829155,2510281.9403821,40.027712771277,0,0
-31.845206672188,217.12410282988,34.832143214321,635346.72941273,2799.5064829155,2510281.9403821,40.032143214321,0,0
-31.845206654995,217.14566056112,34.836573657366,635346.72941273,2799.5064829155,2510281.9403821,40.036573657366,0,0
-31.845206637801,217.16721829236,34.84100410041,635346.72941273,2799.5064829155,2510281.9403821,40.04100410041,0,0
-31.845206620608,217.1887760236,34.845434543454,635346.72941273,2799.5064829155,2510281.9403821,40.045434543454,0,0
-31.845206603414,217.21033375483,34.849864986499,635346.72941273,2799.5064829155,2510281.9403821,40.049864986499,0,0
-31.845206586221,217.23189148607,34.854295429543,635346.72941273,2799.5064829155,2510281.9403821,40.054295429543,0,0
-31.845206569027,217.25344921731,34.858725872587,635346.72941273,2799.5064829155,2510281.9403821,40.058725872587,0,0
-31.845206551834,217.27500694854,34.863156315632,635346.72941273,2799.5064829155,2510281.9403821,40.063156315632,0,0
-31.84520653464,217.29656467978,34.867586758676,635346.72941273,2799.5064829155,2510281.9403821,40.067586758676,0,0
-31.845206517447,217.31812241102,34.87201720172,635346.72941273,2799.5064829155,2510281.9403821,40.07201720172,0,0
-31.845206500253,217.33968014225,34.876447644764,635346.72941273,2799.5064829155,2510281.9403821,40.076447644764,0,0
-31.84520648306,217.36123787349,34.880878087809,635346.72941273,2799.5064829155,2510281.9403821,40.080878087809,0,0
-31.845206465866,217.38279560473,34.885308530853,635346.72941273,2799.5064829155,2510281.9403821,40.085308530853,0,0
-31.845206448673,217.40435333596,34.889738973897,635346.72941273,2799.5064829155,2510281.9403821,40.089738973897,0,0
-31.845206431479,217.4259110672,34.894169416942,635346.72941273,2799.5064829155,2510281.9403821,40.094169416942,0,0
-31.845206414286,217.44746879844,34.898599859986,635346.72941273,2799.5064829155,2510281.9403821,40.098599859986,0,0
-31.845206397092,217.46902652967,34.90303030303,635346.72941273,2799.5064829155,2510281.9403821,40.10303030303,0,0
-31.845206379899,217.49058426091,34.907460746075,635346.72941273,2799.5064829155,2510281.9403821,40.107460746075,0,0
-31.845206362705,217.51214199215,34.911891189119,635346.72941273,2799.5064829155,2510281.9403821,40.111891189119,0,0
-31.845206345512,217.53369972338,34.916321632163,635346.72941273,2799.5064829155,2510281.9403821,40.116321632163,0,0
-31.845206328318,217.55525745462,34.920752075208,635346.72941273,2799.5064829155,2510281.9403821,40.120752075208,0,0
-31.845206311125,217.57681518586,34.925182518252,635346.72941273,2799.5064829155,2510281.9403821,40.125182518252,0,0
-31.845206293931,217.59837291709,34.929612961296,635346.72941273,2799.5064829155,2510281.9403821,40.129612961296,0,0
-31.845206276738,217.61993064833,34.93404340434,635346.72941273,2799.5064829155,2510281.9403821,40.13404340434,0,0
-31.845206259545,217.64148837957,34.938473847385,635346.72941273,2799.5064829155,2510281.9403821,40.138473847385,0,0
-31.845206242351,217.6630461108,34.942904290429,635346.72941273,2799.5064829155,2510281.9403821,40.142904290429,0,0
-31.845206225158,217.68460384204,34.947334733473,635346.72941273,2799.5064829155,2510281.9403821,40.147334733473,0,0
-31.845206207964,217.70616157328,34.951765176518,635346.72941273,2799.5064829155,2510281.9403821,40.151765176518,0,0
-31.845206190771,217.72771930451,34.956195619562,635346.72941273,2799.5064829155,2510281.9403821,40.156195619562,0,0
-31.845206173577,217.74927703575,34.960626062606,635346.72941273,2799.5064829155,2510281.9403821,40.160626062606,0,0
-31.845206156384,217.77083476699,34.965056505651,635346.72941273,2799.5064829155,2510281.9403821,40.165056505651,0,0
-31.84520613919,217.79239249822,34.969486948695,635346.72941273,2799.5064829155,2510281.9403821,40.169486948695,0,0
-31.845206121997,217.81395022946,34.973917391739,635346.72941273,2799.5064829155,2510281.9403821,40.173917391739,0,0
-31.845206104803,217.8355079607,34.978347834783,635346.72941273,2799.5064829155,2510281.9403821,40.178347834783,0,0
-31.84520608761,217.85706569194,34.982778277828,635346.72941273,2799.5064829155,2510281.9403821,40.182778277828,0,0
-31.845206070416,217.87862342317,34.987208720872,635346.72941273,2799.5064829155,2510281.9403821,40.187208720872,0,0
-31.845206053223,217.90018115441,34.991639163916,635346.72941273,2799.5064829155,2510281.9403821,40.191639163916,0,0
-31.845206036029,217.92173888565,34.996069606961,635346.72941273,2799.5064829155,2510281.9403821,40.196069606961,0,0
-31.845206018836,217.94329661688,35.000500050005,635346.72941273,2799.5064829155,2510281.9403821,40.200500050005,0,0
-31.845206001642,217.96485434812,35.004930493049,635346.72941273,2799.5064829155,2510281.9403821,40.204930493049,0,0
-31.845205984449,217.98641207936,35.009360936094,635346.72941273,2799.5064829155,2510281.9403821,40.209360936094,0,0
-31.845205967255,218.00796981059,35.013791379138,635346.72941273,2799.5064829155,2510281.9403821,40.213791379138,0,0
-31.845205950062,218.02952754183,35.018221822182,635346.72941273,2799.5064829155,2510281.9403821,40.218221822182,0,0
-31.845205932868,218.05108527307,35.022652265227,635346.72941273,2799.5064829155,2510281.9403821,40.222652265227,0,0
-31.845205915675,218.0726430043,35.027082708271,635346.72941273,2799.5064829155,2510281.9403821,40.227082708271,0,0
-31.845205898481,218.09420073554,35.031513151315,635346.72941273,2799.5064829155,2510281.9403821,40.231513151315,0,0
-31.845205881288,218.11575846678,35.035943594359,635346.72941273,2799.5064829155,2510281.9403821,40.235943594359,0,0
-31.845205864094,218.13731619801,35.040374037404,635346.72941273,2799.5064829155,2510281.9403821,40.240374037404,0,0
-31.845205846901,218.15887392925,35.044804480448,635346.72941273,2799.5064829155,2510281.9403821,40.244804480448,0,0
-31.845205829708,218.18043166049,35.049234923492,635346.72941273,2799.5064829155,2510281.9403821,40.249234923492,0,0
-31.845205812514,218.20198939172,35.053665366537,635346.72941273,2799.5064829155,2510281.9403821,40.253665366537,0,0
-31.845205795321,218.22354712296,35.058095809581,635346.72941273,2799.5064829155,2510281.9403821,40.258095809581,0,0
-31.845205778127,218.2451048542,35.062526252625,635346.72941273,2799.5064829155,2510281.9403821,40.262526252625,0,0
-31.845205760934,218.26666258543,35.06695669567,635346.72941273,2799.5064829155,2510281.9403821,40.26695669567,0,0
-31.84520574374,218.28822031667,35.071387138714,635346.72941273,2799.5064829155,2510281.9403821,40.271387138714,0,0
-31.845205726547,218.30977804791,35.075817581758,635346.72941273,2799.5064829155,2510281.9403821,40.275817581758,0,0
-31.845205709353,218.33133577914,35.080248024802,635346.72941273,2799.5064829155,2510281.9403821,40.280248024802,0,0
-31.84520569216,218.35289351038,35.084678467847,635346.72941273,2799.5064829155,2510281.9403821,40.284678467847,0,0
-31.845205674966,218.37445124162,35.089108910891,635346.72941273,2799.5064829155,2510281.9403821,40.289108910891,0,0
-31.845205657773,218.39600897285,35.093539353935,635346.72941273,2799.5064829155,2510281.9403821,40.293539353935,0,0
-31.845205640579,218.41756670409,35.09796979698,635346.72941273,2799.5064829155,2510281.9403821,40.29796979698,0,0
-31.845205623386,218.43912443533,35.102400240024,635346.72941273,2799.5064829155,2510281.9403821,40.302400240024,0,0
-31.845205606192,218.46068216656,35.106830683068,635346.72941273,2799.5064829155,2510281.9403821,40.306830683068,0,0
-31.845205588999,218.4822398978,35.111261126113,635346.72941273,2799.5064829155,2510281.9403821,40.311261126113,0,0
-31.845205571805,218.50379762904,35.115691569157,635346.72941273,2799.5064829155,2510281.9403821,40.315691569157,0,0
-31.845205554612,218.52535536028,35.120122012201,635346.72941273,2799.5064829155,2510281.9403821,40.320122012201,0,0
-31.845205537418,218.54691309151,35.124552455246,635346.72941273,2799.5064829155,2510281.9403821,40.324552455246,0,0
-31.845205520225,218.56847082275,35.12898289829,635346.72941273,2799.5064829155,2510281.9403821,40.32898289829,0,0
-31.845205503031,218.59002855399,35.133413341334,635346.72941273,2799.5064829155,2510281.9403821,40.333413341334,0,0
-31.845205485838,218.61158628522,35.137843784378,635346.72941273,2799.5064829155,2510281.9403821,40.337843784378,0,0
-31.845205468644,218.63314401646,35.142274227423,635346.72941273,2799.5064829155,2510281.9403821,40.342274227423,0,0
-31.845205451451,218.6547017477,35.146704670467,635346.72941273,2799.5064829155,2510281.9403821,40.346704670467,0,0
-31.845205434257,218.67625947893,35.151135113511,635346.72941273,2799.5064829155,2510281.9403821,40.351135113511,0,0
-31.845205417064,218.69781721017,35.155565556556,635346.72941273,2799.5064829155,2510281.9403821,40.355565556556,0,0
-31.845205399871,218.71937494141,35.1599959996,635346.72941273,2799.5064829155,2510281.9403821,40.3599959996,0,0
-31.845205382677,218.74093267264,35.164426442644,635346.72941273,2799.5064829155,2510281.9403821,40.364426442644,0,0
-31.845205365484,218.76249040388,35.168856885689,635346.72941273,2799.5064829155,2510281.9403821,40.368856885689,0,0
-31.84520534829,218.78404813512,35.173287328733,635346.72941273,2799.5064829155,2510281.9403821,40.373287328733,0,0
-31.845205331097,218.80560586635,35.177717771777,635346.72941273,2799.5064829155,2510281.9403821,40.377717771777,0,0
-31.845205313903,218.82716359759,35.182148214821,635346.72941273,2799.5064829155,2510281.9403821,40.382148214821,0,0
-31.84520529671,218.84872132883,35.186578657866,635346.72941273,2799.5064829155,2510281.9403821,40.386578657866,0,0
-31.845205279516,218.87027906006,35.19100910091,635346.72941273,2799.5064829155,2510281.9403821,40.39100910091,0,0
-31.845205262323,218.8918367913,35.195439543954,635346.72941273,2799.5064829155,2510281.9403821,40.395439543954,0,0
-31.845205245129,218.91339452254,35.199869986999,635346.72941273,2799.5064829155,2510281.9403821,40.399869986999,0,0
-31.845205227936,218.93495225377,35.204300430043,635346.72941273,2799.5064829155,2510281.9403821,40.404300430043,0,0
-31.845205210742,218.95650998501,35.208730873087,635346.72941273,2799.5064829155,2510281.9403821,40.408730873087,0,0
-31.845205193549,218.97806771625,35.213161316132,635346.72941273,2799.5064829155,2510281.9403821,40.413161316132,0,0
-31.845205176355,218.99962544748,35.217591759176,635346.72941273,2799.5064829155,2510281.9403821,40.417591759176,0,0
-31.845205159162,219.02118317872,35.22202220222,635346.72941273,2799.5064829155,2510281.9403821,40.42202220222,0,0
-31.845205141968,219.04274090996,35.226452645265,635346.72941273,2799.5064829155,2510281.9403821,40.426452645265,0,0
-31.845205124775,219.06429864119,35.230883088309,635346.72941273,2799.5064829155,2510281.9403821,40.430883088309,0,0
-31.845205107581,219.08585637243,35.235313531353,635346.72941273,2799.5064829155,2510281.9403821,40.435313531353,0,0
-31.845205090388,219.10741410367,35.239743974397,635346.72941273,2799.5064829155,2510281.9403821,40.439743974397,0,0
-31.845205073194,219.1289718349,35.244174417442,635346.72941273,2799.5064829155,2510281.9403821,40.444174417442,0,0
-31.845205056001,219.15052956614,35.248604860486,635346.72941273,2799.5064829155,2510281.9403821,40.448604860486,0,0
-31.845205038807,219.17208729738,35.25303530353,635346.72941273,2799.5064829155,2510281.9403821,40.45303530353,0,0
-31.845205021614,219.19364502861,35.257465746575,635346.72941273,2799.5064829155,2510281.9403821,40.457465746575,0,0
-31.84520500442,219.21520275985,35.261896189619,635346.72941273,2799.5064829155,2510281.9403821,40.461896189619,0,0
-31.845204987227,219.23676049109,35.266326632663,635346.72941273,2799.5064829155,2510281.9403821,40.466326632663,0,0
-31.845204970034,219.25831822233,35.270757075708,635346.72941273,2799.5064829155,2510281.9403821,40.470757075708,0,0
-31.84520495284,219.27987595356,35.275187518752,635346.72941273,2799.5064829155,2510281.9403821,40.475187518752,0,0
-31.845204935647,219.3014336848,35.279617961796,635346.72941273,2799.5064829155,2510281.9403821,40.479617961796,0,0
-31.845204918453,219.32299141604,35.28404840484,635346.72941273,2799.5064829155,2510281.9403821,40.48404840484,0,0
-31.84520490126,219.34454914727,35.288478847885,635346.72941273,2799.5064829155,2510281.9403821,40.488478847885,0,0
-31.845204884066,219.36610687851,35.292909290929,635346.72941273,2799.5064829155,2510281.9403821,40.492909290929,0,0
-31.845204866873,219.38766460975,35.297339733973,635346.72941273,2799.5064829155,2510281.9403821,40.497339733973,0,0
-31.845204849679,219.40922234098,35.301770177018,635346.72941273,2799.5064829155,2510281.9403821,40.501770177018,0,0
-31.845204832486,219.43078007222,35.306200620062,635346.72941273,2799.5064829155,2510281.9403821,40.506200620062,0,0
-31.845204815292,219.45233780346,35.310631063106,635346.72941273,2799.5064829155,2510281.9403821,40.510631063106,0,0
-31.845204798099,219.47389553469,35.315061506151,635346.72941273,2799.5064829155,2510281.9403821,40.515061506151,0,0
-31.845204780905,219.49545326593,35.319491949195,635346.72941273,2799.5064829155,2510281.9403821,40.519491949195,0,0
-31.845204763712,219.51701099717,35.323922392239,635346.72941273,2799.5064829155,2510281.9403821,40.523922392239,0,0
-31.845204746518,219.5385687284,35.328352835284,635346.72941273,2799.5064829155,2510281.9403821,40.528352835284,0,0
-31.845204729325,219.56012645964,35.332783278328,635346.72941273,2799.5064829155,2510281.9403821,40.532783278328,0,0
-31.845204712131,219.58168419088,35.337213721372,635346.72941273,2799.5064829155,2510281.9403821,40.537213721372,0,0
-31.845204694938,219.60324192211,35.341644164416,635346.72941273,2799.5064829155,2510281.9403821,40.541644164416,0,0
-31.845204677744,219.62479965335,35.346074607461,635346.72941273,2799.5064829155,2510281.9403821,40.546074607461,0,0
-31.845204660551,219.64635738459,35.350505050505,635346.72941273,2799.5064829155,2510281.9403821,40.550505050505,0,0
-31.845204643357,219.66791511582,35.354935493549,635346.72941273,2799.5064829155,2510281.9403821,40.554935493549,0,0
-31.845204626164,219.68947284706,35.359365936594,635346.72941273,2799.5064829155,2510281.9403821,40.559365936594,0,0
-31.84520460897,219.7110305783,35.363796379638,635346.72941273,2799.5064829155,2510281.9403821,40.563796379638,0,0
-31.845204591777,219.73258830953,35.368226822682,635346.72941273,2799.5064829155,2510281.9403821,40.568226822682,0,0
-31.845204574583,219.75414604077,35.372657265727,635346.72941273,2799.5064829155,2510281.9403821,40.572657265727,0,0
-31.84520455739,219.77570377201,35.377087708771,635346.72941273,2799.5064829155,2510281.9403821,40.577087708771,0,0
-31.845204540196,219.79726150324,35.381518151815,635346.72941273,2799.5064829155,2510281.9403821,40.581518151815,0,0
-31.845204523003,219.81881923448,35.385948594859,635346.72941273,2799.5064829155,2510281.9403821,40.585948594859,0,0
-31.84520450581,219.84037696572,35.390379037904,635346.72941273,2799.5064829155,2510281.9403821,40.590379037904,0,0
-31.845204488616,219.86193469695,35.394809480948,635346.72941273,2799.5064829155,2510281.9403821,40.594809480948,0,0
-31.845204471423,219.88349242819,35.399239923992,635346.72941273,2799.5064829155,2510281.9403821,40.599239923992,0,0
-31.845204454229,219.90505015943,35.403670367037,635346.72941273,2799.5064829155,2510281.9403821,40.603670367037,0,0
-31.845204437036,219.92660789067,35.408100810081,635346.72941273,2799.5064829155,2510281.9403821,40.608100810081,0,0
-31.845204419842,219.9481656219,35.412531253125,635346.72941273,2799.5064829155,2510281.9403821,40.612531253125,0,0
-31.845204402649,219.96972335314,35.41696169617,635346.72941273,2799.5064829155,2510281.9403821,40.61696169617,0,0
-31.845204385455,219.99128108438,35.421392139214,635346.72941273,2799.5064829155,2510281.9403821,40.621392139214,0,0
-31.845204368262,220.01283881561,35.425822582258,635346.72941273,2799.5064829155,2510281.9403821,40.625822582258,0,0
-31.845204351068,220.03439654685,35.430253025303,635346.72941273,2799.5064829155,2510281.9403821,40.630253025303,0,0
-31.845204333875,220.05595427809,35.434683468347,635346.72941273,2799.5064829155,2510281.9403821,40.634683468347,0,0
-31.845204316681,220.07751200932,35.439113911391,635346.72941273,2799.5064829155,2510281.9403821,40.639113911391,0,0
-31.845204299488,220.09906974056,35.443544354435,635346.72941273,2799.5064829155,2510281.9403821,40.643544354435,0,0
-31.845204282294,220.1206274718,35.44797479748,635346.72941273,2799.5064829155,2510281.9403821,40.64797479748,0,0
-31.845204265101,220.14218520303,35.452405240524,635346.72941273,2799.5064829155,2510281.9403821,40.652405240524,0,0
-31.845204247907,220.16374293427,35.456835683568,635346.72941273,2799.5064829155,2510281.9403821,40.656835683568,0,0
-31.845204230714,220.18530066551,35.461266126613,635346.72941273,2799.5064829155,2510281.9403821,40.661266126613,0,0
-31.84520421352,220.20685839674,35.465696569657,635346.72941273,2799.5064829155,2510281.9403821,40.665696569657,0,0
-31.845204196327,220.22841612798,35.470127012701,635346.72941273,2799.5064829155,2510281.9403821,40.670127012701,0,0
-31.845204179133,220.24997385922,35.474557455746,635346.72941273,2799.5064829155,2510281.9403821,40.674557455746,0,0
-31.84520416194,220.27153159045,35.47898789879,635346.72941273,2799.5064829155,2510281.9403821,40.67898789879,0,0
-31.845204144746,220.29308932169,35.483418341834,635346.72941273,2799.5064829155,2510281.9403821,40.683418341834,0,0
-31.845204127553,220.31464705293,35.487848784878,635346.72941273,2799.5064829155,2510281.9403821,40.687848784878,0,0
-31.845204110359,220.33620478416,35.492279227923,635346.72941273,2799.5064829155,2510281.9403821,40.692279227923,0,0
-31.845204093166,220.3577625154,35.496709670967,635346.72941273,2799.5064829155,2510281.9403821,40.696709670967,0,0
-31.845204075973,220.37932024664,35.501140114011,635346.72941273,2799.5064829155,2510281.9403821,40.701140114011,0,0
-31.845204058779,220.40087797787,35.505570557056,635346.72941273,2799.5064829155,2510281.9403821,40.705570557056,0,0
-31.845204041586,220.42243570911,35.5100010001,635346.72941273,2799.5064829155,2510281.9403821,40.7100010001,0,0
-31.845204024392,220.44399344035,35.514431443144,635346.72941273,2799.5064829155,2510281.9403821,40.714431443144,0,0
-31.845204007199,220.46555117158,35.518861886189,635346.72941273,2799.5064829155,2510281.9403821,40.718861886189,0,0
-31.845203990005,220.48710890282,35.523292329233,635346.72941273,2799.5064829155,2510281.9403821,40.723292329233,0,0
-31.845203972812,220.50866663406,35.527722772277,635346.72941273,2799.5064829155,2510281.9403821,40.727722772277,0,0
-31.845203955618,220.53022436529,35.532153215322,635346.72941273,2799.5064829155,2510281.9403821,40.732153215322,0,0
-31.845203938425,220.55178209653,35.536583658366,635346.72941273,2799.5064829155,2510281.9403821,40.736583658366,0,0
-31.845203921231,220.57333982777,35.54101410141,635346.72941273,2799.5064829155,2510281.9403821,40.74101410141,0,0
-31.845203904038,220.59489755901,35.545444544454,635346.72941273,2799.5064829155,2510281.9403821,40.745444544454,0,0
-31.845203886844,220.61645529024,35.549874987499,635346.72941273,2799.5064829155,2510281.9403821,40.749874987499,0,0
-31.845203869651,220.63801302148,35.554305430543,635346.72941273,2799.5064829155,2510281.9403821,40.754305430543,0,0
-31.845203852457,220.65957075272,35.558735873587,635346.72941273,2799.5064829155,2510281.9403821,40.758735873587,0,0
-31.845203835264,220.68112848395,35.563166316632,635346.72941273,2799.5064829155,2510281.9403821,40.763166316632,0,0
-31.84520381807,220.70268621519,35.567596759676,635346.72941273,2799.5064829155,2510281.9403821,40.767596759676,0,0
-31.845203800877,220.72424394643,35.57202720272,635346.72941273,2799.5064829155,2510281.9403821,40.77202720272,0,0
-31.845203783683,220.74580167766,35.576457645765,635346.72941273,2799.5064829155,2510281.9403821,40.776457645765,0,0
-31.84520376649,220.7673594089,35.580888088809,635346.72941273,2799.5064829155,2510281.9403821,40.780888088809,0,0
-31.845203749296,220.78891714014,35.585318531853,635346.72941273,2799.5064829155,2510281.9403821,40.785318531853,0,0
-31.845203732103,220.81047487137,35.589748974897,635346.72941273,2799.5064829155,2510281.9403821,40.789748974897,0,0
-31.845203714909,220.83203260261,35.594179417942,635346.72941273,2799.5064829155,2510281.9403821,40.794179417942,0,0
-31.845203697716,220.85359033385,35.598609860986,635346.72941273,2799.5064829155,2510281.9403821,40.798609860986,0,0
-31.845203680522,220.87514806508,35.60304030403,635346.72941273,2799.5064829155,2510281.9403821,40.80304030403,0,0
-31.845203663329,220.89670579632,35.607470747075,635346.72941273,2799.5064829155,2510281.9403821,40.807470747075,0,0
-31.845203646136,220.91826352756,35.611901190119,635346.72941273,2799.5064829155,2510281.9403821,40.811901190119,0,0
-31.845203628942,220.93982125879,35.616331633163,635346.72941273,2799.5064829155,2510281.9403821,40.816331633163,0,0
-31.845203611749,220.96137899003,35.620762076208,635346.72941273,2799.5064829155,2510281.9403821,40.820762076208,0,0
-31.845203594555,220.98293672127,35.625192519252,635346.72941273,2799.5064829155,2510281.9403821,40.825192519252,0,0
-31.845203577362,221.0044944525,35.629622962296,635346.72941273,2799.5064829155,2510281.9403821,40.829622962296,0,0
-31.845203560168,221.02605218374,35.634053405341,635346.72941273,2799.5064829155,2510281.9403821,40.834053405341,0,0
-31.845203542975,221.04760991498,35.638483848385,635346.72941273,2799.5064829155,2510281.9403821,40.838483848385,0,0
-31.845203525781,221.06916764621,35.642914291429,635346.72941273,2799.5064829155,2510281.9403821,40.842914291429,0,0
-31.845203508588,221.09072537745,35.647344734473,635346.72941273,2799.5064829155,2510281.9403821,40.847344734473,0,0
-31.845203491394,221.11228310869,35.651775177518,635346.72941273,2799.5064829155,2510281.9403821,40.851775177518,0,0
-31.845203474201,221.13384083992,35.656205620562,635346.72941273,2799.5064829155,2510281.9403821,40.856205620562,0,0
-31.845203457007,221.15539857116,35.660636063606,635346.72941273,2799.5064829155,2510281.9403821,40.860636063606,0,0
-31.845203439814,221.1769563024,35.665066506651,635346.72941273,2799.5064829155,2510281.9403821,40.865066506651,0,0
-31.84520342262,221.19851403363,35.669496949695,635346.72941273,2799.5064829155,2510281.9403821,40.869496949695,0,0
-31.845203405427,221.22007176487,35.673927392739,635346.72941273,2799.5064829155,2510281.9403821,40.873927392739,0,0
-31.845203388233,221.24162949611,35.678357835784,635346.72941273,2799.5064829155,2510281.9403821,40.878357835784,0,0
-31.84520337104,221.26318722735,35.682788278828,635346.72941273,2799.5064829155,2510281.9403821,40.882788278828,0,0
-31.845203353846,221.28474495858,35.687218721872,635346.72941273,2799.5064829155,2510281.9403821,40.887218721872,0,0
-31.845203336653,221.30630268982,35.691649164916,635346.72941273,2799.5064829155,2510281.9403821,40.891649164916,0,0
-31.845203319459,221.32786042106,35.696079607961,635346.72941273,2799.5064829155,2510281.9403821,40.896079607961,0,0
-31.845203302266,221.34941815229,35.700510051005,635346.72941273,2799.5064829155,2510281.9403821,40.900510051005,0,0
-31.845203285072,221.37097588353,35.704940494049,635346.72941273,2799.5064829155,2510281.9403821,40.904940494049,0,0
-31.845203267879,221.39253361477,35.709370937094,635346.72941273,2799.5064829155,2510281.9403821,40.909370937094,0,0
-31.845203250685,221.414091346,35.713801380138,635346.72941273,2799.5064829155,2510281.9403821,40.913801380138,0,0
-31.845203233492,221.43564907724,35.718231823182,635346.72941273,2799.5064829155,2510281.9403821,40.918231823182,0,0
-31.845203216299,221.45720680848,35.722662266227,635346.72941273,2799.5064829155,2510281.9403821,40.922662266227,0,0
-31.845203199105,221.47876453971,35.727092709271,635346.72941273,2799.5064829155,2510281.9403821,40.927092709271,0,0
-31.845203181912,221.50032227095,35.731523152315,635346.72941273,2799.5064829155,2510281.9403821,40.931523152315,0,0
-31.845203164718,221.52188000219,35.73595359536,635346.72941273,2799.5064829155,2510281.9403821,40.93595359536,0,0
-31.845203147525,221.54343773342,35.740384038404,635346.72941273,2799.5064829155,2510281.9403821,40.940384038404,0,0
-31.845203130331,221.56499546466,35.744814481448,635346.72941273,2799.5064829155,2510281.9403821,40.944814481448,0,0
-31.845203113138,221.5865531959,35.749244924492,635346.72941273,2799.5064829155,2510281.9403821,40.949244924492,0,0
-31.845203095944,221.60811092713,35.753675367537,635346.72941273,2799.5064829155,2510281.9403821,40.953675367537,0,0
-31.845203078751,221.62966865837,35.758105810581,635346.72941273,2799.5064829155,2510281.9403821,40.958105810581,0,0
-31.845203061557,221.65122638961,35.762536253625,635346.72941273,2799.5064829155,2510281.9403821,40.962536253625,0,0
-31.845203044364,221.67278412084,35.76696669667,635346.72941273,2799.5064829155,2510281.9403821,40.96696669667,0,0
-31.84520302717,221.69434185208,35.771397139714,635346.72941273,2799.5064829155,2510281.9403821,40.971397139714,0,0
-31.845203009977,221.71589958332,35.775827582758,635346.72941273,2799.5064829155,2510281.9403821,40.975827582758,0,0
-31.845202992783,221.73745731455,35.780258025803,635346.72941273,2799.5064829155,2510281.9403821,40.980258025803,0,0
-31.84520297559,221.75901504579,35.784688468847,635346.72941273,2799.5064829155,2510281.9403821,40.984688468847,0,0
-31.845202958396,221.78057277703,35.789118911891,635346.72941273,2799.5064829155,2510281.9403821,40.989118911891,0,0
-31.845202941203,221.80213050826,35.793549354935,635346.72941273,2799.5064829155,2510281.9403821,40.993549354935,0,0
-31.845202924009,221.8236882395,35.79797979798,635346.72941273,2799.5064829155,2510281.9403821,40.99797979798,0,0
-31.845202906816,221.84524597074,35.802410241024,635346.72941273,2799.5064829155,2510281.9403821,41.002410241024,0,0
-31.845202889622,221.86680370197,35.806840684068,635346.72941273,2799.5064829155,2510281.9403821,41.006840684068,0,0
-31.845202872429,221.88836143321,35.811271127113,635346.72941273,2799.5064829155,2510281.9403821,41.011271127113,0,0
-31.845202855235,221.90991916445,35.815701570157,635346.72941273,2799.5064829155,2510281.9403821,41.015701570157,0,0
-31.845202838042,221.93147689569,35.820132013201,635346.72941273,2799.5064829155,2510281.9403821,41.020132013201,0,0
-31.845202820848,221.95303462692,35.824562456246,635346.72941273,2799.5064829155,2510281.9403821,41.024562456246,0,0
-31.845202803655,221.97459235816,35.82899289929,635346.72941273,2799.5064829155,2510281.9403821,41.02899289929,0,0
-31.845202786461,221.9961500894,35.833423342334,635346.72941273,2799.5064829155,2510281.9403821,41.033423342334,0,0
-31.845202769268,222.01770782063,35.837853785379,635346.72941273,2799.5064829155,2510281.9403821,41.037853785379,0,0
-31.845202752075,222.03926555187,35.842284228423,635346.72941273,2799.5064829155,2510281.9403821,41.042284228423,0,0
-31.845202734881,222.06082328311,35.846714671467,635346.72941273,2799.5064829155,2510281.9403821,41.046714671467,0,0
-31.845202717688,222.08238101434,35.851145114511,635346.72941273,2799.5064829155,2510281.9403821,41.051145114511,0,0
-31.845202700494,222.10393874558,35.855575557556,635346.72941273,2799.5064829155,2510281.9403821,41.055575557556,0,0
-31.845202683301,222.12549647682,35.8600060006,635346.72941273,2799.5064829155,2510281.9403821,41.0600060006,0,0
-31.845202666107,222.14705420805,35.864436443644,635346.72941273,2799.5064829155,2510281.9403821,41.064436443644,0,0
-31.845202648914,222.16861193929,35.868866886689,635346.72941273,2799.5064829155,2510281.9403821,41.068866886689,0,0
-31.84520263172,222.19016967053,35.873297329733,635346.72941273,2799.5064829155,2510281.9403821,41.073297329733,0,0
-31.845202614527,222.21172740176,35.877727772777,635346.72941273,2799.5064829155,2510281.9403821,41.077727772777,0,0
-31.845202597333,222.233285133,35.882158215822,635346.72941273,2799.5064829155,2510281.9403821,41.082158215822,0,0
-31.84520258014,222.25484286424,35.886588658866,635346.72941273,2799.5064829155,2510281.9403821,41.086588658866,0,0
-31.845202562946,222.27640059547,35.89101910191,635346.72941273,2799.5064829155,2510281.9403821,41.09101910191,0,0
-31.845202545753,222.29795832671,35.895449544954,635346.72941273,2799.5064829155,2510281.9403821,41.095449544954,0,0
-31.845202528559,222.31951605795,35.899879987999,635346.72941273,2799.5064829155,2510281.9403821,41.099879987999,0,0
-31.845202511366,222.34107378918,35.904310431043,635346.72941273,2799.5064829155,2510281.9403821,41.104310431043,0,0
-31.845202494172,222.36263152042,35.908740874087,635346.72941273,2799.5064829155,2510281.9403821,41.108740874087,0,0
-31.845202476979,222.38418925166,35.913171317132,635346.72941273,2799.5064829155,2510281.9403821,41.113171317132,0,0
-31.845202459785,222.40574698289,35.917601760176,635346.72941273,2799.5064829155,2510281.9403821,41.117601760176,0,0
-31.845202442592,222.42730471413,35.92203220322,635346.72941273,2799.5064829155,2510281.9403821,41.12203220322,0,0
-31.845202425398,222.44886244537,35.926462646265,635346.72941273,2799.5064829155,2510281.9403821,41.126462646265,0,0
-31.845202408205,222.4704201766,35.930893089309,635346.72941273,2799.5064829155,2510281.9403821,41.130893089309,0,0
-31.845202391011,222.49197790784,35.935323532353,635346.72941273,2799.5064829155,2510281.9403821,41.135323532353,0,0
-31.845202373818,222.51353563908,35.939753975398,635346.72941273,2799.5064829155,2510281.9403821,41.139753975398,0,0
-31.845202356624,222.53509337031,35.944184418442,635346.72941273,2799.5064829155,2510281.9403821,41.144184418442,0,0
-31.845202339431,222.55665110155,35.948614861486,635346.72941273,2799.5064829155,2510281.9403821,41.148614861486,0,0
-31.845202322238,222.57820883279,35.95304530453,635346.72941273,2799.5064829155,2510281.9403821,41.15304530453,0,0
-31.845202305044,222.59976656403,35.957475747575,635346.72941273,2799.5064829155,2510281.9403821,41.157475747575,0,0
-31.845202287851,222.62132429526,35.961906190619,635346.72941273,2799.5064829155,2510281.9403821,41.161906190619,0,0
-31.845202270657,222.6428820265,35.966336633663,635346.72941273,2799.5064829155,2510281.9403821,41.166336633663,0,0
-31.845202253464,222.66443975774,35.970767076708,635346.72941273,2799.5064829155,2510281.9403821,41.170767076708,0,0
-31.84520223627,222.68599748897,35.975197519752,635346.72941273,2799.5064829155,2510281.9403821,41.175197519752,0,0
-31.845202219077,222.70755522021,35.979627962796,635346.72941273,2799.5064829155,2510281.9403821,41.179627962796,0,0
-31.845202201883,222.72911295145,35.984058405841,635346.72941273,2799.5064829155,2510281.9403821,41.184058405841,0,0
-31.84520218469,222.75067068268,35.988488848885,635346.72941273,2799.5064829155,2510281.9403821,41.188488848885,0,0
-31.845202167496,222.77222841392,35.992919291929,635346.72941273,2799.5064829155,2510281.9403821,41.192919291929,0,0
-31.845202150303,222.79378614516,35.997349734973,635346.72941273,2799.5064829155,2510281.9403821,41.197349734973,0,0
-31.845202133109,222.81534387639,36.001780178018,635346.72941273,2799.5064829155,2510281.9403821,41.201780178018,0,0
-31.845202115916,222.83690160763,36.006210621062,635346.72941273,2799.5064829155,2510281.9403821,41.206210621062,0,0
-31.845202098722,222.85845933887,36.010641064106,635346.72941273,2799.5064829155,2510281.9403821,41.210641064106,0,0
-31.845202081529,222.8800170701,36.015071507151,635346.72941273,2799.5064829155,2510281.9403821,41.215071507151,0,0
-31.845202064335,222.90157480134,36.019501950195,635346.72941273,2799.5064829155,2510281.9403821,41.219501950195,0,0
-31.845202047142,222.92313253258,36.023932393239,635346.72941273,2799.5064829155,2510281.9403821,41.223932393239,0,0
-31.845202029948,222.94469026381,36.028362836284,635346.72941273,2799.5064829155,2510281.9403821,41.228362836284,0,0
-31.845202012755,222.96624799505,36.032793279328,635346.72941273,2799.5064829155,2510281.9403821,41.232793279328,0,0
-31.845201995561,222.98780572629,36.037223722372,635346.72941273,2799.5064829155,2510281.9403821,41.237223722372,0,0
-31.845201978368,223.00936345752,36.041654165417,635346.72941273,2799.5064829155,2510281.9403821,41.241654165417,0,0
-31.845201961174,223.03092118876,36.046084608461,635346.72941273,2799.5064829155,2510281.9403821,41.246084608461,0,0
-31.845201943981,223.05247892,36.050515051505,635346.72941273,2799.5064829155,2510281.9403821,41.250515051505,0,0
-31.845201926787,223.07403665123,36.054945494549,635346.72941273,2799.5064829155,2510281.9403821,41.254945494549,0,0
-31.845201909594,223.09559438247,36.059375937594,635346.72941273,2799.5064829155,2510281.9403821,41.259375937594,0,0
-31.845201892401,223.11715211371,36.063806380638,635346.72941273,2799.5064829155,2510281.9403821,41.263806380638,0,0
-31.845201875207,223.13870984494,36.068236823682,635346.72941273,2799.5064829155,2510281.9403821,41.268236823682,0,0
-31.845201858014,223.16026757618,36.072667266727,635346.72941273,2799.5064829155,2510281.9403821,41.272667266727,0,0
-31.84520184082,223.18182530742,36.077097709771,635346.72941273,2799.5064829155,2510281.9403821,41.277097709771,0,0
-31.845201823627,223.20338303865,36.081528152815,635346.72941273,2799.5064829155,2510281.9403821,41.281528152815,0,0
-31.845201806433,223.22494076989,36.08595859586,635346.72941273,2799.5064829155,2510281.9403821,41.28595859586,0,0
-31.84520178924,223.24649850113,36.090389038904,635346.72941273,2799.5064829155,2510281.9403821,41.290389038904,0,0
-31.845201772046,223.26805623237,36.094819481948,635346.72941273,2799.5064829155,2510281.9403821,41.294819481948,0,0
-31.845201754853,223.2896139636,36.099249924992,635346.72941273,2799.5064829155,2510281.9403821,41.299249924992,0,0
-31.845201737659,223.31117169484,36.103680368037,635346.72941273,2799.5064829155,2510281.9403821,41.303680368037,0,0
-31.845201720466,223.33272942608,36.108110811081,635346.72941273,2799.5064829155,2510281.9403821,41.308110811081,0,0
-31.845201703272,223.35428715731,36.112541254125,635346.72941273,2799.5064829155,2510281.9403821,41.312541254125,0,0
-31.845201686079,223.37584488855,36.11697169717,635346.72941273,2799.5064829155,2510281.9403821,41.31697169717,0,0
-31.845201668885,223.39740261979,36.121402140214,635346.72941273,2799.5064829155,2510281.9403821,41.321402140214,0,0
-31.845201651692,223.41896035102,36.125832583258,635346.72941273,2799.5064829155,2510281.9403821,41.325832583258,0,0
-31.845201634498,223.44051808226,36.130263026303,635346.72941273,2799.5064829155,2510281.9403821,41.330263026303,0,0
-31.845201617305,223.4620758135,36.134693469347,635346.72941273,2799.5064829155,2510281.9403821,41.334693469347,0,0
-31.845201600111,223.48363354473,36.139123912391,635346.72941273,2799.5064829155,2510281.9403821,41.339123912391,0,0
-31.845201582918,223.50519127597,36.143554355436,635346.72941273,2799.5064829155,2510281.9403821,41.343554355436,0,0
-31.845201565724,223.52674900721,36.14798479848,635346.72941273,2799.5064829155,2510281.9403821,41.34798479848,0,0
-31.845201548513,223.54830673834,36.152415241524,634719.1130908,-204.32789938248,2503850.4454324,41.352415241524,0,0
-31.845201531199,223.56986446885,36.156845684568,634719.1130908,-204.32789938248,2503850.4454324,41.356845684568,0,0
-31.845201513884,223.59142219937,36.161276127613,634719.1130908,-204.32789938248,2503850.4454324,41.361276127613,0,0
-31.84520149657,223.61297992988,36.165706570657,634719.1130908,-204.32789938248,2503850.4454324,41.365706570657,0,0
-31.845201479255,223.63453766039,36.170137013701,634719.1130908,-204.32789938248,2503850.4454324,41.370137013701,0,0
-31.84520146194,223.65609539091,36.174567456746,634719.1130908,-204.32789938248,2503850.4454324,41.374567456746,0,0
-31.845201444626,223.67765312142,36.17899789979,634719.1130908,-204.32789938248,2503850.4454324,41.37899789979,0,0
-31.845201427311,223.69921085193,36.183428342834,634719.1130908,-204.32789938248,2503850.4454324,41.383428342834,0,0
-31.845201409997,223.72076858245,36.187858785879,634719.1130908,-204.32789938248,2503850.4454324,41.387858785879,0,0
-31.845201392682,223.74232631296,36.192289228923,634719.1130908,-204.32789938248,2503850.4454324,41.392289228923,0,0
-31.845201375367,223.76388404348,36.196719671967,634719.1130908,-204.32789938248,2503850.4454324,41.396719671967,0,0
-31.845201358053,223.78544177399,36.201150115011,634719.1130908,-204.32789938248,2503850.4454324,41.401150115011,0,0
-31.845201340738,223.8069995045,36.205580558056,634719.1130908,-204.32789938248,2503850.4454324,41.405580558056,0,0
-31.845201323424,223.82855723502,36.2100110011,634719.1130908,-204.32789938248,2503850.4454324,41.4100110011,0,0
-31.845201306109,223.85011496553,36.214441444144,634719.1130908,-204.32789938248,2503850.4454324,41.414441444144,0,0
-31.845201288795,223.87167269604,36.218871887189,634719.1130908,-204.32789938248,2503850.4454324,41.418871887189,0,0
-31.84520127148,223.89323042656,36.223302330233,634719.1130908,-204.32789938248,2503850.4454324,41.423302330233,0,0
-31.845201254165,223.91478815707,36.227732773277,634719.1130908,-204.32789938248,2503850.4454324,41.427732773277,0,0
-31.845201236851,223.93634588759,36.232163216322,634719.1130908,-204.32789938248,2503850.4454324,41.432163216322,0,0
-31.845201219536,223.9579036181,36.236593659366,634719.1130908,-204.32789938248,2503850.4454324,41.436593659366,0,0
-31.845201202222,223.97946134861,36.24102410241,634719.1130908,-204.32789938248,2503850.4454324,41.44102410241,0,0
-31.845201184907,224.00101907913,36.245454545455,634719.1130908,-204.32789938248,2503850.4454324,41.445454545455,0,0
-31.845201167592,224.02257680964,36.249884988499,634719.1130908,-204.32789938248,2503850.4454324,41.449884988499,0,0
-31.845201150278,224.04413454015,36.254315431543,634719.1130908,-204.32789938248,2503850.4454324,41.454315431543,0,0
-31.845201132963,224.06569227067,36.258745874587,634719.1130908,-204.32789938248,2503850.4454324,41.458745874587,0,0
-31.845201115649,224.08725000118,36.263176317632,634719.1130908,-204.32789938248,2503850.4454324,41.463176317632,0,0
-31.845201098334,224.10880773169,36.267606760676,634719.1130908,-204.32789938248,2503850.4454324,41.467606760676,0,0
-31.845201081019,224.13036546221,36.27203720372,634719.1130908,-204.32789938248,2503850.4454324,41.47203720372,0,0
-31.845201063705,224.15192319272,36.276467646765,634719.1130908,-204.32789938248,2503850.4454324,41.476467646765,0,0
-31.84520104639,224.17348092324,36.280898089809,634719.1130908,-204.32789938248,2503850.4454324,41.480898089809,0,0
-31.845201029076,224.19503865375,36.285328532853,634719.1130908,-204.32789938248,2503850.4454324,41.485328532853,0,0
-31.845201011761,224.21659638426,36.289758975898,634719.1130908,-204.32789938248,2503850.4454324,41.489758975898,0,0
-31.845200994447,224.23815411478,36.294189418942,634719.1130908,-204.32789938248,2503850.4454324,41.494189418942,0,0
-31.845200977132,224.25971184529,36.298619861986,634719.1130908,-204.32789938248,2503850.4454324,41.498619861986,0,0
-31.845200959817,224.2812695758,36.30305030503,634719.1130908,-204.32789938248,2503850.4454324,41.50305030503,0,0
-31.845200942503,224.30282730632,36.307480748075,634719.1130908,-204.32789938248,2503850.4454324,41.507480748075,0,0
-31.845200925188,224.32438503683,36.311911191119,634719.1130908,-204.32789938248,2503850.4454324,41.511911191119,0,0
-31.845200907874,224.34594276735,36.316341634163,634719.1130908,-204.32789938248,2503850.4454324,41.516341634163,0,0
-31.845200890559,224.36750049786,36.320772077208,634719.1130908,-204.32789938248,2503850.4454324,41.520772077208,0,0
-31.845200873244,224.38905822837,36.325202520252,634719.1130908,-204.32789938248,2503850.4454324,41.525202520252,0,0
-31.84520085593,224.41061595889,36.329632963296,634719.1130908,-204.32789938248,2503850.4454324,41.529632963296,0,0
-31.845200838615,224.4321736894,36.334063406341,634719.1130908,-204.32789938248,2503850.4454324,41.534063406341,0,0
-31.845200821301,224.45373141991,36.338493849385,634719.1130908,-204.32789938248,2503850.4454324,41.538493849385,0,0
-31.845200803986,224.47528915043,36.342924292429,634719.1130908,-204.32789938248,2503850.4454324,41.542924292429,0,0
-31.845200786671,224.49684688094,36.347354735474,634719.1130908,-204.32789938248,2503850.4454324,41.547354735474,0,0
-31.845200769357,224.51840461146,36.351785178518,634719.1130908,-204.32789938248,2503850.4454324,41.551785178518,0,0
-31.845200752042,224.53996234197,36.356215621562,634719.1130908,-204.32789938248,2503850.4454324,41.556215621562,0,0
-31.845200734728,224.56152007248,36.360646064606,634719.1130908,-204.32789938248,2503850.4454324,41.560646064606,0,0
-31.845200717413,224.583077803,36.365076507651,634719.1130908,-204.32789938248,2503850.4454324,41.565076507651,0,0
-31.845200700099,224.60463553351,36.369506950695,634719.1130908,-204.32789938248,2503850.4454324,41.569506950695,0,0
-31.845200682784,224.62619326402,36.373937393739,634719.1130908,-204.32789938248,2503850.4454324,41.573937393739,0,0
-31.845200665469,224.64775099454,36.378367836784,634719.1130908,-204.32789938248,2503850.4454324,41.578367836784,0,0
-31.845200648155,224.66930872505,36.382798279828,634719.1130908,-204.32789938248,2503850.4454324,41.582798279828,0,0
-31.84520063084,224.69086645556,36.387228722872,634719.1130908,-204.32789938248,2503850.4454324,41.587228722872,0,0
-31.845200613526,224.71242418608,36.391659165917,634719.1130908,-204.32789938248,2503850.4454324,41.591659165917,0,0
-31.845200596211,224.73398191659,36.396089608961,634719.1130908,-204.32789938248,2503850.4454324,41.596089608961,0,0
-31.845200578896,224.75553964711,36.400520052005,634719.1130908,-204.32789938248,2503850.4454324,41.600520052005,0,0
-31.845200561582,224.77709737762,36.404950495049,634719.1130908,-204.32789938248,2503850.4454324,41.60495049505,0,0
-31.845200544267,224.79865510813,36.409380938094,634719.1130908,-204.32789938248,2503850.4454324,41.609380938094,0,0
-31.845200526953,224.82021283865,36.413811381138,634719.1130908,-204.32789938248,2503850.4454324,41.613811381138,0,0
-31.845200509638,224.84177056916,36.418241824182,634719.1130908,-204.32789938248,2503850.4454324,41.618241824182,0,0
-31.845200492323,224.86332829967,36.422672267227,634719.1130908,-204.32789938248,2503850.4454324,41.622672267227,0,0
-31.845200475009,224.88488603019,36.427102710271,634719.1130908,-204.32789938248,2503850.4454324,41.627102710271,0,0
-31.845200457694,224.9064437607,36.431533153315,634719.1130908,-204.32789938248,2503850.4454324,41.631533153315,0,0
-31.84520044038,224.92800149122,36.43596359636,634719.1130908,-204.32789938248,2503850.4454324,41.63596359636,0,0
-31.845200423065,224.94955922173,36.440394039404,634719.1130908,-204.32789938248,2503850.4454324,41.640394039404,0,0
-31.84520040575,224.97111695224,36.444824482448,634719.1130908,-204.32789938248,2503850.4454324,41.644824482448,0,0
-31.845200388436,224.99267468276,36.449254925493,634719.1130908,-204.32789938248,2503850.4454324,41.649254925493,0,0
-31.845200371121,225.01423241327,36.453685368537,634719.1130908,-204.32789938248,2503850.4454324,41.653685368537,0,0
-31.845200353807,225.03579014378,36.458115811581,634719.1130908,-204.32789938248,2503850.4454324,41.658115811581,0,0
-31.845200336492,225.0573478743,36.462546254625,634719.1130908,-204.32789938248,2503850.4454324,41.662546254625,0,0
-31.845200319178,225.07890560481,36.46697669767,634719.1130908,-204.32789938248,2503850.4454324,41.66697669767,0,0
-31.845200301863,225.10046333533,36.471407140714,634719.1130908,-204.32789938248,2503850.4454324,41.671407140714,0,0
-31.845200284548,225.12202106584,36.475837583758,634719.1130908,-204.32789938248,2503850.4454324,41.675837583758,0,0
-31.845200267234,225.14357879635,36.480268026803,634719.1130908,-204.32789938248,2503850.4454324,41.680268026803,0,0
-31.845200249919,225.16513652687,36.484698469847,634719.1130908,-204.32789938248,2503850.4454324,41.684698469847,0,0
-31.845200232605,225.18669425738,36.489128912891,634719.1130908,-204.32789938248,2503850.4454324,41.689128912891,0,0
-31.84520021529,225.20825198789,36.493559355936,634719.1130908,-204.32789938248,2503850.4454324,41.693559355936,0,0
-31.845200197975,225.22980971841,36.49798979898,634719.1130908,-204.32789938248,2503850.4454324,41.69798979898,0,0
-31.845200180661,225.25136744892,36.502420242024,634719.1130908,-204.32789938248,2503850.4454324,41.702420242024,0,0
-31.845200163346,225.27292517943,36.506850685068,634719.1130908,-204.32789938248,2503850.4454324,41.706850685069,0,0
-31.845200146032,225.29448290995,36.511281128113,634719.1130908,-204.32789938248,2503850.4454324,41.711281128113,0,0
-31.845200128717,225.31604064046,36.515711571157,634719.1130908,-204.32789938248,2503850.4454324,41.715711571157,0,0
-31.845200111402,225.33759837098,36.520142014201,634719.1130908,-204.32789938248,2503850.4454324,41.720142014201,0,0
-31.845200094088,225.35915610149,36.524572457246,634719.1130908,-204.32789938248,2503850.4454324,41.724572457246,0,0
-31.845200076773,225.380713832,36.52900290029,634719.1130908,-204.32789938248,2503850.4454324,41.72900290029,0,0
-31.845200059459,225.40227156252,36.533433343334,634719.1130908,-204.32789938248,2503850.4454324,41.733433343334,0,0
-31.845200042144,225.42382929303,36.537863786379,634719.1130908,-204.32789938248,2503850.4454324,41.737863786379,0,0
-31.84520002483,225.44538702354,36.542294229423,634719.1130908,-204.32789938248,2503850.4454324,41.742294229423,0,0
-31.845200007515,225.46694475406,36.546724672467,634719.1130908,-204.32789938248,2503850.4454324,41.746724672467,0,0
-31.845199990238,225.48850248469,36.551155115512,630526.1853592,3184.1964829481,2499243.0400439,41.751155115512,0,0
-31.845199973136,225.51006021583,36.555585558556,630526.1853592,3184.1964829481,2499243.0400439,41.755585558556,0,0
-31.845199956033,225.53161794698,36.5600160016,630526.1853592,3184.1964829481,2499243.0400439,41.7600160016,0,0
-31.845199938931,225.55317567813,36.564446444644,630526.1853592,3184.1964829481,2499243.0400439,41.764446444644,0,0
-31.845199921829,225.57473340928,36.568876887689,630526.1853592,3184.1964829481,2499243.0400439,41.768876887689,0,0
-31.845199904726,225.59629114043,36.573307330733,630526.1853592,3184.1964829481,2499243.0400439,41.773307330733,0,0
-31.845199887624,225.61784887158,36.577737773777,630526.1853592,3184.1964829481,2499243.0400439,41.777737773777,0,0
-31.845199870522,225.63940660273,36.582168216822,630526.1853592,3184.1964829481,2499243.0400439,41.782168216822,0,0
-31.845199853419,225.66096433388,36.586598659866,630526.1853592,3184.1964829481,2499243.0400439,41.786598659866,0,0
-31.845199836317,225.68252206503,36.59102910291,630526.1853592,3184.1964829481,2499243.0400439,41.79102910291,0,0
-31.845199819215,225.70407979618,36.595459545955,630526.1853592,3184.1964829481,2499243.0400439,41.795459545955,0,0
-31.845199802112,225.72563752733,36.599889988999,630526.1853592,3184.1964829481,2499243.0400439,41.799889988999,0,0
-31.84519978501,225.74719525848,36.604320432043,630526.1853592,3184.1964829481,2499243.0400439,41.804320432043,0,0
-31.845199767908,225.76875298963,36.608750875088,630526.1853592,3184.1964829481,2499243.0400439,41.808750875088,0,0
-31.845199750805,225.79031072078,36.613181318132,630526.1853592,3184.1964829481,2499243.0400439,41.813181318132,0,0
-31.845199733703,225.81186845193,36.617611761176,630526.1853592,3184.1964829481,2499243.0400439,41.817611761176,0,0
-31.8451997166,225.83342618308,36.62204220422,630526.1853592,3184.1964829481,2499243.0400439,41.82204220422,0,0
-31.845199699498,225.85498391423,36.626472647265,630526.1853592,3184.1964829481,2499243.0400439,41.826472647265,0,0
-31.845199682396,225.87654164538,36.630903090309,630526.1853592,3184.1964829481,2499243.0400439,41.830903090309,0,0
-31.845199665293,225.89809937653,36.635333533353,630526.1853592,3184.1964829481,2499243.0400439,41.835333533353,0,0
-31.845199648191,225.91965710768,36.639763976398,630526.1853592,3184.1964829481,2499243.0400439,41.839763976398,0,0
-31.845199631089,225.94121483883,36.644194419442,630526.1853592,3184.1964829481,2499243.0400439,41.844194419442,0,0
-31.845199613986,225.96277256998,36.648624862486,630526.1853592,3184.1964829481,2499243.0400439,41.848624862486,0,0
-31.845199596884,225.98433030113,36.653055305531,630526.1853592,3184.1964829481,2499243.0400439,41.853055305531,0,0
-31.845199579782,226.00588803228,36.657485748575,630526.1853592,3184.1964829481,2499243.0400439,41.857485748575,0,0
-31.845199562679,226.02744576343,36.661916191619,630526.1853592,3184.1964829481,2499243.0400439,41.861916191619,0,0
-31.845199545577,226.04900349458,36.666346634663,630526.1853592,3184.1964829481,2499243.0400439,41.866346634663,0,0
-31.845199528475,226.07056122573,36.670777077708,630526.1853592,3184.1964829481,2499243.0400439,41.870777077708,0,0
-31.845199511372,226.09211895688,36.675207520752,630526.1853592,3184.1964829481,2499243.0400439,41.875207520752,0,0
-31.84519949427,226.11367668803,36.679637963796,630526.1853592,3184.1964829481,2499243.0400439,41.879637963796,0,0
-31.845199477168,226.13523441918,36.684068406841,630526.1853592,3184.1964829481,2499243.0400439,41.884068406841,0,0
-31.845199460065,226.15679215033,36.688498849885,630526.1853592,3184.1964829481,2499243.0400439,41.888498849885,0,0
-31.845199442963,226.17834988148,36.692929292929,630526.1853592,3184.1964829481,2499243.0400439,41.892929292929,0,0
-31.845199425861,226.19990761263,36.697359735974,630526.1853592,3184.1964829481,2499243.0400439,41.897359735974,0,0
-31.845199408758,226.22146534378,36.701790179018,630526.1853592,3184.1964829481,2499243.0400439,41.901790179018,0,0
-31.845199391656,226.24302307493,36.706220622062,630526.1853592,3184.1964829481,2499243.0400439,41.906220622062,0,0
-31.845199374554,226.26458080608,36.710651065107,630526.1853592,3184.1964829481,2499243.0400439,41.910651065107,0,0
-31.845199357451,226.28613853723,36.715081508151,630526.1853592,3184.1964829481,2499243.0400439,41.915081508151,0,0
-31.845199340349,226.30769626838,36.719511951195,630526.1853592,3184.1964829481,2499243.0400439,41.919511951195,0,0
-31.845199323246,226.32925399953,36.723942394239,630526.1853592,3184.1964829481,2499243.0400439,41.923942394239,0,0
-31.845199306144,226.35081173068,36.728372837284,630526.1853592,3184.1964829481,2499243.0400439,41.928372837284,0,0
-31.845199289042,226.37236946183,36.732803280328,630526.1853592,3184.1964829481,2499243.0400439,41.932803280328,0,0
-31.845199271939,226.39392719298,36.737233723372,630526.1853592,3184.1964829481,2499243.0400439,41.937233723372,0,0
-31.845199254837,226.41548492413,36.741664166417,630526.1853592,3184.1964829481,2499243.0400439,41.941664166417,0,0
-31.845199237735,226.43704265528,36.746094609461,630526.1853592,3184.1964829481,2499243.0400439,41.946094609461,0,0
-31.845199220632,226.45860038643,36.750525052505,630526.1853592,3184.1964829481,2499243.0400439,41.950525052505,0,0
-31.84519920353,226.48015811758,36.75495549555,630526.1853592,3184.1964829481,2499243.0400439,41.95495549555,0,0
-31.845199186428,226.50171584873,36.759385938594,630526.1853592,3184.1964829481,2499243.0400439,41.959385938594,0,0
-31.845199169325,226.52327357988,36.763816381638,630526.1853592,3184.1964829481,2499243.0400439,41.963816381638,0,0
-31.845199152223,226.54483131103,36.768246824682,630526.1853592,3184.1964829481,2499243.0400439,41.968246824682,0,0
-31.845199135121,226.56638904218,36.772677267727,630526.1853592,3184.1964829481,2499243.0400439,41.972677267727,0,0
-31.845199118018,226.58794677333,36.777107710771,630526.1853592,3184.1964829481,2499243.0400439,41.977107710771,0,0
-31.845199100916,226.60950450448,36.781538153815,630526.1853592,3184.1964829481,2499243.0400439,41.981538153815,0,0
-31.845199083814,226.63106223563,36.78596859686,630526.1853592,3184.1964829481,2499243.0400439,41.98596859686,0,0
-31.845199066711,226.65261996678,36.790399039904,630526.1853592,3184.1964829481,2499243.0400439,41.990399039904,0,0
-31.845199049609,226.67417769793,36.794829482948,630526.1853592,3184.1964829481,2499243.0400439,41.994829482948,0,0
-31.845199032507,226.69573542908,36.799259925993,630526.1853592,3184.1964829481,2499243.0400439,41.999259925993,0,0
-31.845199015404,226.71729316023,36.803690369037,630526.1853592,3184.1964829481,2499243.0400439,42.003690369037,0,0
-31.845198998302,226.73885089138,36.808120812081,630526.1853592,3184.1964829481,2499243.0400439,42.008120812081,0,0
-31.845198981199,226.76040862253,36.812551255126,630526.1853592,3184.1964829481,2499243.0400439,42.012551255126,0,0
-31.845198964097,226.78196635368,36.81698169817,630526.1853592,3184.1964829481,2499243.0400439,42.01698169817,0,0
-31.845198946995,226.80352408483,36.821412141214,630526.1853592,3184.1964829481,2499243.0400439,42.021412141214,0,0
-31.845198929892,226.82508181598,36.825842584258,630526.1853592,3184.1964829481,2499243.0400439,42.025842584258,0,0
-31.84519891279,226.84663954713,36.830273027303,630526.1853592,3184.1964829481,2499243.0400439,42.030273027303,0,0
-31.845198895688,226.86819727828,36.834703470347,630526.1853592,3184.1964829481,2499243.0400439,42.034703470347,0,0
-31.845198878585,226.88975500943,36.839133913391,630526.1853592,3184.1964829481,2499243.0400439,42.039133913391,0,0
-31.845198861483,226.91131274058,36.843564356436,630526.1853592,3184.1964829481,2499243.0400439,42.043564356436,0,0
-31.845198844381,226.93287047173,36.84799479948,630526.1853592,3184.1964829481,2499243.0400439,42.04799479948,0,0
-31.845198827278,226.95442820288,36.852425242524,630526.1853592,3184.1964829481,2499243.0400439,42.052425242524,0,0
-31.845198810176,226.97598593403,36.856855685569,630526.1853592,3184.1964829481,2499243.0400439,42.056855685569,0,0
-31.845198793074,226.99754366518,36.861286128613,630526.1853592,3184.1964829481,2499243.0400439,42.061286128613,0,0
-31.845198775971,227.01910139633,36.865716571657,630526.1853592,3184.1964829481,2499243.0400439,42.065716571657,0,0
-31.845198758869,227.04065912748,36.870147014701,630526.1853592,3184.1964829481,2499243.0400439,42.070147014701,0,0
-31.845198741767,227.06221685863,36.874577457746,630526.1853592,3184.1964829481,2499243.0400439,42.074577457746,0,0
-31.845198724664,227.08377458978,36.87900790079,630526.1853592,3184.1964829481,2499243.0400439,42.07900790079,0,0
-31.845198707562,227.10533232093,36.883438343834,630526.1853592,3184.1964829481,2499243.0400439,42.083438343834,0,0
-31.84519869046,227.12689005208,36.887868786879,630526.1853592,3184.1964829481,2499243.0400439,42.087868786879,0,0
-31.845198673357,227.14844778323,36.892299229923,630526.1853592,3184.1964829481,2499243.0400439,42.092299229923,0,0
-31.845198656255,227.17000551438,36.896729672967,630526.1853592,3184.1964829481,2499243.0400439,42.096729672967,0,0
-31.845198639152,227.19156324553,36.901160116012,630526.1853592,3184.1964829481,2499243.0400439,42.101160116012,0,0
-31.84519862205,227.21312097668,36.905590559056,630526.1853592,3184.1964829481,2499243.0400439,42.105590559056,0,0
-31.845198604948,227.23467870783,36.9100210021,630526.1853592,3184.1964829481,2499243.0400439,42.1100210021,0,0
-31.845198587845,227.25623643898,36.914451445145,630526.1853592,3184.1964829481,2499243.0400439,42.114451445145,0,0
-31.845198570743,227.27779417013,36.918881888189,630526.1853592,3184.1964829481,2499243.0400439,42.118881888189,0,0
-31.845198553641,227.29935190128,36.923312331233,630526.1853592,3184.1964829481,2499243.0400439,42.123312331233,0,0
-31.845198536538,227.32090963243,36.927742774277,630526.1853592,3184.1964829481,2499243.0400439,42.127742774277,0,0
-31.845198519436,227.34246736358,36.932173217322,630526.1853592,3184.1964829481,2499243.0400439,42.132173217322,0,0
-31.845198502334,227.36402509473,36.936603660366,630526.1853592,3184.1964829481,2499243.0400439,42.136603660366,0,0
-31.845198485231,227.38558282588,36.94103410341,630526.1853592,3184.1964829481,2499243.0400439,42.14103410341,0,0
-31.845198468129,227.40714055703,36.945464546455,630526.1853592,3184.1964829481,2499243.0400439,42.145464546455,0,0
-31.845198451027,227.42869828818,36.949894989499,630526.1853592,3184.1964829481,2499243.0400439,42.149894989499,0,0
-31.845198433924,227.45025601933,36.954325432543,630526.1853592,3184.1964829481,2499243.0400439,42.154325432543,0,0
-31.845198416822,227.47181375048,36.958755875588,630526.1853592,3184.1964829481,2499243.0400439,42.158755875588,0,0
-31.84519839972,227.49337148163,36.963186318632,630526.1853592,3184.1964829481,2499243.0400439,42.163186318632,0,0
-31.845198382617,227.51492921278,36.967616761676,630526.1853592,3184.1964829481,2499243.0400439,42.167616761676,0,0
-31.845198365515,227.53648694393,36.97204720472,630526.1853592,3184.1964829481,2499243.0400439,42.17204720472,0,0
-31.845198348413,227.55804467508,36.976477647765,630526.1853592,3184.1964829481,2499243.0400439,42.176477647765,0,0
-31.84519833131,227.57960240623,36.980908090809,630526.1853592,3184.1964829481,2499243.0400439,42.180908090809,0,0
-31.845198314208,227.60116013738,36.985338533853,630526.1853592,3184.1964829481,2499243.0400439,42.185338533853,0,0
-31.845198297105,227.62271786853,36.989768976898,630526.1853592,3184.1964829481,2499243.0400439,42.189768976898,0,0
-31.845198280003,227.64427559968,36.994199419942,630526.1853592,3184.1964829481,2499243.0400439,42.194199419942,0,0
-31.845198262901,227.66583333083,36.998629862986,630526.1853592,3184.1964829481,2499243.0400439,42.198629862986,0,0
-31.845198245798,227.68739106198,37.003060306031,630526.1853592,3184.1964829481,2499243.0400439,42.203060306031,0,0
-31.845198228696,227.70894879313,37.007490749075,630526.1853592,3184.1964829481,2499243.0400439,42.207490749075,0,0
-31.845198211594,227.73050652428,37.011921192119,630526.1853592,3184.1964829481,2499243.0400439,42.211921192119,0,0
-31.845198194491,227.75206425543,37.016351635164,630526.1853592,3184.1964829481,2499243.0400439,42.216351635164,0,0
-31.845198177389,227.77362198658,37.020782078208,630526.1853592,3184.1964829481,2499243.0400439,42.220782078208,0,0
-31.845198160287,227.79517971773,37.025212521252,630526.1853592,3184.1964829481,2499243.0400439,42.225212521252,0,0
-31.845198143184,227.81673744888,37.029642964296,630526.1853592,3184.1964829481,2499243.0400439,42.229642964296,0,0
-31.845198126082,227.83829518003,37.034073407341,630526.1853592,3184.1964829481,2499243.0400439,42.234073407341,0,0
-31.84519810898,227.85985291118,37.038503850385,630526.1853592,3184.1964829481,2499243.0400439,42.238503850385,0,0
-31.845198091877,227.88141064233,37.042934293429,630526.1853592,3184.1964829481,2499243.0400439,42.242934293429,0,0
-31.845198074775,227.90296837348,37.047364736474,630526.1853592,3184.1964829481,2499243.0400439,42.247364736474,0,0
-31.845198057673,227.92452610463,37.051795179518,630526.1853592,3184.1964829481,2499243.0400439,42.251795179518,0,0
-31.84519804057,227.94608383578,37.056225622562,630526.1853592,3184.1964829481,2499243.0400439,42.256225622562,0,0
-31.845198023468,227.96764156693,37.060656065607,630526.1853592,3184.1964829481,2499243.0400439,42.260656065607,0,0
-31.845198006366,227.98919929808,37.065086508651,630526.1853592,3184.1964829481,2499243.0400439,42.265086508651,0,0
-31.845197989263,228.01075702923,37.069516951695,630526.1853592,3184.1964829481,2499243.0400439,42.269516951695,0,0
-31.845197972161,228.03231476038,37.073947394739,630526.1853592,3184.1964829481,2499243.0400439,42.273947394739,0,0
-31.845197955059,228.05387249153,37.078377837784,630526.1853592,3184.1964829481,2499243.0400439,42.278377837784,0,0
-31.845197937956,228.07543022268,37.082808280828,630526.1853592,3184.1964829481,2499243.0400439,42.282808280828,0,0
-31.845197920854,228.09698795383,37.087238723872,630526.1853592,3184.1964829481,2499243.0400439,42.287238723872,0,0
-31.845197903751,228.11854568498,37.091669166917,630526.1853592,3184.1964829481,2499243.0400439,42.291669166917,0,0
-31.845197886649,228.14010341613,37.096099609961,630526.1853592,3184.1964829481,2499243.0400439,42.296099609961,0,0
-31.845197869547,228.16166114728,37.100530053005,630526.1853592,3184.1964829481,2499243.0400439,42.300530053005,0,0
-31.845197852444,228.18321887843,37.10496049605,630526.1853592,3184.1964829481,2499243.0400439,42.30496049605,0,0
-31.845197835342,228.20477660958,37.109390939094,630526.1853592,3184.1964829481,2499243.0400439,42.309390939094,0,0
-31.84519781824,228.22633434073,37.113821382138,630526.1853592,3184.1964829481,2499243.0400439,42.313821382138,0,0
-31.845197801137,228.24789207188,37.118251825183,630526.1853592,3184.1964829481,2499243.0400439,42.318251825183,0,0
-31.845197784035,228.26944980303,37.122682268227,630526.1853592,3184.1964829481,2499243.0400439,42.322682268227,0,0
-31.845197766933,228.29100753418,37.127112711271,630526.1853592,3184.1964829481,2499243.0400439,42.327112711271,0,0
-31.84519774983,228.31256526533,37.131543154315,630526.1853592,3184.1964829481,2499243.0400439,42.331543154315,0,0
-31.845197732728,228.33412299648,37.13597359736,630526.1853592,3184.1964829481,2499243.0400439,42.33597359736,0,0
-31.845197715626,228.35568072763,37.140404040404,630526.1853592,3184.1964829481,2499243.0400439,42.340404040404,0,0
-31.845197698523,228.37723845878,37.144834483448,630526.1853592,3184.1964829481,2499243.0400439,42.344834483448,0,0
-31.845197681421,228.39879618993,37.149264926493,630526.1853592,3184.1964829481,2499243.0400439,42.349264926493,0,0
-31.845197664319,228.42035392108,37.153695369537,630526.1853592,3184.1964829481,2499243.0400439,42.353695369537,0,0
-31.845197647216,228.44191165223,37.158125812581,630526.1853592,3184.1964829481,2499243.0400439,42.358125812581,0,0
-31.845197630114,228.46346938338,37.162556255626,630526.1853592,3184.1964829481,2499243.0400439,42.362556255626,0,0
-31.845197613012,228.48502711453,37.16698669867,630526.1853592,3184.1964829481,2499243.0400439,42.36698669867,0,0
-31.845197595909,228.50658484568,37.171417141714,630526.1853592,3184.1964829481,2499243.0400439,42.371417141714,0,0
-31.845197578807,228.52814257683,37.175847584758,630526.1853592,3184.1964829481,2499243.0400439,42.375847584758,0,0
-31.845197561704,228.54970030798,37.180278027803,630526.1853592,3184.1964829481,2499243.0400439,42.380278027803,0,0
-31.845197544602,228.57125803913,37.184708470847,630526.1853592,3184.1964829481,2499243.0400439,42.384708470847,0,0
-31.8451975275,228.59281577028,37.189138913891,630526.1853592,3184.1964829481,2499243.0400439,42.389138913891,0,0
-31.845197510397,228.61437350143,37.193569356936,630526.1853592,3184.1964829481,2499243.0400439,42.393569356936,0,0
-31.845197493295,228.63593123258,37.19799979998,630526.1853592,3184.1964829481,2499243.0400439,42.39799979998,0,0
-31.845197476193,228.65748896373,37.202430243024,630526.1853592,3184.1964829481,2499243.0400439,42.402430243024,0,0
-31.84519745909,228.67904669488,37.206860686069,630526.1853592,3184.1964829481,2499243.0400439,42.406860686069,0,0
-31.845197441988,228.70060442603,37.211291129113,630526.1853592,3184.1964829481,2499243.0400439,42.411291129113,0,0
-31.845197424886,228.72216215718,37.215721572157,630526.1853592,3184.1964829481,2499243.0400439,42.415721572157,0,0
-31.845197407783,228.74371988833,37.220152015202,630526.1853592,3184.1964829481,2499243.0400439,42.420152015202,0,0
-31.845197390681,228.76527761948,37.224582458246,630526.1853592,3184.1964829481,2499243.0400439,42.424582458246,0,0
-31.845197373579,228.78683535063,37.22901290129,630526.1853592,3184.1964829481,2499243.0400439,42.42901290129,0,0
-31.845197356476,228.80839308178,37.233443344334,630526.1853592,3184.1964829481,2499243.0400439,42.433443344334,0,0
-31.845197339374,228.82995081293,37.237873787379,630526.1853592,3184.1964829481,2499243.0400439,42.437873787379,0,0
-31.845197322272,228.85150854408,37.242304230423,630526.1853592,3184.1964829481,2499243.0400439,42.442304230423,0,0
-31.845197305169,228.87306627523,37.246734673467,630526.1853592,3184.1964829481,2499243.0400439,42.446734673467,0,0
-31.845197288067,228.89462400638,37.251165116512,630526.1853592,3184.1964829481,2499243.0400439,42.451165116512,0,0
-31.845197270965,228.91618173753,37.255595559556,630526.1853592,3184.1964829481,2499243.0400439,42.455595559556,0,0
-31.845197253862,228.93773946868,37.2600260026,630526.1853592,3184.1964829481,2499243.0400439,42.4600260026,0,0
-31.84519723676,228.95929719983,37.264456445645,630526.1853592,3184.1964829481,2499243.0400439,42.464456445645,0,0
-31.845197219657,228.98085493098,37.268886888689,630526.1853592,3184.1964829481,2499243.0400439,42.468886888689,0,0
-31.845197202555,229.00241266213,37.273317331733,630526.1853592,3184.1964829481,2499243.0400439,42.473317331733,0,0
-31.845197185453,229.02397039328,37.277747774777,630526.1853592,3184.1964829481,2499243.0400439,42.477747774777,0,0
-31.84519716835,229.04552812443,37.282178217822,630526.1853592,3184.1964829481,2499243.0400439,42.482178217822,0,0
-31.845197151248,229.06708585558,37.286608660866,630526.1853592,3184.1964829481,2499243.0400439,42.486608660866,0,0
-31.845197134146,229.08864358673,37.29103910391,630526.1853592,3184.1964829481,2499243.0400439,42.49103910391,0,0
-31.845197117043,229.11020131788,37.295469546955,630526.1853592,3184.1964829481,2499243.0400439,42.495469546955,0,0
-31.845197099941,229.13175904903,37.299899989999,630526.1853592,3184.1964829481,2499243.0400439,42.499899989999,0,0
-31.845197082839,229.15331678018,37.304330433043,630526.1853592,3184.1964829481,2499243.0400439,42.504330433043,0,0
-31.845197065736,229.17487451132,37.308760876088,630526.1853592,3184.1964829481,2499243.0400439,42.508760876088,0,0
-31.845197048634,229.19643224247,37.313191319132,630526.1853592,3184.1964829481,2499243.0400439,42.513191319132,0,0
-31.845197031532,229.21798997362,37.317621762176,630526.1853592,3184.1964829481,2499243.0400439,42.517621762176,0,0
-31.845197014429,229.23954770477,37.322052205221,630526.1853592,3184.1964829481,2499243.0400439,42.522052205221,0,0
-31.845196997327,229.26110543592,37.326482648265,630526.1853592,3184.1964829481,2499243.0400439,42.526482648265,0,0
-31.845196980225,229.28266316707,37.330913091309,630526.1853592,3184.1964829481,2499243.0400439,42.530913091309,0,0
-31.845196963122,229.30422089822,37.335343534353,630526.1853592,3184.1964829481,2499243.0400439,42.535343534353,0,0
-31.84519694602,229.32577862937,37.339773977398,630526.1853592,3184.1964829481,2499243.0400439,42.539773977398,0,0
-31.845196928918,229.34733636052,37.344204420442,630526.1853592,3184.1964829481,2499243.0400439,42.544204420442,0,0
-31.845196911815,229.36889409167,37.348634863486,630526.1853592,3184.1964829481,2499243.0400439,42.548634863486,0,0
-31.845196894713,229.39045182282,37.353065306531,630526.1853592,3184.1964829481,2499243.0400439,42.553065306531,0,0
-31.845196877611,229.41200955397,37.357495749575,630526.1853592,3184.1964829481,2499243.0400439,42.557495749575,0,0
-31.845196860508,229.43356728512,37.361926192619,630526.1853592,3184.1964829481,2499243.0400439,42.561926192619,0,0
-31.845196843406,229.45512501627,37.366356635664,630526.1853592,3184.1964829481,2499243.0400439,42.566356635664,0,0
-31.845196826303,229.47668274742,37.370787078708,630526.1853592,3184.1964829481,2499243.0400439,42.570787078708,0,0
-31.845196809201,229.49824047857,37.375217521752,630526.1853592,3184.1964829481,2499243.0400439,42.575217521752,0,0
-31.845196792099,229.51979820972,37.379647964796,630526.1853592,3184.1964829481,2499243.0400439,42.579647964796,0,0
-31.845196774996,229.54135594087,37.384078407841,630526.1853592,3184.1964829481,2499243.0400439,42.584078407841,0,0
-31.845196757894,229.56291367202,37.388508850885,630526.1853592,3184.1964829481,2499243.0400439,42.588508850885,0,0
-31.845196740792,229.58447140317,37.392939293929,630526.1853592,3184.1964829481,2499243.0400439,42.592939293929,0,0
-31.845196723689,229.60602913432,37.397369736974,630526.1853592,3184.1964829481,2499243.0400439,42.597369736974,0,0
-31.845196706587,229.62758686547,37.401800180018,630526.1853592,3184.1964829481,2499243.0400439,42.601800180018,0,0
-31.845196689485,229.64914459662,37.406230623062,630526.1853592,3184.1964829481,2499243.0400439,42.606230623062,0,0
-31.845196672382,229.67070232777,37.410661066107,630526.1853592,3184.1964829481,2499243.0400439,42.610661066107,0,0
-31.84519665528,229.69226005892,37.415091509151,630526.1853592,3184.1964829481,2499243.0400439,42.615091509151,0,0
-31.845196638178,229.71381779007,37.419521952195,630526.1853592,3184.1964829481,2499243.0400439,42.619521952195,0,0
-31.845196621075,229.73537552122,37.42395239524,630526.1853592,3184.1964829481,2499243.0400439,42.62395239524,0,0
-31.845196603973,229.75693325237,37.428382838284,630526.1853592,3184.1964829481,2499243.0400439,42.628382838284,0,0
-31.845196586871,229.77849098352,37.432813281328,630526.1853592,3184.1964829481,2499243.0400439,42.632813281328,0,0
-31.845196569768,229.80004871467,37.437243724372,630526.1853592,3184.1964829481,2499243.0400439,42.637243724372,0,0
-31.845196552666,229.82160644582,37.441674167417,630526.1853592,3184.1964829481,2499243.0400439,42.641674167417,0,0
-31.845196535564,229.84316417697,37.446104610461,630526.1853592,3184.1964829481,2499243.0400439,42.646104610461,0,0
-31.845196518461,229.86472190812,37.450535053505,630526.1853592,3184.1964829481,2499243.0400439,42.650535053505,0,0
-31.845196501359,229.88627963927,37.45496549655,630526.1853592,3184.1964829481,2499243.0400439,42.65496549655,0,0
-31.845196484256,229.90783737042,37.459395939594,630526.1853592,3184.1964829481,2499243.0400439,42.659395939594,0,0
-31.845196467154,229.92939510157,37.463826382638,630526.1853592,3184.1964829481,2499243.0400439,42.663826382638,0,0
-31.845196450052,229.95095283272,37.468256825683,630526.1853592,3184.1964829481,2499243.0400439,42.668256825683,0,0
-31.845196432949,229.97251056387,37.472687268727,630526.1853592,3184.1964829481,2499243.0400439,42.672687268727,0,0
-31.845196415847,229.99406829502,37.477117711771,630526.1853592,3184.1964829481,2499243.0400439,42.677117711771,0,0
-31.845196398745,230.01562602617,37.481548154815,630526.1853592,3184.1964829481,2499243.0400439,42.681548154815,0,0
-31.845196381642,230.03718375732,37.48597859786,630526.1853592,3184.1964829481,2499243.0400439,42.68597859786,0,0
-31.84519636454,230.05874148847,37.490409040904,630526.1853592,3184.1964829481,2499243.0400439,42.690409040904,0,0
-31.845196347438,230.08029921962,37.494839483948,630526.1853592,3184.1964829481,2499243.0400439,42.694839483948,0,0
-31.845196330335,230.10185695077,37.499269926993,630526.1853592,3184.1964829481,2499243.0400439,42.699269926993,0,0
-31.845196313233,230.12341468192,37.503700370037,630526.1853592,3184.1964829481,2499243.0400439,42.703700370037,0,0
-31.845196296131,230.14497241307,37.508130813081,630526.1853592,3184.1964829481,2499243.0400439,42.708130813081,0,0
-31.845196279028,230.16653014422,37.512561256126,630526.1853592,3184.1964829481,2499243.0400439,42.712561256126,0,0
-31.845196261926,230.18808787537,37.51699169917,630526.1853592,3184.1964829481,2499243.0400439,42.71699169917,0,0
-31.845196244824,230.20964560652,37.521422142214,630526.1853592,3184.1964829481,2499243.0400439,42.721422142214,0,0
-31.845196227721,230.23120333767,37.525852585259,630526.1853592,3184.1964829481,2499243.0400439,42.725852585259,0,0
-31.845196210619,230.25276106882,37.530283028303,630526.1853592,3184.1964829481,2499243.0400439,42.730283028303,0,0
-31.845196193517,230.27431879997,37.534713471347,630526.1853592,3184.1964829481,2499243.0400439,42.734713471347,0,0
-31.845196176414,230.29587653112,37.539143914391,630526.1853592,3184.1964829481,2499243.0400439,42.739143914391,0,0
-31.845196159312,230.31743426227,37.543574357436,630526.1853592,3184.1964829481,2499243.0400439,42.743574357436,0,0
-31.845196142209,230.33899199342,37.54800480048,630526.1853592,3184.1964829481,2499243.0400439,42.74800480048,0,0
-31.845196125107,230.36054972457,37.552435243524,630526.1853592,3184.1964829481,2499243.0400439,42.752435243524,0,0
-31.845196108005,230.38210745572,37.556865686569,630526.1853592,3184.1964829481,2499243.0400439,42.756865686569,0,0
-31.845196090902,230.40366518687,37.561296129613,630526.1853592,3184.1964829481,2499243.0400439,42.761296129613,0,0
-31.8451960738,230.42522291802,37.565726572657,630526.1853592,3184.1964829481,2499243.0400439,42.765726572657,0,0
-31.845196056698,230.44678064917,37.570157015702,630526.1853592,3184.1964829481,2499243.0400439,42.770157015702,0,0
-31.845196039595,230.46833838032,37.574587458746,630526.1853592,3184.1964829481,2499243.0400439,42.774587458746,0,0
-31.845196022493,230.48989611147,37.57901790179,630526.1853592,3184.1964829481,2499243.0400439,42.77901790179,0,0
-31.845196005391,230.51145384262,37.583448344834,630526.1853592,3184.1964829481,2499243.0400439,42.783448344834,0,0
-31.845195988288,230.53301157377,37.587878787879,630526.1853592,3184.1964829481,2499243.0400439,42.787878787879,0,0
-31.845195971186,230.55456930492,37.592309230923,630526.1853592,3184.1964829481,2499243.0400439,42.792309230923,0,0
-31.845195954084,230.57612703607,37.596739673967,630526.1853592,3184.1964829481,2499243.0400439,42.796739673967,0,0
-31.845195936981,230.59768476722,37.601170117012,630526.1853592,3184.1964829481,2499243.0400439,42.801170117012,0,0
-31.845195919879,230.61924249837,37.605600560056,630526.1853592,3184.1964829481,2499243.0400439,42.805600560056,0,0
-31.845195902777,230.64080022952,37.6100310031,630526.1853592,3184.1964829481,2499243.0400439,42.8100310031,0,0
-31.845195885674,230.66235796067,37.614461446145,630526.1853592,3184.1964829481,2499243.0400439,42.814461446145,0,0
-31.845195868572,230.68391569182,37.618891889189,630526.1853592,3184.1964829481,2499243.0400439,42.818891889189,0,0
-31.84519585147,230.70547342297,37.623322332233,630526.1853592,3184.1964829481,2499243.0400439,42.823322332233,0,0
-31.845195834367,230.72703115412,37.627752775278,630526.1853592,3184.1964829481,2499243.0400439,42.827752775278,0,0
-31.845195817265,230.74858888527,37.632183218322,630526.1853592,3184.1964829481,2499243.0400439,42.832183218322,0,0
-31.845195800163,230.77014661642,37.636613661366,630526.1853592,3184.1964829481,2499243.0400439,42.836613661366,0,0
-31.84519578306,230.79170434757,37.64104410441,630526.1853592,3184.1964829481,2499243.0400439,42.84104410441,0,0
-31.845195765958,230.81326207872,37.645474547455,630526.1853592,3184.1964829481,2499243.0400439,42.845474547455,0,0
-31.845195748855,230.83481980987,37.649904990499,630526.1853592,3184.1964829481,2499243.0400439,42.849904990499,0,0
-31.845195731753,230.85637754102,37.654335433543,630526.1853592,3184.1964829481,2499243.0400439,42.854335433543,0,0
-31.845195714651,230.87793527217,37.658765876588,630526.1853592,3184.1964829481,2499243.0400439,42.858765876588,0,0
-31.845195697548,230.89949300332,37.663196319632,630526.1853592,3184.1964829481,2499243.0400439,42.863196319632,0,0
-31.845195680446,230.92105073447,37.667626762676,630526.1853592,3184.1964829481,2499243.0400439,42.867626762676,0,0
-31.845195663344,230.94260846562,37.672057205721,630526.1853592,3184.1964829481,2499243.0400439,42.872057205721,0,0
-31.845195646241,230.96416619677,37.676487648765,630526.1853592,3184.1964829481,2499243.0400439,42.876487648765,0,0
-31.845195629139,230.98572392792,37.680918091809,630526.1853592,3184.1964829481,2499243.0400439,42.880918091809,0,0
-31.845195612037,231.00728165907,37.685348534853,630526.1853592,3184.1964829481,2499243.0400439,42.885348534853,0,0
-31.845195594934,231.02883939022,37.689778977898,630526.1853592,3184.1964829481,2499243.0400439,42.889778977898,0,0
-31.845195577832,231.05039712137,37.694209420942,630526.1853592,3184.1964829481,2499243.0400439,42.894209420942,0,0
-31.84519556073,231.07195485252,37.698639863986,630526.1853592,3184.1964829481,2499243.0400439,42.898639863986,0,0
-31.845195543627,231.09351258367,37.703070307031,630526.1853592,3184.1964829481,2499243.0400439,42.903070307031,0,0
-31.845195526525,231.11507031482,37.707500750075,630526.1853592,3184.1964829481,2499243.0400439,42.907500750075,0,0
-31.845195509423,231.13662804597,37.711931193119,630526.1853592,3184.1964829481,2499243.0400439,42.911931193119,0,0
-31.84519549232,231.15818577712,37.716361636164,630526.1853592,3184.1964829481,2499243.0400439,42.916361636164,0,0
-31.845195475218,231.17974350827,37.720792079208,630526.1853592,3184.1964829481,2499243.0400439,42.920792079208,0,0
-31.845195458116,231.20130123942,37.725222522252,630526.1853592,3184.1964829481,2499243.0400439,42.925222522252,0,0
-31.845195441013,231.22285897057,37.729652965297,630526.1853592,3184.1964829481,2499243.0400439,42.929652965297,0,0
-31.845195423911,231.24441670172,37.734083408341,630526.1853592,3184.1964829481,2499243.0400439,42.934083408341,0,0
-31.845195406808,231.26597443287,37.738513851385,630526.1853592,3184.1964829481,2499243.0400439,42.938513851385,0,0
-31.845195389706,231.28753216402,37.742944294429,630526.1853592,3184.1964829481,2499243.040044,42.942944294429,0,0
-31.845195372604,231.30908989517,37.747374737474,630526.1853592,3184.1964829481,2499243.040044,42.947374737474,0,0
-31.845195355501,231.33064762632,37.751805180518,630526.1853592,3184.1964829481,2499243.040044,42.951805180518,0,0
-31.845195338399,231.35220535747,37.756235623562,630526.1853592,3184.1964829481,2499243.040044,42.956235623562,0,0
-31.845195321297,231.37376308862,37.760666066607,630526.1853592,3184.1964829481,2499243.040044,42.960666066607,0,0
-31.845195304194,231.39532081977,37.765096509651,630526.1853592,3184.1964829481,2499243.040044,42.965096509651,0,0
-31.845195287092,231.41687855092,37.769526952695,630526.1853592,3184.1964829481,2499243.040044,42.969526952695,0,0
-31.84519526999,231.43843628207,37.77395739574,630526.1853592,3184.1964829481,2499243.040044,42.97395739574,0,0
-31.845195252887,231.45999401322,37.778387838784,630526.1853592,3184.1964829481,2499243.040044,42.978387838784,0,0
-31.845195235785,231.48155174437,37.782818281828,630526.1853592,3184.1964829481,2499243.040044,42.982818281828,0,0
-31.845195218683,231.50310947552,37.787248724872,630526.1853592,3184.1964829481,2499243.040044,42.987248724872,0,0
-31.84519520158,231.52466720667,37.791679167917,630526.1853592,3184.1964829481,2499243.040044,42.991679167917,0,0
-31.845195184478,231.54622493782,37.796109610961,630526.1853592,3184.1964829481,2499243.040044,42.996109610961,0,0
-31.845195167376,231.56778266897,37.800540054005,630526.1853592,3184.1964829481,2499243.040044,43.000540054005,0,0
-31.845195150273,231.58934040012,37.80497049705,630526.1853592,3184.1964829481,2499243.040044,43.00497049705,0,0
-31.845195133171,231.61089813127,37.809400940094,630526.1853592,3184.1964829481,2499243.040044,43.009400940094,0,0
-31.845195116069,231.63245586242,37.813831383138,630526.1853592,3184.1964829481,2499243.040044,43.013831383138,0,0
-31.845195098966,231.65401359357,37.818261826183,630526.1853592,3184.1964829481,2499243.040044,43.018261826183,0,0
-31.845195081864,231.67557132472,37.822692269227,630526.1853592,3184.1964829481,2499243.040044,43.022692269227,0,0
-31.845195064761,231.69712905587,37.827122712271,630526.1853592,3184.1964829481,2499243.040044,43.027122712271,0,0
-31.845195047659,231.71868678702,37.831553155316,630526.1853592,3184.1964829481,2499243.040044,43.031553155316,0,0
-31.845195030557,231.74024451817,37.83598359836,630526.1853592,3184.1964829481,2499243.040044,43.03598359836,0,0
-31.845195013454,231.76180224932,37.840414041404,630526.1853592,3184.1964829481,2499243.040044,43.040414041404,0,0
-31.845194996352,231.78335998047,37.844844484448,630526.1853592,3184.1964829481,2499243.040044,43.044844484448,0,0
-31.84519497925,231.80491771162,37.849274927493,630526.1853592,3184.1964829481,2499243.040044,43.049274927493,0,0
-31.845194962147,231.82647544277,37.853705370537,630526.1853592,3184.1964829481,2499243.040044,43.053705370537,0,0
-31.845194945045,231.84803317392,37.858135813581,630526.1853592,3184.1964829481,2499243.040044,43.058135813581,0,0
-31.845194927943,231.86959090507,37.862566256626,630526.1853592,3184.1964829481,2499243.040044,43.062566256626,0,0
-31.84519491084,231.89114863622,37.86699669967,630526.1853592,3184.1964829481,2499243.040044,43.06699669967,0,0
-31.845194893738,231.91270636737,37.871427142714,630526.1853592,3184.1964829481,2499243.040044,43.071427142714,0,0
-31.845194876636,231.93426409852,37.875857585759,630526.1853592,3184.1964829481,2499243.040044,43.075857585759,0,0
-31.845194859533,231.95582182967,37.880288028803,630526.1853592,3184.1964829481,2499243.040044,43.080288028803,0,0
-31.845194842431,231.97737956082,37.884718471847,630526.1853592,3184.1964829481,2499243.040044,43.084718471847,0,0
-31.845194825329,231.99893729197,37.889148914891,630526.1853592,3184.1964829481,2499243.040044,43.089148914891,0,0
-31.845194808226,232.02049502312,37.893579357936,630526.1853592,3184.1964829481,2499243.040044,43.093579357936,0,0
-31.845194791124,232.04205275427,37.89800980098,630526.1853592,3184.1964829481,2499243.040044,43.09800980098,0,0
-31.845194774022,232.06361048542,37.902440244024,630526.1853592,3184.1964829481,2499243.040044,43.102440244024,0,0
-31.845194756919,232.08516821657,37.906870687069,630526.1853592,3184.1964829481,2499243.040044,43.106870687069,0,0
-31.845194739817,232.10672594772,37.911301130113,630526.1853592,3184.1964829481,2499243.040044,43.111301130113,0,0
-31.845194722714,232.12828367887,37.915731573157,630526.1853592,3184.1964829481,2499243.040044,43.115731573157,0,0
-31.845194705612,232.14984141002,37.920162016202,630526.1853592,3184.1964829481,2499243.040044,43.120162016202,0,0
-31.84519468851,232.17139914117,37.924592459246,630526.1853592,3184.1964829481,2499243.040044,43.124592459246,0,0
-31.845194671407,232.19295687232,37.92902290229,630526.1853592,3184.1964829481,2499243.040044,43.12902290229,0,0
-31.845194654305,232.21451460347,37.933453345335,630526.1853592,3184.1964829481,2499243.040044,43.133453345335,0,0
-31.845194637203,232.23607233462,37.937883788379,630526.1853592,3184.1964829481,2499243.040044,43.137883788379,0,0
-31.8451946201,232.25763006577,37.942314231423,630526.1853592,3184.1964829481,2499243.040044,43.142314231423,0,0
-31.845194602998,232.27918779692,37.946744674467,630526.1853592,3184.1964829481,2499243.040044,43.146744674467,0,0
-31.845194585896,232.30074552807,37.951175117512,630526.1853592,3184.1964829481,2499243.040044,43.151175117512,0,0
-31.845194568793,232.32230325922,37.955605560556,630526.1853592,3184.1964829481,2499243.040044,43.155605560556,0,0
-31.845194551691,232.34386099037,37.9600360036,630526.1853592,3184.1964829481,2499243.040044,43.1600360036,0,0
-31.845194534589,232.36541872152,37.964466446645,630526.1853592,3184.1964829481,2499243.040044,43.164466446645,0,0
-31.845194517486,232.38697645267,37.968896889689,630526.1853592,3184.1964829481,2499243.040044,43.168896889689,0,0
-31.845194500384,232.40853418382,37.973327332733,630526.1853592,3184.1964829481,2499243.040044,43.173327332733,0,0
-31.845194483282,232.43009191497,37.977757775778,630526.1853592,3184.1964829481,2499243.040044,43.177757775778,0,0
-31.845194466179,232.45164964612,37.982188218822,630526.1853592,3184.1964829481,2499243.040044,43.182188218822,0,0
-31.845194449077,232.47320737727,37.986618661866,630526.1853592,3184.1964829481,2499243.040044,43.186618661866,0,0
-31.845194431975,232.49476510842,37.99104910491,630526.1853592,3184.1964829481,2499243.040044,43.19104910491,0,0
-31.845194414872,232.51632283957,37.995479547955,630526.1853592,3184.1964829481,2499243.040044,43.195479547955,0,0
-31.84519439777,232.53788057072,37.999909990999,630526.1853592,3184.1964829481,2499243.040044,43.199909990999,0,0
-31.845194380668,232.55943830187,38.004340434043,630526.1853592,3184.1964829481,2499243.040044,43.204340434043,0,0
-31.845194363565,232.58099603302,38.008770877088,630526.1853592,3184.1964829481,2499243.040044,43.208770877088,0,0
-31.845194346463,232.60255376417,38.013201320132,630526.1853592,3184.1964829481,2499243.040044,43.213201320132,0,0
-31.84519432936,232.62411149532,38.017631763176,630526.1853592,3184.1964829481,2499243.040044,43.217631763176,0,0
-31.845194312258,232.64566922647,38.022062206221,630526.1853592,3184.1964829481,2499243.040044,43.222062206221,0,0
-31.845194295156,232.66722695762,38.026492649265,630526.1853592,3184.1964829481,2499243.040044,43.226492649265,0,0
-31.845194278053,232.68878468877,38.030923092309,630526.1853592,3184.1964829481,2499243.040044,43.230923092309,0,0
-31.845194260951,232.71034241992,38.035353535354,630526.1853592,3184.1964829481,2499243.040044,43.235353535354,0,0
-31.845194243849,232.73190015107,38.039783978398,630526.1853592,3184.1964829481,2499243.040044,43.239783978398,0,0
-31.845194226746,232.75345788222,38.044214421442,630526.1853592,3184.1964829481,2499243.040044,43.244214421442,0,0
-31.845194209644,232.77501561337,38.048644864486,630526.1853592,3184.1964829481,2499243.040044,43.248644864486,0,0
-31.845194192542,232.79657334452,38.053075307531,630526.1853592,3184.1964829481,2499243.040044,43.253075307531,0,0
-31.845194175439,232.81813107567,38.057505750575,630526.1853592,3184.1964829481,2499243.040044,43.257505750575,0,0
-31.845194158337,232.83968880682,38.061936193619,630526.1853592,3184.1964829481,2499243.040044,43.261936193619,0,0
-31.845194141235,232.86124653796,38.066366636664,630526.1853592,3184.1964829481,2499243.040044,43.266366636664,0,0
-31.845194124132,232.88280426911,38.070797079708,630526.1853592,3184.1964829481,2499243.040044,43.270797079708,0,0
-31.84519410703,232.90436200026,38.075227522752,630526.1853592,3184.1964829481,2499243.040044,43.275227522752,0,0
-31.845194089928,232.92591973141,38.079657965797,630526.1853592,3184.1964829481,2499243.040044,43.279657965797,0,0
-31.845194072825,232.94747746256,38.084088408841,630526.1853592,3184.1964829481,2499243.040044,43.284088408841,0,0
-31.845194055723,232.96903519371,38.088518851885,630526.1853592,3184.1964829481,2499243.040044,43.288518851885,0,0
-31.845194038621,232.99059292486,38.092949294929,630526.1853592,3184.1964829481,2499243.040044,43.292949294929,0,0
-31.845194021518,233.01215065601,38.097379737974,630526.1853592,3184.1964829481,2499243.040044,43.297379737974,0,0
-31.845194004416,233.03370838716,38.101810181018,630526.1853592,3184.1964829481,2499243.040044,43.301810181018,0,0
-31.845193987313,233.05526611831,38.106240624062,630526.1853592,3184.1964829481,2499243.040044,43.306240624062,0,0
-31.845193970211,233.07682384946,38.110671067107,630526.1853592,3184.1964829481,2499243.040044,43.310671067107,0,0
-31.845193953109,233.09838158061,38.115101510151,630526.1853592,3184.1964829481,2499243.040044,43.315101510151,0,0
-31.845193936006,233.11993931176,38.119531953195,630526.1853592,3184.1964829481,2499243.040044,43.319531953195,0,0
-31.845193918904,233.14149704291,38.12396239624,630526.1853592,3184.1964829481,2499243.040044,43.32396239624,0,0
-31.845193901802,233.16305477406,38.128392839284,630526.1853592,3184.1964829481,2499243.040044,43.328392839284,0,0
-31.845193884699,233.18461250521,38.132823282328,630526.1853592,3184.1964829481,2499243.040044,43.332823282328,0,0
-31.845193867597,233.20617023636,38.137253725373,630526.1853592,3184.1964829481,2499243.040044,43.337253725373,0,0
-31.845193850495,233.22772796751,38.141684168417,630526.1853592,3184.1964829481,2499243.040044,43.341684168417,0,0
-31.845193833392,233.24928569866,38.146114611461,630526.1853592,3184.1964829481,2499243.040044,43.346114611461,0,0
-31.84519381629,233.27084342981,38.150545054505,630526.1853592,3184.1964829481,2499243.040044,43.350545054505,0,0
-31.845193799188,233.29240116096,38.15497549755,630526.1853592,3184.1964829481,2499243.040044,43.35497549755,0,0
-31.845193782085,233.31395889211,38.159405940594,630526.1853592,3184.1964829481,2499243.040044,43.359405940594,0,0
-31.845193764983,233.33551662326,38.163836383638,630526.1853592,3184.1964829481,2499243.040044,43.363836383638,0,0
-31.845193747881,233.35707435441,38.168266826683,630526.1853592,3184.1964829481,2499243.040044,43.368266826683,0,0
-31.845193730778,233.37863208556,38.172697269727,630526.1853592,3184.1964829481,2499243.040044,43.372697269727,0,0
-31.845193713676,233.40018981671,38.177127712771,630526.1853592,3184.1964829481,2499243.040044,43.377127712771,0,0
-31.845193696574,233.42174754786,38.181558155816,630526.1853592,3184.1964829481,2499243.040044,43.381558155816,0,0
-31.845193679471,233.44330527901,38.18598859886,630526.1853592,3184.1964829481,2499243.040044,43.38598859886,0,0
-31.845193662369,233.46486301016,38.190419041904,630526.1853592,3184.1964829481,2499243.040044,43.390419041904,0,0
-31.845193645266,233.48642074131,38.194849484948,630526.1853592,3184.1964829481,2499243.040044,43.394849484948,0,0
-31.845193628164,233.50797847246,38.199279927993,630526.1853592,3184.1964829481,2499243.040044,43.399279927993,0,0
-31.845193611062,233.52953620361,38.203710371037,630526.1853592,3184.1964829481,2499243.040044,43.403710371037,0,0
-31.845193593959,233.55109393476,38.208140814081,630526.1853592,3184.1964829481,2499243.040044,43.408140814081,0,0
-31.845193576857,233.57265166591,38.212571257126,630526.1853592,3184.1964829481,2499243.040044,43.412571257126,0,0
-31.845193559755,233.59420939706,38.21700170017,630526.1853592,3184.1964829481,2499243.040044,43.41700170017,0,0
-31.845193542652,233.61576712821,38.221432143214,630526.1853592,3184.1964829481,2499243.040044,43.421432143214,0,0
-31.84519352555,233.63732485936,38.225862586259,630526.1853592,3184.1964829481,2499243.040044,43.425862586259,0,0
-31.845193508448,233.65888259051,38.230293029303,630526.1853592,3184.1964829481,2499243.040044,43.430293029303,0,0
-31.845193491345,233.68044032166,38.234723472347,630526.1853592,3184.1964829481,2499243.040044,43.434723472347,0,0
-31.845193474243,233.70199805281,38.239153915392,630526.1853592,3184.1964829481,2499243.040044,43.439153915392,0,0
-31.845193457141,233.72355578396,38.243584358436,630526.1853592,3184.1964829481,2499243.040044,43.443584358436,0,0
-31.845193440038,233.74511351511,38.24801480148,630526.1853592,3184.1964829481,2499243.040044,43.44801480148,0,0
-31.845193422936,233.76667124626,38.252445244524,630526.1853592,3184.1964829481,2499243.040044,43.452445244524,0,0
-31.845193405834,233.78822897741,38.256875687569,630526.1853592,3184.1964829481,2499243.040044,43.456875687569,0,0
-31.845193388731,233.80978670856,38.261306130613,630526.1853592,3184.1964829481,2499243.040044,43.461306130613,0,0
-31.845193371629,233.83134443971,38.265736573657,630526.1853592,3184.1964829481,2499243.040044,43.465736573657,0,0
-31.845193354527,233.85290217086,38.270167016702,630526.1853592,3184.1964829481,2499243.040044,43.470167016702,0,0
-31.845193337424,233.87445990201,38.274597459746,630526.1853592,3184.1964829481,2499243.040044,43.474597459746,0,0
-31.845193320322,233.89601763316,38.27902790279,630526.1853592,3184.1964829481,2499243.040044,43.47902790279,0,0
-31.84519330322,233.91757536431,38.283458345835,630526.1853592,3184.1964829481,2499243.040044,43.483458345835,0,0
-31.845193286117,233.93913309546,38.287888788879,630526.1853592,3184.1964829481,2499243.040044,43.487888788879,0,0
-31.845193269015,233.96069082661,38.292319231923,630526.1853592,3184.1964829481,2499243.040044,43.492319231923,0,0
-31.845193251912,233.98224855776,38.296749674967,630526.1853592,3184.1964829481,2499243.040044,43.496749674967,0,0
-31.84519323481,234.00380628891,38.301180118012,630526.1853592,3184.1964829481,2499243.040044,43.501180118012,0,0
-31.845193217708,234.02536402006,38.305610561056,630526.1853592,3184.1964829481,2499243.040044,43.505610561056,0,0
-31.845193200605,234.04692175121,38.3100410041,630526.1853592,3184.1964829481,2499243.040044,43.5100410041,0,0
-31.845193183503,234.06847948236,38.314471447145,630526.1853592,3184.1964829481,2499243.040044,43.514471447145,0,0
-31.845193166401,234.09003721351,38.318901890189,630526.1853592,3184.1964829481,2499243.040044,43.518901890189,0,0
-31.845193149298,234.11159494466,38.323332333233,630526.1853592,3184.1964829481,2499243.040044,43.523332333233,0,0
-31.845193132196,234.13315267581,38.327762776278,630526.1853592,3184.1964829481,2499243.040044,43.527762776278,0,0
-31.845193115094,234.15471040696,38.332193219322,630526.1853592,3184.1964829481,2499243.040044,43.532193219322,0,0
-31.845193097991,234.17626813811,38.336623662366,630526.1853592,3184.1964829481,2499243.040044,43.536623662366,0,0
-31.845193080889,234.19782586926,38.341054105411,630526.1853592,3184.1964829481,2499243.040044,43.541054105411,0,0
-31.845193063787,234.21938360041,38.345484548455,630526.1853592,3184.1964829481,2499243.040044,43.545484548455,0,0
-31.845193046684,234.24094133156,38.349914991499,630526.1853592,3184.1964829481,2499243.040044,43.549914991499,0,0
-31.845193029582,234.26249906271,38.354345434543,630526.1853592,3184.1964829481,2499243.040044,43.554345434543,0,0
-31.84519301248,234.28405679386,38.358775877588,630526.1853592,3184.1964829481,2499243.040044,43.558775877588,0,0
-31.845192995377,234.30561452501,38.363206320632,630526.1853592,3184.1964829481,2499243.040044,43.563206320632,0,0
-31.845192978275,234.32717225616,38.367636763676,630526.1853592,3184.1964829481,2499243.040044,43.567636763676,0,0
-31.845192961173,234.34872998731,38.372067206721,630526.1853592,3184.1964829481,2499243.040044,43.572067206721,0,0
-31.84519294407,234.37028771846,38.376497649765,630526.1853592,3184.1964829481,2499243.040044,43.576497649765,0,0
-31.845192926968,234.39184544961,38.380928092809,630526.1853592,3184.1964829481,2499243.040044,43.580928092809,0,0
-31.845192909865,234.41340318076,38.385358535854,630526.1853592,3184.1964829481,2499243.040044,43.585358535854,0,0
-31.845192892763,234.43496091191,38.389788978898,630526.1853592,3184.1964829481,2499243.040044,43.589788978898,0,0
-31.845192875661,234.45651864306,38.394219421942,630526.1853592,3184.1964829481,2499243.040044,43.594219421942,0,0
-31.845192858558,234.47807637421,38.398649864986,630526.1853592,3184.1964829481,2499243.040044,43.598649864986,0,0
-31.845192841456,234.49963410536,38.403080308031,630526.1853592,3184.1964829481,2499243.040044,43.603080308031,0,0
-31.845192824354,234.52119183651,38.407510751075,630526.1853592,3184.1964829481,2499243.040044,43.607510751075,0,0
-31.845192807251,234.54274956766,38.411941194119,630526.1853592,3184.1964829481,2499243.040044,43.611941194119,0,0
-31.845192790149,234.56430729881,38.416371637164,630526.1853592,3184.1964829481,2499243.040044,43.616371637164,0,0
-31.845192773047,234.58586502996,38.420802080208,630526.1853592,3184.1964829481,2499243.040044,43.620802080208,0,0
-31.845192755944,234.60742276111,38.425232523252,630526.1853592,3184.1964829481,2499243.040044,43.625232523252,0,0
-31.845192738842,234.62898049226,38.429662966297,630526.1853592,3184.1964829481,2499243.040044,43.629662966297,0,0
-31.84519272174,234.65053822341,38.434093409341,630526.1853592,3184.1964829481,2499243.040044,43.634093409341,0,0
-31.845192704637,234.67209595456,38.438523852385,630526.1853592,3184.1964829481,2499243.040044,43.638523852385,0,0
-31.845192687535,234.69365368571,38.44295429543,630526.1853592,3184.1964829481,2499243.040044,43.64295429543,0,0
-31.845192670433,234.71521141686,38.447384738474,630526.1853592,3184.1964829481,2499243.040044,43.647384738474,0,0
-31.84519265333,234.73676914801,38.451815181518,630526.1853592,3184.1964829481,2499243.040044,43.651815181518,0,0
-31.845192636228,234.75832687916,38.456245624562,630526.1853592,3184.1964829481,2499243.040044,43.656245624562,0,0
-31.845192619126,234.77988461031,38.460676067607,630526.1853592,3184.1964829481,2499243.040044,43.660676067607,0,0
-31.845192602023,234.80144234146,38.465106510651,630526.1853592,3184.1964829481,2499243.040044,43.665106510651,0,0
-31.845192584921,234.82300007261,38.469536953695,630526.1853592,3184.1964829481,2499243.040044,43.669536953695,0,0
-31.845192567818,234.84455780376,38.47396739674,630526.1853592,3184.1964829481,2499243.040044,43.67396739674,0,0
-31.845192550716,234.86611553491,38.478397839784,630526.1853592,3184.1964829481,2499243.040044,43.678397839784,0,0
-31.845192533614,234.88767326606,38.482828282828,630526.1853592,3184.1964829481,2499243.040044,43.682828282828,0,0
-31.845192516511,234.90923099721,38.487258725873,630526.1853592,3184.1964829481,2499243.040044,43.687258725873,0,0
-31.845192499409,234.93078872836,38.491689168917,630526.1853592,3184.1964829481,2499243.040044,43.691689168917,0,0
-31.845192482307,234.95234645951,38.496119611961,630526.1853592,3184.1964829481,2499243.040044,43.696119611961,0,0
-31.845192465204,234.97390419066,38.500550055005,630526.1853592,3184.1964829481,2499243.040044,43.700550055006,0,0
-31.845192448102,234.99546192181,38.50498049805,630526.1853592,3184.1964829481,2499243.040044,43.70498049805,0,0
-31.845192431,235.01701965296,38.509410941094,630526.1853592,3184.1964829481,2499243.040044,43.709410941094,0,0
-31.845192413897,235.03857738411,38.513841384138,630526.1853592,3184.1964829481,2499243.040044,43.713841384138,0,0
-31.845192396795,235.06013511526,38.518271827183,630526.1853592,3184.1964829481,2499243.040044,43.718271827183,0,0
-31.845192379693,235.08169284641,38.522702270227,630526.1853592,3184.1964829481,2499243.040044,43.722702270227,0,0
-31.84519236259,235.10325057756,38.527132713271,630526.1853592,3184.1964829481,2499243.040044,43.727132713271,0,0
-31.845192345488,235.12480830871,38.531563156316,630526.1853592,3184.1964829481,2499243.040044,43.731563156316,0,0
-31.845192328386,235.14636603986,38.53599359936,630526.1853592,3184.1964829481,2499243.040044,43.73599359936,0,0
-31.845192311283,235.16792377101,38.540424042404,630526.1853592,3184.1964829481,2499243.040044,43.740424042404,0,0
-31.845192294181,235.18948150216,38.544854485449,630526.1853592,3184.1964829481,2499243.040044,43.744854485449,0,0
-31.845192277079,235.21103923331,38.549284928493,630526.1853592,3184.1964829481,2499243.040044,43.749284928493,0,0
-31.845192259976,235.23259696446,38.553715371537,630526.1853592,3184.1964829481,2499243.040044,43.753715371537,0,0
-31.845192242874,235.25415469561,38.558145814581,630526.1853592,3184.1964829481,2499243.040044,43.758145814581,0,0
-31.845192225772,235.27571242676,38.562576257626,630526.1853592,3184.1964829481,2499243.040044,43.762576257626,0,0
-31.845192208669,235.29727015791,38.56700670067,630526.1853592,3184.1964829481,2499243.040044,43.76700670067,0,0
-31.845192191567,235.31882788906,38.571437143714,630526.1853592,3184.1964829481,2499243.040044,43.771437143714,0,0
-31.845192174464,235.34038562021,38.575867586759,630526.1853592,3184.1964829481,2499243.040044,43.775867586759,0,0
-31.845192157362,235.36194335136,38.580298029803,630526.1853592,3184.1964829481,2499243.040044,43.780298029803,0,0
-31.84519214026,235.38350108251,38.584728472847,630526.1853592,3184.1964829481,2499243.040044,43.784728472847,0,0
-31.845192123157,235.40505881366,38.589158915892,630526.1853592,3184.1964829481,2499243.040044,43.789158915892,0,0
-31.845192106055,235.42661654481,38.593589358936,630526.1853592,3184.1964829481,2499243.040044,43.793589358936,0,0
-31.845192088953,235.44817427596,38.59801980198,630526.1853592,3184.1964829481,2499243.040044,43.79801980198,0,0
-31.84519207185,235.46973200711,38.602450245024,630526.1853592,3184.1964829481,2499243.040044,43.802450245025,0,0
-31.845192054748,235.49128973826,38.606880688069,630526.1853592,3184.1964829481,2499243.040044,43.806880688069,0,0
-31.845192037646,235.51284746941,38.611311131113,630526.1853592,3184.1964829481,2499243.040044,43.811311131113,0,0
-31.845192020543,235.53440520056,38.615741574157,630526.1853592,3184.1964829481,2499243.040044,43.815741574157,0,0
-31.845192003441,235.55596293171,38.620172017202,630526.1853592,3184.1964829481,2499243.040044,43.820172017202,0,0
-31.845191986339,235.57752066286,38.624602460246,630526.1853592,3184.1964829481,2499243.040044,43.824602460246,0,0
-31.845191969236,235.59907839401,38.62903290329,630526.1853592,3184.1964829481,2499243.040044,43.82903290329,0,0
-31.845191952134,235.62063612516,38.633463346335,630526.1853592,3184.1964829481,2499243.040044,43.833463346335,0,0
-31.845191935032,235.64219385631,38.637893789379,630526.1853592,3184.1964829481,2499243.040044,43.837893789379,0,0
-31.845191917929,235.66375158746,38.642324232423,630526.1853592,3184.1964829481,2499243.040044,43.842324232423,0,0
-31.845191900827,235.68530931861,38.646754675468,630526.1853592,3184.1964829481,2499243.040044,43.846754675468,0,0
-31.845191883725,235.70686704976,38.651185118512,630526.1853592,3184.1964829481,2499243.040044,43.851185118512,0,0
-31.845191866622,235.72842478091,38.655615561556,630526.1853592,3184.1964829481,2499243.040044,43.855615561556,0,0
-31.84519184952,235.74998251206,38.6600460046,630526.1853592,3184.1964829481,2499243.040044,43.8600460046,0,0
-31.845191832417,235.77154024321,38.664476447645,630526.1853592,3184.1964829481,2499243.040044,43.864476447645,0,0
-31.845191815315,235.79309797436,38.668906890689,630526.1853592,3184.1964829481,2499243.040044,43.868906890689,0,0
-31.845191798213,235.81465570551,38.673337333733,630526.1853592,3184.1964829481,2499243.040044,43.873337333733,0,0
-31.84519178111,235.83621343666,38.677767776778,630526.1853592,3184.1964829481,2499243.040044,43.877767776778,0,0
-31.845191764008,235.85777116781,38.682198219822,630526.1853592,3184.1964829481,2499243.040044,43.882198219822,0,0
-31.845191746906,235.87932889896,38.686628662866,630526.1853592,3184.1964829481,2499243.040044,43.886628662866,0,0
-31.845191729803,235.90088663011,38.691059105911,630526.1853592,3184.1964829481,2499243.040044,43.891059105911,0,0
-31.845191712701,235.92244436126,38.695489548955,630526.1853592,3184.1964829481,2499243.040044,43.895489548955,0,0
-31.845191695599,235.94400209241,38.699919991999,630526.1853592,3184.1964829481,2499243.040044,43.899919991999,0,0
-31.845191678496,235.96555982356,38.704350435044,630526.1853592,3184.1964829481,2499243.040044,43.904350435044,0,0
-31.845191661394,235.98711755471,38.708780878088,630526.1853592,3184.1964829481,2499243.040044,43.908780878088,0,0
-31.845191644292,236.00867528586,38.713211321132,630526.1853592,3184.1964829481,2499243.040044,43.913211321132,0,0
-31.845191627135,236.03023301679,38.717641764176,630829.40332833,-345.37810734044,2491784.9970984,43.917641764176,0,0
-31.84519160981,236.05179074704,38.722072207221,630829.40332833,-345.37810734044,2491784.9970984,43.922072207221,0,0
-31.845191592485,236.07334847729,38.726502650265,630829.40332833,-345.37810734044,2491784.9970984,43.926502650265,0,0
-31.84519157516,236.09490620753,38.730933093309,630829.40332833,-345.37810734044,2491784.9970984,43.930933093309,0,0
-31.845191557835,236.11646393778,38.735363536354,630829.40332833,-345.37810734044,2491784.9970984,43.935363536354,0,0
-31.845191540509,236.13802166803,38.739793979398,630829.40332833,-345.37810734044,2491784.9970984,43.939793979398,0,0
-31.845191523199,236.15957939895,38.744224422442,628783.88364368,3532.4903225841,2486345.6501117,43.944224422442,0,0
-31.845191505893,236.18113713001,38.748654865487,628783.88364368,3532.4903225841,2486345.6501117,43.948654865487,0,0
-31.845191488586,236.20269486108,38.753085308531,628783.88364368,3532.4903225841,2486345.6501117,43.953085308531,0,0
-31.84519147128,236.22425259215,38.757515751575,628783.88364368,3532.4903225841,2486345.6501117,43.957515751575,0,0
-31.845191453973,236.24581032321,38.761946194619,628783.88364368,3532.4903225841,2486345.6501117,43.961946194619,0,0
-31.845191436667,236.26736805428,38.766376637664,628783.88364368,3532.4903225841,2486345.6501117,43.966376637664,0,0
-31.84519141936,236.28892578535,38.770807080708,628783.88364368,3532.4903225841,2486345.6501117,43.970807080708,0,0
-31.845191402053,236.31048351641,38.775237523752,628783.88364368,3532.4903225841,2486345.6501117,43.975237523752,0,0
-31.845191384747,236.33204124748,38.779667966797,628783.88364368,3532.4903225841,2486345.6501117,43.979667966797,0,0
-31.84519136744,236.35359897854,38.784098409841,628783.88364368,3532.4903225841,2486345.6501117,43.984098409841,0,0
-31.845191350134,236.37515670961,38.788528852885,628783.88364368,3532.4903225841,2486345.6501117,43.988528852885,0,0
-31.845191332827,236.39671444068,38.79295929593,628783.88364368,3532.4903225841,2486345.6501117,43.99295929593,0,0
-31.845191315521,236.41827217174,38.797389738974,628783.88364368,3532.4903225841,2486345.6501117,43.997389738974,0,0
-31.845191298214,236.43982990281,38.801820182018,628783.88364368,3532.4903225841,2486345.6501117,44.001820182018,0,0
-31.845191280907,236.46138763387,38.806250625063,628783.88364368,3532.4903225841,2486345.6501117,44.006250625063,0,0
-31.845191263601,236.48294536494,38.810681068107,628783.88364368,3532.4903225841,2486345.6501117,44.010681068107,0,0
-31.845191246294,236.50450309601,38.815111511151,628783.88364368,3532.4903225841,2486345.6501117,44.015111511151,0,0
-31.845191228988,236.52606082707,38.819541954195,628783.88364368,3532.4903225841,2486345.6501117,44.019541954195,0,0
-31.845191211681,236.54761855814,38.82397239724,628783.88364368,3532.4903225841,2486345.6501117,44.02397239724,0,0
-31.845191194374,236.56917628921,38.828402840284,628783.88364368,3532.4903225841,2486345.6501117,44.028402840284,0,0
-31.845191177068,236.59073402027,38.832833283328,628783.88364368,3532.4903225841,2486345.6501117,44.032833283328,0,0
-31.845191159761,236.61229175134,38.837263726373,628783.88364368,3532.4903225841,2486345.6501117,44.037263726373,0,0
-31.845191142455,236.6338494824,38.841694169417,628783.88364368,3532.4903225841,2486345.6501117,44.041694169417,0,0
-31.845191125148,236.65540721347,38.846124612461,628783.88364368,3532.4903225841,2486345.6501117,44.046124612461,0,0
-31.845191107842,236.67696494454,38.850555055506,628783.88364368,3532.4903225841,2486345.6501117,44.050555055506,0,0
-31.845191090535,236.6985226756,38.85498549855,628783.88364368,3532.4903225841,2486345.6501117,44.05498549855,0,0
-31.845191073228,236.72008040667,38.859415941594,628783.88364368,3532.4903225841,2486345.6501117,44.059415941594,0,0
-31.845191055922,236.74163813774,38.863846384638,628783.88364368,3532.4903225841,2486345.6501117,44.063846384638,0,0
-31.845191038615,236.7631958688,38.868276827683,628783.88364368,3532.4903225841,2486345.6501117,44.068276827683,0,0
-31.845191021309,236.78475359987,38.872707270727,628783.88364368,3532.4903225841,2486345.6501117,44.072707270727,0,0
-31.845191004002,236.80631133093,38.877137713771,628783.88364368,3532.4903225841,2486345.6501117,44.077137713771,0,0
-31.845190986696,236.827869062,38.881568156816,628783.88364368,3532.4903225841,2486345.6501117,44.081568156816,0,0
-31.845190969389,236.84942679307,38.88599859986,628783.88364368,3532.4903225841,2486345.6501117,44.08599859986,0,0
-31.845190952082,236.87098452413,38.890429042904,628783.88364368,3532.4903225841,2486345.6501117,44.090429042904,0,0
-31.845190934776,236.8925422552,38.894859485949,628783.88364368,3532.4903225841,2486345.6501117,44.094859485949,0,0
-31.845190917469,236.91409998627,38.899289928993,628783.88364368,3532.4903225841,2486345.6501117,44.099289928993,0,0
-31.845190900163,236.93565771733,38.903720372037,628783.88364368,3532.4903225841,2486345.6501117,44.103720372037,0,0
-31.845190882856,236.9572154484,38.908150815082,628783.88364368,3532.4903225841,2486345.6501117,44.108150815082,0,0
-31.845190865549,236.97877317946,38.912581258126,628783.88364368,3532.4903225841,2486345.6501117,44.112581258126,0,0
-31.845190848243,237.00033091053,38.91701170117,628783.88364368,3532.4903225841,2486345.6501117,44.11701170117,0,0
-31.845190830936,237.0218886416,38.921442144214,628783.88364368,3532.4903225841,2486345.6501117,44.121442144214,0,0
-31.84519081363,237.04344637266,38.925872587259,628783.88364368,3532.4903225841,2486345.6501117,44.125872587259,0,0
-31.845190796323,237.06500410373,38.930303030303,628783.88364368,3532.4903225841,2486345.6501117,44.130303030303,0,0
-31.845190779017,237.08656183479,38.934733473347,628783.88364368,3532.4903225841,2486345.6501117,44.134733473347,0,0
-31.84519076171,237.10811956586,38.939163916392,628783.88364368,3532.4903225841,2486345.6501117,44.139163916392,0,0
-31.845190744403,237.12967729693,38.943594359436,628783.88364368,3532.4903225841,2486345.6501117,44.143594359436,0,0
-31.845190727097,237.15123502799,38.94802480248,628783.88364368,3532.4903225841,2486345.6501117,44.14802480248,0,0
-31.84519070979,237.17279275906,38.952455245525,628783.88364368,3532.4903225841,2486345.6501117,44.152455245525,0,0
-31.845190692484,237.19435049013,38.956885688569,628783.88364368,3532.4903225841,2486345.6501117,44.156885688569,0,0
-31.845190675177,237.21590822119,38.961316131613,628783.88364368,3532.4903225841,2486345.6501117,44.161316131613,0,0
-31.845190657871,237.23746595226,38.965746574657,628783.88364368,3532.4903225841,2486345.6501117,44.165746574657,0,0
-31.845190640564,237.25902368332,38.970177017702,628783.88364368,3532.4903225841,2486345.6501117,44.170177017702,0,0
-31.845190623257,237.28058141439,38.974607460746,628783.88364368,3532.4903225841,2486345.6501117,44.174607460746,0,0
-31.845190605951,237.30213914546,38.97903790379,628783.88364368,3532.4903225841,2486345.6501117,44.17903790379,0,0
-31.845190588644,237.32369687652,38.983468346835,628783.88364368,3532.4903225841,2486345.6501117,44.183468346835,0,0
-31.845190571338,237.34525460759,38.987898789879,628783.88364368,3532.4903225841,2486345.6501117,44.187898789879,0,0
-31.845190554031,237.36681233866,38.992329232923,628783.88364368,3532.4903225841,2486345.6501117,44.192329232923,0,0
-31.845190536725,237.38837006972,38.996759675968,628783.88364368,3532.4903225841,2486345.6501117,44.196759675968,0,0
-31.845190519418,237.40992780079,39.001190119012,628783.88364368,3532.4903225841,2486345.6501117,44.201190119012,0,0
-31.845190502111,237.43148553185,39.005620562056,628783.88364368,3532.4903225841,2486345.6501117,44.205620562056,0,0
-31.845190484805,237.45304326292,39.010051005101,628783.88364368,3532.4903225841,2486345.6501117,44.210051005101,0,0
-31.845190467498,237.47460099399,39.014481448145,628783.88364368,3532.4903225841,2486345.6501117,44.214481448145,0,0
-31.845190450192,237.49615872505,39.018911891189,628783.88364368,3532.4903225841,2486345.6501117,44.218911891189,0,0
-31.845190432885,237.51771645612,39.023342334233,628783.88364368,3532.4903225841,2486345.6501117,44.223342334233,0,0
-31.845190415578,237.53927418719,39.027772777278,628783.88364368,3532.4903225841,2486345.6501117,44.227772777278,0,0
-31.845190398272,237.56083191825,39.032203220322,628783.88364368,3532.4903225841,2486345.6501117,44.232203220322,0,0
-31.845190380965,237.58238964932,39.036633663366,628783.88364368,3532.4903225841,2486345.6501117,44.236633663366,0,0
-31.845190363659,237.60394738038,39.041064106411,628783.88364368,3532.4903225841,2486345.6501117,44.241064106411,0,0
-31.845190346352,237.62550511145,39.045494549455,628783.88364368,3532.4903225841,2486345.6501117,44.245494549455,0,0
-31.845190329046,237.64706284252,39.049924992499,628783.88364368,3532.4903225841,2486345.6501117,44.249924992499,0,0
-31.845190311739,237.66862057358,39.054355435544,628783.88364368,3532.4903225841,2486345.6501117,44.254355435544,0,0
-31.845190294432,237.69017830465,39.058785878588,628783.88364368,3532.4903225841,2486345.6501117,44.258785878588,0,0
-31.845190277126,237.71173603572,39.063216321632,628783.88364368,3532.4903225841,2486345.6501117,44.263216321632,0,0
-31.845190259819,237.73329376678,39.067646764676,628783.88364368,3532.4903225841,2486345.6501117,44.267646764676,0,0
-31.845190242513,237.75485149785,39.072077207721,628783.88364368,3532.4903225841,2486345.6501117,44.272077207721,0,0
-31.845190225206,237.77640922891,39.076507650765,628783.88364368,3532.4903225841,2486345.6501117,44.276507650765,0,0
-31.8451902079,237.79796695998,39.080938093809,628783.88364368,3532.4903225841,2486345.6501117,44.280938093809,0,0
-31.845190190593,237.81952469105,39.085368536854,628783.88364368,3532.4903225841,2486345.6501117,44.285368536854,0,0
-31.845190173286,237.84108242211,39.089798979898,628783.88364368,3532.4903225841,2486345.6501117,44.289798979898,0,0
-31.84519015598,237.86264015318,39.094229422942,628783.88364368,3532.4903225841,2486345.6501117,44.294229422942,0,0
-31.845190138673,237.88419788424,39.098659865987,628783.88364368,3532.4903225841,2486345.6501117,44.298659865987,0,0
-31.845190121367,237.90575561531,39.103090309031,628783.88364368,3532.4903225841,2486345.6501117,44.303090309031,0,0
-31.84519010406,237.92731334638,39.107520752075,628783.88364368,3532.4903225841,2486345.6501117,44.307520752075,0,0
-31.845190086753,237.94887107744,39.11195119512,628783.88364368,3532.4903225841,2486345.6501117,44.31195119512,0,0
-31.845190069447,237.97042880851,39.116381638164,628783.88364368,3532.4903225841,2486345.6501117,44.316381638164,0,0
-31.84519005214,237.99198653958,39.120812081208,628783.88364368,3532.4903225841,2486345.6501117,44.320812081208,0,0
-31.845190034834,238.01354427064,39.125242524252,628783.88364368,3532.4903225841,2486345.6501117,44.325242524252,0,0
-31.845190017527,238.03510200171,39.129672967297,628783.88364368,3532.4903225841,2486345.6501117,44.329672967297,0,0
-31.845190000221,238.05665973277,39.134103410341,628783.88364368,3532.4903225841,2486345.6501117,44.334103410341,0,0
-31.845189982914,238.07821746384,39.138533853385,628783.88364368,3532.4903225841,2486345.6501117,44.338533853385,0,0
-31.845189965607,238.09977519491,39.14296429643,628783.88364368,3532.4903225841,2486345.6501117,44.34296429643,0,0
-31.845189948301,238.12133292597,39.147394739474,628783.88364368,3532.4903225841,2486345.6501117,44.347394739474,0,0
-31.845189930994,238.14289065704,39.151825182518,628783.88364368,3532.4903225841,2486345.6501117,44.351825182518,0,0
-31.845189913688,238.16444838811,39.156255625563,628783.88364368,3532.4903225841,2486345.6501117,44.356255625563,0,0
-31.845189896381,238.18600611917,39.160686068607,628783.88364368,3532.4903225841,2486345.6501117,44.360686068607,0,0
-31.845189879075,238.20756385024,39.165116511651,628783.88364368,3532.4903225841,2486345.6501117,44.365116511651,0,0
-31.845189861768,238.2291215813,39.169546954695,628783.88364368,3532.4903225841,2486345.6501117,44.369546954695,0,0
-31.845189844461,238.25067931237,39.17397739774,628783.88364368,3532.4903225841,2486345.6501117,44.37397739774,0,0
-31.845189827155,238.27223704344,39.178407840784,628783.88364368,3532.4903225841,2486345.6501117,44.378407840784,0,0
-31.845189809848,238.2937947745,39.182838283828,628783.88364368,3532.4903225841,2486345.6501117,44.382838283828,0,0
-31.845189792542,238.31535250557,39.187268726873,628783.88364368,3532.4903225841,2486345.6501117,44.387268726873,0,0
-31.845189775235,238.33691023664,39.191699169917,628783.88364368,3532.4903225841,2486345.6501117,44.391699169917,0,0
-31.845189757928,238.3584679677,39.196129612961,628783.88364368,3532.4903225841,2486345.6501117,44.396129612961,0,0
-31.845189740622,238.38002569877,39.200560056006,628783.88364368,3532.4903225841,2486345.6501117,44.400560056006,0,0
-31.845189723315,238.40158342983,39.20499049905,628783.88364368,3532.4903225841,2486345.6501117,44.40499049905,0,0
-31.845189706009,238.4231411609,39.209420942094,628783.88364368,3532.4903225841,2486345.6501117,44.409420942094,0,0
-31.845189688702,238.44469889197,39.213851385139,628783.88364368,3532.4903225841,2486345.6501117,44.413851385139,0,0
-31.845189671396,238.46625662303,39.218281828183,628783.88364368,3532.4903225841,2486345.6501117,44.418281828183,0,0
-31.845189654089,238.4878143541,39.222712271227,628783.88364368,3532.4903225841,2486345.6501117,44.422712271227,0,0
-31.845189636782,238.50937208516,39.227142714271,628783.88364368,3532.4903225841,2486345.6501117,44.427142714271,0,0
-31.845189619476,238.53092981623,39.231573157316,628783.88364368,3532.4903225841,2486345.6501117,44.431573157316,0,0
-31.845189602169,238.5524875473,39.23600360036,628783.88364368,3532.4903225841,2486345.6501117,44.43600360036,0,0
-31.845189584863,238.57404527836,39.240434043404,628783.88364368,3532.4903225841,2486345.6501117,44.440434043404,0,0
-31.845189567556,238.59560300943,39.244864486449,628783.88364368,3532.4903225841,2486345.6501117,44.444864486449,0,0
-31.84518955025,238.6171607405,39.249294929493,628783.88364368,3532.4903225841,2486345.6501117,44.449294929493,0,0
-31.845189532943,238.63871847156,39.253725372537,628783.88364368,3532.4903225841,2486345.6501117,44.453725372537,0,0
-31.845189515636,238.66027620263,39.258155815582,628783.88364368,3532.4903225841,2486345.6501117,44.458155815582,0,0
-31.84518949833,238.68183393369,39.262586258626,628783.88364368,3532.4903225841,2486345.6501117,44.462586258626,0,0
-31.845189481023,238.70339166476,39.26701670167,628783.88364368,3532.4903225841,2486345.6501117,44.46701670167,0,0
-31.845189463717,238.72494939583,39.271447144714,628783.88364368,3532.4903225841,2486345.6501117,44.471447144714,0,0
-31.84518944641,238.74650712689,39.275877587759,628783.88364368,3532.4903225841,2486345.6501117,44.475877587759,0,0
-31.845189429104,238.76806485796,39.280308030803,628783.88364368,3532.4903225841,2486345.6501117,44.480308030803,0,0
-31.845189411797,238.78962258903,39.284738473847,628783.88364368,3532.4903225841,2486345.6501117,44.484738473847,0,0
-31.84518939449,238.81118032009,39.289168916892,628783.88364368,3532.4903225841,2486345.6501117,44.489168916892,0,0
-31.845189377184,238.83273805116,39.293599359936,628783.88364368,3532.4903225841,2486345.6501117,44.493599359936,0,0
-31.845189359877,238.85429578222,39.29802980298,628783.88364368,3532.4903225841,2486345.6501117,44.49802980298,0,0
-31.845189342571,238.87585351329,39.302460246025,628783.88364368,3532.4903225841,2486345.6501117,44.502460246025,0,0
-31.845189325264,238.89741124436,39.306890689069,628783.88364368,3532.4903225841,2486345.6501117,44.506890689069,0,0
-31.845189307957,238.91896897542,39.311321132113,628783.88364368,3532.4903225841,2486345.6501117,44.511321132113,0,0
-31.845189290651,238.94052670649,39.315751575158,628783.88364368,3532.4903225841,2486345.6501117,44.515751575158,0,0
-31.845189273344,238.96208443756,39.320182018202,628783.88364368,3532.4903225841,2486345.6501117,44.520182018202,0,0
-31.845189256038,238.98364216862,39.324612461246,628783.88364368,3532.4903225841,2486345.6501117,44.524612461246,0,0
-31.845189238731,239.00519989969,39.32904290429,628783.88364368,3532.4903225841,2486345.6501117,44.52904290429,0,0
-31.84518922138,239.02675763076,39.333473347335,629014.96528923,-3318.9880679175,2485095.1945035,44.533473347335,0,0
-31.845189204022,239.04831536183,39.337903790379,629014.96528923,-3318.9880679175,2485095.1945035,44.537903790379,0,0
-31.845189186663,239.0698730929,39.342334233423,629014.96528923,-3318.9880679175,2485095.1945035,44.542334233423,0,0
-31.845189169305,239.09143082397,39.346764676468,629014.96528923,-3318.9880679175,2485095.1945035,44.546764676468,0,0
-31.845189151947,239.11298855504,39.351195119512,629014.96528923,-3318.9880679175,2485095.1945035,44.551195119512,0,0
-31.845189134588,239.13454628611,39.355625562556,629014.96528923,-3318.9880679175,2485095.1945035,44.555625562556,0,0
-31.84518911723,239.15610401718,39.360056005601,629014.96528923,-3318.9880679175,2485095.1945035,44.560056005601,0,0
-31.845189099872,239.17766174825,39.364486448645,629014.96528923,-3318.9880679175,2485095.1945035,44.564486448645,0,0
-31.845189082513,239.19921947932,39.368916891689,629014.96528923,-3318.9880679175,2485095.1945035,44.568916891689,0,0
-31.845189065155,239.22077721039,39.373347334733,629014.96528923,-3318.9880679175,2485095.1945035,44.573347334733,0,0
-31.845189047797,239.24233494146,39.377777777778,629014.96528923,-3318.9880679175,2485095.1945035,44.577777777778,0,0
-31.845189030438,239.26389267253,39.382208220822,629014.96528923,-3318.9880679175,2485095.1945035,44.582208220822,0,0
-31.84518901308,239.2854504036,39.386638663866,629014.96528923,-3318.9880679175,2485095.1945035,44.586638663866,0,0
-31.845188995722,239.30700813467,39.391069106911,629014.96528923,-3318.9880679175,2485095.1945035,44.591069106911,0,0
-31.845188978363,239.32856586574,39.395499549955,629014.96528923,-3318.9880679175,2485095.1945035,44.595499549955,0,0
-31.845188961005,239.35012359681,39.399929992999,629014.96528923,-3318.9880679175,2485095.1945035,44.599929992999,0,0
-31.845188943647,239.37168132788,39.404360436044,629014.96528923,-3318.9880679175,2485095.1945035,44.604360436044,0,0
-31.845188926288,239.39323905895,39.408790879088,629014.96528923,-3318.9880679175,2485095.1945035,44.608790879088,0,0
-31.84518890893,239.41479679002,39.413221322132,629014.96528923,-3318.9880679175,2485095.1945035,44.613221322132,0,0
-31.845188891572,239.43635452109,39.417651765177,629014.96528923,-3318.9880679175,2485095.1945035,44.617651765177,0,0
-31.845188874213,239.45791225216,39.422082208221,629014.96528923,-3318.9880679175,2485095.1945035,44.622082208221,0,0
-31.845188856855,239.47946998323,39.426512651265,629014.96528923,-3318.9880679175,2485095.1945035,44.626512651265,0,0
-31.845188839497,239.5010277143,39.430943094309,629014.96528923,-3318.9880679175,2485095.1945035,44.630943094309,0,0
-31.845188822138,239.52258544537,39.435373537354,629014.96528923,-3318.9880679175,2485095.1945035,44.635373537354,0,0
-31.84518880478,239.54414317644,39.439803980398,629014.96528923,-3318.9880679175,2485095.1945035,44.639803980398,0,0
-31.845188787422,239.56570090751,39.444234423442,629014.96528923,-3318.9880679175,2485095.1945035,44.644234423442,0,0
-31.845188770063,239.58725863858,39.448664866487,629014.96528923,-3318.9880679175,2485095.1945035,44.648664866487,0,0
-31.845188752705,239.60881636965,39.453095309531,629014.96528923,-3318.9880679175,2485095.1945035,44.653095309531,0,0
-31.845188735347,239.63037410072,39.457525752575,629014.96528923,-3318.9880679175,2485095.1945035,44.657525752575,0,0
-31.845188717988,239.65193183179,39.46195619562,629014.96528923,-3318.9880679175,2485095.1945035,44.66195619562,0,0
-31.84518870063,239.67348956286,39.466386638664,629014.96528923,-3318.9880679175,2485095.1945035,44.666386638664,0,0
-31.845188683272,239.69504729393,39.470817081708,629014.96528923,-3318.9880679175,2485095.1945035,44.670817081708,0,0
-31.845188665913,239.716605025,39.475247524752,629014.96528923,-3318.9880679175,2485095.1945035,44.675247524752,0,0
-31.845188648555,239.73816275607,39.479677967797,629014.96528923,-3318.9880679175,2485095.1945035,44.679677967797,0,0
-31.845188631197,239.75972048714,39.484108410841,629014.96528923,-3318.9880679175,2485095.1945035,44.684108410841,0,0
-31.845188613839,239.78127821821,39.488538853885,629014.96528923,-3318.9880679175,2485095.1945035,44.688538853885,0,0
-31.84518859648,239.80283594928,39.49296929693,629014.96528923,-3318.9880679175,2485095.1945035,44.69296929693,0,0
-31.845188579122,239.82439368035,39.497399739974,629014.96528923,-3318.9880679175,2485095.1945035,44.697399739974,0,0
-31.845188561764,239.84595141142,39.501830183018,629014.96528923,-3318.9880679175,2485095.1945035,44.701830183018,0,0
-31.845188544405,239.86750914249,39.506260626063,629014.96528923,-3318.9880679175,2485095.1945035,44.706260626063,0,0
-31.845188527047,239.88906687356,39.510691069107,629014.96528923,-3318.9880679175,2485095.1945035,44.710691069107,0,0
-31.845188509689,239.91062460463,39.515121512151,629014.96528923,-3318.9880679175,2485095.1945035,44.715121512151,0,0
-31.84518849233,239.9321823357,39.519551955196,629014.96528923,-3318.9880679175,2485095.1945035,44.719551955196,0,0
-31.845188474972,239.95374006677,39.52398239824,629014.96528923,-3318.9880679175,2485095.1945035,44.72398239824,0,0
-31.845188457614,239.97529779784,39.528412841284,629014.96528923,-3318.9880679175,2485095.1945035,44.728412841284,0,0
-31.845188440255,239.99685552891,39.532843284328,629014.96528923,-3318.9880679175,2485095.1945035,44.732843284328,0,0
-31.845188422897,240.01841325998,39.537273727373,629014.96528923,-3318.9880679175,2485095.1945035,44.737273727373,0,0
-31.845188405539,240.03997099105,39.541704170417,629014.96528923,-3318.9880679175,2485095.1945035,44.741704170417,0,0
-31.84518838818,240.06152872212,39.546134613461,629014.96528923,-3318.9880679175,2485095.1945035,44.746134613461,0,0
-31.845188370822,240.08308645319,39.550565056506,629014.96528923,-3318.9880679175,2485095.1945035,44.750565056506,0,0
-31.845188353464,240.10464418426,39.55499549955,629014.96528923,-3318.9880679175,2485095.1945035,44.75499549955,0,0
-31.845188336105,240.12620191533,39.559425942594,629014.96528923,-3318.9880679175,2485095.1945035,44.759425942594,0,0
-31.845188318747,240.1477596464,39.563856385639,629014.96528923,-3318.9880679175,2485095.1945035,44.763856385639,0,0
-31.845188301389,240.16931737747,39.568286828683,629014.96528923,-3318.9880679175,2485095.1945035,44.768286828683,0,0
-31.84518828403,240.19087510854,39.572717271727,629014.96528923,-3318.9880679175,2485095.1945035,44.772717271727,0,0
-31.845188266672,240.21243283961,39.577147714771,629014.96528923,-3318.9880679175,2485095.1945035,44.777147714771,0,0
-31.845188249314,240.23399057068,39.581578157816,629014.96528923,-3318.9880679175,2485095.1945035,44.781578157816,0,0
-31.845188231955,240.25554830175,39.58600860086,629014.96528923,-3318.9880679175,2485095.1945035,44.78600860086,0,0
-31.845188214597,240.27710603282,39.590439043904,629014.96528923,-3318.9880679175,2485095.1945035,44.790439043904,0,0
-31.845188197239,240.29866376389,39.594869486949,629014.96528923,-3318.9880679175,2485095.1945035,44.794869486949,0,0
-31.84518817988,240.32022149496,39.599299929993,629014.96528923,-3318.9880679175,2485095.1945035,44.799299929993,0,0
-31.845188162522,240.34177922603,39.603730373037,629014.96528923,-3318.9880679175,2485095.1945035,44.803730373037,0,0
-31.845188145164,240.3633369571,39.608160816082,629014.96528923,-3318.9880679175,2485095.1945035,44.808160816082,0,0
-31.845188127805,240.38489468817,39.612591259126,629014.96528923,-3318.9880679175,2485095.1945035,44.812591259126,0,0
-31.845188110447,240.40645241923,39.61702170217,629014.96528923,-3318.9880679175,2485095.1945035,44.81702170217,0,0
-31.845188093089,240.4280101503,39.621452145215,629014.96528923,-3318.9880679175,2485095.1945035,44.821452145215,0,0
-31.84518807573,240.44956788137,39.625882588259,629014.96528923,-3318.9880679175,2485095.1945035,44.825882588259,0,0
-31.845188058372,240.47112561244,39.630313031303,629014.96528923,-3318.9880679175,2485095.1945035,44.830313031303,0,0
-31.845188041014,240.49268334351,39.634743474347,629014.96528923,-3318.9880679175,2485095.1945035,44.834743474347,0,0
-31.845188023655,240.51424107458,39.639173917392,629014.96528923,-3318.9880679175,2485095.1945035,44.839173917392,0,0
-31.845188006297,240.53579880565,39.643604360436,629014.96528923,-3318.9880679175,2485095.1945035,44.843604360436,0,0
-31.845187988939,240.55735653672,39.64803480348,629014.96528923,-3318.9880679175,2485095.1945035,44.84803480348,0,0
-31.84518797158,240.57891426779,39.652465246525,629014.96528923,-3318.9880679175,2485095.1945035,44.852465246525,0,0
-31.845187954222,240.60047199886,39.656895689569,629014.96528923,-3318.9880679175,2485095.1945035,44.856895689569,0,0
-31.845187936864,240.62202972993,39.661326132613,629014.96528923,-3318.9880679175,2485095.1945035,44.861326132613,0,0
-31.845187919505,240.643587461,39.665756575658,629014.96528923,-3318.9880679175,2485095.1945035,44.865756575658,0,0
-31.845187902147,240.66514519207,39.670187018702,629014.96528923,-3318.9880679175,2485095.1945035,44.870187018702,0,0
-31.845187884789,240.68670292314,39.674617461746,629014.96528923,-3318.9880679175,2485095.1945035,44.874617461746,0,0
-31.84518786743,240.70826065421,39.67904790479,629014.96528923,-3318.9880679175,2485095.1945035,44.87904790479,0,0
-31.845187850072,240.72981838528,39.683478347835,629014.96528923,-3318.9880679175,2485095.1945035,44.883478347835,0,0
-31.845187832714,240.75137611635,39.687908790879,629014.96528923,-3318.9880679175,2485095.1945035,44.887908790879,0,0
-31.845187815355,240.77293384742,39.692339233923,629014.96528923,-3318.9880679175,2485095.1945035,44.892339233923,0,0
-31.845187797997,240.79449157849,39.696769676968,629014.96528923,-3318.9880679175,2485095.1945035,44.896769676968,0,0
-31.845187780639,240.81604930956,39.701200120012,629014.96528923,-3318.9880679175,2485095.1945035,44.901200120012,0,0
-31.84518776328,240.83760704063,39.705630563056,629014.96528923,-3318.9880679175,2485095.1945035,44.905630563056,0,0
-31.845187745922,240.8591647717,39.710061006101,629014.96528923,-3318.9880679175,2485095.1945035,44.910061006101,0,0
-31.845187728564,240.88072250277,39.714491449145,629014.96528923,-3318.9880679175,2485095.1945035,44.914491449145,0,0
-31.845187711205,240.90228023384,39.718921892189,629014.96528923,-3318.9880679175,2485095.1945035,44.918921892189,0,0
-31.845187693847,240.92383796491,39.723352335234,629014.96528923,-3318.9880679175,2485095.1945035,44.923352335234,0,0
-31.845187676489,240.94539569598,39.727782778278,629014.96528923,-3318.9880679175,2485095.1945035,44.927782778278,0,0
-31.84518765913,240.96695342705,39.732213221322,629014.96528923,-3318.9880679175,2485095.1945035,44.932213221322,0,0
-31.845187641772,240.98851115812,39.736643664366,629014.96528923,-3318.9880679175,2485095.1945035,44.936643664366,0,0
-31.845187624414,241.01006888919,39.741074107411,629014.96528923,-3318.9880679175,2485095.1945035,44.941074107411,0,0
-31.845187607055,241.03162662026,39.745504550455,629014.96528923,-3318.9880679175,2485095.1945035,44.945504550455,0,0
-31.845187589697,241.05318435133,39.749934993499,629014.96528923,-3318.9880679175,2485095.1945035,44.949934993499,0,0
-31.845187572339,241.0747420824,39.754365436544,629014.96528923,-3318.9880679175,2485095.1945035,44.954365436544,0,0
-31.84518755498,241.09629981347,39.758795879588,629014.96528923,-3318.9880679175,2485095.1945035,44.958795879588,0,0
-31.845187537622,241.11785754454,39.763226322632,629014.96528923,-3318.9880679175,2485095.1945035,44.963226322632,0,0
-31.845187520264,241.13941527561,39.767656765677,629014.96528923,-3318.9880679175,2485095.1945035,44.967656765677,0,0
-31.845187502905,241.16097300668,39.772087208721,629014.96528923,-3318.9880679175,2485095.1945035,44.972087208721,0,0
-31.845187485547,241.18253073775,39.776517651765,629014.96528923,-3318.9880679175,2485095.1945035,44.976517651765,0,0
-31.845187468189,241.20408846882,39.780948094809,629014.96528923,-3318.9880679175,2485095.1945035,44.980948094809,0,0
-31.84518745083,241.22564619989,39.785378537854,629014.96528923,-3318.9880679175,2485095.1945035,44.985378537854,0,0
-31.845187433472,241.24720393096,39.789808980898,629014.96528923,-3318.9880679175,2485095.1945035,44.989808980898,0,0
-31.845187416114,241.26876166203,39.794239423942,629014.96528923,-3318.9880679175,2485095.1945035,44.994239423942,0,0
-31.845187398755,241.2903193931,39.798669866987,629014.96528923,-3318.9880679175,2485095.1945035,44.998669866987,0,0
-31.845187381397,241.31187712417,39.803100310031,629014.96528923,-3318.9880679175,2485095.1945035,45.003100310031,0,0
-31.845187364039,241.33343485524,39.807530753075,629014.96528923,-3318.9880679175,2485095.1945035,45.007530753075,0,0
-31.84518734668,241.35499258631,39.81196119612,629014.96528923,-3318.9880679175,2485095.1945035,45.01196119612,0,0
-31.845187329322,241.37655031738,39.816391639164,629014.96528923,-3318.9880679175,2485095.1945035,45.016391639164,0,0
-31.845187311964,241.39810804845,39.820822082208,629014.96528923,-3318.9880679175,2485095.1945035,45.020822082208,0,0
-31.845187294605,241.41966577952,39.825252525253,629014.96528923,-3318.9880679175,2485095.1945035,45.025252525253,0,0
-31.845187277247,241.44122351059,39.829682968297,629014.96528923,-3318.9880679175,2485095.1945035,45.029682968297,0,0
-31.845187259889,241.46278124166,39.834113411341,629014.96528923,-3318.9880679175,2485095.1945035,45.034113411341,0,0
-31.84518724253,241.48433897273,39.838543854385,629014.96528923,-3318.9880679175,2485095.1945035,45.038543854385,0,0
-31.845187225172,241.5058967038,39.84297429743,629014.96528923,-3318.9880679175,2485095.1945035,45.04297429743,0,0
-31.845187207814,241.52745443487,39.847404740474,629014.96528923,-3318.9880679175,2485095.1945035,45.047404740474,0,0
-31.845187190455,241.54901216594,39.851835183518,629014.96528923,-3318.9880679175,2485095.1945035,45.051835183518,0,0
-31.845187173097,241.57056989701,39.856265626563,629014.96528923,-3318.9880679175,2485095.1945035,45.056265626563,0,0
-31.845187155739,241.59212762808,39.860696069607,629014.96528923,-3318.9880679175,2485095.1945035,45.060696069607,0,0
-31.845187138381,241.61368535915,39.865126512651,629014.96528923,-3318.9880679175,2485095.1945035,45.065126512651,0,0
-31.845187121022,241.63524309022,39.869556955696,629014.96528923,-3318.9880679175,2485095.1945035,45.069556955696,0,0
-31.845187103664,241.65680082129,39.87398739874,629014.96528923,-3318.9880679175,2485095.1945035,45.07398739874,0,0
-31.845187086306,241.67835855236,39.878417841784,629014.96528923,-3318.9880679175,2485095.1945035,45.078417841784,0,0
-31.845187068947,241.69991628343,39.882848284828,629014.96528923,-3318.9880679175,2485095.1945035,45.082848284828,0,0
-31.845187051589,241.7214740145,39.887278727873,629014.96528923,-3318.9880679175,2485095.1945035,45.087278727873,0,0
-31.845187034231,241.74303174557,39.891709170917,629014.96528923,-3318.9880679175,2485095.1945035,45.091709170917,0,0
-31.845187016872,241.76458947664,39.896139613961,629014.96528923,-3318.9880679175,2485095.1945035,45.096139613961,0,0
-31.845186999514,241.78614720771,39.900570057006,629014.96528923,-3318.9880679175,2485095.1945035,45.100570057006,0,0
-31.845186982156,241.80770493878,39.90500050005,629014.96528923,-3318.9880679175,2485095.1945035,45.10500050005,0,0
-31.845186964797,241.82926266985,39.909430943094,629014.96528923,-3318.9880679175,2485095.1945035,45.109430943094,0,0
-31.845186947439,241.85082040092,39.913861386139,629014.96528923,-3318.9880679175,2485095.1945035,45.113861386139,0,0
-31.845186930081,241.87237813199,39.918291829183,629014.96528923,-3318.9880679175,2485095.1945035,45.118291829183,0,0
-31.845186912722,241.89393586306,39.922722272227,629014.96528923,-3318.9880679175,2485095.1945035,45.122722272227,0,0
-31.845186895364,241.91549359413,39.927152715272,629014.96528923,-3318.9880679175,2485095.1945035,45.127152715272,0,0
-31.845186878006,241.9370513252,39.931583158316,629014.96528923,-3318.9880679175,2485095.1945035,45.131583158316,0,0
-31.845186860647,241.95860905627,39.93601360136,629014.96528923,-3318.9880679175,2485095.1945035,45.13601360136,0,0
-31.845186843289,241.98016678734,39.940444044404,629014.96528923,-3318.9880679175,2485095.1945035,45.140444044404,0,0
-31.845186825931,242.00172451841,39.944874487449,629014.96528923,-3318.9880679175,2485095.1945035,45.144874487449,0,0
-31.845186808572,242.02328224948,39.949304930493,629014.96528923,-3318.9880679175,2485095.1945035,45.149304930493,0,0
-31.845186791214,242.04483998055,39.953735373537,629014.96528923,-3318.9880679175,2485095.1945035,45.153735373537,0,0
-31.845186773856,242.06639771162,39.958165816582,629014.96528923,-3318.9880679175,2485095.1945035,45.158165816582,0,0
-31.845186756497,242.08795544269,39.962596259626,629014.96528923,-3318.9880679175,2485095.1945035,45.162596259626,0,0
-31.845186739139,242.10951317376,39.96702670267,629014.96528923,-3318.9880679175,2485095.1945035,45.16702670267,0,0
-31.845186721781,242.13107090483,39.971457145715,629014.96528923,-3318.9880679175,2485095.1945035,45.171457145715,0,0
-31.845186704422,242.1526286359,39.975887588759,629014.96528923,-3318.9880679175,2485095.1945035,45.175887588759,0,0
-31.845186687064,242.17418636697,39.980318031803,629014.96528923,-3318.9880679175,2485095.1945035,45.180318031803,0,0
-31.845186669706,242.19574409804,39.984748474847,629014.96528923,-3318.9880679175,2485095.1945035,45.184748474847,0,0
-31.845186652347,242.21730182911,39.989178917892,629014.96528923,-3318.9880679175,2485095.1945035,45.189178917892,0,0
-31.845186634989,242.23885956018,39.993609360936,629014.96528923,-3318.9880679175,2485095.1945035,45.193609360936,0,0
-31.845186617631,242.26041729125,39.99803980398,629014.96528923,-3318.9880679175,2485095.1945035,45.19803980398,0,0
-31.845186600272,242.28197502232,40.002470247025,629014.96528923,-3318.9880679175,2485095.1945035,45.202470247025,0,0
-31.845186582914,242.30353275339,40.006900690069,629014.96528923,-3318.9880679175,2485095.1945035,45.206900690069,0,0
-31.845186565556,242.32509048446,40.011331133113,629014.96528923,-3318.9880679175,2485095.1945035,45.211331133113,0,0
-31.845186548197,242.34664821553,40.015761576158,629014.96528923,-3318.9880679175,2485095.1945035,45.215761576158,0,0
-31.845186530839,242.3682059466,40.020192019202,629014.96528923,-3318.9880679175,2485095.1945035,45.220192019202,0,0
-31.845186513481,242.38976367767,40.024622462246,629014.96528923,-3318.9880679175,2485095.1945035,45.224622462246,0,0
-31.845186496122,242.41132140874,40.029052905291,629014.96528923,-3318.9880679175,2485095.1945035,45.229052905291,0,0
-31.845186478764,242.43287913981,40.033483348335,629014.96528923,-3318.9880679175,2485095.1945035,45.233483348335,0,0
-31.845186461406,242.45443687088,40.037913791379,629014.96528923,-3318.9880679175,2485095.1945035,45.237913791379,0,0
-31.845186444047,242.47599460195,40.042344234423,629014.96528923,-3318.9880679175,2485095.1945035,45.242344234423,0,0
-31.845186426689,242.49755233302,40.046774677468,629014.96528923,-3318.9880679175,2485095.1945035,45.246774677468,0,0
-31.845186409331,242.51911006409,40.051205120512,629014.96528923,-3318.9880679175,2485095.1945035,45.251205120512,0,0
-31.845186391972,242.54066779516,40.055635563556,629014.96528923,-3318.9880679175,2485095.1945035,45.255635563556,0,0
-31.845186374614,242.56222552623,40.060066006601,629014.96528923,-3318.9880679175,2485095.1945035,45.260066006601,0,0
-31.845186357256,242.5837832573,40.064496449645,629014.96528923,-3318.9880679175,2485095.1945035,45.264496449645,0,0
-31.845186339897,242.60534098837,40.068926892689,629014.96528923,-3318.9880679175,2485095.1945035,45.268926892689,0,0
-31.845186322539,242.62689871944,40.073357335734,629014.96528923,-3318.9880679175,2485095.1945035,45.273357335734,0,0
-31.845186305181,242.64845645051,40.077787778778,629014.96528923,-3318.9880679175,2485095.1945035,45.277787778778,0,0
-31.845186287822,242.67001418158,40.082218221822,629014.96528923,-3318.9880679175,2485095.1945035,45.282218221822,0,0
-31.845186270464,242.69157191265,40.086648664866,629014.96528923,-3318.9880679175,2485095.1945035,45.286648664866,0,0
-31.845186253106,242.71312964372,40.091079107911,629014.96528923,-3318.9880679175,2485095.1945035,45.291079107911,0,0
-31.845186235747,242.73468737479,40.095509550955,629014.96528923,-3318.9880679175,2485095.1945035,45.295509550955,0,0
-31.845186218389,242.75624510586,40.099939993999,629014.96528923,-3318.9880679175,2485095.1945035,45.299939993999,0,0
-31.845186201031,242.77780283693,40.104370437044,629014.96528923,-3318.9880679175,2485095.1945035,45.304370437044,0,0
-31.845186183672,242.799360568,40.108800880088,629014.96528923,-3318.9880679175,2485095.1945035,45.308800880088,0,0
-31.845186166314,242.82091829907,40.113231323132,629014.96528923,-3318.9880679175,2485095.1945035,45.313231323132,0,0
-31.845186148956,242.84247603014,40.117661766177,629014.96528923,-3318.9880679175,2485095.1945035,45.317661766177,0,0
-31.845186131597,242.86403376121,40.122092209221,629014.96528923,-3318.9880679175,2485095.1945035,45.322092209221,0,0
-31.845186114239,242.88559149228,40.126522652265,629014.96528923,-3318.9880679175,2485095.1945035,45.326522652265,0,0
-31.845186096881,242.90714922335,40.13095309531,629014.96528923,-3318.9880679175,2485095.1945035,45.33095309531,0,0
-31.845186079522,242.92870695442,40.135383538354,629014.96528923,-3318.9880679175,2485095.1945035,45.335383538354,0,0
-31.845186062164,242.95026468549,40.139813981398,629014.96528923,-3318.9880679175,2485095.1945035,45.339813981398,0,0
-31.845186044806,242.97182241656,40.144244424442,629014.96528923,-3318.9880679175,2485095.1945035,45.344244424442,0,0
-31.845186027447,242.99338014763,40.148674867487,629014.96528923,-3318.9880679175,2485095.1945035,45.348674867487,0,0
-31.845186010089,243.0149378787,40.153105310531,629014.96528923,-3318.9880679175,2485095.1945035,45.353105310531,0,0
-31.845185992731,243.03649560977,40.157535753575,629014.96528923,-3318.9880679175,2485095.1945035,45.357535753575,0,0
-31.845185975372,243.05805334084,40.16196619662,629014.96528923,-3318.9880679175,2485095.1945035,45.36196619662,0,0
-31.845185958014,243.07961107191,40.166396639664,629014.96528923,-3318.9880679175,2485095.1945035,45.366396639664,0,0
-31.845185940656,243.10116880298,40.170827082708,629014.96528923,-3318.9880679175,2485095.1945035,45.370827082708,0,0
-31.845185923297,243.12272653405,40.175257525753,629014.96528923,-3318.9880679175,2485095.1945035,45.375257525753,0,0
-31.845185905939,243.14428426512,40.179687968797,629014.96528923,-3318.9880679175,2485095.1945035,45.379687968797,0,0
-31.845185888581,243.16584199619,40.184118411841,629014.96528923,-3318.9880679175,2485095.1945035,45.384118411841,0,0
-31.845185871222,243.18739972726,40.188548854885,629014.96528923,-3318.9880679175,2485095.1945035,45.388548854885,0,0
-31.845185853864,243.20895745833,40.19297929793,629014.96528923,-3318.9880679175,2485095.1945035,45.39297929793,0,0
-31.845185836506,243.2305151894,40.197409740974,629014.96528923,-3318.9880679175,2485095.1945035,45.397409740974,0,0
-31.845185819147,243.25207292047,40.201840184018,629014.96528923,-3318.9880679175,2485095.1945035,45.401840184018,0,0
-31.845185801789,243.27363065154,40.206270627063,629014.96528923,-3318.9880679175,2485095.1945035,45.406270627063,0,0
-31.845185784431,243.29518838261,40.210701070107,629014.96528923,-3318.9880679175,2485095.1945035,45.410701070107,0,0
-31.845185767072,243.31674611368,40.215131513151,629014.96528923,-3318.9880679175,2485095.1945035,45.415131513151,0,0
-31.845185749714,243.33830384475,40.219561956196,629014.96528923,-3318.9880679175,2485095.1945035,45.419561956196,0,0
-31.845185732356,243.35986157582,40.22399239924,629014.96528923,-3318.9880679175,2485095.1945035,45.42399239924,0,0
-31.845185714997,243.38141930689,40.228422842284,629014.96528923,-3318.9880679175,2485095.1945035,45.428422842284,0,0
-31.845185697639,243.40297703796,40.232853285329,629014.96528923,-3318.9880679175,2485095.1945035,45.432853285329,0,0
-31.845185680281,243.42453476903,40.237283728373,629014.96528923,-3318.9880679175,2485095.1945035,45.437283728373,0,0
-31.845185662923,243.4460925001,40.241714171417,629014.96528923,-3318.9880679175,2485095.1945035,45.441714171417,0,0
-31.845185645564,243.46765023117,40.246144614461,629014.96528923,-3318.9880679175,2485095.1945035,45.446144614461,0,0
-31.845185628206,243.48920796224,40.250575057506,629014.96528923,-3318.9880679175,2485095.1945035,45.450575057506,0,0
-31.845185610848,243.51076569331,40.25500550055,629014.96528923,-3318.9880679175,2485095.1945035,45.45500550055,0,0
-31.845185593489,243.53232342438,40.259435943594,629014.96528923,-3318.9880679175,2485095.1945035,45.459435943594,0,0
-31.845185576131,243.55388115545,40.263866386639,629014.96528923,-3318.9880679175,2485095.1945035,45.463866386639,0,0
-31.845185558773,243.57543888652,40.268296829683,629014.96528923,-3318.9880679175,2485095.1945035,45.468296829683,0,0
-31.845185541414,243.59699661759,40.272727272727,629014.96528923,-3318.9880679175,2485095.1945035,45.472727272727,0,0
-31.845185524056,243.61855434866,40.277157715772,629014.96528923,-3318.9880679175,2485095.1945035,45.477157715772,0,0
-31.845185506698,243.64011207973,40.281588158816,629014.96528923,-3318.9880679175,2485095.1945035,45.481588158816,0,0
-31.845185489339,243.6616698108,40.28601860186,629014.96528923,-3318.9880679175,2485095.1945035,45.48601860186,0,0
-31.845185471981,243.68322754187,40.290449044904,629014.96528923,-3318.9880679175,2485095.1945035,45.490449044904,0,0
-31.845185454623,243.70478527294,40.294879487949,629014.96528923,-3318.9880679175,2485095.1945035,45.494879487949,0,0
-31.845185437264,243.72634300401,40.299309930993,629014.96528923,-3318.9880679175,2485095.1945035,45.499309930993,0,0
-31.845185419906,243.74790073508,40.303740374037,629014.96528923,-3318.9880679175,2485095.1945035,45.503740374037,0,0
-31.845185402548,243.76945846615,40.308170817082,629014.96528923,-3318.9880679175,2485095.1945035,45.508170817082,0,0
-31.845185385189,243.79101619722,40.312601260126,629014.96528923,-3318.9880679175,2485095.1945035,45.512601260126,0,0
-31.845185367831,243.81257392829,40.31703170317,629014.96528923,-3318.9880679175,2485095.1945035,45.51703170317,0,0
-31.845185350473,243.83413165936,40.321462146215,629014.96528923,-3318.9880679175,2485095.1945035,45.521462146215,0,0
-31.845185333114,243.85568939043,40.325892589259,629014.96528923,-3318.9880679175,2485095.1945035,45.525892589259,0,0
-31.845185315756,243.8772471215,40.330323032303,629014.96528923,-3318.9880679175,2485095.1945035,45.530323032303,0,0
-31.845185298398,243.89880485257,40.334753475348,629014.96528923,-3318.9880679175,2485095.1945035,45.534753475348,0,0
-31.845185281039,243.92036258364,40.339183918392,629014.96528923,-3318.9880679175,2485095.1945035,45.539183918392,0,0
-31.845185263681,243.94192031471,40.343614361436,629014.96528923,-3318.9880679175,2485095.1945035,45.543614361436,0,0
-31.845185246323,243.96347804578,40.34804480448,629014.96528923,-3318.9880679175,2485095.1945035,45.54804480448,0,0
-31.845185228964,243.98503577685,40.352475247525,629014.96528923,-3318.9880679175,2485095.1945035,45.552475247525,0,0
-31.845185211606,244.00659350792,40.356905690569,629014.96528923,-3318.9880679175,2485095.1945035,45.556905690569,0,0
-31.845185194248,244.02815123899,40.361336133613,629014.96528923,-3318.9880679175,2485095.1945035,45.561336133613,0,0
-31.845185176889,244.04970897006,40.365766576658,629014.96528923,-3318.9880679175,2485095.1945035,45.565766576658,0,0
-31.845185159531,244.07126670113,40.370197019702,629014.96528923,-3318.9880679175,2485095.1945035,45.570197019702,0,0
-31.845185142173,244.0928244322,40.374627462746,629014.96528923,-3318.9880679175,2485095.1945035,45.574627462746,0,0
-31.845185124814,244.11438216327,40.379057905791,629014.96528923,-3318.9880679175,2485095.1945035,45.579057905791,0,0
-31.845185107456,244.13593989434,40.383488348835,629014.96528923,-3318.9880679175,2485095.1945035,45.583488348835,0,0
-31.845185090098,244.15749762541,40.387918791879,629014.96528923,-3318.9880679175,2485095.1945035,45.587918791879,0,0
-31.845185072739,244.17905535648,40.392349234923,629014.96528923,-3318.9880679175,2485095.1945035,45.592349234923,0,0
-31.845185055381,244.20061308755,40.396779677968,629014.96528923,-3318.9880679175,2485095.1945035,45.596779677968,0,0
-31.845185038023,244.22217081862,40.401210121012,629014.96528923,-3318.9880679175,2485095.1945035,45.601210121012,0,0
-31.845185020664,244.24372854969,40.405640564056,629014.96528923,-3318.9880679175,2485095.1945035,45.605640564056,0,0
-31.845185003306,244.26528628076,40.410071007101,629014.96528923,-3318.9880679175,2485095.1945035,45.610071007101,0,0
-31.845184985948,244.28684401183,40.414501450145,629014.96528923,-3318.9880679175,2485095.1945035,45.614501450145,0,0
-31.845184968589,244.3084017429,40.418931893189,629014.96528923,-3318.9880679175,2485095.1945035,45.618931893189,0,0
-31.845184951231,244.32995947397,40.423362336234,629014.96528923,-3318.9880679175,2485095.1945035,45.623362336234,0,0
-31.845184933873,244.35151720504,40.427792779278,629014.96528923,-3318.9880679175,2485095.1945035,45.627792779278,0,0
-31.845184916514,244.37307493611,40.432223222322,629014.96528923,-3318.9880679175,2485095.1945035,45.632223222322,0,0
-31.845184899156,244.39463266718,40.436653665367,629014.96528923,-3318.9880679175,2485095.1945035,45.636653665367,0,0
-31.845184881798,244.41619039825,40.441084108411,629014.96528923,-3318.9880679175,2485095.1945035,45.641084108411,0,0
-31.845184864439,244.43774812932,40.445514551455,629014.96528923,-3318.9880679175,2485095.1945035,45.645514551455,0,0
-31.845184847081,244.45930586039,40.449944994499,629014.96528923,-3318.9880679175,2485095.1945035,45.649944994499,0,0
-31.845184829723,244.48086359146,40.454375437544,629014.96528923,-3318.9880679175,2485095.1945035,45.654375437544,0,0
-31.845184812364,244.50242132253,40.458805880588,629014.96528923,-3318.9880679175,2485095.1945035,45.658805880588,0,0
-31.845184795006,244.5239790536,40.463236323632,629014.96528923,-3318.9880679175,2485095.1945035,45.663236323632,0,0
-31.845184777648,244.54553678467,40.467666766677,629014.96528923,-3318.9880679175,2485095.1945035,45.667666766677,0,0
-31.845184760289,244.56709451574,40.472097209721,629014.96528923,-3318.9880679175,2485095.1945035,45.672097209721,0,0
-31.845184742931,244.58865224681,40.476527652765,629014.96528923,-3318.9880679175,2485095.1945035,45.676527652765,0,0
-31.845184725573,244.61020997788,40.48095809581,629014.96528923,-3318.9880679175,2485095.1945035,45.68095809581,0,0
-31.845184708214,244.63176770895,40.485388538854,629014.96528923,-3318.9880679175,2485095.1945035,45.685388538854,0,0
-31.845184690856,244.65332544002,40.489818981898,629014.96528923,-3318.9880679175,2485095.1945035,45.689818981898,0,0
-31.845184673498,244.67488317109,40.494249424942,629014.96528923,-3318.9880679175,2485095.1945035,45.694249424942,0,0
-31.845184656139,244.69644090216,40.498679867987,629014.96528923,-3318.9880679175,2485095.1945035,45.698679867987,0,0
-31.845184638781,244.71799863323,40.503110311031,629014.96528923,-3318.9880679175,2485095.1945035,45.703110311031,0,0
-31.845184621423,244.7395563643,40.507540754075,629014.96528923,-3318.9880679175,2485095.1945035,45.707540754075,0,0
-31.845184604064,244.76111409537,40.51197119712,629014.96528923,-3318.9880679175,2485095.1945035,45.71197119712,0,0
-31.845184586706,244.78267182644,40.516401640164,629014.96528923,-3318.9880679175,2485095.1945035,45.716401640164,0,0
-31.845184569348,244.80422955751,40.520832083208,629014.96528923,-3318.9880679175,2485095.1945035,45.720832083208,0,0
-31.845184551989,244.82578728858,40.525262526253,629014.96528923,-3318.9880679175,2485095.1945035,45.725262526253,0,0
-31.845184534631,244.84734501965,40.529692969297,629014.96528923,-3318.9880679175,2485095.1945035,45.729692969297,0,0
-31.845184517273,244.86890275072,40.534123412341,629014.96528923,-3318.9880679175,2485095.1945035,45.734123412341,0,0
-31.845184499914,244.89046048179,40.538553855386,629014.96528923,-3318.9880679175,2485095.1945035,45.738553855386,0,0
-31.845184482556,244.91201821286,40.54298429843,629014.96528923,-3318.9880679175,2485095.1945035,45.74298429843,0,0
-31.845184465198,244.93357594393,40.547414741474,629014.96528923,-3318.9880679175,2485095.1945035,45.747414741474,0,0
-31.845184447839,244.955133675,40.551845184518,629014.96528923,-3318.9880679175,2485095.1945035,45.751845184518,0,0
-31.845184430481,244.97669140607,40.556275627563,629014.96528923,-3318.9880679175,2485095.1945035,45.756275627563,0,0
-31.845184413123,244.99824913714,40.560706070607,629014.96528923,-3318.9880679175,2485095.1945035,45.760706070607,0,0
-31.845184395764,245.01980686821,40.565136513651,629014.96528923,-3318.9880679175,2485095.1945035,45.765136513651,0,0
-31.845184378406,245.04136459928,40.569566956696,629014.96528923,-3318.9880679175,2485095.1945035,45.769566956696,0,0
-31.845184361048,245.06292233035,40.57399739974,629014.96528923,-3318.9880679175,2485095.1945035,45.77399739974,0,0
-31.845184343689,245.08448006142,40.578427842784,629014.96528923,-3318.9880679175,2485095.1945035,45.778427842784,0,0
-31.845184326331,245.10603779249,40.582858285829,629014.96528923,-3318.9880679175,2485095.1945035,45.782858285829,0,0
-31.845184308973,245.12759552356,40.587288728873,629014.96528923,-3318.9880679175,2485095.1945035,45.787288728873,0,0
-31.845184291614,245.14915325463,40.591719171917,629014.96528923,-3318.9880679175,2485095.1945035,45.791719171917,0,0
-31.845184274256,245.1707109857,40.596149614961,629014.96528923,-3318.9880679175,2485095.1945035,45.796149614961,0,0
-31.845184256898,245.19226871677,40.600580058006,629014.96528923,-3318.9880679175,2485095.1945035,45.800580058006,0,0
-31.845184239539,245.21382644784,40.60501050105,629014.96528923,-3318.9880679175,2485095.1945035,45.80501050105,0,0
-31.845184222181,245.23538417891,40.609440944094,629014.96528923,-3318.9880679175,2485095.1945035,45.809440944094,0,0
-31.845184204823,245.25694190998,40.613871387139,629014.96528923,-3318.9880679175,2485095.1945035,45.813871387139,0,0
-31.845184187465,245.27849964105,40.618301830183,629014.96528923,-3318.9880679175,2485095.1945035,45.818301830183,0,0
-31.845184170106,245.30005737212,40.622732273227,629014.96528923,-3318.9880679175,2485095.1945035,45.822732273227,0,0
-31.845184152748,245.32161510319,40.627162716272,629014.96528923,-3318.9880679175,2485095.1945035,45.827162716272,0,0
-31.84518413539,245.34317283426,40.631593159316,629014.96528923,-3318.9880679175,2485095.1945035,45.831593159316,0,0
-31.845184118031,245.36473056533,40.63602360236,629014.96528923,-3318.9880679175,2485095.1945035,45.83602360236,0,0
-31.845184100673,245.3862882964,40.640454045405,629014.96528923,-3318.9880679175,2485095.1945035,45.840454045405,0,0
-31.845184083315,245.40784602747,40.644884488449,629014.96528923,-3318.9880679175,2485095.1945035,45.844884488449,0,0
-31.845184065956,245.42940375854,40.649314931493,629014.96528923,-3318.9880679175,2485095.1945035,45.849314931493,0,0
-31.845184048598,245.45096148961,40.653745374537,629014.96528923,-3318.9880679175,2485095.1945035,45.853745374537,0,0
-31.84518403124,245.47251922068,40.658175817582,629014.96528923,-3318.9880679175,2485095.1945035,45.858175817582,0,0
-31.845184013881,245.49407695175,40.662606260626,629014.96528923,-3318.9880679175,2485095.1945035,45.862606260626,0,0
-31.845183996523,245.51563468282,40.66703670367,629014.96528923,-3318.9880679175,2485095.1945035,45.86703670367,0,0
-31.845183979165,245.53719241389,40.671467146715,629014.96528923,-3318.9880679175,2485095.1945035,45.871467146715,0,0
-31.845183961806,245.55875014496,40.675897589759,629014.96528923,-3318.9880679175,2485095.1945035,45.875897589759,0,0
-31.845183944448,245.58030787603,40.680328032803,629014.96528923,-3318.9880679175,2485095.1945035,45.880328032803,0,0
-31.84518392709,245.6018656071,40.684758475848,629014.96528923,-3318.9880679175,2485095.1945035,45.884758475848,0,0
-31.845183909731,245.62342333817,40.689188918892,629014.96528923,-3318.9880679175,2485095.1945035,45.889188918892,0,0
-31.845183892373,245.64498106924,40.693619361936,629014.96528923,-3318.9880679175,2485095.1945035,45.893619361936,0,0
-31.845183875015,245.66653880031,40.69804980498,629014.96528923,-3318.9880679175,2485095.1945035,45.89804980498,0,0
-31.845183857656,245.68809653138,40.702480248025,629014.96528923,-3318.9880679175,2485095.1945035,45.902480248025,0,0
-31.845183840298,245.70965426245,40.706910691069,629014.96528923,-3318.9880679175,2485095.1945035,45.906910691069,0,0
-31.84518382294,245.73121199352,40.711341134113,629014.96528923,-3318.9880679175,2485095.1945035,45.911341134113,0,0
-31.845183805581,245.75276972459,40.715771577158,629014.96528923,-3318.9880679175,2485095.1945035,45.915771577158,0,0
-31.845183788223,245.77432745566,40.720202020202,629014.96528923,-3318.9880679175,2485095.1945035,45.920202020202,0,0
-31.845183770865,245.79588518673,40.724632463246,629014.96528923,-3318.9880679175,2485095.1945035,45.924632463246,0,0
-31.845183753506,245.8174429178,40.729062906291,629014.96528923,-3318.9880679175,2485095.1945035,45.929062906291,0,0
-31.845183736148,245.83900064887,40.733493349335,629014.96528923,-3318.9880679175,2485095.1945035,45.933493349335,0,0
-31.84518371879,245.86055837994,40.737923792379,629014.96528923,-3318.9880679175,2485095.1945035,45.937923792379,0,0
-31.845183701431,245.88211611101,40.742354235424,629014.96528923,-3318.9880679175,2485095.1945035,45.942354235424,0,0
-31.845183684073,245.90367384208,40.746784678468,629014.96528923,-3318.9880679175,2485095.1945035,45.946784678468,0,0
-31.845183666715,245.92523157315,40.751215121512,629014.96528923,-3318.9880679175,2485095.1945035,45.951215121512,0,0
-31.845183649356,245.94678930422,40.755645564556,629014.96528923,-3318.9880679175,2485095.1945035,45.955645564556,0,0
-31.845183631998,245.96834703529,40.760076007601,629014.96528923,-3318.9880679175,2485095.1945035,45.960076007601,0,0
-31.84518361464,245.98990476636,40.764506450645,629014.96528923,-3318.9880679175,2485095.1945035,45.964506450645,0,0
-31.845183597281,246.01146249743,40.768936893689,629014.96528923,-3318.9880679175,2485095.1945035,45.968936893689,0,0
-31.845183579923,246.0330202285,40.773367336734,629014.96528923,-3318.9880679175,2485095.1945035,45.973367336734,0,0
-31.845183562565,246.05457795957,40.777797779778,629014.96528923,-3318.9880679175,2485095.1945035,45.977797779778,0,0
-31.845183545206,246.07613569064,40.782228222822,629014.96528923,-3318.9880679175,2485095.1945035,45.982228222822,0,0
-31.845183527848,246.09769342171,40.786658665867,629014.96528923,-3318.9880679175,2485095.1945035,45.986658665867,0,0
-31.84518351049,246.11925115278,40.791089108911,629014.96528923,-3318.9880679175,2485095.1945035,45.991089108911,0,0
-31.845183493131,246.14080888385,40.795519551955,629014.96528923,-3318.9880679175,2485095.1945035,45.995519551955,0,0
-31.845183475773,246.16236661492,40.799949994999,629014.96528923,-3318.9880679175,2485095.1945035,45.999949994999,0,0
-31.845183458415,246.18392434599,40.804380438044,629014.96528923,-3318.9880679175,2485095.1945035,46.004380438044,0,0
-31.845183441056,246.20548207706,40.808810881088,629014.96528923,-3318.9880679175,2485095.1945035,46.008810881088,0,0
-31.845183423698,246.22703980813,40.813241324132,629014.96528923,-3318.9880679175,2485095.1945035,46.013241324132,0,0
-31.84518340634,246.2485975392,40.817671767177,629014.96528923,-3318.9880679175,2485095.1945035,46.017671767177,0,0
-31.845183388981,246.27015527027,40.822102210221,629014.96528923,-3318.9880679175,2485095.1945035,46.022102210221,0,0
-31.845183371623,246.29171300134,40.826532653265,629014.96528923,-3318.9880679175,2485095.1945035,46.026532653265,0,0
-31.845183354265,246.3132707324,40.83096309631,629014.96528923,-3318.9880679175,2485095.1945035,46.03096309631,0,0
-31.845183336906,246.33482846347,40.835393539354,629014.96528923,-3318.9880679175,2485095.1945035,46.035393539354,0,0
-31.845183319548,246.35638619454,40.839823982398,629014.96528923,-3318.9880679175,2485095.1945035,46.039823982398,0,0
-31.84518330219,246.37794392561,40.844254425443,629014.96528923,-3318.9880679175,2485095.1945035,46.044254425443,0,0
-31.845183284831,246.39950165668,40.848684868487,629014.96528923,-3318.9880679175,2485095.1945035,46.048684868487,0,0
-31.845183267473,246.42105938775,40.853115311531,629014.96528923,-3318.9880679175,2485095.1945035,46.053115311531,0,0
-31.845183250115,246.44261711882,40.857545754575,629014.96528923,-3318.9880679175,2485095.1945035,46.057545754575,0,0
-31.845183232756,246.46417484989,40.86197619762,629014.96528923,-3318.9880679175,2485095.1945035,46.06197619762,0,0
-31.845183215398,246.48573258096,40.866406640664,629014.96528923,-3318.9880679175,2485095.1945035,46.066406640664,0,0
-31.84518319804,246.50729031203,40.870837083708,629014.96528923,-3318.9880679175,2485095.1945035,46.070837083708,0,0
-31.845183180681,246.5288480431,40.875267526753,629014.96528923,-3318.9880679175,2485095.1945035,46.075267526753,0,0
-31.845183163323,246.55040577417,40.879697969797,629014.96528923,-3318.9880679175,2485095.1945035,46.079697969797,0,0
-31.845183145965,246.57196350524,40.884128412841,629014.96528923,-3318.9880679175,2485095.1945035,46.084128412841,0,0
-31.845183128606,246.59352123631,40.888558855886,629014.96528923,-3318.9880679175,2485095.1945035,46.088558855886,0,0
-31.845183111345,246.61507896775,40.89298929893,624815.33051312,715.0235308017,2480422.4470523,46.09298929893,0,0
-31.845183094198,246.63663669961,40.897419741974,624815.33051312,715.0235308017,2480422.4470523,46.097419741974,0,0
-31.845183077051,246.65819443147,40.901850185018,624815.33051312,715.0235308017,2480422.4470523,46.101850185018,0,0
-31.845183059903,246.67975216333,40.906280628063,624815.33051312,715.0235308017,2480422.4470523,46.106280628063,0,0
-31.845183042756,246.70130989519,40.910711071107,624815.33051312,715.0235308017,2480422.4470523,46.110711071107,0,0
-31.845183025609,246.72286762704,40.915141514151,624815.33051312,715.0235308017,2480422.4470523,46.115141514151,0,0
-31.845183008461,246.7444253589,40.919571957196,624815.33051312,715.0235308017,2480422.4470523,46.119571957196,0,0
-31.845182991314,246.76598309076,40.92400240024,624815.33051312,715.0235308017,2480422.4470523,46.12400240024,0,0
-31.845182974167,246.78754082262,40.928432843284,624815.33051312,715.0235308017,2480422.4470523,46.128432843284,0,0
-31.84518295702,246.80909855448,40.932863286329,624815.33051312,715.0235308017,2480422.4470523,46.132863286329,0,0
-31.845182939872,246.83065628634,40.937293729373,624815.33051312,715.0235308017,2480422.4470523,46.137293729373,0,0
-31.845182922725,246.8522140182,40.941724172417,624815.33051312,715.0235308017,2480422.4470523,46.141724172417,0,0
-31.845182905578,246.87377175006,40.946154615462,624815.33051312,715.0235308017,2480422.4470523,46.146154615462,0,0
-31.84518288843,246.89532948192,40.950585058506,624815.33051312,715.0235308017,2480422.4470523,46.150585058506,0,0
-31.845182871283,246.91688721378,40.95501550155,624815.33051312,715.0235308017,2480422.4470523,46.15501550155,0,0
-31.845182854136,246.93844494564,40.959445944594,624815.33051312,715.0235308017,2480422.4470523,46.159445944594,0,0
-31.845182836989,246.9600026775,40.963876387639,624815.33051312,715.0235308017,2480422.4470523,46.163876387639,0,0
-31.845182819841,246.98156040936,40.968306830683,624815.33051312,715.0235308017,2480422.4470523,46.168306830683,0,0
-31.845182802694,247.00311814122,40.972737273727,624815.33051312,715.0235308017,2480422.4470523,46.172737273727,0,0
-31.845182785066,247.02467587251,40.977167716772,629707.03216877,662.09961772749,2471435.3473934,46.177167716772,0,0
-31.845182767289,247.04623360364,40.981598159816,629707.03216877,662.09961772749,2471435.3473934,46.181598159816,0,0
-31.845182749512,247.06779133476,40.98602860286,629707.03216877,662.09961772749,2471435.3473934,46.18602860286,0,0
-31.845182731734,247.08934906588,40.990459045905,629707.03216877,662.09961772749,2471435.3473934,46.190459045905,0,0
-31.845182713957,247.110906797,40.994889488949,629707.03216877,662.09961772749,2471435.3473934,46.194889488949,0,0
-31.84518269618,247.13246452813,40.999319931993,629707.03216877,662.09961772749,2471435.3473934,46.199319931993,0,0
-31.845182678402,247.15402225925,41.003750375037,629707.03216877,662.09961772749,2471435.3473934,46.203750375038,0,0
-31.845182660625,247.17557999037,41.008180818082,629707.03216877,662.09961772749,2471435.3473934,46.208180818082,0,0
-31.845182642848,247.19713772149,41.012611261126,629707.03216877,662.09961772749,2471435.3473934,46.212611261126,0,0
-31.845182625071,247.21869545262,41.01704170417,629707.03216877,662.09961772749,2471435.3473934,46.21704170417,0,0
-31.845182607293,247.24025318374,41.021472147215,629707.03216877,662.09961772749,2471435.3473934,46.221472147215,0,0
-31.845182589516,247.26181091486,41.025902590259,629707.03216877,662.09961772749,2471435.3473934,46.225902590259,0,0
-31.845182571739,247.28336864599,41.030333033303,629707.03216877,662.09961772749,2471435.3473934,46.230333033303,0,0
-31.845182553961,247.30492637711,41.034763476348,629707.03216877,662.09961772749,2471435.3473934,46.234763476348,0,0
-31.845182536184,247.32648410823,41.039193919392,629707.03216877,662.09961772749,2471435.3473934,46.239193919392,0,0
-31.845182518407,247.34804183935,41.043624362436,629707.03216877,662.09961772749,2471435.3473934,46.243624362436,0,0
-31.845182500629,247.36959957048,41.048054805481,629707.03216877,662.09961772749,2471435.3473934,46.248054805481,0,0
-31.845182482852,247.3911573016,41.052485248525,629707.03216877,662.09961772749,2471435.3473934,46.252485248525,0,0
-31.845182465075,247.41271503272,41.056915691569,629707.03216877,662.09961772749,2471435.3473934,46.256915691569,0,0
-31.845182447297,247.43427276384,41.061346134613,629707.03216877,662.09961772749,2471435.3473934,46.261346134613,0,0
-31.84518242952,247.45583049497,41.065776577658,629707.03216877,662.09961772749,2471435.3473934,46.265776577658,0,0
-31.845182411743,247.47738822609,41.070207020702,629707.03216877,662.09961772749,2471435.3473934,46.270207020702,0,0
-31.845182393966,247.49894595721,41.074637463746,629707.03216877,662.09961772749,2471435.3473934,46.274637463746,0,0
-31.845182376188,247.52050368834,41.079067906791,629707.03216877,662.09961772749,2471435.3473934,46.279067906791,0,0
-31.845182358411,247.54206141946,41.083498349835,629707.03216877,662.09961772749,2471435.3473934,46.283498349835,0,0
-31.845182340634,247.56361915058,41.087928792879,629707.03216877,662.09961772749,2471435.3473934,46.287928792879,0,0
-31.845182322856,247.5851768817,41.092359235924,629707.03216877,662.09961772749,2471435.3473934,46.292359235924,0,0
-31.845182305079,247.60673461283,41.096789678968,629707.03216877,662.09961772749,2471435.3473934,46.296789678968,0,0
-31.845182287302,247.62829234395,41.101220122012,629707.03216877,662.09961772749,2471435.3473934,46.301220122012,0,0
-31.845182269524,247.64985007507,41.105650565057,629707.03216877,662.09961772749,2471435.3473934,46.305650565057,0,0
-31.845182251747,247.67140780619,41.110081008101,629707.03216877,662.09961772749,2471435.3473934,46.310081008101,0,0
-31.84518223397,247.69296553732,41.114511451145,629707.03216877,662.09961772749,2471435.3473934,46.314511451145,0,0
-31.845182216192,247.71452326844,41.118941894189,629707.03216877,662.09961772749,2471435.3473934,46.318941894189,0,0
-31.845182198415,247.73608099956,41.123372337234,629707.03216877,662.09961772749,2471435.3473934,46.323372337234,0,0
-31.845182180638,247.75763873069,41.127802780278,629707.03216877,662.09961772749,2471435.3473934,46.327802780278,0,0
-31.845182162861,247.77919646181,41.132233223322,629707.03216877,662.09961772749,2471435.3473934,46.332233223322,0,0
-31.845182145083,247.80075419293,41.136663666367,629707.03216877,662.09961772749,2471435.3473934,46.336663666367,0,0
-31.845182127306,247.82231192405,41.141094109411,629707.03216877,662.09961772749,2471435.3473934,46.341094109411,0,0
-31.845182109529,247.84386965518,41.145524552455,629707.03216877,662.09961772749,2471435.3473934,46.345524552455,0,0
-31.845182091751,247.8654273863,41.1499549955,629707.03216877,662.09961772749,2471435.3473934,46.3499549955,0,0
-31.845182073974,247.88698511742,41.154385438544,629707.03216877,662.09961772749,2471435.3473934,46.354385438544,0,0
-31.845182056197,247.90854284854,41.158815881588,629707.03216877,662.09961772749,2471435.3473934,46.358815881588,0,0
-31.845182038419,247.93010057967,41.163246324632,629707.03216877,662.09961772749,2471435.3473934,46.363246324632,0,0
-31.845182020642,247.95165831079,41.167676767677,629707.03216877,662.09961772749,2471435.3473934,46.367676767677,0,0
-31.845182002865,247.97321604191,41.172107210721,629707.03216877,662.09961772749,2471435.3473934,46.372107210721,0,0
-31.845181985088,247.99477377303,41.176537653765,629707.03216877,662.09961772749,2471435.3473934,46.376537653765,0,0
-31.84518196731,248.01633150416,41.18096809681,629707.03216877,662.09961772749,2471435.3473934,46.38096809681,0,0
-31.845181949533,248.03788923528,41.185398539854,629707.03216877,662.09961772749,2471435.3473934,46.385398539854,0,0
-31.845181931756,248.0594469664,41.189828982898,629707.03216877,662.09961772749,2471435.3473934,46.389828982898,0,0
-31.845181913978,248.08100469753,41.194259425943,629707.03216877,662.09961772749,2471435.3473934,46.394259425943,0,0
-31.845181896201,248.10256242865,41.198689868987,629707.03216877,662.09961772749,2471435.3473934,46.398689868987,0,0
-31.845181878424,248.12412015977,41.203120312031,629707.03216877,662.09961772749,2471435.3473934,46.403120312031,0,0
-31.845181860646,248.14567789089,41.207550755076,629707.03216877,662.09961772749,2471435.3473934,46.407550755076,0,0
-31.845181842869,248.16723562202,41.21198119812,629707.03216877,662.09961772749,2471435.3473934,46.41198119812,0,0
-31.845181825092,248.18879335314,41.216411641164,629707.03216877,662.09961772749,2471435.3473934,46.416411641164,0,0
-31.845181807314,248.21035108426,41.220842084208,629707.03216877,662.09961772749,2471435.3473934,46.420842084208,0,0
-31.845181789537,248.23190881538,41.225272527253,629707.03216877,662.09961772749,2471435.3473934,46.425272527253,0,0
-31.84518177176,248.25346654651,41.229702970297,629707.03216877,662.09961772749,2471435.3473934,46.429702970297,0,0
-31.845181753983,248.27502427763,41.234133413341,629707.03216877,662.09961772749,2471435.3473934,46.434133413341,0,0
-31.845181736205,248.29658200875,41.238563856386,629707.03216877,662.09961772749,2471435.3473934,46.438563856386,0,0
-31.845181718428,248.31813973988,41.24299429943,629707.03216877,662.09961772749,2471435.3473934,46.44299429943,0,0
-31.845181700651,248.339697471,41.247424742474,629707.03216877,662.09961772749,2471435.3473934,46.447424742474,0,0
-31.845181682873,248.36125520212,41.251855185519,629707.03216877,662.09961772749,2471435.3473934,46.451855185519,0,0
-31.845181665096,248.38281293324,41.256285628563,629707.03216877,662.09961772749,2471435.3473934,46.456285628563,0,0
-31.845181647319,248.40437066437,41.260716071607,629707.03216877,662.09961772749,2471435.3473934,46.460716071607,0,0
-31.845181629541,248.42592839549,41.265146514651,629707.03216877,662.09961772749,2471435.3473934,46.465146514651,0,0
-31.845181611764,248.44748612661,41.269576957696,629707.03216877,662.09961772749,2471435.3473934,46.469576957696,0,0
-31.845181593987,248.46904385773,41.27400740074,629707.03216877,662.09961772749,2471435.3473934,46.47400740074,0,0
-31.845181576209,248.49060158886,41.278437843784,629707.03216877,662.09961772749,2471435.3473934,46.478437843784,0,0
-31.845181558432,248.51215931998,41.282868286829,629707.03216877,662.09961772749,2471435.3473934,46.482868286829,0,0
-31.845181540655,248.5337170511,41.287298729873,629707.03216877,662.09961772749,2471435.3473934,46.487298729873,0,0
-31.845181522878,248.55527478223,41.291729172917,629707.03216877,662.09961772749,2471435.3473934,46.491729172917,0,0
-31.8451815051,248.57683251335,41.296159615962,629707.03216877,662.09961772749,2471435.3473934,46.496159615962,0,0
-31.845181487323,248.59839024447,41.300590059006,629707.03216877,662.09961772749,2471435.3473934,46.500590059006,0,0
-31.845181469546,248.61994797559,41.30502050205,629707.03216877,662.09961772749,2471435.3473934,46.50502050205,0,0
-31.845181451768,248.64150570672,41.309450945095,629707.03216877,662.09961772749,2471435.3473934,46.509450945095,0,0
-31.845181433991,248.66306343784,41.313881388139,629707.03216877,662.09961772749,2471435.3473934,46.513881388139,0,0
-31.845181416214,248.68462116896,41.318311831183,629707.03216877,662.09961772749,2471435.3473934,46.518311831183,0,0
-31.845181398436,248.70617890008,41.322742274227,629707.03216877,662.09961772749,2471435.3473934,46.522742274227,0,0
-31.845181380659,248.72773663121,41.327172717272,629707.03216877,662.09961772749,2471435.3473934,46.527172717272,0,0
-31.845181362882,248.74929436233,41.331603160316,629707.03216877,662.09961772749,2471435.3473934,46.531603160316,0,0
-31.845181345104,248.77085209345,41.33603360336,629707.03216877,662.09961772749,2471435.3473934,46.53603360336,0,0
-31.845181327327,248.79240982457,41.340464046405,629707.03216877,662.09961772749,2471435.3473934,46.540464046405,0,0
-31.84518130955,248.8139675557,41.344894489449,629707.03216877,662.09961772749,2471435.3473934,46.544894489449,0,0
-31.845181291773,248.83552528682,41.349324932493,629707.03216877,662.09961772749,2471435.3473934,46.549324932493,0,0
-31.845181273995,248.85708301794,41.353755375538,629707.03216877,662.09961772749,2471435.3473934,46.553755375538,0,0
-31.845181256218,248.87864074907,41.358185818582,629707.03216877,662.09961772749,2471435.3473934,46.558185818582,0,0
-31.845181238441,248.90019848019,41.362616261626,629707.03216877,662.09961772749,2471435.3473934,46.562616261626,0,0
-31.845181220663,248.92175621131,41.36704670467,629707.03216877,662.09961772749,2471435.3473934,46.56704670467,0,0
-31.845181202886,248.94331394243,41.371477147715,629707.03216877,662.09961772749,2471435.3473934,46.571477147715,0,0
-31.845181185109,248.96487167356,41.375907590759,629707.03216877,662.09961772749,2471435.3473934,46.575907590759,0,0
-31.845181167331,248.98642940468,41.380338033803,629707.03216877,662.09961772749,2471435.3473934,46.580338033803,0,0
-31.845181149554,249.0079871358,41.384768476848,629707.03216877,662.09961772749,2471435.3473934,46.584768476848,0,0
-31.845181131777,249.02954486692,41.389198919892,629707.03216877,662.09961772749,2471435.3473934,46.589198919892,0,0
-31.845181114,249.05110259805,41.393629362936,629707.03216877,662.09961772749,2471435.3473934,46.593629362936,0,0
-31.845181096222,249.07266032917,41.398059805981,629707.03216877,662.09961772749,2471435.3473934,46.598059805981,0,0
-31.845181078445,249.09421806029,41.402490249025,629707.03216877,662.09961772749,2471435.3473934,46.602490249025,0,0
-31.845181060668,249.11577579142,41.406920692069,629707.03216877,662.09961772749,2471435.3473934,46.606920692069,0,0
-31.84518104289,249.13733352254,41.411351135114,629707.03216877,662.09961772749,2471435.3473934,46.611351135114,0,0
-31.845181025113,249.15889125366,41.415781578158,629707.03216877,662.09961772749,2471435.3473934,46.615781578158,0,0
-31.845181007336,249.18044898478,41.420212021202,629707.03216877,662.09961772749,2471435.3473934,46.620212021202,0,0
-31.845180989558,249.20200671591,41.424642464246,629707.03216877,662.09961772749,2471435.3473934,46.624642464246,0,0
-31.845180971781,249.22356444703,41.429072907291,629707.03216877,662.09961772749,2471435.3473934,46.629072907291,0,0
-31.845180954004,249.24512217815,41.433503350335,629707.03216877,662.09961772749,2471435.3473934,46.633503350335,0,0
-31.845180936226,249.26667990927,41.437933793379,629707.03216877,662.09961772749,2471435.3473934,46.637933793379,0,0
-31.845180918449,249.2882376404,41.442364236424,629707.03216877,662.09961772749,2471435.3473934,46.642364236424,0,0
-31.845180900672,249.30979537152,41.446794679468,629707.03216877,662.09961772749,2471435.3473934,46.646794679468,0,0
-31.845180882895,249.33135310264,41.451225122512,629707.03216877,662.09961772749,2471435.3473934,46.651225122512,0,0
-31.845180865117,249.35291083377,41.455655565557,629707.03216877,662.09961772749,2471435.3473934,46.655655565557,0,0
-31.84518084734,249.37446856489,41.460086008601,629707.03216877,662.09961772749,2471435.3473934,46.660086008601,0,0
-31.845180829563,249.39602629601,41.464516451645,629707.03216877,662.09961772749,2471435.3473934,46.664516451645,0,0
-31.845180811785,249.41758402713,41.468946894689,629707.03216877,662.09961772749,2471435.3473934,46.668946894689,0,0
-31.845180794008,249.43914175826,41.473377337734,629707.03216877,662.09961772749,2471435.3473934,46.673377337734,0,0
-31.845180776231,249.46069948938,41.477807780778,629707.03216877,662.09961772749,2471435.3473934,46.677807780778,0,0
-31.845180758453,249.4822572205,41.482238223822,629707.03216877,662.09961772749,2471435.3473934,46.682238223822,0,0
-31.845180740676,249.50381495162,41.486668666867,629707.03216877,662.09961772749,2471435.3473934,46.686668666867,0,0
-31.845180722899,249.52537268275,41.491099109911,629707.03216877,662.09961772749,2471435.3473934,46.691099109911,0,0
-31.845180705121,249.54693041387,41.495529552955,629707.03216877,662.09961772749,2471435.3473934,46.695529552955,0,0
-31.845180687344,249.56848814499,41.499959996,629707.03216877,662.09961772749,2471435.3473934,46.699959996,0,0
-31.845180669567,249.59004587611,41.504390439044,629707.03216877,662.09961772749,2471435.3473934,46.704390439044,0,0
-31.84518065179,249.61160360724,41.508820882088,629707.03216877,662.09961772749,2471435.3473934,46.708820882088,0,0
-31.845180634012,249.63316133836,41.513251325133,629707.03216877,662.09961772749,2471435.3473934,46.713251325133,0,0
-31.845180616235,249.65471906948,41.517681768177,629707.03216877,662.09961772749,2471435.3473934,46.717681768177,0,0
-31.845180598458,249.67627680061,41.522112211221,629707.03216877,662.09961772749,2471435.3473934,46.722112211221,0,0
-31.84518058068,249.69783453173,41.526542654265,629707.03216877,662.09961772749,2471435.3473934,46.726542654265,0,0
-31.845180562903,249.71939226285,41.53097309731,629707.03216877,662.09961772749,2471435.3473934,46.73097309731,0,0
-31.845180545126,249.74094999397,41.535403540354,629707.03216877,662.09961772749,2471435.3473934,46.735403540354,0,0
-31.845180527348,249.7625077251,41.539833983398,629707.03216877,662.09961772749,2471435.3473934,46.739833983398,0,0
-31.845180509571,249.78406545622,41.544264426443,629707.03216877,662.09961772749,2471435.3473934,46.744264426443,0,0
-31.845180491794,249.80562318734,41.548694869487,629707.03216877,662.09961772749,2471435.3473934,46.748694869487,0,0
-31.845180474017,249.82718091846,41.553125312531,629707.03216877,662.09961772749,2471435.3473934,46.753125312531,0,0
-31.845180456239,249.84873864959,41.557555755576,629707.03216877,662.09961772749,2471435.3473934,46.757555755576,0,0
-31.845180438462,249.87029638071,41.56198619862,629707.03216877,662.09961772749,2471435.3473934,46.76198619862,0,0
-31.845180420685,249.89185411183,41.566416641664,629707.03216877,662.09961772749,2471435.3473934,46.766416641664,0,0
-31.845180402907,249.91341184296,41.570847084708,629707.03216877,662.09961772749,2471435.3473934,46.770847084708,0,0
-31.84518038513,249.93496957408,41.575277527753,629707.03216877,662.09961772749,2471435.3473934,46.775277527753,0,0
-31.845180367353,249.9565273052,41.579707970797,629707.03216877,662.09961772749,2471435.3473934,46.779707970797,0,0
-31.845180349575,249.97808503632,41.584138413841,629707.03216877,662.09961772749,2471435.3473934,46.784138413841,0,0
-31.845180331798,249.99964276745,41.588568856886,629707.03216877,662.09961772749,2471435.3473934,46.788568856886,0,0
-31.845180314021,250.02120049857,41.59299929993,629707.03216877,662.09961772749,2471435.3473934,46.79299929993,0,0
-31.845180296243,250.04275822969,41.597429742974,629707.03216877,662.09961772749,2471435.3473934,46.797429742974,0,0
-31.845180278466,250.06431596081,41.601860186019,629707.03216877,662.09961772749,2471435.3473934,46.801860186019,0,0
-31.845180260689,250.08587369194,41.606290629063,629707.03216877,662.09961772749,2471435.3473934,46.806290629063,0,0
-31.845180242912,250.10743142306,41.610721072107,629707.03216877,662.09961772749,2471435.3473934,46.810721072107,0,0
-31.845180225134,250.12898915418,41.615151515152,629707.03216877,662.09961772749,2471435.3473934,46.815151515152,0,0
-31.845180207357,250.15054688531,41.619581958196,629707.03216877,662.09961772749,2471435.3473934,46.819581958196,0,0
-31.84518018958,250.17210461643,41.62401240124,629707.03216877,662.09961772749,2471435.3473934,46.82401240124,0,0
-31.845180171802,250.19366234755,41.628442844284,629707.03216877,662.09961772749,2471435.3473934,46.828442844284,0,0
-31.845180154025,250.21522007867,41.632873287329,629707.03216877,662.09961772749,2471435.3473934,46.832873287329,0,0
-31.845180136248,250.2367778098,41.637303730373,629707.03216877,662.09961772749,2471435.3473934,46.837303730373,0,0
-31.84518011847,250.25833554092,41.641734173417,629707.03216877,662.09961772749,2471435.3473934,46.841734173417,0,0
-31.845180100693,250.27989327204,41.646164616462,629707.03216877,662.09961772749,2471435.3473934,46.846164616462,0,0
-31.845180082916,250.30145100316,41.650595059506,629707.03216877,662.09961772749,2471435.3473934,46.850595059506,0,0
-31.845180065138,250.32300873429,41.65502550255,629707.03216877,662.09961772749,2471435.3473934,46.85502550255,0,0
-31.845180047361,250.34456646541,41.659455945595,629707.03216877,662.09961772749,2471435.3473934,46.859455945595,0,0
-31.845180029584,250.36612419653,41.663886388639,629707.03216877,662.09961772749,2471435.3473934,46.863886388639,0,0
-31.845180011807,250.38768192765,41.668316831683,629707.03216877,662.09961772749,2471435.3473934,46.868316831683,0,0
-31.845179994029,250.40923965878,41.672747274727,629707.03216877,662.09961772749,2471435.3473934,46.872747274727,0,0
-31.845179976252,250.4307973899,41.677177717772,629707.03216877,662.09961772749,2471435.3473934,46.877177717772,0,0
-31.845179958475,250.45235512102,41.681608160816,629707.03216877,662.09961772749,2471435.3473934,46.881608160816,0,0
-31.845179940697,250.47391285215,41.68603860386,629707.03216877,662.09961772749,2471435.3473934,46.88603860386,0,0
-31.84517992292,250.49547058327,41.690469046905,629707.03216877,662.09961772749,2471435.3473934,46.890469046905,0,0
-31.845179905143,250.51702831439,41.694899489949,629707.03216877,662.09961772749,2471435.3473934,46.894899489949,0,0
-31.845179887365,250.53858604551,41.699329932993,629707.03216877,662.09961772749,2471435.3473934,46.899329932993,0,0
-31.845179869588,250.56014377664,41.703760376038,629707.03216877,662.09961772749,2471435.3473934,46.903760376038,0,0
-31.845179851811,250.58170150776,41.708190819082,629707.03216877,662.09961772749,2471435.3473934,46.908190819082,0,0
-31.845179834034,250.60325923888,41.712621262126,629707.03216877,662.09961772749,2471435.3473934,46.912621262126,0,0
-31.845179816256,250.62481697,41.717051705171,629707.03216877,662.09961772749,2471435.3473934,46.917051705171,0,0
-31.845179798479,250.64637470113,41.721482148215,629707.03216877,662.09961772749,2471435.3473934,46.921482148215,0,0
-31.845179780702,250.66793243225,41.725912591259,629707.03216877,662.09961772749,2471435.3473934,46.925912591259,0,0
-31.845179762924,250.68949016337,41.730343034303,629707.03216877,662.09961772749,2471435.3473934,46.930343034303,0,0
-31.845179745147,250.7110478945,41.734773477348,629707.03216877,662.09961772749,2471435.3473934,46.934773477348,0,0
-31.84517972737,250.73260562562,41.739203920392,629707.03216877,662.09961772749,2471435.3473934,46.939203920392,0,0
-31.845179709592,250.75416335674,41.743634363436,629707.03216877,662.09961772749,2471435.3473934,46.943634363436,0,0
-31.845179691815,250.77572108786,41.748064806481,629707.03216877,662.09961772749,2471435.3473934,46.948064806481,0,0
-31.845179674038,250.79727881899,41.752495249525,629707.03216877,662.09961772749,2471435.3473934,46.952495249525,0,0
-31.84517965626,250.81883655011,41.756925692569,629707.03216877,662.09961772749,2471435.3473934,46.956925692569,0,0
-31.845179638483,250.84039428123,41.761356135614,629707.03216877,662.09961772749,2471435.3473934,46.961356135614,0,0
-31.845179620706,250.86195201235,41.765786578658,629707.03216877,662.09961772749,2471435.3473934,46.965786578658,0,0
-31.845179602929,250.88350974348,41.770217021702,629707.03216877,662.09961772749,2471435.3473934,46.970217021702,0,0
-31.845179585151,250.9050674746,41.774647464746,629707.03216877,662.09961772749,2471435.3473934,46.974647464746,0,0
-31.845179567374,250.92662520572,41.779077907791,629707.03216877,662.09961772749,2471435.3473934,46.979077907791,0,0
-31.845179549597,250.94818293685,41.783508350835,629707.03216877,662.09961772749,2471435.3473934,46.983508350835,0,0
-31.845179531819,250.96974066797,41.787938793879,629707.03216877,662.09961772749,2471435.3473934,46.987938793879,0,0
-31.845179514042,250.99129839909,41.792369236924,629707.03216877,662.09961772749,2471435.3473934,46.992369236924,0,0
-31.845179496265,251.01285613021,41.796799679968,629707.03216877,662.09961772749,2471435.3473934,46.996799679968,0,0
-31.845179478487,251.03441386134,41.801230123012,629707.03216877,662.09961772749,2471435.3473934,47.001230123012,0,0
-31.84517946071,251.05597159246,41.805660566057,629707.03216877,662.09961772749,2471435.3473934,47.005660566057,0,0
-31.845179442933,251.07752932358,41.810091009101,629707.03216877,662.09961772749,2471435.3473934,47.010091009101,0,0
-31.845179425155,251.0990870547,41.814521452145,629707.03216877,662.09961772749,2471435.3473934,47.014521452145,0,0
-31.845179407378,251.12064478583,41.81895189519,629707.03216877,662.09961772749,2471435.3473934,47.01895189519,0,0
-31.845179389601,251.14220251695,41.823382338234,629707.03216877,662.09961772749,2471435.3473934,47.023382338234,0,0
-31.845179371824,251.16376024807,41.827812781278,629707.03216877,662.09961772749,2471435.3473934,47.027812781278,0,0
-31.845179354046,251.18531797919,41.832243224322,629707.03216877,662.09961772749,2471435.3473934,47.032243224322,0,0
-31.845179336269,251.20687571032,41.836673667367,629707.03216877,662.09961772749,2471435.3473934,47.036673667367,0,0
-31.845179318492,251.22843344144,41.841104110411,629707.03216877,662.09961772749,2471435.3473934,47.041104110411,0,0
-31.845179300714,251.24999117256,41.845534553455,629707.03216877,662.09961772749,2471435.3473934,47.045534553455,0,0
-31.845179282937,251.27154890369,41.8499649965,629707.03216877,662.09961772749,2471435.3473934,47.0499649965,0,0
-31.84517926516,251.29310663481,41.854395439544,629707.03216877,662.09961772749,2471435.3473934,47.054395439544,0,0
-31.845179247382,251.31466436593,41.858825882588,629707.03216877,662.09961772749,2471435.3473934,47.058825882588,0,0
-31.845179229605,251.33622209705,41.863256325633,629707.03216877,662.09961772749,2471435.3473934,47.063256325633,0,0
-31.845179211828,251.35777982818,41.867686768677,629707.03216877,662.09961772749,2471435.3473934,47.067686768677,0,0
-31.845179194051,251.3793375593,41.872117211721,629707.03216877,662.09961772749,2471435.3473934,47.072117211721,0,0
-31.845179176273,251.40089529042,41.876547654765,629707.03216877,662.09961772749,2471435.3473934,47.076547654765,0,0
-31.845179158496,251.42245302154,41.88097809781,629707.03216877,662.09961772749,2471435.3473934,47.08097809781,0,0
-31.845179140719,251.44401075267,41.885408540854,629707.03216877,662.09961772749,2471435.3473934,47.085408540854,0,0
-31.845179122941,251.46556848379,41.889838983898,629707.03216877,662.09961772749,2471435.3473934,47.089838983898,0,0
-31.845179105164,251.48712621491,41.894269426943,629707.03216877,662.09961772749,2471435.3473934,47.094269426943,0,0
-31.845179087387,251.50868394604,41.898699869987,629707.03216877,662.09961772749,2471435.3473934,47.098699869987,0,0
-31.845179069609,251.53024167716,41.903130313031,629707.03216877,662.09961772749,2471435.3473934,47.103130313031,0,0
-31.845179051832,251.55179940828,41.907560756076,629707.03216877,662.09961772749,2471435.3473934,47.107560756076,0,0
-31.845179034055,251.5733571394,41.91199119912,629707.03216877,662.09961772749,2471435.3473934,47.11199119912,0,0
-31.845179016277,251.59491487053,41.916421642164,629707.03216877,662.09961772749,2471435.3473934,47.116421642164,0,0
-31.8451789985,251.61647260165,41.920852085209,629707.03216877,662.09961772749,2471435.3473934,47.120852085209,0,0
-31.845178980723,251.63803033277,41.925282528253,629707.03216877,662.09961772749,2471435.3473934,47.125282528253,0,0
-31.845178962946,251.65958806389,41.929712971297,629707.03216877,662.09961772749,2471435.3473934,47.129712971297,0,0
-31.845178945168,251.68114579502,41.934143414341,629707.03216877,662.09961772749,2471435.3473934,47.134143414341,0,0
-31.845178927391,251.70270352614,41.938573857386,629707.03216877,662.09961772749,2471435.3473934,47.138573857386,0,0
-31.845178909614,251.72426125726,41.94300430043,629707.03216877,662.09961772749,2471435.3473934,47.14300430043,0,0
-31.845178891836,251.74581898839,41.947434743474,629707.03216877,662.09961772749,2471435.3473934,47.147434743474,0,0
-31.845178874059,251.76737671951,41.951865186519,629707.03216877,662.09961772749,2471435.3473934,47.151865186519,0,0
-31.845178856282,251.78893445063,41.956295629563,629707.03216877,662.09961772749,2471435.3473934,47.156295629563,0,0
-31.845178838504,251.81049218175,41.960726072607,629707.03216877,662.09961772749,2471435.3473934,47.160726072607,0,0
-31.845178820727,251.83204991288,41.965156515652,629707.03216877,662.09961772749,2471435.3473934,47.165156515652,0,0
-31.84517880295,251.853607644,41.969586958696,629707.03216877,662.09961772749,2471435.3473934,47.169586958696,0,0
-31.845178785172,251.87516537512,41.97401740174,629707.03216877,662.09961772749,2471435.3473934,47.17401740174,0,0
-31.845178767395,251.89672310624,41.978447844784,629707.03216877,662.09961772749,2471435.3473934,47.178447844784,0,0
-31.845178749618,251.91828083737,41.982878287829,629707.03216877,662.09961772749,2471435.3473934,47.182878287829,0,0
-31.845178731841,251.93983856849,41.987308730873,629707.03216877,662.09961772749,2471435.3473934,47.187308730873,0,0
-31.845178714063,251.96139629961,41.991739173917,629707.03216877,662.09961772749,2471435.3473934,47.191739173917,0,0
-31.845178696286,251.98295403073,41.996169616962,629707.03216877,662.09961772749,2471435.3473934,47.196169616962,0,0
-31.845178678509,252.00451176186,42.000600060006,629707.03216877,662.09961772749,2471435.3473934,47.200600060006,0,0
-31.845178660731,252.02606949298,42.00503050305,629707.03216877,662.09961772749,2471435.3473934,47.20503050305,0,0
-31.845178642954,252.0476272241,42.009460946095,629707.03216877,662.09961772749,2471435.3473934,47.209460946095,0,0
-31.845178625177,252.06918495523,42.013891389139,629707.03216877,662.09961772749,2471435.3473934,47.213891389139,0,0
-31.845178607399,252.09074268635,42.018321832183,629707.03216877,662.09961772749,2471435.3473934,47.218321832183,0,0
-31.845178589622,252.11230041747,42.022752275228,629707.03216877,662.09961772749,2471435.3473934,47.222752275228,0,0
-31.845178571845,252.13385814859,42.027182718272,629707.03216877,662.09961772749,2471435.3473934,47.227182718272,0,0
-31.845178554067,252.15541587972,42.031613161316,629707.03216877,662.09961772749,2471435.3473934,47.231613161316,0,0
-31.84517853629,252.17697361084,42.03604360436,629707.03216877,662.09961772749,2471435.3473934,47.23604360436,0,0
-31.845178518513,252.19853134196,42.040474047405,629707.03216877,662.09961772749,2471435.3473934,47.240474047405,0,0
-31.845178500736,252.22008907308,42.044904490449,629707.03216877,662.09961772749,2471435.3473934,47.244904490449,0,0
-31.845178482958,252.24164680421,42.049334933493,629707.03216877,662.09961772749,2471435.3473934,47.249334933493,0,0
-31.845178465181,252.26320453533,42.053765376538,629707.03216877,662.09961772749,2471435.3473934,47.253765376538,0,0
-31.845178447404,252.28476226645,42.058195819582,629707.03216877,662.09961772749,2471435.3473934,47.258195819582,0,0
-31.845178429626,252.30631999758,42.062626262626,629707.03216877,662.09961772749,2471435.3473934,47.262626262626,0,0
-31.845178411849,252.3278777287,42.067056705671,629707.03216877,662.09961772749,2471435.3473934,47.267056705671,0,0
-31.845178394072,252.34943545982,42.071487148715,629707.03216877,662.09961772749,2471435.3473934,47.271487148715,0,0
-31.845178376294,252.37099319094,42.075917591759,629707.03216877,662.09961772749,2471435.3473934,47.275917591759,0,0
-31.845178358517,252.39255092207,42.080348034803,629707.03216877,662.09961772749,2471435.3473934,47.280348034803,0,0
-31.84517834074,252.41410865319,42.084778477848,629707.03216877,662.09961772749,2471435.3473934,47.284778477848,0,0
-31.845178322963,252.43566638431,42.089208920892,629707.03216877,662.09961772749,2471435.3473934,47.289208920892,0,0
-31.845178305185,252.45722411543,42.093639363936,629707.03216877,662.09961772749,2471435.3473934,47.293639363936,0,0
-31.845178287408,252.47878184656,42.098069806981,629707.03216877,662.09961772749,2471435.3473934,47.298069806981,0,0
-31.845178269631,252.50033957768,42.102500250025,629707.03216877,662.09961772749,2471435.3473934,47.302500250025,0,0
-31.845178251853,252.5218973088,42.106930693069,629707.03216877,662.09961772749,2471435.3473934,47.306930693069,0,0
-31.845178234076,252.54345503993,42.111361136114,629707.03216877,662.09961772749,2471435.3473934,47.311361136114,0,0
-31.845178216299,252.56501277105,42.115791579158,629707.03216877,662.09961772749,2471435.3473934,47.315791579158,0,0
-31.845178198521,252.58657050217,42.120222022202,629707.03216877,662.09961772749,2471435.3473934,47.320222022202,0,0
-31.845178180744,252.60812823329,42.124652465247,629707.03216877,662.09961772749,2471435.3473934,47.324652465247,0,0
-31.845178162967,252.62968596442,42.129082908291,629707.03216877,662.09961772749,2471435.3473934,47.329082908291,0,0
-31.845178145189,252.65124369554,42.133513351335,629707.03216877,662.09961772749,2471435.3473934,47.333513351335,0,0
-31.845178127412,252.67280142666,42.137943794379,629707.03216877,662.09961772749,2471435.3473934,47.337943794379,0,0
-31.845178109635,252.69435915778,42.142374237424,629707.03216877,662.09961772749,2471435.3473934,47.342374237424,0,0
-31.845178091858,252.71591688891,42.146804680468,629707.03216877,662.09961772749,2471435.3473934,47.346804680468,0,0
-31.84517807408,252.73747462003,42.151235123512,629707.03216877,662.09961772749,2471435.3473934,47.351235123512,0,0
-31.845178056303,252.75903235115,42.155665566557,629707.03216877,662.09961772749,2471435.3473934,47.355665566557,0,0
-31.845178038526,252.78059008227,42.160096009601,629707.03216877,662.09961772749,2471435.3473934,47.360096009601,0,0
-31.845178020748,252.8021478134,42.164526452645,629707.03216877,662.09961772749,2471435.3473934,47.364526452645,0,0
-31.845178002971,252.82370554452,42.16895689569,629707.03216877,662.09961772749,2471435.3473934,47.36895689569,0,0
-31.845177985194,252.84526327564,42.173387338734,629707.03216877,662.09961772749,2471435.3473934,47.373387338734,0,0
-31.845177967416,252.86682100677,42.177817781778,629707.03216877,662.09961772749,2471435.3473934,47.377817781778,0,0
-31.845177949639,252.88837873789,42.182248224822,629707.03216877,662.09961772749,2471435.3473934,47.382248224822,0,0
-31.845177931862,252.90993646901,42.186678667867,629707.03216877,662.09961772749,2471435.3473934,47.386678667867,0,0
-31.845177914084,252.93149420013,42.191109110911,629707.03216877,662.09961772749,2471435.3473934,47.391109110911,0,0
-31.845177896307,252.95305193126,42.195539553955,629707.03216877,662.09961772749,2471435.3473934,47.395539553955,0,0
-31.84517787853,252.97460966238,42.199969997,629707.03216877,662.09961772749,2471435.3473934,47.399969997,0,0
-31.845177860753,252.9961673935,42.204400440044,629707.03216877,662.09961772749,2471435.3473934,47.404400440044,0,0
-31.845177842975,253.01772512462,42.208830883088,629707.03216877,662.09961772749,2471435.3473934,47.408830883088,0,0
-31.845177825198,253.03928285575,42.213261326133,629707.03216877,662.09961772749,2471435.3473934,47.413261326133,0,0
-31.845177807421,253.06084058687,42.217691769177,629707.03216877,662.09961772749,2471435.3473934,47.417691769177,0,0
-31.845177789643,253.08239831799,42.222122212221,629707.03216877,662.09961772749,2471435.3473934,47.422122212221,0,0
-31.845177771866,253.10395604912,42.226552655266,629707.03216877,662.09961772749,2471435.3473934,47.426552655266,0,0
-31.845177754089,253.12551378024,42.23098309831,629707.03216877,662.09961772749,2471435.3473934,47.43098309831,0,0
-31.845177736311,253.14707151136,42.235413541354,629707.03216877,662.09961772749,2471435.3473934,47.435413541354,0,0
-31.845177718534,253.16862924248,42.239843984398,629707.03216877,662.09961772749,2471435.3473934,47.439843984398,0,0
-31.845177700757,253.19018697361,42.244274427443,629707.03216877,662.09961772749,2471435.3473934,47.444274427443,0,0
-31.84517768298,253.21174470473,42.248704870487,629707.03216877,662.09961772749,2471435.3473934,47.448704870487,0,0
-31.845177665202,253.23330243585,42.253135313531,629707.03216877,662.09961772749,2471435.3473934,47.453135313531,0,0
-31.845177647425,253.25486016697,42.257565756576,629707.03216877,662.09961772749,2471435.3473934,47.457565756576,0,0
-31.845177629648,253.2764178981,42.26199619962,629707.03216877,662.09961772749,2471435.3473934,47.46199619962,0,0
-31.84517761187,253.29797562922,42.266426642664,629707.03216877,662.09961772749,2471435.3473934,47.466426642664,0,0
-31.845177594093,253.31953336034,42.270857085709,629707.03216877,662.09961772749,2471435.3473934,47.470857085709,0,0
-31.845177576316,253.34109109146,42.275287528753,629707.03216877,662.09961772749,2471435.3473934,47.475287528753,0,0
-31.845177558538,253.36264882259,42.279717971797,629707.03216877,662.09961772749,2471435.3473934,47.479717971797,0,0
-31.845177540761,253.38420655371,42.284148414841,629707.03216877,662.09961772749,2471435.3473934,47.484148414841,0,0
-31.845177522984,253.40576428483,42.288578857886,629707.03216877,662.09961772749,2471435.3473934,47.488578857886,0,0
-31.845177505206,253.42732201596,42.29300930093,629707.03216877,662.09961772749,2471435.3473934,47.49300930093,0,0
-31.845177487429,253.44887974708,42.297439743974,629707.03216877,662.09961772749,2471435.3473934,47.497439743974,0,0
-31.845177469652,253.4704374782,42.301870187019,629707.03216877,662.09961772749,2471435.3473934,47.501870187019,0,0
-31.845177451875,253.49199520932,42.306300630063,629707.03216877,662.09961772749,2471435.3473934,47.506300630063,0,0
-31.845177434097,253.51355294045,42.310731073107,629707.03216877,662.09961772749,2471435.3473934,47.510731073107,0,0
-31.84517741632,253.53511067157,42.315161516152,629707.03216877,662.09961772749,2471435.3473934,47.515161516152,0,0
-31.845177398543,253.55666840269,42.319591959196,629707.03216877,662.09961772749,2471435.3473934,47.519591959196,0,0
-31.845177380765,253.57822613381,42.32402240224,629707.03216877,662.09961772749,2471435.3473934,47.52402240224,0,0
-31.845177362988,253.59978386494,42.328452845285,629707.03216877,662.09961772749,2471435.3473934,47.528452845285,0,0
-31.845177345211,253.62134159606,42.332883288329,629707.03216877,662.09961772749,2471435.3473934,47.532883288329,0,0
-31.845177327433,253.64289932718,42.337313731373,629707.03216877,662.09961772749,2471435.3473934,47.537313731373,0,0
-31.845177309656,253.66445705831,42.341744174417,629707.03216877,662.09961772749,2471435.3473934,47.541744174417,0,0
-31.845177291879,253.68601478943,42.346174617462,629707.03216877,662.09961772749,2471435.3473934,47.546174617462,0,0
-31.845177274101,253.70757252055,42.350605060506,629707.03216877,662.09961772749,2471435.3473934,47.550605060506,0,0
-31.845177256324,253.72913025167,42.35503550355,629707.03216877,662.09961772749,2471435.3473934,47.55503550355,0,0
-31.845177238547,253.7506879828,42.359465946595,629707.03216877,662.09961772749,2471435.3473934,47.559465946595,0,0
-31.84517722077,253.77224571392,42.363896389639,629707.03216877,662.09961772749,2471435.3473934,47.563896389639,0,0
-31.845177202992,253.79380344504,42.368326832683,629707.03216877,662.09961772749,2471435.3473934,47.568326832683,0,0
-31.845177185215,253.81536117616,42.372757275728,629707.03216877,662.09961772749,2471435.3473934,47.572757275728,0,0
-31.845177167438,253.83691890729,42.377187718772,629707.03216877,662.09961772749,2471435.3473934,47.577187718772,0,0
-31.84517714966,253.85847663841,42.381618161816,629707.03216877,662.09961772749,2471435.3473934,47.581618161816,0,0
-31.845177131883,253.88003436953,42.38604860486,629707.03216877,662.09961772749,2471435.3473934,47.58604860486,0,0
-31.845177114106,253.90159210066,42.390479047905,629707.03216877,662.09961772749,2471435.3473934,47.590479047905,0,0
-31.845177096328,253.92314983178,42.394909490949,629707.03216877,662.09961772749,2471435.3473934,47.594909490949,0,0
-31.845177078551,253.9447075629,42.399339933993,629707.03216877,662.09961772749,2471435.3473934,47.599339933993,0,0
-31.845177060774,253.96626529402,42.403770377038,629707.03216877,662.09961772749,2471435.3473934,47.603770377038,0,0
-31.845177042996,253.98782302515,42.408200820082,629707.03216877,662.09961772749,2471435.3473934,47.608200820082,0,0
-31.845177025219,254.00938075627,42.412631263126,629707.03216877,662.09961772749,2471435.3473934,47.612631263126,0,0
-31.845177007442,254.03093848739,42.417061706171,629707.03216877,662.09961772749,2471435.3473934,47.617061706171,0,0
-31.845176989665,254.05249621851,42.421492149215,629707.03216877,662.09961772749,2471435.3473934,47.621492149215,0,0
-31.845176971887,254.07405394964,42.425922592259,629707.03216877,662.09961772749,2471435.3473934,47.625922592259,0,0
-31.84517695431,254.09561168071,42.430353035304,624642.34784102,152.40238326435,2469686.8973274,47.630353035304,0,0
-31.845176936891,254.11716941174,42.434783478348,624642.34784102,152.40238326435,2469686.8973274,47.634783478348,0,0
-31.845176919472,254.13872714278,42.439213921392,624642.34784102,152.40238326435,2469686.8973274,47.639213921392,0,0
-31.845176902052,254.16028487381,42.443644364436,624642.34784102,152.40238326435,2469686.8973274,47.643644364436,0,0
-31.845176884633,254.18184260484,42.448074807481,624642.34784102,152.40238326435,2469686.8973274,47.648074807481,0,0
-31.845176867214,254.20340033588,42.452505250525,624642.34784102,152.40238326435,2469686.8973274,47.652505250525,0,0
-31.845176849794,254.22495806691,42.456935693569,624642.34784102,152.40238326435,2469686.8973274,47.656935693569,0,0
-31.845176832375,254.24651579794,42.461366136614,624642.34784102,152.40238326435,2469686.8973274,47.661366136614,0,0
-31.845176814956,254.26807352898,42.465796579658,624642.34784102,152.40238326435,2469686.8973274,47.665796579658,0,0
-31.845176797536,254.28963126001,42.470227022702,624642.34784102,152.40238326435,2469686.8973274,47.670227022702,0,0
-31.845176780117,254.31118899104,42.474657465747,624642.34784102,152.40238326435,2469686.8973274,47.674657465747,0,0
-31.845176762698,254.33274672208,42.479087908791,624642.34784102,152.40238326435,2469686.8973274,47.679087908791,0,0
-31.845176745279,254.35430445311,42.483518351835,624642.34784102,152.40238326435,2469686.8973274,47.683518351835,0,0
-31.845176727859,254.37586218414,42.487948794879,624642.34784102,152.40238326435,2469686.8973274,47.687948794879,0,0
-31.84517671044,254.39741991518,42.492379237924,624642.34784102,152.40238326435,2469686.8973274,47.692379237924,0,0
-31.845176693021,254.41897764621,42.496809680968,624642.34784102,152.40238326435,2469686.8973274,47.696809680968,0,0
-31.845176675601,254.44053537724,42.501240124012,624642.34784102,152.40238326435,2469686.8973274,47.701240124012,0,0
-31.845176658182,254.46209310828,42.505670567057,624642.34784102,152.40238326435,2469686.8973274,47.705670567057,0,0
-31.845176640763,254.48365083931,42.510101010101,624642.34784102,152.40238326435,2469686.8973274,47.710101010101,0,0
-31.845176623343,254.50520857034,42.514531453145,624642.34784102,152.40238326435,2469686.8973274,47.714531453145,0,0
-31.845176605924,254.52676630138,42.51896189619,624642.34784102,152.40238326435,2469686.8973274,47.71896189619,0,0
-31.845176588505,254.54832403241,42.523392339234,624642.34784102,152.40238326435,2469686.8973274,47.723392339234,0,0
-31.845176571085,254.56988176344,42.527822782278,624642.34784102,152.40238326435,2469686.8973274,47.727822782278,0,0
-31.845176553666,254.59143949448,42.532253225323,624642.34784102,152.40238326435,2469686.8973274,47.732253225323,0,0
-31.845176536247,254.61299722551,42.536683668367,624642.34784102,152.40238326435,2469686.8973274,47.736683668367,0,0
-31.845176518827,254.63455495655,42.541114111411,624642.34784102,152.40238326435,2469686.8973274,47.741114111411,0,0
-31.845176501408,254.65611268758,42.545544554455,624642.34784102,152.40238326435,2469686.8973274,47.745544554455,0,0
-31.845176483989,254.67767041861,42.5499749975,624642.34784102,152.40238326435,2469686.8973274,47.7499749975,0,0
-31.845176466569,254.69922814965,42.554405440544,624642.34784102,152.40238326435,2469686.8973274,47.754405440544,0,0
-31.84517644915,254.72078588068,42.558835883588,624642.34784102,152.40238326435,2469686.8973274,47.758835883588,0,0
-31.845176431731,254.74234361171,42.563266326633,624642.34784102,152.40238326435,2469686.8973274,47.763266326633,0,0
-31.845176414312,254.76390134275,42.567696769677,624642.34784102,152.40238326435,2469686.8973274,47.767696769677,0,0
-31.845176396892,254.78545907378,42.572127212721,624642.34784102,152.40238326435,2469686.8973274,47.772127212721,0,0
-31.845176379473,254.80701680481,42.576557655766,624642.34784102,152.40238326435,2469686.8973274,47.776557655766,0,0
-31.845176362054,254.82857453585,42.58098809881,624642.34784102,152.40238326435,2469686.8973274,47.78098809881,0,0
-31.845176344634,254.85013226688,42.585418541854,624642.34784102,152.40238326435,2469686.8973274,47.785418541854,0,0
-31.845176327215,254.87168999791,42.589848984898,624642.34784102,152.40238326435,2469686.8973274,47.789848984898,0,0
-31.845176309796,254.89324772895,42.594279427943,624642.34784102,152.40238326435,2469686.8973274,47.794279427943,0,0
-31.845176292376,254.91480545998,42.598709870987,624642.34784102,152.40238326435,2469686.8973274,47.798709870987,0,0
-31.845176274957,254.93636319101,42.603140314031,624642.34784102,152.40238326435,2469686.8973274,47.803140314031,0,0
-31.845176257538,254.95792092205,42.607570757076,624642.34784102,152.40238326435,2469686.8973274,47.807570757076,0,0
-31.845176240118,254.97947865308,42.61200120012,624642.34784102,152.40238326435,2469686.8973274,47.81200120012,0,0
-31.845176222699,255.00103638411,42.616431643164,624642.34784102,152.40238326435,2469686.8973274,47.816431643164,0,0
-31.84517620528,255.02259411515,42.620862086209,624642.34784102,152.40238326435,2469686.8973274,47.820862086209,0,0
-31.84517618786,255.04415184618,42.625292529253,624642.34784102,152.40238326435,2469686.8973274,47.825292529253,0,0
-31.845176170441,255.06570957721,42.629722972297,624642.34784102,152.40238326435,2469686.8973274,47.829722972297,0,0
-31.845176153022,255.08726730825,42.634153415342,624642.34784102,152.40238326435,2469686.8973274,47.834153415342,0,0
-31.845176135603,255.10882503928,42.638583858386,624642.34784102,152.40238326435,2469686.8973274,47.838583858386,0,0
-31.845176118183,255.13038277031,42.64301430143,624642.34784102,152.40238326435,2469686.8973274,47.84301430143,0,0
-31.845176100764,255.15194050135,42.647444744474,624642.34784102,152.40238326435,2469686.8973274,47.847444744474,0,0
-31.845176083345,255.17349823238,42.651875187519,624642.34784102,152.40238326435,2469686.8973274,47.851875187519,0,0
-31.845176065925,255.19505596341,42.656305630563,624642.34784102,152.40238326435,2469686.8973274,47.856305630563,0,0
-31.845176048506,255.21661369445,42.660736073607,624642.34784102,152.40238326435,2469686.8973274,47.860736073607,0,0
-31.845176031087,255.23817142548,42.665166516652,624642.34784102,152.40238326435,2469686.8973274,47.865166516652,0,0
-31.845176013667,255.25972915651,42.669596959696,624642.34784102,152.40238326435,2469686.8973274,47.869596959696,0,0
-31.845175996248,255.28128688755,42.67402740274,624642.34784102,152.40238326435,2469686.8973274,47.87402740274,0,0
-31.845175978829,255.30284461858,42.678457845785,624642.34784102,152.40238326435,2469686.8973274,47.878457845785,0,0
-31.845175961409,255.32440234961,42.682888288829,624642.34784102,152.40238326435,2469686.8973274,47.882888288829,0,0
-31.84517594399,255.34596008065,42.687318731873,624642.34784102,152.40238326435,2469686.8973274,47.887318731873,0,0
-31.845175926571,255.36751781168,42.691749174917,624642.34784102,152.40238326435,2469686.8973274,47.891749174917,0,0
-31.845175909151,255.38907554271,42.696179617962,624642.34784102,152.40238326435,2469686.8973274,47.896179617962,0,0
-31.845175891732,255.41063327375,42.700610061006,624642.34784102,152.40238326435,2469686.8973274,47.900610061006,0,0
-31.845175874313,255.43219100478,42.70504050405,624642.34784102,152.40238326435,2469686.8973274,47.90504050405,0,0
-31.845175856894,255.45374873582,42.709470947095,624642.34784102,152.40238326435,2469686.8973274,47.909470947095,0,0
-31.845175839474,255.47530646685,42.713901390139,624642.34784102,152.40238326435,2469686.8973274,47.913901390139,0,0
-31.845175822055,255.49686419788,42.718331833183,624642.34784102,152.40238326435,2469686.8973274,47.918331833183,0,0
-31.845175804636,255.51842192892,42.722762276228,624642.34784102,152.40238326435,2469686.8973274,47.922762276228,0,0
-31.845175787216,255.53997965995,42.727192719272,624642.34784102,152.40238326435,2469686.8973274,47.927192719272,0,0
-31.845175769797,255.56153739098,42.731623162316,624642.34784102,152.40238326435,2469686.8973274,47.931623162316,0,0
-31.845175752378,255.58309512202,42.736053605361,624642.34784102,152.40238326435,2469686.8973274,47.936053605361,0,0
-31.845175734958,255.60465285305,42.740484048405,624642.34784102,152.40238326435,2469686.8973274,47.940484048405,0,0
-31.845175717539,255.62621058408,42.744914491449,624642.34784102,152.40238326435,2469686.8973274,47.944914491449,0,0
-31.84517570012,255.64776831512,42.749344934493,624642.34784102,152.40238326435,2469686.8973274,47.949344934493,0,0
-31.8451756827,255.66932604615,42.753775377538,624642.34784102,152.40238326435,2469686.8973274,47.953775377538,0,0
-31.845175665281,255.69088377718,42.758205820582,624642.34784102,152.40238326435,2469686.8973274,47.958205820582,0,0
-31.845175647862,255.71244150822,42.762636263626,624642.34784102,152.40238326435,2469686.8973274,47.962636263626,0,0
-31.845175630442,255.73399923925,42.767066706671,624642.34784102,152.40238326435,2469686.8973274,47.967066706671,0,0
-31.845175613023,255.75555697028,42.771497149715,624642.34784102,152.40238326435,2469686.8973274,47.971497149715,0,0
-31.845175595604,255.77711470132,42.775927592759,624642.34784102,152.40238326435,2469686.8973274,47.975927592759,0,0
-31.845175578185,255.79867243235,42.780358035804,624642.34784102,152.40238326435,2469686.8973274,47.980358035804,0,0
-31.845175560765,255.82023016338,42.784788478848,624642.34784102,152.40238326435,2469686.8973274,47.984788478848,0,0
-31.845175543346,255.84178789442,42.789218921892,624642.34784102,152.40238326435,2469686.8973274,47.989218921892,0,0
-31.845175525927,255.86334562545,42.793649364936,624642.34784102,152.40238326435,2469686.8973274,47.993649364936,0,0
-31.845175508507,255.88490335648,42.798079807981,624642.34784102,152.40238326435,2469686.8973274,47.998079807981,0,0
-31.845175491088,255.90646108752,42.802510251025,624642.34784102,152.40238326435,2469686.8973274,48.002510251025,0,0
-31.845175473669,255.92801881855,42.806940694069,624642.34784102,152.40238326435,2469686.8973274,48.006940694069,0,0
-31.845175456249,255.94957654958,42.811371137114,624642.34784102,152.40238326435,2469686.8973274,48.011371137114,0,0
-31.84517543883,255.97113428062,42.815801580158,624642.34784102,152.40238326435,2469686.8973274,48.015801580158,0,0
-31.845175421411,255.99269201165,42.820232023202,624642.34784102,152.40238326435,2469686.8973274,48.020232023202,0,0
-31.845175403991,256.01424974268,42.824662466247,624642.34784102,152.40238326435,2469686.8973274,48.024662466247,0,0
-31.845175386572,256.03580747372,42.829092909291,624642.34784102,152.40238326435,2469686.8973274,48.029092909291,0,0
-31.845175369153,256.05736520475,42.833523352335,624642.34784102,152.40238326435,2469686.8973274,48.033523352335,0,0
-31.845175351733,256.07892293578,42.83795379538,624642.34784102,152.40238326435,2469686.8973274,48.03795379538,0,0
-31.845175334314,256.10048066682,42.842384238424,624642.34784102,152.40238326435,2469686.8973274,48.042384238424,0,0
-31.845175316895,256.12203839785,42.846814681468,624642.34784102,152.40238326435,2469686.8973274,48.046814681468,0,0
-31.845175299476,256.14359612888,42.851245124512,624642.34784102,152.40238326435,2469686.8973274,48.051245124512,0,0
-31.845175282056,256.16515385992,42.855675567557,624642.34784102,152.40238326435,2469686.8973274,48.055675567557,0,0
-31.845175264637,256.18671159095,42.860106010601,624642.34784102,152.40238326435,2469686.8973274,48.060106010601,0,0
-31.845175247218,256.20826932199,42.864536453645,624642.34784102,152.40238326435,2469686.8973274,48.064536453645,0,0
-31.845175229798,256.22982705302,42.86896689669,624642.34784102,152.40238326435,2469686.8973274,48.06896689669,0,0
-31.845175212379,256.25138478405,42.873397339734,624642.34784102,152.40238326435,2469686.8973274,48.073397339734,0,0
-31.84517519496,256.27294251509,42.877827782778,624642.34784102,152.40238326435,2469686.8973274,48.077827782778,0,0
-31.84517517754,256.29450024612,42.882258225823,624642.34784102,152.40238326435,2469686.8973274,48.082258225823,0,0
-31.845175160121,256.31605797715,42.886688668867,624642.34784102,152.40238326435,2469686.8973274,48.086688668867,0,0
-31.845175142702,256.33761570819,42.891119111911,624642.34784102,152.40238326435,2469686.8973274,48.091119111911,0,0
-31.845175125282,256.35917343922,42.895549554955,624642.34784102,152.40238326435,2469686.8973274,48.095549554955,0,0
-31.845175107863,256.38073117025,42.899979998,624642.34784102,152.40238326435,2469686.8973274,48.099979998,0,0
-31.845175090444,256.40228890129,42.904410441044,624642.34784102,152.40238326435,2469686.8973274,48.104410441044,0,0
-31.845175073024,256.42384663232,42.908840884088,624642.34784102,152.40238326435,2469686.8973274,48.108840884088,0,0
-31.845175055605,256.44540436335,42.913271327133,624642.34784102,152.40238326435,2469686.8973274,48.113271327133,0,0
-31.845175038186,256.46696209439,42.917701770177,624642.34784102,152.40238326435,2469686.8973274,48.117701770177,0,0
-31.845175020766,256.48851982542,42.922132213221,624642.34784102,152.40238326435,2469686.8973274,48.122132213221,0,0
-31.845175003347,256.51007755645,42.926562656266,624642.34784102,152.40238326435,2469686.8973274,48.126562656266,0,0
-31.845174985928,256.53163528749,42.93099309931,624642.34784102,152.40238326435,2469686.8973274,48.13099309931,0,0
-31.845174968509,256.55319301852,42.935423542354,624642.34784102,152.40238326435,2469686.8973274,48.135423542354,0,0
-31.845174951089,256.57475074955,42.939853985399,624642.34784102,152.40238326435,2469686.8973274,48.139853985399,0,0
-31.84517493367,256.59630848059,42.944284428443,624642.34784102,152.40238326435,2469686.8973274,48.144284428443,0,0
-31.845174916251,256.61786621162,42.948714871487,624642.34784102,152.40238326435,2469686.8973274,48.148714871487,0,0
-31.845174898831,256.63942394265,42.953145314531,624642.34784102,152.40238326435,2469686.8973274,48.153145314531,0,0
-31.845174881412,256.66098167369,42.957575757576,624642.34784102,152.40238326435,2469686.8973274,48.157575757576,0,0
-31.845174863993,256.68253940472,42.96200620062,624642.34784102,152.40238326435,2469686.8973274,48.16200620062,0,0
-31.845174846573,256.70409713575,42.966436643664,624642.34784102,152.40238326435,2469686.8973274,48.166436643664,0,0
-31.845174829154,256.72565486679,42.970867086709,624642.34784102,152.40238326435,2469686.8973274,48.170867086709,0,0
-31.845174811735,256.74721259782,42.975297529753,624642.34784102,152.40238326435,2469686.8973274,48.175297529753,0,0
-31.845174794315,256.76877032885,42.979727972797,624642.34784102,152.40238326435,2469686.8973274,48.179727972797,0,0
-31.845174776896,256.79032805989,42.984158415842,624642.34784102,152.40238326435,2469686.8973274,48.184158415842,0,0
-31.845174759477,256.81188579092,42.988588858886,624642.34784102,152.40238326435,2469686.8973274,48.188588858886,0,0
-31.845174742057,256.83344352195,42.99301930193,624642.34784102,152.40238326435,2469686.8973274,48.19301930193,0,0
-31.845174724638,256.85500125299,42.997449744974,624642.34784102,152.40238326435,2469686.8973274,48.197449744974,0,0
-31.845174707219,256.87655898402,43.001880188019,624642.34784102,152.40238326435,2469686.8973274,48.201880188019,0,0
-31.8451746898,256.89811671505,43.006310631063,624642.34784102,152.40238326435,2469686.8973274,48.206310631063,0,0
-31.84517467238,256.91967444609,43.010741074107,624642.34784102,152.40238326435,2469686.8973274,48.210741074107,0,0
-31.845174654961,256.94123217712,43.015171517152,624642.34784102,152.40238326435,2469686.8973274,48.215171517152,0,0
-31.845174637542,256.96278990815,43.019601960196,624642.34784102,152.40238326435,2469686.8973274,48.219601960196,0,0
-31.845174620122,256.98434763919,43.02403240324,624642.34784102,152.40238326435,2469686.8973274,48.22403240324,0,0
-31.845174602703,257.00590537022,43.028462846285,624642.34784102,152.40238326435,2469686.8973274,48.228462846285,0,0
-31.845174585284,257.02746310126,43.032893289329,624642.34784102,152.40238326435,2469686.8973274,48.232893289329,0,0
-31.845174567864,257.04902083229,43.037323732373,624642.34784102,152.40238326435,2469686.8973274,48.237323732373,0,0
-31.845174550445,257.07057856332,43.041754175418,624642.34784102,152.40238326435,2469686.8973274,48.241754175418,0,0
-31.845174533026,257.09213629436,43.046184618462,624642.34784102,152.40238326435,2469686.8973274,48.246184618462,0,0
-31.845174515606,257.11369402539,43.050615061506,624642.34784102,152.40238326435,2469686.8973274,48.250615061506,0,0
-31.845174498187,257.13525175642,43.05504550455,624642.34784102,152.40238326435,2469686.8973274,48.25504550455,0,0
-31.845174480768,257.15680948746,43.059475947595,624642.34784102,152.40238326435,2469686.8973274,48.259475947595,0,0
-31.845174463348,257.17836721849,43.063906390639,624642.34784102,152.40238326435,2469686.8973274,48.263906390639,0,0
-31.845174445929,257.19992494952,43.068336833683,624642.34784102,152.40238326435,2469686.8973274,48.268336833683,0,0
-31.84517442851,257.22148268056,43.072767276728,624642.34784102,152.40238326435,2469686.8973274,48.272767276728,0,0
-31.845174411091,257.24304041159,43.077197719772,624642.34784102,152.40238326435,2469686.8973274,48.277197719772,0,0
-31.845174393671,257.26459814262,43.081628162816,624642.34784102,152.40238326435,2469686.8973274,48.281628162816,0,0
-31.845174376252,257.28615587366,43.086058605861,624642.34784102,152.40238326435,2469686.8973274,48.286058605861,0,0
-31.845174358833,257.30771360469,43.090489048905,624642.34784102,152.40238326435,2469686.8973274,48.290489048905,0,0
-31.845174341413,257.32927133572,43.094919491949,624642.34784102,152.40238326435,2469686.8973274,48.294919491949,0,0
-31.845174323994,257.35082906676,43.099349934993,624642.34784102,152.40238326435,2469686.8973274,48.299349934994,0,0
-31.845174306575,257.37238679779,43.103780378038,624642.34784102,152.40238326435,2469686.8973274,48.303780378038,0,0
-31.845174289155,257.39394452882,43.108210821082,624642.34784102,152.40238326435,2469686.8973274,48.308210821082,0,0
-31.845174271736,257.41550225986,43.112641264126,624642.34784102,152.40238326435,2469686.8973274,48.312641264126,0,0
-31.845174254317,257.43705999089,43.117071707171,624642.34784102,152.40238326435,2469686.8973274,48.317071707171,0,0
-31.845174236897,257.45861772192,43.121502150215,624642.34784102,152.40238326435,2469686.8973274,48.321502150215,0,0
-31.845174219478,257.48017545296,43.125932593259,624642.34784102,152.40238326435,2469686.8973274,48.325932593259,0,0
-31.845174202059,257.50173318399,43.130363036304,624642.34784102,152.40238326435,2469686.8973274,48.330363036304,0,0
-31.845174184639,257.52329091502,43.134793479348,624642.34784102,152.40238326435,2469686.8973274,48.334793479348,0,0
-31.84517416722,257.54484864606,43.139223922392,624642.34784102,152.40238326435,2469686.8973274,48.339223922392,0,0
-31.845174149801,257.56640637709,43.143654365437,624642.34784102,152.40238326435,2469686.8973274,48.343654365437,0,0
-31.845174132382,257.58796410812,43.148084808481,624642.34784102,152.40238326435,2469686.8973274,48.348084808481,0,0
-31.845174114962,257.60952183916,43.152515251525,624642.34784102,152.40238326435,2469686.8973274,48.352515251525,0,0
-31.845174097543,257.63107957019,43.156945694569,624642.34784102,152.40238326435,2469686.8973274,48.356945694569,0,0
-31.845174080124,257.65263730122,43.161376137614,624642.34784102,152.40238326435,2469686.8973274,48.361376137614,0,0
-31.845174062704,257.67419503226,43.165806580658,624642.34784102,152.40238326435,2469686.8973274,48.365806580658,0,0
-31.845174045285,257.69575276329,43.170237023702,624642.34784102,152.40238326435,2469686.8973274,48.370237023702,0,0
-31.845174027866,257.71731049432,43.174667466747,624642.34784102,152.40238326435,2469686.8973274,48.374667466747,0,0
-31.845174010446,257.73886822536,43.179097909791,624642.34784102,152.40238326435,2469686.8973274,48.379097909791,0,0
-31.845173993027,257.76042595639,43.183528352835,624642.34784102,152.40238326435,2469686.8973274,48.383528352835,0,0
-31.845173975608,257.78198368743,43.18795879588,624642.34784102,152.40238326435,2469686.8973274,48.38795879588,0,0
-31.845173958188,257.80354141846,43.192389238924,624642.34784102,152.40238326435,2469686.8973274,48.392389238924,0,0
-31.845173940769,257.82509914949,43.196819681968,624642.34784102,152.40238326435,2469686.8973274,48.396819681968,0,0
-31.84517392335,257.84665688053,43.201250125012,624642.34784102,152.40238326435,2469686.8973274,48.401250125013,0,0
-31.84517390593,257.86821461156,43.205680568057,624642.34784102,152.40238326435,2469686.8973274,48.405680568057,0,0
-31.845173888511,257.88977234259,43.210111011101,624642.34784102,152.40238326435,2469686.8973274,48.410111011101,0,0
-31.845173871092,257.91133007363,43.214541454145,624642.34784102,152.40238326435,2469686.8973274,48.414541454145,0,0
-31.845173853673,257.93288780466,43.21897189719,624642.34784102,152.40238326435,2469686.8973274,48.41897189719,0,0
-31.845173836253,257.95444553569,43.223402340234,624642.34784102,152.40238326435,2469686.8973274,48.423402340234,0,0
-31.845173818834,257.97600326673,43.227832783278,624642.34784102,152.40238326435,2469686.8973274,48.427832783278,0,0
-31.845173801415,257.99756099776,43.232263226323,624642.34784102,152.40238326435,2469686.8973274,48.432263226323,0,0
-31.845173783995,258.01911872879,43.236693669367,624642.34784102,152.40238326435,2469686.8973274,48.436693669367,0,0
-31.845173766576,258.04067645983,43.241124112411,624642.34784102,152.40238326435,2469686.8973274,48.441124112411,0,0
-31.845173749157,258.06223419086,43.245554555456,624642.34784102,152.40238326435,2469686.8973274,48.445554555456,0,0
-31.845173731737,258.08379192189,43.2499849985,624642.34784102,152.40238326435,2469686.8973274,48.4499849985,0,0
-31.845173714318,258.10534965293,43.254415441544,624642.34784102,152.40238326435,2469686.8973274,48.454415441544,0,0
-31.845173696899,258.12690738396,43.258845884588,624642.34784102,152.40238326435,2469686.8973274,48.458845884588,0,0
-31.845173679479,258.14846511499,43.263276327633,624642.34784102,152.40238326435,2469686.8973274,48.463276327633,0,0
-31.84517366206,258.17002284603,43.267706770677,624642.34784102,152.40238326435,2469686.8973274,48.467706770677,0,0
-31.845173644641,258.19158057706,43.272137213721,624642.34784102,152.40238326435,2469686.8973274,48.472137213721,0,0
-31.845173627221,258.21313830809,43.276567656766,624642.34784102,152.40238326435,2469686.8973274,48.476567656766,0,0
-31.845173609802,258.23469603913,43.28099809981,624642.34784102,152.40238326435,2469686.8973274,48.48099809981,0,0
-31.845173592383,258.25625377016,43.285428542854,624642.34784102,152.40238326435,2469686.8973274,48.485428542854,0,0
-31.845173574964,258.27781150119,43.289858985899,624642.34784102,152.40238326435,2469686.8973274,48.489858985899,0,0
-31.845173557544,258.29936923223,43.294289428943,624642.34784102,152.40238326435,2469686.8973274,48.494289428943,0,0
-31.845173540125,258.32092696326,43.298719871987,624642.34784102,152.40238326435,2469686.8973274,48.498719871987,0,0
-31.845173522706,258.34248469429,43.303150315032,624642.34784102,152.40238326435,2469686.8973274,48.503150315032,0,0
-31.845173505286,258.36404242533,43.307580758076,624642.34784102,152.40238326435,2469686.8973274,48.507580758076,0,0
-31.845173487867,258.38560015636,43.31201120112,624642.34784102,152.40238326435,2469686.8973274,48.51201120112,0,0
-31.845173470448,258.40715788739,43.316441644164,624642.34784102,152.40238326435,2469686.8973274,48.516441644164,0,0
-31.845173453028,258.42871561843,43.320872087209,624642.34784102,152.40238326435,2469686.8973274,48.520872087209,0,0
-31.845173435609,258.45027334946,43.325302530253,624642.34784102,152.40238326435,2469686.8973274,48.525302530253,0,0
-31.84517341819,258.47183108049,43.329732973297,624642.34784102,152.40238326435,2469686.8973274,48.529732973297,0,0
-31.84517340077,258.49338881153,43.334163416342,624642.34784102,152.40238326435,2469686.8973274,48.534163416342,0,0
-31.845173383351,258.51494654256,43.338593859386,624642.34784102,152.40238326435,2469686.8973274,48.538593859386,0,0
-31.845173365932,258.53650427359,43.34302430243,624642.34784102,152.40238326435,2469686.8973274,48.54302430243,0,0
-31.845173348512,258.55806200463,43.347454745475,624642.34784102,152.40238326435,2469686.8973274,48.547454745475,0,0
-31.845173331093,258.57961973566,43.351885188519,624642.34784102,152.40238326435,2469686.8973274,48.551885188519,0,0
-31.845173313674,258.6011774667,43.356315631563,624642.34784102,152.40238326435,2469686.8973274,48.556315631563,0,0
-31.845173296254,258.62273519773,43.360746074607,624642.34784102,152.40238326435,2469686.8973274,48.560746074607,0,0
-31.845173278835,258.64429292876,43.365176517652,624642.34784102,152.40238326435,2469686.8973274,48.565176517652,0,0
-31.845173261416,258.6658506598,43.369606960696,624642.34784102,152.40238326435,2469686.8973274,48.569606960696,0,0
-31.845173243997,258.68740839083,43.37403740374,624642.34784102,152.40238326435,2469686.8973274,48.57403740374,0,0
-31.845173226577,258.70896612186,43.378467846785,624642.34784102,152.40238326435,2469686.8973274,48.578467846785,0,0
-31.845173209158,258.7305238529,43.382898289829,624642.34784102,152.40238326435,2469686.8973274,48.582898289829,0,0
-31.845173191739,258.75208158393,43.387328732873,624642.34784102,152.40238326435,2469686.8973274,48.587328732873,0,0
-31.845173174319,258.77363931496,43.391759175918,624642.34784102,152.40238326435,2469686.8973274,48.591759175918,0,0
-31.8451731569,258.795197046,43.396189618962,624642.34784102,152.40238326435,2469686.8973274,48.596189618962,0,0
-31.845173139481,258.81675477703,43.400620062006,624642.34784102,152.40238326435,2469686.8973274,48.600620062006,0,0
-31.845173122061,258.83831250806,43.405050505051,624642.34784102,152.40238326435,2469686.8973274,48.605050505051,0,0
-31.845173104642,258.8598702391,43.409480948095,624642.34784102,152.40238326435,2469686.8973274,48.609480948095,0,0
-31.845173087223,258.88142797013,43.413911391139,624642.34784102,152.40238326435,2469686.8973274,48.613911391139,0,0
-31.845173069803,258.90298570116,43.418341834183,624642.34784102,152.40238326435,2469686.8973274,48.618341834183,0,0
-31.845173052384,258.9245434322,43.422772277228,624642.34784102,152.40238326435,2469686.8973274,48.622772277228,0,0
-31.845173034965,258.94610116323,43.427202720272,624642.34784102,152.40238326435,2469686.8973274,48.627202720272,0,0
-31.845173017545,258.96765889426,43.431633163316,624642.34784102,152.40238326435,2469686.8973274,48.631633163316,0,0
-31.845173000126,258.9892166253,43.436063606361,624642.34784102,152.40238326435,2469686.8973274,48.636063606361,0,0
-31.845172982707,259.01077435633,43.440494049405,624642.34784102,152.40238326435,2469686.8973274,48.640494049405,0,0
-31.845172965288,259.03233208736,43.444924492449,624642.34784102,152.40238326435,2469686.8973274,48.644924492449,0,0
-31.845172947868,259.0538898184,43.449354935494,624642.34784102,152.40238326435,2469686.8973274,48.649354935494,0,0
-31.845172930449,259.07544754943,43.453785378538,624642.34784102,152.40238326435,2469686.8973274,48.653785378538,0,0
-31.84517291303,259.09700528046,43.458215821582,624642.34784102,152.40238326435,2469686.8973274,48.658215821582,0,0
-31.84517289561,259.1185630115,43.462646264626,624642.34784102,152.40238326435,2469686.8973274,48.662646264626,0,0
-31.845172878191,259.14012074253,43.467076707671,624642.34784102,152.40238326435,2469686.8973274,48.667076707671,0,0
-31.845172860772,259.16167847356,43.471507150715,624642.34784102,152.40238326435,2469686.8973274,48.671507150715,0,0
-31.845172843352,259.1832362046,43.475937593759,624642.34784102,152.40238326435,2469686.8973274,48.675937593759,0,0
-31.845172825933,259.20479393563,43.480368036804,624642.34784102,152.40238326435,2469686.8973274,48.680368036804,0,0
-31.845172808514,259.22635166666,43.484798479848,624642.34784102,152.40238326435,2469686.8973274,48.684798479848,0,0
-31.845172791094,259.2479093977,43.489228922892,624642.34784102,152.40238326435,2469686.8973274,48.689228922892,0,0
-31.845172773675,259.26946712873,43.493659365937,624642.34784102,152.40238326435,2469686.8973274,48.693659365937,0,0
-31.845172756256,259.29102485976,43.498089808981,624642.34784102,152.40238326435,2469686.8973274,48.698089808981,0,0
-31.845172738836,259.3125825908,43.502520252025,624642.34784102,152.40238326435,2469686.8973274,48.702520252025,0,0
-31.845172721417,259.33414032183,43.50695069507,624642.34784102,152.40238326435,2469686.8973274,48.70695069507,0,0
-31.845172703998,259.35569805286,43.511381138114,624642.34784102,152.40238326435,2469686.8973274,48.711381138114,0,0
-31.845172686579,259.3772557839,43.515811581158,624642.34784102,152.40238326435,2469686.8973274,48.715811581158,0,0
-31.845172669159,259.39881351493,43.520242024202,624642.34784102,152.40238326435,2469686.8973274,48.720242024202,0,0
-31.84517265174,259.42037124597,43.524672467247,624642.34784102,152.40238326435,2469686.8973274,48.724672467247,0,0
-31.845172634321,259.441928977,43.529102910291,624642.34784102,152.40238326435,2469686.8973274,48.729102910291,0,0
-31.845172616901,259.46348670803,43.533533353335,624642.34784102,152.40238326435,2469686.8973274,48.733533353335,0,0
-31.845172599482,259.48504443907,43.53796379638,624642.34784102,152.40238326435,2469686.8973274,48.73796379638,0,0
-31.845172582063,259.5066021701,43.542394239424,624642.34784102,152.40238326435,2469686.8973274,48.742394239424,0,0
-31.845172564643,259.52815990113,43.546824682468,624642.34784102,152.40238326435,2469686.8973274,48.746824682468,0,0
-31.845172547224,259.54971763217,43.551255125513,624642.34784102,152.40238326435,2469686.8973274,48.751255125513,0,0
-31.845172529805,259.5712753632,43.555685568557,624642.34784102,152.40238326435,2469686.8973274,48.755685568557,0,0
-31.845172512385,259.59283309423,43.560116011601,624642.34784102,152.40238326435,2469686.8973274,48.760116011601,0,0
-31.845172494966,259.61439082527,43.564546454645,624642.34784102,152.40238326435,2469686.8973274,48.764546454645,0,0
-31.845172477547,259.6359485563,43.56897689769,624642.34784102,152.40238326435,2469686.8973274,48.76897689769,0,0
-31.845172460127,259.65750628733,43.573407340734,624642.34784102,152.40238326435,2469686.8973274,48.773407340734,0,0
-31.845172442708,259.67906401837,43.577837783778,624642.34784102,152.40238326435,2469686.8973274,48.777837783778,0,0
-31.845172425289,259.7006217494,43.582268226823,624642.34784102,152.40238326435,2469686.8973274,48.782268226823,0,0
-31.84517240787,259.72217948043,43.586698669867,624642.34784102,152.40238326435,2469686.8973274,48.786698669867,0,0
-31.84517239045,259.74373721147,43.591129112911,624642.34784102,152.40238326435,2469686.8973274,48.791129112911,0,0
-31.845172373031,259.7652949425,43.595559555956,624642.34784102,152.40238326435,2469686.8973274,48.795559555956,0,0
-31.845172355612,259.78685267353,43.599989999,624642.34784102,152.40238326435,2469686.8973274,48.799989999,0,0
-31.845172338192,259.80841040457,43.604420442044,624642.34784102,152.40238326435,2469686.8973274,48.804420442044,0,0
-31.845172320773,259.8299681356,43.608850885089,624642.34784102,152.40238326435,2469686.8973274,48.808850885089,0,0
-31.845172303354,259.85152586663,43.613281328133,624642.34784102,152.40238326435,2469686.8973274,48.813281328133,0,0
-31.845172285934,259.87308359767,43.617711771177,624642.34784102,152.40238326435,2469686.8973274,48.817711771177,0,0
-31.845172268515,259.8946413287,43.622142214221,624642.34784102,152.40238326435,2469686.8973274,48.822142214221,0,0
-31.845172251096,259.91619905973,43.626572657266,624642.34784102,152.40238326435,2469686.8973274,48.826572657266,0,0
-31.845172233676,259.93775679077,43.63100310031,624642.34784102,152.40238326435,2469686.8973274,48.83100310031,0,0
-31.845172216257,259.9593145218,43.635433543354,624642.34784102,152.40238326435,2469686.8973274,48.835433543354,0,0
-31.845172198838,259.98087225283,43.639863986399,624642.34784102,152.40238326435,2469686.8973274,48.839863986399,0,0
-31.845172181418,260.00242998387,43.644294429443,624642.34784102,152.40238326435,2469686.8973274,48.844294429443,0,0
-31.845172163999,260.0239877149,43.648724872487,624642.34784102,152.40238326435,2469686.8973274,48.848724872487,0,0
-31.84517214658,260.04554544593,43.653155315532,624642.34784102,152.40238326435,2469686.8973274,48.853155315532,0,0
-31.845172129161,260.06710317697,43.657585758576,624642.34784102,152.40238326435,2469686.8973274,48.857585758576,0,0
-31.845172111741,260.088660908,43.66201620162,624642.34784102,152.40238326435,2469686.8973274,48.86201620162,0,0
-31.845172094322,260.11021863903,43.666446644664,624642.34784102,152.40238326435,2469686.8973274,48.866446644664,0,0
-31.845172076903,260.13177637007,43.670877087709,624642.34784102,152.40238326435,2469686.8973274,48.870877087709,0,0
-31.845172059483,260.1533341011,43.675307530753,624642.34784102,152.40238326435,2469686.8973274,48.875307530753,0,0
-31.845172042064,260.17489183214,43.679737973797,624642.34784102,152.40238326435,2469686.8973274,48.879737973797,0,0
-31.845172024645,260.19644956317,43.684168416842,624642.34784102,152.40238326435,2469686.8973274,48.884168416842,0,0
-31.845172007225,260.2180072942,43.688598859886,624642.34784102,152.40238326435,2469686.8973274,48.888598859886,0,0
-31.845171989806,260.23956502524,43.69302930293,624642.34784102,152.40238326435,2469686.8973274,48.89302930293,0,0
-31.845171972387,260.26112275627,43.697459745975,624642.34784102,152.40238326435,2469686.8973274,48.897459745975,0,0
-31.845171954967,260.2826804873,43.701890189019,624642.34784102,152.40238326435,2469686.8973274,48.901890189019,0,0
-31.845171937548,260.30423821834,43.706320632063,624642.34784102,152.40238326435,2469686.8973274,48.906320632063,0,0
-31.845171920129,260.32579594937,43.710751075108,624642.34784102,152.40238326435,2469686.8973274,48.910751075108,0,0
-31.845171902709,260.3473536804,43.715181518152,624642.34784102,152.40238326435,2469686.8973274,48.915181518152,0,0
-31.84517188529,260.36891141144,43.719611961196,624642.34784102,152.40238326435,2469686.8973274,48.919611961196,0,0
-31.845171867871,260.39046914247,43.72404240424,624642.34784102,152.40238326435,2469686.8973274,48.92404240424,0,0
-31.845171850452,260.4120268735,43.728472847285,624642.34784102,152.40238326435,2469686.8973274,48.928472847285,0,0
-31.845171833032,260.43358460454,43.732903290329,624642.34784102,152.40238326435,2469686.8973274,48.932903290329,0,0
-31.845171815613,260.45514233557,43.737333733373,624642.34784102,152.40238326435,2469686.8973274,48.937333733373,0,0
-31.845171798194,260.4767000666,43.741764176418,624642.34784102,152.40238326435,2469686.8973274,48.941764176418,0,0
-31.845171780774,260.49825779764,43.746194619462,624642.34784102,152.40238326435,2469686.8973274,48.946194619462,0,0
-31.845171763355,260.51981552867,43.750625062506,624642.34784102,152.40238326435,2469686.8973274,48.950625062506,0,0
-31.845171745936,260.5413732597,43.755055505551,624642.34784102,152.40238326435,2469686.8973274,48.955055505551,0,0
-31.845171728516,260.56293099074,43.759485948595,624642.34784102,152.40238326435,2469686.8973274,48.959485948595,0,0
-31.845171711097,260.58448872177,43.763916391639,624642.34784102,152.40238326435,2469686.8973274,48.963916391639,0,0
-31.845171693678,260.6060464528,43.768346834683,624642.34784102,152.40238326435,2469686.8973274,48.968346834683,0,0
-31.845171676258,260.62760418384,43.772777277728,624642.34784102,152.40238326435,2469686.8973274,48.972777277728,0,0
-31.845171658839,260.64916191487,43.777207720772,624642.34784102,152.40238326435,2469686.8973274,48.977207720772,0,0
-31.84517164142,260.6707196459,43.781638163816,624642.34784102,152.40238326435,2469686.8973274,48.981638163816,0,0
-31.845171624,260.69227737694,43.786068606861,624642.34784102,152.40238326435,2469686.8973274,48.986068606861,0,0
-31.845171606581,260.71383510797,43.790499049905,624642.34784102,152.40238326435,2469686.8973274,48.990499049905,0,0
-31.845171589162,260.735392839,43.794929492949,624642.34784102,152.40238326435,2469686.8973274,48.994929492949,0,0
-31.845171571742,260.75695057004,43.799359935994,624642.34784102,152.40238326435,2469686.8973274,48.999359935994,0,0
-31.845171554323,260.77850830107,43.803790379038,624642.34784102,152.40238326435,2469686.8973274,49.003790379038,0,0
-31.845171536904,260.8000660321,43.808220822082,624642.34784102,152.40238326435,2469686.8973274,49.008220822082,0,0
-31.845171519485,260.82162376314,43.812651265127,624642.34784102,152.40238326435,2469686.8973274,49.012651265127,0,0
-31.845171502065,260.84318149417,43.817081708171,624642.34784102,152.40238326435,2469686.8973274,49.017081708171,0,0
-31.845171484646,260.8647392252,43.821512151215,624642.34784102,152.40238326435,2469686.8973274,49.021512151215,0,0
-31.845171467227,260.88629695624,43.825942594259,624642.34784102,152.40238326435,2469686.8973274,49.025942594259,0,0
-31.845171449807,260.90785468727,43.830373037304,624642.34784102,152.40238326435,2469686.8973274,49.030373037304,0,0
-31.845171432388,260.9294124183,43.834803480348,624642.34784102,152.40238326435,2469686.8973274,49.034803480348,0,0
-31.845171414969,260.95097014934,43.839233923392,624642.34784102,152.40238326435,2469686.8973274,49.039233923392,0,0
-31.845171397549,260.97252788037,43.843664366437,624642.34784102,152.40238326435,2469686.8973274,49.043664366437,0,0
-31.84517138013,260.99408561141,43.848094809481,624642.34784102,152.40238326435,2469686.8973274,49.048094809481,0,0
-31.845171362711,261.01564334244,43.852525252525,624642.34784102,152.40238326435,2469686.8973274,49.052525252525,0,0
-31.845171345291,261.03720107347,43.85695569557,624642.34784102,152.40238326435,2469686.8973274,49.05695569557,0,0
-31.845171327872,261.05875880451,43.861386138614,624642.34784102,152.40238326435,2469686.8973274,49.061386138614,0,0
-31.845171310453,261.08031653554,43.865816581658,624642.34784102,152.40238326435,2469686.8973274,49.065816581658,0,0
-31.845171293033,261.10187426657,43.870247024702,624642.34784102,152.40238326435,2469686.8973274,49.070247024702,0,0
-31.845171275614,261.12343199761,43.874677467747,624642.34784102,152.40238326435,2469686.8973274,49.074677467747,0,0
-31.845171258195,261.14498972864,43.879107910791,624642.34784102,152.40238326435,2469686.8973274,49.079107910791,0,0
-31.845171240776,261.16654745967,43.883538353835,624642.34784102,152.40238326435,2469686.8973274,49.083538353835,0,0
-31.845171223356,261.18810519071,43.88796879688,624642.34784102,152.40238326435,2469686.8973274,49.08796879688,0,0
-31.845171205937,261.20966292174,43.892399239924,624642.34784102,152.40238326435,2469686.8973274,49.092399239924,0,0
-31.845171188518,261.23122065277,43.896829682968,624642.34784102,152.40238326435,2469686.8973274,49.096829682968,0,0
-31.845171171098,261.25277838381,43.901260126013,624642.34784102,152.40238326435,2469686.8973274,49.101260126013,0,0
-31.845171153679,261.27433611484,43.905690569057,624642.34784102,152.40238326435,2469686.8973274,49.105690569057,0,0
-31.84517113626,261.29589384587,43.910121012101,624642.34784102,152.40238326435,2469686.8973274,49.110121012101,0,0
-31.84517111884,261.31745157691,43.914551455146,624642.34784102,152.40238326435,2469686.8973274,49.114551455146,0,0
-31.845171101421,261.33900930794,43.91898189819,624642.34784102,152.40238326435,2469686.8973274,49.11898189819,0,0
-31.845171084002,261.36056703897,43.923412341234,624642.34784102,152.40238326435,2469686.8973274,49.123412341234,0,0
-31.845171066582,261.38212477001,43.927842784278,624642.34784102,152.40238326435,2469686.8973274,49.127842784278,0,0
-31.845171049163,261.40368250104,43.932273227323,624642.34784102,152.40238326435,2469686.8973274,49.132273227323,0,0
-31.845171031744,261.42524023207,43.936703670367,624642.34784102,152.40238326435,2469686.8973274,49.136703670367,0,0
-31.845171014324,261.44679796311,43.941134113411,624642.34784102,152.40238326435,2469686.8973274,49.141134113411,0,0
-31.845170996905,261.46835569414,43.945564556456,624642.34784102,152.40238326435,2469686.8973274,49.145564556456,0,0
-31.845170979486,261.48991342517,43.9499949995,624642.34784102,152.40238326435,2469686.8973274,49.1499949995,0,0
-31.845170962067,261.51147115621,43.954425442544,624642.34784102,152.40238326435,2469686.8973274,49.154425442544,0,0
-31.845170944647,261.53302888724,43.958855885589,624642.34784102,152.40238326435,2469686.8973274,49.158855885589,0,0
-31.845170927228,261.55458661827,43.963286328633,624642.34784102,152.40238326435,2469686.8973274,49.163286328633,0,0
-31.845170909809,261.57614434931,43.967716771677,624642.34784102,152.40238326435,2469686.8973274,49.167716771677,0,0
-31.845170892389,261.59770208034,43.972147214721,624642.34784102,152.40238326435,2469686.8973274,49.172147214721,0,0
-31.84517087497,261.61925981137,43.976577657766,624642.34784102,152.40238326435,2469686.8973274,49.176577657766,0,0
-31.845170857551,261.64081754241,43.98100810081,624642.34784102,152.40238326435,2469686.8973274,49.18100810081,0,0
-31.845170840131,261.66237527344,43.985438543854,624642.34784102,152.40238326435,2469686.8973274,49.185438543854,0,0
-31.845170822712,261.68393300447,43.989868986899,624642.34784102,152.40238326435,2469686.8973274,49.189868986899,0,0
-31.845170805293,261.70549073551,43.994299429943,624642.34784102,152.40238326435,2469686.8973274,49.194299429943,0,0
-31.845170787873,261.72704846654,43.998729872987,624642.34784102,152.40238326435,2469686.8973274,49.198729872987,0,0
-31.845170770454,261.74860619758,44.003160316032,624642.34784102,152.40238326435,2469686.8973274,49.203160316032,0,0
-31.845170753035,261.77016392861,44.007590759076,624642.34784102,152.40238326435,2469686.8973274,49.207590759076,0,0
-31.845170735615,261.79172165964,44.01202120212,624642.34784102,152.40238326435,2469686.8973274,49.21202120212,0,0
-31.845170718196,261.81327939068,44.016451645165,624642.34784102,152.40238326435,2469686.8973274,49.216451645165,0,0
-31.845170700777,261.83483712171,44.020882088209,624642.34784102,152.40238326435,2469686.8973274,49.220882088209,0,0
-31.845170683358,261.85639485274,44.025312531253,624642.34784102,152.40238326435,2469686.8973274,49.225312531253,0,0
-31.845170665938,261.87795258378,44.029742974297,624642.34784102,152.40238326435,2469686.8973274,49.229742974297,0,0
-31.845170648519,261.89951031481,44.034173417342,624642.34784102,152.40238326435,2469686.8973274,49.234173417342,0,0
-31.8451706311,261.92106804584,44.038603860386,624642.34784102,152.40238326435,2469686.8973274,49.238603860386,0,0
-31.84517061368,261.94262577688,44.04303430343,624642.34784102,152.40238326435,2469686.8973274,49.24303430343,0,0
-31.845170596261,261.96418350791,44.047464746475,624642.34784102,152.40238326435,2469686.8973274,49.247464746475,0,0
-31.845170578842,261.98574123894,44.051895189519,624642.34784102,152.40238326435,2469686.8973274,49.251895189519,0,0
-31.845170561422,262.00729896998,44.056325632563,624642.34784102,152.40238326435,2469686.8973274,49.256325632563,0,0
-31.845170544003,262.02885670101,44.060756075608,624642.34784102,152.40238326435,2469686.8973274,49.260756075608,0,0
-31.845170526584,262.05041443204,44.065186518652,624642.34784102,152.40238326435,2469686.8973274,49.265186518652,0,0
-31.845170509164,262.07197216308,44.069616961696,624642.34784102,152.40238326435,2469686.8973274,49.269616961696,0,0
-31.845170491745,262.09352989411,44.07404740474,624642.34784102,152.40238326435,2469686.8973274,49.27404740474,0,0
-31.845170474326,262.11508762514,44.078477847785,624642.34784102,152.40238326435,2469686.8973274,49.278477847785,0,0
-31.845170456906,262.13664535618,44.082908290829,624642.34784102,152.40238326435,2469686.8973274,49.282908290829,0,0
-31.845170439487,262.15820308721,44.087338733873,624642.34784102,152.40238326435,2469686.8973274,49.287338733873,0,0
-31.845170422068,262.17976081824,44.091769176918,624642.34784102,152.40238326435,2469686.8973274,49.291769176918,0,0
-31.845170404649,262.20131854928,44.096199619962,624642.34784102,152.40238326435,2469686.8973274,49.296199619962,0,0
-31.845170387229,262.22287628031,44.100630063006,624642.34784102,152.40238326435,2469686.8973274,49.300630063006,0,0
-31.84517036981,262.24443401134,44.105060506051,624642.34784102,152.40238326435,2469686.8973274,49.305060506051,0,0
-31.845170352391,262.26599174238,44.109490949095,624642.34784102,152.40238326435,2469686.8973274,49.309490949095,0,0
-31.845170334971,262.28754947341,44.113921392139,624642.34784102,152.40238326435,2469686.8973274,49.313921392139,0,0
-31.845170317552,262.30910720444,44.118351835184,624642.34784102,152.40238326435,2469686.8973274,49.318351835184,0,0
-31.845170300133,262.33066493548,44.122782278228,624642.34784102,152.40238326435,2469686.8973274,49.322782278228,0,0
-31.845170282713,262.35222266651,44.127212721272,624642.34784102,152.40238326435,2469686.8973274,49.327212721272,0,0
-31.845170265294,262.37378039754,44.131643164316,624642.34784102,152.40238326435,2469686.8973274,49.331643164316,0,0
-31.845170247875,262.39533812858,44.136073607361,624642.34784102,152.40238326435,2469686.8973274,49.336073607361,0,0
-31.845170230455,262.41689585961,44.140504050405,624642.34784102,152.40238326435,2469686.8973274,49.340504050405,0,0
-31.845170213036,262.43845359064,44.144934493449,624642.34784102,152.40238326435,2469686.8973274,49.344934493449,0,0
-31.845170195617,262.46001132168,44.149364936494,624642.34784102,152.40238326435,2469686.8973274,49.349364936494,0,0
-31.845170178197,262.48156905271,44.153795379538,624642.34784102,152.40238326435,2469686.8973274,49.353795379538,0,0
-31.845170160778,262.50312678374,44.158225822582,624642.34784102,152.40238326435,2469686.8973274,49.358225822582,0,0
-31.845170143359,262.52468451478,44.162656265627,624642.34784102,152.40238326435,2469686.8973274,49.362656265627,0,0
-31.84517012594,262.54624224581,44.167086708671,624642.34784102,152.40238326435,2469686.8973274,49.367086708671,0,0
-31.84517010852,262.56779997685,44.171517151715,624642.34784102,152.40238326435,2469686.8973274,49.371517151715,0,0
-31.845170091101,262.58935770788,44.175947594759,624642.34784102,152.40238326435,2469686.8973274,49.375947594759,0,0
-31.845170073682,262.61091543891,44.180378037804,624642.34784102,152.40238326435,2469686.8973274,49.380378037804,0,0
-31.845170056262,262.63247316995,44.184808480848,624642.34784102,152.40238326435,2469686.8973274,49.384808480848,0,0
-31.845170038843,262.65403090098,44.189238923892,624642.34784102,152.40238326435,2469686.8973274,49.389238923892,0,0
-31.845170021424,262.67558863201,44.193669366937,624642.34784102,152.40238326435,2469686.8973274,49.393669366937,0,0
-31.845170004004,262.69714636305,44.198099809981,624642.34784102,152.40238326435,2469686.8973274,49.398099809981,0,0
-31.845169986585,262.71870409408,44.202530253025,624642.34784102,152.40238326435,2469686.8973274,49.402530253025,0,0
-31.845169969166,262.74026182511,44.20696069607,624642.34784102,152.40238326435,2469686.8973274,49.40696069607,0,0
-31.845169951746,262.76181955615,44.211391139114,624642.34784102,152.40238326435,2469686.8973274,49.411391139114,0,0
-31.845169934327,262.78337728718,44.215821582158,624642.34784102,152.40238326435,2469686.8973274,49.415821582158,0,0
-31.845169916908,262.80493501821,44.220252025203,624642.34784102,152.40238326435,2469686.8973274,49.420252025203,0,0
-31.845169899488,262.82649274925,44.224682468247,624642.34784102,152.40238326435,2469686.8973274,49.424682468247,0,0
-31.845169882069,262.84805048028,44.229112911291,624642.34784102,152.40238326435,2469686.8973274,49.429112911291,0,0
-31.84516986465,262.86960821131,44.233543354335,624642.34784102,152.40238326435,2469686.8973274,49.433543354335,0,0
-31.84516984723,262.89116594235,44.23797379738,624642.34784102,152.40238326435,2469686.8973274,49.43797379738,0,0
-31.845169829811,262.91272367338,44.242404240424,624642.34784102,152.40238326435,2469686.8973274,49.442404240424,0,0
-31.845169812392,262.93428140441,44.246834683468,624642.34784102,152.40238326435,2469686.8973274,49.446834683468,0,0
-31.845169794973,262.95583913545,44.251265126513,624642.34784102,152.40238326435,2469686.8973274,49.451265126513,0,0
-31.845169777553,262.97739686648,44.255695569557,624642.34784102,152.40238326435,2469686.8973274,49.455695569557,0,0
-31.845169760134,262.99895459751,44.260126012601,624642.34784102,152.40238326435,2469686.8973274,49.460126012601,0,0
-31.845169742715,263.02051232855,44.264556455646,624642.34784102,152.40238326435,2469686.8973274,49.464556455646,0,0
-31.845169725295,263.04207005958,44.26898689869,624642.34784102,152.40238326435,2469686.8973274,49.46898689869,0,0
-31.845169707876,263.06362779061,44.273417341734,624642.34784102,152.40238326435,2469686.8973274,49.473417341734,0,0
-31.845169690457,263.08518552165,44.277847784778,624642.34784102,152.40238326435,2469686.8973274,49.477847784778,0,0
-31.845169673037,263.10674325268,44.282278227823,624642.34784102,152.40238326435,2469686.8973274,49.482278227823,0,0
-31.845169655618,263.12830098371,44.286708670867,624642.34784102,152.40238326435,2469686.8973274,49.486708670867,0,0
-31.845169638199,263.14985871475,44.291139113911,624642.34784102,152.40238326435,2469686.8973274,49.491139113911,0,0
-31.845169620779,263.17141644578,44.295569556956,624642.34784102,152.40238326435,2469686.8973274,49.495569556956,0,0
-31.84516960336,263.19297417681,44.3,624642.34784102,152.40238326435,2469686.8973274,49.5,0,0
